# vtk DataFile Version 3.0
vtk output
ASCII
DATASET UNSTRUCTURED_GRID
POINTS       496 double 
  0.00000000E+00  3.00000000E+02  0.00000000E+00
  0.00000000E+00  2.80000000E+02  0.00000000E+00
  0.00000000E+00  2.60000000E+02  0.00000000E+00
  0.00000000E+00  2.40000000E+02  0.00000000E+00
  0.00000000E+00  2.20000000E+02  0.00000000E+00
  0.00000000E+00  2.00000000E+02  0.00000000E+00
  0.00000000E+00  1.80000000E+02  0.00000000E+00
  0.00000000E+00  1.60000000E+02  0.00000000E+00
  0.00000000E+00  1.40000000E+02  0.00000000E+00
  0.00000000E+00  1.20000000E+02  0.00000000E+00
  0.00000000E+00  1.00000000E+02  0.00000000E+00
  0.00000000E+00  8.00000000E+01  0.00000000E+00
  0.00000000E+00  6.00000000E+01  0.00000000E+00
  0.00000000E+00  4.00000000E+01  0.00000000E+00
  0.00000000E+00  2.00000000E+01  0.00000000E+00
  0.00000000E+00  4.99600361E-14  0.00000000E+00
  2.00000000E+01  3.00000000E+02  0.00000000E+00
  2.00000000E+01  2.80000000E+02  0.00000000E+00
  2.00000000E+01  2.60000000E+02  0.00000000E+00
  2.00000000E+01  2.40000000E+02  0.00000000E+00
  2.00000000E+01  2.20000000E+02  0.00000000E+00
  2.00000000E+01  2.00000000E+02  0.00000000E+00
  2.00000000E+01  1.80000000E+02  0.00000000E+00
  2.00000000E+01  1.60000000E+02  0.00000000E+00
  2.00000000E+01  1.40000000E+02  0.00000000E+00
  2.00000000E+01  1.20000000E+02  0.00000000E+00
  2.00000000E+01  1.00000000E+02  0.00000000E+00
  2.00000000E+01  8.00000000E+01  0.00000000E+00
  2.00000000E+01  6.00000000E+01  0.00000000E+00
  2.00000000E+01  4.00000000E+01  0.00000000E+00
  2.00000000E+01  2.00000000E+01  0.00000000E+00
  2.00000000E+01  4.99600361E-14  0.00000000E+00
  4.00000000E+01  3.00000000E+02  0.00000000E+00
  4.00000000E+01  2.80000000E+02  0.00000000E+00
  4.00000000E+01  2.60000000E+02  0.00000000E+00
  4.00000000E+01  2.40000000E+02  0.00000000E+00
  4.00000000E+01  2.20000000E+02  0.00000000E+00
  4.00000000E+01  2.00000000E+02  0.00000000E+00
  4.00000000E+01  1.80000000E+02  0.00000000E+00
  4.00000000E+01  1.60000000E+02  0.00000000E+00
  4.00000000E+01  1.40000000E+02  0.00000000E+00
  4.00000000E+01  1.20000000E+02  0.00000000E+00
  4.00000000E+01  1.00000000E+02  0.00000000E+00
  4.00000000E+01  8.00000000E+01  0.00000000E+00
  4.00000000E+01  6.00000000E+01  0.00000000E+00
  4.00000000E+01  4.00000000E+01  0.00000000E+00
  4.00000000E+01  2.00000000E+01  0.00000000E+00
  4.00000000E+01  4.99600361E-14  0.00000000E+00
  6.00000000E+01  3.00000000E+02  0.00000000E+00
  6.00000000E+01  2.80000000E+02  0.00000000E+00
  6.00000000E+01  2.60000000E+02  0.00000000E+00
  6.00000000E+01  2.40000000E+02  0.00000000E+00
  6.00000000E+01  2.20000000E+02  0.00000000E+00
  6.00000000E+01  2.00000000E+02  0.00000000E+00
  6.00000000E+01  1.80000000E+02  0.00000000E+00
  6.00000000E+01  1.60000000E+02  0.00000000E+00
  6.00000000E+01  1.40000000E+02  0.00000000E+00
  6.00000000E+01  1.20000000E+02  0.00000000E+00
  6.00000000E+01  1.00000000E+02  0.00000000E+00
  6.00000000E+01  8.00000000E+01  0.00000000E+00
  6.00000000E+01  6.00000000E+01  0.00000000E+00
  6.00000000E+01  4.00000000E+01  0.00000000E+00
  6.00000000E+01  2.00000000E+01  0.00000000E+00
  6.00000000E+01  4.99600361E-14  0.00000000E+00
  8.00000000E+01  3.00000000E+02  0.00000000E+00
  8.00000000E+01  2.80000000E+02  0.00000000E+00
  8.00000000E+01  2.60000000E+02  0.00000000E+00
  8.00000000E+01  2.40000000E+02  0.00000000E+00
  8.00000000E+01  2.20000000E+02  0.00000000E+00
  8.00000000E+01  2.00000000E+02  0.00000000E+00
  8.00000000E+01  1.80000000E+02  0.00000000E+00
  8.00000000E+01  1.60000000E+02  0.00000000E+00
  8.00000000E+01  1.40000000E+02  0.00000000E+00
  8.00000000E+01  1.20000000E+02  0.00000000E+00
  8.00000000E+01  1.00000000E+02  0.00000000E+00
  8.00000000E+01  8.00000000E+01  0.00000000E+00
  8.00000000E+01  6.00000000E+01  0.00000000E+00
  8.00000000E+01  4.00000000E+01  0.00000000E+00
  8.00000000E+01  2.00000000E+01  0.00000000E+00
  8.00000000E+01  4.99600361E-14  0.00000000E+00
  1.00000000E+02  3.00000000E+02  0.00000000E+00
  1.00000000E+02  2.80000000E+02  0.00000000E+00
  1.00000000E+02  2.60000000E+02  0.00000000E+00
  1.00000000E+02  2.40000000E+02  0.00000000E+00
  1.00000000E+02  2.20000000E+02  0.00000000E+00
  1.00000000E+02  2.00000000E+02  0.00000000E+00
  1.00000000E+02  1.80000000E+02  0.00000000E+00
  1.00000000E+02  1.60000000E+02  0.00000000E+00
  1.00000000E+02  1.40000000E+02  0.00000000E+00
  1.00000000E+02  1.20000000E+02  0.00000000E+00
  1.00000000E+02  1.00000000E+02  0.00000000E+00
  1.00000000E+02  8.00000000E+01  0.00000000E+00
  1.00000000E+02  6.00000000E+01  0.00000000E+00
  1.00000000E+02  4.00000000E+01  0.00000000E+00
  1.00000000E+02  2.00000000E+01  0.00000000E+00
  1.00000000E+02  4.99600361E-14  0.00000000E+00
  1.20000000E+02  3.00000000E+02  0.00000000E+00
  1.20000000E+02  2.80000000E+02  0.00000000E+00
  1.20000000E+02  2.60000000E+02  0.00000000E+00
  1.20000000E+02  2.40000000E+02  0.00000000E+00
  1.20000000E+02  2.20000000E+02  0.00000000E+00
  1.20000000E+02  2.00000000E+02  0.00000000E+00
  1.20000000E+02  1.80000000E+02  0.00000000E+00
  1.20000000E+02  1.60000000E+02  0.00000000E+00
  1.20000000E+02  1.40000000E+02  0.00000000E+00
  1.20000000E+02  1.20000000E+02  0.00000000E+00
  1.20000000E+02  1.00000000E+02  0.00000000E+00
  1.20000000E+02  8.00000000E+01  0.00000000E+00
  1.20000000E+02  6.00000000E+01  0.00000000E+00
  1.20000000E+02  4.00000000E+01  0.00000000E+00
  1.20000000E+02  2.00000000E+01  0.00000000E+00
  1.20000000E+02  4.99600361E-14  0.00000000E+00
  1.40000000E+02  3.00000000E+02  0.00000000E+00
  1.40000000E+02  2.80000000E+02  0.00000000E+00
  1.40000000E+02  2.60000000E+02  0.00000000E+00
  1.40000000E+02  2.40000000E+02  0.00000000E+00
  1.40000000E+02  2.20000000E+02  0.00000000E+00
  1.40000000E+02  2.00000000E+02  0.00000000E+00
  1.40000000E+02  1.80000000E+02  0.00000000E+00
  1.40000000E+02  1.60000000E+02  0.00000000E+00
  1.40000000E+02  1.40000000E+02  0.00000000E+00
  1.40000000E+02  1.20000000E+02  0.00000000E+00
  1.40000000E+02  1.00000000E+02  0.00000000E+00
  1.40000000E+02  8.00000000E+01  0.00000000E+00
  1.40000000E+02  6.00000000E+01  0.00000000E+00
  1.40000000E+02  4.00000000E+01  0.00000000E+00
  1.40000000E+02  2.00000000E+01  0.00000000E+00
  1.40000000E+02  4.99600361E-14  0.00000000E+00
  1.60000000E+02  3.00000000E+02  0.00000000E+00
  1.60000000E+02  2.80000000E+02  0.00000000E+00
  1.60000000E+02  2.60000000E+02  0.00000000E+00
  1.60000000E+02  2.40000000E+02  0.00000000E+00
  1.60000000E+02  2.20000000E+02  0.00000000E+00
  1.60000000E+02  2.00000000E+02  0.00000000E+00
  1.60000000E+02  1.80000000E+02  0.00000000E+00
  1.60000000E+02  1.60000000E+02  0.00000000E+00
  1.60000000E+02  1.40000000E+02  0.00000000E+00
  1.60000000E+02  1.20000000E+02  0.00000000E+00
  1.60000000E+02  1.00000000E+02  0.00000000E+00
  1.60000000E+02  8.00000000E+01  0.00000000E+00
  1.60000000E+02  6.00000000E+01  0.00000000E+00
  1.60000000E+02  4.00000000E+01  0.00000000E+00
  1.60000000E+02  2.00000000E+01  0.00000000E+00
  1.60000000E+02  4.99600361E-14  0.00000000E+00
  1.80000000E+02  3.00000000E+02  0.00000000E+00
  1.80000000E+02  2.80000000E+02  0.00000000E+00
  1.80000000E+02  2.60000000E+02  0.00000000E+00
  1.80000000E+02  2.40000000E+02  0.00000000E+00
  1.80000000E+02  2.20000000E+02  0.00000000E+00
  1.80000000E+02  2.00000000E+02  0.00000000E+00
  1.80000000E+02  1.80000000E+02  0.00000000E+00
  1.80000000E+02  1.60000000E+02  0.00000000E+00
  1.80000000E+02  1.40000000E+02  0.00000000E+00
  1.80000000E+02  1.20000000E+02  0.00000000E+00
  1.80000000E+02  1.00000000E+02  0.00000000E+00
  1.80000000E+02  8.00000000E+01  0.00000000E+00
  1.80000000E+02  6.00000000E+01  0.00000000E+00
  1.80000000E+02  4.00000000E+01  0.00000000E+00
  1.80000000E+02  2.00000000E+01  0.00000000E+00
  1.80000000E+02  4.99600361E-14  0.00000000E+00
  2.00000000E+02  3.00000000E+02  0.00000000E+00
  2.00000000E+02  2.80000000E+02  0.00000000E+00
  2.00000000E+02  2.60000000E+02  0.00000000E+00
  2.00000000E+02  2.40000000E+02  0.00000000E+00
  2.00000000E+02  2.20000000E+02  0.00000000E+00
  2.00000000E+02  2.00000000E+02  0.00000000E+00
  2.00000000E+02  1.80000000E+02  0.00000000E+00
  2.00000000E+02  1.60000000E+02  0.00000000E+00
  2.00000000E+02  1.40000000E+02  0.00000000E+00
  2.00000000E+02  1.20000000E+02  0.00000000E+00
  2.00000000E+02  1.00000000E+02  0.00000000E+00
  2.00000000E+02  8.00000000E+01  0.00000000E+00
  2.00000000E+02  6.00000000E+01  0.00000000E+00
  2.00000000E+02  4.00000000E+01  0.00000000E+00
  2.00000000E+02  2.00000000E+01  0.00000000E+00
  2.00000000E+02  4.99600361E-14  0.00000000E+00
  2.20000000E+02  3.00000000E+02  0.00000000E+00
  2.20000000E+02  2.80000000E+02  0.00000000E+00
  2.20000000E+02  2.60000000E+02  0.00000000E+00
  2.20000000E+02  2.40000000E+02  0.00000000E+00
  2.20000000E+02  2.20000000E+02  0.00000000E+00
  2.20000000E+02  2.00000000E+02  0.00000000E+00
  2.20000000E+02  1.80000000E+02  0.00000000E+00
  2.20000000E+02  1.60000000E+02  0.00000000E+00
  2.20000000E+02  1.40000000E+02  0.00000000E+00
  2.20000000E+02  1.20000000E+02  0.00000000E+00
  2.20000000E+02  1.00000000E+02  0.00000000E+00
  2.20000000E+02  8.00000000E+01  0.00000000E+00
  2.20000000E+02  6.00000000E+01  0.00000000E+00
  2.20000000E+02  4.00000000E+01  0.00000000E+00
  2.20000000E+02  2.00000000E+01  0.00000000E+00
  2.20000000E+02  4.99600361E-14  0.00000000E+00
  2.40000000E+02  3.00000000E+02  0.00000000E+00
  2.40000000E+02  2.80000000E+02  0.00000000E+00
  2.40000000E+02  2.60000000E+02  0.00000000E+00
  2.40000000E+02  2.40000000E+02  0.00000000E+00
  2.40000000E+02  2.20000000E+02  0.00000000E+00
  2.40000000E+02  2.00000000E+02  0.00000000E+00
  2.40000000E+02  1.80000000E+02  0.00000000E+00
  2.40000000E+02  1.60000000E+02  0.00000000E+00
  2.40000000E+02  1.40000000E+02  0.00000000E+00
  2.40000000E+02  1.20000000E+02  0.00000000E+00
  2.40000000E+02  1.00000000E+02  0.00000000E+00
  2.40000000E+02  8.00000000E+01  0.00000000E+00
  2.40000000E+02  6.00000000E+01  0.00000000E+00
  2.40000000E+02  4.00000000E+01  0.00000000E+00
  2.40000000E+02  2.00000000E+01  0.00000000E+00
  2.40000000E+02  4.99600361E-14  0.00000000E+00
  2.60000000E+02  3.00000000E+02  0.00000000E+00
  2.60000000E+02  2.80000000E+02  0.00000000E+00
  2.60000000E+02  2.60000000E+02  0.00000000E+00
  2.60000000E+02  2.40000000E+02  0.00000000E+00
  2.60000000E+02  2.20000000E+02  0.00000000E+00
  2.60000000E+02  2.00000000E+02  0.00000000E+00
  2.60000000E+02  1.80000000E+02  0.00000000E+00
  2.60000000E+02  1.60000000E+02  0.00000000E+00
  2.60000000E+02  1.40000000E+02  0.00000000E+00
  2.60000000E+02  1.20000000E+02  0.00000000E+00
  2.60000000E+02  1.00000000E+02  0.00000000E+00
  2.60000000E+02  8.00000000E+01  0.00000000E+00
  2.60000000E+02  6.00000000E+01  0.00000000E+00
  2.60000000E+02  4.00000000E+01  0.00000000E+00
  2.60000000E+02  2.00000000E+01  0.00000000E+00
  2.60000000E+02  4.99600361E-14  0.00000000E+00
  2.80000000E+02  3.00000000E+02  0.00000000E+00
  2.80000000E+02  2.80000000E+02  0.00000000E+00
  2.80000000E+02  2.60000000E+02  0.00000000E+00
  2.80000000E+02  2.40000000E+02  0.00000000E+00
  2.80000000E+02  2.20000000E+02  0.00000000E+00
  2.80000000E+02  2.00000000E+02  0.00000000E+00
  2.80000000E+02  1.80000000E+02  0.00000000E+00
  2.80000000E+02  1.60000000E+02  0.00000000E+00
  2.80000000E+02  1.40000000E+02  0.00000000E+00
  2.80000000E+02  1.20000000E+02  0.00000000E+00
  2.80000000E+02  1.00000000E+02  0.00000000E+00
  2.80000000E+02  8.00000000E+01  0.00000000E+00
  2.80000000E+02  6.00000000E+01  0.00000000E+00
  2.80000000E+02  4.00000000E+01  0.00000000E+00
  2.80000000E+02  2.00000000E+01  0.00000000E+00
  2.80000000E+02  4.99600361E-14  0.00000000E+00
  3.00000000E+02  3.00000000E+02  0.00000000E+00
  3.00000000E+02  2.80000000E+02  0.00000000E+00
  3.00000000E+02  2.60000000E+02  0.00000000E+00
  3.00000000E+02  2.40000000E+02  0.00000000E+00
  3.00000000E+02  2.20000000E+02  0.00000000E+00
  3.00000000E+02  2.00000000E+02  0.00000000E+00
  3.00000000E+02  1.80000000E+02  0.00000000E+00
  3.00000000E+02  1.60000000E+02  0.00000000E+00
  3.00000000E+02  1.40000000E+02  0.00000000E+00
  3.00000000E+02  1.20000000E+02  0.00000000E+00
  3.00000000E+02  1.00000000E+02  0.00000000E+00
  3.00000000E+02  8.00000000E+01  0.00000000E+00
  3.00000000E+02  6.00000000E+01  0.00000000E+00
  3.00000000E+02  4.00000000E+01  0.00000000E+00
  3.00000000E+02  2.00000000E+01  0.00000000E+00
  3.00000000E+02  4.99600361E-14  0.00000000E+00
  3.20000000E+02  3.00000000E+02  0.00000000E+00
  3.20000000E+02  2.80000000E+02  0.00000000E+00
  3.20000000E+02  2.60000000E+02  0.00000000E+00
  3.20000000E+02  2.40000000E+02  0.00000000E+00
  3.20000000E+02  2.20000000E+02  0.00000000E+00
  3.20000000E+02  2.00000000E+02  0.00000000E+00
  3.20000000E+02  1.80000000E+02  0.00000000E+00
  3.20000000E+02  1.60000000E+02  0.00000000E+00
  3.20000000E+02  1.40000000E+02  0.00000000E+00
  3.20000000E+02  1.20000000E+02  0.00000000E+00
  3.20000000E+02  1.00000000E+02  0.00000000E+00
  3.20000000E+02  8.00000000E+01  0.00000000E+00
  3.20000000E+02  6.00000000E+01  0.00000000E+00
  3.20000000E+02  4.00000000E+01  0.00000000E+00
  3.20000000E+02  2.00000000E+01  0.00000000E+00
  3.20000000E+02  4.99600361E-14  0.00000000E+00
  3.40000000E+02  3.00000000E+02  0.00000000E+00
  3.40000000E+02  2.80000000E+02  0.00000000E+00
  3.40000000E+02  2.60000000E+02  0.00000000E+00
  3.40000000E+02  2.40000000E+02  0.00000000E+00
  3.40000000E+02  2.20000000E+02  0.00000000E+00
  3.40000000E+02  2.00000000E+02  0.00000000E+00
  3.40000000E+02  1.80000000E+02  0.00000000E+00
  3.40000000E+02  1.60000000E+02  0.00000000E+00
  3.40000000E+02  1.40000000E+02  0.00000000E+00
  3.40000000E+02  1.20000000E+02  0.00000000E+00
  3.40000000E+02  1.00000000E+02  0.00000000E+00
  3.40000000E+02  8.00000000E+01  0.00000000E+00
  3.40000000E+02  6.00000000E+01  0.00000000E+00
  3.40000000E+02  4.00000000E+01  0.00000000E+00
  3.40000000E+02  2.00000000E+01  0.00000000E+00
  3.40000000E+02  4.99600361E-14  0.00000000E+00
  3.60000000E+02  3.00000000E+02  0.00000000E+00
  3.60000000E+02  2.80000000E+02  0.00000000E+00
  3.60000000E+02  2.60000000E+02  0.00000000E+00
  3.60000000E+02  2.40000000E+02  0.00000000E+00
  3.60000000E+02  2.20000000E+02  0.00000000E+00
  3.60000000E+02  2.00000000E+02  0.00000000E+00
  3.60000000E+02  1.80000000E+02  0.00000000E+00
  3.60000000E+02  1.60000000E+02  0.00000000E+00
  3.60000000E+02  1.40000000E+02  0.00000000E+00
  3.60000000E+02  1.20000000E+02  0.00000000E+00
  3.60000000E+02  1.00000000E+02  0.00000000E+00
  3.60000000E+02  8.00000000E+01  0.00000000E+00
  3.60000000E+02  6.00000000E+01  0.00000000E+00
  3.60000000E+02  4.00000000E+01  0.00000000E+00
  3.60000000E+02  2.00000000E+01  0.00000000E+00
  3.60000000E+02  4.99600361E-14  0.00000000E+00
  3.80000000E+02  3.00000000E+02  0.00000000E+00
  3.80000000E+02  2.80000000E+02  0.00000000E+00
  3.80000000E+02  2.60000000E+02  0.00000000E+00
  3.80000000E+02  2.40000000E+02  0.00000000E+00
  3.80000000E+02  2.20000000E+02  0.00000000E+00
  3.80000000E+02  2.00000000E+02  0.00000000E+00
  3.80000000E+02  1.80000000E+02  0.00000000E+00
  3.80000000E+02  1.60000000E+02  0.00000000E+00
  3.80000000E+02  1.40000000E+02  0.00000000E+00
  3.80000000E+02  1.20000000E+02  0.00000000E+00
  3.80000000E+02  1.00000000E+02  0.00000000E+00
  3.80000000E+02  8.00000000E+01  0.00000000E+00
  3.80000000E+02  6.00000000E+01  0.00000000E+00
  3.80000000E+02  4.00000000E+01  0.00000000E+00
  3.80000000E+02  2.00000000E+01  0.00000000E+00
  3.80000000E+02  4.99600361E-14  0.00000000E+00
  4.00000000E+02  3.00000000E+02  0.00000000E+00
  4.00000000E+02  2.80000000E+02  0.00000000E+00
  4.00000000E+02  2.60000000E+02  0.00000000E+00
  4.00000000E+02  2.40000000E+02  0.00000000E+00
  4.00000000E+02  2.20000000E+02  0.00000000E+00
  4.00000000E+02  2.00000000E+02  0.00000000E+00
  4.00000000E+02  1.80000000E+02  0.00000000E+00
  4.00000000E+02  1.60000000E+02  0.00000000E+00
  4.00000000E+02  1.40000000E+02  0.00000000E+00
  4.00000000E+02  1.20000000E+02  0.00000000E+00
  4.00000000E+02  1.00000000E+02  0.00000000E+00
  4.00000000E+02  8.00000000E+01  0.00000000E+00
  4.00000000E+02  6.00000000E+01  0.00000000E+00
  4.00000000E+02  4.00000000E+01  0.00000000E+00
  4.00000000E+02  2.00000000E+01  0.00000000E+00
  4.00000000E+02  4.99600361E-14  0.00000000E+00
  4.20000000E+02  3.00000000E+02  0.00000000E+00
  4.20000000E+02  2.80000000E+02  0.00000000E+00
  4.20000000E+02  2.60000000E+02  0.00000000E+00
  4.20000000E+02  2.40000000E+02  0.00000000E+00
  4.20000000E+02  2.20000000E+02  0.00000000E+00
  4.20000000E+02  2.00000000E+02  0.00000000E+00
  4.20000000E+02  1.80000000E+02  0.00000000E+00
  4.20000000E+02  1.60000000E+02  0.00000000E+00
  4.20000000E+02  1.40000000E+02  0.00000000E+00
  4.20000000E+02  1.20000000E+02  0.00000000E+00
  4.20000000E+02  1.00000000E+02  0.00000000E+00
  4.20000000E+02  8.00000000E+01  0.00000000E+00
  4.20000000E+02  6.00000000E+01  0.00000000E+00
  4.20000000E+02  4.00000000E+01  0.00000000E+00
  4.20000000E+02  2.00000000E+01  0.00000000E+00
  4.20000000E+02  4.99600361E-14  0.00000000E+00
  4.40000000E+02  3.00000000E+02  0.00000000E+00
  4.40000000E+02  2.80000000E+02  0.00000000E+00
  4.40000000E+02  2.60000000E+02  0.00000000E+00
  4.40000000E+02  2.40000000E+02  0.00000000E+00
  4.40000000E+02  2.20000000E+02  0.00000000E+00
  4.40000000E+02  2.00000000E+02  0.00000000E+00
  4.40000000E+02  1.80000000E+02  0.00000000E+00
  4.40000000E+02  1.60000000E+02  0.00000000E+00
  4.40000000E+02  1.40000000E+02  0.00000000E+00
  4.40000000E+02  1.20000000E+02  0.00000000E+00
  4.40000000E+02  1.00000000E+02  0.00000000E+00
  4.40000000E+02  8.00000000E+01  0.00000000E+00
  4.40000000E+02  6.00000000E+01  0.00000000E+00
  4.40000000E+02  4.00000000E+01  0.00000000E+00
  4.40000000E+02  2.00000000E+01  0.00000000E+00
  4.40000000E+02  4.99600361E-14  0.00000000E+00
  4.60000000E+02  3.00000000E+02  0.00000000E+00
  4.60000000E+02  2.80000000E+02  0.00000000E+00
  4.60000000E+02  2.60000000E+02  0.00000000E+00
  4.60000000E+02  2.40000000E+02  0.00000000E+00
  4.60000000E+02  2.20000000E+02  0.00000000E+00
  4.60000000E+02  2.00000000E+02  0.00000000E+00
  4.60000000E+02  1.80000000E+02  0.00000000E+00
  4.60000000E+02  1.60000000E+02  0.00000000E+00
  4.60000000E+02  1.40000000E+02  0.00000000E+00
  4.60000000E+02  1.20000000E+02  0.00000000E+00
  4.60000000E+02  1.00000000E+02  0.00000000E+00
  4.60000000E+02  8.00000000E+01  0.00000000E+00
  4.60000000E+02  6.00000000E+01  0.00000000E+00
  4.60000000E+02  4.00000000E+01  0.00000000E+00
  4.60000000E+02  2.00000000E+01  0.00000000E+00
  4.60000000E+02  4.99600361E-14  0.00000000E+00
  4.80000000E+02  3.00000000E+02  0.00000000E+00
  4.80000000E+02  2.80000000E+02  0.00000000E+00
  4.80000000E+02  2.60000000E+02  0.00000000E+00
  4.80000000E+02  2.40000000E+02  0.00000000E+00
  4.80000000E+02  2.20000000E+02  0.00000000E+00
  4.80000000E+02  2.00000000E+02  0.00000000E+00
  4.80000000E+02  1.80000000E+02  0.00000000E+00
  4.80000000E+02  1.60000000E+02  0.00000000E+00
  4.80000000E+02  1.40000000E+02  0.00000000E+00
  4.80000000E+02  1.20000000E+02  0.00000000E+00
  4.80000000E+02  1.00000000E+02  0.00000000E+00
  4.80000000E+02  8.00000000E+01  0.00000000E+00
  4.80000000E+02  6.00000000E+01  0.00000000E+00
  4.80000000E+02  4.00000000E+01  0.00000000E+00
  4.80000000E+02  2.00000000E+01  0.00000000E+00
  4.80000000E+02  4.99600361E-14  0.00000000E+00
  5.00000000E+02  3.00000000E+02  0.00000000E+00
  5.00000000E+02  2.80000000E+02  0.00000000E+00
  5.00000000E+02  2.60000000E+02  0.00000000E+00
  5.00000000E+02  2.40000000E+02  0.00000000E+00
  5.00000000E+02  2.20000000E+02  0.00000000E+00
  5.00000000E+02  2.00000000E+02  0.00000000E+00
  5.00000000E+02  1.80000000E+02  0.00000000E+00
  5.00000000E+02  1.60000000E+02  0.00000000E+00
  5.00000000E+02  1.40000000E+02  0.00000000E+00
  5.00000000E+02  1.20000000E+02  0.00000000E+00
  5.00000000E+02  1.00000000E+02  0.00000000E+00
  5.00000000E+02  8.00000000E+01  0.00000000E+00
  5.00000000E+02  6.00000000E+01  0.00000000E+00
  5.00000000E+02  4.00000000E+01  0.00000000E+00
  5.00000000E+02  2.00000000E+01  0.00000000E+00
  5.00000000E+02  4.99600361E-14  0.00000000E+00
  5.20000000E+02  3.00000000E+02  0.00000000E+00
  5.20000000E+02  2.80000000E+02  0.00000000E+00
  5.20000000E+02  2.60000000E+02  0.00000000E+00
  5.20000000E+02  2.40000000E+02  0.00000000E+00
  5.20000000E+02  2.20000000E+02  0.00000000E+00
  5.20000000E+02  2.00000000E+02  0.00000000E+00
  5.20000000E+02  1.80000000E+02  0.00000000E+00
  5.20000000E+02  1.60000000E+02  0.00000000E+00
  5.20000000E+02  1.40000000E+02  0.00000000E+00
  5.20000000E+02  1.20000000E+02  0.00000000E+00
  5.20000000E+02  1.00000000E+02  0.00000000E+00
  5.20000000E+02  8.00000000E+01  0.00000000E+00
  5.20000000E+02  6.00000000E+01  0.00000000E+00
  5.20000000E+02  4.00000000E+01  0.00000000E+00
  5.20000000E+02  2.00000000E+01  0.00000000E+00
  5.20000000E+02  4.99600361E-14  0.00000000E+00
  5.40000000E+02  3.00000000E+02  0.00000000E+00
  5.40000000E+02  2.80000000E+02  0.00000000E+00
  5.40000000E+02  2.60000000E+02  0.00000000E+00
  5.40000000E+02  2.40000000E+02  0.00000000E+00
  5.40000000E+02  2.20000000E+02  0.00000000E+00
  5.40000000E+02  2.00000000E+02  0.00000000E+00
  5.40000000E+02  1.80000000E+02  0.00000000E+00
  5.40000000E+02  1.60000000E+02  0.00000000E+00
  5.40000000E+02  1.40000000E+02  0.00000000E+00
  5.40000000E+02  1.20000000E+02  0.00000000E+00
  5.40000000E+02  1.00000000E+02  0.00000000E+00
  5.40000000E+02  8.00000000E+01  0.00000000E+00
  5.40000000E+02  6.00000000E+01  0.00000000E+00
  5.40000000E+02  4.00000000E+01  0.00000000E+00
  5.40000000E+02  2.00000000E+01  0.00000000E+00
  5.40000000E+02  4.99600361E-14  0.00000000E+00
  5.60000000E+02  3.00000000E+02  0.00000000E+00
  5.60000000E+02  2.80000000E+02  0.00000000E+00
  5.60000000E+02  2.60000000E+02  0.00000000E+00
  5.60000000E+02  2.40000000E+02  0.00000000E+00
  5.60000000E+02  2.20000000E+02  0.00000000E+00
  5.60000000E+02  2.00000000E+02  0.00000000E+00
  5.60000000E+02  1.80000000E+02  0.00000000E+00
  5.60000000E+02  1.60000000E+02  0.00000000E+00
  5.60000000E+02  1.40000000E+02  0.00000000E+00
  5.60000000E+02  1.20000000E+02  0.00000000E+00
  5.60000000E+02  1.00000000E+02  0.00000000E+00
  5.60000000E+02  8.00000000E+01  0.00000000E+00
  5.60000000E+02  6.00000000E+01  0.00000000E+00
  5.60000000E+02  4.00000000E+01  0.00000000E+00
  5.60000000E+02  2.00000000E+01  0.00000000E+00
  5.60000000E+02  4.99600361E-14  0.00000000E+00
  5.80000000E+02  3.00000000E+02  0.00000000E+00
  5.80000000E+02  2.80000000E+02  0.00000000E+00
  5.80000000E+02  2.60000000E+02  0.00000000E+00
  5.80000000E+02  2.40000000E+02  0.00000000E+00
  5.80000000E+02  2.20000000E+02  0.00000000E+00
  5.80000000E+02  2.00000000E+02  0.00000000E+00
  5.80000000E+02  1.80000000E+02  0.00000000E+00
  5.80000000E+02  1.60000000E+02  0.00000000E+00
  5.80000000E+02  1.40000000E+02  0.00000000E+00
  5.80000000E+02  1.20000000E+02  0.00000000E+00
  5.80000000E+02  1.00000000E+02  0.00000000E+00
  5.80000000E+02  8.00000000E+01  0.00000000E+00
  5.80000000E+02  6.00000000E+01  0.00000000E+00
  5.80000000E+02  4.00000000E+01  0.00000000E+00
  5.80000000E+02  2.00000000E+01  0.00000000E+00
  5.80000000E+02  4.99600361E-14  0.00000000E+00
  6.00000000E+02  3.00000000E+02  0.00000000E+00
  6.00000000E+02  2.80000000E+02  0.00000000E+00
  6.00000000E+02  2.60000000E+02  0.00000000E+00
  6.00000000E+02  2.40000000E+02  0.00000000E+00
  6.00000000E+02  2.20000000E+02  0.00000000E+00
  6.00000000E+02  2.00000000E+02  0.00000000E+00
  6.00000000E+02  1.80000000E+02  0.00000000E+00
  6.00000000E+02  1.60000000E+02  0.00000000E+00
  6.00000000E+02  1.40000000E+02  0.00000000E+00
  6.00000000E+02  1.20000000E+02  0.00000000E+00
  6.00000000E+02  1.00000000E+02  0.00000000E+00
  6.00000000E+02  8.00000000E+01  0.00000000E+00
  6.00000000E+02  6.00000000E+01  0.00000000E+00
  6.00000000E+02  4.00000000E+01  0.00000000E+00
  6.00000000E+02  2.00000000E+01  0.00000000E+00
  6.00000000E+02  4.99600361E-14  0.00000000E+00
CELLS       450      2250
         4           0           1          17          16
         4           1           2          18          17
         4           2           3          19          18
         4           3           4          20          19
         4           4           5          21          20
         4           5           6          22          21
         4           6           7          23          22
         4           7           8          24          23
         4           8           9          25          24
         4           9          10          26          25
         4          10          11          27          26
         4          11          12          28          27
         4          12          13          29          28
         4          13          14          30          29
         4          14          15          31          30
         4          16          17          33          32
         4          17          18          34          33
         4          18          19          35          34
         4          19          20          36          35
         4          20          21          37          36
         4          21          22          38          37
         4          22          23          39          38
         4          23          24          40          39
         4          24          25          41          40
         4          25          26          42          41
         4          26          27          43          42
         4          27          28          44          43
         4          28          29          45          44
         4          29          30          46          45
         4          30          31          47          46
         4          32          33          49          48
         4          33          34          50          49
         4          34          35          51          50
         4          35          36          52          51
         4          36          37          53          52
         4          37          38          54          53
         4          38          39          55          54
         4          39          40          56          55
         4          40          41          57          56
         4          41          42          58          57
         4          42          43          59          58
         4          43          44          60          59
         4          44          45          61          60
         4          45          46          62          61
         4          46          47          63          62
         4          48          49          65          64
         4          49          50          66          65
         4          50          51          67          66
         4          51          52          68          67
         4          52          53          69          68
         4          53          54          70          69
         4          54          55          71          70
         4          55          56          72          71
         4          56          57          73          72
         4          57          58          74          73
         4          58          59          75          74
         4          59          60          76          75
         4          60          61          77          76
         4          61          62          78          77
         4          62          63          79          78
         4          64          65          81          80
         4          65          66          82          81
         4          66          67          83          82
         4          67          68          84          83
         4          68          69          85          84
         4          69          70          86          85
         4          70          71          87          86
         4          71          72          88          87
         4          72          73          89          88
         4          73          74          90          89
         4          74          75          91          90
         4          75          76          92          91
         4          76          77          93          92
         4          77          78          94          93
         4          78          79          95          94
         4          80          81          97          96
         4          81          82          98          97
         4          82          83          99          98
         4          83          84         100          99
         4          84          85         101         100
         4          85          86         102         101
         4          86          87         103         102
         4          87          88         104         103
         4          88          89         105         104
         4          89          90         106         105
         4          90          91         107         106
         4          91          92         108         107
         4          92          93         109         108
         4          93          94         110         109
         4          94          95         111         110
         4          96          97         113         112
         4          97          98         114         113
         4          98          99         115         114
         4          99         100         116         115
         4         100         101         117         116
         4         101         102         118         117
         4         102         103         119         118
         4         103         104         120         119
         4         104         105         121         120
         4         105         106         122         121
         4         106         107         123         122
         4         107         108         124         123
         4         108         109         125         124
         4         109         110         126         125
         4         110         111         127         126
         4         112         113         129         128
         4         113         114         130         129
         4         114         115         131         130
         4         115         116         132         131
         4         116         117         133         132
         4         117         118         134         133
         4         118         119         135         134
         4         119         120         136         135
         4         120         121         137         136
         4         121         122         138         137
         4         122         123         139         138
         4         123         124         140         139
         4         124         125         141         140
         4         125         126         142         141
         4         126         127         143         142
         4         128         129         145         144
         4         129         130         146         145
         4         130         131         147         146
         4         131         132         148         147
         4         132         133         149         148
         4         133         134         150         149
         4         134         135         151         150
         4         135         136         152         151
         4         136         137         153         152
         4         137         138         154         153
         4         138         139         155         154
         4         139         140         156         155
         4         140         141         157         156
         4         141         142         158         157
         4         142         143         159         158
         4         144         145         161         160
         4         145         146         162         161
         4         146         147         163         162
         4         147         148         164         163
         4         148         149         165         164
         4         149         150         166         165
         4         150         151         167         166
         4         151         152         168         167
         4         152         153         169         168
         4         153         154         170         169
         4         154         155         171         170
         4         155         156         172         171
         4         156         157         173         172
         4         157         158         174         173
         4         158         159         175         174
         4         160         161         177         176
         4         161         162         178         177
         4         162         163         179         178
         4         163         164         180         179
         4         164         165         181         180
         4         165         166         182         181
         4         166         167         183         182
         4         167         168         184         183
         4         168         169         185         184
         4         169         170         186         185
         4         170         171         187         186
         4         171         172         188         187
         4         172         173         189         188
         4         173         174         190         189
         4         174         175         191         190
         4         176         177         193         192
         4         177         178         194         193
         4         178         179         195         194
         4         179         180         196         195
         4         180         181         197         196
         4         181         182         198         197
         4         182         183         199         198
         4         183         184         200         199
         4         184         185         201         200
         4         185         186         202         201
         4         186         187         203         202
         4         187         188         204         203
         4         188         189         205         204
         4         189         190         206         205
         4         190         191         207         206
         4         192         193         209         208
         4         193         194         210         209
         4         194         195         211         210
         4         195         196         212         211
         4         196         197         213         212
         4         197         198         214         213
         4         198         199         215         214
         4         199         200         216         215
         4         200         201         217         216
         4         201         202         218         217
         4         202         203         219         218
         4         203         204         220         219
         4         204         205         221         220
         4         205         206         222         221
         4         206         207         223         222
         4         208         209         225         224
         4         209         210         226         225
         4         210         211         227         226
         4         211         212         228         227
         4         212         213         229         228
         4         213         214         230         229
         4         214         215         231         230
         4         215         216         232         231
         4         216         217         233         232
         4         217         218         234         233
         4         218         219         235         234
         4         219         220         236         235
         4         220         221         237         236
         4         221         222         238         237
         4         222         223         239         238
         4         224         225         241         240
         4         225         226         242         241
         4         226         227         243         242
         4         227         228         244         243
         4         228         229         245         244
         4         229         230         246         245
         4         230         231         247         246
         4         231         232         248         247
         4         232         233         249         248
         4         233         234         250         249
         4         234         235         251         250
         4         235         236         252         251
         4         236         237         253         252
         4         237         238         254         253
         4         238         239         255         254
         4         240         241         257         256
         4         241         242         258         257
         4         242         243         259         258
         4         243         244         260         259
         4         244         245         261         260
         4         245         246         262         261
         4         246         247         263         262
         4         247         248         264         263
         4         248         249         265         264
         4         249         250         266         265
         4         250         251         267         266
         4         251         252         268         267
         4         252         253         269         268
         4         253         254         270         269
         4         254         255         271         270
         4         256         257         273         272
         4         257         258         274         273
         4         258         259         275         274
         4         259         260         276         275
         4         260         261         277         276
         4         261         262         278         277
         4         262         263         279         278
         4         263         264         280         279
         4         264         265         281         280
         4         265         266         282         281
         4         266         267         283         282
         4         267         268         284         283
         4         268         269         285         284
         4         269         270         286         285
         4         270         271         287         286
         4         272         273         289         288
         4         273         274         290         289
         4         274         275         291         290
         4         275         276         292         291
         4         276         277         293         292
         4         277         278         294         293
         4         278         279         295         294
         4         279         280         296         295
         4         280         281         297         296
         4         281         282         298         297
         4         282         283         299         298
         4         283         284         300         299
         4         284         285         301         300
         4         285         286         302         301
         4         286         287         303         302
         4         288         289         305         304
         4         289         290         306         305
         4         290         291         307         306
         4         291         292         308         307
         4         292         293         309         308
         4         293         294         310         309
         4         294         295         311         310
         4         295         296         312         311
         4         296         297         313         312
         4         297         298         314         313
         4         298         299         315         314
         4         299         300         316         315
         4         300         301         317         316
         4         301         302         318         317
         4         302         303         319         318
         4         304         305         321         320
         4         305         306         322         321
         4         306         307         323         322
         4         307         308         324         323
         4         308         309         325         324
         4         309         310         326         325
         4         310         311         327         326
         4         311         312         328         327
         4         312         313         329         328
         4         313         314         330         329
         4         314         315         331         330
         4         315         316         332         331
         4         316         317         333         332
         4         317         318         334         333
         4         318         319         335         334
         4         320         321         337         336
         4         321         322         338         337
         4         322         323         339         338
         4         323         324         340         339
         4         324         325         341         340
         4         325         326         342         341
         4         326         327         343         342
         4         327         328         344         343
         4         328         329         345         344
         4         329         330         346         345
         4         330         331         347         346
         4         331         332         348         347
         4         332         333         349         348
         4         333         334         350         349
         4         334         335         351         350
         4         336         337         353         352
         4         337         338         354         353
         4         338         339         355         354
         4         339         340         356         355
         4         340         341         357         356
         4         341         342         358         357
         4         342         343         359         358
         4         343         344         360         359
         4         344         345         361         360
         4         345         346         362         361
         4         346         347         363         362
         4         347         348         364         363
         4         348         349         365         364
         4         349         350         366         365
         4         350         351         367         366
         4         352         353         369         368
         4         353         354         370         369
         4         354         355         371         370
         4         355         356         372         371
         4         356         357         373         372
         4         357         358         374         373
         4         358         359         375         374
         4         359         360         376         375
         4         360         361         377         376
         4         361         362         378         377
         4         362         363         379         378
         4         363         364         380         379
         4         364         365         381         380
         4         365         366         382         381
         4         366         367         383         382
         4         368         369         385         384
         4         369         370         386         385
         4         370         371         387         386
         4         371         372         388         387
         4         372         373         389         388
         4         373         374         390         389
         4         374         375         391         390
         4         375         376         392         391
         4         376         377         393         392
         4         377         378         394         393
         4         378         379         395         394
         4         379         380         396         395
         4         380         381         397         396
         4         381         382         398         397
         4         382         383         399         398
         4         384         385         401         400
         4         385         386         402         401
         4         386         387         403         402
         4         387         388         404         403
         4         388         389         405         404
         4         389         390         406         405
         4         390         391         407         406
         4         391         392         408         407
         4         392         393         409         408
         4         393         394         410         409
         4         394         395         411         410
         4         395         396         412         411
         4         396         397         413         412
         4         397         398         414         413
         4         398         399         415         414
         4         400         401         417         416
         4         401         402         418         417
         4         402         403         419         418
         4         403         404         420         419
         4         404         405         421         420
         4         405         406         422         421
         4         406         407         423         422
         4         407         408         424         423
         4         408         409         425         424
         4         409         410         426         425
         4         410         411         427         426
         4         411         412         428         427
         4         412         413         429         428
         4         413         414         430         429
         4         414         415         431         430
         4         416         417         433         432
         4         417         418         434         433
         4         418         419         435         434
         4         419         420         436         435
         4         420         421         437         436
         4         421         422         438         437
         4         422         423         439         438
         4         423         424         440         439
         4         424         425         441         440
         4         425         426         442         441
         4         426         427         443         442
         4         427         428         444         443
         4         428         429         445         444
         4         429         430         446         445
         4         430         431         447         446
         4         432         433         449         448
         4         433         434         450         449
         4         434         435         451         450
         4         435         436         452         451
         4         436         437         453         452
         4         437         438         454         453
         4         438         439         455         454
         4         439         440         456         455
         4         440         441         457         456
         4         441         442         458         457
         4         442         443         459         458
         4         443         444         460         459
         4         444         445         461         460
         4         445         446         462         461
         4         446         447         463         462
         4         448         449         465         464
         4         449         450         466         465
         4         450         451         467         466
         4         451         452         468         467
         4         452         453         469         468
         4         453         454         470         469
         4         454         455         471         470
         4         455         456         472         471
         4         456         457         473         472
         4         457         458         474         473
         4         458         459         475         474
         4         459         460         476         475
         4         460         461         477         476
         4         461         462         478         477
         4         462         463         479         478
         4         464         465         481         480
         4         465         466         482         481
         4         466         467         483         482
         4         467         468         484         483
         4         468         469         485         484
         4         469         470         486         485
         4         470         471         487         486
         4         471         472         488         487
         4         472         473         489         488
         4         473         474         490         489
         4         474         475         491         490
         4         475         476         492         491
         4         476         477         493         492
         4         477         478         494         493
         4         478         479         495         494
CELL_TYPES        450
9
9
9
9
9
9
9
9
9
9
9
9
9
9
9
9
9
9
9
9
9
9
9
9
9
9
9
9
9
9
9
9
9
9
9
9
9
9
9
9
9
9
9
9
9
9
9
9
9
9
9
9
9
9
9
9
9
9
9
9
9
9
9
9
9
9
9
9
9
9
9
9
9
9
9
9
9
9
9
9
9
9
9
9
9
9
9
9
9
9
9
9
9
9
9
9
9
9
9
9
9
9
9
9
9
9
9
9
9
9
9
9
9
9
9
9
9
9
9
9
9
9
9
9
9
9
9
9
9
9
9
9
9
9
9
9
9
9
9
9
9
9
9
9
9
9
9
9
9
9
9
9
9
9
9
9
9
9
9
9
9
9
9
9
9
9
9
9
9
9
9
9
9
9
9
9
9
9
9
9
9
9
9
9
9
9
9
9
9
9
9
9
9
9
9
9
9
9
9
9
9
9
9
9
9
9
9
9
9
9
9
9
9
9
9
9
9
9
9
9
9
9
9
9
9
9
9
9
9
9
9
9
9
9
9
9
9
9
9
9
9
9
9
9
9
9
9
9
9
9
9
9
9
9
9
9
9
9
9
9
9
9
9
9
9
9
9
9
9
9
9
9
9
9
9
9
9
9
9
9
9
9
9
9
9
9
9
9
9
9
9
9
9
9
9
9
9
9
9
9
9
9
9
9
9
9
9
9
9
9
9
9
9
9
9
9
9
9
9
9
9
9
9
9
9
9
9
9
9
9
9
9
9
9
9
9
9
9
9
9
9
9
9
9
9
9
9
9
9
9
9
9
9
9
9
9
9
9
9
9
9
9
9
9
9
9
9
9
9
9
9
9
9
9
9
9
9
9
9
9
9
9
9
9
9
9
9
9
9
9
9
9
9
9
9
9
9
9
9
9
9
9
9
9
9
9
9
9
9
9
9
9
9
9
9
9
9
9
9
9
9
9
9
9
9
9
9
9
9
9
9
9
9
9
9
9
9
9
9
9
9
9
9
9
9
9
9
9
9
9
POINT_DATA       496
SCALARS p double 
LOOKUP_TABLE default
   29120539.0769299     
   29120539.0783175     
   29120539.0813840     
   29120539.0846781     
   29120539.0877897     
   29120539.0907211     
   29120539.0935171     
   29120539.0961461     
   29120539.0985728     
   29120539.1007715     
   29120539.1027175     
   29120539.1043836     
   29120539.1057446     
   29120539.1067714     
   29120539.1074308     
   29120539.1076645     
   28616521.5457121     
   28616521.5459871     
   28616521.5468071     
   28616521.5479808     
   28616521.5493337     
   28616521.5508299     
   28616521.5523850     
   28616521.5539288     
   28616521.5554049     
   28616521.5567662     
   28616521.5579740     
   28616521.5589988     
   28616521.5598128     
   28616521.5603912     
   28616521.5607143     
   28616521.5608100     
   28112503.9790282     
   28112503.9789436     
   28112503.9788375     
   28112503.9790130     
   28112503.9795177     
   28112503.9801803     
   28112503.9809141     
   28112503.9816800     
   28112503.9824403     
   28112503.9831569     
   28112503.9837979     
   28112503.9843358     
   28112503.9847514     
   28112503.9850374     
   28112503.9852074     
   28112503.9852669     
   27608486.3785904     
   27608486.3785450     
   27608486.3785199     
   27608486.3786072     
   27608486.3787716     
   27608486.3789859     
   27608486.3792300     
   27608486.3794903     
   27608486.3797560     
   27608486.3800119     
   27608486.3802426     
   27608486.3804358     
   27608486.3805857     
   27608486.3806965     
   27608486.3807718     
   27608486.3808001     
   27104468.7476858     
   27104468.7476678     
   27104468.7476243     
   27104468.7475845     
   27104468.7475592     
   27104468.7475333     
   27104468.7474994     
   27104468.7474578     
   27104468.7474117     
   27104468.7473667     
   27104468.7473270     
   27104468.7472959     
   27104468.7472783     
   27104468.7472761     
   27104468.7472848     
   27104468.7472907     
   26600451.0868481     
   26600451.0867895     
   26600451.0866509     
   26600451.0864870     
   26600451.0863152     
   26600451.0861306     
   26600451.0859267     
   26600451.0857054     
   26600451.0854765     
   26600451.0852538     
   26600451.0850526     
   26600451.0848866     
   26600451.0847649     
   26600451.0846889     
   26600451.0846512     
   26600451.0846406     
   26096433.3961580     
   26096433.3960770     
   26096433.3958753     
   26096433.3956141     
   26096433.3953228     
   26096433.3950143     
   26096433.3946922     
   26096433.3943594     
   26096433.3940254     
   26096433.3937052     
   26096433.3934160     
   26096433.3931735     
   26096433.3929888     
   26096433.3928649     
   26096433.3927967     
   26096433.3927753     
   25592415.6757737     
   25592415.6756832     
   25592415.6754443     
   25592415.6751149     
   25592415.6747375     
   25592415.6743378     
   25592415.6739296     
   25592415.6735219     
   25592415.6731249     
   25592415.6727515     
   25592415.6724163     
   25592415.6721329     
   25592415.6719110     
   25592415.6717558     
   25592415.6716670     
   25592415.6716389     
   25088397.9258174     
   25088397.9257191     
   25088397.9254560     
   25088397.9250856     
   25088397.9246533     
   25088397.9241918     
   25088397.9237230     
   25088397.9232625     
   25088397.9228232     
   25088397.9224172     
   25088397.9220561     
   25088397.9217503     
   25088397.9215079     
   25088397.9213342     
   25088397.9212313     
   25088397.9211976     
   24584380.1463610     
   24584380.1462595     
   24584380.1459851     
   24584380.1455934     
   24584380.1451297     
   24584380.1446293     
   24584380.1441197     
   24584380.1436216     
   24584380.1431508     
   24584380.1427201     
   24584380.1423400     
   24584380.1420189     
   24584380.1417635     
   24584380.1415788     
   24584380.1414671     
   24584380.1414297     
   24080362.3374654     
   24080362.3373639     
   24080362.3370874     
   24080362.3366871     
   24080362.3362070     
   24080362.3356835     
   24080362.3351468     
   24080362.3346209     
   24080362.3341244     
   24080362.3336713     
   24080362.3332727     
   24080362.3329367     
   24080362.3326695     
   24080362.3324755     
   24080362.3323580     
   24080362.3323186     
   23576344.4991783     
   23576344.4990785     
   23576344.4988039     
   23576344.4984016     
   23576344.4979135     
   23576344.4973760     
   23576344.4968203     
   23576344.4962724     
   23576344.4957529     
   23576344.4952778     
   23576344.4948590     
   23576344.4945055     
   23576344.4942239     
   23576344.4940191     
   23576344.4938955     
   23576344.4938544     
   23072326.6315341     
   23072326.6314360     
   23072326.6311640     
   23072326.6307617     
   23072326.6302688     
   23072326.6297213     
   23072326.6291506     
   23072326.6285837     
   23072326.6280426     
   23072326.6275450     
   23072326.6271045     
   23072326.6267314     
   23072326.6264335     
   23072326.6262166     
   23072326.6260845     
   23072326.6260400     
   22568308.7345553     
   22568308.7344583     
   22568308.7341878     
   22568308.7337846     
   22568308.7332869     
   22568308.7327296     
   22568308.7321443     
   22568308.7315587     
   22568308.7309959     
   22568308.7304753     
   22568308.7300120     
   22568308.7296182     
   22568308.7293027     
   22568308.7290722     
   22568308.7289307     
   22568308.7288826     
   22064290.8082568     
   22064290.8081599     
   22064290.8078889     
   22064290.8074824     
   22064290.8069773     
   22064290.8064081     
   22064290.8058065     
   22064290.8052006     
   22064290.8046149     
   22064290.8040702     
   22064290.8035832     
   22064290.8031673     
   22064290.8028329     
   22064290.8025876     
   22064290.8024374     
   22064290.8023867     
   21560272.8526478     
   21560272.8525502     
   21560272.8522762     
   21560272.8518630     
   21560272.8513469     
   21560272.8507626     
   21560272.8501419     
   21560272.8495137     
   21560272.8489037     
   21560272.8483335     
   21560272.8478214     
   21560272.8473824     
   21560272.8470280     
   21560272.8467676     
   21560272.8466085     
   21560272.8465551     
   21056254.8677353     
   21056254.8676356     
   21056254.8673552     
   21056254.8669316     
   21056254.8664011     
   21056254.8657982     
   21056254.8651555     
   21056254.8645027     
   21056254.8638664     
   21056254.8632695     
   21056254.8627315     
   21056254.8622689     
   21056254.8618947     
   21056254.8616194     
   21056254.8614505     
   21056254.8613935     
   20552236.8535206     
   20552236.8534179     
   20552236.8531291     
   20552236.8526919     
   20552236.8521434     
   20552236.8515189     
   20552236.8508518     
   20552236.8501726     
   20552236.8495089     
   20552236.8488850     
   20552236.8483218     
   20552236.8478367     
   20552236.8474441     
   20552236.8471547     
   20552236.8469762     
   20552236.8469155     
   20048218.8100033     
   20048218.8098969     
   20048218.8095976     
   20048218.8091446     
   20048218.8085759     
   20048218.8079282     
   20048218.8072357     
   20048218.8065300     
   20048218.8058398     
   20048218.8051905     
   20048218.8046041     
   20048218.8040988     
   20048218.8036890     
   20048218.8033861     
   20048218.8031990     
   20048218.8031354     
   19544200.7371804     
   19544200.7370699     
   19544200.7367591     
   19544200.7362893     
   19544200.7357001     
   19544200.7350294     
   19544200.7343128     
   19544200.7335829     
   19544200.7328692     
   19544200.7321979     
   19544200.7315913     
   19544200.7310680     
   19544200.7306430     
   19544200.7303284     
   19544200.7301344     
   19544200.7300687     
   19040182.6350476     
   19040182.6349328     
   19040182.6346105     
   19040182.6341244     
   19040182.6335163     
   19040182.6328257     
   19040182.6320891     
   19040182.6313400     
   19040182.6306082     
   19040182.6299201     
   19040182.6292980     
   19040182.6287606     
   19040182.6283235     
   19040182.6279999     
   19040182.6278004     
   19040182.6277329     
   18536164.5035992     
   18536164.5034802     
   18536164.5031472     
   18536164.5026472     
   18536164.5020243     
   18536164.5013196     
   18536164.5005705     
   18536164.4998106     
   18536164.4990693     
   18536164.4983724     
   18536164.4977418     
   18536164.4971962     
   18536164.4967517     
   18536164.4964219     
   18536164.4962176     
   18536164.4961479     
   18032146.3428283     
   18032146.3427056     
   18032146.3423638     
   18032146.3418537     
   18032146.3412225     
   18032146.3405131     
   18032146.3397630     
   18032146.3390049     
   18032146.3382668     
   18032146.3375727     
   18032146.3369435     
   18032146.3363975     
   18032146.3359510     
   18032146.3356180     
   18032146.3354105     
   18032146.3353396     
   17528128.1527272     
   17528128.1526014     
   17528128.1522532     
   17528128.1517387     
   17528128.1511088     
   17528128.1504077     
   17528128.1496726     
   17528128.1489339     
   17528128.1482164     
   17528128.1475407     
   17528128.1469257     
   17528128.1463888     
   17528128.1459466     
   17528128.1456142     
   17528128.1454057     
   17528128.1453341     
   17024109.9332870     
   17024109.9331589     
   17024109.9328077     
   17024109.9322964     
   17024109.9316803     
   17024109.9310050     
   17024109.9303058     
   17024109.9296089     
   17024109.9289338     
   17024109.9282963     
   17024109.9277116     
   17024109.9271956     
   17024109.9267653     
   17024109.9264380     
   17024109.9262306     
   17024109.9261589     
   16520091.6844981     
   16520091.6843686     
   16520091.6840186     
   16520091.6835207     
   16520091.6829353     
   16520091.6823081     
   16520091.6816701     
   16520091.6810412     
   16520091.6804338     
   16520091.6798577     
   16520091.6793229     
   16520091.6788425     
   16520091.6784338     
   16520091.6781169     
   16520091.6779129     
   16520091.6778416     
   16016073.4063502     
   16016073.4062204     
   16016073.4058778     
   16016073.4054080     
   16016073.4048761     
   16016073.4043244     
   16016073.4037758     
   16016073.4032418     
   16016073.4027282     
   16016073.4022384     
   16016073.4017767     
   16016073.4013513     
   16016073.4009773     
   16016073.4006780     
   16016073.4004800     
   16016073.4004097     
   15512055.0988324     
   15512055.0987043     
   15512055.0983798     
   15512055.0979614     
   15512055.0975143     
   15512055.0970692     
   15512055.0966374     
   15512055.0962227     
   15512055.0958256     
   15512055.0954452     
   15512055.0950814     
   15512055.0947358     
   15512055.0944164     
   15512055.0941454     
   15512055.0939572     
   15512055.0938885     
   15008036.7619344     
   15008036.7618129     
   15008036.7615287     
   15008036.7612014     
   15008036.7608783     
   15008036.7605690     
   15008036.7602756     
   15008036.7599973     
   15008036.7597322     
   15008036.7594779     
   15008036.7592321     
   15008036.7589925     
   15008036.7587589     
   15008036.7585375     
   15008036.7583659     
   15008036.7583006     
   14504018.3956470     
   14504018.3955504     
   14504018.3953620     
   14504018.3951840     
   14504018.3950174     
   14504018.3948625     
   14504018.3947180     
   14504018.3945824     
   14504018.3944541     
   14504018.3943314     
   14504018.3942124     
   14504018.3940951     
   14504018.3939767     
   14504018.3938535     
   14504018.3937222     
   14504018.3936542     
   14000000.0000000     
   14000000.0000000     
   14000000.0000000     
   14000000.0000000     
   14000000.0000000     
   14000000.0000000     
   14000000.0000000     
   14000000.0000000     
   14000000.0000000     
   14000000.0000000     
   14000000.0000000     
   14000000.0000000     
   14000000.0000000     
   14000000.0000000     
   14000000.0000000     
   14000000.0000000     
VECTORS u double 
    0.00000E+00        -0.29924E-05         0.00000E+00
    0.00000E+00        -0.27740E-05         0.00000E+00
    0.00000E+00        -0.25539E-05         0.00000E+00
    0.00000E+00        -0.23349E-05         0.00000E+00
    0.00000E+00        -0.21196E-05         0.00000E+00
    0.00000E+00        -0.19092E-05         0.00000E+00
    0.00000E+00        -0.17027E-05         0.00000E+00
    0.00000E+00        -0.14998E-05         0.00000E+00
    0.00000E+00        -0.13002E-05         0.00000E+00
    0.00000E+00        -0.11037E-05         0.00000E+00
    0.00000E+00        -0.91040E-06         0.00000E+00
    0.00000E+00        -0.72035E-06         0.00000E+00
    0.00000E+00        -0.53376E-06         0.00000E+00
    0.00000E+00        -0.35099E-06         0.00000E+00
    0.00000E+00        -0.17262E-06         0.00000E+00
    0.00000E+00         0.00000E+00         0.00000E+00
    0.12368E-06        -0.29969E-05         0.00000E+00
    0.11487E-06        -0.27780E-05         0.00000E+00
    0.10427E-06        -0.25587E-05         0.00000E+00
    0.92027E-07        -0.23401E-05         0.00000E+00
    0.80159E-07        -0.21253E-05         0.00000E+00
    0.69873E-07        -0.19145E-05         0.00000E+00
    0.60859E-07        -0.17075E-05         0.00000E+00
    0.52751E-07        -0.15041E-05         0.00000E+00
    0.45439E-07        -0.13040E-05         0.00000E+00
    0.38601E-07        -0.11071E-05         0.00000E+00
    0.32098E-07        -0.91336E-06         0.00000E+00
    0.25874E-07        -0.72293E-06         0.00000E+00
    0.19730E-07        -0.53597E-06         0.00000E+00
    0.13555E-07        -0.35280E-06         0.00000E+00
    0.70947E-08        -0.17394E-06         0.00000E+00
    0.00000E+00         0.00000E+00         0.00000E+00
    0.21897E-06        -0.30062E-05         0.00000E+00
    0.20442E-06        -0.27884E-05         0.00000E+00
    0.18573E-06        -0.25706E-05         0.00000E+00
    0.16606E-06        -0.23538E-05         0.00000E+00
    0.14713E-06        -0.21395E-05         0.00000E+00
    0.12935E-06        -0.19283E-05         0.00000E+00
    0.11288E-06        -0.17203E-05         0.00000E+00
    0.97787E-07        -0.15158E-05         0.00000E+00
    0.83879E-07        -0.13145E-05         0.00000E+00
    0.70810E-07        -0.11165E-05         0.00000E+00
    0.58419E-07        -0.92165E-06         0.00000E+00
    0.46481E-07        -0.73012E-06         0.00000E+00
    0.34783E-07        -0.54204E-06         0.00000E+00
    0.23154E-07        -0.35759E-06         0.00000E+00
    0.11493E-07        -0.17697E-06         0.00000E+00
    0.00000E+00         0.00000E+00         0.00000E+00
    0.28952E-06        -0.30211E-05         0.00000E+00
    0.27031E-06        -0.28037E-05         0.00000E+00
    0.24900E-06        -0.25875E-05         0.00000E+00
    0.22603E-06        -0.23724E-05         0.00000E+00
    0.20251E-06        -0.21588E-05         0.00000E+00
    0.17938E-06        -0.19474E-05         0.00000E+00
    0.15715E-06        -0.17387E-05         0.00000E+00
    0.13623E-06        -0.15329E-05         0.00000E+00
    0.11655E-06        -0.13302E-05         0.00000E+00
    0.97921E-07        -0.11306E-05         0.00000E+00
    0.80195E-07        -0.93410E-06         0.00000E+00
    0.63142E-07        -0.74085E-06         0.00000E+00
    0.46579E-07        -0.55087E-06         0.00000E+00
    0.30421E-07        -0.36417E-06         0.00000E+00
    0.14791E-07        -0.18063E-06         0.00000E+00
    0.00000E+00         0.00000E+00         0.00000E+00
    0.34915E-06        -0.30411E-05         0.00000E+00
    0.32574E-06        -0.28240E-05         0.00000E+00
    0.30082E-06        -0.26084E-05         0.00000E+00
    0.27465E-06        -0.23943E-05         0.00000E+00
    0.24774E-06        -0.21814E-05         0.00000E+00
    0.22072E-06        -0.19701E-05         0.00000E+00
    0.19423E-06        -0.17609E-05         0.00000E+00
    0.16868E-06        -0.15539E-05         0.00000E+00
    0.14419E-06        -0.13496E-05         0.00000E+00
    0.12078E-06        -0.11482E-05         0.00000E+00
    0.98390E-07        -0.94965E-06         0.00000E+00
    0.76897E-07        -0.75410E-06         0.00000E+00
    0.56221E-07        -0.56151E-06         0.00000E+00
    0.36386E-07        -0.37176E-06         0.00000E+00
    0.17551E-07        -0.18467E-06         0.00000E+00
    0.00000E+00         0.00000E+00         0.00000E+00
    0.40090E-06        -0.30664E-05         0.00000E+00
    0.37274E-06        -0.28492E-05         0.00000E+00
    0.34385E-06        -0.26337E-05         0.00000E+00
    0.31440E-06        -0.24197E-05         0.00000E+00
    0.28455E-06        -0.22070E-05         0.00000E+00
    0.25453E-06        -0.19955E-05         0.00000E+00
    0.22478E-06        -0.17856E-05         0.00000E+00
    0.19563E-06        -0.15776E-05         0.00000E+00
    0.16732E-06        -0.13717E-05         0.00000E+00
    0.13999E-06        -0.11683E-05         0.00000E+00
    0.11371E-06        -0.96734E-06         0.00000E+00
    0.88504E-07        -0.76903E-06         0.00000E+00
    0.64410E-07        -0.57328E-06         0.00000E+00
    0.41527E-07        -0.37998E-06         0.00000E+00
    0.19987E-07        -0.18894E-06         0.00000E+00
    0.00000E+00         0.00000E+00         0.00000E+00
    0.44477E-06        -0.30965E-05         0.00000E+00
    0.41233E-06        -0.28790E-05         0.00000E+00
    0.37981E-06        -0.26631E-05         0.00000E+00
    0.34724E-06        -0.24486E-05         0.00000E+00
    0.31460E-06        -0.22353E-05         0.00000E+00
    0.28200E-06        -0.20233E-05         0.00000E+00
    0.24963E-06        -0.18125E-05         0.00000E+00
    0.21770E-06        -0.16032E-05         0.00000E+00
    0.18643E-06        -0.13956E-05         0.00000E+00
    0.15603E-06        -0.11899E-05         0.00000E+00
    0.12665E-06        -0.98639E-06         0.00000E+00
    0.98434E-07        -0.78499E-06         0.00000E+00
    0.71521E-07        -0.58575E-06         0.00000E+00
    0.46058E-07        -0.38858E-06         0.00000E+00
    0.22170E-07        -0.19337E-06         0.00000E+00
    0.00000E+00         0.00000E+00         0.00000E+00
    0.48137E-06        -0.31308E-05         0.00000E+00
    0.44540E-06        -0.29127E-05         0.00000E+00
    0.40971E-06        -0.26960E-05         0.00000E+00
    0.37430E-06        -0.24806E-05         0.00000E+00
    0.33913E-06        -0.22663E-05         0.00000E+00
    0.30425E-06        -0.20531E-05         0.00000E+00
    0.26969E-06        -0.18410E-05         0.00000E+00
    0.23556E-06        -0.16302E-05         0.00000E+00
    0.20202E-06        -0.14206E-05         0.00000E+00
    0.16927E-06        -0.12126E-05         0.00000E+00
    0.13752E-06        -0.10062E-05         0.00000E+00
    0.10695E-06        -0.80156E-06         0.00000E+00
    0.77740E-07        -0.59864E-06         0.00000E+00
    0.50084E-07        -0.39744E-06         0.00000E+00
    0.24125E-07        -0.19792E-06         0.00000E+00
    0.00000E+00         0.00000E+00         0.00000E+00
    0.51149E-06        -0.31686E-05         0.00000E+00
    0.47257E-06        -0.29496E-05         0.00000E+00
    0.43419E-06        -0.27319E-05         0.00000E+00
    0.39634E-06        -0.25152E-05         0.00000E+00
    0.35900E-06        -0.22995E-05         0.00000E+00
    0.32213E-06        -0.20848E-05         0.00000E+00
    0.28575E-06        -0.18710E-05         0.00000E+00
    0.24986E-06        -0.16582E-05         0.00000E+00
    0.21458E-06        -0.14465E-05         0.00000E+00
    0.18008E-06        -0.12359E-05         0.00000E+00
    0.14654E-06        -0.10265E-05         0.00000E+00
    0.11416E-06        -0.81845E-06         0.00000E+00
    0.83140E-07        -0.61175E-06         0.00000E+00
    0.53665E-07        -0.40644E-06         0.00000E+00
    0.25904E-07        -0.20253E-06         0.00000E+00
    0.00000E+00         0.00000E+00         0.00000E+00
    0.53565E-06        -0.32091E-05         0.00000E+00
    0.49432E-06        -0.29891E-05         0.00000E+00
    0.45376E-06        -0.27701E-05         0.00000E+00
    0.41393E-06        -0.25519E-05         0.00000E+00
    0.37479E-06        -0.23346E-05         0.00000E+00
    0.33630E-06        -0.21180E-05         0.00000E+00
    0.29842E-06        -0.19022E-05         0.00000E+00
    0.26115E-06        -0.16872E-05         0.00000E+00
    0.22455E-06        -0.14730E-05         0.00000E+00
    0.18875E-06        -0.12596E-05         0.00000E+00
    0.15389E-06        -0.10470E-05         0.00000E+00
    0.12017E-06        -0.83548E-06         0.00000E+00
    0.87742E-07        -0.62494E-06         0.00000E+00
    0.56799E-07        -0.41548E-06         0.00000E+00
    0.27510E-07        -0.20715E-06         0.00000E+00
    0.00000E+00         0.00000E+00         0.00000E+00
    0.55430E-06        -0.32519E-05         0.00000E+00
    0.51109E-06        -0.30307E-05         0.00000E+00
    0.46883E-06        -0.28102E-05         0.00000E+00
    0.42748E-06        -0.25903E-05         0.00000E+00
    0.38695E-06        -0.23711E-05         0.00000E+00
    0.34719E-06        -0.21525E-05         0.00000E+00
    0.30816E-06        -0.19344E-05         0.00000E+00
    0.26985E-06        -0.17169E-05         0.00000E+00
    0.23229E-06        -0.14999E-05         0.00000E+00
    0.19555E-06        -0.12835E-05         0.00000E+00
    0.15975E-06        -0.10677E-05         0.00000E+00
    0.12504E-06        -0.85256E-06         0.00000E+00
    0.91565E-07        -0.63814E-06         0.00000E+00
    0.59466E-07        -0.42452E-06         0.00000E+00
    0.28900E-07        -0.21178E-06         0.00000E+00
    0.00000E+00         0.00000E+00         0.00000E+00
    0.56786E-06        -0.32965E-05         0.00000E+00
    0.52325E-06        -0.30738E-05         0.00000E+00
    0.47976E-06        -0.28517E-05         0.00000E+00
    0.43728E-06        -0.26300E-05         0.00000E+00
    0.39575E-06        -0.24087E-05         0.00000E+00
    0.35510E-06        -0.21878E-05         0.00000E+00
    0.31527E-06        -0.19673E-05         0.00000E+00
    0.27625E-06        -0.17471E-05         0.00000E+00
    0.23804E-06        -0.15272E-05         0.00000E+00
    0.20069E-06        -0.13076E-05         0.00000E+00
    0.16426E-06        -0.10884E-05         0.00000E+00
    0.12887E-06        -0.86965E-06         0.00000E+00
    0.94630E-07        -0.65133E-06         0.00000E+00
    0.61651E-07        -0.43356E-06         0.00000E+00
    0.30063E-07        -0.21642E-06         0.00000E+00
    0.00000E+00         0.00000E+00         0.00000E+00
    0.57668E-06        -0.33422E-05         0.00000E+00
    0.53110E-06        -0.31180E-05         0.00000E+00
    0.48677E-06        -0.28941E-05         0.00000E+00
    0.44357E-06        -0.26705E-05         0.00000E+00
    0.40142E-06        -0.24471E-05         0.00000E+00
    0.36024E-06        -0.22238E-05         0.00000E+00
    0.31996E-06        -0.20007E-05         0.00000E+00
    0.28056E-06        -0.17777E-05         0.00000E+00
    0.24201E-06        -0.15547E-05         0.00000E+00
    0.20433E-06        -0.13319E-05         0.00000E+00
    0.16756E-06        -0.11092E-05         0.00000E+00
    0.13175E-06        -0.88673E-06         0.00000E+00
    0.97002E-07        -0.66447E-06         0.00000E+00
    0.63396E-07        -0.44253E-06         0.00000E+00
    0.31034E-07        -0.22101E-06         0.00000E+00
    0.00000E+00         0.00000E+00         0.00000E+00
    0.58103E-06        -0.33889E-05         0.00000E+00
    0.53486E-06        -0.31630E-05         0.00000E+00
    0.49007E-06        -0.29373E-05         0.00000E+00
    0.44652E-06        -0.27116E-05         0.00000E+00
    0.40411E-06        -0.24859E-05         0.00000E+00
    0.36275E-06        -0.22602E-05         0.00000E+00
    0.32237E-06        -0.20344E-05         0.00000E+00
    0.28290E-06        -0.18085E-05         0.00000E+00
    0.24431E-06        -0.15824E-05         0.00000E+00
    0.20658E-06        -0.13563E-05         0.00000E+00
    0.16972E-06        -0.11300E-05         0.00000E+00
    0.13376E-06        -0.90376E-06         0.00000E+00
    0.98745E-07        -0.67753E-06         0.00000E+00
    0.64740E-07        -0.45142E-06         0.00000E+00
    0.31810E-07        -0.22553E-06         0.00000E+00
    0.00000E+00         0.00000E+00         0.00000E+00
    0.58108E-06        -0.34360E-05         0.00000E+00
    0.53467E-06        -0.32084E-05         0.00000E+00
    0.48977E-06        -0.29807E-05         0.00000E+00
    0.44622E-06        -0.27530E-05         0.00000E+00
    0.40392E-06        -0.25250E-05         0.00000E+00
    0.36273E-06        -0.22968E-05         0.00000E+00
    0.32257E-06        -0.20682E-05         0.00000E+00
    0.28335E-06        -0.18393E-05         0.00000E+00
    0.24502E-06        -0.16101E-05         0.00000E+00
    0.20752E-06        -0.13806E-05         0.00000E+00
    0.17083E-06        -0.11508E-05         0.00000E+00
    0.13495E-06        -0.92071E-06         0.00000E+00
    0.99893E-07        -0.69050E-06         0.00000E+00
    0.65690E-07        -0.46023E-06         0.00000E+00
    0.32380E-07        -0.23002E-06         0.00000E+00
    0.00000E+00         0.00000E+00         0.00000E+00
    0.57697E-06        -0.34832E-05         0.00000E+00
    0.53064E-06        -0.32539E-05         0.00000E+00
    0.48596E-06        -0.30243E-05         0.00000E+00
    0.44276E-06        -0.27944E-05         0.00000E+00
    0.40089E-06        -0.25641E-05         0.00000E+00
    0.36022E-06        -0.23333E-05         0.00000E+00
    0.32061E-06        -0.21020E-05         0.00000E+00
    0.28196E-06        -0.18702E-05         0.00000E+00
    0.24417E-06        -0.16378E-05         0.00000E+00
    0.20718E-06        -0.14048E-05         0.00000E+00
    0.17091E-06        -0.11714E-05         0.00000E+00
    0.13535E-06        -0.93756E-06         0.00000E+00
    0.10046E-06        -0.70339E-06         0.00000E+00
    0.66260E-07        -0.46899E-06         0.00000E+00
    0.32758E-07        -0.23449E-06         0.00000E+00
    0.00000E+00         0.00000E+00         0.00000E+00
    0.56876E-06        -0.35303E-05         0.00000E+00
    0.52282E-06        -0.32992E-05         0.00000E+00
    0.47868E-06        -0.30676E-05         0.00000E+00
    0.43616E-06        -0.28356E-05         0.00000E+00
    0.39507E-06        -0.26029E-05         0.00000E+00
    0.35523E-06        -0.23696E-05         0.00000E+00
    0.31651E-06        -0.21356E-05         0.00000E+00
    0.27874E-06        -0.19007E-05         0.00000E+00
    0.24180E-06        -0.16652E-05         0.00000E+00
    0.20558E-06        -0.14289E-05         0.00000E+00
    0.16999E-06        -0.11919E-05         0.00000E+00
    0.13497E-06        -0.95427E-06         0.00000E+00
    0.10047E-06        -0.71618E-06         0.00000E+00
    0.66471E-07        -0.47769E-06         0.00000E+00
    0.32977E-07        -0.23892E-06         0.00000E+00
    0.00000E+00         0.00000E+00         0.00000E+00
    0.55648E-06        -0.35770E-05         0.00000E+00
    0.51122E-06        -0.33440E-05         0.00000E+00
    0.46794E-06        -0.31105E-05         0.00000E+00
    0.42642E-06        -0.28763E-05         0.00000E+00
    0.38643E-06        -0.26413E-05         0.00000E+00
    0.34778E-06        -0.24055E-05         0.00000E+00
    0.31026E-06        -0.21687E-05         0.00000E+00
    0.27368E-06        -0.19310E-05         0.00000E+00
    0.23789E-06        -0.16922E-05         0.00000E+00
    0.20272E-06        -0.14526E-05         0.00000E+00
    0.16807E-06        -0.12121E-05         0.00000E+00
    0.13383E-06        -0.97077E-06         0.00000E+00
    0.99945E-07        -0.72879E-06         0.00000E+00
    0.66364E-07        -0.48623E-06         0.00000E+00
    0.33057E-07        -0.24325E-06         0.00000E+00
    0.00000E+00         0.00000E+00         0.00000E+00
    0.54011E-06        -0.36229E-05         0.00000E+00
    0.49583E-06        -0.33881E-05         0.00000E+00
    0.45372E-06        -0.31526E-05         0.00000E+00
    0.41352E-06        -0.29163E-05         0.00000E+00
    0.37497E-06        -0.26791E-05         0.00000E+00
    0.33782E-06        -0.24407E-05         0.00000E+00
    0.30183E-06        -0.22012E-05         0.00000E+00
    0.26677E-06        -0.19606E-05         0.00000E+00
    0.23242E-06        -0.17188E-05         0.00000E+00
    0.19860E-06        -0.14759E-05         0.00000E+00
    0.16516E-06        -0.12319E-05         0.00000E+00
    0.13197E-06        -0.98695E-06         0.00000E+00
    0.98919E-07        -0.74113E-06         0.00000E+00
    0.65939E-07        -0.49459E-06         0.00000E+00
    0.32979E-07        -0.24749E-06         0.00000E+00
    0.00000E+00         0.00000E+00         0.00000E+00
    0.51959E-06        -0.36678E-05         0.00000E+00
    0.47660E-06        -0.34312E-05         0.00000E+00
    0.43598E-06        -0.31938E-05         0.00000E+00
    0.39742E-06        -0.29554E-05         0.00000E+00
    0.36063E-06        -0.27158E-05         0.00000E+00
    0.32532E-06        -0.24751E-05         0.00000E+00
    0.29119E-06        -0.22330E-05         0.00000E+00
    0.25796E-06        -0.19895E-05         0.00000E+00
    0.22538E-06        -0.17447E-05         0.00000E+00
    0.19321E-06        -0.14986E-05         0.00000E+00
    0.16126E-06        -0.12512E-05         0.00000E+00
    0.12935E-06        -0.10027E-05         0.00000E+00
    0.97362E-07        -0.75318E-06         0.00000E+00
    0.65178E-07        -0.50276E-06         0.00000E+00
    0.32734E-07        -0.25164E-06         0.00000E+00
    0.00000E+00         0.00000E+00         0.00000E+00
    0.49487E-06        -0.37114E-05         0.00000E+00
    0.45347E-06        -0.34730E-05         0.00000E+00
    0.41465E-06        -0.32337E-05         0.00000E+00
    0.37806E-06        -0.29932E-05         0.00000E+00
    0.34336E-06        -0.27514E-05         0.00000E+00
    0.31022E-06        -0.25082E-05         0.00000E+00
    0.27827E-06        -0.22636E-05         0.00000E+00
    0.24720E-06        -0.20174E-05         0.00000E+00
    0.21670E-06        -0.17697E-05         0.00000E+00
    0.18648E-06        -0.15205E-05         0.00000E+00
    0.15630E-06        -0.12699E-05         0.00000E+00
    0.12594E-06        -0.10180E-05         0.00000E+00
    0.95233E-07        -0.76489E-06         0.00000E+00
    0.64052E-07        -0.51073E-06         0.00000E+00
    0.32320E-07        -0.25571E-06         0.00000E+00
    0.00000E+00         0.00000E+00         0.00000E+00
    0.46587E-06        -0.37534E-05         0.00000E+00
    0.42638E-06        -0.35132E-05         0.00000E+00
    0.38969E-06        -0.32719E-05         0.00000E+00
    0.35539E-06        -0.30294E-05         0.00000E+00
    0.32311E-06        -0.27854E-05         0.00000E+00
    0.29245E-06        -0.25399E-05         0.00000E+00
    0.26302E-06        -0.22928E-05         0.00000E+00
    0.23442E-06        -0.20440E-05         0.00000E+00
    0.20630E-06        -0.17936E-05         0.00000E+00
    0.17833E-06        -0.15415E-05         0.00000E+00
    0.15020E-06        -0.12879E-05         0.00000E+00
    0.12164E-06        -0.10327E-05         0.00000E+00
    0.92468E-07        -0.77618E-06         0.00000E+00
    0.62523E-07        -0.51844E-06         0.00000E+00
    0.31718E-07        -0.25965E-06         0.00000E+00
    0.00000E+00         0.00000E+00         0.00000E+00
    0.43250E-06        -0.37933E-05         0.00000E+00
    0.39527E-06        -0.35514E-05         0.00000E+00
    0.36103E-06        -0.33082E-05         0.00000E+00
    0.32936E-06        -0.30637E-05         0.00000E+00
    0.29982E-06        -0.28176E-05         0.00000E+00
    0.27196E-06        -0.25698E-05         0.00000E+00
    0.24533E-06        -0.23203E-05         0.00000E+00
    0.21951E-06        -0.20691E-05         0.00000E+00
    0.19407E-06        -0.18161E-05         0.00000E+00
    0.16862E-06        -0.15613E-05         0.00000E+00
    0.14282E-06        -0.13049E-05         0.00000E+00
    0.11635E-06        -0.10467E-05         0.00000E+00
    0.88978E-07        -0.78698E-06         0.00000E+00
    0.60531E-07        -0.52585E-06         0.00000E+00
    0.30897E-07        -0.26345E-06         0.00000E+00
    0.00000E+00         0.00000E+00         0.00000E+00
    0.39470E-06        -0.38310E-05         0.00000E+00
    0.36008E-06        -0.35873E-05         0.00000E+00
    0.32865E-06        -0.33423E-05         0.00000E+00
    0.29994E-06        -0.30957E-05         0.00000E+00
    0.27344E-06        -0.28474E-05         0.00000E+00
    0.24867E-06        -0.25975E-05         0.00000E+00
    0.22512E-06        -0.23458E-05         0.00000E+00
    0.20232E-06        -0.20923E-05         0.00000E+00
    0.17982E-06        -0.18369E-05         0.00000E+00
    0.15717E-06        -0.15797E-05         0.00000E+00
    0.13398E-06        -0.13207E-05         0.00000E+00
    0.10989E-06        -0.10598E-05         0.00000E+00
    0.84626E-07        -0.79719E-06         0.00000E+00
    0.57977E-07        -0.53290E-06         0.00000E+00
    0.29798E-07        -0.26710E-06         0.00000E+00
    0.00000E+00         0.00000E+00         0.00000E+00
    0.35239E-06        -0.38660E-05         0.00000E+00
    0.32076E-06        -0.36206E-05         0.00000E+00
    0.29251E-06        -0.33736E-05         0.00000E+00
    0.26710E-06        -0.31250E-05         0.00000E+00
    0.24395E-06        -0.28747E-05         0.00000E+00
    0.22251E-06        -0.26226E-05         0.00000E+00
    0.20226E-06        -0.23688E-05         0.00000E+00
    0.18270E-06        -0.21132E-05         0.00000E+00
    0.16333E-06        -0.18557E-05         0.00000E+00
    0.14372E-06        -0.15964E-05         0.00000E+00
    0.12341E-06        -0.13352E-05         0.00000E+00
    0.10202E-06        -0.10720E-05         0.00000E+00
    0.79212E-07        -0.80672E-06         0.00000E+00
    0.54713E-07        -0.53956E-06         0.00000E+00
    0.28345E-07        -0.27060E-06         0.00000E+00
    0.00000E+00         0.00000E+00         0.00000E+00
    0.30551E-06        -0.38979E-05         0.00000E+00
    0.27729E-06        -0.36507E-05         0.00000E+00
    0.25263E-06        -0.34018E-05         0.00000E+00
    0.23085E-06        -0.31512E-05         0.00000E+00
    0.21132E-06        -0.28988E-05         0.00000E+00
    0.19343E-06        -0.26447E-05         0.00000E+00
    0.17663E-06        -0.23889E-05         0.00000E+00
    0.16042E-06        -0.21315E-05         0.00000E+00
    0.14434E-06        -0.18722E-05         0.00000E+00
    0.12794E-06        -0.16111E-05         0.00000E+00
    0.11078E-06        -0.13481E-05         0.00000E+00
    0.92422E-07        -0.10829E-05         0.00000E+00
    0.72455E-07        -0.81547E-06         0.00000E+00
    0.50538E-07        -0.54579E-06         0.00000E+00
    0.26433E-07        -0.27392E-06         0.00000E+00
    0.00000E+00         0.00000E+00         0.00000E+00
    0.25397E-06        -0.39263E-05         0.00000E+00
    0.22967E-06        -0.36773E-05         0.00000E+00
    0.20903E-06        -0.34265E-05         0.00000E+00
    0.19125E-06        -0.31738E-05         0.00000E+00
    0.17558E-06        -0.29194E-05         0.00000E+00
    0.16136E-06        -0.26634E-05         0.00000E+00
    0.14807E-06        -0.24059E-05         0.00000E+00
    0.13526E-06        -0.21467E-05         0.00000E+00
    0.12252E-06        -0.18860E-05         0.00000E+00
    0.10945E-06        -0.16235E-05         0.00000E+00
    0.95636E-07        -0.13591E-05         0.00000E+00
    0.80638E-07        -0.10924E-05         0.00000E+00
    0.63968E-07        -0.82328E-06         0.00000E+00
    0.45172E-07        -0.55151E-06         0.00000E+00
    0.23914E-07        -0.27706E-06         0.00000E+00
    0.00000E+00         0.00000E+00         0.00000E+00
    0.19772E-06        -0.39506E-05         0.00000E+00
    0.17794E-06        -0.36998E-05         0.00000E+00
    0.16183E-06        -0.34469E-05         0.00000E+00
    0.14837E-06        -0.31923E-05         0.00000E+00
    0.13670E-06        -0.29360E-05         0.00000E+00
    0.12620E-06        -0.26783E-05         0.00000E+00
    0.11640E-06        -0.24192E-05         0.00000E+00
    0.10695E-06        -0.21588E-05         0.00000E+00
    0.97526E-07        -0.18969E-05         0.00000E+00
    0.87814E-07        -0.16333E-05         0.00000E+00
    0.77474E-07        -0.13679E-05         0.00000E+00
    0.66111E-07        -0.11002E-05         0.00000E+00
    0.53222E-07        -0.82994E-06         0.00000E+00
    0.38214E-07        -0.55662E-06         0.00000E+00
    0.20575E-07        -0.27999E-06         0.00000E+00
    0.00000E+00         0.00000E+00         0.00000E+00
    0.13666E-06        -0.39701E-05         0.00000E+00
    0.12221E-06        -0.37174E-05         0.00000E+00
    0.11120E-06        -0.34625E-05         0.00000E+00
    0.10228E-06        -0.32060E-05         0.00000E+00
    0.94633E-07        -0.29481E-05         0.00000E+00
    0.87763E-07        -0.26890E-05         0.00000E+00
    0.81359E-07        -0.24288E-05         0.00000E+00
    0.75177E-07        -0.21674E-05         0.00000E+00
    0.68999E-07        -0.19047E-05         0.00000E+00
    0.62611E-07        -0.16404E-05         0.00000E+00
    0.55777E-07        -0.13743E-05         0.00000E+00
    0.48209E-07        -0.11060E-05         0.00000E+00
    0.39502E-07        -0.83513E-06         0.00000E+00
    0.29052E-07        -0.56090E-06         0.00000E+00
    0.16076E-07        -0.28265E-06         0.00000E+00
    0.00000E+00         0.00000E+00         0.00000E+00
    0.70704E-07        -0.39837E-05         0.00000E+00
    0.62764E-07        -0.37291E-05         0.00000E+00
    0.57299E-07        -0.34724E-05         0.00000E+00
    0.52924E-07        -0.32144E-05         0.00000E+00
    0.49174E-07        -0.29554E-05         0.00000E+00
    0.45806E-07        -0.26955E-05         0.00000E+00
    0.42666E-07        -0.24345E-05         0.00000E+00
    0.39634E-07        -0.21725E-05         0.00000E+00
    0.36598E-07        -0.19093E-05         0.00000E+00
    0.33453E-07        -0.16446E-05         0.00000E+00
    0.30082E-07        -0.13781E-05         0.00000E+00
    0.26333E-07        -0.11096E-05         0.00000E+00
    0.21998E-07        -0.83841E-06         0.00000E+00
    0.16692E-07        -0.56388E-06         0.00000E+00
    0.97665E-08        -0.28491E-06         0.00000E+00
    0.00000E+00         0.00000E+00         0.00000E+00
    0.00000E+00        -0.39894E-05         0.00000E+00
    0.00000E+00        -0.37333E-05         0.00000E+00
    0.00000E+00        -0.34757E-05         0.00000E+00
    0.00000E+00        -0.32172E-05         0.00000E+00
    0.00000E+00        -0.29578E-05         0.00000E+00
    0.00000E+00        -0.26976E-05         0.00000E+00
    0.00000E+00        -0.24364E-05         0.00000E+00
    0.00000E+00        -0.21742E-05         0.00000E+00
    0.00000E+00        -0.19108E-05         0.00000E+00
    0.00000E+00        -0.16459E-05         0.00000E+00
    0.00000E+00        -0.13794E-05         0.00000E+00
    0.00000E+00        -0.11108E-05         0.00000E+00
    0.00000E+00        -0.83953E-06         0.00000E+00
    0.00000E+00        -0.56498E-06         0.00000E+00
    0.00000E+00        -0.28592E-06         0.00000E+00
    0.00000E+00         0.00000E+00         0.00000E+00
CELL_DATA        450
VECTORS vDarcy double 
    0.34700E-05         0.57231E-14         0.00000E+00
    0.34700E-05         0.13379E-13         0.00000E+00
    0.34700E-05         0.15380E-13         0.00000E+00
    0.34700E-05         0.15368E-13         0.00000E+00
    0.34700E-05         0.15242E-13         0.00000E+00
    0.34700E-05         0.14978E-13         0.00000E+00
    0.34700E-05         0.14364E-13         0.00000E+00
    0.34700E-05         0.13435E-13         0.00000E+00
    0.34700E-05         0.12255E-13         0.00000E+00
    0.34700E-05         0.10857E-13         0.00000E+00
    0.34700E-05         0.92629E-14         0.00000E+00
    0.34700E-05         0.74872E-14         0.00000E+00
    0.34700E-05         0.55255E-14         0.00000E+00
    0.34700E-05         0.33823E-14         0.00000E+00
    0.34700E-05         0.11336E-14         0.00000E+00
    0.34700E-05         0.65535E-15         0.00000E+00
    0.34700E-05         0.24578E-14         0.00000E+00
    0.34700E-05         0.46441E-14         0.00000E+00
    0.34700E-05         0.63945E-14         0.00000E+00
    0.34700E-05         0.74313E-14         0.00000E+00
    0.34700E-05         0.78790E-14         0.00000E+00
    0.34700E-05         0.79510E-14         0.00000E+00
    0.34700E-05         0.76982E-14         0.00000E+00
    0.34700E-05         0.71532E-14         0.00000E+00
    0.34700E-05         0.63641E-14         0.00000E+00
    0.34700E-05         0.53792E-14         0.00000E+00
    0.34700E-05         0.42327E-14         0.00000E+00
    0.34700E-05         0.29756E-14         0.00000E+00
    0.34700E-05         0.16976E-14         0.00000E+00
    0.34700E-05         0.53391E-15         0.00000E+00
    0.34700E-05        -0.44759E-15         0.00000E+00
    0.34700E-05        -0.45134E-15         0.00000E+00
    0.34700E-05         0.90466E-15         0.00000E+00
    0.34700E-05         0.23034E-14         0.00000E+00
    0.34700E-05         0.30183E-14         0.00000E+00
    0.34700E-05         0.33661E-14         0.00000E+00
    0.34700E-05         0.35328E-14         0.00000E+00
    0.34700E-05         0.35317E-14         0.00000E+00
    0.34700E-05         0.33478E-14         0.00000E+00
    0.34700E-05         0.30008E-14         0.00000E+00
    0.34700E-05         0.25167E-14         0.00000E+00
    0.34700E-05         0.19463E-14         0.00000E+00
    0.34700E-05         0.13661E-14         0.00000E+00
    0.34700E-05         0.84443E-15         0.00000E+00
    0.34700E-05         0.30229E-15         0.00000E+00
    0.34700E-05        -0.21851E-15         0.00000E+00
    0.34700E-05        -0.23595E-15         0.00000E+00
    0.34700E-05         0.16384E-15         0.00000E+00
    0.34700E-05         0.47859E-15         0.00000E+00
    0.34700E-05         0.64837E-15         0.00000E+00
    0.34700E-05         0.72339E-15         0.00000E+00
    0.34700E-05         0.75314E-15         0.00000E+00
    0.34700E-05         0.75617E-15         0.00000E+00
    0.34700E-05         0.72594E-15         0.00000E+00
    0.34700E-05         0.65730E-15         0.00000E+00
    0.34700E-05         0.55820E-15         0.00000E+00
    0.34700E-05         0.45499E-15         0.00000E+00
    0.34700E-05         0.37418E-15         0.00000E+00
    0.34700E-05         0.28889E-15         0.00000E+00
    0.34700E-05         0.11811E-15         0.00000E+00
    0.34700E-05        -0.26403E-15         0.00000E+00
    0.34700E-05        -0.62644E-15         0.00000E+00
    0.34700E-05        -0.70117E-15         0.00000E+00
    0.34700E-05        -0.67875E-15         0.00000E+00
    0.34700E-05        -0.72489E-15         0.00000E+00
    0.34700E-05        -0.81857E-15         0.00000E+00
    0.34700E-05        -0.90460E-15         0.00000E+00
    0.34700E-05        -0.94666E-15         0.00000E+00
    0.34700E-05        -0.92136E-15         0.00000E+00
    0.34700E-05        -0.82963E-15         0.00000E+00
    0.34700E-05        -0.67841E-15         0.00000E+00
    0.34700E-05        -0.47960E-15         0.00000E+00
    0.34700E-05        -0.26912E-15         0.00000E+00
    0.34700E-05        -0.99761E-16         0.00000E+00
    0.34700E-05        -0.15998E-16         0.00000E+00
    0.34700E-05        -0.48070E-15         0.00000E+00
    0.34700E-05        -0.11713E-14         0.00000E+00
    0.34700E-05        -0.14634E-14         0.00000E+00
    0.34700E-05        -0.15943E-14         0.00000E+00
    0.34700E-05        -0.16974E-14         0.00000E+00
    0.34700E-05        -0.18106E-14         0.00000E+00
    0.34700E-05        -0.19071E-14         0.00000E+00
    0.34700E-05        -0.19379E-14         0.00000E+00
    0.34700E-05        -0.18686E-14         0.00000E+00
    0.34700E-05        -0.16885E-14         0.00000E+00
    0.34700E-05        -0.14062E-14         0.00000E+00
    0.34700E-05        -0.10546E-14         0.00000E+00
    0.34700E-05        -0.68820E-15         0.00000E+00
    0.34700E-05        -0.36434E-15         0.00000E+00
    0.34700E-05        -0.10990E-15         0.00000E+00
    0.34700E-05        -0.59030E-15         0.00000E+00
    0.34700E-05        -0.15169E-14         0.00000E+00
    0.34700E-05        -0.20331E-14         0.00000E+00
    0.34700E-05        -0.23019E-14         0.00000E+00
    0.34700E-05        -0.24376E-14         0.00000E+00
    0.34700E-05        -0.25142E-14         0.00000E+00
    0.34700E-05        -0.25490E-14         0.00000E+00
    0.34700E-05        -0.25163E-14         0.00000E+00
    0.34700E-05        -0.23875E-14         0.00000E+00
    0.34700E-05        -0.21496E-14         0.00000E+00
    0.34700E-05        -0.18104E-14         0.00000E+00
    0.34700E-05        -0.13995E-14         0.00000E+00
    0.34700E-05        -0.96093E-15         0.00000E+00
    0.34700E-05        -0.54046E-15         0.00000E+00
    0.34700E-05        -0.17010E-15         0.00000E+00
    0.34700E-05        -0.64994E-15         0.00000E+00
    0.34700E-05        -0.17282E-14         0.00000E+00
    0.34700E-05        -0.24088E-14         0.00000E+00
    0.34700E-05        -0.27873E-14         0.00000E+00
    0.34700E-05        -0.29646E-14         0.00000E+00
    0.34700E-05        -0.30192E-14         0.00000E+00
    0.34700E-05        -0.29884E-14         0.00000E+00
    0.34700E-05        -0.28787E-14         0.00000E+00
    0.34700E-05        -0.26829E-14         0.00000E+00
    0.34700E-05        -0.23968E-14         0.00000E+00
    0.34700E-05        -0.20285E-14         0.00000E+00
    0.34700E-05        -0.15981E-14         0.00000E+00
    0.34700E-05        -0.11325E-14         0.00000E+00
    0.34700E-05        -0.65988E-15         0.00000E+00
    0.34700E-05        -0.21253E-15         0.00000E+00
    0.34700E-05        -0.68783E-15         0.00000E+00
    0.34700E-05        -0.18503E-14         0.00000E+00
    0.34700E-05        -0.26233E-14         0.00000E+00
    0.34700E-05        -0.30844E-14         0.00000E+00
    0.34700E-05        -0.33112E-14         0.00000E+00
    0.34700E-05        -0.33680E-14         0.00000E+00
    0.34700E-05        -0.32997E-14         0.00000E+00
    0.34700E-05        -0.31328E-14         0.00000E+00
    0.34700E-05        -0.28801E-14         0.00000E+00
    0.34700E-05        -0.25515E-14         0.00000E+00
    0.34700E-05        -0.21582E-14         0.00000E+00
    0.34700E-05        -0.17136E-14         0.00000E+00
    0.34700E-05        -0.12338E-14         0.00000E+00
    0.34700E-05        -0.73866E-15         0.00000E+00
    0.34700E-05        -0.24483E-15         0.00000E+00
    0.34700E-05        -0.69862E-15         0.00000E+00
    0.34700E-05        -0.18966E-14         0.00000E+00
    0.34700E-05        -0.27261E-14         0.00000E+00
    0.34700E-05        -0.32492E-14         0.00000E+00
    0.34700E-05        -0.35244E-14         0.00000E+00
    0.34700E-05        -0.36018E-14         0.00000E+00
    0.34700E-05        -0.35251E-14         0.00000E+00
    0.34700E-05        -0.33298E-14         0.00000E+00
    0.34700E-05        -0.30419E-14         0.00000E+00
    0.34700E-05        -0.26808E-14         0.00000E+00
    0.34700E-05        -0.22619E-14         0.00000E+00
    0.34700E-05        -0.17989E-14         0.00000E+00
    0.34700E-05        -0.13036E-14         0.00000E+00
    0.34700E-05        -0.78902E-15         0.00000E+00
    0.34700E-05        -0.26436E-15         0.00000E+00
    0.34700E-05        -0.69282E-15         0.00000E+00
    0.34700E-05        -0.18972E-14         0.00000E+00
    0.34700E-05        -0.27624E-14         0.00000E+00
    0.34700E-05        -0.33333E-14         0.00000E+00
    0.34700E-05        -0.36522E-14         0.00000E+00
    0.34700E-05        -0.37603E-14         0.00000E+00
    0.34700E-05        -0.36966E-14         0.00000E+00
    0.34700E-05        -0.34976E-14         0.00000E+00
    0.34700E-05        -0.31950E-14         0.00000E+00
    0.34700E-05        -0.28138E-14         0.00000E+00
    0.34700E-05        -0.23735E-14         0.00000E+00
    0.34700E-05        -0.18892E-14         0.00000E+00
    0.34700E-05        -0.13726E-14         0.00000E+00
    0.34700E-05        -0.83036E-15         0.00000E+00
    0.34700E-05        -0.27678E-15         0.00000E+00
    0.34700E-05        -0.68136E-15         0.00000E+00
    0.34700E-05        -0.18813E-14         0.00000E+00
    0.34700E-05        -0.27698E-14         0.00000E+00
    0.34700E-05        -0.33770E-14         0.00000E+00
    0.34700E-05        -0.37349E-14         0.00000E+00
    0.34700E-05        -0.38771E-14         0.00000E+00
    0.34700E-05        -0.38378E-14         0.00000E+00
    0.34700E-05        -0.36510E-14         0.00000E+00
    0.34700E-05        -0.33484E-14         0.00000E+00
    0.34700E-05        -0.29579E-14         0.00000E+00
    0.34700E-05        -0.25014E-14         0.00000E+00
    0.34700E-05        -0.19949E-14         0.00000E+00
    0.34700E-05        -0.14514E-14         0.00000E+00
    0.34700E-05        -0.88039E-15         0.00000E+00
    0.34700E-05        -0.29455E-15         0.00000E+00
    0.34700E-05        -0.67200E-15         0.00000E+00
    0.34700E-05        -0.18671E-14         0.00000E+00
    0.34700E-05        -0.27730E-14         0.00000E+00
    0.34700E-05        -0.34102E-14         0.00000E+00
    0.34700E-05        -0.38031E-14         0.00000E+00
    0.34700E-05        -0.39790E-14         0.00000E+00
    0.34700E-05        -0.39677E-14         0.00000E+00
    0.34700E-05        -0.37998E-14         0.00000E+00
    0.34700E-05        -0.35050E-14         0.00000E+00
    0.34700E-05        -0.31110E-14         0.00000E+00
    0.34700E-05        -0.26401E-14         0.00000E+00
    0.34700E-05        -0.21114E-14         0.00000E+00
    0.34700E-05        -0.15403E-14         0.00000E+00
    0.34700E-05        -0.94173E-15         0.00000E+00
    0.34700E-05        -0.31862E-15         0.00000E+00
    0.34700E-05        -0.66766E-15         0.00000E+00
    0.34700E-05        -0.18637E-14         0.00000E+00
    0.34700E-05        -0.27872E-14         0.00000E+00
    0.34700E-05        -0.34523E-14         0.00000E+00
    0.34700E-05        -0.38776E-14         0.00000E+00
    0.34700E-05        -0.40857E-14         0.00000E+00
    0.34700E-05        -0.41018E-14         0.00000E+00
    0.34700E-05        -0.39532E-14         0.00000E+00
    0.34700E-05        -0.36674E-14         0.00000E+00
    0.34700E-05        -0.32710E-14         0.00000E+00
    0.34700E-05        -0.27873E-14         0.00000E+00
    0.34700E-05        -0.22370E-14         0.00000E+00
    0.34700E-05        -0.16380E-14         0.00000E+00
    0.34700E-05        -0.10041E-14         0.00000E+00
    0.34700E-05        -0.33995E-15         0.00000E+00
    0.34700E-05        -0.66950E-15         0.00000E+00
    0.34700E-05        -0.18761E-14         0.00000E+00
    0.34700E-05        -0.28217E-14         0.00000E+00
    0.34700E-05        -0.35152E-14         0.00000E+00
    0.34700E-05        -0.39709E-14         0.00000E+00
    0.34700E-05        -0.42078E-14         0.00000E+00
    0.34700E-05        -0.42479E-14         0.00000E+00
    0.34700E-05        -0.41161E-14         0.00000E+00
    0.34700E-05        -0.38380E-14         0.00000E+00
    0.34700E-05        -0.34390E-14         0.00000E+00
    0.34700E-05        -0.29430E-14         0.00000E+00
    0.34700E-05        -0.23711E-14         0.00000E+00
    0.34700E-05        -0.17408E-14         0.00000E+00
    0.34700E-05        -0.10647E-14         0.00000E+00
    0.34700E-05        -0.35826E-15         0.00000E+00
    0.34700E-05        -0.67933E-15         0.00000E+00
    0.34700E-05        -0.19084E-14         0.00000E+00
    0.34700E-05        -0.28805E-14         0.00000E+00
    0.34700E-05        -0.36029E-14         0.00000E+00
    0.34700E-05        -0.40869E-14         0.00000E+00
    0.34700E-05        -0.43490E-14         0.00000E+00
    0.34700E-05        -0.44093E-14         0.00000E+00
    0.34700E-05        -0.42906E-14         0.00000E+00
    0.34700E-05        -0.40176E-14         0.00000E+00
    0.34700E-05        -0.36145E-14         0.00000E+00
    0.34700E-05        -0.31040E-14         0.00000E+00
    0.34700E-05        -0.25078E-14         0.00000E+00
    0.34700E-05        -0.18443E-14         0.00000E+00
    0.34700E-05        -0.11290E-14         0.00000E+00
    0.34700E-05        -0.38011E-15         0.00000E+00
    0.34700E-05        -0.69672E-15         0.00000E+00
    0.34700E-05        -0.19594E-14         0.00000E+00
    0.34700E-05        -0.29630E-14         0.00000E+00
    0.34700E-05        -0.37146E-14         0.00000E+00
    0.34700E-05        -0.42250E-14         0.00000E+00
    0.34700E-05        -0.45088E-14         0.00000E+00
    0.34700E-05        -0.45849E-14         0.00000E+00
    0.34700E-05        -0.44751E-14         0.00000E+00
    0.34700E-05        -0.42027E-14         0.00000E+00
    0.34700E-05        -0.37907E-14         0.00000E+00
    0.34700E-05        -0.32623E-14         0.00000E+00
    0.34700E-05        -0.26394E-14         0.00000E+00
    0.34700E-05        -0.19441E-14         0.00000E+00
    0.34700E-05        -0.11959E-14         0.00000E+00
    0.34700E-05        -0.40528E-15         0.00000E+00
    0.34700E-05        -0.71961E-15         0.00000E+00
    0.34700E-05        -0.20247E-14         0.00000E+00
    0.34700E-05        -0.30644E-14         0.00000E+00
    0.34700E-05        -0.38457E-14         0.00000E+00
    0.34700E-05        -0.43794E-14         0.00000E+00
    0.34700E-05        -0.46804E-14         0.00000E+00
    0.34700E-05        -0.47671E-14         0.00000E+00
    0.34700E-05        -0.46605E-14         0.00000E+00
    0.34700E-05        -0.43829E-14         0.00000E+00
    0.34700E-05        -0.39576E-14         0.00000E+00
    0.34700E-05        -0.34091E-14         0.00000E+00
    0.34700E-05        -0.27620E-14         0.00000E+00
    0.34700E-05        -0.20390E-14         0.00000E+00
    0.34700E-05        -0.12586E-14         0.00000E+00
    0.34700E-05        -0.42803E-15         0.00000E+00
    0.34700E-05        -0.74664E-15         0.00000E+00
    0.34700E-05        -0.21000E-14         0.00000E+00
    0.34700E-05        -0.31769E-14         0.00000E+00
    0.34700E-05        -0.39857E-14         0.00000E+00
    0.34700E-05        -0.45384E-14         0.00000E+00
    0.34700E-05        -0.48508E-14         0.00000E+00
    0.34700E-05        -0.49419E-14         0.00000E+00
    0.34700E-05        -0.48326E-14         0.00000E+00
    0.34700E-05        -0.45459E-14         0.00000E+00
    0.34700E-05        -0.41067E-14         0.00000E+00
    0.34700E-05        -0.35409E-14         0.00000E+00
    0.34700E-05        -0.28737E-14         0.00000E+00
    0.34700E-05        -0.21257E-14         0.00000E+00
    0.34700E-05        -0.13118E-14         0.00000E+00
    0.34700E-05        -0.44498E-15         0.00000E+00
    0.34700E-05        -0.77574E-15         0.00000E+00
    0.34700E-05        -0.21791E-14         0.00000E+00
    0.34700E-05        -0.32907E-14         0.00000E+00
    0.34700E-05        -0.41214E-14         0.00000E+00
    0.34700E-05        -0.46860E-14         0.00000E+00
    0.34700E-05        -0.50025E-14         0.00000E+00
    0.34700E-05        -0.50915E-14         0.00000E+00
    0.34700E-05        -0.49758E-14         0.00000E+00
    0.34700E-05        -0.46796E-14         0.00000E+00
    0.34700E-05        -0.42294E-14         0.00000E+00
    0.34700E-05        -0.36512E-14         0.00000E+00
    0.34700E-05        -0.29677E-14         0.00000E+00
    0.34700E-05        -0.21973E-14         0.00000E+00
    0.34700E-05        -0.13544E-14         0.00000E+00
    0.34700E-05        -0.45832E-15         0.00000E+00
    0.34700E-05        -0.80484E-15         0.00000E+00
    0.34700E-05        -0.22555E-14         0.00000E+00
    0.34700E-05        -0.33947E-14         0.00000E+00
    0.34700E-05        -0.42374E-14         0.00000E+00
    0.34700E-05        -0.48030E-14         0.00000E+00
    0.34700E-05        -0.51141E-14         0.00000E+00
    0.34700E-05        -0.51949E-14         0.00000E+00
    0.34700E-05        -0.50707E-14         0.00000E+00
    0.34700E-05        -0.47678E-14         0.00000E+00
    0.34700E-05        -0.43123E-14         0.00000E+00
    0.34700E-05        -0.37278E-14         0.00000E+00
    0.34700E-05        -0.30347E-14         0.00000E+00
    0.34700E-05        -0.22494E-14         0.00000E+00
    0.34700E-05        -0.13899E-14         0.00000E+00
    0.34700E-05        -0.47223E-15         0.00000E+00
    0.34700E-05        -0.83195E-15         0.00000E+00
    0.34700E-05        -0.23229E-14         0.00000E+00
    0.34700E-05        -0.34774E-14         0.00000E+00
    0.34700E-05        -0.43168E-14         0.00000E+00
    0.34700E-05        -0.48678E-14         0.00000E+00
    0.34700E-05        -0.51605E-14         0.00000E+00
    0.34700E-05        -0.52256E-14         0.00000E+00
    0.34700E-05        -0.50925E-14         0.00000E+00
    0.34700E-05        -0.47884E-14         0.00000E+00
    0.34700E-05        -0.43369E-14         0.00000E+00
    0.34700E-05        -0.37576E-14         0.00000E+00
    0.34700E-05        -0.30669E-14         0.00000E+00
    0.34700E-05        -0.22815E-14         0.00000E+00
    0.34700E-05        -0.14176E-14         0.00000E+00
    0.34700E-05        -0.48391E-15         0.00000E+00
    0.34700E-05        -0.85530E-15         0.00000E+00
    0.34700E-05        -0.23753E-14         0.00000E+00
    0.34700E-05        -0.35271E-14         0.00000E+00
    0.34700E-05        -0.43411E-14         0.00000E+00
    0.34700E-05        -0.48555E-14         0.00000E+00
    0.34700E-05        -0.51123E-14         0.00000E+00
    0.34700E-05        -0.51524E-14         0.00000E+00
    0.34700E-05        -0.50109E-14         0.00000E+00
    0.34700E-05        -0.47152E-14         0.00000E+00
    0.34700E-05        -0.42833E-14         0.00000E+00
    0.34700E-05        -0.37275E-14         0.00000E+00
    0.34700E-05        -0.30590E-14         0.00000E+00
    0.34700E-05        -0.22905E-14         0.00000E+00
    0.34700E-05        -0.14321E-14         0.00000E+00
    0.34700E-05        -0.49057E-15         0.00000E+00
    0.34700E-05        -0.87388E-15         0.00000E+00
    0.34700E-05        -0.24075E-14         0.00000E+00
    0.34700E-05        -0.35313E-14         0.00000E+00
    0.34700E-05        -0.42895E-14         0.00000E+00
    0.34700E-05        -0.47379E-14         0.00000E+00
    0.34700E-05        -0.49371E-14         0.00000E+00
    0.34700E-05        -0.49417E-14         0.00000E+00
    0.34700E-05        -0.47942E-14         0.00000E+00
    0.34700E-05        -0.45202E-14         0.00000E+00
    0.34700E-05        -0.41300E-14         0.00000E+00
    0.34700E-05        -0.36243E-14         0.00000E+00
    0.34700E-05        -0.30035E-14         0.00000E+00
    0.34700E-05        -0.22709E-14         0.00000E+00
    0.34700E-05        -0.14318E-14         0.00000E+00
    0.34700E-05        -0.49330E-15         0.00000E+00
    0.34700E-05        -0.88685E-15         0.00000E+00
    0.34700E-05        -0.24136E-14         0.00000E+00
    0.34700E-05        -0.34742E-14         0.00000E+00
    0.34700E-05        -0.41361E-14         0.00000E+00
    0.34700E-05        -0.44837E-14         0.00000E+00
    0.34700E-05        -0.46028E-14         0.00000E+00
    0.34700E-05        -0.45640E-14         0.00000E+00
    0.34700E-05        -0.44149E-14         0.00000E+00
    0.34700E-05        -0.41776E-14         0.00000E+00
    0.34700E-05        -0.38537E-14         0.00000E+00
    0.34700E-05        -0.34300E-14         0.00000E+00
    0.34700E-05        -0.28884E-14         0.00000E+00
    0.34700E-05        -0.22173E-14         0.00000E+00
    0.34700E-05        -0.14163E-14         0.00000E+00
    0.34700E-05        -0.49211E-15         0.00000E+00
    0.34700E-05        -0.89276E-15         0.00000E+00
    0.34700E-05        -0.23837E-14         0.00000E+00
    0.34700E-05        -0.33313E-14         0.00000E+00
    0.34700E-05        -0.38461E-14         0.00000E+00
    0.34700E-05        -0.40586E-14         0.00000E+00
    0.34700E-05        -0.40844E-14         0.00000E+00
    0.34700E-05        -0.40032E-14         0.00000E+00
    0.34700E-05        -0.38590E-14         0.00000E+00
    0.34700E-05        -0.36692E-14         0.00000E+00
    0.34700E-05        -0.34300E-14         0.00000E+00
    0.34700E-05        -0.31183E-14         0.00000E+00
    0.34700E-05        -0.26943E-14         0.00000E+00
    0.34700E-05        -0.21211E-14         0.00000E+00
    0.34700E-05        -0.13840E-14         0.00000E+00
    0.34700E-05        -0.48711E-15         0.00000E+00
    0.34700E-05        -0.88772E-15         0.00000E+00
    0.34700E-05        -0.22963E-14         0.00000E+00
    0.34700E-05        -0.30576E-14         0.00000E+00
    0.34700E-05        -0.33697E-14         0.00000E+00
    0.34700E-05        -0.34317E-14         0.00000E+00
    0.34700E-05        -0.33748E-14         0.00000E+00
    0.34700E-05        -0.32656E-14         0.00000E+00
    0.34700E-05        -0.31353E-14         0.00000E+00
    0.34700E-05        -0.29952E-14         0.00000E+00
    0.34700E-05        -0.28417E-14         0.00000E+00
    0.34700E-05        -0.26543E-14         0.00000E+00
    0.34700E-05        -0.23867E-14         0.00000E+00
    0.34700E-05        -0.19634E-14         0.00000E+00
    0.34700E-05        -0.13293E-14         0.00000E+00
    0.34700E-05        -0.47854E-15         0.00000E+00
    0.34700E-05        -0.85906E-15         0.00000E+00
    0.34700E-05        -0.20957E-14         0.00000E+00
    0.34700E-05        -0.25667E-14         0.00000E+00
    0.34700E-05        -0.26511E-14         0.00000E+00
    0.34700E-05        -0.25971E-14         0.00000E+00
    0.34700E-05        -0.24964E-14         0.00000E+00
    0.34700E-05        -0.23855E-14         0.00000E+00
    0.34700E-05        -0.22797E-14         0.00000E+00
    0.34700E-05        -0.21844E-14         0.00000E+00
    0.34700E-05        -0.20989E-14         0.00000E+00
    0.34700E-05        -0.20142E-14         0.00000E+00
    0.34700E-05        -0.19038E-14         0.00000E+00
    0.34700E-05        -0.16951E-14         0.00000E+00
    0.34700E-05        -0.12382E-14         0.00000E+00
    0.34700E-05        -0.46162E-15         0.00000E+00
    0.34700E-05        -0.75091E-15         0.00000E+00
    0.34700E-05        -0.16268E-14         0.00000E+00
    0.34700E-05        -0.17392E-14         0.00000E+00
    0.34700E-05        -0.16857E-14         0.00000E+00
    0.34700E-05        -0.15981E-14         0.00000E+00
    0.34700E-05        -0.15074E-14         0.00000E+00
    0.34700E-05        -0.14247E-14         0.00000E+00
    0.34700E-05        -0.13542E-14         0.00000E+00
    0.34700E-05        -0.12976E-14         0.00000E+00
    0.34700E-05        -0.12559E-14         0.00000E+00
    0.34700E-05        -0.12285E-14         0.00000E+00
    0.34700E-05        -0.12119E-14         0.00000E+00
    0.34700E-05        -0.11862E-14         0.00000E+00
    0.34700E-05        -0.10424E-14         0.00000E+00
    0.34700E-05        -0.45906E-15         0.00000E+00
    0.34700E-05        -0.33269E-15         0.00000E+00
    0.34700E-05        -0.64826E-15         0.00000E+00
    0.34700E-05        -0.61283E-15         0.00000E+00
    0.34700E-05        -0.57353E-15         0.00000E+00
    0.34700E-05        -0.53327E-15         0.00000E+00
    0.34700E-05        -0.49746E-15         0.00000E+00
    0.34700E-05        -0.46669E-15         0.00000E+00
    0.34700E-05        -0.44165E-15         0.00000E+00
    0.34700E-05        -0.42243E-15         0.00000E+00
    0.34700E-05        -0.40962E-15         0.00000E+00
    0.34700E-05        -0.40386E-15         0.00000E+00
    0.34700E-05        -0.40757E-15         0.00000E+00
    0.34700E-05        -0.42398E-15         0.00000E+00
    0.34700E-05        -0.45190E-15         0.00000E+00
    0.34700E-05        -0.23412E-15         0.00000E+00
POINT_DATA        496
VECTORS vDarcyNodal double 
    0.34700E-05         0.95529E-14         0.00000E+00
    0.34700E-05         0.15333E-13         0.00000E+00
    0.34700E-05         0.21895E-13         0.00000E+00
    0.34700E-05         0.22051E-13         0.00000E+00
    0.34700E-05         0.20802E-13         0.00000E+00
    0.34700E-05         0.19716E-13         0.00000E+00
    0.34700E-05         0.18675E-13         0.00000E+00
    0.34700E-05         0.17403E-13         0.00000E+00
    0.34700E-05         0.15922E-13         0.00000E+00
    0.34700E-05         0.14268E-13         0.00000E+00
    0.34700E-05         0.12434E-13         0.00000E+00
    0.34700E-05         0.10420E-13         0.00000E+00
    0.34700E-05         0.82195E-14         0.00000E+00
    0.34700E-05         0.58045E-14         0.00000E+00
    0.34700E-05         0.30743E-14         0.00000E+00
    0.34700E-05         0.16087E-14         0.00000E+00
    0.34700E-05         0.18932E-14         0.00000E+00
    0.34700E-05         0.37693E-14         0.00000E+00
    0.34700E-05         0.68630E-14         0.00000E+00
    0.34700E-05         0.86972E-14         0.00000E+00
    0.34700E-05         0.98075E-14         0.00000E+00
    0.34700E-05         0.10504E-13         0.00000E+00
    0.34700E-05         0.10667E-13         0.00000E+00
    0.34700E-05         0.10395E-13         0.00000E+00
    0.34700E-05         0.97673E-14         0.00000E+00
    0.34700E-05         0.88438E-14         0.00000E+00
    0.34700E-05         0.76853E-14         0.00000E+00
    0.34700E-05         0.63299E-14         0.00000E+00
    0.34700E-05         0.47932E-14         0.00000E+00
    0.34700E-05         0.31033E-14         0.00000E+00
    0.34700E-05         0.14416E-14         0.00000E+00
    0.34700E-05         0.65853E-15         0.00000E+00
    0.34700E-05        -0.58247E-15         0.00000E+00
    0.34700E-05        -0.65614E-15         0.00000E+00
    0.34700E-05         0.23894E-15         0.00000E+00
    0.34700E-05         0.23415E-14         0.00000E+00
    0.34700E-05         0.40182E-14         0.00000E+00
    0.34700E-05         0.48066E-14         0.00000E+00
    0.34700E-05         0.51627E-14         0.00000E+00
    0.34700E-05         0.52537E-14         0.00000E+00
    0.34700E-05         0.50840E-14         0.00000E+00
    0.34700E-05         0.46736E-14         0.00000E+00
    0.34700E-05         0.40581E-14         0.00000E+00
    0.34700E-05         0.32821E-14         0.00000E+00
    0.34700E-05         0.24152E-14         0.00000E+00
    0.34700E-05         0.15699E-14         0.00000E+00
    0.34700E-05         0.78992E-15         0.00000E+00
    0.34700E-05         0.40927E-15         0.00000E+00
    0.34700E-05        -0.31271E-15         0.00000E+00
    0.34700E-05        -0.24277E-15         0.00000E+00
    0.34700E-05         0.21437E-15         0.00000E+00
    0.34700E-05         0.86659E-15         0.00000E+00
    0.34700E-05         0.13035E-14         0.00000E+00
    0.34700E-05         0.15778E-14         0.00000E+00
    0.34700E-05         0.17363E-14         0.00000E+00
    0.34700E-05         0.18109E-14         0.00000E+00
    0.34700E-05         0.17955E-14         0.00000E+00
    0.34700E-05         0.16751E-14         0.00000E+00
    0.34700E-05         0.14594E-14         0.00000E+00
    0.34700E-05         0.11809E-14         0.00000E+00
    0.34700E-05         0.89721E-15         0.00000E+00
    0.34700E-05         0.64062E-15         0.00000E+00
    0.34700E-05         0.35680E-15         0.00000E+00
    0.34700E-05         0.19526E-15         0.00000E+00
    0.34700E-05        -0.12429E-15         0.00000E+00
    0.34700E-05        -0.21169E-15         0.00000E+00
    0.34700E-05        -0.28650E-15         0.00000E+00
    0.34700E-05        -0.22418E-15         0.00000E+00
    0.34700E-05        -0.17655E-15         0.00000E+00
    0.34700E-05        -0.20603E-15         0.00000E+00
    0.34700E-05        -0.25973E-15         0.00000E+00
    0.34700E-05        -0.30160E-15         0.00000E+00
    0.34700E-05        -0.31343E-15         0.00000E+00
    0.34700E-05        -0.29182E-15         0.00000E+00
    0.34700E-05        -0.24389E-15         0.00000E+00
    0.34700E-05        -0.16767E-15         0.00000E+00
    0.34700E-05        -0.68014E-16         0.00000E+00
    0.34700E-05         0.22474E-16         0.00000E+00
    0.34700E-05         0.50228E-16         0.00000E+00
    0.34700E-05         0.40939E-16         0.00000E+00
    0.34700E-05        -0.40375E-15         0.00000E+00
    0.34700E-05        -0.67879E-15         0.00000E+00
    0.34700E-05        -0.10411E-14         0.00000E+00
    0.34700E-05        -0.11557E-14         0.00000E+00
    0.34700E-05        -0.12271E-14         0.00000E+00
    0.34700E-05        -0.13374E-14         0.00000E+00
    0.34700E-05        -0.14634E-14         0.00000E+00
    0.34700E-05        -0.15497E-14         0.00000E+00
    0.34700E-05        -0.15546E-14         0.00000E+00
    0.34700E-05        -0.14591E-14         0.00000E+00
    0.34700E-05        -0.12642E-14         0.00000E+00
    0.34700E-05        -0.99031E-15         0.00000E+00
    0.34700E-05        -0.68063E-15         0.00000E+00
    0.34700E-05        -0.39133E-15         0.00000E+00
    0.34700E-05        -0.16600E-15         0.00000E+00
    0.34700E-05        -0.72967E-16         0.00000E+00
    0.34700E-05        -0.55767E-15         0.00000E+00
    0.34700E-05        -0.97319E-15         0.00000E+00
    0.34700E-05        -0.15936E-14         0.00000E+00
    0.34700E-05        -0.19020E-14         0.00000E+00
    0.34700E-05        -0.20646E-14         0.00000E+00
    0.34700E-05        -0.21706E-14         0.00000E+00
    0.34700E-05        -0.22543E-14         0.00000E+00
    0.34700E-05        -0.22953E-14         0.00000E+00
    0.34700E-05        -0.22519E-14         0.00000E+00
    0.34700E-05        -0.20980E-14         0.00000E+00
    0.34700E-05        -0.18306E-14         0.00000E+00
    0.34700E-05        -0.14706E-14         0.00000E+00
    0.34700E-05        -0.10622E-14         0.00000E+00
    0.34700E-05        -0.66121E-15         0.00000E+00
    0.34700E-05        -0.30825E-15         0.00000E+00
    0.34700E-05        -0.14687E-15         0.00000E+00
    0.34700E-05        -0.62292E-15         0.00000E+00
    0.34700E-05        -0.11340E-14         0.00000E+00
    0.34700E-05        -0.19564E-14         0.00000E+00
    0.34700E-05        -0.24331E-14         0.00000E+00
    0.34700E-05        -0.26749E-14         0.00000E+00
    0.34700E-05        -0.27812E-14         0.00000E+00
    0.34700E-05        -0.28088E-14         0.00000E+00
    0.34700E-05        -0.27699E-14         0.00000E+00
    0.34700E-05        -0.26519E-14         0.00000E+00
    0.34700E-05        -0.24392E-14         0.00000E+00
    0.34700E-05        -0.21295E-14         0.00000E+00
    0.34700E-05        -0.17393E-14         0.00000E+00
    0.34700E-05        -0.12982E-14         0.00000E+00
    0.34700E-05        -0.84019E-15         0.00000E+00
    0.34700E-05        -0.40233E-15         0.00000E+00
    0.34700E-05        -0.19336E-15         0.00000E+00
    0.34700E-05        -0.67696E-15         0.00000E+00
    0.34700E-05        -0.12442E-14         0.00000E+00
    0.34700E-05        -0.21806E-14         0.00000E+00
    0.34700E-05        -0.27630E-14         0.00000E+00
    0.34700E-05        -0.30769E-14         0.00000E+00
    0.34700E-05        -0.32026E-14         0.00000E+00
    0.34700E-05        -0.31988E-14         0.00000E+00
    0.34700E-05        -0.30971E-14         0.00000E+00
    0.34700E-05        -0.29097E-14         0.00000E+00
    0.34700E-05        -0.26406E-14         0.00000E+00
    0.34700E-05        -0.22958E-14         0.00000E+00
    0.34700E-05        -0.18872E-14         0.00000E+00
    0.34700E-05        -0.14324E-14         0.00000E+00
    0.34700E-05        -0.95224E-15         0.00000E+00
    0.34700E-05        -0.47011E-15         0.00000E+00
    0.34700E-05        -0.23170E-15         0.00000E+00
    0.34700E-05        -0.69871E-15         0.00000E+00
    0.34700E-05        -0.12939E-14         0.00000E+00
    0.34700E-05        -0.22930E-14         0.00000E+00
    0.34700E-05        -0.29448E-14         0.00000E+00
    0.34700E-05        -0.33187E-14         0.00000E+00
    0.34700E-05        -0.34766E-14         0.00000E+00
    0.34700E-05        -0.34689E-14         0.00000E+00
    0.34700E-05        -0.33354E-14         0.00000E+00
    0.34700E-05        -0.31031E-14         0.00000E+00
    0.34700E-05        -0.27909E-14         0.00000E+00
    0.34700E-05        -0.24138E-14         0.00000E+00
    0.34700E-05        -0.19845E-14         0.00000E+00
    0.34700E-05        -0.15151E-14         0.00000E+00
    0.34700E-05        -0.10203E-14         0.00000E+00
    0.34700E-05        -0.51339E-15         0.00000E+00
    0.34700E-05        -0.25798E-15         0.00000E+00
    0.34700E-05        -0.69854E-15         0.00000E+00
    0.34700E-05        -0.13014E-14         0.00000E+00
    0.34700E-05        -0.23298E-14         0.00000E+00
    0.34700E-05        -0.30305E-14         0.00000E+00
    0.34700E-05        -0.34549E-14         0.00000E+00
    0.34700E-05        -0.36496E-14         0.00000E+00
    0.34700E-05        -0.36580E-14         0.00000E+00
    0.34700E-05        -0.35196E-14         0.00000E+00
    0.34700E-05        -0.32686E-14         0.00000E+00
    0.34700E-05        -0.29318E-14         0.00000E+00
    0.34700E-05        -0.25289E-14         0.00000E+00
    0.34700E-05        -0.20763E-14         0.00000E+00
    0.34700E-05        -0.15875E-14         0.00000E+00
    0.34700E-05        -0.10724E-14         0.00000E+00
    0.34700E-05        -0.54002E-15         0.00000E+00
    0.34700E-05        -0.27077E-15         0.00000E+00
    0.34700E-05        -0.68709E-15         0.00000E+00
    0.34700E-05        -0.12886E-14         0.00000E+00
    0.34700E-05        -0.23299E-14         0.00000E+00
    0.34700E-05        -0.30652E-14         0.00000E+00
    0.34700E-05        -0.35306E-14         0.00000E+00
    0.34700E-05        -0.37629E-14         0.00000E+00
    0.34700E-05        -0.37989E-14         0.00000E+00
    0.34700E-05        -0.36746E-14         0.00000E+00
    0.34700E-05        -0.34239E-14         0.00000E+00
    0.34700E-05        -0.30770E-14         0.00000E+00
    0.34700E-05        -0.26584E-14         0.00000E+00
    0.34700E-05        -0.21864E-14         0.00000E+00
    0.34700E-05        -0.16742E-14         0.00000E+00
    0.34700E-05        -0.11305E-14         0.00000E+00
    0.34700E-05        -0.56711E-15         0.00000E+00
    0.34700E-05        -0.28280E-15         0.00000E+00
    0.34700E-05        -0.67565E-15         0.00000E+00
    0.34700E-05        -0.12740E-14         0.00000E+00
    0.34700E-05        -0.23212E-14         0.00000E+00
    0.34700E-05        -0.30817E-14         0.00000E+00
    0.34700E-05        -0.35814E-14         0.00000E+00
    0.34700E-05        -0.38491E-14         0.00000E+00
    0.34700E-05        -0.39160E-14         0.00000E+00
    0.34700E-05        -0.38143E-14         0.00000E+00
    0.34700E-05        -0.35754E-14         0.00000E+00
    0.34700E-05        -0.32292E-14         0.00000E+00
    0.34700E-05        -0.28008E-14         0.00000E+00
    0.34700E-05        -0.23099E-14         0.00000E+00
    0.34700E-05        -0.17721E-14         0.00000E+00
    0.34700E-05        -0.12013E-14         0.00000E+00
    0.34700E-05        -0.60781E-15         0.00000E+00
    0.34700E-05        -0.30631E-15         0.00000E+00
    0.34700E-05        -0.66837E-15         0.00000E+00
    0.34700E-05        -0.12651E-14         0.00000E+00
    0.34700E-05        -0.23188E-14         0.00000E+00
    0.34700E-05        -0.31015E-14         0.00000E+00
    0.34700E-05        -0.36319E-14         0.00000E+00
    0.34700E-05        -0.39330E-14         0.00000E+00
    0.34700E-05        -0.40307E-14         0.00000E+00
    0.34700E-05        -0.39533E-14         0.00000E+00
    0.34700E-05        -0.37294E-14         0.00000E+00
    0.34700E-05        -0.33868E-14         0.00000E+00
    0.34700E-05        -0.29503E-14         0.00000E+00
    0.34700E-05        -0.24416E-14         0.00000E+00
    0.34700E-05        -0.18795E-14         0.00000E+00
    0.34700E-05        -0.12808E-14         0.00000E+00
    0.34700E-05        -0.65255E-15         0.00000E+00
    0.34700E-05        -0.33096E-15         0.00000E+00
    0.34700E-05        -0.66694E-15         0.00000E+00
    0.34700E-05        -0.12662E-14         0.00000E+00
    0.34700E-05        -0.23321E-14         0.00000E+00
    0.34700E-05        -0.31380E-14         0.00000E+00
    0.34700E-05        -0.36980E-14         0.00000E+00
    0.34700E-05        -0.40304E-14         0.00000E+00
    0.34700E-05        -0.41568E-14         0.00000E+00
    0.34700E-05        -0.41017E-14         0.00000E+00
    0.34700E-05        -0.38912E-14         0.00000E+00
    0.34700E-05        -0.35516E-14         0.00000E+00
    0.34700E-05        -0.31080E-14         0.00000E+00
    0.34700E-05        -0.25828E-14         0.00000E+00
    0.34700E-05        -0.19955E-14         0.00000E+00
    0.34700E-05        -0.13613E-14         0.00000E+00
    0.34700E-05        -0.69146E-15         0.00000E+00
    0.34700E-05        -0.34892E-15         0.00000E+00
    0.34700E-05        -0.67206E-15         0.00000E+00
    0.34700E-05        -0.12794E-14         0.00000E+00
    0.34700E-05        -0.23658E-14         0.00000E+00
    0.34700E-05        -0.31989E-14         0.00000E+00
    0.34700E-05        -0.37880E-14         0.00000E+00
    0.34700E-05        -0.41482E-14         0.00000E+00
    0.34700E-05        -0.42988E-14         0.00000E+00
    0.34700E-05        -0.42623E-14         0.00000E+00
    0.34700E-05        -0.40629E-14         0.00000E+00
    0.34700E-05        -0.37254E-14         0.00000E+00
    0.34700E-05        -0.32740E-14         0.00000E+00
    0.34700E-05        -0.27312E-14         0.00000E+00
    0.34700E-05        -0.21164E-14         0.00000E+00
    0.34700E-05        -0.14442E-14         0.00000E+00
    0.34700E-05        -0.73146E-15         0.00000E+00
    0.34700E-05        -0.36756E-15         0.00000E+00
    0.34700E-05        -0.68661E-15         0.00000E+00
    0.34700E-05        -0.13083E-14         0.00000E+00
    0.34700E-05        -0.24231E-14         0.00000E+00
    0.34700E-05        -0.32846E-14         0.00000E+00
    0.34700E-05        -0.39017E-14         0.00000E+00
    0.34700E-05        -0.42876E-14         0.00000E+00
    0.34700E-05        -0.44594E-14         0.00000E+00
    0.34700E-05        -0.44375E-14         0.00000E+00
    0.34700E-05        -0.42453E-14         0.00000E+00
    0.34700E-05        -0.39067E-14         0.00000E+00
    0.34700E-05        -0.34445E-14         0.00000E+00
    0.34700E-05        -0.28806E-14         0.00000E+00
    0.34700E-05        -0.22358E-14         0.00000E+00
    0.34700E-05        -0.15291E-14         0.00000E+00
    0.34700E-05        -0.77762E-15         0.00000E+00
    0.34700E-05        -0.39267E-15         0.00000E+00
    0.34700E-05        -0.70686E-15         0.00000E+00
    0.34700E-05        -0.13478E-14         0.00000E+00
    0.34700E-05        -0.24993E-14         0.00000E+00
    0.34700E-05        -0.33931E-14         0.00000E+00
    0.34700E-05        -0.40379E-14         0.00000E+00
    0.34700E-05        -0.44461E-14         0.00000E+00
    0.34700E-05        -0.46343E-14         0.00000E+00
    0.34700E-05        -0.46225E-14         0.00000E+00
    0.34700E-05        -0.44325E-14         0.00000E+00
    0.34700E-05        -0.40867E-14         0.00000E+00
    0.34700E-05        -0.36085E-14         0.00000E+00
    0.34700E-05        -0.30211E-14         0.00000E+00
    0.34700E-05        -0.23477E-14         0.00000E+00
    0.34700E-05        -0.16109E-14         0.00000E+00
    0.34700E-05        -0.82354E-15         0.00000E+00
    0.34700E-05        -0.41789E-15         0.00000E+00
    0.34700E-05        -0.73238E-15         0.00000E+00
    0.34700E-05        -0.13965E-14         0.00000E+00
    0.34700E-05        -0.25898E-14         0.00000E+00
    0.34700E-05        -0.35170E-14         0.00000E+00
    0.34700E-05        -0.41872E-14         0.00000E+00
    0.34700E-05        -0.46137E-14         0.00000E+00
    0.34700E-05        -0.48132E-14         0.00000E+00
    0.34700E-05        -0.48051E-14         0.00000E+00
    0.34700E-05        -0.46109E-14         0.00000E+00
    0.34700E-05        -0.42538E-14         0.00000E+00
    0.34700E-05        -0.37582E-14         0.00000E+00
    0.34700E-05        -0.31500E-14         0.00000E+00
    0.34700E-05        -0.24533E-14         0.00000E+00
    0.34700E-05        -0.16867E-14         0.00000E+00
    0.34700E-05        -0.86310E-15         0.00000E+00
    0.34700E-05        -0.43817E-15         0.00000E+00
    0.34700E-05        -0.76091E-15         0.00000E+00
    0.34700E-05        -0.14501E-14         0.00000E+00
    0.34700E-05        -0.26871E-14         0.00000E+00
    0.34700E-05        -0.36456E-14         0.00000E+00
    0.34700E-05        -0.43368E-14         0.00000E+00
    0.34700E-05        -0.47755E-14         0.00000E+00
    0.34700E-05        -0.49796E-14         0.00000E+00
    0.34700E-05        -0.49694E-14         0.00000E+00
    0.34700E-05        -0.47676E-14         0.00000E+00
    0.34700E-05        -0.43988E-14         0.00000E+00
    0.34700E-05        -0.38894E-14         0.00000E+00
    0.34700E-05        -0.32646E-14         0.00000E+00
    0.34700E-05        -0.25462E-14         0.00000E+00
    0.34700E-05        -0.17508E-14         0.00000E+00
    0.34700E-05        -0.89368E-15         0.00000E+00
    0.34700E-05        -0.45181E-15         0.00000E+00
    0.34700E-05        -0.79057E-15         0.00000E+00
    0.34700E-05        -0.15047E-14         0.00000E+00
    0.34700E-05        -0.27827E-14         0.00000E+00
    0.34700E-05        -0.37665E-14         0.00000E+00
    0.34700E-05        -0.44705E-14         0.00000E+00
    0.34700E-05        -0.49129E-14         0.00000E+00
    0.34700E-05        -0.51144E-14         0.00000E+00
    0.34700E-05        -0.50978E-14         0.00000E+00
    0.34700E-05        -0.48877E-14         0.00000E+00
    0.34700E-05        -0.45103E-14         0.00000E+00
    0.34700E-05        -0.39913E-14         0.00000E+00
    0.34700E-05        -0.33543E-14         0.00000E+00
    0.34700E-05        -0.26188E-14         0.00000E+00
    0.34700E-05        -0.18008E-14         0.00000E+00
    0.34700E-05        -0.91904E-15         0.00000E+00
    0.34700E-05        -0.46484E-15         0.00000E+00
    0.34700E-05        -0.81916E-15         0.00000E+00
    0.34700E-05        -0.15557E-14         0.00000E+00
    0.34700E-05        -0.28675E-14         0.00000E+00
    0.34700E-05        -0.38657E-14         0.00000E+00
    0.34700E-05        -0.45699E-14         0.00000E+00
    0.34700E-05        -0.50042E-14         0.00000E+00
    0.34700E-05        -0.51945E-14         0.00000E+00
    0.34700E-05        -0.51678E-14         0.00000E+00
    0.34700E-05        -0.49507E-14         0.00000E+00
    0.34700E-05        -0.45698E-14         0.00000E+00
    0.34700E-05        -0.40489E-14         0.00000E+00
    0.34700E-05        -0.34082E-14         0.00000E+00
    0.34700E-05        -0.26653E-14         0.00000E+00
    0.34700E-05        -0.18385E-14         0.00000E+00
    0.34700E-05        -0.94314E-15         0.00000E+00
    0.34700E-05        -0.47963E-15         0.00000E+00
    0.34700E-05        -0.84475E-15         0.00000E+00
    0.34700E-05        -0.15992E-14         0.00000E+00
    0.34700E-05        -0.29328E-14         0.00000E+00
    0.34700E-05        -0.39286E-14         0.00000E+00
    0.34700E-05        -0.46147E-14         0.00000E+00
    0.34700E-05        -0.50241E-14         0.00000E+00
    0.34700E-05        -0.51916E-14         0.00000E+00
    0.34700E-05        -0.51504E-14         0.00000E+00
    0.34700E-05        -0.49302E-14         0.00000E+00
    0.34700E-05        -0.45555E-14         0.00000E+00
    0.34700E-05        -0.40456E-14         0.00000E+00
    0.34700E-05        -0.34163E-14         0.00000E+00
    0.34700E-05        -0.26831E-14         0.00000E+00
    0.34700E-05        -0.18606E-14         0.00000E+00
    0.34700E-05        -0.95836E-15         0.00000E+00
    0.34700E-05        -0.48817E-15         0.00000E+00
    0.34700E-05        -0.86585E-15         0.00000E+00
    0.34700E-05        -0.16314E-14         0.00000E+00
    0.34700E-05        -0.29696E-14         0.00000E+00
    0.34700E-05        -0.39397E-14         0.00000E+00
    0.34700E-05        -0.45820E-14         0.00000E+00
    0.34700E-05        -0.49437E-14         0.00000E+00
    0.34700E-05        -0.50731E-14         0.00000E+00
    0.34700E-05        -0.50129E-14         0.00000E+00
    0.34700E-05        -0.47959E-14         0.00000E+00
    0.34700E-05        -0.44430E-14         0.00000E+00
    0.34700E-05        -0.39652E-14         0.00000E+00
    0.34700E-05        -0.33701E-14         0.00000E+00
    0.34700E-05        -0.26664E-14         0.00000E+00
    0.34700E-05        -0.18621E-14         0.00000E+00
    0.34700E-05        -0.96431E-15         0.00000E+00
    0.34700E-05        -0.49296E-15         0.00000E+00
    0.34700E-05        -0.88192E-15         0.00000E+00
    0.34700E-05        -0.16500E-14         0.00000E+00
    0.34700E-05        -0.29692E-14         0.00000E+00
    0.34700E-05        -0.38811E-14         0.00000E+00
    0.34700E-05        -0.44454E-14         0.00000E+00
    0.34700E-05        -0.47313E-14         0.00000E+00
    0.34700E-05        -0.48056E-14         0.00000E+00
    0.34700E-05        -0.47229E-14         0.00000E+00
    0.34700E-05        -0.45185E-14         0.00000E+00
    0.34700E-05        -0.42073E-14         0.00000E+00
    0.34700E-05        -0.37891E-14         0.00000E+00
    0.34700E-05        -0.32576E-14         0.00000E+00
    0.34700E-05        -0.26080E-14         0.00000E+00
    0.34700E-05        -0.18406E-14         0.00000E+00
    0.34700E-05        -0.96078E-15         0.00000E+00
    0.34700E-05        -0.49367E-15         0.00000E+00
    0.34700E-05        -0.89176E-15         0.00000E+00
    0.34700E-05        -0.16505E-14         0.00000E+00
    0.34700E-05        -0.29186E-14         0.00000E+00
    0.34700E-05        -0.37292E-14         0.00000E+00
    0.34700E-05        -0.41743E-14         0.00000E+00
    0.34700E-05        -0.43551E-14         0.00000E+00
    0.34700E-05        -0.43611E-14         0.00000E+00
    0.34700E-05        -0.42559E-14         0.00000E+00
    0.34700E-05        -0.40740E-14         0.00000E+00
    0.34700E-05        -0.38240E-14         0.00000E+00
    0.34700E-05        -0.34946E-14         0.00000E+00
    0.34700E-05        -0.30608E-14         0.00000E+00
    0.34700E-05        -0.24977E-14         0.00000E+00
    0.34700E-05        -0.17930E-14         0.00000E+00
    0.34700E-05        -0.94765E-15         0.00000E+00
    0.34700E-05        -0.49054E-15         0.00000E+00
    0.34700E-05        -0.89373E-15         0.00000E+00
    0.34700E-05        -0.16260E-14         0.00000E+00
    0.34700E-05        -0.27964E-14         0.00000E+00
    0.34700E-05        -0.34481E-14         0.00000E+00
    0.34700E-05        -0.37303E-14         0.00000E+00
    0.34700E-05        -0.37878E-14         0.00000E+00
    0.34700E-05        -0.37264E-14         0.00000E+00
    0.34700E-05        -0.36062E-14         0.00000E+00
    0.34700E-05        -0.34542E-14         0.00000E+00
    0.34700E-05        -0.32751E-14         0.00000E+00
    0.34700E-05        -0.30538E-14         0.00000E+00
    0.34700E-05        -0.27519E-14         0.00000E+00
    0.34700E-05        -0.23177E-14         0.00000E+00
    0.34700E-05        -0.17121E-14         0.00000E+00
    0.34700E-05        -0.92348E-15         0.00000E+00
    0.34700E-05        -0.48369E-15         0.00000E+00
    0.34700E-05        -0.88168E-15         0.00000E+00
    0.34700E-05        -0.15581E-14         0.00000E+00
    0.34700E-05        -0.25575E-14         0.00000E+00
    0.34700E-05        -0.29792E-14         0.00000E+00
    0.34700E-05        -0.30711E-14         0.00000E+00
    0.34700E-05        -0.30187E-14         0.00000E+00
    0.34700E-05        -0.29139E-14         0.00000E+00
    0.34700E-05        -0.27946E-14         0.00000E+00
    0.34700E-05        -0.26763E-14         0.00000E+00
    0.34700E-05        -0.25618E-14         0.00000E+00
    0.34700E-05        -0.24422E-14         0.00000E+00
    0.34700E-05        -0.22891E-14         0.00000E+00
    0.34700E-05        -0.20323E-14         0.00000E+00
    0.34700E-05        -0.15806E-14         0.00000E+00
    0.34700E-05        -0.88438E-15         0.00000E+00
    0.34700E-05        -0.47339E-15         0.00000E+00
    0.34700E-05        -0.83644E-15         0.00000E+00
    0.34700E-05        -0.13967E-14         0.00000E+00
    0.34700E-05        -0.21049E-14         0.00000E+00
    0.34700E-05        -0.22386E-14         0.00000E+00
    0.34700E-05        -0.21770E-14         0.00000E+00
    0.34700E-05        -0.20748E-14         0.00000E+00
    0.34700E-05        -0.19680E-14         0.00000E+00
    0.34700E-05        -0.18706E-14         0.00000E+00
    0.34700E-05        -0.17878E-14         0.00000E+00
    0.34700E-05        -0.17215E-14         0.00000E+00
    0.34700E-05        -0.16709E-14         0.00000E+00
    0.34700E-05        -0.16289E-14         0.00000E+00
    0.34700E-05        -0.15665E-14         0.00000E+00
    0.34700E-05        -0.13527E-14         0.00000E+00
    0.34700E-05        -0.81543E-15         0.00000E+00
    0.34700E-05        -0.44987E-15         0.00000E+00
    0.34700E-05        -0.66539E-15         0.00000E+00
    0.34700E-05        -0.98096E-15         0.00000E+00
    0.34700E-05        -0.12611E-14         0.00000E+00
    0.34700E-05        -0.11864E-14         0.00000E+00
    0.34700E-05        -0.11068E-14         0.00000E+00
    0.34700E-05        -0.10307E-14         0.00000E+00
    0.34700E-05        -0.96414E-15         0.00000E+00
    0.34700E-05        -0.90832E-15         0.00000E+00
    0.34700E-05        -0.86406E-15         0.00000E+00
    0.34700E-05        -0.83204E-15         0.00000E+00
    0.34700E-05        -0.81350E-15         0.00000E+00
    0.34700E-05        -0.81144E-15         0.00000E+00
    0.34700E-05        -0.83154E-15         0.00000E+00
    0.34700E-05        -0.87588E-15         0.00000E+00
    0.34700E-05        -0.68604E-15         0.00000E+00
    0.34700E-05        -0.46826E-15         0.00000E+00
    0.34700E-05         0.00000E+00         0.00000E+00
    0.34700E-05         0.00000E+00         0.00000E+00
    0.34700E-05        -0.80148E-20         0.00000E+00
    0.34700E-05         0.12408E-28         0.00000E+00
    0.34700E-05         0.00000E+00         0.00000E+00
    0.34700E-05         0.00000E+00         0.00000E+00
    0.34700E-05         0.00000E+00         0.00000E+00
    0.34700E-05        -0.80148E-20         0.00000E+00
    0.34700E-05        -0.80148E-20         0.00000E+00
    0.34700E-05         0.80148E-20         0.00000E+00
    0.34700E-05         0.00000E+00         0.00000E+00
    0.34700E-05        -0.80148E-20         0.00000E+00
    0.34700E-05        -0.80148E-20         0.00000E+00
    0.34700E-05         0.55451E-29         0.00000E+00
    0.34700E-05         0.80148E-20         0.00000E+00
    0.34700E-05         0.00000E+00         0.00000E+00
CELL_DATA        450
TENSORS stressef double 
   -0.25355E+07         0.42694E+05         0.00000E+00
    0.42694E+05        -0.30949E+08         0.00000E+00
    0.00000E+00         0.00000E+00        -0.83345E+07
 
   -0.23356E+07         0.57862E+05         0.00000E+00
    0.57862E+05        -0.30852E+08         0.00000E+00
    0.00000E+00         0.00000E+00        -0.85363E+07
 
   -0.22398E+07         0.56002E+05         0.00000E+00
    0.56002E+05        -0.30762E+08         0.00000E+00
    0.00000E+00         0.00000E+00        -0.85843E+07
 
   -0.22493E+07         0.31512E+05         0.00000E+00
    0.31512E+05        -0.30688E+08         0.00000E+00
    0.00000E+00         0.00000E+00        -0.84801E+07
 
   -0.23437E+07         0.36369E+04         0.00000E+00
    0.36369E+04        -0.30674E+08         0.00000E+00
    0.00000E+00         0.00000E+00        -0.83134E+07
 
   -0.24740E+07        -0.76367E+04         0.00000E+00
   -0.76367E+04        -0.30685E+08         0.00000E+00
    0.00000E+00         0.00000E+00        -0.81231E+07
 
   -0.26227E+07        -0.92855E+04         0.00000E+00
   -0.92855E+04        -0.30703E+08         0.00000E+00
    0.00000E+00         0.00000E+00        -0.79171E+07
 
   -0.27902E+07        -0.61545E+04         0.00000E+00
   -0.61545E+04        -0.30717E+08         0.00000E+00
    0.00000E+00         0.00000E+00        -0.76868E+07
 
   -0.29759E+07         0.20104E+04         0.00000E+00
    0.20104E+04        -0.30721E+08         0.00000E+00
    0.00000E+00         0.00000E+00        -0.74257E+07
 
   -0.31728E+07         0.13122E+05         0.00000E+00
    0.13122E+05        -0.30705E+08         0.00000E+00
    0.00000E+00         0.00000E+00        -0.71378E+07
 
   -0.33854E+07         0.27773E+05         0.00000E+00
    0.27773E+05        -0.30664E+08         0.00000E+00
    0.00000E+00         0.00000E+00        -0.68126E+07
 
   -0.36114E+07         0.47595E+05         0.00000E+00
    0.47595E+05        -0.30589E+08         0.00000E+00
    0.00000E+00         0.00000E+00        -0.64472E+07
 
   -0.38547E+07         0.74761E+05         0.00000E+00
    0.74761E+05        -0.30467E+08         0.00000E+00
    0.00000E+00         0.00000E+00        -0.60288E+07
 
   -0.41216E+07         0.11753E+06         0.00000E+00
    0.11753E+06        -0.30279E+08         0.00000E+00
    0.00000E+00         0.00000E+00        -0.55363E+07
 
   -0.44200E+07         0.20962E+06         0.00000E+00
    0.20962E+06        -0.29981E+08         0.00000E+00
    0.00000E+00         0.00000E+00        -0.49296E+07
 
   -0.29316E+07         0.10530E+06         0.00000E+00
    0.10530E+06        -0.31671E+08         0.00000E+00
    0.00000E+00         0.00000E+00        -0.85657E+07
 
   -0.28318E+07         0.16558E+06         0.00000E+00
    0.16558E+06        -0.31626E+08         0.00000E+00
    0.00000E+00         0.00000E+00        -0.86684E+07
 
   -0.27579E+07         0.14856E+06         0.00000E+00
    0.14856E+06        -0.31536E+08         0.00000E+00
    0.00000E+00         0.00000E+00        -0.86779E+07
 
   -0.28091E+07         0.87692E+05         0.00000E+00
    0.87692E+05        -0.31491E+08         0.00000E+00
    0.00000E+00         0.00000E+00        -0.85447E+07
 
   -0.28831E+07         0.36280E+05         0.00000E+00
    0.36280E+05        -0.31425E+08         0.00000E+00
    0.00000E+00         0.00000E+00        -0.83555E+07
 
   -0.29916E+07         0.78680E+04         0.00000E+00
    0.78680E+04        -0.31375E+08         0.00000E+00
    0.00000E+00         0.00000E+00        -0.81361E+07
 
   -0.31265E+07         0.27813E+03         0.00000E+00
    0.27813E+03        -0.31338E+08         0.00000E+00
    0.00000E+00         0.00000E+00        -0.78987E+07
 
   -0.32852E+07         0.63010E+04         0.00000E+00
    0.63010E+04        -0.31304E+08         0.00000E+00
    0.00000E+00         0.00000E+00        -0.76377E+07
 
   -0.34615E+07         0.26214E+05         0.00000E+00
    0.26214E+05        -0.31265E+08         0.00000E+00
    0.00000E+00         0.00000E+00        -0.73553E+07
 
   -0.36518E+07         0.58113E+05         0.00000E+00
    0.58113E+05        -0.31212E+08         0.00000E+00
    0.00000E+00         0.00000E+00        -0.70485E+07
 
   -0.38551E+07         0.10136E+06         0.00000E+00
    0.10136E+06        -0.31135E+08         0.00000E+00
    0.00000E+00         0.00000E+00        -0.67118E+07
 
   -0.40683E+07         0.16067E+06         0.00000E+00
    0.16067E+06        -0.31026E+08         0.00000E+00
    0.00000E+00         0.00000E+00        -0.63426E+07
 
   -0.42903E+07         0.24285E+06         0.00000E+00
    0.24285E+06        -0.30871E+08         0.00000E+00
    0.00000E+00         0.00000E+00        -0.59331E+07
 
   -0.45108E+07         0.36640E+06         0.00000E+00
    0.36640E+06        -0.30656E+08         0.00000E+00
    0.00000E+00         0.00000E+00        -0.54844E+07
 
   -0.47040E+07         0.56305E+06         0.00000E+00
    0.56305E+06        -0.30369E+08         0.00000E+00
    0.00000E+00         0.00000E+00        -0.50210E+07
 
   -0.32758E+07         0.86049E+05         0.00000E+00
    0.86049E+05        -0.32199E+08         0.00000E+00
    0.00000E+00         0.00000E+00        -0.86534E+07
 
   -0.32883E+07         0.18407E+06         0.00000E+00
    0.18407E+06        -0.32218E+08         0.00000E+00
    0.00000E+00         0.00000E+00        -0.86589E+07
 
   -0.33216E+07         0.17994E+06         0.00000E+00
    0.17994E+06        -0.32222E+08         0.00000E+00
    0.00000E+00         0.00000E+00        -0.86151E+07
 
   -0.33616E+07         0.13971E+06         0.00000E+00
    0.13971E+06        -0.32170E+08         0.00000E+00
    0.00000E+00         0.00000E+00        -0.84957E+07
 
   -0.34282E+07         0.10151E+06         0.00000E+00
    0.10151E+06        -0.32108E+08         0.00000E+00
    0.00000E+00         0.00000E+00        -0.83291E+07
 
   -0.35183E+07         0.70743E+05         0.00000E+00
    0.70743E+05        -0.32035E+08         0.00000E+00
    0.00000E+00         0.00000E+00        -0.81201E+07
 
   -0.36344E+07         0.56690E+05         0.00000E+00
    0.56690E+05        -0.31962E+08         0.00000E+00
    0.00000E+00         0.00000E+00        -0.78786E+07
 
   -0.37749E+07         0.63107E+05         0.00000E+00
    0.63107E+05        -0.31890E+08         0.00000E+00
    0.00000E+00         0.00000E+00        -0.76105E+07
 
   -0.39333E+07         0.90895E+05         0.00000E+00
    0.90895E+05        -0.31812E+08         0.00000E+00
    0.00000E+00         0.00000E+00        -0.73212E+07
 
   -0.41076E+07         0.13926E+06         0.00000E+00
    0.13926E+06        -0.31723E+08         0.00000E+00
    0.00000E+00         0.00000E+00        -0.70089E+07
 
   -0.42919E+07         0.20918E+06         0.00000E+00
    0.20918E+06        -0.31614E+08         0.00000E+00
    0.00000E+00         0.00000E+00        -0.66747E+07
 
   -0.44802E+07         0.30496E+06         0.00000E+00
    0.30496E+06        -0.31476E+08         0.00000E+00
    0.00000E+00         0.00000E+00        -0.63193E+07
 
   -0.46659E+07         0.43464E+06         0.00000E+00
    0.43464E+06        -0.31302E+08         0.00000E+00
    0.00000E+00         0.00000E+00        -0.59462E+07
 
   -0.48349E+07         0.60704E+06         0.00000E+00
    0.60704E+06        -0.31091E+08         0.00000E+00
    0.00000E+00         0.00000E+00        -0.55737E+07
 
   -0.49859E+07         0.81570E+06         0.00000E+00
    0.81570E+06        -0.30866E+08         0.00000E+00
    0.00000E+00         0.00000E+00        -0.52254E+07
 
   -0.36588E+07         0.58518E+05         0.00000E+00
    0.58518E+05        -0.32666E+08         0.00000E+00
    0.00000E+00         0.00000E+00        -0.86215E+07
 
   -0.37426E+07         0.13422E+06         0.00000E+00
    0.13422E+06        -0.32707E+08         0.00000E+00
    0.00000E+00         0.00000E+00        -0.85487E+07
 
   -0.38198E+07         0.17321E+06         0.00000E+00
    0.17321E+06        -0.32741E+08         0.00000E+00
    0.00000E+00         0.00000E+00        -0.84799E+07
 
   -0.38895E+07         0.17823E+06         0.00000E+00
    0.17823E+06        -0.32741E+08         0.00000E+00
    0.00000E+00         0.00000E+00        -0.83825E+07
 
   -0.39587E+07         0.16247E+06         0.00000E+00
    0.16247E+06        -0.32701E+08         0.00000E+00
    0.00000E+00         0.00000E+00        -0.82430E+07
 
   -0.40412E+07         0.14577E+06         0.00000E+00
    0.14577E+06        -0.32636E+08         0.00000E+00
    0.00000E+00         0.00000E+00        -0.80611E+07
 
   -0.41413E+07         0.13938E+06         0.00000E+00
    0.13938E+06        -0.32555E+08         0.00000E+00
    0.00000E+00         0.00000E+00        -0.78405E+07
 
   -0.42593E+07         0.15209E+06         0.00000E+00
    0.15209E+06        -0.32461E+08         0.00000E+00
    0.00000E+00         0.00000E+00        -0.75895E+07
 
   -0.43940E+07         0.18875E+06         0.00000E+00
    0.18875E+06        -0.32358E+08         0.00000E+00
    0.00000E+00         0.00000E+00        -0.73135E+07
 
   -0.45436E+07         0.25167E+06         0.00000E+00
    0.25167E+06        -0.32242E+08         0.00000E+00
    0.00000E+00         0.00000E+00        -0.70145E+07
 
   -0.47003E+07         0.34342E+06         0.00000E+00
    0.34342E+06        -0.32110E+08         0.00000E+00
    0.00000E+00         0.00000E+00        -0.67002E+07
 
   -0.48569E+07         0.46664E+06         0.00000E+00
    0.46664E+06        -0.31957E+08         0.00000E+00
    0.00000E+00         0.00000E+00        -0.63775E+07
 
   -0.50069E+07         0.62304E+06         0.00000E+00
    0.62304E+06        -0.31783E+08         0.00000E+00
    0.00000E+00         0.00000E+00        -0.60562E+07
 
   -0.51449E+07         0.80836E+06         0.00000E+00
    0.80836E+06        -0.31599E+08         0.00000E+00
    0.00000E+00         0.00000E+00        -0.57520E+07
 
   -0.52742E+07         0.10136E+07         0.00000E+00
    0.10136E+07        -0.31415E+08         0.00000E+00
    0.00000E+00         0.00000E+00        -0.54726E+07
 
   -0.40827E+07         0.34094E+05         0.00000E+00
    0.34094E+05        -0.33157E+08         0.00000E+00
    0.00000E+00         0.00000E+00        -0.85690E+07
 
   -0.41873E+07         0.98271E+05         0.00000E+00
    0.98271E+05        -0.33188E+08         0.00000E+00
    0.00000E+00         0.00000E+00        -0.84596E+07
 
   -0.42885E+07         0.14874E+06         0.00000E+00
    0.14874E+06        -0.33219E+08         0.00000E+00
    0.00000E+00         0.00000E+00        -0.83582E+07
 
   -0.43810E+07         0.18262E+06         0.00000E+00
    0.18262E+06        -0.33234E+08         0.00000E+00
    0.00000E+00         0.00000E+00        -0.82526E+07
 
   -0.44641E+07         0.20072E+06         0.00000E+00
    0.20072E+06        -0.33221E+08         0.00000E+00
    0.00000E+00         0.00000E+00        -0.81300E+07
 
   -0.45461E+07         0.21131E+06         0.00000E+00
    0.21131E+06        -0.33175E+08         0.00000E+00
    0.00000E+00         0.00000E+00        -0.79767E+07
 
   -0.46344E+07         0.22607E+06         0.00000E+00
    0.22607E+06        -0.33103E+08         0.00000E+00
    0.00000E+00         0.00000E+00        -0.77897E+07
 
   -0.47324E+07         0.25493E+06         0.00000E+00
    0.25493E+06        -0.33009E+08         0.00000E+00
    0.00000E+00         0.00000E+00        -0.75713E+07
 
   -0.48423E+07         0.30536E+06         0.00000E+00
    0.30536E+06        -0.32897E+08         0.00000E+00
    0.00000E+00         0.00000E+00        -0.73256E+07
 
   -0.49629E+07         0.38282E+06         0.00000E+00
    0.38282E+06        -0.32770E+08         0.00000E+00
    0.00000E+00         0.00000E+00        -0.70587E+07
 
   -0.50888E+07         0.49044E+06         0.00000E+00
    0.49044E+06        -0.32629E+08         0.00000E+00
    0.00000E+00         0.00000E+00        -0.67807E+07
 
   -0.52144E+07         0.62836E+06         0.00000E+00
    0.62836E+06        -0.32476E+08         0.00000E+00
    0.00000E+00         0.00000E+00        -0.65019E+07
 
   -0.53371E+07         0.79332E+06         0.00000E+00
    0.79332E+06        -0.32316E+08         0.00000E+00
    0.00000E+00         0.00000E+00        -0.62315E+07
 
   -0.54553E+07         0.97844E+06         0.00000E+00
    0.97844E+06        -0.32155E+08         0.00000E+00
    0.00000E+00         0.00000E+00        -0.59779E+07
 
   -0.55716E+07         0.11766E+07         0.00000E+00
    0.11766E+07        -0.32000E+08         0.00000E+00
    0.00000E+00         0.00000E+00        -0.57437E+07
 
   -0.45282E+07         0.23092E+05         0.00000E+00
    0.23092E+05        -0.33660E+08         0.00000E+00
    0.00000E+00         0.00000E+00        -0.85113E+07
 
   -0.46369E+07         0.74640E+05         0.00000E+00
    0.74640E+05        -0.33674E+08         0.00000E+00
    0.00000E+00         0.00000E+00        -0.83834E+07
 
   -0.47458E+07         0.12620E+06         0.00000E+00
    0.12620E+06        -0.33693E+08         0.00000E+00
    0.00000E+00         0.00000E+00        -0.82634E+07
 
   -0.48468E+07         0.17551E+06         0.00000E+00
    0.17551E+06        -0.33706E+08         0.00000E+00
    0.00000E+00         0.00000E+00        -0.81504E+07
 
   -0.49386E+07         0.22004E+06         0.00000E+00
    0.22004E+06        -0.33703E+08         0.00000E+00
    0.00000E+00         0.00000E+00        -0.80334E+07
 
   -0.50232E+07         0.26063E+06         0.00000E+00
    0.26063E+06        -0.33674E+08         0.00000E+00
    0.00000E+00         0.00000E+00        -0.79001E+07
 
   -0.51044E+07         0.30289E+06         0.00000E+00
    0.30289E+06        -0.33616E+08         0.00000E+00
    0.00000E+00         0.00000E+00        -0.77440E+07
 
   -0.51872E+07         0.35484E+06         0.00000E+00
    0.35484E+06        -0.33533E+08         0.00000E+00
    0.00000E+00         0.00000E+00        -0.75626E+07
 
   -0.52747E+07         0.42409E+06         0.00000E+00
    0.42409E+06        -0.33427E+08         0.00000E+00
    0.00000E+00         0.00000E+00        -0.73577E+07
 
   -0.53683E+07         0.51658E+06         0.00000E+00
    0.51658E+06        -0.33304E+08         0.00000E+00
    0.00000E+00         0.00000E+00        -0.71343E+07
 
   -0.54658E+07         0.63505E+06         0.00000E+00
    0.63505E+06        -0.33169E+08         0.00000E+00
    0.00000E+00         0.00000E+00        -0.69020E+07
 
   -0.55653E+07         0.77874E+06         0.00000E+00
    0.77874E+06        -0.33028E+08         0.00000E+00
    0.00000E+00         0.00000E+00        -0.66702E+07
 
   -0.56668E+07         0.94397E+06         0.00000E+00
    0.94397E+06        -0.32885E+08         0.00000E+00
    0.00000E+00         0.00000E+00        -0.64452E+07
 
   -0.57705E+07         0.11252E+07         0.00000E+00
    0.11252E+07        -0.32746E+08         0.00000E+00
    0.00000E+00         0.00000E+00        -0.62311E+07
 
   -0.58768E+07         0.13169E+07         0.00000E+00
    0.13169E+07        -0.32611E+08         0.00000E+00
    0.00000E+00         0.00000E+00        -0.60295E+07
 
   -0.49858E+07         0.17537E+05         0.00000E+00
    0.17537E+05        -0.34162E+08         0.00000E+00
    0.00000E+00         0.00000E+00        -0.84494E+07
 
   -0.50926E+07         0.62215E+05         0.00000E+00
    0.62215E+05        -0.34168E+08         0.00000E+00
    0.00000E+00         0.00000E+00        -0.83208E+07
 
   -0.51973E+07         0.11354E+06         0.00000E+00
    0.11354E+06        -0.34177E+08         0.00000E+00
    0.00000E+00         0.00000E+00        -0.82006E+07
 
   -0.52967E+07         0.17098E+06         0.00000E+00
    0.17098E+06        -0.34183E+08         0.00000E+00
    0.00000E+00         0.00000E+00        -0.80861E+07
 
   -0.53890E+07         0.23257E+06         0.00000E+00
    0.23257E+06        -0.34178E+08         0.00000E+00
    0.00000E+00         0.00000E+00        -0.79718E+07
 
   -0.54726E+07         0.29703E+06         0.00000E+00
    0.29703E+06        -0.34156E+08         0.00000E+00
    0.00000E+00         0.00000E+00        -0.78524E+07
 
   -0.55485E+07         0.36558E+06         0.00000E+00
    0.36558E+06        -0.34111E+08         0.00000E+00
    0.00000E+00         0.00000E+00        -0.77215E+07
 
   -0.56197E+07         0.44207E+06         0.00000E+00
    0.44207E+06        -0.34042E+08         0.00000E+00
    0.00000E+00         0.00000E+00        -0.75749E+07
 
   -0.56894E+07         0.53175E+06         0.00000E+00
    0.53175E+06        -0.33952E+08         0.00000E+00
    0.00000E+00         0.00000E+00        -0.74121E+07
 
   -0.57612E+07         0.63901E+06         0.00000E+00
    0.63901E+06        -0.33844E+08         0.00000E+00
    0.00000E+00         0.00000E+00        -0.72350E+07
 
   -0.58362E+07         0.76599E+06         0.00000E+00
    0.76599E+06        -0.33726E+08         0.00000E+00
    0.00000E+00         0.00000E+00        -0.70498E+07
 
   -0.59149E+07         0.91223E+06         0.00000E+00
    0.91223E+06        -0.33602E+08         0.00000E+00
    0.00000E+00         0.00000E+00        -0.68631E+07
 
   -0.59991E+07         0.10755E+07         0.00000E+00
    0.10755E+07        -0.33479E+08         0.00000E+00
    0.00000E+00         0.00000E+00        -0.66790E+07
 
   -0.60903E+07         0.12530E+07         0.00000E+00
    0.12530E+07        -0.33358E+08         0.00000E+00
    0.00000E+00         0.00000E+00        -0.64995E+07
 
   -0.61883E+07         0.14405E+07         0.00000E+00
    0.14405E+07        -0.33240E+08         0.00000E+00
    0.00000E+00         0.00000E+00        -0.63254E+07
 
   -0.54505E+07         0.14587E+05         0.00000E+00
    0.14587E+05        -0.34664E+08         0.00000E+00
    0.00000E+00         0.00000E+00        -0.83904E+07
 
   -0.55495E+07         0.57024E+05         0.00000E+00
    0.57024E+05        -0.34667E+08         0.00000E+00
    0.00000E+00         0.00000E+00        -0.82730E+07
 
   -0.56453E+07         0.10959E+06         0.00000E+00
    0.10959E+06        -0.34669E+08         0.00000E+00
    0.00000E+00         0.00000E+00        -0.81611E+07
 
   -0.57370E+07         0.17254E+06         0.00000E+00
    0.17254E+06        -0.34667E+08         0.00000E+00
    0.00000E+00         0.00000E+00        -0.80529E+07
 
   -0.58226E+07         0.24520E+06         0.00000E+00
    0.24520E+06        -0.34659E+08         0.00000E+00
    0.00000E+00         0.00000E+00        -0.79469E+07
 
   -0.59000E+07         0.32638E+06         0.00000E+00
    0.32638E+06        -0.34639E+08         0.00000E+00
    0.00000E+00         0.00000E+00        -0.78410E+07
 
   -0.59691E+07         0.41545E+06         0.00000E+00
    0.41545E+06        -0.34603E+08         0.00000E+00
    0.00000E+00         0.00000E+00        -0.77316E+07
 
   -0.60305E+07         0.51312E+06         0.00000E+00
    0.51312E+06        -0.34549E+08         0.00000E+00
    0.00000E+00         0.00000E+00        -0.76156E+07
 
   -0.60870E+07         0.62124E+06         0.00000E+00
    0.62124E+06        -0.34477E+08         0.00000E+00
    0.00000E+00         0.00000E+00        -0.74908E+07
 
   -0.61428E+07         0.74209E+06         0.00000E+00
    0.74209E+06        -0.34390E+08         0.00000E+00
    0.00000E+00         0.00000E+00        -0.73566E+07
 
   -0.62012E+07         0.87711E+06         0.00000E+00
    0.87711E+06        -0.34292E+08         0.00000E+00
    0.00000E+00         0.00000E+00        -0.72150E+07
 
   -0.62641E+07         0.10262E+07         0.00000E+00
    0.10262E+07        -0.34190E+08         0.00000E+00
    0.00000E+00         0.00000E+00        -0.70695E+07
 
   -0.63339E+07         0.11887E+07         0.00000E+00
    0.11887E+07        -0.34085E+08         0.00000E+00
    0.00000E+00         0.00000E+00        -0.69222E+07
 
   -0.64131E+07         0.13633E+07         0.00000E+00
    0.13633E+07        -0.33982E+08         0.00000E+00
    0.00000E+00         0.00000E+00        -0.67745E+07
 
   -0.65034E+07         0.15477E+07         0.00000E+00
    0.15477E+07        -0.33882E+08         0.00000E+00
    0.00000E+00         0.00000E+00        -0.66265E+07
 
   -0.59181E+07         0.13637E+05         0.00000E+00
    0.13637E+05        -0.35167E+08         0.00000E+00
    0.00000E+00         0.00000E+00        -0.83412E+07
 
   -0.60057E+07         0.55896E+05         0.00000E+00
    0.55896E+05        -0.35167E+08         0.00000E+00
    0.00000E+00         0.00000E+00        -0.82387E+07
 
   -0.60901E+07         0.11076E+06         0.00000E+00
    0.11076E+06        -0.35166E+08         0.00000E+00
    0.00000E+00         0.00000E+00        -0.81403E+07
 
   -0.61702E+07         0.17858E+06         0.00000E+00
    0.17858E+06        -0.35161E+08         0.00000E+00
    0.00000E+00         0.00000E+00        -0.80452E+07
 
   -0.62446E+07         0.25906E+06         0.00000E+00
    0.25906E+06        -0.35150E+08         0.00000E+00
    0.00000E+00         0.00000E+00        -0.79533E+07
 
   -0.63120E+07         0.35153E+06         0.00000E+00
    0.35153E+06        -0.35132E+08         0.00000E+00
    0.00000E+00         0.00000E+00        -0.78638E+07
 
   -0.63716E+07         0.45488E+06         0.00000E+00
    0.45488E+06        -0.35103E+08         0.00000E+00
    0.00000E+00         0.00000E+00        -0.77753E+07
 
   -0.64236E+07         0.56815E+06         0.00000E+00
    0.56815E+06        -0.35062E+08         0.00000E+00
    0.00000E+00         0.00000E+00        -0.76860E+07
 
   -0.64698E+07         0.69083E+06         0.00000E+00
    0.69083E+06        -0.35007E+08         0.00000E+00
    0.00000E+00         0.00000E+00        -0.75938E+07
 
   -0.65141E+07         0.82329E+06         0.00000E+00
    0.82329E+06        -0.34941E+08         0.00000E+00
    0.00000E+00         0.00000E+00        -0.74965E+07
 
   -0.65603E+07         0.96621E+06         0.00000E+00
    0.96621E+06        -0.34866E+08         0.00000E+00
    0.00000E+00         0.00000E+00        -0.73930E+07
 
   -0.66113E+07         0.11197E+07         0.00000E+00
    0.11197E+07        -0.34785E+08         0.00000E+00
    0.00000E+00         0.00000E+00        -0.72842E+07
 
   -0.66699E+07         0.12834E+07         0.00000E+00
    0.12834E+07        -0.34700E+08         0.00000E+00
    0.00000E+00         0.00000E+00        -0.71704E+07
 
   -0.67388E+07         0.14568E+07         0.00000E+00
    0.14568E+07        -0.34614E+08         0.00000E+00
    0.00000E+00         0.00000E+00        -0.70520E+07
 
   -0.68208E+07         0.16391E+07         0.00000E+00
    0.16391E+07        -0.34529E+08         0.00000E+00
    0.00000E+00         0.00000E+00        -0.69287E+07
 
   -0.63861E+07         0.13654E+05         0.00000E+00
    0.13654E+05        -0.35671E+08         0.00000E+00
    0.00000E+00         0.00000E+00        -0.83024E+07
 
   -0.64606E+07         0.56821E+05         0.00000E+00
    0.56821E+05        -0.35670E+08         0.00000E+00
    0.00000E+00         0.00000E+00        -0.82172E+07
 
   -0.65313E+07         0.11425E+06         0.00000E+00
    0.11425E+06        -0.35667E+08         0.00000E+00
    0.00000E+00         0.00000E+00        -0.81359E+07
 
   -0.65976E+07         0.18616E+06         0.00000E+00
    0.18616E+06        -0.35661E+08         0.00000E+00
    0.00000E+00         0.00000E+00        -0.80584E+07
 
   -0.66587E+07         0.27244E+06         0.00000E+00
    0.27244E+06        -0.35651E+08         0.00000E+00
    0.00000E+00         0.00000E+00        -0.79845E+07
 
   -0.67136E+07         0.37244E+06         0.00000E+00
    0.37244E+06        -0.35636E+08         0.00000E+00
    0.00000E+00         0.00000E+00        -0.79143E+07
 
   -0.67619E+07         0.48502E+06         0.00000E+00
    0.48502E+06        -0.35614E+08         0.00000E+00
    0.00000E+00         0.00000E+00        -0.78475E+07
 
   -0.68040E+07         0.60864E+06         0.00000E+00
    0.60864E+06        -0.35584E+08         0.00000E+00
    0.00000E+00         0.00000E+00        -0.77828E+07
 
   -0.68412E+07         0.74179E+06         0.00000E+00
    0.74179E+06        -0.35546E+08         0.00000E+00
    0.00000E+00         0.00000E+00        -0.77186E+07
 
   -0.68763E+07         0.88346E+06         0.00000E+00
    0.88346E+06        -0.35499E+08         0.00000E+00
    0.00000E+00         0.00000E+00        -0.76524E+07
 
   -0.69131E+07         0.10336E+07         0.00000E+00
    0.10336E+07        -0.35444E+08         0.00000E+00
    0.00000E+00         0.00000E+00        -0.75816E+07
 
   -0.69549E+07         0.11923E+07         0.00000E+00
    0.11923E+07        -0.35384E+08         0.00000E+00
    0.00000E+00         0.00000E+00        -0.75049E+07
 
   -0.70045E+07         0.13592E+07         0.00000E+00
    0.13592E+07        -0.35319E+08         0.00000E+00
    0.00000E+00         0.00000E+00        -0.74215E+07
 
   -0.70649E+07         0.15343E+07         0.00000E+00
    0.15343E+07        -0.35251E+08         0.00000E+00
    0.00000E+00         0.00000E+00        -0.73305E+07
 
   -0.71383E+07         0.17171E+07         0.00000E+00
    0.17171E+07        -0.35180E+08         0.00000E+00
    0.00000E+00         0.00000E+00        -0.72310E+07
 
   -0.68537E+07         0.13938E+05         0.00000E+00
    0.13938E+05        -0.36174E+08         0.00000E+00
    0.00000E+00         0.00000E+00        -0.82738E+07
 
   -0.69137E+07         0.58148E+05         0.00000E+00
    0.58148E+05        -0.36173E+08         0.00000E+00
    0.00000E+00         0.00000E+00        -0.82074E+07
 
   -0.69695E+07         0.11766E+06         0.00000E+00
    0.11766E+06        -0.36171E+08         0.00000E+00
    0.00000E+00         0.00000E+00        -0.81456E+07
 
   -0.70208E+07         0.19263E+06         0.00000E+00
    0.19263E+06        -0.36167E+08         0.00000E+00
    0.00000E+00         0.00000E+00        -0.80881E+07
 
   -0.70672E+07         0.28286E+06         0.00000E+00
    0.28286E+06        -0.36160E+08         0.00000E+00
    0.00000E+00         0.00000E+00        -0.80349E+07
 
   -0.71085E+07         0.38770E+06         0.00000E+00
    0.38770E+06        -0.36150E+08         0.00000E+00
    0.00000E+00         0.00000E+00        -0.79861E+07
 
   -0.71445E+07         0.50597E+06         0.00000E+00
    0.50597E+06        -0.36136E+08         0.00000E+00
    0.00000E+00         0.00000E+00        -0.79416E+07
 
   -0.71759E+07         0.63605E+06         0.00000E+00
    0.63605E+06        -0.36117E+08         0.00000E+00
    0.00000E+00         0.00000E+00        -0.79005E+07
 
   -0.72040E+07         0.77617E+06         0.00000E+00
    0.77617E+06        -0.36093E+08         0.00000E+00
    0.00000E+00         0.00000E+00        -0.78613E+07
 
   -0.72309E+07         0.92490E+06         0.00000E+00
    0.92490E+06        -0.36063E+08         0.00000E+00
    0.00000E+00         0.00000E+00        -0.78215E+07
 
   -0.72598E+07         0.10813E+07         0.00000E+00
    0.10813E+07        -0.36027E+08         0.00000E+00
    0.00000E+00         0.00000E+00        -0.77784E+07
 
   -0.72938E+07         0.12452E+07         0.00000E+00
    0.12452E+07        -0.35985E+08         0.00000E+00
    0.00000E+00         0.00000E+00        -0.77297E+07
 
   -0.73357E+07         0.14166E+07         0.00000E+00
    0.14166E+07        -0.35938E+08         0.00000E+00
    0.00000E+00         0.00000E+00        -0.76737E+07
 
   -0.73883E+07         0.15957E+07         0.00000E+00
    0.15957E+07        -0.35887E+08         0.00000E+00
    0.00000E+00         0.00000E+00        -0.76089E+07
 
   -0.74548E+07         0.17819E+07         0.00000E+00
    0.17819E+07        -0.35832E+08         0.00000E+00
    0.00000E+00         0.00000E+00        -0.75334E+07
 
   -0.73213E+07         0.14049E+05         0.00000E+00
    0.14049E+05        -0.36678E+08         0.00000E+00
    0.00000E+00         0.00000E+00        -0.82544E+07
 
   -0.73656E+07         0.58485E+05         0.00000E+00
    0.58485E+05        -0.36678E+08         0.00000E+00
    0.00000E+00         0.00000E+00        -0.82078E+07
 
   -0.74056E+07         0.11905E+06         0.00000E+00
    0.11905E+06        -0.36678E+08         0.00000E+00
    0.00000E+00         0.00000E+00        -0.81666E+07
 
   -0.74411E+07         0.19571E+06         0.00000E+00
    0.19571E+06        -0.36678E+08         0.00000E+00
    0.00000E+00         0.00000E+00        -0.81305E+07
 
   -0.74723E+07         0.28818E+06         0.00000E+00
    0.28818E+06        -0.36676E+08         0.00000E+00
    0.00000E+00         0.00000E+00        -0.80995E+07
 
   -0.74992E+07         0.39579E+06         0.00000E+00
    0.39579E+06        -0.36673E+08         0.00000E+00
    0.00000E+00         0.00000E+00        -0.80733E+07
 
   -0.75223E+07         0.51737E+06         0.00000E+00
    0.51737E+06        -0.36667E+08         0.00000E+00
    0.00000E+00         0.00000E+00        -0.80515E+07
 
   -0.75424E+07         0.65139E+06         0.00000E+00
    0.65139E+06        -0.36659E+08         0.00000E+00
    0.00000E+00         0.00000E+00        -0.80334E+07
 
   -0.75609E+07         0.79617E+06         0.00000E+00
    0.79617E+06        -0.36648E+08         0.00000E+00
    0.00000E+00         0.00000E+00        -0.80172E+07
 
   -0.75796E+07         0.95006E+06         0.00000E+00
    0.95006E+06        -0.36632E+08         0.00000E+00
    0.00000E+00         0.00000E+00        -0.80009E+07
 
   -0.76010E+07         0.11119E+07         0.00000E+00
    0.11119E+07        -0.36611E+08         0.00000E+00
    0.00000E+00         0.00000E+00        -0.79818E+07
 
   -0.76276E+07         0.12810E+07         0.00000E+00
    0.12810E+07        -0.36586E+08         0.00000E+00
    0.00000E+00         0.00000E+00        -0.79574E+07
 
   -0.76622E+07         0.14572E+07         0.00000E+00
    0.14572E+07        -0.36555E+08         0.00000E+00
    0.00000E+00         0.00000E+00        -0.79257E+07
 
   -0.77078E+07         0.16399E+07         0.00000E+00
    0.16399E+07        -0.36520E+08         0.00000E+00
    0.00000E+00         0.00000E+00        -0.78849E+07
 
   -0.77683E+07         0.18293E+07         0.00000E+00
    0.18293E+07        -0.36482E+08         0.00000E+00
    0.00000E+00         0.00000E+00        -0.78326E+07
 
   -0.77896E+07         0.13517E+05         0.00000E+00
    0.13517E+05        -0.37182E+08         0.00000E+00
    0.00000E+00         0.00000E+00        -0.82430E+07
 
   -0.78175E+07         0.56814E+05         0.00000E+00
    0.56814E+05        -0.37184E+08         0.00000E+00
    0.00000E+00         0.00000E+00        -0.82162E+07
 
   -0.78410E+07         0.11688E+06         0.00000E+00
    0.11688E+06        -0.37187E+08         0.00000E+00
    0.00000E+00         0.00000E+00        -0.81962E+07
 
   -0.78603E+07         0.19365E+06         0.00000E+00
    0.19365E+06        -0.37192E+08         0.00000E+00
    0.00000E+00         0.00000E+00        -0.81823E+07
 
   -0.78757E+07         0.28677E+06         0.00000E+00
    0.28677E+06        -0.37197E+08         0.00000E+00
    0.00000E+00         0.00000E+00        -0.81742E+07
 
   -0.78878E+07         0.39555E+06         0.00000E+00
    0.39555E+06        -0.37201E+08         0.00000E+00
    0.00000E+00         0.00000E+00        -0.81712E+07
 
   -0.78973E+07         0.51887E+06         0.00000E+00
    0.51887E+06        -0.37205E+08         0.00000E+00
    0.00000E+00         0.00000E+00        -0.81726E+07
 
   -0.79055E+07         0.65530E+06         0.00000E+00
    0.65530E+06        -0.37208E+08         0.00000E+00
    0.00000E+00         0.00000E+00        -0.81770E+07
 
   -0.79136E+07         0.80326E+06         0.00000E+00
    0.80326E+06        -0.37208E+08         0.00000E+00
    0.00000E+00         0.00000E+00        -0.81830E+07
 
   -0.79235E+07         0.96116E+06         0.00000E+00
    0.96116E+06        -0.37205E+08         0.00000E+00
    0.00000E+00         0.00000E+00        -0.81884E+07
 
   -0.79371E+07         0.11276E+07         0.00000E+00
    0.11276E+07        -0.37198E+08         0.00000E+00
    0.00000E+00         0.00000E+00        -0.81910E+07
 
   -0.79566E+07         0.13015E+07         0.00000E+00
    0.13015E+07        -0.37187E+08         0.00000E+00
    0.00000E+00         0.00000E+00        -0.81882E+07
 
   -0.79847E+07         0.14821E+07         0.00000E+00
    0.14821E+07        -0.37171E+08         0.00000E+00
    0.00000E+00         0.00000E+00        -0.81780E+07
 
   -0.80239E+07         0.16690E+07         0.00000E+00
    0.16690E+07        -0.37151E+08         0.00000E+00
    0.00000E+00         0.00000E+00        -0.81584E+07
 
   -0.80772E+07         0.18627E+07         0.00000E+00
    0.18627E+07        -0.37126E+08         0.00000E+00
    0.00000E+00         0.00000E+00        -0.81270E+07
 
   -0.82602E+07         0.11989E+05         0.00000E+00
    0.11989E+05        -0.37686E+08         0.00000E+00
    0.00000E+00         0.00000E+00        -0.82371E+07
 
   -0.82710E+07         0.52291E+05         0.00000E+00
    0.52291E+05        -0.37690E+08         0.00000E+00
    0.00000E+00         0.00000E+00        -0.82303E+07
 
   -0.82774E+07         0.11005E+06         0.00000E+00
    0.11005E+06        -0.37698E+08         0.00000E+00
    0.00000E+00         0.00000E+00        -0.82316E+07
 
   -0.82798E+07         0.18526E+06         0.00000E+00
    0.18526E+06        -0.37708E+08         0.00000E+00
    0.00000E+00         0.00000E+00        -0.82404E+07
 
   -0.82789E+07         0.27757E+06         0.00000E+00
    0.27757E+06        -0.37720E+08         0.00000E+00
    0.00000E+00         0.00000E+00        -0.82556E+07
 
   -0.82755E+07         0.38625E+06         0.00000E+00
    0.38625E+06        -0.37734E+08         0.00000E+00
    0.00000E+00         0.00000E+00        -0.82762E+07
 
   -0.82708E+07         0.51021E+06         0.00000E+00
    0.51021E+06        -0.37748E+08         0.00000E+00
    0.00000E+00         0.00000E+00        -0.83007E+07
 
   -0.82662E+07         0.64810E+06         0.00000E+00
    0.64810E+06        -0.37761E+08         0.00000E+00
    0.00000E+00         0.00000E+00        -0.83277E+07
 
   -0.82632E+07         0.79839E+06         0.00000E+00
    0.79839E+06        -0.37773E+08         0.00000E+00
    0.00000E+00         0.00000E+00        -0.83555E+07
 
   -0.82634E+07         0.95950E+06         0.00000E+00
    0.95950E+06        -0.37782E+08         0.00000E+00
    0.00000E+00         0.00000E+00        -0.83819E+07
 
   -0.82687E+07         0.11299E+07         0.00000E+00
    0.11299E+07        -0.37787E+08         0.00000E+00
    0.00000E+00         0.00000E+00        -0.84049E+07
 
   -0.82810E+07         0.13083E+07         0.00000E+00
    0.13083E+07        -0.37789E+08         0.00000E+00
    0.00000E+00         0.00000E+00        -0.84221E+07
 
   -0.83026E+07         0.14938E+07         0.00000E+00
    0.14938E+07        -0.37786E+08         0.00000E+00
    0.00000E+00         0.00000E+00        -0.84315E+07
 
   -0.83353E+07         0.16859E+07         0.00000E+00
    0.16859E+07        -0.37777E+08         0.00000E+00
    0.00000E+00         0.00000E+00        -0.84307E+07
 
   -0.83811E+07         0.18846E+07         0.00000E+00
    0.18846E+07        -0.37762E+08         0.00000E+00
    0.00000E+00         0.00000E+00        -0.84177E+07
 
   -0.87352E+07         0.92412E+04         0.00000E+00
    0.92412E+04        -0.38190E+08         0.00000E+00
    0.00000E+00         0.00000E+00        -0.82344E+07
 
   -0.87282E+07         0.44322E+05         0.00000E+00
    0.44322E+05        -0.38197E+08         0.00000E+00
    0.00000E+00         0.00000E+00        -0.82474E+07
 
   -0.87167E+07         0.97865E+05         0.00000E+00
    0.97865E+05        -0.38209E+08         0.00000E+00
    0.00000E+00         0.00000E+00        -0.82703E+07
 
   -0.87013E+07         0.16989E+06         0.00000E+00
    0.16989E+06        -0.38226E+08         0.00000E+00
    0.00000E+00         0.00000E+00        -0.83020E+07
 
   -0.86831E+07         0.26003E+06         0.00000E+00
    0.26003E+06        -0.38246E+08         0.00000E+00
    0.00000E+00         0.00000E+00        -0.83407E+07
 
   -0.86633E+07         0.36755E+06         0.00000E+00
    0.36755E+06        -0.38269E+08         0.00000E+00
    0.00000E+00         0.00000E+00        -0.83849E+07
 
   -0.86436E+07         0.49135E+06         0.00000E+00
    0.49135E+06        -0.38292E+08         0.00000E+00
    0.00000E+00         0.00000E+00        -0.84328E+07
 
   -0.86253E+07         0.63009E+06         0.00000E+00
    0.63009E+06        -0.38316E+08         0.00000E+00
    0.00000E+00         0.00000E+00        -0.84824E+07
 
   -0.86102E+07         0.78220E+06         0.00000E+00
    0.78220E+06        -0.38338E+08         0.00000E+00
    0.00000E+00         0.00000E+00        -0.85318E+07
 
   -0.86000E+07         0.94609E+06         0.00000E+00
    0.94609E+06        -0.38358E+08         0.00000E+00
    0.00000E+00         0.00000E+00        -0.85788E+07
 
   -0.85962E+07         0.11202E+07         0.00000E+00
    0.11202E+07        -0.38375E+08         0.00000E+00
    0.00000E+00         0.00000E+00        -0.86213E+07
 
   -0.86006E+07         0.13031E+07         0.00000E+00
    0.13031E+07        -0.38388E+08         0.00000E+00
    0.00000E+00         0.00000E+00        -0.86573E+07
 
   -0.86150E+07         0.14940E+07         0.00000E+00
    0.14940E+07        -0.38396E+08         0.00000E+00
    0.00000E+00         0.00000E+00        -0.86848E+07
 
   -0.86409E+07         0.16921E+07         0.00000E+00
    0.16921E+07        -0.38398E+08         0.00000E+00
    0.00000E+00         0.00000E+00        -0.87017E+07
 
   -0.86808E+07         0.18963E+07         0.00000E+00
    0.18963E+07        -0.38395E+08         0.00000E+00
    0.00000E+00         0.00000E+00        -0.87063E+07
 
   -0.92172E+07         0.51513E+04         0.00000E+00
    0.51513E+04        -0.38695E+08         0.00000E+00
    0.00000E+00         0.00000E+00        -0.82323E+07
 
   -0.91912E+07         0.32667E+05         0.00000E+00
    0.32667E+05        -0.38704E+08         0.00000E+00
    0.00000E+00         0.00000E+00        -0.82651E+07
 
   -0.91605E+07         0.80049E+05         0.00000E+00
    0.80049E+05        -0.38721E+08         0.00000E+00
    0.00000E+00         0.00000E+00        -0.83098E+07
 
   -0.91261E+07         0.14733E+06         0.00000E+00
    0.14733E+06        -0.38744E+08         0.00000E+00
    0.00000E+00         0.00000E+00        -0.83645E+07
 
   -0.90894E+07         0.23409E+06         0.00000E+00
    0.23409E+06        -0.38772E+08         0.00000E+00
    0.00000E+00         0.00000E+00        -0.84271E+07
 
   -0.90523E+07         0.33954E+06         0.00000E+00
    0.33954E+06        -0.38803E+08         0.00000E+00
    0.00000E+00         0.00000E+00        -0.84951E+07
 
   -0.90163E+07         0.46255E+06         0.00000E+00
    0.46255E+06        -0.38836E+08         0.00000E+00
    0.00000E+00         0.00000E+00        -0.85663E+07
 
   -0.89833E+07         0.60168E+06         0.00000E+00
    0.60168E+06        -0.38870E+08         0.00000E+00
    0.00000E+00         0.00000E+00        -0.86384E+07
 
   -0.89551E+07         0.75535E+06         0.00000E+00
    0.75535E+06        -0.38902E+08         0.00000E+00
    0.00000E+00         0.00000E+00        -0.87092E+07
 
   -0.89333E+07         0.92190E+06         0.00000E+00
    0.92190E+06        -0.38933E+08         0.00000E+00
    0.00000E+00         0.00000E+00        -0.87764E+07
 
   -0.89196E+07         0.10997E+07         0.00000E+00
    0.10997E+07        -0.38960E+08         0.00000E+00
    0.00000E+00         0.00000E+00        -0.88379E+07
 
   -0.89151E+07         0.12874E+07         0.00000E+00
    0.12874E+07        -0.38983E+08         0.00000E+00
    0.00000E+00         0.00000E+00        -0.88919E+07
 
   -0.89216E+07         0.14838E+07         0.00000E+00
    0.14838E+07        -0.39001E+08         0.00000E+00
    0.00000E+00         0.00000E+00        -0.89369E+07
 
   -0.89412E+07         0.16868E+07         0.00000E+00
    0.16868E+07        -0.39014E+08         0.00000E+00
    0.00000E+00         0.00000E+00        -0.89709E+07
 
   -0.89765E+07         0.18949E+07         0.00000E+00
    0.18949E+07        -0.39023E+08         0.00000E+00
    0.00000E+00         0.00000E+00        -0.89918E+07
 
   -0.97086E+07        -0.32274E+03         0.00000E+00
   -0.32274E+03        -0.39199E+08         0.00000E+00
    0.00000E+00         0.00000E+00        -0.82289E+07
 
   -0.96621E+07         0.17443E+05         0.00000E+00
    0.17443E+05        -0.39210E+08         0.00000E+00
    0.00000E+00         0.00000E+00        -0.82818E+07
 
   -0.96106E+07         0.56811E+05         0.00000E+00
    0.56811E+05        -0.39232E+08         0.00000E+00
    0.00000E+00         0.00000E+00        -0.83484E+07
 
   -0.95556E+07         0.11784E+06         0.00000E+00
    0.11784E+06        -0.39261E+08         0.00000E+00
    0.00000E+00         0.00000E+00        -0.84263E+07
 
   -0.94990E+07         0.20007E+06         0.00000E+00
    0.20007E+06        -0.39296E+08         0.00000E+00
    0.00000E+00         0.00000E+00        -0.85125E+07
 
   -0.94429E+07         0.30262E+06         0.00000E+00
    0.30262E+06        -0.39336E+08         0.00000E+00
    0.00000E+00         0.00000E+00        -0.86042E+07
 
   -0.93894E+07         0.42425E+06         0.00000E+00
    0.42425E+06        -0.39378E+08         0.00000E+00
    0.00000E+00         0.00000E+00        -0.86986E+07
 
   -0.93404E+07         0.56347E+06         0.00000E+00
    0.56347E+06        -0.39420E+08         0.00000E+00
    0.00000E+00         0.00000E+00        -0.87931E+07
 
   -0.92978E+07         0.71862E+06         0.00000E+00
    0.71862E+06        -0.39462E+08         0.00000E+00
    0.00000E+00         0.00000E+00        -0.88852E+07
 
   -0.92633E+07         0.88800E+06         0.00000E+00
    0.88800E+06        -0.39502E+08         0.00000E+00
    0.00000E+00         0.00000E+00        -0.89724E+07
 
   -0.92384E+07         0.10698E+07         0.00000E+00
    0.10698E+07        -0.39539E+08         0.00000E+00
    0.00000E+00         0.00000E+00        -0.90528E+07
 
   -0.92246E+07         0.12621E+07         0.00000E+00
    0.12621E+07        -0.39571E+08         0.00000E+00
    0.00000E+00         0.00000E+00        -0.91245E+07
 
   -0.92238E+07         0.14626E+07         0.00000E+00
    0.14626E+07        -0.39600E+08         0.00000E+00
    0.00000E+00         0.00000E+00        -0.91861E+07
 
   -0.92374E+07         0.16699E+07         0.00000E+00
    0.16699E+07        -0.39624E+08         0.00000E+00
    0.00000E+00         0.00000E+00        -0.92357E+07
 
   -0.92668E+07         0.18838E+07         0.00000E+00
    0.18838E+07        -0.39642E+08         0.00000E+00
    0.00000E+00         0.00000E+00        -0.92714E+07
 
   -0.10212E+08        -0.70172E+04         0.00000E+00
   -0.70172E+04        -0.39703E+08         0.00000E+00
    0.00000E+00         0.00000E+00        -0.82223E+07
 
   -0.10143E+08        -0.10785E+04         0.00000E+00
   -0.10785E+04        -0.39717E+08         0.00000E+00
    0.00000E+00         0.00000E+00        -0.82955E+07
 
   -0.10069E+08         0.28627E+05         0.00000E+00
    0.28627E+05        -0.39742E+08         0.00000E+00
    0.00000E+00         0.00000E+00        -0.83842E+07
 
   -0.99911E+07         0.82060E+05         0.00000E+00
    0.82060E+05        -0.39777E+08         0.00000E+00
    0.00000E+00         0.00000E+00        -0.84852E+07
 
   -0.99128E+07         0.15871E+06         0.00000E+00
    0.15871E+06        -0.39818E+08         0.00000E+00
    0.00000E+00         0.00000E+00        -0.85949E+07
 
   -0.98360E+07         0.25758E+06         0.00000E+00
    0.25758E+06        -0.39865E+08         0.00000E+00
    0.00000E+00         0.00000E+00        -0.87101E+07
 
   -0.97633E+07         0.37733E+06         0.00000E+00
    0.37733E+06        -0.39914E+08         0.00000E+00
    0.00000E+00         0.00000E+00        -0.88275E+07
 
   -0.96967E+07         0.51640E+06         0.00000E+00
    0.51640E+06        -0.39965E+08         0.00000E+00
    0.00000E+00         0.00000E+00        -0.89443E+07
 
   -0.96383E+07         0.67298E+06         0.00000E+00
    0.67298E+06        -0.40016E+08         0.00000E+00
    0.00000E+00         0.00000E+00        -0.90575E+07
 
   -0.95900E+07         0.84499E+06         0.00000E+00
    0.84499E+06        -0.40065E+08         0.00000E+00
    0.00000E+00         0.00000E+00        -0.91648E+07
 
   -0.95534E+07         0.10303E+07         0.00000E+00
    0.10303E+07        -0.40110E+08         0.00000E+00
    0.00000E+00         0.00000E+00        -0.92640E+07
 
   -0.95300E+07         0.12264E+07         0.00000E+00
    0.12264E+07        -0.40153E+08         0.00000E+00
    0.00000E+00         0.00000E+00        -0.93532E+07
 
   -0.95214E+07         0.14317E+07         0.00000E+00
    0.14317E+07        -0.40191E+08         0.00000E+00
    0.00000E+00         0.00000E+00        -0.94309E+07
 
   -0.95279E+07         0.16448E+07         0.00000E+00
    0.16448E+07        -0.40223E+08         0.00000E+00
    0.00000E+00         0.00000E+00        -0.94951E+07
 
   -0.95503E+07         0.18652E+07         0.00000E+00
    0.18652E+07        -0.40248E+08         0.00000E+00
    0.00000E+00         0.00000E+00        -0.95448E+07
 
   -0.10729E+08        -0.14756E+05         0.00000E+00
   -0.14756E+05        -0.40208E+08         0.00000E+00
    0.00000E+00         0.00000E+00        -0.82109E+07
 
   -0.10635E+08        -0.22399E+05         0.00000E+00
   -0.22399E+05        -0.40223E+08         0.00000E+00
    0.00000E+00         0.00000E+00        -0.83050E+07
 
   -0.10536E+08        -0.37117E+04         0.00000E+00
   -0.37117E+04        -0.40251E+08         0.00000E+00
    0.00000E+00         0.00000E+00        -0.84158E+07
 
   -0.10434E+08         0.41064E+05         0.00000E+00
    0.41064E+05        -0.40290E+08         0.00000E+00
    0.00000E+00         0.00000E+00        -0.85397E+07
 
   -0.10332E+08         0.11125E+06         0.00000E+00
    0.11125E+06        -0.40336E+08         0.00000E+00
    0.00000E+00         0.00000E+00        -0.86727E+07
 
   -0.10232E+08         0.20572E+06         0.00000E+00
    0.20572E+06        -0.40389E+08         0.00000E+00
    0.00000E+00         0.00000E+00        -0.88109E+07
 
   -0.10138E+08         0.32307E+06         0.00000E+00
    0.32307E+06        -0.40445E+08         0.00000E+00
    0.00000E+00         0.00000E+00        -0.89511E+07
 
   -0.10053E+08         0.46149E+06         0.00000E+00
    0.46149E+06        -0.40503E+08         0.00000E+00
    0.00000E+00         0.00000E+00        -0.90898E+07
 
   -0.99770E+07         0.61891E+06         0.00000E+00
    0.61891E+06        -0.40561E+08         0.00000E+00
    0.00000E+00         0.00000E+00        -0.92241E+07
 
   -0.99138E+07         0.79303E+06         0.00000E+00
    0.79303E+06        -0.40618E+08         0.00000E+00
    0.00000E+00         0.00000E+00        -0.93515E+07
 
   -0.98647E+07         0.98135E+06         0.00000E+00
    0.98135E+06        -0.40672E+08         0.00000E+00
    0.00000E+00         0.00000E+00        -0.94694E+07
 
   -0.98308E+07         0.11817E+07         0.00000E+00
    0.11817E+07        -0.40723E+08         0.00000E+00
    0.00000E+00         0.00000E+00        -0.95759E+07
 
   -0.98131E+07         0.13925E+07         0.00000E+00
    0.13925E+07        -0.40770E+08         0.00000E+00
    0.00000E+00         0.00000E+00        -0.96694E+07
 
   -0.98117E+07         0.16123E+07         0.00000E+00
    0.16123E+07        -0.40810E+08         0.00000E+00
    0.00000E+00         0.00000E+00        -0.97486E+07
 
   -0.98272E+07         0.18397E+07         0.00000E+00
    0.18397E+07        -0.40842E+08         0.00000E+00
    0.00000E+00         0.00000E+00        -0.98120E+07
 
   -0.11262E+08        -0.23315E+05         0.00000E+00
   -0.23315E+05        -0.40712E+08         0.00000E+00
    0.00000E+00         0.00000E+00        -0.81938E+07
 
   -0.11140E+08        -0.45807E+05         0.00000E+00
   -0.45807E+05        -0.40729E+08         0.00000E+00
    0.00000E+00         0.00000E+00        -0.83094E+07
 
   -0.11013E+08        -0.39089E+05         0.00000E+00
   -0.39089E+05        -0.40759E+08         0.00000E+00
    0.00000E+00         0.00000E+00        -0.84425E+07
 
   -0.10884E+08        -0.37299E+04         0.00000E+00
   -0.37299E+04        -0.40800E+08         0.00000E+00
    0.00000E+00         0.00000E+00        -0.85891E+07
 
   -0.10756E+08         0.59312E+05         0.00000E+00
    0.59312E+05        -0.40850E+08         0.00000E+00
    0.00000E+00         0.00000E+00        -0.87446E+07
 
   -0.10632E+08         0.14874E+06         0.00000E+00
    0.14874E+06        -0.40906E+08         0.00000E+00
    0.00000E+00         0.00000E+00        -0.89052E+07
 
   -0.10515E+08         0.26290E+06         0.00000E+00
    0.26290E+06        -0.40966E+08         0.00000E+00
    0.00000E+00         0.00000E+00        -0.90673E+07
 
   -0.10409E+08         0.39984E+06         0.00000E+00
    0.39984E+06        -0.41030E+08         0.00000E+00
    0.00000E+00         0.00000E+00        -0.92274E+07
 
   -0.10315E+08         0.55735E+06         0.00000E+00
    0.55735E+06        -0.41094E+08         0.00000E+00
    0.00000E+00         0.00000E+00        -0.93824E+07
 
   -0.10235E+08         0.73293E+06         0.00000E+00
    0.73293E+06        -0.41158E+08         0.00000E+00
    0.00000E+00         0.00000E+00        -0.95294E+07
 
   -0.10172E+08         0.92416E+06         0.00000E+00
    0.92416E+06        -0.41221E+08         0.00000E+00
    0.00000E+00         0.00000E+00        -0.96658E+07
 
   -0.10127E+08         0.11289E+07         0.00000E+00
    0.11289E+07        -0.41280E+08         0.00000E+00
    0.00000E+00         0.00000E+00        -0.97896E+07
 
   -0.10099E+08         0.13453E+07         0.00000E+00
    0.13453E+07        -0.41334E+08         0.00000E+00
    0.00000E+00         0.00000E+00        -0.98997E+07
 
   -0.10088E+08         0.15718E+07         0.00000E+00
    0.15718E+07        -0.41382E+08         0.00000E+00
    0.00000E+00         0.00000E+00        -0.99947E+07
 
   -0.10097E+08         0.18059E+07         0.00000E+00
    0.18059E+07        -0.41424E+08         0.00000E+00
    0.00000E+00         0.00000E+00        -0.10073E+08
 
   -0.11812E+08        -0.32414E+05         0.00000E+00
   -0.32414E+05        -0.41216E+08         0.00000E+00
    0.00000E+00         0.00000E+00        -0.81708E+07
 
   -0.11659E+08        -0.70486E+05         0.00000E+00
   -0.70486E+05        -0.41234E+08         0.00000E+00
    0.00000E+00         0.00000E+00        -0.83086E+07
 
   -0.11502E+08        -0.76175E+05         0.00000E+00
   -0.76175E+05        -0.41265E+08         0.00000E+00
    0.00000E+00         0.00000E+00        -0.84640E+07
 
   -0.11343E+08        -0.50555E+05         0.00000E+00
   -0.50555E+05        -0.41307E+08         0.00000E+00
    0.00000E+00         0.00000E+00        -0.86327E+07
 
   -0.11187E+08         0.49689E+04         0.00000E+00
    0.49689E+04        -0.41358E+08         0.00000E+00
    0.00000E+00         0.00000E+00        -0.88098E+07
 
   -0.11036E+08         0.88727E+05         0.00000E+00
    0.88727E+05        -0.41415E+08         0.00000E+00
    0.00000E+00         0.00000E+00        -0.89914E+07
 
   -0.10895E+08         0.19885E+06         0.00000E+00
    0.19885E+06        -0.41478E+08         0.00000E+00
    0.00000E+00         0.00000E+00        -0.91740E+07
 
   -0.10766E+08         0.33330E+06         0.00000E+00
    0.33330E+06        -0.41544E+08         0.00000E+00
    0.00000E+00         0.00000E+00        -0.93542E+07
 
   -0.10652E+08         0.48986E+06         0.00000E+00
    0.48986E+06        -0.41613E+08         0.00000E+00
    0.00000E+00         0.00000E+00        -0.95288E+07
 
   -0.10555E+08         0.66605E+06         0.00000E+00
    0.66605E+06        -0.41683E+08         0.00000E+00
    0.00000E+00         0.00000E+00        -0.96947E+07
 
   -0.10477E+08         0.85952E+06         0.00000E+00
    0.85952E+06        -0.41752E+08         0.00000E+00
    0.00000E+00         0.00000E+00        -0.98496E+07
 
   -0.10418E+08         0.10680E+07         0.00000E+00
    0.10680E+07        -0.41818E+08         0.00000E+00
    0.00000E+00         0.00000E+00        -0.99916E+07
 
   -0.10378E+08         0.12897E+07         0.00000E+00
    0.12897E+07        -0.41881E+08         0.00000E+00
    0.00000E+00         0.00000E+00        -0.10119E+08
 
   -0.10359E+08         0.15218E+07         0.00000E+00
    0.15218E+07        -0.41939E+08         0.00000E+00
    0.00000E+00         0.00000E+00        -0.10231E+08
 
   -0.10361E+08         0.17616E+07         0.00000E+00
    0.17616E+07        -0.41992E+08         0.00000E+00
    0.00000E+00         0.00000E+00        -0.10326E+08
 
   -0.12379E+08        -0.41778E+05         0.00000E+00
   -0.41778E+05        -0.41721E+08         0.00000E+00
    0.00000E+00         0.00000E+00        -0.81422E+07
 
   -0.12192E+08        -0.95583E+05         0.00000E+00
   -0.95583E+05        -0.41738E+08         0.00000E+00
    0.00000E+00         0.00000E+00        -0.83030E+07
 
   -0.12001E+08        -0.11350E+06         0.00000E+00
   -0.11350E+06        -0.41769E+08         0.00000E+00
    0.00000E+00         0.00000E+00        -0.84808E+07
 
   -0.11810E+08        -0.97343E+05         0.00000E+00
   -0.97343E+05        -0.41810E+08         0.00000E+00
    0.00000E+00         0.00000E+00        -0.86708E+07
 
   -0.11624E+08        -0.49242E+05         0.00000E+00
   -0.49242E+05        -0.41859E+08         0.00000E+00
    0.00000E+00         0.00000E+00        -0.88678E+07
 
   -0.11446E+08         0.28528E+05         0.00000E+00
    0.28528E+05        -0.41915E+08         0.00000E+00
    0.00000E+00         0.00000E+00        -0.90682E+07
 
   -0.11279E+08         0.13379E+06         0.00000E+00
    0.13379E+06        -0.41976E+08         0.00000E+00
    0.00000E+00         0.00000E+00        -0.92687E+07
 
   -0.11126E+08         0.26453E+06         0.00000E+00
    0.26453E+06        -0.42043E+08         0.00000E+00
    0.00000E+00         0.00000E+00        -0.94667E+07
 
   -0.10990E+08         0.41853E+06         0.00000E+00
    0.41853E+06        -0.42113E+08         0.00000E+00
    0.00000E+00         0.00000E+00        -0.96592E+07
 
   -0.10874E+08         0.59368E+06         0.00000E+00
    0.59368E+06        -0.42186E+08         0.00000E+00
    0.00000E+00         0.00000E+00        -0.98433E+07
 
   -0.10778E+08         0.78776E+06         0.00000E+00
    0.78776E+06        -0.42261E+08         0.00000E+00
    0.00000E+00         0.00000E+00        -0.10017E+08
 
   -0.10705E+08         0.99866E+06         0.00000E+00
    0.99866E+06        -0.42336E+08         0.00000E+00
    0.00000E+00         0.00000E+00        -0.10178E+08
 
   -0.10653E+08         0.12238E+07         0.00000E+00
    0.12238E+07        -0.42409E+08         0.00000E+00
    0.00000E+00         0.00000E+00        -0.10325E+08
 
   -0.10624E+08         0.14603E+07         0.00000E+00
    0.14603E+07        -0.42479E+08         0.00000E+00
    0.00000E+00         0.00000E+00        -0.10456E+08
 
   -0.10618E+08         0.17072E+07         0.00000E+00
    0.17072E+07        -0.42543E+08         0.00000E+00
    0.00000E+00         0.00000E+00        -0.10568E+08
 
   -0.12964E+08        -0.51168E+05         0.00000E+00
   -0.51168E+05        -0.42225E+08         0.00000E+00
    0.00000E+00         0.00000E+00        -0.81088E+07
 
   -0.12738E+08        -0.12028E+06         0.00000E+00
   -0.12028E+06        -0.42242E+08         0.00000E+00
    0.00000E+00         0.00000E+00        -0.82936E+07
 
   -0.12511E+08        -0.14948E+06         0.00000E+00
   -0.14948E+06        -0.42271E+08         0.00000E+00
    0.00000E+00         0.00000E+00        -0.84939E+07
 
   -0.12286E+08        -0.14171E+06         0.00000E+00
   -0.14171E+06        -0.42309E+08         0.00000E+00
    0.00000E+00         0.00000E+00        -0.87039E+07
 
   -0.12068E+08        -0.10020E+06         0.00000E+00
   -0.10020E+06        -0.42354E+08         0.00000E+00
    0.00000E+00         0.00000E+00        -0.89185E+07
 
   -0.11861E+08        -0.28186E+05         0.00000E+00
   -0.28186E+05        -0.42405E+08         0.00000E+00
    0.00000E+00         0.00000E+00        -0.91342E+07
 
   -0.11667E+08         0.71559E+05         0.00000E+00
    0.71559E+05        -0.42460E+08         0.00000E+00
    0.00000E+00         0.00000E+00        -0.93490E+07
 
   -0.11489E+08         0.19687E+06         0.00000E+00
    0.19687E+06        -0.42522E+08         0.00000E+00
    0.00000E+00         0.00000E+00        -0.95613E+07
 
   -0.11331E+08         0.34586E+06         0.00000E+00
    0.34586E+06        -0.42591E+08         0.00000E+00
    0.00000E+00         0.00000E+00        -0.97689E+07
 
   -0.11194E+08         0.51704E+06         0.00000E+00
    0.51704E+06        -0.42666E+08         0.00000E+00
    0.00000E+00         0.00000E+00        -0.99701E+07
 
   -0.11080E+08         0.70885E+06         0.00000E+00
    0.70885E+06        -0.42747E+08         0.00000E+00
    0.00000E+00         0.00000E+00        -0.10163E+08
 
   -0.10990E+08         0.91934E+06         0.00000E+00
    0.91934E+06        -0.42830E+08         0.00000E+00
    0.00000E+00         0.00000E+00        -0.10345E+08
 
   -0.10924E+08         0.11459E+07         0.00000E+00
    0.11459E+07        -0.42916E+08         0.00000E+00
    0.00000E+00         0.00000E+00        -0.10513E+08
 
   -0.10884E+08         0.13869E+07         0.00000E+00
    0.13869E+07        -0.42998E+08         0.00000E+00
    0.00000E+00         0.00000E+00        -0.10666E+08
 
   -0.10866E+08         0.16408E+07         0.00000E+00
    0.16408E+07        -0.43076E+08         0.00000E+00
    0.00000E+00         0.00000E+00        -0.10801E+08
 
   -0.13567E+08        -0.60434E+05         0.00000E+00
   -0.60434E+05        -0.42729E+08         0.00000E+00
    0.00000E+00         0.00000E+00        -0.80716E+07
 
   -0.13297E+08        -0.14376E+06         0.00000E+00
   -0.14376E+06        -0.42745E+08         0.00000E+00
    0.00000E+00         0.00000E+00        -0.82817E+07
 
   -0.13029E+08        -0.18239E+06         0.00000E+00
   -0.18239E+06        -0.42771E+08         0.00000E+00
    0.00000E+00         0.00000E+00        -0.85045E+07
 
   -0.12768E+08        -0.18085E+06         0.00000E+00
   -0.18085E+06        -0.42804E+08         0.00000E+00
    0.00000E+00         0.00000E+00        -0.87331E+07
 
   -0.12518E+08        -0.14412E+06         0.00000E+00
   -0.14412E+06        -0.42841E+08         0.00000E+00
    0.00000E+00         0.00000E+00        -0.89619E+07
 
   -0.12282E+08        -0.77035E+05         0.00000E+00
   -0.77035E+05        -0.42882E+08         0.00000E+00
    0.00000E+00         0.00000E+00        -0.91884E+07
 
   -0.12062E+08         0.16656E+05         0.00000E+00
    0.16656E+05        -0.42927E+08         0.00000E+00
    0.00000E+00         0.00000E+00        -0.94123E+07
 
   -0.11860E+08         0.13434E+06         0.00000E+00
    0.13434E+06        -0.42981E+08         0.00000E+00
    0.00000E+00         0.00000E+00        -0.96336E+07
 
   -0.11679E+08         0.27472E+06         0.00000E+00
    0.27472E+06        -0.43044E+08         0.00000E+00
    0.00000E+00         0.00000E+00        -0.98527E+07
 
   -0.11520E+08         0.43751E+06         0.00000E+00
    0.43751E+06        -0.43119E+08         0.00000E+00
    0.00000E+00         0.00000E+00        -0.10069E+08
 
   -0.11385E+08         0.62249E+06         0.00000E+00
    0.62249E+06        -0.43204E+08         0.00000E+00
    0.00000E+00         0.00000E+00        -0.10281E+08
 
   -0.11276E+08         0.82863E+06         0.00000E+00
    0.82863E+06        -0.43297E+08         0.00000E+00
    0.00000E+00         0.00000E+00        -0.10486E+08
 
   -0.11193E+08         0.10546E+07         0.00000E+00
    0.10546E+07        -0.43396E+08         0.00000E+00
    0.00000E+00         0.00000E+00        -0.10680E+08
 
   -0.11137E+08         0.12987E+07         0.00000E+00
    0.12987E+07        -0.43495E+08         0.00000E+00
    0.00000E+00         0.00000E+00        -0.10859E+08
 
   -0.11106E+08         0.15588E+07         0.00000E+00
    0.15588E+07        -0.43589E+08         0.00000E+00
    0.00000E+00         0.00000E+00        -0.11021E+08
 
   -0.14186E+08        -0.69489E+05         0.00000E+00
   -0.69489E+05        -0.43233E+08         0.00000E+00
    0.00000E+00         0.00000E+00        -0.80320E+07
 
   -0.13866E+08        -0.16519E+06         0.00000E+00
   -0.16519E+06        -0.43248E+08         0.00000E+00
    0.00000E+00         0.00000E+00        -0.82693E+07
 
   -0.13553E+08        -0.21008E+06         0.00000E+00
   -0.21008E+06        -0.43270E+08         0.00000E+00
    0.00000E+00         0.00000E+00        -0.85148E+07
 
   -0.13253E+08        -0.21128E+06         0.00000E+00
   -0.21128E+06        -0.43294E+08         0.00000E+00
    0.00000E+00         0.00000E+00        -0.87596E+07
 
   -0.12971E+08        -0.17659E+06         0.00000E+00
   -0.17659E+06        -0.43318E+08         0.00000E+00
    0.00000E+00         0.00000E+00        -0.89980E+07
 
   -0.12708E+08        -0.11318E+06         0.00000E+00
   -0.11318E+06        -0.43344E+08         0.00000E+00
    0.00000E+00         0.00000E+00        -0.92291E+07
 
   -0.12464E+08        -0.26291E+05         0.00000E+00
   -0.26291E+05        -0.43375E+08         0.00000E+00
    0.00000E+00         0.00000E+00        -0.94555E+07
 
   -0.12240E+08         0.81086E+05         0.00000E+00
    0.81086E+05        -0.43415E+08         0.00000E+00
    0.00000E+00         0.00000E+00        -0.96799E+07
 
   -0.12037E+08         0.20842E+06         0.00000E+00
    0.20842E+06        -0.43470E+08         0.00000E+00
    0.00000E+00         0.00000E+00        -0.99054E+07
 
   -0.11856E+08         0.35703E+06         0.00000E+00
    0.35703E+06        -0.43541E+08         0.00000E+00
    0.00000E+00         0.00000E+00        -0.10134E+08
 
   -0.11699E+08         0.52884E+06         0.00000E+00
    0.52884E+06        -0.43629E+08         0.00000E+00
    0.00000E+00         0.00000E+00        -0.10365E+08
 
   -0.11567E+08         0.72539E+06         0.00000E+00
    0.72539E+06        -0.43733E+08         0.00000E+00
    0.00000E+00         0.00000E+00        -0.10595E+08
 
   -0.11463E+08         0.94677E+06         0.00000E+00
    0.94677E+06        -0.43847E+08         0.00000E+00
    0.00000E+00         0.00000E+00        -0.10819E+08
 
   -0.11387E+08         0.11913E+07         0.00000E+00
    0.11913E+07        -0.43966E+08         0.00000E+00
    0.00000E+00         0.00000E+00        -0.11031E+08
 
   -0.11339E+08         0.14563E+07         0.00000E+00
    0.14563E+07        -0.44084E+08         0.00000E+00
    0.00000E+00         0.00000E+00        -0.11228E+08
 
   -0.14821E+08        -0.78325E+05         0.00000E+00
   -0.78325E+05        -0.43737E+08         0.00000E+00
    0.00000E+00         0.00000E+00        -0.79915E+07
 
   -0.14442E+08        -0.18333E+06         0.00000E+00
   -0.18333E+06        -0.43750E+08         0.00000E+00
    0.00000E+00         0.00000E+00        -0.82588E+07
 
   -0.14079E+08        -0.22939E+06         0.00000E+00
   -0.22939E+06        -0.43764E+08         0.00000E+00
    0.00000E+00         0.00000E+00        -0.85266E+07
 
   -0.13739E+08        -0.22832E+06         0.00000E+00
   -0.22832E+06        -0.43774E+08         0.00000E+00
    0.00000E+00         0.00000E+00        -0.87834E+07
 
   -0.13426E+08        -0.19248E+06         0.00000E+00
   -0.19248E+06        -0.43781E+08         0.00000E+00
    0.00000E+00         0.00000E+00        -0.90248E+07
 
   -0.13139E+08        -0.13205E+06         0.00000E+00
   -0.13205E+06        -0.43787E+08         0.00000E+00
    0.00000E+00         0.00000E+00        -0.92533E+07
 
   -0.12876E+08        -0.53412E+05         0.00000E+00
   -0.53412E+05        -0.43800E+08         0.00000E+00
    0.00000E+00         0.00000E+00        -0.94753E+07
 
   -0.12635E+08         0.40644E+05         0.00000E+00
    0.40644E+05        -0.43825E+08         0.00000E+00
    0.00000E+00         0.00000E+00        -0.96964E+07
 
   -0.12413E+08         0.15039E+06         0.00000E+00
    0.15039E+06        -0.43868E+08         0.00000E+00
    0.00000E+00         0.00000E+00        -0.99228E+07
 
   -0.12210E+08         0.27852E+06         0.00000E+00
    0.27852E+06        -0.43932E+08         0.00000E+00
    0.00000E+00         0.00000E+00        -0.10159E+08
 
   -0.12027E+08         0.42948E+06         0.00000E+00
    0.42948E+06        -0.44020E+08         0.00000E+00
    0.00000E+00         0.00000E+00        -0.10406E+08
 
   -0.11868E+08         0.60837E+06         0.00000E+00
    0.60837E+06        -0.44132E+08         0.00000E+00
    0.00000E+00         0.00000E+00        -0.10663E+08
 
   -0.11737E+08         0.81836E+06         0.00000E+00
    0.81836E+06        -0.44265E+08         0.00000E+00
    0.00000E+00         0.00000E+00        -0.10924E+08
 
   -0.11636E+08         0.10588E+07         0.00000E+00
    0.10588E+07        -0.44410E+08         0.00000E+00
    0.00000E+00         0.00000E+00        -0.11179E+08
 
   -0.11566E+08         0.13268E+07         0.00000E+00
    0.13268E+07        -0.44558E+08         0.00000E+00
    0.00000E+00         0.00000E+00        -0.11421E+08
 
   -0.15469E+08        -0.86921E+05         0.00000E+00
   -0.86921E+05        -0.44241E+08         0.00000E+00
    0.00000E+00         0.00000E+00        -0.79519E+07
 
   -0.15020E+08        -0.19570E+06         0.00000E+00
   -0.19570E+06        -0.44250E+08         0.00000E+00
    0.00000E+00         0.00000E+00        -0.82530E+07
 
   -0.14601E+08        -0.23483E+06         0.00000E+00
   -0.23483E+06        -0.44251E+08         0.00000E+00
    0.00000E+00         0.00000E+00        -0.85407E+07
 
   -0.14221E+08        -0.22542E+06         0.00000E+00
   -0.22542E+06        -0.44240E+08         0.00000E+00
    0.00000E+00         0.00000E+00        -0.88019E+07
 
   -0.13881E+08        -0.18660E+06         0.00000E+00
   -0.18660E+06        -0.44222E+08         0.00000E+00
    0.00000E+00         0.00000E+00        -0.90373E+07
 
   -0.13577E+08        -0.13054E+06         0.00000E+00
   -0.13054E+06        -0.44206E+08         0.00000E+00
    0.00000E+00         0.00000E+00        -0.92556E+07
 
   -0.13300E+08        -0.62862E+05         0.00000E+00
   -0.62862E+05        -0.44200E+08         0.00000E+00
    0.00000E+00         0.00000E+00        -0.94673E+07
 
   -0.13046E+08         0.14737E+05         0.00000E+00
    0.14737E+05        -0.44209E+08         0.00000E+00
    0.00000E+00         0.00000E+00        -0.96804E+07
 
   -0.12810E+08         0.10319E+06         0.00000E+00
    0.10319E+06        -0.44239E+08         0.00000E+00
    0.00000E+00         0.00000E+00        -0.99026E+07
 
   -0.12588E+08         0.20566E+06         0.00000E+00
    0.20566E+06        -0.44293E+08         0.00000E+00
    0.00000E+00         0.00000E+00        -0.10141E+08
 
   -0.12380E+08         0.32785E+06         0.00000E+00
    0.32785E+06        -0.44377E+08         0.00000E+00
    0.00000E+00         0.00000E+00        -0.10400E+08
 
   -0.12189E+08         0.47791E+06         0.00000E+00
    0.47791E+06        -0.44495E+08         0.00000E+00
    0.00000E+00         0.00000E+00        -0.10683E+08
 
   -0.12022E+08         0.66520E+06         0.00000E+00
    0.66520E+06        -0.44646E+08         0.00000E+00
    0.00000E+00         0.00000E+00        -0.10985E+08
 
   -0.11888E+08         0.89381E+06         0.00000E+00
    0.89381E+06        -0.44824E+08         0.00000E+00
    0.00000E+00         0.00000E+00        -0.11294E+08
 
   -0.11787E+08         0.11608E+07         0.00000E+00
    0.11608E+07        -0.45012E+08         0.00000E+00
    0.00000E+00         0.00000E+00        -0.11598E+08
 
   -0.16126E+08        -0.94844E+05         0.00000E+00
   -0.94844E+05        -0.44745E+08         0.00000E+00
    0.00000E+00         0.00000E+00        -0.79158E+07
 
   -0.15589E+08        -0.19602E+06         0.00000E+00
   -0.19602E+06        -0.44744E+08         0.00000E+00
    0.00000E+00         0.00000E+00        -0.82548E+07
 
   -0.15110E+08        -0.21600E+06         0.00000E+00
   -0.21600E+06        -0.44719E+08         0.00000E+00
    0.00000E+00         0.00000E+00        -0.85535E+07
 
   -0.14696E+08        -0.19457E+06         0.00000E+00
   -0.19457E+06        -0.44675E+08         0.00000E+00
    0.00000E+00         0.00000E+00        -0.88056E+07
 
   -0.14339E+08        -0.15585E+06         0.00000E+00
   -0.15585E+06        -0.44630E+08         0.00000E+00
    0.00000E+00         0.00000E+00        -0.90254E+07
 
   -0.14024E+08        -0.10861E+06         0.00000E+00
   -0.10861E+06        -0.44592E+08         0.00000E+00
    0.00000E+00         0.00000E+00        -0.92284E+07
 
   -0.13740E+08        -0.55806E+05         0.00000E+00
   -0.55806E+05        -0.44570E+08         0.00000E+00
    0.00000E+00         0.00000E+00        -0.94271E+07
 
   -0.13478E+08         0.23573E+04         0.00000E+00
    0.23573E+04        -0.44566E+08         0.00000E+00
    0.00000E+00         0.00000E+00        -0.96300E+07
 
   -0.13231E+08         0.67084E+05         0.00000E+00
    0.67084E+05        -0.44585E+08         0.00000E+00
    0.00000E+00         0.00000E+00        -0.98454E+07
 
   -0.12996E+08         0.14100E+06         0.00000E+00
    0.14100E+06        -0.44631E+08         0.00000E+00
    0.00000E+00         0.00000E+00        -0.10081E+08
 
   -0.12767E+08         0.22897E+06         0.00000E+00
    0.22897E+06        -0.44708E+08         0.00000E+00
    0.00000E+00         0.00000E+00        -0.10345E+08
 
   -0.12544E+08         0.33932E+06         0.00000E+00
    0.33932E+06        -0.44824E+08         0.00000E+00
    0.00000E+00         0.00000E+00        -0.10646E+08
 
   -0.12333E+08         0.48582E+06         0.00000E+00
    0.48582E+06        -0.44987E+08         0.00000E+00
    0.00000E+00         0.00000E+00        -0.10989E+08
 
   -0.12150E+08         0.68632E+06         0.00000E+00
    0.68632E+06        -0.45200E+08         0.00000E+00
    0.00000E+00         0.00000E+00        -0.11366E+08
 
   -0.12006E+08         0.94433E+06         0.00000E+00
    0.94433E+06        -0.45444E+08         0.00000E+00
    0.00000E+00         0.00000E+00        -0.11754E+08
 
   -0.16784E+08        -0.98918E+05         0.00000E+00
   -0.98918E+05        -0.45246E+08         0.00000E+00
    0.00000E+00         0.00000E+00        -0.78875E+07
 
   -0.16133E+08        -0.16605E+06         0.00000E+00
   -0.16605E+06        -0.45214E+08         0.00000E+00
    0.00000E+00         0.00000E+00        -0.82603E+07
 
   -0.15601E+08        -0.15745E+06         0.00000E+00
   -0.15745E+06        -0.45139E+08         0.00000E+00
    0.00000E+00         0.00000E+00        -0.85465E+07
 
   -0.15169E+08        -0.13221E+06         0.00000E+00
   -0.13221E+06        -0.45060E+08         0.00000E+00
    0.00000E+00         0.00000E+00        -0.87755E+07
 
   -0.14805E+08        -0.10240E+06         0.00000E+00
   -0.10240E+06        -0.44991E+08         0.00000E+00
    0.00000E+00         0.00000E+00        -0.89757E+07
 
   -0.14486E+08        -0.70395E+05         0.00000E+00
   -0.70395E+05        -0.44939E+08         0.00000E+00
    0.00000E+00         0.00000E+00        -0.91634E+07
 
   -0.14199E+08        -0.36622E+05         0.00000E+00
   -0.36622E+05        -0.44906E+08         0.00000E+00
    0.00000E+00         0.00000E+00        -0.93503E+07
 
   -0.13932E+08        -0.45392E+03         0.00000E+00
   -0.45392E+03        -0.44894E+08         0.00000E+00
    0.00000E+00         0.00000E+00        -0.95442E+07
 
   -0.13680E+08         0.39091E+05         0.00000E+00
    0.39091E+05        -0.44907E+08         0.00000E+00
    0.00000E+00         0.00000E+00        -0.97529E+07
 
   -0.13435E+08         0.83560E+05         0.00000E+00
    0.83560E+05        -0.44948E+08         0.00000E+00
    0.00000E+00         0.00000E+00        -0.99845E+07
 
   -0.13192E+08         0.13584E+06         0.00000E+00
    0.13584E+06        -0.45021E+08         0.00000E+00
    0.00000E+00         0.00000E+00        -0.10248E+08
 
   -0.12946E+08         0.20140E+06         0.00000E+00
    0.20140E+06        -0.45133E+08         0.00000E+00
    0.00000E+00         0.00000E+00        -0.10557E+08
 
   -0.12694E+08         0.29078E+06         0.00000E+00
    0.29078E+06        -0.45296E+08         0.00000E+00
    0.00000E+00         0.00000E+00        -0.10927E+08
 
   -0.12443E+08         0.42740E+06         0.00000E+00
    0.42740E+06        -0.45528E+08         0.00000E+00
    0.00000E+00         0.00000E+00        -0.11370E+08
 
   -0.12231E+08         0.65305E+06         0.00000E+00
    0.65305E+06        -0.45850E+08         0.00000E+00
    0.00000E+00         0.00000E+00        -0.11880E+08
 
   -0.17407E+08        -0.70607E+05         0.00000E+00
   -0.70607E+05        -0.45707E+08         0.00000E+00
    0.00000E+00         0.00000E+00        -0.78586E+07
 
   -0.16635E+08        -0.70078E+05         0.00000E+00
   -0.70078E+05        -0.45591E+08         0.00000E+00
    0.00000E+00         0.00000E+00        -0.82274E+07
 
   -0.16088E+08        -0.58028E+05         0.00000E+00
   -0.58028E+05        -0.45474E+08         0.00000E+00
    0.00000E+00         0.00000E+00        -0.84819E+07
 
   -0.15653E+08        -0.46653E+05         0.00000E+00
   -0.46653E+05        -0.45375E+08         0.00000E+00
    0.00000E+00         0.00000E+00        -0.86898E+07
 
   -0.15288E+08        -0.35350E+05         0.00000E+00
   -0.35350E+05        -0.45296E+08         0.00000E+00
    0.00000E+00         0.00000E+00        -0.88759E+07
 
   -0.14968E+08        -0.24003E+05         0.00000E+00
   -0.24003E+05        -0.45238E+08         0.00000E+00
    0.00000E+00         0.00000E+00        -0.90540E+07
 
   -0.14679E+08        -0.12372E+05         0.00000E+00
   -0.12372E+05        -0.45203E+08         0.00000E+00
    0.00000E+00         0.00000E+00        -0.92335E+07
 
   -0.14411E+08        -0.73369E+02         0.00000E+00
   -0.73369E+02        -0.45192E+08         0.00000E+00
    0.00000E+00         0.00000E+00        -0.94223E+07
 
   -0.14156E+08         0.13265E+05         0.00000E+00
    0.13265E+05        -0.45206E+08         0.00000E+00
    0.00000E+00         0.00000E+00        -0.96271E+07
 
   -0.13908E+08         0.28116E+05         0.00000E+00
    0.28116E+05        -0.45249E+08         0.00000E+00
    0.00000E+00         0.00000E+00        -0.98557E+07
 
   -0.13658E+08         0.45400E+05         0.00000E+00
    0.45400E+05        -0.45323E+08         0.00000E+00
    0.00000E+00         0.00000E+00        -0.10118E+08
 
   -0.13400E+08         0.66826E+05         0.00000E+00
    0.66826E+05        -0.45437E+08         0.00000E+00
    0.00000E+00         0.00000E+00        -0.10428E+08
 
   -0.13124E+08         0.95920E+05         0.00000E+00
    0.95920E+05        -0.45600E+08         0.00000E+00
    0.00000E+00         0.00000E+00        -0.10807E+08
 
   -0.12820E+08         0.14213E+06         0.00000E+00
    0.14213E+06        -0.45837E+08         0.00000E+00
    0.00000E+00         0.00000E+00        -0.11288E+08
 
   -0.12478E+08         0.24270E+06         0.00000E+00
    0.24270E+06        -0.46192E+08         0.00000E+00
    0.00000E+00         0.00000E+00        -0.11935E+08
 
TENSORS stresstot double 
   -0.31404E+08         0.42694E+05         0.00000E+00
    0.42694E+05        -0.59818E+08         0.00000E+00
    0.00000E+00         0.00000E+00        -0.37203E+08
 
   -0.31204E+08         0.57862E+05         0.00000E+00
    0.57862E+05        -0.59721E+08         0.00000E+00
    0.00000E+00         0.00000E+00        -0.37405E+08
 
   -0.31108E+08         0.56002E+05         0.00000E+00
    0.56002E+05        -0.59631E+08         0.00000E+00
    0.00000E+00         0.00000E+00        -0.37453E+08
 
   -0.31118E+08         0.31512E+05         0.00000E+00
    0.31512E+05        -0.59556E+08         0.00000E+00
    0.00000E+00         0.00000E+00        -0.37349E+08
 
   -0.31212E+08         0.36369E+04         0.00000E+00
    0.36369E+04        -0.59543E+08         0.00000E+00
    0.00000E+00         0.00000E+00        -0.37182E+08
 
   -0.31343E+08        -0.76367E+04         0.00000E+00
   -0.76367E+04        -0.59554E+08         0.00000E+00
    0.00000E+00         0.00000E+00        -0.36992E+08
 
   -0.31491E+08        -0.92855E+04         0.00000E+00
   -0.92855E+04        -0.59571E+08         0.00000E+00
    0.00000E+00         0.00000E+00        -0.36786E+08
 
   -0.31659E+08        -0.61545E+04         0.00000E+00
   -0.61545E+04        -0.59586E+08         0.00000E+00
    0.00000E+00         0.00000E+00        -0.36555E+08
 
   -0.31844E+08         0.20104E+04         0.00000E+00
    0.20104E+04        -0.59589E+08         0.00000E+00
    0.00000E+00         0.00000E+00        -0.36294E+08
 
   -0.32041E+08         0.13122E+05         0.00000E+00
    0.13122E+05        -0.59574E+08         0.00000E+00
    0.00000E+00         0.00000E+00        -0.36006E+08
 
   -0.32254E+08         0.27773E+05         0.00000E+00
    0.27773E+05        -0.59533E+08         0.00000E+00
    0.00000E+00         0.00000E+00        -0.35681E+08
 
   -0.32480E+08         0.47595E+05         0.00000E+00
    0.47595E+05        -0.59457E+08         0.00000E+00
    0.00000E+00         0.00000E+00        -0.35316E+08
 
   -0.32723E+08         0.74761E+05         0.00000E+00
    0.74761E+05        -0.59336E+08         0.00000E+00
    0.00000E+00         0.00000E+00        -0.34897E+08
 
   -0.32990E+08         0.11753E+06         0.00000E+00
    0.11753E+06        -0.59148E+08         0.00000E+00
    0.00000E+00         0.00000E+00        -0.34405E+08
 
   -0.33288E+08         0.20962E+06         0.00000E+00
    0.20962E+06        -0.58850E+08         0.00000E+00
    0.00000E+00         0.00000E+00        -0.33798E+08
 
   -0.31296E+08         0.10530E+06         0.00000E+00
    0.10530E+06        -0.60036E+08         0.00000E+00
    0.00000E+00         0.00000E+00        -0.36930E+08
 
   -0.31196E+08         0.16558E+06         0.00000E+00
    0.16558E+06        -0.59990E+08         0.00000E+00
    0.00000E+00         0.00000E+00        -0.37033E+08
 
   -0.31122E+08         0.14856E+06         0.00000E+00
    0.14856E+06        -0.59900E+08         0.00000E+00
    0.00000E+00         0.00000E+00        -0.37042E+08
 
   -0.31174E+08         0.87692E+05         0.00000E+00
    0.87692E+05        -0.59855E+08         0.00000E+00
    0.00000E+00         0.00000E+00        -0.36909E+08
 
   -0.31248E+08         0.36280E+05         0.00000E+00
    0.36280E+05        -0.59790E+08         0.00000E+00
    0.00000E+00         0.00000E+00        -0.36720E+08
 
   -0.31356E+08         0.78680E+04         0.00000E+00
    0.78680E+04        -0.59739E+08         0.00000E+00
    0.00000E+00         0.00000E+00        -0.36501E+08
 
   -0.31491E+08         0.27813E+03         0.00000E+00
    0.27813E+03        -0.59702E+08         0.00000E+00
    0.00000E+00         0.00000E+00        -0.36263E+08
 
   -0.31650E+08         0.63010E+04         0.00000E+00
    0.63010E+04        -0.59668E+08         0.00000E+00
    0.00000E+00         0.00000E+00        -0.36002E+08
 
   -0.31826E+08         0.26214E+05         0.00000E+00
    0.26214E+05        -0.59629E+08         0.00000E+00
    0.00000E+00         0.00000E+00        -0.35720E+08
 
   -0.32016E+08         0.58113E+05         0.00000E+00
    0.58113E+05        -0.59576E+08         0.00000E+00
    0.00000E+00         0.00000E+00        -0.35413E+08
 
   -0.32220E+08         0.10136E+06         0.00000E+00
    0.10136E+06        -0.59499E+08         0.00000E+00
    0.00000E+00         0.00000E+00        -0.35076E+08
 
   -0.32433E+08         0.16067E+06         0.00000E+00
    0.16067E+06        -0.59390E+08         0.00000E+00
    0.00000E+00         0.00000E+00        -0.34707E+08
 
   -0.32655E+08         0.24285E+06         0.00000E+00
    0.24285E+06        -0.59236E+08         0.00000E+00
    0.00000E+00         0.00000E+00        -0.34298E+08
 
   -0.32875E+08         0.36640E+06         0.00000E+00
    0.36640E+06        -0.59020E+08         0.00000E+00
    0.00000E+00         0.00000E+00        -0.33849E+08
 
   -0.33068E+08         0.56305E+06         0.00000E+00
    0.56305E+06        -0.58733E+08         0.00000E+00
    0.00000E+00         0.00000E+00        -0.33385E+08
 
   -0.31136E+08         0.86049E+05         0.00000E+00
    0.86049E+05        -0.60059E+08         0.00000E+00
    0.00000E+00         0.00000E+00        -0.36514E+08
 
   -0.31149E+08         0.18407E+06         0.00000E+00
    0.18407E+06        -0.60078E+08         0.00000E+00
    0.00000E+00         0.00000E+00        -0.36519E+08
 
   -0.31182E+08         0.17994E+06         0.00000E+00
    0.17994E+06        -0.60083E+08         0.00000E+00
    0.00000E+00         0.00000E+00        -0.36476E+08
 
   -0.31222E+08         0.13971E+06         0.00000E+00
    0.13971E+06        -0.60030E+08         0.00000E+00
    0.00000E+00         0.00000E+00        -0.36356E+08
 
   -0.31289E+08         0.10151E+06         0.00000E+00
    0.10151E+06        -0.59968E+08         0.00000E+00
    0.00000E+00         0.00000E+00        -0.36190E+08
 
   -0.31379E+08         0.70743E+05         0.00000E+00
    0.70743E+05        -0.59896E+08         0.00000E+00
    0.00000E+00         0.00000E+00        -0.35981E+08
 
   -0.31495E+08         0.56690E+05         0.00000E+00
    0.56690E+05        -0.59823E+08         0.00000E+00
    0.00000E+00         0.00000E+00        -0.35739E+08
 
   -0.31635E+08         0.63107E+05         0.00000E+00
    0.63107E+05        -0.59750E+08         0.00000E+00
    0.00000E+00         0.00000E+00        -0.35471E+08
 
   -0.31794E+08         0.90895E+05         0.00000E+00
    0.90895E+05        -0.59672E+08         0.00000E+00
    0.00000E+00         0.00000E+00        -0.35182E+08
 
   -0.31968E+08         0.13926E+06         0.00000E+00
    0.13926E+06        -0.59583E+08         0.00000E+00
    0.00000E+00         0.00000E+00        -0.34869E+08
 
   -0.32152E+08         0.20918E+06         0.00000E+00
    0.20918E+06        -0.59474E+08         0.00000E+00
    0.00000E+00         0.00000E+00        -0.34535E+08
 
   -0.32341E+08         0.30496E+06         0.00000E+00
    0.30496E+06        -0.59336E+08         0.00000E+00
    0.00000E+00         0.00000E+00        -0.34180E+08
 
   -0.32526E+08         0.43464E+06         0.00000E+00
    0.43464E+06        -0.59162E+08         0.00000E+00
    0.00000E+00         0.00000E+00        -0.33807E+08
 
   -0.32695E+08         0.60704E+06         0.00000E+00
    0.60704E+06        -0.58952E+08         0.00000E+00
    0.00000E+00         0.00000E+00        -0.33434E+08
 
   -0.32846E+08         0.81570E+06         0.00000E+00
    0.81570E+06        -0.58727E+08         0.00000E+00
    0.00000E+00         0.00000E+00        -0.33086E+08
 
   -0.31015E+08         0.58518E+05         0.00000E+00
    0.58518E+05        -0.60023E+08         0.00000E+00
    0.00000E+00         0.00000E+00        -0.35978E+08
 
   -0.31099E+08         0.13422E+06         0.00000E+00
    0.13422E+06        -0.60063E+08         0.00000E+00
    0.00000E+00         0.00000E+00        -0.35905E+08
 
   -0.31176E+08         0.17321E+06         0.00000E+00
    0.17321E+06        -0.60098E+08         0.00000E+00
    0.00000E+00         0.00000E+00        -0.35836E+08
 
   -0.31246E+08         0.17823E+06         0.00000E+00
    0.17823E+06        -0.60098E+08         0.00000E+00
    0.00000E+00         0.00000E+00        -0.35739E+08
 
   -0.31315E+08         0.16247E+06         0.00000E+00
    0.16247E+06        -0.60057E+08         0.00000E+00
    0.00000E+00         0.00000E+00        -0.35599E+08
 
   -0.31398E+08         0.14577E+06         0.00000E+00
    0.14577E+06        -0.59993E+08         0.00000E+00
    0.00000E+00         0.00000E+00        -0.35418E+08
 
   -0.31498E+08         0.13938E+06         0.00000E+00
    0.13938E+06        -0.59911E+08         0.00000E+00
    0.00000E+00         0.00000E+00        -0.35197E+08
 
   -0.31616E+08         0.15209E+06         0.00000E+00
    0.15209E+06        -0.59818E+08         0.00000E+00
    0.00000E+00         0.00000E+00        -0.34946E+08
 
   -0.31750E+08         0.18875E+06         0.00000E+00
    0.18875E+06        -0.59714E+08         0.00000E+00
    0.00000E+00         0.00000E+00        -0.34670E+08
 
   -0.31900E+08         0.25167E+06         0.00000E+00
    0.25167E+06        -0.59599E+08         0.00000E+00
    0.00000E+00         0.00000E+00        -0.34371E+08
 
   -0.32057E+08         0.34342E+06         0.00000E+00
    0.34342E+06        -0.59466E+08         0.00000E+00
    0.00000E+00         0.00000E+00        -0.34057E+08
 
   -0.32213E+08         0.46664E+06         0.00000E+00
    0.46664E+06        -0.59313E+08         0.00000E+00
    0.00000E+00         0.00000E+00        -0.33734E+08
 
   -0.32363E+08         0.62304E+06         0.00000E+00
    0.62304E+06        -0.59140E+08         0.00000E+00
    0.00000E+00         0.00000E+00        -0.33413E+08
 
   -0.32501E+08         0.80836E+06         0.00000E+00
    0.80836E+06        -0.58955E+08         0.00000E+00
    0.00000E+00         0.00000E+00        -0.33109E+08
 
   -0.32631E+08         0.10136E+07         0.00000E+00
    0.10136E+07        -0.58772E+08         0.00000E+00
    0.00000E+00         0.00000E+00        -0.32829E+08
 
   -0.30935E+08         0.34094E+05         0.00000E+00
    0.34094E+05        -0.60010E+08         0.00000E+00
    0.00000E+00         0.00000E+00        -0.35421E+08
 
   -0.31040E+08         0.98271E+05         0.00000E+00
    0.98271E+05        -0.60040E+08         0.00000E+00
    0.00000E+00         0.00000E+00        -0.35312E+08
 
   -0.31141E+08         0.14874E+06         0.00000E+00
    0.14874E+06        -0.60071E+08         0.00000E+00
    0.00000E+00         0.00000E+00        -0.35211E+08
 
   -0.31233E+08         0.18262E+06         0.00000E+00
    0.18262E+06        -0.60087E+08         0.00000E+00
    0.00000E+00         0.00000E+00        -0.35105E+08
 
   -0.31317E+08         0.20072E+06         0.00000E+00
    0.20072E+06        -0.60073E+08         0.00000E+00
    0.00000E+00         0.00000E+00        -0.34982E+08
 
   -0.31399E+08         0.21131E+06         0.00000E+00
    0.21131E+06        -0.60028E+08         0.00000E+00
    0.00000E+00         0.00000E+00        -0.34829E+08
 
   -0.31487E+08         0.22607E+06         0.00000E+00
    0.22607E+06        -0.59956E+08         0.00000E+00
    0.00000E+00         0.00000E+00        -0.34642E+08
 
   -0.31585E+08         0.25493E+06         0.00000E+00
    0.25493E+06        -0.59861E+08         0.00000E+00
    0.00000E+00         0.00000E+00        -0.34424E+08
 
   -0.31695E+08         0.30536E+06         0.00000E+00
    0.30536E+06        -0.59749E+08         0.00000E+00
    0.00000E+00         0.00000E+00        -0.34178E+08
 
   -0.31815E+08         0.38282E+06         0.00000E+00
    0.38282E+06        -0.59622E+08         0.00000E+00
    0.00000E+00         0.00000E+00        -0.33911E+08
 
   -0.31941E+08         0.49044E+06         0.00000E+00
    0.49044E+06        -0.59481E+08         0.00000E+00
    0.00000E+00         0.00000E+00        -0.33633E+08
 
   -0.32067E+08         0.62836E+06         0.00000E+00
    0.62836E+06        -0.59328E+08         0.00000E+00
    0.00000E+00         0.00000E+00        -0.33354E+08
 
   -0.32190E+08         0.79332E+06         0.00000E+00
    0.79332E+06        -0.59168E+08         0.00000E+00
    0.00000E+00         0.00000E+00        -0.33084E+08
 
   -0.32308E+08         0.97844E+06         0.00000E+00
    0.97844E+06        -0.59008E+08         0.00000E+00
    0.00000E+00         0.00000E+00        -0.32830E+08
 
   -0.32424E+08         0.11766E+07         0.00000E+00
    0.11766E+07        -0.58853E+08         0.00000E+00
    0.00000E+00         0.00000E+00        -0.32596E+08
 
   -0.30877E+08         0.23092E+05         0.00000E+00
    0.23092E+05        -0.60009E+08         0.00000E+00
    0.00000E+00         0.00000E+00        -0.34860E+08
 
   -0.30985E+08         0.74640E+05         0.00000E+00
    0.74640E+05        -0.60022E+08         0.00000E+00
    0.00000E+00         0.00000E+00        -0.34732E+08
 
   -0.31094E+08         0.12620E+06         0.00000E+00
    0.12620E+06        -0.60041E+08         0.00000E+00
    0.00000E+00         0.00000E+00        -0.34612E+08
 
   -0.31195E+08         0.17551E+06         0.00000E+00
    0.17551E+06        -0.60055E+08         0.00000E+00
    0.00000E+00         0.00000E+00        -0.34499E+08
 
   -0.31287E+08         0.22004E+06         0.00000E+00
    0.22004E+06        -0.60051E+08         0.00000E+00
    0.00000E+00         0.00000E+00        -0.34382E+08
 
   -0.31372E+08         0.26063E+06         0.00000E+00
    0.26063E+06        -0.60022E+08         0.00000E+00
    0.00000E+00         0.00000E+00        -0.34248E+08
 
   -0.31453E+08         0.30289E+06         0.00000E+00
    0.30289E+06        -0.59965E+08         0.00000E+00
    0.00000E+00         0.00000E+00        -0.34092E+08
 
   -0.31536E+08         0.35484E+06         0.00000E+00
    0.35484E+06        -0.59881E+08         0.00000E+00
    0.00000E+00         0.00000E+00        -0.33911E+08
 
   -0.31623E+08         0.42409E+06         0.00000E+00
    0.42409E+06        -0.59776E+08         0.00000E+00
    0.00000E+00         0.00000E+00        -0.33706E+08
 
   -0.31717E+08         0.51658E+06         0.00000E+00
    0.51658E+06        -0.59653E+08         0.00000E+00
    0.00000E+00         0.00000E+00        -0.33483E+08
 
   -0.31814E+08         0.63505E+06         0.00000E+00
    0.63505E+06        -0.59518E+08         0.00000E+00
    0.00000E+00         0.00000E+00        -0.33250E+08
 
   -0.31914E+08         0.77874E+06         0.00000E+00
    0.77874E+06        -0.59376E+08         0.00000E+00
    0.00000E+00         0.00000E+00        -0.33019E+08
 
   -0.32015E+08         0.94397E+06         0.00000E+00
    0.94397E+06        -0.59234E+08         0.00000E+00
    0.00000E+00         0.00000E+00        -0.32794E+08
 
   -0.32119E+08         0.11252E+07         0.00000E+00
    0.11252E+07        -0.59094E+08         0.00000E+00
    0.00000E+00         0.00000E+00        -0.32580E+08
 
   -0.32225E+08         0.13169E+07         0.00000E+00
    0.13169E+07        -0.58959E+08         0.00000E+00
    0.00000E+00         0.00000E+00        -0.32378E+08
 
   -0.30830E+08         0.17537E+05         0.00000E+00
    0.17537E+05        -0.60007E+08         0.00000E+00
    0.00000E+00         0.00000E+00        -0.34294E+08
 
   -0.30937E+08         0.62215E+05         0.00000E+00
    0.62215E+05        -0.60012E+08         0.00000E+00
    0.00000E+00         0.00000E+00        -0.34165E+08
 
   -0.31042E+08         0.11354E+06         0.00000E+00
    0.11354E+06        -0.60021E+08         0.00000E+00
    0.00000E+00         0.00000E+00        -0.34045E+08
 
   -0.31141E+08         0.17098E+06         0.00000E+00
    0.17098E+06        -0.60027E+08         0.00000E+00
    0.00000E+00         0.00000E+00        -0.33931E+08
 
   -0.31233E+08         0.23257E+06         0.00000E+00
    0.23257E+06        -0.60022E+08         0.00000E+00
    0.00000E+00         0.00000E+00        -0.33816E+08
 
   -0.31317E+08         0.29703E+06         0.00000E+00
    0.29703E+06        -0.60000E+08         0.00000E+00
    0.00000E+00         0.00000E+00        -0.33697E+08
 
   -0.31393E+08         0.36558E+06         0.00000E+00
    0.36558E+06        -0.59955E+08         0.00000E+00
    0.00000E+00         0.00000E+00        -0.33566E+08
 
   -0.31464E+08         0.44207E+06         0.00000E+00
    0.44207E+06        -0.59887E+08         0.00000E+00
    0.00000E+00         0.00000E+00        -0.33419E+08
 
   -0.31534E+08         0.53175E+06         0.00000E+00
    0.53175E+06        -0.59796E+08         0.00000E+00
    0.00000E+00         0.00000E+00        -0.33257E+08
 
   -0.31606E+08         0.63901E+06         0.00000E+00
    0.63901E+06        -0.59689E+08         0.00000E+00
    0.00000E+00         0.00000E+00        -0.33079E+08
 
   -0.31681E+08         0.76599E+06         0.00000E+00
    0.76599E+06        -0.59570E+08         0.00000E+00
    0.00000E+00         0.00000E+00        -0.32894E+08
 
   -0.31759E+08         0.91223E+06         0.00000E+00
    0.91223E+06        -0.59447E+08         0.00000E+00
    0.00000E+00         0.00000E+00        -0.32708E+08
 
   -0.31844E+08         0.10755E+07         0.00000E+00
    0.10755E+07        -0.59323E+08         0.00000E+00
    0.00000E+00         0.00000E+00        -0.32523E+08
 
   -0.31935E+08         0.12530E+07         0.00000E+00
    0.12530E+07        -0.59202E+08         0.00000E+00
    0.00000E+00         0.00000E+00        -0.32344E+08
 
   -0.32033E+08         0.14405E+07         0.00000E+00
    0.14405E+07        -0.59085E+08         0.00000E+00
    0.00000E+00         0.00000E+00        -0.32170E+08
 
   -0.30791E+08         0.14587E+05         0.00000E+00
    0.14587E+05        -0.60004E+08         0.00000E+00
    0.00000E+00         0.00000E+00        -0.33731E+08
 
   -0.30890E+08         0.57024E+05         0.00000E+00
    0.57024E+05        -0.60007E+08         0.00000E+00
    0.00000E+00         0.00000E+00        -0.33613E+08
 
   -0.30986E+08         0.10959E+06         0.00000E+00
    0.10959E+06        -0.60009E+08         0.00000E+00
    0.00000E+00         0.00000E+00        -0.33501E+08
 
   -0.31077E+08         0.17254E+06         0.00000E+00
    0.17254E+06        -0.60008E+08         0.00000E+00
    0.00000E+00         0.00000E+00        -0.33393E+08
 
   -0.31163E+08         0.24520E+06         0.00000E+00
    0.24520E+06        -0.60000E+08         0.00000E+00
    0.00000E+00         0.00000E+00        -0.33287E+08
 
   -0.31240E+08         0.32638E+06         0.00000E+00
    0.32638E+06        -0.59980E+08         0.00000E+00
    0.00000E+00         0.00000E+00        -0.33181E+08
 
   -0.31309E+08         0.41545E+06         0.00000E+00
    0.41545E+06        -0.59944E+08         0.00000E+00
    0.00000E+00         0.00000E+00        -0.33072E+08
 
   -0.31371E+08         0.51312E+06         0.00000E+00
    0.51312E+06        -0.59889E+08         0.00000E+00
    0.00000E+00         0.00000E+00        -0.32956E+08
 
   -0.31427E+08         0.62124E+06         0.00000E+00
    0.62124E+06        -0.59817E+08         0.00000E+00
    0.00000E+00         0.00000E+00        -0.32831E+08
 
   -0.31483E+08         0.74209E+06         0.00000E+00
    0.74209E+06        -0.59730E+08         0.00000E+00
    0.00000E+00         0.00000E+00        -0.32697E+08
 
   -0.31542E+08         0.87711E+06         0.00000E+00
    0.87711E+06        -0.59633E+08         0.00000E+00
    0.00000E+00         0.00000E+00        -0.32555E+08
 
   -0.31604E+08         0.10262E+07         0.00000E+00
    0.10262E+07        -0.59530E+08         0.00000E+00
    0.00000E+00         0.00000E+00        -0.32410E+08
 
   -0.31674E+08         0.11887E+07         0.00000E+00
    0.11887E+07        -0.59426E+08         0.00000E+00
    0.00000E+00         0.00000E+00        -0.32263E+08
 
   -0.31754E+08         0.13633E+07         0.00000E+00
    0.13633E+07        -0.59322E+08         0.00000E+00
    0.00000E+00         0.00000E+00        -0.32115E+08
 
   -0.31844E+08         0.15477E+07         0.00000E+00
    0.15477E+07        -0.59222E+08         0.00000E+00
    0.00000E+00         0.00000E+00        -0.31967E+08
 
   -0.30754E+08         0.13637E+05         0.00000E+00
    0.13637E+05        -0.60004E+08         0.00000E+00
    0.00000E+00         0.00000E+00        -0.33178E+08
 
   -0.30842E+08         0.55896E+05         0.00000E+00
    0.55896E+05        -0.60004E+08         0.00000E+00
    0.00000E+00         0.00000E+00        -0.33075E+08
 
   -0.30926E+08         0.11076E+06         0.00000E+00
    0.11076E+06        -0.60002E+08         0.00000E+00
    0.00000E+00         0.00000E+00        -0.32977E+08
 
   -0.31007E+08         0.17858E+06         0.00000E+00
    0.17858E+06        -0.59997E+08         0.00000E+00
    0.00000E+00         0.00000E+00        -0.32882E+08
 
   -0.31081E+08         0.25906E+06         0.00000E+00
    0.25906E+06        -0.59987E+08         0.00000E+00
    0.00000E+00         0.00000E+00        -0.32790E+08
 
   -0.31148E+08         0.35153E+06         0.00000E+00
    0.35153E+06        -0.59968E+08         0.00000E+00
    0.00000E+00         0.00000E+00        -0.32700E+08
 
   -0.31208E+08         0.45488E+06         0.00000E+00
    0.45488E+06        -0.59939E+08         0.00000E+00
    0.00000E+00         0.00000E+00        -0.32612E+08
 
   -0.31260E+08         0.56815E+06         0.00000E+00
    0.56815E+06        -0.59898E+08         0.00000E+00
    0.00000E+00         0.00000E+00        -0.32522E+08
 
   -0.31306E+08         0.69083E+06         0.00000E+00
    0.69083E+06        -0.59843E+08         0.00000E+00
    0.00000E+00         0.00000E+00        -0.32430E+08
 
   -0.31350E+08         0.82329E+06         0.00000E+00
    0.82329E+06        -0.59777E+08         0.00000E+00
    0.00000E+00         0.00000E+00        -0.32333E+08
 
   -0.31397E+08         0.96621E+06         0.00000E+00
    0.96621E+06        -0.59702E+08         0.00000E+00
    0.00000E+00         0.00000E+00        -0.32229E+08
 
   -0.31448E+08         0.11197E+07         0.00000E+00
    0.11197E+07        -0.59621E+08         0.00000E+00
    0.00000E+00         0.00000E+00        -0.32121E+08
 
   -0.31506E+08         0.12834E+07         0.00000E+00
    0.12834E+07        -0.59536E+08         0.00000E+00
    0.00000E+00         0.00000E+00        -0.32007E+08
 
   -0.31575E+08         0.14568E+07         0.00000E+00
    0.14568E+07        -0.59451E+08         0.00000E+00
    0.00000E+00         0.00000E+00        -0.31888E+08
 
   -0.31657E+08         0.16391E+07         0.00000E+00
    0.16391E+07        -0.59366E+08         0.00000E+00
    0.00000E+00         0.00000E+00        -0.31765E+08
 
   -0.30718E+08         0.13654E+05         0.00000E+00
    0.13654E+05        -0.60003E+08         0.00000E+00
    0.00000E+00         0.00000E+00        -0.32635E+08
 
   -0.30793E+08         0.56821E+05         0.00000E+00
    0.56821E+05        -0.60002E+08         0.00000E+00
    0.00000E+00         0.00000E+00        -0.32550E+08
 
   -0.30864E+08         0.11425E+06         0.00000E+00
    0.11425E+06        -0.59999E+08         0.00000E+00
    0.00000E+00         0.00000E+00        -0.32468E+08
 
   -0.30930E+08         0.18616E+06         0.00000E+00
    0.18616E+06        -0.59994E+08         0.00000E+00
    0.00000E+00         0.00000E+00        -0.32391E+08
 
   -0.30991E+08         0.27244E+06         0.00000E+00
    0.27244E+06        -0.59984E+08         0.00000E+00
    0.00000E+00         0.00000E+00        -0.32317E+08
 
   -0.31046E+08         0.37244E+06         0.00000E+00
    0.37244E+06        -0.59969E+08         0.00000E+00
    0.00000E+00         0.00000E+00        -0.32247E+08
 
   -0.31094E+08         0.48502E+06         0.00000E+00
    0.48502E+06        -0.59947E+08         0.00000E+00
    0.00000E+00         0.00000E+00        -0.32180E+08
 
   -0.31136E+08         0.60864E+06         0.00000E+00
    0.60864E+06        -0.59917E+08         0.00000E+00
    0.00000E+00         0.00000E+00        -0.32115E+08
 
   -0.31174E+08         0.74179E+06         0.00000E+00
    0.74179E+06        -0.59878E+08         0.00000E+00
    0.00000E+00         0.00000E+00        -0.32051E+08
 
   -0.31209E+08         0.88346E+06         0.00000E+00
    0.88346E+06        -0.59831E+08         0.00000E+00
    0.00000E+00         0.00000E+00        -0.31985E+08
 
   -0.31245E+08         0.10336E+07         0.00000E+00
    0.10336E+07        -0.59777E+08         0.00000E+00
    0.00000E+00         0.00000E+00        -0.31914E+08
 
   -0.31287E+08         0.11923E+07         0.00000E+00
    0.11923E+07        -0.59716E+08         0.00000E+00
    0.00000E+00         0.00000E+00        -0.31837E+08
 
   -0.31337E+08         0.13592E+07         0.00000E+00
    0.13592E+07        -0.59651E+08         0.00000E+00
    0.00000E+00         0.00000E+00        -0.31754E+08
 
   -0.31397E+08         0.15343E+07         0.00000E+00
    0.15343E+07        -0.59583E+08         0.00000E+00
    0.00000E+00         0.00000E+00        -0.31663E+08
 
   -0.31471E+08         0.17171E+07         0.00000E+00
    0.17171E+07        -0.59512E+08         0.00000E+00
    0.00000E+00         0.00000E+00        -0.31563E+08
 
   -0.30682E+08         0.13938E+05         0.00000E+00
    0.13938E+05        -0.60003E+08         0.00000E+00
    0.00000E+00         0.00000E+00        -0.32102E+08
 
   -0.30742E+08         0.58148E+05         0.00000E+00
    0.58148E+05        -0.60002E+08         0.00000E+00
    0.00000E+00         0.00000E+00        -0.32036E+08
 
   -0.30798E+08         0.11766E+06         0.00000E+00
    0.11766E+06        -0.59999E+08         0.00000E+00
    0.00000E+00         0.00000E+00        -0.31974E+08
 
   -0.30849E+08         0.19263E+06         0.00000E+00
    0.19263E+06        -0.59996E+08         0.00000E+00
    0.00000E+00         0.00000E+00        -0.31916E+08
 
   -0.30896E+08         0.28286E+06         0.00000E+00
    0.28286E+06        -0.59989E+08         0.00000E+00
    0.00000E+00         0.00000E+00        -0.31863E+08
 
   -0.30937E+08         0.38770E+06         0.00000E+00
    0.38770E+06        -0.59979E+08         0.00000E+00
    0.00000E+00         0.00000E+00        -0.31814E+08
 
   -0.30973E+08         0.50597E+06         0.00000E+00
    0.50597E+06        -0.59965E+08         0.00000E+00
    0.00000E+00         0.00000E+00        -0.31770E+08
 
   -0.31004E+08         0.63605E+06         0.00000E+00
    0.63605E+06        -0.59946E+08         0.00000E+00
    0.00000E+00         0.00000E+00        -0.31729E+08
 
   -0.31032E+08         0.77617E+06         0.00000E+00
    0.77617E+06        -0.59921E+08         0.00000E+00
    0.00000E+00         0.00000E+00        -0.31690E+08
 
   -0.31059E+08         0.92490E+06         0.00000E+00
    0.92490E+06        -0.59891E+08         0.00000E+00
    0.00000E+00         0.00000E+00        -0.31650E+08
 
   -0.31088E+08         0.10813E+07         0.00000E+00
    0.10813E+07        -0.59855E+08         0.00000E+00
    0.00000E+00         0.00000E+00        -0.31607E+08
 
   -0.31122E+08         0.12452E+07         0.00000E+00
    0.12452E+07        -0.59813E+08         0.00000E+00
    0.00000E+00         0.00000E+00        -0.31558E+08
 
   -0.31164E+08         0.14166E+07         0.00000E+00
    0.14166E+07        -0.59767E+08         0.00000E+00
    0.00000E+00         0.00000E+00        -0.31502E+08
 
   -0.31217E+08         0.15957E+07         0.00000E+00
    0.15957E+07        -0.59715E+08         0.00000E+00
    0.00000E+00         0.00000E+00        -0.31437E+08
 
   -0.31283E+08         0.17819E+07         0.00000E+00
    0.17819E+07        -0.59661E+08         0.00000E+00
    0.00000E+00         0.00000E+00        -0.31362E+08
 
   -0.30646E+08         0.14049E+05         0.00000E+00
    0.14049E+05        -0.60002E+08         0.00000E+00
    0.00000E+00         0.00000E+00        -0.31579E+08
 
   -0.30690E+08         0.58485E+05         0.00000E+00
    0.58485E+05        -0.60002E+08         0.00000E+00
    0.00000E+00         0.00000E+00        -0.31532E+08
 
   -0.30730E+08         0.11905E+06         0.00000E+00
    0.11905E+06        -0.60002E+08         0.00000E+00
    0.00000E+00         0.00000E+00        -0.31491E+08
 
   -0.30765E+08         0.19571E+06         0.00000E+00
    0.19571E+06        -0.60002E+08         0.00000E+00
    0.00000E+00         0.00000E+00        -0.31455E+08
 
   -0.30797E+08         0.28818E+06         0.00000E+00
    0.28818E+06        -0.60000E+08         0.00000E+00
    0.00000E+00         0.00000E+00        -0.31424E+08
 
   -0.30824E+08         0.39579E+06         0.00000E+00
    0.39579E+06        -0.59997E+08         0.00000E+00
    0.00000E+00         0.00000E+00        -0.31398E+08
 
   -0.30847E+08         0.51737E+06         0.00000E+00
    0.51737E+06        -0.59992E+08         0.00000E+00
    0.00000E+00         0.00000E+00        -0.31376E+08
 
   -0.30867E+08         0.65139E+06         0.00000E+00
    0.65139E+06        -0.59984E+08         0.00000E+00
    0.00000E+00         0.00000E+00        -0.31358E+08
 
   -0.30885E+08         0.79617E+06         0.00000E+00
    0.79617E+06        -0.59972E+08         0.00000E+00
    0.00000E+00         0.00000E+00        -0.31342E+08
 
   -0.30904E+08         0.95006E+06         0.00000E+00
    0.95006E+06        -0.59956E+08         0.00000E+00
    0.00000E+00         0.00000E+00        -0.31325E+08
 
   -0.30925E+08         0.11119E+07         0.00000E+00
    0.11119E+07        -0.59936E+08         0.00000E+00
    0.00000E+00         0.00000E+00        -0.31306E+08
 
   -0.30952E+08         0.12810E+07         0.00000E+00
    0.12810E+07        -0.59910E+08         0.00000E+00
    0.00000E+00         0.00000E+00        -0.31282E+08
 
   -0.30987E+08         0.14572E+07         0.00000E+00
    0.14572E+07        -0.59880E+08         0.00000E+00
    0.00000E+00         0.00000E+00        -0.31250E+08
 
   -0.31032E+08         0.16399E+07         0.00000E+00
    0.16399E+07        -0.59845E+08         0.00000E+00
    0.00000E+00         0.00000E+00        -0.31209E+08
 
   -0.31093E+08         0.18293E+07         0.00000E+00
    0.18293E+07        -0.59807E+08         0.00000E+00
    0.00000E+00         0.00000E+00        -0.31157E+08
 
   -0.30610E+08         0.13517E+05         0.00000E+00
    0.13517E+05        -0.60002E+08         0.00000E+00
    0.00000E+00         0.00000E+00        -0.31063E+08
 
   -0.30638E+08         0.56814E+05         0.00000E+00
    0.56814E+05        -0.60004E+08         0.00000E+00
    0.00000E+00         0.00000E+00        -0.31037E+08
 
   -0.30661E+08         0.11688E+06         0.00000E+00
    0.11688E+06        -0.60007E+08         0.00000E+00
    0.00000E+00         0.00000E+00        -0.31017E+08
 
   -0.30681E+08         0.19365E+06         0.00000E+00
    0.19365E+06        -0.60012E+08         0.00000E+00
    0.00000E+00         0.00000E+00        -0.31003E+08
 
   -0.30696E+08         0.28677E+06         0.00000E+00
    0.28677E+06        -0.60017E+08         0.00000E+00
    0.00000E+00         0.00000E+00        -0.30995E+08
 
   -0.30708E+08         0.39555E+06         0.00000E+00
    0.39555E+06        -0.60022E+08         0.00000E+00
    0.00000E+00         0.00000E+00        -0.30992E+08
 
   -0.30718E+08         0.51887E+06         0.00000E+00
    0.51887E+06        -0.60026E+08         0.00000E+00
    0.00000E+00         0.00000E+00        -0.30993E+08
 
   -0.30726E+08         0.65530E+06         0.00000E+00
    0.65530E+06        -0.60028E+08         0.00000E+00
    0.00000E+00         0.00000E+00        -0.30997E+08
 
   -0.30734E+08         0.80326E+06         0.00000E+00
    0.80326E+06        -0.60029E+08         0.00000E+00
    0.00000E+00         0.00000E+00        -0.31003E+08
 
   -0.30744E+08         0.96116E+06         0.00000E+00
    0.96116E+06        -0.60026E+08         0.00000E+00
    0.00000E+00         0.00000E+00        -0.31009E+08
 
   -0.30757E+08         0.11276E+07         0.00000E+00
    0.11276E+07        -0.60019E+08         0.00000E+00
    0.00000E+00         0.00000E+00        -0.31011E+08
 
   -0.30777E+08         0.13015E+07         0.00000E+00
    0.13015E+07        -0.60007E+08         0.00000E+00
    0.00000E+00         0.00000E+00        -0.31009E+08
 
   -0.30805E+08         0.14821E+07         0.00000E+00
    0.14821E+07        -0.59991E+08         0.00000E+00
    0.00000E+00         0.00000E+00        -0.30998E+08
 
   -0.30844E+08         0.16690E+07         0.00000E+00
    0.16690E+07        -0.59971E+08         0.00000E+00
    0.00000E+00         0.00000E+00        -0.30979E+08
 
   -0.30897E+08         0.18627E+07         0.00000E+00
    0.18627E+07        -0.59946E+08         0.00000E+00
    0.00000E+00         0.00000E+00        -0.30947E+08
 
   -0.30576E+08         0.11989E+05         0.00000E+00
    0.11989E+05        -0.60002E+08         0.00000E+00
    0.00000E+00         0.00000E+00        -0.30553E+08
 
   -0.30587E+08         0.52291E+05         0.00000E+00
    0.52291E+05        -0.60006E+08         0.00000E+00
    0.00000E+00         0.00000E+00        -0.30547E+08
 
   -0.30594E+08         0.11005E+06         0.00000E+00
    0.11005E+06        -0.60014E+08         0.00000E+00
    0.00000E+00         0.00000E+00        -0.30548E+08
 
   -0.30596E+08         0.18526E+06         0.00000E+00
    0.18526E+06        -0.60024E+08         0.00000E+00
    0.00000E+00         0.00000E+00        -0.30557E+08
 
   -0.30595E+08         0.27757E+06         0.00000E+00
    0.27757E+06        -0.60037E+08         0.00000E+00
    0.00000E+00         0.00000E+00        -0.30572E+08
 
   -0.30592E+08         0.38625E+06         0.00000E+00
    0.38625E+06        -0.60050E+08         0.00000E+00
    0.00000E+00         0.00000E+00        -0.30592E+08
 
   -0.30587E+08         0.51021E+06         0.00000E+00
    0.51021E+06        -0.60064E+08         0.00000E+00
    0.00000E+00         0.00000E+00        -0.30617E+08
 
   -0.30583E+08         0.64810E+06         0.00000E+00
    0.64810E+06        -0.60077E+08         0.00000E+00
    0.00000E+00         0.00000E+00        -0.30644E+08
 
   -0.30579E+08         0.79839E+06         0.00000E+00
    0.79839E+06        -0.60089E+08         0.00000E+00
    0.00000E+00         0.00000E+00        -0.30672E+08
 
   -0.30580E+08         0.95950E+06         0.00000E+00
    0.95950E+06        -0.60098E+08         0.00000E+00
    0.00000E+00         0.00000E+00        -0.30698E+08
 
   -0.30585E+08         0.11299E+07         0.00000E+00
    0.11299E+07        -0.60104E+08         0.00000E+00
    0.00000E+00         0.00000E+00        -0.30721E+08
 
   -0.30597E+08         0.13083E+07         0.00000E+00
    0.13083E+07        -0.60105E+08         0.00000E+00
    0.00000E+00         0.00000E+00        -0.30738E+08
 
   -0.30619E+08         0.14938E+07         0.00000E+00
    0.14938E+07        -0.60102E+08         0.00000E+00
    0.00000E+00         0.00000E+00        -0.30748E+08
 
   -0.30652E+08         0.16859E+07         0.00000E+00
    0.16859E+07        -0.60093E+08         0.00000E+00
    0.00000E+00         0.00000E+00        -0.30747E+08
 
   -0.30697E+08         0.18846E+07         0.00000E+00
    0.18846E+07        -0.60079E+08         0.00000E+00
    0.00000E+00         0.00000E+00        -0.30734E+08
 
   -0.30548E+08         0.92412E+04         0.00000E+00
    0.92412E+04        -0.60003E+08         0.00000E+00
    0.00000E+00         0.00000E+00        -0.30047E+08
 
   -0.30540E+08         0.44322E+05         0.00000E+00
    0.44322E+05        -0.60009E+08         0.00000E+00
    0.00000E+00         0.00000E+00        -0.30060E+08
 
   -0.30529E+08         0.97865E+05         0.00000E+00
    0.97865E+05        -0.60021E+08         0.00000E+00
    0.00000E+00         0.00000E+00        -0.30083E+08
 
   -0.30514E+08         0.16989E+06         0.00000E+00
    0.16989E+06        -0.60038E+08         0.00000E+00
    0.00000E+00         0.00000E+00        -0.30114E+08
 
   -0.30495E+08         0.26003E+06         0.00000E+00
    0.26003E+06        -0.60058E+08         0.00000E+00
    0.00000E+00         0.00000E+00        -0.30153E+08
 
   -0.30476E+08         0.36755E+06         0.00000E+00
    0.36755E+06        -0.60081E+08         0.00000E+00
    0.00000E+00         0.00000E+00        -0.30197E+08
 
   -0.30456E+08         0.49135E+06         0.00000E+00
    0.49135E+06        -0.60104E+08         0.00000E+00
    0.00000E+00         0.00000E+00        -0.30245E+08
 
   -0.30438E+08         0.63009E+06         0.00000E+00
    0.63009E+06        -0.60128E+08         0.00000E+00
    0.00000E+00         0.00000E+00        -0.30295E+08
 
   -0.30423E+08         0.78220E+06         0.00000E+00
    0.78220E+06        -0.60150E+08         0.00000E+00
    0.00000E+00         0.00000E+00        -0.30344E+08
 
   -0.30412E+08         0.94609E+06         0.00000E+00
    0.94609E+06        -0.60171E+08         0.00000E+00
    0.00000E+00         0.00000E+00        -0.30391E+08
 
   -0.30409E+08         0.11202E+07         0.00000E+00
    0.11202E+07        -0.60188E+08         0.00000E+00
    0.00000E+00         0.00000E+00        -0.30434E+08
 
   -0.30413E+08         0.13031E+07         0.00000E+00
    0.13031E+07        -0.60200E+08         0.00000E+00
    0.00000E+00         0.00000E+00        -0.30470E+08
 
   -0.30427E+08         0.14940E+07         0.00000E+00
    0.14940E+07        -0.60208E+08         0.00000E+00
    0.00000E+00         0.00000E+00        -0.30497E+08
 
   -0.30453E+08         0.16921E+07         0.00000E+00
    0.16921E+07        -0.60210E+08         0.00000E+00
    0.00000E+00         0.00000E+00        -0.30514E+08
 
   -0.30493E+08         0.18963E+07         0.00000E+00
    0.18963E+07        -0.60207E+08         0.00000E+00
    0.00000E+00         0.00000E+00        -0.30519E+08
 
   -0.30525E+08         0.51513E+04         0.00000E+00
    0.51513E+04        -0.60003E+08         0.00000E+00
    0.00000E+00         0.00000E+00        -0.29541E+08
 
   -0.30499E+08         0.32667E+05         0.00000E+00
    0.32667E+05        -0.60012E+08         0.00000E+00
    0.00000E+00         0.00000E+00        -0.29573E+08
 
   -0.30469E+08         0.80049E+05         0.00000E+00
    0.80049E+05        -0.60029E+08         0.00000E+00
    0.00000E+00         0.00000E+00        -0.29618E+08
 
   -0.30434E+08         0.14733E+06         0.00000E+00
    0.14733E+06        -0.60052E+08         0.00000E+00
    0.00000E+00         0.00000E+00        -0.29673E+08
 
   -0.30398E+08         0.23409E+06         0.00000E+00
    0.23409E+06        -0.60080E+08         0.00000E+00
    0.00000E+00         0.00000E+00        -0.29735E+08
 
   -0.30361E+08         0.33954E+06         0.00000E+00
    0.33954E+06        -0.60111E+08         0.00000E+00
    0.00000E+00         0.00000E+00        -0.29803E+08
 
   -0.30325E+08         0.46255E+06         0.00000E+00
    0.46255E+06        -0.60144E+08         0.00000E+00
    0.00000E+00         0.00000E+00        -0.29875E+08
 
   -0.30292E+08         0.60168E+06         0.00000E+00
    0.60168E+06        -0.60178E+08         0.00000E+00
    0.00000E+00         0.00000E+00        -0.29947E+08
 
   -0.30263E+08         0.75535E+06         0.00000E+00
    0.75535E+06        -0.60210E+08         0.00000E+00
    0.00000E+00         0.00000E+00        -0.30017E+08
 
   -0.30242E+08         0.92190E+06         0.00000E+00
    0.92190E+06        -0.60241E+08         0.00000E+00
    0.00000E+00         0.00000E+00        -0.30085E+08
 
   -0.30228E+08         0.10997E+07         0.00000E+00
    0.10997E+07        -0.60268E+08         0.00000E+00
    0.00000E+00         0.00000E+00        -0.30146E+08
 
   -0.30223E+08         0.12874E+07         0.00000E+00
    0.12874E+07        -0.60291E+08         0.00000E+00
    0.00000E+00         0.00000E+00        -0.30200E+08
 
   -0.30230E+08         0.14838E+07         0.00000E+00
    0.14838E+07        -0.60309E+08         0.00000E+00
    0.00000E+00         0.00000E+00        -0.30245E+08
 
   -0.30249E+08         0.16868E+07         0.00000E+00
    0.16868E+07        -0.60322E+08         0.00000E+00
    0.00000E+00         0.00000E+00        -0.30279E+08
 
   -0.30285E+08         0.18949E+07         0.00000E+00
    0.18949E+07        -0.60332E+08         0.00000E+00
    0.00000E+00         0.00000E+00        -0.30300E+08
 
   -0.30513E+08        -0.32274E+03         0.00000E+00
   -0.32274E+03        -0.60003E+08         0.00000E+00
    0.00000E+00         0.00000E+00        -0.29033E+08
 
   -0.30466E+08         0.17443E+05         0.00000E+00
    0.17443E+05        -0.60015E+08         0.00000E+00
    0.00000E+00         0.00000E+00        -0.29086E+08
 
   -0.30415E+08         0.56811E+05         0.00000E+00
    0.56811E+05        -0.60036E+08         0.00000E+00
    0.00000E+00         0.00000E+00        -0.29153E+08
 
   -0.30360E+08         0.11784E+06         0.00000E+00
    0.11784E+06        -0.60065E+08         0.00000E+00
    0.00000E+00         0.00000E+00        -0.29231E+08
 
   -0.30303E+08         0.20007E+06         0.00000E+00
    0.20007E+06        -0.60100E+08         0.00000E+00
    0.00000E+00         0.00000E+00        -0.29317E+08
 
   -0.30247E+08         0.30262E+06         0.00000E+00
    0.30262E+06        -0.60140E+08         0.00000E+00
    0.00000E+00         0.00000E+00        -0.29408E+08
 
   -0.30194E+08         0.42425E+06         0.00000E+00
    0.42425E+06        -0.60182E+08         0.00000E+00
    0.00000E+00         0.00000E+00        -0.29503E+08
 
   -0.30145E+08         0.56347E+06         0.00000E+00
    0.56347E+06        -0.60225E+08         0.00000E+00
    0.00000E+00         0.00000E+00        -0.29597E+08
 
   -0.30102E+08         0.71862E+06         0.00000E+00
    0.71862E+06        -0.60267E+08         0.00000E+00
    0.00000E+00         0.00000E+00        -0.29689E+08
 
   -0.30068E+08         0.88800E+06         0.00000E+00
    0.88800E+06        -0.60307E+08         0.00000E+00
    0.00000E+00         0.00000E+00        -0.29777E+08
 
   -0.30043E+08         0.10698E+07         0.00000E+00
    0.10698E+07        -0.60343E+08         0.00000E+00
    0.00000E+00         0.00000E+00        -0.29857E+08
 
   -0.30029E+08         0.12621E+07         0.00000E+00
    0.12621E+07        -0.60376E+08         0.00000E+00
    0.00000E+00         0.00000E+00        -0.29929E+08
 
   -0.30028E+08         0.14626E+07         0.00000E+00
    0.14626E+07        -0.60404E+08         0.00000E+00
    0.00000E+00         0.00000E+00        -0.29990E+08
 
   -0.30042E+08         0.16699E+07         0.00000E+00
    0.16699E+07        -0.60428E+08         0.00000E+00
    0.00000E+00         0.00000E+00        -0.30040E+08
 
   -0.30071E+08         0.18838E+07         0.00000E+00
    0.18838E+07        -0.60446E+08         0.00000E+00
    0.00000E+00         0.00000E+00        -0.30076E+08
 
   -0.30512E+08        -0.70172E+04         0.00000E+00
   -0.70172E+04        -0.60004E+08         0.00000E+00
    0.00000E+00         0.00000E+00        -0.28523E+08
 
   -0.30443E+08        -0.10785E+04         0.00000E+00
   -0.10785E+04        -0.60017E+08         0.00000E+00
    0.00000E+00         0.00000E+00        -0.28596E+08
 
   -0.30369E+08         0.28627E+05         0.00000E+00
    0.28627E+05        -0.60042E+08         0.00000E+00
    0.00000E+00         0.00000E+00        -0.28684E+08
 
   -0.30291E+08         0.82060E+05         0.00000E+00
    0.82060E+05        -0.60077E+08         0.00000E+00
    0.00000E+00         0.00000E+00        -0.28785E+08
 
   -0.30213E+08         0.15871E+06         0.00000E+00
    0.15871E+06        -0.60118E+08         0.00000E+00
    0.00000E+00         0.00000E+00        -0.28895E+08
 
   -0.30136E+08         0.25758E+06         0.00000E+00
    0.25758E+06        -0.60165E+08         0.00000E+00
    0.00000E+00         0.00000E+00        -0.29010E+08
 
   -0.30063E+08         0.37733E+06         0.00000E+00
    0.37733E+06        -0.60215E+08         0.00000E+00
    0.00000E+00         0.00000E+00        -0.29128E+08
 
   -0.29997E+08         0.51640E+06         0.00000E+00
    0.51640E+06        -0.60266E+08         0.00000E+00
    0.00000E+00         0.00000E+00        -0.29245E+08
 
   -0.29939E+08         0.67298E+06         0.00000E+00
    0.67298E+06        -0.60316E+08         0.00000E+00
    0.00000E+00         0.00000E+00        -0.29358E+08
 
   -0.29890E+08         0.84499E+06         0.00000E+00
    0.84499E+06        -0.60365E+08         0.00000E+00
    0.00000E+00         0.00000E+00        -0.29465E+08
 
   -0.29854E+08         0.10303E+07         0.00000E+00
    0.10303E+07        -0.60411E+08         0.00000E+00
    0.00000E+00         0.00000E+00        -0.29564E+08
 
   -0.29830E+08         0.12264E+07         0.00000E+00
    0.12264E+07        -0.60453E+08         0.00000E+00
    0.00000E+00         0.00000E+00        -0.29653E+08
 
   -0.29822E+08         0.14317E+07         0.00000E+00
    0.14317E+07        -0.60491E+08         0.00000E+00
    0.00000E+00         0.00000E+00        -0.29731E+08
 
   -0.29828E+08         0.16448E+07         0.00000E+00
    0.16448E+07        -0.60523E+08         0.00000E+00
    0.00000E+00         0.00000E+00        -0.29795E+08
 
   -0.29851E+08         0.18652E+07         0.00000E+00
    0.18652E+07        -0.60548E+08         0.00000E+00
    0.00000E+00         0.00000E+00        -0.29845E+08
 
   -0.30525E+08        -0.14756E+05         0.00000E+00
   -0.14756E+05        -0.60004E+08         0.00000E+00
    0.00000E+00         0.00000E+00        -0.28007E+08
 
   -0.30431E+08        -0.22399E+05         0.00000E+00
   -0.22399E+05        -0.60019E+08         0.00000E+00
    0.00000E+00         0.00000E+00        -0.28101E+08
 
   -0.30332E+08        -0.37117E+04         0.00000E+00
   -0.37117E+04        -0.60048E+08         0.00000E+00
    0.00000E+00         0.00000E+00        -0.28212E+08
 
   -0.30230E+08         0.41064E+05         0.00000E+00
    0.41064E+05        -0.60086E+08         0.00000E+00
    0.00000E+00         0.00000E+00        -0.28336E+08
 
   -0.30128E+08         0.11125E+06         0.00000E+00
    0.11125E+06        -0.60133E+08         0.00000E+00
    0.00000E+00         0.00000E+00        -0.28469E+08
 
   -0.30028E+08         0.20572E+06         0.00000E+00
    0.20572E+06        -0.60185E+08         0.00000E+00
    0.00000E+00         0.00000E+00        -0.28607E+08
 
   -0.29935E+08         0.32307E+06         0.00000E+00
    0.32307E+06        -0.60241E+08         0.00000E+00
    0.00000E+00         0.00000E+00        -0.28747E+08
 
   -0.29849E+08         0.46149E+06         0.00000E+00
    0.46149E+06        -0.60299E+08         0.00000E+00
    0.00000E+00         0.00000E+00        -0.28886E+08
 
   -0.29773E+08         0.61891E+06         0.00000E+00
    0.61891E+06        -0.60357E+08         0.00000E+00
    0.00000E+00         0.00000E+00        -0.29020E+08
 
   -0.29710E+08         0.79303E+06         0.00000E+00
    0.79303E+06        -0.60414E+08         0.00000E+00
    0.00000E+00         0.00000E+00        -0.29148E+08
 
   -0.29661E+08         0.98135E+06         0.00000E+00
    0.98135E+06        -0.60469E+08         0.00000E+00
    0.00000E+00         0.00000E+00        -0.29266E+08
 
   -0.29627E+08         0.11817E+07         0.00000E+00
    0.11817E+07        -0.60520E+08         0.00000E+00
    0.00000E+00         0.00000E+00        -0.29372E+08
 
   -0.29609E+08         0.13925E+07         0.00000E+00
    0.13925E+07        -0.60566E+08         0.00000E+00
    0.00000E+00         0.00000E+00        -0.29466E+08
 
   -0.29608E+08         0.16123E+07         0.00000E+00
    0.16123E+07        -0.60606E+08         0.00000E+00
    0.00000E+00         0.00000E+00        -0.29545E+08
 
   -0.29623E+08         0.18397E+07         0.00000E+00
    0.18397E+07        -0.60638E+08         0.00000E+00
    0.00000E+00         0.00000E+00        -0.29608E+08
 
   -0.30554E+08        -0.23315E+05         0.00000E+00
   -0.23315E+05        -0.60004E+08         0.00000E+00
    0.00000E+00         0.00000E+00        -0.27486E+08
 
   -0.30432E+08        -0.45807E+05         0.00000E+00
   -0.45807E+05        -0.60021E+08         0.00000E+00
    0.00000E+00         0.00000E+00        -0.27602E+08
 
   -0.30306E+08        -0.39089E+05         0.00000E+00
   -0.39089E+05        -0.60051E+08         0.00000E+00
    0.00000E+00         0.00000E+00        -0.27735E+08
 
   -0.30176E+08        -0.37299E+04         0.00000E+00
   -0.37299E+04        -0.60092E+08         0.00000E+00
    0.00000E+00         0.00000E+00        -0.27881E+08
 
   -0.30048E+08         0.59312E+05         0.00000E+00
    0.59312E+05        -0.60142E+08         0.00000E+00
    0.00000E+00         0.00000E+00        -0.28037E+08
 
   -0.29924E+08         0.14874E+06         0.00000E+00
    0.14874E+06        -0.60198E+08         0.00000E+00
    0.00000E+00         0.00000E+00        -0.28197E+08
 
   -0.29808E+08         0.26290E+06         0.00000E+00
    0.26290E+06        -0.60259E+08         0.00000E+00
    0.00000E+00         0.00000E+00        -0.28359E+08
 
   -0.29701E+08         0.39984E+06         0.00000E+00
    0.39984E+06        -0.60322E+08         0.00000E+00
    0.00000E+00         0.00000E+00        -0.28520E+08
 
   -0.29607E+08         0.55735E+06         0.00000E+00
    0.55735E+06        -0.60386E+08         0.00000E+00
    0.00000E+00         0.00000E+00        -0.28675E+08
 
   -0.29527E+08         0.73293E+06         0.00000E+00
    0.73293E+06        -0.60451E+08         0.00000E+00
    0.00000E+00         0.00000E+00        -0.28822E+08
 
   -0.29465E+08         0.92416E+06         0.00000E+00
    0.92416E+06        -0.60513E+08         0.00000E+00
    0.00000E+00         0.00000E+00        -0.28958E+08
 
   -0.29419E+08         0.11289E+07         0.00000E+00
    0.11289E+07        -0.60572E+08         0.00000E+00
    0.00000E+00         0.00000E+00        -0.29082E+08
 
   -0.29391E+08         0.13453E+07         0.00000E+00
    0.13453E+07        -0.60626E+08         0.00000E+00
    0.00000E+00         0.00000E+00        -0.29192E+08
 
   -0.29381E+08         0.15718E+07         0.00000E+00
    0.15718E+07        -0.60674E+08         0.00000E+00
    0.00000E+00         0.00000E+00        -0.29287E+08
 
   -0.29390E+08         0.18059E+07         0.00000E+00
    0.18059E+07        -0.60716E+08         0.00000E+00
    0.00000E+00         0.00000E+00        -0.29365E+08
 
   -0.30600E+08        -0.32414E+05         0.00000E+00
   -0.32414E+05        -0.60005E+08         0.00000E+00
    0.00000E+00         0.00000E+00        -0.26959E+08
 
   -0.30447E+08        -0.70486E+05         0.00000E+00
   -0.70486E+05        -0.60022E+08         0.00000E+00
    0.00000E+00         0.00000E+00        -0.27097E+08
 
   -0.30290E+08        -0.76175E+05         0.00000E+00
   -0.76175E+05        -0.60053E+08         0.00000E+00
    0.00000E+00         0.00000E+00        -0.27252E+08
 
   -0.30131E+08        -0.50555E+05         0.00000E+00
   -0.50555E+05        -0.60095E+08         0.00000E+00
    0.00000E+00         0.00000E+00        -0.27421E+08
 
   -0.29975E+08         0.49689E+04         0.00000E+00
    0.49689E+04        -0.60146E+08         0.00000E+00
    0.00000E+00         0.00000E+00        -0.27598E+08
 
   -0.29825E+08         0.88727E+05         0.00000E+00
    0.88727E+05        -0.60203E+08         0.00000E+00
    0.00000E+00         0.00000E+00        -0.27780E+08
 
   -0.29683E+08         0.19885E+06         0.00000E+00
    0.19885E+06        -0.60266E+08         0.00000E+00
    0.00000E+00         0.00000E+00        -0.27962E+08
 
   -0.29554E+08         0.33330E+06         0.00000E+00
    0.33330E+06        -0.60332E+08         0.00000E+00
    0.00000E+00         0.00000E+00        -0.28142E+08
 
   -0.29440E+08         0.48986E+06         0.00000E+00
    0.48986E+06        -0.60401E+08         0.00000E+00
    0.00000E+00         0.00000E+00        -0.28317E+08
 
   -0.29343E+08         0.66605E+06         0.00000E+00
    0.66605E+06        -0.60471E+08         0.00000E+00
    0.00000E+00         0.00000E+00        -0.28483E+08
 
   -0.29265E+08         0.85952E+06         0.00000E+00
    0.85952E+06        -0.60540E+08         0.00000E+00
    0.00000E+00         0.00000E+00        -0.28638E+08
 
   -0.29206E+08         0.10680E+07         0.00000E+00
    0.10680E+07        -0.60607E+08         0.00000E+00
    0.00000E+00         0.00000E+00        -0.28780E+08
 
   -0.29166E+08         0.12897E+07         0.00000E+00
    0.12897E+07        -0.60669E+08         0.00000E+00
    0.00000E+00         0.00000E+00        -0.28908E+08
 
   -0.29147E+08         0.15218E+07         0.00000E+00
    0.15218E+07        -0.60727E+08         0.00000E+00
    0.00000E+00         0.00000E+00        -0.29019E+08
 
   -0.29150E+08         0.17616E+07         0.00000E+00
    0.17616E+07        -0.60780E+08         0.00000E+00
    0.00000E+00         0.00000E+00        -0.29114E+08
 
   -0.30663E+08        -0.41778E+05         0.00000E+00
   -0.41778E+05        -0.60005E+08         0.00000E+00
    0.00000E+00         0.00000E+00        -0.26426E+08
 
   -0.30476E+08        -0.95583E+05         0.00000E+00
   -0.95583E+05        -0.60022E+08         0.00000E+00
    0.00000E+00         0.00000E+00        -0.26587E+08
 
   -0.30285E+08        -0.11350E+06         0.00000E+00
   -0.11350E+06        -0.60053E+08         0.00000E+00
    0.00000E+00         0.00000E+00        -0.26765E+08
 
   -0.30095E+08        -0.97343E+05         0.00000E+00
   -0.97343E+05        -0.60094E+08         0.00000E+00
    0.00000E+00         0.00000E+00        -0.26955E+08
 
   -0.29908E+08        -0.49242E+05         0.00000E+00
   -0.49242E+05        -0.60144E+08         0.00000E+00
    0.00000E+00         0.00000E+00        -0.27152E+08
 
   -0.29730E+08         0.28528E+05         0.00000E+00
    0.28528E+05        -0.60199E+08         0.00000E+00
    0.00000E+00         0.00000E+00        -0.27352E+08
 
   -0.29563E+08         0.13379E+06         0.00000E+00
    0.13379E+06        -0.60261E+08         0.00000E+00
    0.00000E+00         0.00000E+00        -0.27553E+08
 
   -0.29410E+08         0.26453E+06         0.00000E+00
    0.26453E+06        -0.60327E+08         0.00000E+00
    0.00000E+00         0.00000E+00        -0.27751E+08
 
   -0.29274E+08         0.41853E+06         0.00000E+00
    0.41853E+06        -0.60397E+08         0.00000E+00
    0.00000E+00         0.00000E+00        -0.27943E+08
 
   -0.29158E+08         0.59368E+06         0.00000E+00
    0.59368E+06        -0.60471E+08         0.00000E+00
    0.00000E+00         0.00000E+00        -0.28127E+08
 
   -0.29063E+08         0.78776E+06         0.00000E+00
    0.78776E+06        -0.60546E+08         0.00000E+00
    0.00000E+00         0.00000E+00        -0.28301E+08
 
   -0.28989E+08         0.99866E+06         0.00000E+00
    0.99866E+06        -0.60620E+08         0.00000E+00
    0.00000E+00         0.00000E+00        -0.28462E+08
 
   -0.28937E+08         0.12238E+07         0.00000E+00
    0.12238E+07        -0.60693E+08         0.00000E+00
    0.00000E+00         0.00000E+00        -0.28609E+08
 
   -0.28908E+08         0.14603E+07         0.00000E+00
    0.14603E+07        -0.60763E+08         0.00000E+00
    0.00000E+00         0.00000E+00        -0.28740E+08
 
   -0.28902E+08         0.17072E+07         0.00000E+00
    0.17072E+07        -0.60827E+08         0.00000E+00
    0.00000E+00         0.00000E+00        -0.28853E+08
 
   -0.30744E+08        -0.51168E+05         0.00000E+00
   -0.51168E+05        -0.60005E+08         0.00000E+00
    0.00000E+00         0.00000E+00        -0.25889E+08
 
   -0.30518E+08        -0.12028E+06         0.00000E+00
   -0.12028E+06        -0.60022E+08         0.00000E+00
    0.00000E+00         0.00000E+00        -0.26074E+08
 
   -0.30291E+08        -0.14948E+06         0.00000E+00
   -0.14948E+06        -0.60051E+08         0.00000E+00
    0.00000E+00         0.00000E+00        -0.26274E+08
 
   -0.30066E+08        -0.14171E+06         0.00000E+00
   -0.14171E+06        -0.60089E+08         0.00000E+00
    0.00000E+00         0.00000E+00        -0.26484E+08
 
   -0.29848E+08        -0.10020E+06         0.00000E+00
   -0.10020E+06        -0.60134E+08         0.00000E+00
    0.00000E+00         0.00000E+00        -0.26699E+08
 
   -0.29641E+08        -0.28186E+05         0.00000E+00
   -0.28186E+05        -0.60185E+08         0.00000E+00
    0.00000E+00         0.00000E+00        -0.26914E+08
 
   -0.29447E+08         0.71559E+05         0.00000E+00
    0.71559E+05        -0.60241E+08         0.00000E+00
    0.00000E+00         0.00000E+00        -0.27129E+08
 
   -0.29270E+08         0.19687E+06         0.00000E+00
    0.19687E+06        -0.60303E+08         0.00000E+00
    0.00000E+00         0.00000E+00        -0.27341E+08
 
   -0.29111E+08         0.34586E+06         0.00000E+00
    0.34586E+06        -0.60371E+08         0.00000E+00
    0.00000E+00         0.00000E+00        -0.27549E+08
 
   -0.28974E+08         0.51704E+06         0.00000E+00
    0.51704E+06        -0.60446E+08         0.00000E+00
    0.00000E+00         0.00000E+00        -0.27750E+08
 
   -0.28860E+08         0.70885E+06         0.00000E+00
    0.70885E+06        -0.60527E+08         0.00000E+00
    0.00000E+00         0.00000E+00        -0.27943E+08
 
   -0.28770E+08         0.91934E+06         0.00000E+00
    0.91934E+06        -0.60611E+08         0.00000E+00
    0.00000E+00         0.00000E+00        -0.28125E+08
 
   -0.28704E+08         0.11459E+07         0.00000E+00
    0.11459E+07        -0.60696E+08         0.00000E+00
    0.00000E+00         0.00000E+00        -0.28294E+08
 
   -0.28664E+08         0.13869E+07         0.00000E+00
    0.13869E+07        -0.60778E+08         0.00000E+00
    0.00000E+00         0.00000E+00        -0.28446E+08
 
   -0.28646E+08         0.16408E+07         0.00000E+00
    0.16408E+07        -0.60856E+08         0.00000E+00
    0.00000E+00         0.00000E+00        -0.28581E+08
 
   -0.30843E+08        -0.60434E+05         0.00000E+00
   -0.60434E+05        -0.60005E+08         0.00000E+00
    0.00000E+00         0.00000E+00        -0.25348E+08
 
   -0.30573E+08        -0.14376E+06         0.00000E+00
   -0.14376E+06        -0.60021E+08         0.00000E+00
    0.00000E+00         0.00000E+00        -0.25558E+08
 
   -0.30305E+08        -0.18239E+06         0.00000E+00
   -0.18239E+06        -0.60048E+08         0.00000E+00
    0.00000E+00         0.00000E+00        -0.25781E+08
 
   -0.30044E+08        -0.18085E+06         0.00000E+00
   -0.18085E+06        -0.60080E+08         0.00000E+00
    0.00000E+00         0.00000E+00        -0.26009E+08
 
   -0.29794E+08        -0.14412E+06         0.00000E+00
   -0.14412E+06        -0.60117E+08         0.00000E+00
    0.00000E+00         0.00000E+00        -0.26238E+08
 
   -0.29558E+08        -0.77035E+05         0.00000E+00
   -0.77035E+05        -0.60158E+08         0.00000E+00
    0.00000E+00         0.00000E+00        -0.26465E+08
 
   -0.29338E+08         0.16656E+05         0.00000E+00
    0.16656E+05        -0.60203E+08         0.00000E+00
    0.00000E+00         0.00000E+00        -0.26688E+08
 
   -0.29136E+08         0.13434E+06         0.00000E+00
    0.13434E+06        -0.60257E+08         0.00000E+00
    0.00000E+00         0.00000E+00        -0.26910E+08
 
   -0.28955E+08         0.27472E+06         0.00000E+00
    0.27472E+06        -0.60320E+08         0.00000E+00
    0.00000E+00         0.00000E+00        -0.27129E+08
 
   -0.28796E+08         0.43751E+06         0.00000E+00
    0.43751E+06        -0.60395E+08         0.00000E+00
    0.00000E+00         0.00000E+00        -0.27345E+08
 
   -0.28661E+08         0.62249E+06         0.00000E+00
    0.62249E+06        -0.60480E+08         0.00000E+00
    0.00000E+00         0.00000E+00        -0.27557E+08
 
   -0.28552E+08         0.82863E+06         0.00000E+00
    0.82863E+06        -0.60573E+08         0.00000E+00
    0.00000E+00         0.00000E+00        -0.27762E+08
 
   -0.28470E+08         0.10546E+07         0.00000E+00
    0.10546E+07        -0.60672E+08         0.00000E+00
    0.00000E+00         0.00000E+00        -0.27956E+08
 
   -0.28414E+08         0.12987E+07         0.00000E+00
    0.12987E+07        -0.60771E+08         0.00000E+00
    0.00000E+00         0.00000E+00        -0.28135E+08
 
   -0.28383E+08         0.15588E+07         0.00000E+00
    0.15588E+07        -0.60866E+08         0.00000E+00
    0.00000E+00         0.00000E+00        -0.28297E+08
 
   -0.30958E+08        -0.69489E+05         0.00000E+00
   -0.69489E+05        -0.60005E+08         0.00000E+00
    0.00000E+00         0.00000E+00        -0.24804E+08
 
   -0.30638E+08        -0.16519E+06         0.00000E+00
   -0.16519E+06        -0.60020E+08         0.00000E+00
    0.00000E+00         0.00000E+00        -0.25041E+08
 
   -0.30325E+08        -0.21008E+06         0.00000E+00
   -0.21008E+06        -0.60042E+08         0.00000E+00
    0.00000E+00         0.00000E+00        -0.25287E+08
 
   -0.30025E+08        -0.21128E+06         0.00000E+00
   -0.21128E+06        -0.60066E+08         0.00000E+00
    0.00000E+00         0.00000E+00        -0.25532E+08
 
   -0.29743E+08        -0.17659E+06         0.00000E+00
   -0.17659E+06        -0.60090E+08         0.00000E+00
    0.00000E+00         0.00000E+00        -0.25770E+08
 
   -0.29480E+08        -0.11318E+06         0.00000E+00
   -0.11318E+06        -0.60116E+08         0.00000E+00
    0.00000E+00         0.00000E+00        -0.26001E+08
 
   -0.29236E+08        -0.26291E+05         0.00000E+00
   -0.26291E+05        -0.60147E+08         0.00000E+00
    0.00000E+00         0.00000E+00        -0.26228E+08
 
   -0.29012E+08         0.81086E+05         0.00000E+00
    0.81086E+05        -0.60188E+08         0.00000E+00
    0.00000E+00         0.00000E+00        -0.26452E+08
 
   -0.28809E+08         0.20842E+06         0.00000E+00
    0.20842E+06        -0.60242E+08         0.00000E+00
    0.00000E+00         0.00000E+00        -0.26678E+08
 
   -0.28628E+08         0.35703E+06         0.00000E+00
    0.35703E+06        -0.60313E+08         0.00000E+00
    0.00000E+00         0.00000E+00        -0.26906E+08
 
   -0.28471E+08         0.52884E+06         0.00000E+00
    0.52884E+06        -0.60401E+08         0.00000E+00
    0.00000E+00         0.00000E+00        -0.27137E+08
 
   -0.28339E+08         0.72539E+06         0.00000E+00
    0.72539E+06        -0.60505E+08         0.00000E+00
    0.00000E+00         0.00000E+00        -0.27367E+08
 
   -0.28235E+08         0.94677E+06         0.00000E+00
    0.94677E+06        -0.60619E+08         0.00000E+00
    0.00000E+00         0.00000E+00        -0.27591E+08
 
   -0.28160E+08         0.11913E+07         0.00000E+00
    0.11913E+07        -0.60738E+08         0.00000E+00
    0.00000E+00         0.00000E+00        -0.27803E+08
 
   -0.28111E+08         0.14563E+07         0.00000E+00
    0.14563E+07        -0.60856E+08         0.00000E+00
    0.00000E+00         0.00000E+00        -0.28000E+08
 
   -0.31089E+08        -0.78325E+05         0.00000E+00
   -0.78325E+05        -0.60005E+08         0.00000E+00
    0.00000E+00         0.00000E+00        -0.24260E+08
 
   -0.30710E+08        -0.18333E+06         0.00000E+00
   -0.18333E+06        -0.60018E+08         0.00000E+00
    0.00000E+00         0.00000E+00        -0.24527E+08
 
   -0.30348E+08        -0.22939E+06         0.00000E+00
   -0.22939E+06        -0.60032E+08         0.00000E+00
    0.00000E+00         0.00000E+00        -0.24795E+08
 
   -0.30007E+08        -0.22832E+06         0.00000E+00
   -0.22832E+06        -0.60043E+08         0.00000E+00
    0.00000E+00         0.00000E+00        -0.25051E+08
 
   -0.29694E+08        -0.19248E+06         0.00000E+00
   -0.19248E+06        -0.60049E+08         0.00000E+00
    0.00000E+00         0.00000E+00        -0.25293E+08
 
   -0.29407E+08        -0.13205E+06         0.00000E+00
   -0.13205E+06        -0.60055E+08         0.00000E+00
    0.00000E+00         0.00000E+00        -0.25521E+08
 
   -0.29144E+08        -0.53412E+05         0.00000E+00
   -0.53412E+05        -0.60068E+08         0.00000E+00
    0.00000E+00         0.00000E+00        -0.25743E+08
 
   -0.28903E+08         0.40644E+05         0.00000E+00
    0.40644E+05        -0.60093E+08         0.00000E+00
    0.00000E+00         0.00000E+00        -0.25965E+08
 
   -0.28681E+08         0.15039E+06         0.00000E+00
    0.15039E+06        -0.60136E+08         0.00000E+00
    0.00000E+00         0.00000E+00        -0.26191E+08
 
   -0.28478E+08         0.27852E+06         0.00000E+00
    0.27852E+06        -0.60200E+08         0.00000E+00
    0.00000E+00         0.00000E+00        -0.26427E+08
 
   -0.28295E+08         0.42948E+06         0.00000E+00
    0.42948E+06        -0.60288E+08         0.00000E+00
    0.00000E+00         0.00000E+00        -0.26674E+08
 
   -0.28136E+08         0.60837E+06         0.00000E+00
    0.60837E+06        -0.60400E+08         0.00000E+00
    0.00000E+00         0.00000E+00        -0.26931E+08
 
   -0.28005E+08         0.81836E+06         0.00000E+00
    0.81836E+06        -0.60533E+08         0.00000E+00
    0.00000E+00         0.00000E+00        -0.27192E+08
 
   -0.27904E+08         0.10588E+07         0.00000E+00
    0.10588E+07        -0.60678E+08         0.00000E+00
    0.00000E+00         0.00000E+00        -0.27447E+08
 
   -0.27834E+08         0.13268E+07         0.00000E+00
    0.13268E+07        -0.60826E+08         0.00000E+00
    0.00000E+00         0.00000E+00        -0.27689E+08
 
   -0.31233E+08        -0.86921E+05         0.00000E+00
   -0.86921E+05        -0.60005E+08         0.00000E+00
    0.00000E+00         0.00000E+00        -0.23716E+08
 
   -0.30784E+08        -0.19570E+06         0.00000E+00
   -0.19570E+06        -0.60014E+08         0.00000E+00
    0.00000E+00         0.00000E+00        -0.24017E+08
 
   -0.30365E+08        -0.23483E+06         0.00000E+00
   -0.23483E+06        -0.60015E+08         0.00000E+00
    0.00000E+00         0.00000E+00        -0.24305E+08
 
   -0.29985E+08        -0.22542E+06         0.00000E+00
   -0.22542E+06        -0.60004E+08         0.00000E+00
    0.00000E+00         0.00000E+00        -0.24566E+08
 
   -0.29645E+08        -0.18660E+06         0.00000E+00
   -0.18660E+06        -0.59986E+08         0.00000E+00
    0.00000E+00         0.00000E+00        -0.24801E+08
 
   -0.29341E+08        -0.13054E+06         0.00000E+00
   -0.13054E+06        -0.59970E+08         0.00000E+00
    0.00000E+00         0.00000E+00        -0.25020E+08
 
   -0.29064E+08        -0.62862E+05         0.00000E+00
   -0.62862E+05        -0.59964E+08         0.00000E+00
    0.00000E+00         0.00000E+00        -0.25231E+08
 
   -0.28810E+08         0.14737E+05         0.00000E+00
    0.14737E+05        -0.59973E+08         0.00000E+00
    0.00000E+00         0.00000E+00        -0.25444E+08
 
   -0.28574E+08         0.10319E+06         0.00000E+00
    0.10319E+06        -0.60003E+08         0.00000E+00
    0.00000E+00         0.00000E+00        -0.25667E+08
 
   -0.28352E+08         0.20566E+06         0.00000E+00
    0.20566E+06        -0.60057E+08         0.00000E+00
    0.00000E+00         0.00000E+00        -0.25905E+08
 
   -0.28144E+08         0.32785E+06         0.00000E+00
    0.32785E+06        -0.60142E+08         0.00000E+00
    0.00000E+00         0.00000E+00        -0.26164E+08
 
   -0.27953E+08         0.47791E+06         0.00000E+00
    0.47791E+06        -0.60259E+08         0.00000E+00
    0.00000E+00         0.00000E+00        -0.26447E+08
 
   -0.27786E+08         0.66520E+06         0.00000E+00
    0.66520E+06        -0.60411E+08         0.00000E+00
    0.00000E+00         0.00000E+00        -0.26749E+08
 
   -0.27652E+08         0.89381E+06         0.00000E+00
    0.89381E+06        -0.60588E+08         0.00000E+00
    0.00000E+00         0.00000E+00        -0.27058E+08
 
   -0.27551E+08         0.11608E+07         0.00000E+00
    0.11608E+07        -0.60776E+08         0.00000E+00
    0.00000E+00         0.00000E+00        -0.27362E+08
 
   -0.31386E+08        -0.94844E+05         0.00000E+00
   -0.94844E+05        -0.60005E+08         0.00000E+00
    0.00000E+00         0.00000E+00        -0.23176E+08
 
   -0.30849E+08        -0.19602E+06         0.00000E+00
   -0.19602E+06        -0.60004E+08         0.00000E+00
    0.00000E+00         0.00000E+00        -0.23515E+08
 
   -0.30370E+08        -0.21600E+06         0.00000E+00
   -0.21600E+06        -0.59979E+08         0.00000E+00
    0.00000E+00         0.00000E+00        -0.23814E+08
 
   -0.29956E+08        -0.19457E+06         0.00000E+00
   -0.19457E+06        -0.59935E+08         0.00000E+00
    0.00000E+00         0.00000E+00        -0.24066E+08
 
   -0.29599E+08        -0.15585E+06         0.00000E+00
   -0.15585E+06        -0.59890E+08         0.00000E+00
    0.00000E+00         0.00000E+00        -0.24285E+08
 
   -0.29284E+08        -0.10861E+06         0.00000E+00
   -0.10861E+06        -0.59852E+08         0.00000E+00
    0.00000E+00         0.00000E+00        -0.24488E+08
 
   -0.29000E+08        -0.55806E+05         0.00000E+00
   -0.55806E+05        -0.59830E+08         0.00000E+00
    0.00000E+00         0.00000E+00        -0.24687E+08
 
   -0.28738E+08         0.23573E+04         0.00000E+00
    0.23573E+04        -0.59826E+08         0.00000E+00
    0.00000E+00         0.00000E+00        -0.24890E+08
 
   -0.28491E+08         0.67084E+05         0.00000E+00
    0.67084E+05        -0.59845E+08         0.00000E+00
    0.00000E+00         0.00000E+00        -0.25105E+08
 
   -0.28256E+08         0.14100E+06         0.00000E+00
    0.14100E+06        -0.59891E+08         0.00000E+00
    0.00000E+00         0.00000E+00        -0.25341E+08
 
   -0.28027E+08         0.22897E+06         0.00000E+00
    0.22897E+06        -0.59968E+08         0.00000E+00
    0.00000E+00         0.00000E+00        -0.25605E+08
 
   -0.27804E+08         0.33932E+06         0.00000E+00
    0.33932E+06        -0.60084E+08         0.00000E+00
    0.00000E+00         0.00000E+00        -0.25907E+08
 
   -0.27593E+08         0.48582E+06         0.00000E+00
    0.48582E+06        -0.60247E+08         0.00000E+00
    0.00000E+00         0.00000E+00        -0.26249E+08
 
   -0.27411E+08         0.68632E+06         0.00000E+00
    0.68632E+06        -0.60460E+08         0.00000E+00
    0.00000E+00         0.00000E+00        -0.26626E+08
 
   -0.27266E+08         0.94433E+06         0.00000E+00
    0.94433E+06        -0.60704E+08         0.00000E+00
    0.00000E+00         0.00000E+00        -0.27014E+08
 
   -0.31540E+08        -0.98918E+05         0.00000E+00
   -0.98918E+05        -0.60002E+08         0.00000E+00
    0.00000E+00         0.00000E+00        -0.22643E+08
 
   -0.30889E+08        -0.16605E+06         0.00000E+00
   -0.16605E+06        -0.59970E+08         0.00000E+00
    0.00000E+00         0.00000E+00        -0.23016E+08
 
   -0.30357E+08        -0.15745E+06         0.00000E+00
   -0.15745E+06        -0.59895E+08         0.00000E+00
    0.00000E+00         0.00000E+00        -0.23302E+08
 
   -0.29925E+08        -0.13221E+06         0.00000E+00
   -0.13221E+06        -0.59816E+08         0.00000E+00
    0.00000E+00         0.00000E+00        -0.23532E+08
 
   -0.29561E+08        -0.10240E+06         0.00000E+00
   -0.10240E+06        -0.59747E+08         0.00000E+00
    0.00000E+00         0.00000E+00        -0.23732E+08
 
   -0.29242E+08        -0.70395E+05         0.00000E+00
   -0.70395E+05        -0.59695E+08         0.00000E+00
    0.00000E+00         0.00000E+00        -0.23919E+08
 
   -0.28955E+08        -0.36622E+05         0.00000E+00
   -0.36622E+05        -0.59662E+08         0.00000E+00
    0.00000E+00         0.00000E+00        -0.24106E+08
 
   -0.28688E+08        -0.45392E+03         0.00000E+00
   -0.45392E+03        -0.59650E+08         0.00000E+00
    0.00000E+00         0.00000E+00        -0.24300E+08
 
   -0.28436E+08         0.39091E+05         0.00000E+00
    0.39091E+05        -0.59664E+08         0.00000E+00
    0.00000E+00         0.00000E+00        -0.24509E+08
 
   -0.28191E+08         0.83560E+05         0.00000E+00
    0.83560E+05        -0.59704E+08         0.00000E+00
    0.00000E+00         0.00000E+00        -0.24740E+08
 
   -0.27948E+08         0.13584E+06         0.00000E+00
    0.13584E+06        -0.59777E+08         0.00000E+00
    0.00000E+00         0.00000E+00        -0.25005E+08
 
   -0.27702E+08         0.20140E+06         0.00000E+00
    0.20140E+06        -0.59889E+08         0.00000E+00
    0.00000E+00         0.00000E+00        -0.25313E+08
 
   -0.27450E+08         0.29078E+06         0.00000E+00
    0.29078E+06        -0.60052E+08         0.00000E+00
    0.00000E+00         0.00000E+00        -0.25683E+08
 
   -0.27199E+08         0.42740E+06         0.00000E+00
    0.42740E+06        -0.60284E+08         0.00000E+00
    0.00000E+00         0.00000E+00        -0.26126E+08
 
   -0.26987E+08         0.65305E+06         0.00000E+00
    0.65305E+06        -0.60606E+08         0.00000E+00
    0.00000E+00         0.00000E+00        -0.26636E+08
 
   -0.31659E+08        -0.70607E+05         0.00000E+00
   -0.70607E+05        -0.59959E+08         0.00000E+00
    0.00000E+00         0.00000E+00        -0.22111E+08
 
   -0.30887E+08        -0.70078E+05         0.00000E+00
   -0.70078E+05        -0.59843E+08         0.00000E+00
    0.00000E+00         0.00000E+00        -0.22479E+08
 
   -0.30340E+08        -0.58028E+05         0.00000E+00
   -0.58028E+05        -0.59726E+08         0.00000E+00
    0.00000E+00         0.00000E+00        -0.22734E+08
 
   -0.29905E+08        -0.46653E+05         0.00000E+00
   -0.46653E+05        -0.59627E+08         0.00000E+00
    0.00000E+00         0.00000E+00        -0.22942E+08
 
   -0.29540E+08        -0.35350E+05         0.00000E+00
   -0.35350E+05        -0.59548E+08         0.00000E+00
    0.00000E+00         0.00000E+00        -0.23128E+08
 
   -0.29220E+08        -0.24003E+05         0.00000E+00
   -0.24003E+05        -0.59490E+08         0.00000E+00
    0.00000E+00         0.00000E+00        -0.23306E+08
 
   -0.28931E+08        -0.12372E+05         0.00000E+00
   -0.12372E+05        -0.59455E+08         0.00000E+00
    0.00000E+00         0.00000E+00        -0.23486E+08
 
   -0.28663E+08        -0.73369E+02         0.00000E+00
   -0.73369E+02        -0.59444E+08         0.00000E+00
    0.00000E+00         0.00000E+00        -0.23674E+08
 
   -0.28408E+08         0.13265E+05         0.00000E+00
    0.13265E+05        -0.59458E+08         0.00000E+00
    0.00000E+00         0.00000E+00        -0.23879E+08
 
   -0.28160E+08         0.28116E+05         0.00000E+00
    0.28116E+05        -0.59501E+08         0.00000E+00
    0.00000E+00         0.00000E+00        -0.24108E+08
 
   -0.27910E+08         0.45400E+05         0.00000E+00
    0.45400E+05        -0.59575E+08         0.00000E+00
    0.00000E+00         0.00000E+00        -0.24370E+08
 
   -0.27652E+08         0.66826E+05         0.00000E+00
    0.66826E+05        -0.59689E+08         0.00000E+00
    0.00000E+00         0.00000E+00        -0.24680E+08
 
   -0.27376E+08         0.95920E+05         0.00000E+00
    0.95920E+05        -0.59852E+08         0.00000E+00
    0.00000E+00         0.00000E+00        -0.25059E+08
 
   -0.27072E+08         0.14213E+06         0.00000E+00
    0.14213E+06        -0.60089E+08         0.00000E+00
    0.00000E+00         0.00000E+00        -0.25540E+08
 
   -0.26730E+08         0.24270E+06         0.00000E+00
    0.24270E+06        -0.60444E+08         0.00000E+00
    0.00000E+00         0.00000E+00        -0.26187E+08
 
SCALARS stresss double 
LOOKUP_TABLE default
  -42808334.0115184     
  -42776563.3440464     
  -42730612.0777864     
  -42674304.6374800     
  -42645695.1881431     
  -42629366.2034986     
  -42616067.6803648     
  -42599948.2633383     
  -42575966.2245845     
  -42540450.7713107     
  -42489280.0979885     
  -42417694.3079802     
  -42318806.9572154     
  -42180980.9283533     
  -41978878.1966476     
  -42754011.7651948     
  -42739830.6070963     
  -42688419.7209428     
  -42646007.1255710     
  -42585754.5018196     
  -42531900.6011382     
  -42485408.8698498     
  -42440060.5203715     
  -42391687.1980068     
  -42335114.4264071     
  -42265057.5311254     
  -42176658.8184311     
  -42062746.2374730     
  -41914798.4588535     
  -41729107.6208041     
  -42569843.1793933     
  -42582088.2910086     
  -42580185.9206205     
  -42536115.2630732     
  -42482184.0335169     
  -42418433.4015313     
  -42352268.8102891     
  -42285490.2314200     
  -42215871.0715006     
  -42140230.6395778     
  -42053914.3052814     
  -41952280.6643503     
  -41831832.2171772     
  -41693791.0098461     
  -41553020.5199610     
  -42338574.3692235     
  -42355795.1020672     
  -42370173.9765079     
  -42360815.0237662     
  -42324007.5557149     
  -42269413.7307779     
  -42201938.3318446     
  -42126507.6064902     
  -42044930.0106124     
  -41956596.6701053     
  -41859913.1545824     
  -41753526.3120820     
  -41638604.9743345     
  -41521772.6468121     
  -41410458.2864705     
  -42122139.4308603     
  -42130640.0884254     
  -42140938.1765536     
  -42141698.1634734     
  -42124083.7475618     
  -42085203.3895398     
  -42028249.0742287     
  -41956665.6009668     
  -41874071.6961995     
  -41782933.6624271     
  -41685166.3930929     
  -41583102.5211108     
  -41480599.1803121     
  -41381963.2180371     
  -41290968.3218121     
  -41914982.1525685     
  -41913066.1540198     
  -41915681.6976051     
  -41916261.6938040     
  -41906791.4860829     
  -41880814.5884694     
  -41836721.2803043     
  -41775988.6237050     
  -41701648.0191934     
  -41617364.9591345     
  -41527471.0012877     
  -41436215.4757288     
  -41347558.9541829     
  -41264206.8614137     
  -41187513.3913933     
  -41710217.9463629     
  -41704885.2475510     
  -41702665.6117483     
  -41699575.8790300     
  -41690645.7531903     
  -41671340.8190511     
  -41638102.1308975     
  -41590058.1720470     
  -41528837.4998011     
  -41457926.9934356     
  -41381663.5677693     
  -41304484.8756006     
  -41229996.3160923     
  -41160323.7866343     
  -41095783.1610328     
  -41508685.3314836     
  -41503467.4513690     
  -41498797.3880766     
  -41492841.5131450     
  -41483250.5939905     
  -41467129.5983778     
  -41441705.8395311     
  -41405394.1291400     
  -41358573.5538451     
  -41303457.2045865     
  -41243301.7323720     
  -41181480.9841400     
  -41120828.7141571     
  -41063607.4015415     
  -41010961.5021946     
  -41311909.3258659     
  -41306926.6661977     
  -41301785.3256140     
  -41295131.0216333     
  -41285814.3020508     
  -41272311.5509315     
  -41253025.5696841     
  -41226756.6191597     
  -41193295.4086836     
  -41153558.6349556     
  -41109472.0679727     
  -41063089.2899045     
  -41016491.8309135     
  -40971382.4791877     
  -40929319.3074457     
  -41118730.9071920     
  -41114849.7576952     
  -41110407.5251143     
  -41104765.7152792     
  -41097221.7449556     
  -41087061.1154520     
  -41073553.1089683     
  -41056053.3730237     
  -41034214.7286767     
  -41008177.8423481     
  -40978697.8488242     
  -40946909.2640522     
  -40914014.3442287     
  -40881070.0604367     
  -40848755.2150387     
  -40928909.2513740     
  -40926456.4826931     
  -40923758.0045865     
  -40920355.7025684     
  -40915868.5010819     
  -40910002.9662578     
  -40902473.7072785     
  -40892982.7763388     
  -40881161.6621320     
  -40866785.3143932     
  -40849948.7282845     
  -40831154.9691932     
  -40810876.8331702     
  -40789770.9481884     
  -40768493.5870975     
  -40742157.5426036     
  -40741410.6123718     
  -40741066.1680679     
  -40740765.8140106     
  -40740287.6837561     
  -40739457.9332662     
  -40738114.4560150     
  -40736038.8486927     
  -40732940.3907183     
  -40728465.5857218     
  -40722357.7710388     
  -40714546.2109407     
  -40705359.9932294     
  -40695395.0105370     
  -40685408.0456271     
  -40558401.2537857     
  -40559384.1111933     
  -40561707.4178214     
  -40565059.5828082     
  -40569162.9819445     
  -40573804.2027738     
  -40578776.2298452     
  -40583827.0952516     
  -40588617.2592626     
  -40592743.9067047     
  -40595815.2807801     
  -40597645.0583232     
  -40598294.9302785     
  -40597971.4084631     
  -40596879.9614324     
  -40377343.1732987     
  -40380003.9478654     
  -40385162.0415034     
  -40392387.0207428     
  -40401290.8064972     
  -40411520.6853449     
  -40422742.6591197     
  -40434605.7106252     
  -40446706.3048549     
  -40458616.8079750     
  -40469943.3753410     
  -40480313.5056609     
  -40489515.5223989     
  -40497258.0596805     
  -40503360.5050811     
  -40198912.3882122     
  -40203038.6139407     
  -40210923.9936813     
  -40221960.0991037     
  -40235577.9929985     
  -40251234.0964412     
  -40268450.0687281     
  -40286747.5248573     
  -40305633.5202617     
  -40324624.2594456     
  -40343235.6813959     
  -40360991.3028164     
  -40377537.9017663     
  -40392519.4143660     
  -40406295.2209279     
  -40022939.0522181     
  -40028244.7359409     
  -40038560.6203517     
  -40053080.8646438     
  -40071039.3779612     
  -40091716.9520168     
  -40114472.4881749     
  -40138679.0059953     
  -40163736.2602142     
  -40189071.9490447     
  -40214077.4833129     
  -40238213.4653099     
  -40261365.3209791     
  -40283681.5660653     
  -40305469.4590068     
  -39849737.4196721     
  -39855684.8257720     
  -39867832.8412476     
  -39885196.4067906     
  -39906815.5868319     
  -39931822.7182463     
  -39959409.0467352     
  -39988831.6727217     
  -40019344.0500899     
  -40050227.4833639     
  -40080930.8110936     
  -40111097.2354340     
  -40140778.3954042     
  -40169798.6248659     
  -40197575.4484464     
  -39679389.4015717     
  -39685337.2675175     
  -39698547.6307084     
  -39717836.3305743     
  -39742145.4783186     
  -39770488.7286409     
  -39801958.8225335     
  -39835656.0475270     
  -39870781.4589326     
  -39906672.1473176     
  -39942823.0453755     
  -39978879.4708675     
  -40014514.2214939     
  -40048806.6912396     
  -40081266.2505958     
  -39512101.6263463     
  -39517249.9091743     
  -39530539.0057471     
  -39550623.1598862     
  -39576377.6106120     
  -39606785.3020094     
  -39640889.2397190     
  -39677818.5584608     
  -39716814.5567284     
  -39757197.6134061     
  -39798349.7835054     
  -39839618.3443698     
  -39880234.7538575     
  -39919493.1452917     
  -39956647.1734435     
  -39348136.5442005     
  -39351575.1794867     
  -39363776.0157835     
  -39383295.0817347     
  -39408991.8317978     
  -39439901.9392087     
  -39475179.4379268     
  -39514095.0392656     
  -39555891.1049269     
  -39599849.9908158     
  -39645145.2537061     
  -39690862.3544631     
  -39736304.1175613     
  -39780534.0559203     
  -39823684.2601923     
  -39187821.3213733     
  -39188514.0328732     
  -39198335.2153621     
  -39215739.9228174     
  -39239619.5003110     
  -39269165.0839926     
  -39303781.5612675     
  -39342895.8266450     
  -39385965.3696727     
  -39432221.6143276     
  -39480785.8709063     
  -39530713.9473052     
  -39581022.5810350     
  -39631331.4329570     
  -39681341.3271396     
  -39031471.9539347     
  -39028303.1526702     
  -39034354.3012510     
  -39047939.6060911     
  -39067992.4647240     
  -39093908.7899327     
  -39125442.8241144     
  -39162481.4971378     
  -39204819.6465850     
  -39251979.0996440     
  -39303129.0221386     
  -39357213.2492171     
  -39413250.4332904     
  -39470602.0038688     
  -39527290.3440146     
  -38879412.3362411     
  -38871148.7522979     
  -38871948.3029956     
  -38879843.9052219     
  -38893766.5187139     
  -38913388.9056340     
  -38938969.2043080     
  -38971149.7410117     
  -39010456.0159740     
  -39056954.4177517     
  -39110059.5244792     
  -39168547.8287536     
  -39231242.2287426     
  -39296038.2287695     
  -39360897.8189807     
  -38731861.1982070     
  -38717184.0625652     
  -38711083.4365478     
  -38711157.8109243     
  -38716317.4869013     
  -38726648.4603850     
  -38743171.7985122     
  -38767520.1947605     
  -38801247.7321244     
  -38845253.6200104     
  -38899434.2621761     
  -38962560.5643790     
  -39032474.3242928     
  -39106341.0788305     
  -39181696.0826323     
  -38589061.7235997     
  -38566365.2777549     
  -38551347.6036818     
  -38540978.7242136     
  -38534327.1610246     
  -38532256.0279334     
  -38536821.8014963     
  -38550678.1273198     
  -38576311.7948060     
  -38615624.9454114     
  -38669406.8324290     
  -38736779.5165333     
  -38814905.8463457     
  -38900300.8027530     
  -38989257.9374758     
  -38451094.2786990     
  -38418269.2434324     
  -38391473.5940239     
  -38367104.4902015     
  -38345119.6613980     
  -38327855.8210005     
  -38318479.6327695     
  -38320171.8116499     
  -38335835.6005602     
  -38368114.0481516     
  -38419071.3846745     
  -38489295.4325342     
  -38576593.8924955     
  -38676413.1808324     
  -38783197.9029873     
  -38317934.4235405     
  -38271607.7914051     
  -38228286.1116706     
  -38184848.1648549     
  -38144020.6393146     
  -38110089.3207128     
  -38086454.3983613     
  -38075942.6364713     
  -38081105.7528746     
  -38104705.3272327     
  -38149879.6226223     
  -38219692.8844699     
  -38315366.7750688     
  -38432600.1325129     
  -38563104.5660970     
  -38189013.9889961     
  -38122617.4303320     
  -38054024.0153873     
  -37985576.4472452     
  -37924611.2825119     
  -37874996.5275234     
  -37838937.0121520     
  -37818043.4356001     
  -37814005.2447804     
  -37829120.2906264     
  -37866744.7923057     
  -37931666.2929991     
  -38029929.4380568     
  -38165706.2481178     
  -38328083.5215807     
  -38061627.7037365     
  -37958241.6392463     
  -37851564.6826140     
  -37757829.5029530     
  -37680117.3852651     
  -37618881.2546647     
  -37574196.1390082     
  -37546345.3228281     
  -37536189.9148446     
  -37545328.1204643     
  -37576599.7828770     
  -37634775.5743244     
  -37728108.4663734     
  -37869774.2290177     
  -38076313.9132216     
  -37909316.1639657     
  -37736559.7274636     
  -37600016.8219480     
  -37491198.8484451     
  -37405084.9732414     
  -37338770.3570994     
  -37290722.0789602     
  -37260541.4008670     
  -37248589.9239054     
  -37256028.9567105     
  -37285162.4006371     
  -37340235.5096087     
  -37429010.1132136     
  -37566873.5607229     
  -37786938.9299210     
SCALARS 2waySource double 
LOOKUP_TABLE default
  0.000000000000000E+000
  0.000000000000000E+000
  0.000000000000000E+000
  0.000000000000000E+000
  0.000000000000000E+000
  0.000000000000000E+000
  0.000000000000000E+000
  0.000000000000000E+000
  0.000000000000000E+000
  0.000000000000000E+000
  0.000000000000000E+000
  0.000000000000000E+000
  0.000000000000000E+000
  0.000000000000000E+000
  0.000000000000000E+000
  0.000000000000000E+000
  0.000000000000000E+000
  0.000000000000000E+000
  0.000000000000000E+000
  0.000000000000000E+000
  0.000000000000000E+000
  0.000000000000000E+000
  0.000000000000000E+000
  0.000000000000000E+000
  0.000000000000000E+000
  0.000000000000000E+000
  0.000000000000000E+000
  0.000000000000000E+000
  0.000000000000000E+000
  0.000000000000000E+000
  0.000000000000000E+000
  0.000000000000000E+000
  0.000000000000000E+000
  0.000000000000000E+000
  0.000000000000000E+000
  0.000000000000000E+000
  0.000000000000000E+000
  0.000000000000000E+000
  0.000000000000000E+000
  0.000000000000000E+000
  0.000000000000000E+000
  0.000000000000000E+000
  0.000000000000000E+000
  0.000000000000000E+000
  0.000000000000000E+000
  0.000000000000000E+000
  0.000000000000000E+000
  0.000000000000000E+000
  0.000000000000000E+000
  0.000000000000000E+000
  0.000000000000000E+000
  0.000000000000000E+000
  0.000000000000000E+000
  0.000000000000000E+000
  0.000000000000000E+000
  0.000000000000000E+000
  0.000000000000000E+000
  0.000000000000000E+000
  0.000000000000000E+000
  0.000000000000000E+000
  0.000000000000000E+000
  0.000000000000000E+000
  0.000000000000000E+000
  0.000000000000000E+000
  0.000000000000000E+000
  0.000000000000000E+000
  0.000000000000000E+000
  0.000000000000000E+000
  0.000000000000000E+000
  0.000000000000000E+000
  0.000000000000000E+000
  0.000000000000000E+000
  0.000000000000000E+000
  0.000000000000000E+000
  0.000000000000000E+000
  0.000000000000000E+000
  0.000000000000000E+000
  0.000000000000000E+000
  0.000000000000000E+000
  0.000000000000000E+000
  0.000000000000000E+000
  0.000000000000000E+000
  0.000000000000000E+000
  0.000000000000000E+000
  0.000000000000000E+000
  0.000000000000000E+000
  0.000000000000000E+000
  0.000000000000000E+000
  0.000000000000000E+000
  0.000000000000000E+000
  0.000000000000000E+000
  0.000000000000000E+000
  0.000000000000000E+000
  0.000000000000000E+000
  0.000000000000000E+000
  0.000000000000000E+000
  0.000000000000000E+000
  0.000000000000000E+000
  0.000000000000000E+000
  0.000000000000000E+000
  0.000000000000000E+000
  0.000000000000000E+000
  0.000000000000000E+000
  0.000000000000000E+000
  0.000000000000000E+000
  0.000000000000000E+000
  0.000000000000000E+000
  0.000000000000000E+000
  0.000000000000000E+000
  0.000000000000000E+000
  0.000000000000000E+000
  0.000000000000000E+000
  0.000000000000000E+000
  0.000000000000000E+000
  0.000000000000000E+000
  0.000000000000000E+000
  0.000000000000000E+000
  0.000000000000000E+000
  0.000000000000000E+000
  0.000000000000000E+000
  0.000000000000000E+000
  0.000000000000000E+000
  0.000000000000000E+000
  0.000000000000000E+000
  0.000000000000000E+000
  0.000000000000000E+000
  0.000000000000000E+000
  0.000000000000000E+000
  0.000000000000000E+000
  0.000000000000000E+000
  0.000000000000000E+000
  0.000000000000000E+000
  0.000000000000000E+000
  0.000000000000000E+000
  0.000000000000000E+000
  0.000000000000000E+000
  0.000000000000000E+000
  0.000000000000000E+000
  0.000000000000000E+000
  0.000000000000000E+000
  0.000000000000000E+000
  0.000000000000000E+000
  0.000000000000000E+000
  0.000000000000000E+000
  0.000000000000000E+000
  0.000000000000000E+000
  0.000000000000000E+000
  0.000000000000000E+000
  0.000000000000000E+000
  0.000000000000000E+000
  0.000000000000000E+000
  0.000000000000000E+000
  0.000000000000000E+000
  0.000000000000000E+000
  0.000000000000000E+000
  0.000000000000000E+000
  0.000000000000000E+000
  0.000000000000000E+000
  0.000000000000000E+000
  0.000000000000000E+000
  0.000000000000000E+000
  0.000000000000000E+000
  0.000000000000000E+000
  0.000000000000000E+000
  0.000000000000000E+000
  0.000000000000000E+000
  0.000000000000000E+000
  0.000000000000000E+000
  0.000000000000000E+000
  0.000000000000000E+000
  0.000000000000000E+000
  0.000000000000000E+000
  0.000000000000000E+000
  0.000000000000000E+000
  0.000000000000000E+000
  0.000000000000000E+000
  0.000000000000000E+000
  0.000000000000000E+000
  0.000000000000000E+000
  0.000000000000000E+000
  0.000000000000000E+000
  0.000000000000000E+000
  0.000000000000000E+000
  0.000000000000000E+000
  0.000000000000000E+000
  0.000000000000000E+000
  0.000000000000000E+000
  0.000000000000000E+000
  0.000000000000000E+000
  0.000000000000000E+000
  0.000000000000000E+000
  0.000000000000000E+000
  0.000000000000000E+000
  0.000000000000000E+000
  0.000000000000000E+000
  0.000000000000000E+000
  0.000000000000000E+000
  0.000000000000000E+000
  0.000000000000000E+000
  0.000000000000000E+000
  0.000000000000000E+000
  0.000000000000000E+000
  0.000000000000000E+000
  0.000000000000000E+000
  0.000000000000000E+000
  0.000000000000000E+000
  0.000000000000000E+000
  0.000000000000000E+000
  0.000000000000000E+000
  0.000000000000000E+000
  0.000000000000000E+000
  0.000000000000000E+000
  0.000000000000000E+000
  0.000000000000000E+000
  0.000000000000000E+000
  0.000000000000000E+000
  0.000000000000000E+000
  0.000000000000000E+000
  0.000000000000000E+000
  0.000000000000000E+000
  0.000000000000000E+000
  0.000000000000000E+000
  0.000000000000000E+000
  0.000000000000000E+000
  0.000000000000000E+000
  0.000000000000000E+000
  0.000000000000000E+000
  0.000000000000000E+000
  0.000000000000000E+000
  0.000000000000000E+000
  0.000000000000000E+000
  0.000000000000000E+000
  0.000000000000000E+000
  0.000000000000000E+000
  0.000000000000000E+000
  0.000000000000000E+000
  0.000000000000000E+000
  0.000000000000000E+000
  0.000000000000000E+000
  0.000000000000000E+000
  0.000000000000000E+000
  0.000000000000000E+000
  0.000000000000000E+000
  0.000000000000000E+000
  0.000000000000000E+000
  0.000000000000000E+000
  0.000000000000000E+000
  0.000000000000000E+000
  0.000000000000000E+000
  0.000000000000000E+000
  0.000000000000000E+000
  0.000000000000000E+000
  0.000000000000000E+000
  0.000000000000000E+000
  0.000000000000000E+000
  0.000000000000000E+000
  0.000000000000000E+000
  0.000000000000000E+000
  0.000000000000000E+000
  0.000000000000000E+000
  0.000000000000000E+000
  0.000000000000000E+000
  0.000000000000000E+000
  0.000000000000000E+000
  0.000000000000000E+000
  0.000000000000000E+000
  0.000000000000000E+000
  0.000000000000000E+000
  0.000000000000000E+000
  0.000000000000000E+000
  0.000000000000000E+000
  0.000000000000000E+000
  0.000000000000000E+000
  0.000000000000000E+000
  0.000000000000000E+000
  0.000000000000000E+000
  0.000000000000000E+000
  0.000000000000000E+000
  0.000000000000000E+000
  0.000000000000000E+000
  0.000000000000000E+000
  0.000000000000000E+000
  0.000000000000000E+000
  0.000000000000000E+000
  0.000000000000000E+000
  0.000000000000000E+000
  0.000000000000000E+000
  0.000000000000000E+000
  0.000000000000000E+000
  0.000000000000000E+000
  0.000000000000000E+000
  0.000000000000000E+000
  0.000000000000000E+000
  0.000000000000000E+000
  0.000000000000000E+000
  0.000000000000000E+000
  0.000000000000000E+000
  0.000000000000000E+000
  0.000000000000000E+000
  0.000000000000000E+000
  0.000000000000000E+000
  0.000000000000000E+000
  0.000000000000000E+000
  0.000000000000000E+000
  0.000000000000000E+000
  0.000000000000000E+000
  0.000000000000000E+000
  0.000000000000000E+000
  0.000000000000000E+000
  0.000000000000000E+000
  0.000000000000000E+000
  0.000000000000000E+000
  0.000000000000000E+000
  0.000000000000000E+000
  0.000000000000000E+000
  0.000000000000000E+000
  0.000000000000000E+000
  0.000000000000000E+000
  0.000000000000000E+000
  0.000000000000000E+000
  0.000000000000000E+000
  0.000000000000000E+000
  0.000000000000000E+000
  0.000000000000000E+000
  0.000000000000000E+000
  0.000000000000000E+000
  0.000000000000000E+000
  0.000000000000000E+000
  0.000000000000000E+000
  0.000000000000000E+000
  0.000000000000000E+000
  0.000000000000000E+000
  0.000000000000000E+000
  0.000000000000000E+000
  0.000000000000000E+000
  0.000000000000000E+000
  0.000000000000000E+000
  0.000000000000000E+000
  0.000000000000000E+000
  0.000000000000000E+000
  0.000000000000000E+000
  0.000000000000000E+000
  0.000000000000000E+000
  0.000000000000000E+000
  0.000000000000000E+000
  0.000000000000000E+000
  0.000000000000000E+000
  0.000000000000000E+000
  0.000000000000000E+000
  0.000000000000000E+000
  0.000000000000000E+000
  0.000000000000000E+000
  0.000000000000000E+000
  0.000000000000000E+000
  0.000000000000000E+000
  0.000000000000000E+000
  0.000000000000000E+000
  0.000000000000000E+000
  0.000000000000000E+000
  0.000000000000000E+000
  0.000000000000000E+000
  0.000000000000000E+000
  0.000000000000000E+000
  0.000000000000000E+000
  0.000000000000000E+000
  0.000000000000000E+000
  0.000000000000000E+000
  0.000000000000000E+000
  0.000000000000000E+000
  0.000000000000000E+000
  0.000000000000000E+000
  0.000000000000000E+000
  0.000000000000000E+000
  0.000000000000000E+000
  0.000000000000000E+000
  0.000000000000000E+000
  0.000000000000000E+000
  0.000000000000000E+000
  0.000000000000000E+000
  0.000000000000000E+000
  0.000000000000000E+000
  0.000000000000000E+000
  0.000000000000000E+000
  0.000000000000000E+000
  0.000000000000000E+000
  0.000000000000000E+000
  0.000000000000000E+000
  0.000000000000000E+000
  0.000000000000000E+000
  0.000000000000000E+000
  0.000000000000000E+000
  0.000000000000000E+000
  0.000000000000000E+000
  0.000000000000000E+000
  0.000000000000000E+000
  0.000000000000000E+000
  0.000000000000000E+000
  0.000000000000000E+000
  0.000000000000000E+000
  0.000000000000000E+000
  0.000000000000000E+000
  0.000000000000000E+000
  0.000000000000000E+000
  0.000000000000000E+000
  0.000000000000000E+000
  0.000000000000000E+000
  0.000000000000000E+000
  0.000000000000000E+000
  0.000000000000000E+000
  0.000000000000000E+000
  0.000000000000000E+000
  0.000000000000000E+000
  0.000000000000000E+000
  0.000000000000000E+000
  0.000000000000000E+000
  0.000000000000000E+000
  0.000000000000000E+000
  0.000000000000000E+000
  0.000000000000000E+000
  0.000000000000000E+000
  0.000000000000000E+000
  0.000000000000000E+000
  0.000000000000000E+000
  0.000000000000000E+000
  0.000000000000000E+000
  0.000000000000000E+000
  0.000000000000000E+000
  0.000000000000000E+000
  0.000000000000000E+000
  0.000000000000000E+000
  0.000000000000000E+000
  0.000000000000000E+000
  0.000000000000000E+000
  0.000000000000000E+000
  0.000000000000000E+000
  0.000000000000000E+000
  0.000000000000000E+000
  0.000000000000000E+000
  0.000000000000000E+000
  0.000000000000000E+000
  0.000000000000000E+000
  0.000000000000000E+000
  0.000000000000000E+000
  0.000000000000000E+000
  0.000000000000000E+000
  0.000000000000000E+000
  0.000000000000000E+000
  0.000000000000000E+000
  0.000000000000000E+000
  0.000000000000000E+000
SCALARS elementIsPlast double 
LOOKUP_TABLE default
   1.00000000000000     
   1.00000000000000     
   1.00000000000000     
   1.00000000000000     
   1.00000000000000     
   1.00000000000000     
   1.00000000000000     
   1.00000000000000     
   1.00000000000000     
   1.00000000000000     
   1.00000000000000     
   1.00000000000000     
   1.00000000000000     
   1.00000000000000     
   1.00000000000000     
   1.00000000000000     
   1.00000000000000     
   1.00000000000000     
   1.00000000000000     
   1.00000000000000     
   1.00000000000000     
   1.00000000000000     
   1.00000000000000     
   1.00000000000000     
   1.00000000000000     
   1.00000000000000     
   1.00000000000000     
   1.00000000000000     
   1.00000000000000     
   1.00000000000000     
   1.00000000000000     
   1.00000000000000     
   1.00000000000000     
   1.00000000000000     
   1.00000000000000     
   1.00000000000000     
   1.00000000000000     
   1.00000000000000     
   1.00000000000000     
   1.00000000000000     
   1.00000000000000     
   1.00000000000000     
   1.00000000000000     
   1.00000000000000     
   1.00000000000000     
   1.00000000000000     
   1.00000000000000     
   1.00000000000000     
   1.00000000000000     
   1.00000000000000     
   1.00000000000000     
   1.00000000000000     
   1.00000000000000     
   1.00000000000000     
   1.00000000000000     
   1.00000000000000     
   1.00000000000000     
   1.00000000000000     
   1.00000000000000     
   1.00000000000000     
   1.00000000000000     
   1.00000000000000     
   1.00000000000000     
   1.00000000000000     
   1.00000000000000     
   1.00000000000000     
   1.00000000000000     
   1.00000000000000     
   1.00000000000000     
   1.00000000000000     
   1.00000000000000     
   1.00000000000000     
   1.00000000000000     
   1.00000000000000     
   1.00000000000000     
   1.00000000000000     
   1.00000000000000     
   1.00000000000000     
   1.00000000000000     
   1.00000000000000     
   1.00000000000000     
   1.00000000000000     
   1.00000000000000     
   1.00000000000000     
   1.00000000000000     
   1.00000000000000     
   1.00000000000000     
   1.00000000000000     
   1.00000000000000     
   1.00000000000000     
   1.00000000000000     
   1.00000000000000     
   1.00000000000000     
   1.00000000000000     
   1.00000000000000     
   1.00000000000000     
   1.00000000000000     
   1.00000000000000     
   1.00000000000000     
   1.00000000000000     
   1.00000000000000     
   1.00000000000000     
   1.00000000000000     
   1.00000000000000     
   1.00000000000000     
   1.00000000000000     
   1.00000000000000     
   1.00000000000000     
   1.00000000000000     
   1.00000000000000     
   1.00000000000000     
   1.00000000000000     
   1.00000000000000     
   1.00000000000000     
   1.00000000000000     
   1.00000000000000     
   1.00000000000000     
   1.00000000000000     
   1.00000000000000     
   1.00000000000000     
   1.00000000000000     
   1.00000000000000     
   1.00000000000000     
   1.00000000000000     
   1.00000000000000     
   1.00000000000000     
   1.00000000000000     
   1.00000000000000     
   1.00000000000000     
   1.00000000000000     
   1.00000000000000     
   1.00000000000000     
   1.00000000000000     
   1.00000000000000     
   1.00000000000000     
   1.00000000000000     
   1.00000000000000     
   1.00000000000000     
   1.00000000000000     
   1.00000000000000     
   1.00000000000000     
   1.00000000000000     
   1.00000000000000     
   1.00000000000000     
   1.00000000000000     
   1.00000000000000     
   1.00000000000000     
   1.00000000000000     
   1.00000000000000     
   1.00000000000000     
   1.00000000000000     
   1.00000000000000     
   1.00000000000000     
   1.00000000000000     
   1.00000000000000     
   1.00000000000000     
   1.00000000000000     
   1.00000000000000     
   1.00000000000000     
   1.00000000000000     
   1.00000000000000     
   1.00000000000000     
   1.00000000000000     
   1.00000000000000     
   1.00000000000000     
   1.00000000000000     
   1.00000000000000     
   1.00000000000000     
   1.00000000000000     
   1.00000000000000     
   1.00000000000000     
   1.00000000000000     
   1.00000000000000     
   1.00000000000000     
   1.00000000000000     
   1.00000000000000     
   1.00000000000000     
   1.00000000000000     
   1.00000000000000     
   1.00000000000000     
   1.00000000000000     
   1.00000000000000     
   1.00000000000000     
   1.00000000000000     
   1.00000000000000     
   1.00000000000000     
   1.00000000000000     
   1.00000000000000     
   1.00000000000000     
   1.00000000000000     
   1.00000000000000     
   1.00000000000000     
   1.00000000000000     
   1.00000000000000     
   1.00000000000000     
   1.00000000000000     
   1.00000000000000     
   1.00000000000000     
   1.00000000000000     
   1.00000000000000     
   1.00000000000000     
   1.00000000000000     
   1.00000000000000     
   1.00000000000000     
   1.00000000000000     
   1.00000000000000     
   1.00000000000000     
   1.00000000000000     
   1.00000000000000     
   1.00000000000000     
   1.00000000000000     
   1.00000000000000     
   1.00000000000000     
   1.00000000000000     
   1.00000000000000     
   1.00000000000000     
   1.00000000000000     
   1.00000000000000     
   1.00000000000000     
   1.00000000000000     
   1.00000000000000     
   1.00000000000000     
   1.00000000000000     
   1.00000000000000     
   1.00000000000000     
   1.00000000000000     
   1.00000000000000     
   1.00000000000000     
   1.00000000000000     
   1.00000000000000     
   1.00000000000000     
   1.00000000000000     
   1.00000000000000     
   1.00000000000000     
   1.00000000000000     
   1.00000000000000     
   1.00000000000000     
   1.00000000000000     
   1.00000000000000     
   1.00000000000000     
   1.00000000000000     
   1.00000000000000     
   1.00000000000000     
   1.00000000000000     
   1.00000000000000     
   1.00000000000000     
   1.00000000000000     
   1.00000000000000     
   1.00000000000000     
   1.00000000000000     
   1.00000000000000     
   1.00000000000000     
   1.00000000000000     
   1.00000000000000     
   1.00000000000000     
   1.00000000000000     
   1.00000000000000     
   1.00000000000000     
   1.00000000000000     
   1.00000000000000     
   1.00000000000000     
   1.00000000000000     
   1.00000000000000     
   1.00000000000000     
   1.00000000000000     
   1.00000000000000     
   1.00000000000000     
   1.00000000000000     
   1.00000000000000     
   1.00000000000000     
   1.00000000000000     
   1.00000000000000     
   1.00000000000000     
   1.00000000000000     
   1.00000000000000     
   1.00000000000000     
   1.00000000000000     
   1.00000000000000     
   1.00000000000000     
   1.00000000000000     
   1.00000000000000     
   1.00000000000000     
   1.00000000000000     
   1.00000000000000     
   1.00000000000000     
   1.00000000000000     
   1.00000000000000     
   1.00000000000000     
   1.00000000000000     
   1.00000000000000     
   1.00000000000000     
   1.00000000000000     
   1.00000000000000     
   1.00000000000000     
   1.00000000000000     
   1.00000000000000     
   1.00000000000000     
   1.00000000000000     
   1.00000000000000     
   1.00000000000000     
   1.00000000000000     
   1.00000000000000     
   1.00000000000000     
   1.00000000000000     
   1.00000000000000     
   1.00000000000000     
   1.00000000000000     
   1.00000000000000     
   1.00000000000000     
   1.00000000000000     
   1.00000000000000     
   1.00000000000000     
   1.00000000000000     
   1.00000000000000     
   1.00000000000000     
   1.00000000000000     
   1.00000000000000     
   1.00000000000000     
   1.00000000000000     
   1.00000000000000     
   1.00000000000000     
   1.00000000000000     
   1.00000000000000     
   1.00000000000000     
   1.00000000000000     
   1.00000000000000     
   1.00000000000000     
   1.00000000000000     
   1.00000000000000     
   1.00000000000000     
   1.00000000000000     
   1.00000000000000     
   1.00000000000000     
   1.00000000000000     
   1.00000000000000     
   1.00000000000000     
   1.00000000000000     
   1.00000000000000     
   1.00000000000000     
   1.00000000000000     
   1.00000000000000     
   1.00000000000000     
   1.00000000000000     
   1.00000000000000     
   1.00000000000000     
   1.00000000000000     
   1.00000000000000     
   1.00000000000000     
   1.00000000000000     
   1.00000000000000     
   1.00000000000000     
   1.00000000000000     
   1.00000000000000     
   1.00000000000000     
   1.00000000000000     
   1.00000000000000     
   1.00000000000000     
   1.00000000000000     
   1.00000000000000     
   1.00000000000000     
   1.00000000000000     
   1.00000000000000     
   1.00000000000000     
   1.00000000000000     
   1.00000000000000     
   1.00000000000000     
   1.00000000000000     
   1.00000000000000     
   1.00000000000000     
   1.00000000000000     
   1.00000000000000     
   1.00000000000000     
   1.00000000000000     
   1.00000000000000     
   1.00000000000000     
   1.00000000000000     
   1.00000000000000     
   1.00000000000000     
   1.00000000000000     
   1.00000000000000     
   1.00000000000000     
   1.00000000000000     
   1.00000000000000     
   1.00000000000000     
   1.00000000000000     
   1.00000000000000     
   1.00000000000000     
   1.00000000000000     
   1.00000000000000     
   1.00000000000000     
   1.00000000000000     
   1.00000000000000     
   1.00000000000000     
   1.00000000000000     
   1.00000000000000     
   1.00000000000000     
   1.00000000000000     
   1.00000000000000     
   1.00000000000000     
   1.00000000000000     
   1.00000000000000     
   1.00000000000000     
   1.00000000000000     
   1.00000000000000     
   1.00000000000000     
   1.00000000000000     
   1.00000000000000     
   1.00000000000000     
   1.00000000000000     
   1.00000000000000     
   1.00000000000000     
   1.00000000000000     
   1.00000000000000     
   1.00000000000000     
   1.00000000000000     
   1.00000000000000     
   1.00000000000000     
   1.00000000000000     
   1.00000000000000     
   1.00000000000000     
   1.00000000000000     
   1.00000000000000     
   1.00000000000000     
   1.00000000000000     
   1.00000000000000     
   1.00000000000000     
   1.00000000000000     
   1.00000000000000     
   1.00000000000000     
   1.00000000000000     
   1.00000000000000     
   1.00000000000000     
   1.00000000000000     
   1.00000000000000     
   1.00000000000000     
   1.00000000000000     
   1.00000000000000     
   1.00000000000000     
   1.00000000000000     
   1.00000000000000     
   1.00000000000000     
   1.00000000000000     
   1.00000000000000     
   1.00000000000000     
   1.00000000000000     
   1.00000000000000     
   1.00000000000000     
   1.00000000000000     
   1.00000000000000     
   1.00000000000000     
SCALARS poroL double 
LOOKUP_TABLE default
  0.249999995031488     
  0.249999994493867     
  0.249999993968206     
  0.249999993549924     
  0.249999993220668     
  0.249999992933824     
  0.249999992682047     
  0.249999992460857     
  0.249999992265897     
  0.249999992091549     
  0.249999991937151     
  0.249999991801384     
  0.249999991683638     
  0.249999991585505     
  0.249999991513414     
  0.249999993704082     
  0.249999993345598     
  0.249999993003569     
  0.249999992797937     
  0.249999992610224     
  0.249999992415368     
  0.249999992226427     
  0.249999992052044     
  0.249999991892560     
  0.249999991749967     
  0.249999991624229     
  0.249999991515284     
  0.249999991426094     
  0.249999991362771     
  0.249999991337285     
  0.249999992534007     
  0.249999992376069     
  0.249999992282626     
  0.249999992188369     
  0.249999992070068     
  0.249999991941253     
  0.249999991808247     
  0.249999991677223     
  0.249999991553263     
  0.249999991440573     
  0.249999991341769     
  0.249999991259700     
  0.249999991197943     
  0.249999991160089     
  0.249999991142338     
  0.249999992013849     
  0.249999991887224     
  0.249999991777574     
  0.249999991685361     
  0.249999991599051     
  0.249999991510662     
  0.249999991419755     
  0.249999991326482     
  0.249999991235575     
  0.249999991151873     
  0.249999991078999     
  0.249999991020599     
  0.249999990978980     
  0.249999990952313     
  0.249999990936426     
  0.249999991610322     
  0.249999991476452     
  0.249999991364540     
  0.249999991273815     
  0.249999991197804     
  0.249999991129542     
  0.249999991063491     
  0.249999990998214     
  0.249999990935325     
  0.249999990877260     
  0.249999990826839     
  0.249999990786544     
  0.249999990756920     
  0.249999990736156     
  0.249999990720602     
  0.249999991219472     
  0.249999991105428     
  0.249999991006615     
  0.249999990921567     
  0.249999990850341     
  0.249999990791207     
  0.249999990739621     
  0.249999990692946     
  0.249999990650417     
  0.249999990612261     
  0.249999990579042     
  0.249999990551409     
  0.249999990529256     
  0.249999990511650     
  0.249999990496762     
  0.249999990852683     
  0.249999990759678     
  0.249999990675082     
  0.249999990600490     
  0.249999990537682     
  0.249999990485859     
  0.249999990443336     
  0.249999990408291     
  0.249999990379017     
  0.249999990354224     
  0.249999990332941     
  0.249999990314156     
  0.249999990297006     
  0.249999990281147     
  0.249999990266622     
  0.249999990507038     
  0.249999990429811     
  0.249999990360093     
  0.249999990298675     
  0.249999990246097     
  0.249999990202343     
  0.249999990167161     
  0.249999990139635     
  0.249999990118334     
  0.249999990101584     
  0.249999990087606     
  0.249999990074784     
  0.249999990061889     
  0.249999990048122     
  0.249999990033248     
  0.249999990174768     
  0.249999990113050     
  0.249999990057770     
  0.249999990009188     
  0.249999989967139     
  0.249999989931851     
  0.249999989903519     
  0.249999989881755     
  0.249999989865524     
  0.249999989853314     
  0.249999989843429     
  0.249999989834224     
  0.249999989824203     
  0.249999989812461     
  0.249999989798040     
  0.249999989854773     
  0.249999989807300     
  0.249999989765209     
  0.249999989728136     
  0.249999989695995     
  0.249999989668950     
  0.249999989647123     
  0.249999989630351     
  0.249999989617880     
  0.249999989608478     
  0.249999989600818     
  0.249999989593556     
  0.249999989585231     
  0.249999989574653     
  0.249999989561421     
  0.249999989545548     
  0.249999989510628     
  0.249999989479870     
  0.249999989452939     
  0.249999989429802     
  0.249999989410435     
  0.249999989394769     
  0.249999989382584     
  0.249999989373394     
  0.249999989366312     
  0.249999989360199     
  0.249999989353920     
  0.249999989346447     
  0.249999989336700     
  0.249999989324103     
  0.249999989244889     
  0.249999989220708     
  0.249999989199752     
  0.249999989181811     
  0.249999989166728     
  0.249999989154361     
  0.249999989144519     
  0.249999989136911     
  0.249999989131052     
  0.249999989126280     
  0.249999989121775     
  0.249999989116697     
  0.249999989110186     
  0.249999989101296     
  0.249999989088653     
  0.249999988950246     
  0.249999988935517     
  0.249999988923325     
  0.249999988913425     
  0.249999988905605     
  0.249999988899625     
  0.249999988895211     
  0.249999988892016     
  0.249999988889608     
  0.249999988887453     
  0.249999988884944     
  0.249999988881373     
  0.249999988875928     
  0.249999988867756     
  0.249999988855907     
  0.249999988659712     
  0.249999988653549     
  0.249999988649328     
  0.249999988646782     
  0.249999988645650     
  0.249999988645644     
  0.249999988646427     
  0.249999988647613     
  0.249999988648786     
  0.249999988649475     
  0.249999988649142     
  0.249999988647184     
  0.249999988642906     
  0.249999988635723     
  0.249999988625410     
  0.249999988371709     
  0.249999988373501     
  0.249999988376734     
  0.249999988381104     
  0.249999988386335     
  0.249999988392116     
  0.249999988398061     
  0.249999988403743     
  0.249999988408714     
  0.249999988412508     
  0.249999988414633     
  0.249999988414583     
  0.249999988411815     
  0.249999988405913     
  0.249999988396633     
  0.249999988085102     
  0.249999988094385     
  0.249999988104706     
  0.249999988115818     
  0.249999988127379     
  0.249999988139003     
  0.249999988150233     
  0.249999988160595     
  0.249999988169618     
  0.249999988176820     
  0.249999988181759     
  0.249999988184055     
  0.249999988183269     
  0.249999988178899     
  0.249999988170213     
  0.249999987798293     
  0.249999987815109     
  0.249999987832597     
  0.249999987850528     
  0.249999987868561     
  0.249999987886238     
  0.249999987903043     
  0.249999987918424     
  0.249999987931875     
  0.249999987943013     
  0.249999987951402     
  0.249999987956590     
  0.249999987958099     
  0.249999987955366     
  0.249999987947816     
  0.249999987510343     
  0.249999987534840     
  0.249999987559743     
  0.249999987584833     
  0.249999987609721     
  0.249999987633891     
  0.249999987656732     
  0.249999987677689     
  0.249999987696264     
  0.249999987711933     
  0.249999987724212     
  0.249999987732546     
  0.249999987736297     
  0.249999987735324     
  0.249999987729573     
  0.249999987220454     
  0.249999987252995     
  0.249999987285752     
  0.249999987318508     
  0.249999987350817     
  0.249999987382079     
  0.249999987411640     
  0.249999987438865     
  0.249999987463131     
  0.249999987483800     
  0.249999987500198     
  0.249999987511745     
  0.249999987518151     
  0.249999987519295     
  0.249999987515532     
  0.249999986928111     
  0.249999986969200     
  0.249999987010390     
  0.249999987051445     
  0.249999987091863     
  0.249999987130958     
  0.249999987167974     
  0.249999987202128     
  0.249999987232642     
  0.249999987258685     
  0.249999987279559     
  0.249999987294845     
  0.249999987304270     
  0.249999987307992     
  0.249999987305837     
  0.249999986632977     
  0.249999986683259     
  0.249999986733563     
  0.249999986783639     
  0.249999986832921     
  0.249999986880623     
  0.249999986925833     
  0.249999986967626     
  0.249999987004969     
  0.249999987036933     
  0.249999987062845     
  0.249999987082305     
  0.249999987095239     
  0.249999987101501     
  0.249999987100960     
  0.249999986334899     
  0.249999986395138     
  0.249999986455329     
  0.249999986515204     
  0.249999986574122     
  0.249999986631191     
  0.249999986685363     
  0.249999986735481     
  0.249999986780306     
  0.249999986818798     
  0.249999986850294     
  0.249999986874431     
  0.249999986891055     
  0.249999986900010     
  0.249999986901906     
  0.249999986033861     
  0.249999986104980     
  0.249999986175936     
  0.249999986246448     
  0.249999986315780     
  0.249999986382913     
  0.249999986446677     
  0.249999986505686     
  0.249999986558548     
  0.249999986604158     
  0.249999986641748     
  0.249999986670977     
  0.249999986691584     
  0.249999986703918     
  0.249999986708639     
  0.249999985730007     
  0.249999985813114     
  0.249999985895902     
  0.249999985977997     
  0.249999986058497     
  0.249999986136227     
  0.249999986209880     
  0.249999986277983     
  0.249999986339169     
  0.249999986392322     
  0.249999986436582     
  0.249999986471412     
  0.249999986496712     
  0.249999986513020     
  0.249999986521123     
  0.249999985423453     
  0.249999985520121     
  0.249999985616150     
  0.249999985710956     
  0.249999985803310     
  0.249999985891788     
  0.249999985975044     
  0.249999986051822     
  0.249999986121108     
  0.249999986181968     
  0.249999986233479     
  0.249999986274835     
  0.249999986305829     
  0.249999986326899     
  0.249999986339174     
  0.249999985114508     
  0.249999985227001     
  0.249999985338259     
  0.249999985447153     
  0.249999985551808     
  0.249999985650541     
  0.249999985742301     
  0.249999985826520     
  0.249999985902928     
  0.249999985971139     
  0.249999986030407     
  0.249999986079579     
  0.249999986117700     
  0.249999986144848     
  0.249999986162421     
  0.249999984803613     
  0.249999984935565     
  0.249999985064985     
  0.249999985189426     
  0.249999985306054     
  0.249999985413498     
  0.249999985511801     
  0.249999985601479     
  0.249999985683244     
  0.249999985757579     
  0.249999985824413     
  0.249999985882718     
  0.249999985930195     
  0.249999985965593     
  0.249999985990200     
  0.249999984491850     
  0.249999984649548     
  0.249999984801272     
  0.249999984941649     
  0.249999985068044     
  0.249999985181504     
  0.249999985283734     
  0.249999985376431     
  0.249999985461203     
  0.249999985539409     
  0.249999985611987     
  0.249999985679166     
  0.249999985739160     
  0.249999985786658     
  0.249999985821425     
  0.249999984182569     
  0.249999984378090     
  0.249999984555115     
  0.249999984707204     
  0.249999984839181     
  0.249999984955190     
  0.249999985058469     
  0.249999985151593     
  0.249999985236718     
  0.249999985315830     
  0.249999985390714     
  0.249999985463207     
  0.249999985534531     
  0.249999985602750     
  0.249999985653286     
  0.249999983894416     
  0.249999984142326     
  0.249999984332091     
  0.249999984487959     
  0.249999984620369     
  0.249999984735320     
  0.249999984836763     
  0.249999984927639     
  0.249999985010378     
  0.249999985087153     
  0.249999985160161     
  0.249999985231821     
  0.249999985305793     
  0.249999985387639     
  0.249999985485173     
