# vtk DataFile Version 3.0
vtk output
ASCII
DATASET UNSTRUCTURED_GRID
POINTS       496 double 
  0.00000000E+00  3.00000000E+02  0.00000000E+00
  0.00000000E+00  2.80000000E+02  0.00000000E+00
  0.00000000E+00  2.60000000E+02  0.00000000E+00
  0.00000000E+00  2.40000000E+02  0.00000000E+00
  0.00000000E+00  2.20000000E+02  0.00000000E+00
  0.00000000E+00  2.00000000E+02  0.00000000E+00
  0.00000000E+00  1.80000000E+02  0.00000000E+00
  0.00000000E+00  1.60000000E+02  0.00000000E+00
  0.00000000E+00  1.40000000E+02  0.00000000E+00
  0.00000000E+00  1.20000000E+02  0.00000000E+00
  0.00000000E+00  1.00000000E+02  0.00000000E+00
  0.00000000E+00  8.00000000E+01  0.00000000E+00
  0.00000000E+00  6.00000000E+01  0.00000000E+00
  0.00000000E+00  4.00000000E+01  0.00000000E+00
  0.00000000E+00  2.00000000E+01  0.00000000E+00
  0.00000000E+00  4.99600361E-14  0.00000000E+00
  2.00000000E+01  3.00000000E+02  0.00000000E+00
  2.00000000E+01  2.80000000E+02  0.00000000E+00
  2.00000000E+01  2.60000000E+02  0.00000000E+00
  2.00000000E+01  2.40000000E+02  0.00000000E+00
  2.00000000E+01  2.20000000E+02  0.00000000E+00
  2.00000000E+01  2.00000000E+02  0.00000000E+00
  2.00000000E+01  1.80000000E+02  0.00000000E+00
  2.00000000E+01  1.60000000E+02  0.00000000E+00
  2.00000000E+01  1.40000000E+02  0.00000000E+00
  2.00000000E+01  1.20000000E+02  0.00000000E+00
  2.00000000E+01  1.00000000E+02  0.00000000E+00
  2.00000000E+01  8.00000000E+01  0.00000000E+00
  2.00000000E+01  6.00000000E+01  0.00000000E+00
  2.00000000E+01  4.00000000E+01  0.00000000E+00
  2.00000000E+01  2.00000000E+01  0.00000000E+00
  2.00000000E+01  4.99600361E-14  0.00000000E+00
  4.00000000E+01  3.00000000E+02  0.00000000E+00
  4.00000000E+01  2.80000000E+02  0.00000000E+00
  4.00000000E+01  2.60000000E+02  0.00000000E+00
  4.00000000E+01  2.40000000E+02  0.00000000E+00
  4.00000000E+01  2.20000000E+02  0.00000000E+00
  4.00000000E+01  2.00000000E+02  0.00000000E+00
  4.00000000E+01  1.80000000E+02  0.00000000E+00
  4.00000000E+01  1.60000000E+02  0.00000000E+00
  4.00000000E+01  1.40000000E+02  0.00000000E+00
  4.00000000E+01  1.20000000E+02  0.00000000E+00
  4.00000000E+01  1.00000000E+02  0.00000000E+00
  4.00000000E+01  8.00000000E+01  0.00000000E+00
  4.00000000E+01  6.00000000E+01  0.00000000E+00
  4.00000000E+01  4.00000000E+01  0.00000000E+00
  4.00000000E+01  2.00000000E+01  0.00000000E+00
  4.00000000E+01  4.99600361E-14  0.00000000E+00
  6.00000000E+01  3.00000000E+02  0.00000000E+00
  6.00000000E+01  2.80000000E+02  0.00000000E+00
  6.00000000E+01  2.60000000E+02  0.00000000E+00
  6.00000000E+01  2.40000000E+02  0.00000000E+00
  6.00000000E+01  2.20000000E+02  0.00000000E+00
  6.00000000E+01  2.00000000E+02  0.00000000E+00
  6.00000000E+01  1.80000000E+02  0.00000000E+00
  6.00000000E+01  1.60000000E+02  0.00000000E+00
  6.00000000E+01  1.40000000E+02  0.00000000E+00
  6.00000000E+01  1.20000000E+02  0.00000000E+00
  6.00000000E+01  1.00000000E+02  0.00000000E+00
  6.00000000E+01  8.00000000E+01  0.00000000E+00
  6.00000000E+01  6.00000000E+01  0.00000000E+00
  6.00000000E+01  4.00000000E+01  0.00000000E+00
  6.00000000E+01  2.00000000E+01  0.00000000E+00
  6.00000000E+01  4.99600361E-14  0.00000000E+00
  8.00000000E+01  3.00000000E+02  0.00000000E+00
  8.00000000E+01  2.80000000E+02  0.00000000E+00
  8.00000000E+01  2.60000000E+02  0.00000000E+00
  8.00000000E+01  2.40000000E+02  0.00000000E+00
  8.00000000E+01  2.20000000E+02  0.00000000E+00
  8.00000000E+01  2.00000000E+02  0.00000000E+00
  8.00000000E+01  1.80000000E+02  0.00000000E+00
  8.00000000E+01  1.60000000E+02  0.00000000E+00
  8.00000000E+01  1.40000000E+02  0.00000000E+00
  8.00000000E+01  1.20000000E+02  0.00000000E+00
  8.00000000E+01  1.00000000E+02  0.00000000E+00
  8.00000000E+01  8.00000000E+01  0.00000000E+00
  8.00000000E+01  6.00000000E+01  0.00000000E+00
  8.00000000E+01  4.00000000E+01  0.00000000E+00
  8.00000000E+01  2.00000000E+01  0.00000000E+00
  8.00000000E+01  4.99600361E-14  0.00000000E+00
  1.00000000E+02  3.00000000E+02  0.00000000E+00
  1.00000000E+02  2.80000000E+02  0.00000000E+00
  1.00000000E+02  2.60000000E+02  0.00000000E+00
  1.00000000E+02  2.40000000E+02  0.00000000E+00
  1.00000000E+02  2.20000000E+02  0.00000000E+00
  1.00000000E+02  2.00000000E+02  0.00000000E+00
  1.00000000E+02  1.80000000E+02  0.00000000E+00
  1.00000000E+02  1.60000000E+02  0.00000000E+00
  1.00000000E+02  1.40000000E+02  0.00000000E+00
  1.00000000E+02  1.20000000E+02  0.00000000E+00
  1.00000000E+02  1.00000000E+02  0.00000000E+00
  1.00000000E+02  8.00000000E+01  0.00000000E+00
  1.00000000E+02  6.00000000E+01  0.00000000E+00
  1.00000000E+02  4.00000000E+01  0.00000000E+00
  1.00000000E+02  2.00000000E+01  0.00000000E+00
  1.00000000E+02  4.99600361E-14  0.00000000E+00
  1.20000000E+02  3.00000000E+02  0.00000000E+00
  1.20000000E+02  2.80000000E+02  0.00000000E+00
  1.20000000E+02  2.60000000E+02  0.00000000E+00
  1.20000000E+02  2.40000000E+02  0.00000000E+00
  1.20000000E+02  2.20000000E+02  0.00000000E+00
  1.20000000E+02  2.00000000E+02  0.00000000E+00
  1.20000000E+02  1.80000000E+02  0.00000000E+00
  1.20000000E+02  1.60000000E+02  0.00000000E+00
  1.20000000E+02  1.40000000E+02  0.00000000E+00
  1.20000000E+02  1.20000000E+02  0.00000000E+00
  1.20000000E+02  1.00000000E+02  0.00000000E+00
  1.20000000E+02  8.00000000E+01  0.00000000E+00
  1.20000000E+02  6.00000000E+01  0.00000000E+00
  1.20000000E+02  4.00000000E+01  0.00000000E+00
  1.20000000E+02  2.00000000E+01  0.00000000E+00
  1.20000000E+02  4.99600361E-14  0.00000000E+00
  1.40000000E+02  3.00000000E+02  0.00000000E+00
  1.40000000E+02  2.80000000E+02  0.00000000E+00
  1.40000000E+02  2.60000000E+02  0.00000000E+00
  1.40000000E+02  2.40000000E+02  0.00000000E+00
  1.40000000E+02  2.20000000E+02  0.00000000E+00
  1.40000000E+02  2.00000000E+02  0.00000000E+00
  1.40000000E+02  1.80000000E+02  0.00000000E+00
  1.40000000E+02  1.60000000E+02  0.00000000E+00
  1.40000000E+02  1.40000000E+02  0.00000000E+00
  1.40000000E+02  1.20000000E+02  0.00000000E+00
  1.40000000E+02  1.00000000E+02  0.00000000E+00
  1.40000000E+02  8.00000000E+01  0.00000000E+00
  1.40000000E+02  6.00000000E+01  0.00000000E+00
  1.40000000E+02  4.00000000E+01  0.00000000E+00
  1.40000000E+02  2.00000000E+01  0.00000000E+00
  1.40000000E+02  4.99600361E-14  0.00000000E+00
  1.60000000E+02  3.00000000E+02  0.00000000E+00
  1.60000000E+02  2.80000000E+02  0.00000000E+00
  1.60000000E+02  2.60000000E+02  0.00000000E+00
  1.60000000E+02  2.40000000E+02  0.00000000E+00
  1.60000000E+02  2.20000000E+02  0.00000000E+00
  1.60000000E+02  2.00000000E+02  0.00000000E+00
  1.60000000E+02  1.80000000E+02  0.00000000E+00
  1.60000000E+02  1.60000000E+02  0.00000000E+00
  1.60000000E+02  1.40000000E+02  0.00000000E+00
  1.60000000E+02  1.20000000E+02  0.00000000E+00
  1.60000000E+02  1.00000000E+02  0.00000000E+00
  1.60000000E+02  8.00000000E+01  0.00000000E+00
  1.60000000E+02  6.00000000E+01  0.00000000E+00
  1.60000000E+02  4.00000000E+01  0.00000000E+00
  1.60000000E+02  2.00000000E+01  0.00000000E+00
  1.60000000E+02  4.99600361E-14  0.00000000E+00
  1.80000000E+02  3.00000000E+02  0.00000000E+00
  1.80000000E+02  2.80000000E+02  0.00000000E+00
  1.80000000E+02  2.60000000E+02  0.00000000E+00
  1.80000000E+02  2.40000000E+02  0.00000000E+00
  1.80000000E+02  2.20000000E+02  0.00000000E+00
  1.80000000E+02  2.00000000E+02  0.00000000E+00
  1.80000000E+02  1.80000000E+02  0.00000000E+00
  1.80000000E+02  1.60000000E+02  0.00000000E+00
  1.80000000E+02  1.40000000E+02  0.00000000E+00
  1.80000000E+02  1.20000000E+02  0.00000000E+00
  1.80000000E+02  1.00000000E+02  0.00000000E+00
  1.80000000E+02  8.00000000E+01  0.00000000E+00
  1.80000000E+02  6.00000000E+01  0.00000000E+00
  1.80000000E+02  4.00000000E+01  0.00000000E+00
  1.80000000E+02  2.00000000E+01  0.00000000E+00
  1.80000000E+02  4.99600361E-14  0.00000000E+00
  2.00000000E+02  3.00000000E+02  0.00000000E+00
  2.00000000E+02  2.80000000E+02  0.00000000E+00
  2.00000000E+02  2.60000000E+02  0.00000000E+00
  2.00000000E+02  2.40000000E+02  0.00000000E+00
  2.00000000E+02  2.20000000E+02  0.00000000E+00
  2.00000000E+02  2.00000000E+02  0.00000000E+00
  2.00000000E+02  1.80000000E+02  0.00000000E+00
  2.00000000E+02  1.60000000E+02  0.00000000E+00
  2.00000000E+02  1.40000000E+02  0.00000000E+00
  2.00000000E+02  1.20000000E+02  0.00000000E+00
  2.00000000E+02  1.00000000E+02  0.00000000E+00
  2.00000000E+02  8.00000000E+01  0.00000000E+00
  2.00000000E+02  6.00000000E+01  0.00000000E+00
  2.00000000E+02  4.00000000E+01  0.00000000E+00
  2.00000000E+02  2.00000000E+01  0.00000000E+00
  2.00000000E+02  4.99600361E-14  0.00000000E+00
  2.20000000E+02  3.00000000E+02  0.00000000E+00
  2.20000000E+02  2.80000000E+02  0.00000000E+00
  2.20000000E+02  2.60000000E+02  0.00000000E+00
  2.20000000E+02  2.40000000E+02  0.00000000E+00
  2.20000000E+02  2.20000000E+02  0.00000000E+00
  2.20000000E+02  2.00000000E+02  0.00000000E+00
  2.20000000E+02  1.80000000E+02  0.00000000E+00
  2.20000000E+02  1.60000000E+02  0.00000000E+00
  2.20000000E+02  1.40000000E+02  0.00000000E+00
  2.20000000E+02  1.20000000E+02  0.00000000E+00
  2.20000000E+02  1.00000000E+02  0.00000000E+00
  2.20000000E+02  8.00000000E+01  0.00000000E+00
  2.20000000E+02  6.00000000E+01  0.00000000E+00
  2.20000000E+02  4.00000000E+01  0.00000000E+00
  2.20000000E+02  2.00000000E+01  0.00000000E+00
  2.20000000E+02  4.99600361E-14  0.00000000E+00
  2.40000000E+02  3.00000000E+02  0.00000000E+00
  2.40000000E+02  2.80000000E+02  0.00000000E+00
  2.40000000E+02  2.60000000E+02  0.00000000E+00
  2.40000000E+02  2.40000000E+02  0.00000000E+00
  2.40000000E+02  2.20000000E+02  0.00000000E+00
  2.40000000E+02  2.00000000E+02  0.00000000E+00
  2.40000000E+02  1.80000000E+02  0.00000000E+00
  2.40000000E+02  1.60000000E+02  0.00000000E+00
  2.40000000E+02  1.40000000E+02  0.00000000E+00
  2.40000000E+02  1.20000000E+02  0.00000000E+00
  2.40000000E+02  1.00000000E+02  0.00000000E+00
  2.40000000E+02  8.00000000E+01  0.00000000E+00
  2.40000000E+02  6.00000000E+01  0.00000000E+00
  2.40000000E+02  4.00000000E+01  0.00000000E+00
  2.40000000E+02  2.00000000E+01  0.00000000E+00
  2.40000000E+02  4.99600361E-14  0.00000000E+00
  2.60000000E+02  3.00000000E+02  0.00000000E+00
  2.60000000E+02  2.80000000E+02  0.00000000E+00
  2.60000000E+02  2.60000000E+02  0.00000000E+00
  2.60000000E+02  2.40000000E+02  0.00000000E+00
  2.60000000E+02  2.20000000E+02  0.00000000E+00
  2.60000000E+02  2.00000000E+02  0.00000000E+00
  2.60000000E+02  1.80000000E+02  0.00000000E+00
  2.60000000E+02  1.60000000E+02  0.00000000E+00
  2.60000000E+02  1.40000000E+02  0.00000000E+00
  2.60000000E+02  1.20000000E+02  0.00000000E+00
  2.60000000E+02  1.00000000E+02  0.00000000E+00
  2.60000000E+02  8.00000000E+01  0.00000000E+00
  2.60000000E+02  6.00000000E+01  0.00000000E+00
  2.60000000E+02  4.00000000E+01  0.00000000E+00
  2.60000000E+02  2.00000000E+01  0.00000000E+00
  2.60000000E+02  4.99600361E-14  0.00000000E+00
  2.80000000E+02  3.00000000E+02  0.00000000E+00
  2.80000000E+02  2.80000000E+02  0.00000000E+00
  2.80000000E+02  2.60000000E+02  0.00000000E+00
  2.80000000E+02  2.40000000E+02  0.00000000E+00
  2.80000000E+02  2.20000000E+02  0.00000000E+00
  2.80000000E+02  2.00000000E+02  0.00000000E+00
  2.80000000E+02  1.80000000E+02  0.00000000E+00
  2.80000000E+02  1.60000000E+02  0.00000000E+00
  2.80000000E+02  1.40000000E+02  0.00000000E+00
  2.80000000E+02  1.20000000E+02  0.00000000E+00
  2.80000000E+02  1.00000000E+02  0.00000000E+00
  2.80000000E+02  8.00000000E+01  0.00000000E+00
  2.80000000E+02  6.00000000E+01  0.00000000E+00
  2.80000000E+02  4.00000000E+01  0.00000000E+00
  2.80000000E+02  2.00000000E+01  0.00000000E+00
  2.80000000E+02  4.99600361E-14  0.00000000E+00
  3.00000000E+02  3.00000000E+02  0.00000000E+00
  3.00000000E+02  2.80000000E+02  0.00000000E+00
  3.00000000E+02  2.60000000E+02  0.00000000E+00
  3.00000000E+02  2.40000000E+02  0.00000000E+00
  3.00000000E+02  2.20000000E+02  0.00000000E+00
  3.00000000E+02  2.00000000E+02  0.00000000E+00
  3.00000000E+02  1.80000000E+02  0.00000000E+00
  3.00000000E+02  1.60000000E+02  0.00000000E+00
  3.00000000E+02  1.40000000E+02  0.00000000E+00
  3.00000000E+02  1.20000000E+02  0.00000000E+00
  3.00000000E+02  1.00000000E+02  0.00000000E+00
  3.00000000E+02  8.00000000E+01  0.00000000E+00
  3.00000000E+02  6.00000000E+01  0.00000000E+00
  3.00000000E+02  4.00000000E+01  0.00000000E+00
  3.00000000E+02  2.00000000E+01  0.00000000E+00
  3.00000000E+02  4.99600361E-14  0.00000000E+00
  3.20000000E+02  3.00000000E+02  0.00000000E+00
  3.20000000E+02  2.80000000E+02  0.00000000E+00
  3.20000000E+02  2.60000000E+02  0.00000000E+00
  3.20000000E+02  2.40000000E+02  0.00000000E+00
  3.20000000E+02  2.20000000E+02  0.00000000E+00
  3.20000000E+02  2.00000000E+02  0.00000000E+00
  3.20000000E+02  1.80000000E+02  0.00000000E+00
  3.20000000E+02  1.60000000E+02  0.00000000E+00
  3.20000000E+02  1.40000000E+02  0.00000000E+00
  3.20000000E+02  1.20000000E+02  0.00000000E+00
  3.20000000E+02  1.00000000E+02  0.00000000E+00
  3.20000000E+02  8.00000000E+01  0.00000000E+00
  3.20000000E+02  6.00000000E+01  0.00000000E+00
  3.20000000E+02  4.00000000E+01  0.00000000E+00
  3.20000000E+02  2.00000000E+01  0.00000000E+00
  3.20000000E+02  4.99600361E-14  0.00000000E+00
  3.40000000E+02  3.00000000E+02  0.00000000E+00
  3.40000000E+02  2.80000000E+02  0.00000000E+00
  3.40000000E+02  2.60000000E+02  0.00000000E+00
  3.40000000E+02  2.40000000E+02  0.00000000E+00
  3.40000000E+02  2.20000000E+02  0.00000000E+00
  3.40000000E+02  2.00000000E+02  0.00000000E+00
  3.40000000E+02  1.80000000E+02  0.00000000E+00
  3.40000000E+02  1.60000000E+02  0.00000000E+00
  3.40000000E+02  1.40000000E+02  0.00000000E+00
  3.40000000E+02  1.20000000E+02  0.00000000E+00
  3.40000000E+02  1.00000000E+02  0.00000000E+00
  3.40000000E+02  8.00000000E+01  0.00000000E+00
  3.40000000E+02  6.00000000E+01  0.00000000E+00
  3.40000000E+02  4.00000000E+01  0.00000000E+00
  3.40000000E+02  2.00000000E+01  0.00000000E+00
  3.40000000E+02  4.99600361E-14  0.00000000E+00
  3.60000000E+02  3.00000000E+02  0.00000000E+00
  3.60000000E+02  2.80000000E+02  0.00000000E+00
  3.60000000E+02  2.60000000E+02  0.00000000E+00
  3.60000000E+02  2.40000000E+02  0.00000000E+00
  3.60000000E+02  2.20000000E+02  0.00000000E+00
  3.60000000E+02  2.00000000E+02  0.00000000E+00
  3.60000000E+02  1.80000000E+02  0.00000000E+00
  3.60000000E+02  1.60000000E+02  0.00000000E+00
  3.60000000E+02  1.40000000E+02  0.00000000E+00
  3.60000000E+02  1.20000000E+02  0.00000000E+00
  3.60000000E+02  1.00000000E+02  0.00000000E+00
  3.60000000E+02  8.00000000E+01  0.00000000E+00
  3.60000000E+02  6.00000000E+01  0.00000000E+00
  3.60000000E+02  4.00000000E+01  0.00000000E+00
  3.60000000E+02  2.00000000E+01  0.00000000E+00
  3.60000000E+02  4.99600361E-14  0.00000000E+00
  3.80000000E+02  3.00000000E+02  0.00000000E+00
  3.80000000E+02  2.80000000E+02  0.00000000E+00
  3.80000000E+02  2.60000000E+02  0.00000000E+00
  3.80000000E+02  2.40000000E+02  0.00000000E+00
  3.80000000E+02  2.20000000E+02  0.00000000E+00
  3.80000000E+02  2.00000000E+02  0.00000000E+00
  3.80000000E+02  1.80000000E+02  0.00000000E+00
  3.80000000E+02  1.60000000E+02  0.00000000E+00
  3.80000000E+02  1.40000000E+02  0.00000000E+00
  3.80000000E+02  1.20000000E+02  0.00000000E+00
  3.80000000E+02  1.00000000E+02  0.00000000E+00
  3.80000000E+02  8.00000000E+01  0.00000000E+00
  3.80000000E+02  6.00000000E+01  0.00000000E+00
  3.80000000E+02  4.00000000E+01  0.00000000E+00
  3.80000000E+02  2.00000000E+01  0.00000000E+00
  3.80000000E+02  4.99600361E-14  0.00000000E+00
  4.00000000E+02  3.00000000E+02  0.00000000E+00
  4.00000000E+02  2.80000000E+02  0.00000000E+00
  4.00000000E+02  2.60000000E+02  0.00000000E+00
  4.00000000E+02  2.40000000E+02  0.00000000E+00
  4.00000000E+02  2.20000000E+02  0.00000000E+00
  4.00000000E+02  2.00000000E+02  0.00000000E+00
  4.00000000E+02  1.80000000E+02  0.00000000E+00
  4.00000000E+02  1.60000000E+02  0.00000000E+00
  4.00000000E+02  1.40000000E+02  0.00000000E+00
  4.00000000E+02  1.20000000E+02  0.00000000E+00
  4.00000000E+02  1.00000000E+02  0.00000000E+00
  4.00000000E+02  8.00000000E+01  0.00000000E+00
  4.00000000E+02  6.00000000E+01  0.00000000E+00
  4.00000000E+02  4.00000000E+01  0.00000000E+00
  4.00000000E+02  2.00000000E+01  0.00000000E+00
  4.00000000E+02  4.99600361E-14  0.00000000E+00
  4.20000000E+02  3.00000000E+02  0.00000000E+00
  4.20000000E+02  2.80000000E+02  0.00000000E+00
  4.20000000E+02  2.60000000E+02  0.00000000E+00
  4.20000000E+02  2.40000000E+02  0.00000000E+00
  4.20000000E+02  2.20000000E+02  0.00000000E+00
  4.20000000E+02  2.00000000E+02  0.00000000E+00
  4.20000000E+02  1.80000000E+02  0.00000000E+00
  4.20000000E+02  1.60000000E+02  0.00000000E+00
  4.20000000E+02  1.40000000E+02  0.00000000E+00
  4.20000000E+02  1.20000000E+02  0.00000000E+00
  4.20000000E+02  1.00000000E+02  0.00000000E+00
  4.20000000E+02  8.00000000E+01  0.00000000E+00
  4.20000000E+02  6.00000000E+01  0.00000000E+00
  4.20000000E+02  4.00000000E+01  0.00000000E+00
  4.20000000E+02  2.00000000E+01  0.00000000E+00
  4.20000000E+02  4.99600361E-14  0.00000000E+00
  4.40000000E+02  3.00000000E+02  0.00000000E+00
  4.40000000E+02  2.80000000E+02  0.00000000E+00
  4.40000000E+02  2.60000000E+02  0.00000000E+00
  4.40000000E+02  2.40000000E+02  0.00000000E+00
  4.40000000E+02  2.20000000E+02  0.00000000E+00
  4.40000000E+02  2.00000000E+02  0.00000000E+00
  4.40000000E+02  1.80000000E+02  0.00000000E+00
  4.40000000E+02  1.60000000E+02  0.00000000E+00
  4.40000000E+02  1.40000000E+02  0.00000000E+00
  4.40000000E+02  1.20000000E+02  0.00000000E+00
  4.40000000E+02  1.00000000E+02  0.00000000E+00
  4.40000000E+02  8.00000000E+01  0.00000000E+00
  4.40000000E+02  6.00000000E+01  0.00000000E+00
  4.40000000E+02  4.00000000E+01  0.00000000E+00
  4.40000000E+02  2.00000000E+01  0.00000000E+00
  4.40000000E+02  4.99600361E-14  0.00000000E+00
  4.60000000E+02  3.00000000E+02  0.00000000E+00
  4.60000000E+02  2.80000000E+02  0.00000000E+00
  4.60000000E+02  2.60000000E+02  0.00000000E+00
  4.60000000E+02  2.40000000E+02  0.00000000E+00
  4.60000000E+02  2.20000000E+02  0.00000000E+00
  4.60000000E+02  2.00000000E+02  0.00000000E+00
  4.60000000E+02  1.80000000E+02  0.00000000E+00
  4.60000000E+02  1.60000000E+02  0.00000000E+00
  4.60000000E+02  1.40000000E+02  0.00000000E+00
  4.60000000E+02  1.20000000E+02  0.00000000E+00
  4.60000000E+02  1.00000000E+02  0.00000000E+00
  4.60000000E+02  8.00000000E+01  0.00000000E+00
  4.60000000E+02  6.00000000E+01  0.00000000E+00
  4.60000000E+02  4.00000000E+01  0.00000000E+00
  4.60000000E+02  2.00000000E+01  0.00000000E+00
  4.60000000E+02  4.99600361E-14  0.00000000E+00
  4.80000000E+02  3.00000000E+02  0.00000000E+00
  4.80000000E+02  2.80000000E+02  0.00000000E+00
  4.80000000E+02  2.60000000E+02  0.00000000E+00
  4.80000000E+02  2.40000000E+02  0.00000000E+00
  4.80000000E+02  2.20000000E+02  0.00000000E+00
  4.80000000E+02  2.00000000E+02  0.00000000E+00
  4.80000000E+02  1.80000000E+02  0.00000000E+00
  4.80000000E+02  1.60000000E+02  0.00000000E+00
  4.80000000E+02  1.40000000E+02  0.00000000E+00
  4.80000000E+02  1.20000000E+02  0.00000000E+00
  4.80000000E+02  1.00000000E+02  0.00000000E+00
  4.80000000E+02  8.00000000E+01  0.00000000E+00
  4.80000000E+02  6.00000000E+01  0.00000000E+00
  4.80000000E+02  4.00000000E+01  0.00000000E+00
  4.80000000E+02  2.00000000E+01  0.00000000E+00
  4.80000000E+02  4.99600361E-14  0.00000000E+00
  5.00000000E+02  3.00000000E+02  0.00000000E+00
  5.00000000E+02  2.80000000E+02  0.00000000E+00
  5.00000000E+02  2.60000000E+02  0.00000000E+00
  5.00000000E+02  2.40000000E+02  0.00000000E+00
  5.00000000E+02  2.20000000E+02  0.00000000E+00
  5.00000000E+02  2.00000000E+02  0.00000000E+00
  5.00000000E+02  1.80000000E+02  0.00000000E+00
  5.00000000E+02  1.60000000E+02  0.00000000E+00
  5.00000000E+02  1.40000000E+02  0.00000000E+00
  5.00000000E+02  1.20000000E+02  0.00000000E+00
  5.00000000E+02  1.00000000E+02  0.00000000E+00
  5.00000000E+02  8.00000000E+01  0.00000000E+00
  5.00000000E+02  6.00000000E+01  0.00000000E+00
  5.00000000E+02  4.00000000E+01  0.00000000E+00
  5.00000000E+02  2.00000000E+01  0.00000000E+00
  5.00000000E+02  4.99600361E-14  0.00000000E+00
  5.20000000E+02  3.00000000E+02  0.00000000E+00
  5.20000000E+02  2.80000000E+02  0.00000000E+00
  5.20000000E+02  2.60000000E+02  0.00000000E+00
  5.20000000E+02  2.40000000E+02  0.00000000E+00
  5.20000000E+02  2.20000000E+02  0.00000000E+00
  5.20000000E+02  2.00000000E+02  0.00000000E+00
  5.20000000E+02  1.80000000E+02  0.00000000E+00
  5.20000000E+02  1.60000000E+02  0.00000000E+00
  5.20000000E+02  1.40000000E+02  0.00000000E+00
  5.20000000E+02  1.20000000E+02  0.00000000E+00
  5.20000000E+02  1.00000000E+02  0.00000000E+00
  5.20000000E+02  8.00000000E+01  0.00000000E+00
  5.20000000E+02  6.00000000E+01  0.00000000E+00
  5.20000000E+02  4.00000000E+01  0.00000000E+00
  5.20000000E+02  2.00000000E+01  0.00000000E+00
  5.20000000E+02  4.99600361E-14  0.00000000E+00
  5.40000000E+02  3.00000000E+02  0.00000000E+00
  5.40000000E+02  2.80000000E+02  0.00000000E+00
  5.40000000E+02  2.60000000E+02  0.00000000E+00
  5.40000000E+02  2.40000000E+02  0.00000000E+00
  5.40000000E+02  2.20000000E+02  0.00000000E+00
  5.40000000E+02  2.00000000E+02  0.00000000E+00
  5.40000000E+02  1.80000000E+02  0.00000000E+00
  5.40000000E+02  1.60000000E+02  0.00000000E+00
  5.40000000E+02  1.40000000E+02  0.00000000E+00
  5.40000000E+02  1.20000000E+02  0.00000000E+00
  5.40000000E+02  1.00000000E+02  0.00000000E+00
  5.40000000E+02  8.00000000E+01  0.00000000E+00
  5.40000000E+02  6.00000000E+01  0.00000000E+00
  5.40000000E+02  4.00000000E+01  0.00000000E+00
  5.40000000E+02  2.00000000E+01  0.00000000E+00
  5.40000000E+02  4.99600361E-14  0.00000000E+00
  5.60000000E+02  3.00000000E+02  0.00000000E+00
  5.60000000E+02  2.80000000E+02  0.00000000E+00
  5.60000000E+02  2.60000000E+02  0.00000000E+00
  5.60000000E+02  2.40000000E+02  0.00000000E+00
  5.60000000E+02  2.20000000E+02  0.00000000E+00
  5.60000000E+02  2.00000000E+02  0.00000000E+00
  5.60000000E+02  1.80000000E+02  0.00000000E+00
  5.60000000E+02  1.60000000E+02  0.00000000E+00
  5.60000000E+02  1.40000000E+02  0.00000000E+00
  5.60000000E+02  1.20000000E+02  0.00000000E+00
  5.60000000E+02  1.00000000E+02  0.00000000E+00
  5.60000000E+02  8.00000000E+01  0.00000000E+00
  5.60000000E+02  6.00000000E+01  0.00000000E+00
  5.60000000E+02  4.00000000E+01  0.00000000E+00
  5.60000000E+02  2.00000000E+01  0.00000000E+00
  5.60000000E+02  4.99600361E-14  0.00000000E+00
  5.80000000E+02  3.00000000E+02  0.00000000E+00
  5.80000000E+02  2.80000000E+02  0.00000000E+00
  5.80000000E+02  2.60000000E+02  0.00000000E+00
  5.80000000E+02  2.40000000E+02  0.00000000E+00
  5.80000000E+02  2.20000000E+02  0.00000000E+00
  5.80000000E+02  2.00000000E+02  0.00000000E+00
  5.80000000E+02  1.80000000E+02  0.00000000E+00
  5.80000000E+02  1.60000000E+02  0.00000000E+00
  5.80000000E+02  1.40000000E+02  0.00000000E+00
  5.80000000E+02  1.20000000E+02  0.00000000E+00
  5.80000000E+02  1.00000000E+02  0.00000000E+00
  5.80000000E+02  8.00000000E+01  0.00000000E+00
  5.80000000E+02  6.00000000E+01  0.00000000E+00
  5.80000000E+02  4.00000000E+01  0.00000000E+00
  5.80000000E+02  2.00000000E+01  0.00000000E+00
  5.80000000E+02  4.99600361E-14  0.00000000E+00
  6.00000000E+02  3.00000000E+02  0.00000000E+00
  6.00000000E+02  2.80000000E+02  0.00000000E+00
  6.00000000E+02  2.60000000E+02  0.00000000E+00
  6.00000000E+02  2.40000000E+02  0.00000000E+00
  6.00000000E+02  2.20000000E+02  0.00000000E+00
  6.00000000E+02  2.00000000E+02  0.00000000E+00
  6.00000000E+02  1.80000000E+02  0.00000000E+00
  6.00000000E+02  1.60000000E+02  0.00000000E+00
  6.00000000E+02  1.40000000E+02  0.00000000E+00
  6.00000000E+02  1.20000000E+02  0.00000000E+00
  6.00000000E+02  1.00000000E+02  0.00000000E+00
  6.00000000E+02  8.00000000E+01  0.00000000E+00
  6.00000000E+02  6.00000000E+01  0.00000000E+00
  6.00000000E+02  4.00000000E+01  0.00000000E+00
  6.00000000E+02  2.00000000E+01  0.00000000E+00
  6.00000000E+02  4.99600361E-14  0.00000000E+00
CELLS       450      2250
         4           0           1          17          16
         4           1           2          18          17
         4           2           3          19          18
         4           3           4          20          19
         4           4           5          21          20
         4           5           6          22          21
         4           6           7          23          22
         4           7           8          24          23
         4           8           9          25          24
         4           9          10          26          25
         4          10          11          27          26
         4          11          12          28          27
         4          12          13          29          28
         4          13          14          30          29
         4          14          15          31          30
         4          16          17          33          32
         4          17          18          34          33
         4          18          19          35          34
         4          19          20          36          35
         4          20          21          37          36
         4          21          22          38          37
         4          22          23          39          38
         4          23          24          40          39
         4          24          25          41          40
         4          25          26          42          41
         4          26          27          43          42
         4          27          28          44          43
         4          28          29          45          44
         4          29          30          46          45
         4          30          31          47          46
         4          32          33          49          48
         4          33          34          50          49
         4          34          35          51          50
         4          35          36          52          51
         4          36          37          53          52
         4          37          38          54          53
         4          38          39          55          54
         4          39          40          56          55
         4          40          41          57          56
         4          41          42          58          57
         4          42          43          59          58
         4          43          44          60          59
         4          44          45          61          60
         4          45          46          62          61
         4          46          47          63          62
         4          48          49          65          64
         4          49          50          66          65
         4          50          51          67          66
         4          51          52          68          67
         4          52          53          69          68
         4          53          54          70          69
         4          54          55          71          70
         4          55          56          72          71
         4          56          57          73          72
         4          57          58          74          73
         4          58          59          75          74
         4          59          60          76          75
         4          60          61          77          76
         4          61          62          78          77
         4          62          63          79          78
         4          64          65          81          80
         4          65          66          82          81
         4          66          67          83          82
         4          67          68          84          83
         4          68          69          85          84
         4          69          70          86          85
         4          70          71          87          86
         4          71          72          88          87
         4          72          73          89          88
         4          73          74          90          89
         4          74          75          91          90
         4          75          76          92          91
         4          76          77          93          92
         4          77          78          94          93
         4          78          79          95          94
         4          80          81          97          96
         4          81          82          98          97
         4          82          83          99          98
         4          83          84         100          99
         4          84          85         101         100
         4          85          86         102         101
         4          86          87         103         102
         4          87          88         104         103
         4          88          89         105         104
         4          89          90         106         105
         4          90          91         107         106
         4          91          92         108         107
         4          92          93         109         108
         4          93          94         110         109
         4          94          95         111         110
         4          96          97         113         112
         4          97          98         114         113
         4          98          99         115         114
         4          99         100         116         115
         4         100         101         117         116
         4         101         102         118         117
         4         102         103         119         118
         4         103         104         120         119
         4         104         105         121         120
         4         105         106         122         121
         4         106         107         123         122
         4         107         108         124         123
         4         108         109         125         124
         4         109         110         126         125
         4         110         111         127         126
         4         112         113         129         128
         4         113         114         130         129
         4         114         115         131         130
         4         115         116         132         131
         4         116         117         133         132
         4         117         118         134         133
         4         118         119         135         134
         4         119         120         136         135
         4         120         121         137         136
         4         121         122         138         137
         4         122         123         139         138
         4         123         124         140         139
         4         124         125         141         140
         4         125         126         142         141
         4         126         127         143         142
         4         128         129         145         144
         4         129         130         146         145
         4         130         131         147         146
         4         131         132         148         147
         4         132         133         149         148
         4         133         134         150         149
         4         134         135         151         150
         4         135         136         152         151
         4         136         137         153         152
         4         137         138         154         153
         4         138         139         155         154
         4         139         140         156         155
         4         140         141         157         156
         4         141         142         158         157
         4         142         143         159         158
         4         144         145         161         160
         4         145         146         162         161
         4         146         147         163         162
         4         147         148         164         163
         4         148         149         165         164
         4         149         150         166         165
         4         150         151         167         166
         4         151         152         168         167
         4         152         153         169         168
         4         153         154         170         169
         4         154         155         171         170
         4         155         156         172         171
         4         156         157         173         172
         4         157         158         174         173
         4         158         159         175         174
         4         160         161         177         176
         4         161         162         178         177
         4         162         163         179         178
         4         163         164         180         179
         4         164         165         181         180
         4         165         166         182         181
         4         166         167         183         182
         4         167         168         184         183
         4         168         169         185         184
         4         169         170         186         185
         4         170         171         187         186
         4         171         172         188         187
         4         172         173         189         188
         4         173         174         190         189
         4         174         175         191         190
         4         176         177         193         192
         4         177         178         194         193
         4         178         179         195         194
         4         179         180         196         195
         4         180         181         197         196
         4         181         182         198         197
         4         182         183         199         198
         4         183         184         200         199
         4         184         185         201         200
         4         185         186         202         201
         4         186         187         203         202
         4         187         188         204         203
         4         188         189         205         204
         4         189         190         206         205
         4         190         191         207         206
         4         192         193         209         208
         4         193         194         210         209
         4         194         195         211         210
         4         195         196         212         211
         4         196         197         213         212
         4         197         198         214         213
         4         198         199         215         214
         4         199         200         216         215
         4         200         201         217         216
         4         201         202         218         217
         4         202         203         219         218
         4         203         204         220         219
         4         204         205         221         220
         4         205         206         222         221
         4         206         207         223         222
         4         208         209         225         224
         4         209         210         226         225
         4         210         211         227         226
         4         211         212         228         227
         4         212         213         229         228
         4         213         214         230         229
         4         214         215         231         230
         4         215         216         232         231
         4         216         217         233         232
         4         217         218         234         233
         4         218         219         235         234
         4         219         220         236         235
         4         220         221         237         236
         4         221         222         238         237
         4         222         223         239         238
         4         224         225         241         240
         4         225         226         242         241
         4         226         227         243         242
         4         227         228         244         243
         4         228         229         245         244
         4         229         230         246         245
         4         230         231         247         246
         4         231         232         248         247
         4         232         233         249         248
         4         233         234         250         249
         4         234         235         251         250
         4         235         236         252         251
         4         236         237         253         252
         4         237         238         254         253
         4         238         239         255         254
         4         240         241         257         256
         4         241         242         258         257
         4         242         243         259         258
         4         243         244         260         259
         4         244         245         261         260
         4         245         246         262         261
         4         246         247         263         262
         4         247         248         264         263
         4         248         249         265         264
         4         249         250         266         265
         4         250         251         267         266
         4         251         252         268         267
         4         252         253         269         268
         4         253         254         270         269
         4         254         255         271         270
         4         256         257         273         272
         4         257         258         274         273
         4         258         259         275         274
         4         259         260         276         275
         4         260         261         277         276
         4         261         262         278         277
         4         262         263         279         278
         4         263         264         280         279
         4         264         265         281         280
         4         265         266         282         281
         4         266         267         283         282
         4         267         268         284         283
         4         268         269         285         284
         4         269         270         286         285
         4         270         271         287         286
         4         272         273         289         288
         4         273         274         290         289
         4         274         275         291         290
         4         275         276         292         291
         4         276         277         293         292
         4         277         278         294         293
         4         278         279         295         294
         4         279         280         296         295
         4         280         281         297         296
         4         281         282         298         297
         4         282         283         299         298
         4         283         284         300         299
         4         284         285         301         300
         4         285         286         302         301
         4         286         287         303         302
         4         288         289         305         304
         4         289         290         306         305
         4         290         291         307         306
         4         291         292         308         307
         4         292         293         309         308
         4         293         294         310         309
         4         294         295         311         310
         4         295         296         312         311
         4         296         297         313         312
         4         297         298         314         313
         4         298         299         315         314
         4         299         300         316         315
         4         300         301         317         316
         4         301         302         318         317
         4         302         303         319         318
         4         304         305         321         320
         4         305         306         322         321
         4         306         307         323         322
         4         307         308         324         323
         4         308         309         325         324
         4         309         310         326         325
         4         310         311         327         326
         4         311         312         328         327
         4         312         313         329         328
         4         313         314         330         329
         4         314         315         331         330
         4         315         316         332         331
         4         316         317         333         332
         4         317         318         334         333
         4         318         319         335         334
         4         320         321         337         336
         4         321         322         338         337
         4         322         323         339         338
         4         323         324         340         339
         4         324         325         341         340
         4         325         326         342         341
         4         326         327         343         342
         4         327         328         344         343
         4         328         329         345         344
         4         329         330         346         345
         4         330         331         347         346
         4         331         332         348         347
         4         332         333         349         348
         4         333         334         350         349
         4         334         335         351         350
         4         336         337         353         352
         4         337         338         354         353
         4         338         339         355         354
         4         339         340         356         355
         4         340         341         357         356
         4         341         342         358         357
         4         342         343         359         358
         4         343         344         360         359
         4         344         345         361         360
         4         345         346         362         361
         4         346         347         363         362
         4         347         348         364         363
         4         348         349         365         364
         4         349         350         366         365
         4         350         351         367         366
         4         352         353         369         368
         4         353         354         370         369
         4         354         355         371         370
         4         355         356         372         371
         4         356         357         373         372
         4         357         358         374         373
         4         358         359         375         374
         4         359         360         376         375
         4         360         361         377         376
         4         361         362         378         377
         4         362         363         379         378
         4         363         364         380         379
         4         364         365         381         380
         4         365         366         382         381
         4         366         367         383         382
         4         368         369         385         384
         4         369         370         386         385
         4         370         371         387         386
         4         371         372         388         387
         4         372         373         389         388
         4         373         374         390         389
         4         374         375         391         390
         4         375         376         392         391
         4         376         377         393         392
         4         377         378         394         393
         4         378         379         395         394
         4         379         380         396         395
         4         380         381         397         396
         4         381         382         398         397
         4         382         383         399         398
         4         384         385         401         400
         4         385         386         402         401
         4         386         387         403         402
         4         387         388         404         403
         4         388         389         405         404
         4         389         390         406         405
         4         390         391         407         406
         4         391         392         408         407
         4         392         393         409         408
         4         393         394         410         409
         4         394         395         411         410
         4         395         396         412         411
         4         396         397         413         412
         4         397         398         414         413
         4         398         399         415         414
         4         400         401         417         416
         4         401         402         418         417
         4         402         403         419         418
         4         403         404         420         419
         4         404         405         421         420
         4         405         406         422         421
         4         406         407         423         422
         4         407         408         424         423
         4         408         409         425         424
         4         409         410         426         425
         4         410         411         427         426
         4         411         412         428         427
         4         412         413         429         428
         4         413         414         430         429
         4         414         415         431         430
         4         416         417         433         432
         4         417         418         434         433
         4         418         419         435         434
         4         419         420         436         435
         4         420         421         437         436
         4         421         422         438         437
         4         422         423         439         438
         4         423         424         440         439
         4         424         425         441         440
         4         425         426         442         441
         4         426         427         443         442
         4         427         428         444         443
         4         428         429         445         444
         4         429         430         446         445
         4         430         431         447         446
         4         432         433         449         448
         4         433         434         450         449
         4         434         435         451         450
         4         435         436         452         451
         4         436         437         453         452
         4         437         438         454         453
         4         438         439         455         454
         4         439         440         456         455
         4         440         441         457         456
         4         441         442         458         457
         4         442         443         459         458
         4         443         444         460         459
         4         444         445         461         460
         4         445         446         462         461
         4         446         447         463         462
         4         448         449         465         464
         4         449         450         466         465
         4         450         451         467         466
         4         451         452         468         467
         4         452         453         469         468
         4         453         454         470         469
         4         454         455         471         470
         4         455         456         472         471
         4         456         457         473         472
         4         457         458         474         473
         4         458         459         475         474
         4         459         460         476         475
         4         460         461         477         476
         4         461         462         478         477
         4         462         463         479         478
         4         464         465         481         480
         4         465         466         482         481
         4         466         467         483         482
         4         467         468         484         483
         4         468         469         485         484
         4         469         470         486         485
         4         470         471         487         486
         4         471         472         488         487
         4         472         473         489         488
         4         473         474         490         489
         4         474         475         491         490
         4         475         476         492         491
         4         476         477         493         492
         4         477         478         494         493
         4         478         479         495         494
CELL_TYPES        450
9
9
9
9
9
9
9
9
9
9
9
9
9
9
9
9
9
9
9
9
9
9
9
9
9
9
9
9
9
9
9
9
9
9
9
9
9
9
9
9
9
9
9
9
9
9
9
9
9
9
9
9
9
9
9
9
9
9
9
9
9
9
9
9
9
9
9
9
9
9
9
9
9
9
9
9
9
9
9
9
9
9
9
9
9
9
9
9
9
9
9
9
9
9
9
9
9
9
9
9
9
9
9
9
9
9
9
9
9
9
9
9
9
9
9
9
9
9
9
9
9
9
9
9
9
9
9
9
9
9
9
9
9
9
9
9
9
9
9
9
9
9
9
9
9
9
9
9
9
9
9
9
9
9
9
9
9
9
9
9
9
9
9
9
9
9
9
9
9
9
9
9
9
9
9
9
9
9
9
9
9
9
9
9
9
9
9
9
9
9
9
9
9
9
9
9
9
9
9
9
9
9
9
9
9
9
9
9
9
9
9
9
9
9
9
9
9
9
9
9
9
9
9
9
9
9
9
9
9
9
9
9
9
9
9
9
9
9
9
9
9
9
9
9
9
9
9
9
9
9
9
9
9
9
9
9
9
9
9
9
9
9
9
9
9
9
9
9
9
9
9
9
9
9
9
9
9
9
9
9
9
9
9
9
9
9
9
9
9
9
9
9
9
9
9
9
9
9
9
9
9
9
9
9
9
9
9
9
9
9
9
9
9
9
9
9
9
9
9
9
9
9
9
9
9
9
9
9
9
9
9
9
9
9
9
9
9
9
9
9
9
9
9
9
9
9
9
9
9
9
9
9
9
9
9
9
9
9
9
9
9
9
9
9
9
9
9
9
9
9
9
9
9
9
9
9
9
9
9
9
9
9
9
9
9
9
9
9
9
9
9
9
9
9
9
9
9
9
9
9
9
9
9
9
9
9
9
9
9
9
9
9
9
9
9
9
9
9
9
9
9
9
9
9
9
9
9
9
9
9
9
9
9
9
9
9
9
9
9
9
9
9
9
9
9
9
9
9
9
9
POINT_DATA       496
SCALARS p double 
LOOKUP_TABLE default
   59261724.8353793     
   59261843.7762337     
   59262179.7375448     
   59262690.2872900     
   59263333.3072359     
   59264068.6769936     
   59264859.3144658     
   59265671.6535291     
   59266475.6589342     
   59267244.4876148     
   59267953.9063943     
   59268581.5700307     
   59269106.2521973     
   59269507.1067261     
   59269763.0184335     
   59269852.0831332     
   59247165.1262307     
   59247286.6384979     
   59247629.4008236     
   59248149.3083567     
   59248802.9103677     
   59249549.0927607     
   59250350.0916631     
   59251171.9262841     
   59251984.3577513     
   59252760.4890259     
   59253476.1208740     
   59254108.9719086     
   59254637.8585124     
   59255041.9143936     
   59255299.9108061     
   59255389.7180724     
   59203054.6179590     
   59203183.8373951     
   59203546.9316003     
   59204094.6989989     
   59204779.6552844     
   59205557.7031924     
   59206389.0572416     
   59207238.5341869     
   59208075.3364292     
   59208872.4613983     
   59209605.8669349     
   59210253.5129106     
   59210794.3844923     
   59211207.5840533     
   59211471.5578901     
   59211563.5015123     
   59128093.7337304     
   59128235.7569138     
   59128632.4483904     
   59129225.8561493     
   59129961.6593615     
   59130790.7890226     
   59131670.1763642     
   59132562.7790802     
   59133437.0479676     
   59134265.9974686     
   59135026.0354430     
   59135695.6927275     
   59136254.3737285     
   59136681.2269826     
   59136954.2103606     
   59137049.4000329     
   59020098.5965247     
   59020258.3935357     
   59020701.3286258     
   59021356.6800307     
   59022160.3398459     
   59023056.3042386     
   59023997.1134020     
   59024943.4498807     
   59025863.1096381     
   59026729.5531695     
   59027520.2276833     
   59028214.8290812     
   59028793.6466507     
   59029236.1056884     
   59029519.5945273     
   59029618.6328606     
   58875974.8517054     
   58876157.0825373     
   58876657.6587058     
   58877388.5979211     
   58878272.8974253     
   58879245.7434829     
   58880254.4437570     
   58881257.3725377     
   58882222.2134308     
   58883123.7647576     
   58883941.5446239     
   58884657.3996678     
   58885253.2869794     
   58885709.3643067     
   58886002.4898275     
   58886105.1988927     
   58691682.4095622     
   58691891.0971782     
   58692458.4248655     
   58693274.1313579     
   58694245.1007474     
   58695296.0417536     
   58696368.6197322     
   58697419.4398146     
   58698417.2567537     
   58699339.7492682     
   58700170.1511019     
   58700893.9835017     
   58701496.0882436     
   58701958.1183832     
   58702256.6052140     
   58702361.6825399     
   58462192.4937569     
   58462430.4990255     
   58463069.8043296     
   58463972.3442556     
   58465025.6898446     
   58466142.8108454     
   58467259.9888965     
   58468333.4206576     
   58469335.0003299     
   58470247.7060668     
   58471060.9447571     
   58471766.1426326     
   58472352.8100829     
   58472805.2594452     
   58473100.1126553     
   58473204.6973614     
   58181438.7645170     
   58181706.9997699     
   58182417.2973094     
   58183397.8916842     
   58184514.1036286     
   58185666.6134829     
   58186787.5733402     
   58187835.2755495     
   58188788.0053760     
   58189637.6011331     
   58190383.1407837     
   58191025.0811871     
   58191560.1012711     
   58191976.8444461     
   58192252.7145901     
   58192351.8462477     
   57842264.6495191     
   57842560.9594139     
   57843331.8076754     
   57844365.7639490     
   57845503.6253902     
   57846634.3852988     
   57847688.7536209     
   57848631.1699452     
   57849451.1000409     
   57850154.2452608     
   57850754.1419211     
   57851264.5011608     
   57851692.5471700     
   57852033.5530598     
   57852266.7414750     
   57852352.6980940     
   57436369.3491360     
   57436686.9815278     
   57437494.1238031     
   57438534.1804758     
   57439622.4259370     
   57440638.5357686     
   57441516.4652708     
   57442232.8902745     
   57442795.1876248     
   57443229.6883731     
   57443570.7177217     
   57443850.7652066     
   57444092.0174189     
   57444299.4318710     
   57444455.5211148     
   57444517.0292293     
   56954255.2738553     
   56954580.8615801     
   56955380.5607369     
   56956348.4248788     
   56957275.3620478     
   56958036.6915493     
   56958577.0128300     
   56958893.9352496     
   56959021.8501120     
   56959016.5626306     
   56958941.2894261     
   56958854.2998475     
   56958798.3509284     
   56958792.0307096     
   56958823.1606826     
   56958844.4808767     
   56385179.9105805     
   56385490.8899422     
   56386212.7926388     
   56386988.7212072     
   56387589.7567899     
   56387895.4925124     
   56387872.1447343     
   56387550.1927135     
   56387002.9380469     
   56386326.8388105     
   56385624.0316119     
   56384987.1550985     
   56384486.4480285     
   56384159.1017437     
   56384000.9645362     
   56383960.8709555     
   55717115.2989983     
   55717376.7051342     
   55717915.1298692     
   55718325.5338041     
   55718368.7540934     
   55717942.3233173     
   55717049.6285572     
   55715769.8404123     
   55714230.1971026     
   55712581.4416758     
   55710976.5889322     
   55709552.8089606     
   55708416.0746848     
   55707628.3071341     
   55707197.0065236     
   55707067.6998945     
   54936718.4410722     
   54936879.0472282     
   54937082.6911165     
   54936885.9454879     
   54936056.2234381     
   54934529.3878136     
   54932367.2514700     
   54929717.9631058     
   54926780.9999930     
   54923777.3379874     
   54920924.5017523     
   54918415.7018040     
   54916402.1532614     
   54914977.8967094     
   54914166.9140767     
   54913912.9350874     
   54029316.1001604     
   54029303.9101968     
   54028964.1231324     
   54027835.0700249     
   54025717.6366397     
   54022615.1612249     
   54018676.0012679     
   54014142.4155856     
   54009307.4845721     
   54004480.1151236     
   53999956.9813416     
   53995999.6426886     
   53992815.0492771     
   53990538.1002590     
   53989215.7278539     
   53988792.9713355     
   52978907.6378714     
   52978624.8021035     
   52977462.7976834     
   52974976.8600972     
   52971041.9313531     
   52965769.0777337     
   52959429.2537418     
   52952388.7722808     
   52945057.9251582     
   52937851.7740466     
   52931160.5224982     
   52925326.1818493     
   52920622.3877276     
   52917235.0463774     
   52915242.7880522     
   52914597.7570801     
   51768189.8979219     
   51767507.2053616     
   51765160.8844404     
   51760779.3105164     
   51754370.2597888     
   51746206.4844325     
   51736726.2578091     
   51726453.9297706     
   51715941.0983640     
   51705725.5492487     
   51696303.0391144     
   51688106.3150569     
   51681486.2518327     
   51676691.3665061     
   51673843.9568950     
   51672913.4371933     
   50378608.8481665     
   50377360.0596295     
   50373371.5462103     
   50366430.1403379     
   50356758.9370223     
   50344862.6737180     
   50331400.3191141     
   50317090.2810564     
   50302646.9034607     
   50288742.1344998     
   50275983.7946335     
   50264901.4730446     
   50255932.2020087     
   50249400.2258063     
   50245488.0676464     
   50244199.4427853     
   48790443.9856240     
   48788420.4254432     
   48782226.0171184     
   48771930.9082784     
   48758086.2472324     
   48741517.6149109     
   48723165.2275629     
   48703975.6725058     
   48684839.7634382     
   48666564.8274752     
   48649867.3739376     
   48635372.5917104     
   48623609.3111015     
   48614992.2373697     
   48609787.1867522     
   48608059.6497489     
   46982933.7537364     
   46979879.8038883     
   46970804.9477842     
   46956240.7262747     
   46937216.6928594     
   46914987.5269900     
   46890838.2645169     
   46865969.0309646     
   46841445.6050938     
   46818194.8553817     
   46797023.2133533     
   46778638.9877713     
   46763663.1492551     
   46752617.3699849     
   46745882.9016218     
   46743629.8480518     
   44934453.9261001     
   44930064.4364032     
   44917327.8270339     
   44897486.2018460     
   44872242.8801147     
   44843406.7862035     
   44812665.4933918     
   44781478.2079462     
   44751058.7210883     
   44722412.4238700     
   44696395.4932720     
   44673771.4261103     
   44655246.0210551     
   44641466.2437538     
   44632973.1248677     
   44630106.0459689     
   42622766.8081635     
   42616688.1077997     
   42599421.6446087     
   42573263.5365166     
   42540836.4082579     
   42504635.6636770     
   42466786.3503537     
   42428975.9447844     
   42392501.6395082     
   42358373.4705293     
   42327430.8939497     
   42300445.5100621     
   42278190.1966628     
   42261456.6806536     
   42251005.4747448     
   42247439.7400169     
   40025368.2532513     
   40017205.7966256     
   39994502.1947638     
   39961074.6887600     
   39920758.1730831     
   39876848.9225708     
   39831891.6208624     
   39787712.5232739     
   39745578.9369622     
   39706395.8104636     
   39670892.6939236     
   39639781.2698470     
   39613869.5325677     
   39594111.4572194     
   39581563.7481493     
   39577226.8553799     
   37119973.5297640     
   37109312.0257012     
   37080322.2404761     
   37038967.7290490     
   36990611.2822272     
   36939391.6176606     
   36888153.4345709     
   36838689.4081910     
   36792073.5365301     
   36748969.7478206     
   36709887.2102609     
   36675390.8786631     
   36646271.4525129     
   36623651.1538203     
   36608972.9642545     
   36603816.3546594     
   33885203.9697977     
   33871652.9357451     
   33835778.1617121     
   33786503.6168087     
   33730976.8769973     
   33674036.1962153     
   33618537.2534093     
   33565974.1684738     
   33517038.9908018     
   33472025.5551066     
   33431120.5444806     
   33394646.3355285     
   33363292.5821105     
   33338320.6293615     
   33321645.7323252     
   33315662.3870741     
   30301570.8321606     
   30284863.2663742     
   30242141.0945409     
   30186275.4920056     
   30126170.6616437     
   30066838.6996616     
   30010633.1407872     
   29958444.6472849     
   29910441.3278844     
   29866483.6723887     
   29826389.8399525     
   29790158.8737407     
   29758252.8775611     
   29731956.5796185     
   29713687.2926745     
   29706941.6453052     
   26352885.3870059     
   26333130.4041601     
   26285056.9372998     
   26226422.9766034     
   26167013.8411013     
   26110833.6678515     
   26059133.0812820     
   26012036.8874093     
   25969198.7905008     
   25930114.9922215     
   25894298.4207893     
   25861430.6617464     
   25831581.4908367     
   25805776.1578157     
   25786771.4445117     
   25779449.1984713     
   22028433.4405421     
   22006709.7554324     
   21958162.2908353     
   21905097.5332364     
   21855085.5580764     
   21809693.7943080     
   21768996.0478634     
   21732527.1172208     
   21699663.1854177     
   21669762.3563751     
   21642231.4919813     
   21616580.7330364     
   21592541.1466704     
   21570293.8592323     
   21552248.8175679     
   21544829.9268946     
   17325824.9820386     
   17307183.9332016     
   17271318.8412780     
   17238008.7884587     
   17208292.4760216     
   17182165.5038652     
   17159177.8886664     
   17138818.1222580     
   17120590.1744478     
   17104036.4510921     
   17088740.0216167     
   17074325.0494969     
   17060459.4744471     
   17046960.6851578     
   17033553.7960512     
   17026842.8807881     
   12266666.6666667     
   12266666.6666667     
   12266666.6666667     
   12266666.6666667     
   12266666.6666667     
   12266666.6666667     
   12266666.6666667     
   12266666.6666667     
   12266666.6666667     
   12266666.6666667     
   12266666.6666667     
   12266666.6666667     
   12266666.6666667     
   12266666.6666667     
   12266666.6666667     
   12266666.6666667     
VECTORS u double 
    0.00000E+00         0.35466E-01         0.00000E+00
    0.00000E+00         0.39094E-01         0.00000E+00
    0.00000E+00         0.42467E-01         0.00000E+00
    0.00000E+00         0.45382E-01         0.00000E+00
    0.00000E+00         0.47681E-01         0.00000E+00
    0.00000E+00         0.49237E-01         0.00000E+00
    0.00000E+00         0.49940E-01         0.00000E+00
    0.00000E+00         0.49689E-01         0.00000E+00
    0.00000E+00         0.48385E-01         0.00000E+00
    0.00000E+00         0.45924E-01         0.00000E+00
    0.00000E+00         0.42194E-01         0.00000E+00
    0.00000E+00         0.37074E-01         0.00000E+00
    0.00000E+00         0.30434E-01         0.00000E+00
    0.00000E+00         0.22138E-01         0.00000E+00
    0.00000E+00         0.12042E-01         0.00000E+00
    0.00000E+00         0.00000E+00         0.00000E+00
    0.69424E-01         0.33418E-01         0.00000E+00
    0.65125E-01         0.37120E-01         0.00000E+00
    0.60522E-01         0.40570E-01         0.00000E+00
    0.55730E-01         0.43569E-01         0.00000E+00
    0.50837E-01         0.45961E-01         0.00000E+00
    0.45910E-01         0.47620E-01         0.00000E+00
    0.40997E-01         0.48439E-01         0.00000E+00
    0.36130E-01         0.48316E-01         0.00000E+00
    0.31329E-01         0.47152E-01         0.00000E+00
    0.26606E-01         0.44843E-01         0.00000E+00
    0.21965E-01         0.41276E-01         0.00000E+00
    0.17406E-01         0.36328E-01         0.00000E+00
    0.12930E-01         0.29869E-01         0.00000E+00
    0.85363E-02         0.21758E-01         0.00000E+00
    0.42252E-02         0.11851E-01         0.00000E+00
    0.00000E+00         0.00000E+00         0.00000E+00
    0.13899E+00         0.27236E-01         0.00000E+00
    0.13033E+00         0.31161E-01         0.00000E+00
    0.12107E+00         0.34845E-01         0.00000E+00
    0.11145E+00         0.38098E-01         0.00000E+00
    0.10164E+00         0.40770E-01         0.00000E+00
    0.91775E-01         0.42742E-01         0.00000E+00
    0.81945E-01         0.43908E-01         0.00000E+00
    0.72214E-01         0.44171E-01         0.00000E+00
    0.62620E-01         0.43431E-01         0.00000E+00
    0.53183E-01         0.41581E-01         0.00000E+00
    0.43910E-01         0.38506E-01         0.00000E+00
    0.34803E-01         0.34079E-01         0.00000E+00
    0.25858E-01         0.28164E-01         0.00000E+00
    0.17074E-01         0.20614E-01         0.00000E+00
    0.84531E-02         0.11277E-01         0.00000E+00
    0.00000E+00         0.00000E+00         0.00000E+00
    0.20885E+00         0.16802E-01         0.00000E+00
    0.19567E+00         0.21107E-01         0.00000E+00
    0.18166E+00         0.25188E-01         0.00000E+00
    0.16714E+00         0.28871E-01         0.00000E+00
    0.15237E+00         0.32018E-01         0.00000E+00
    0.13754E+00         0.34519E-01         0.00000E+00
    0.12279E+00         0.36275E-01         0.00000E+00
    0.10820E+00         0.37190E-01         0.00000E+00
    0.93832E-01         0.37165E-01         0.00000E+00
    0.79701E-01         0.36090E-01         0.00000E+00
    0.65818E-01         0.33844E-01         0.00000E+00
    0.52180E-01         0.30294E-01         0.00000E+00
    0.38782E-01         0.25294E-01         0.00000E+00
    0.25617E-01         0.18687E-01         0.00000E+00
    0.12687E-01         0.10311E-01         0.00000E+00
    0.00000E+00         0.00000E+00         0.00000E+00
    0.27909E+00         0.19204E-02         0.00000E+00
    0.26120E+00         0.67723E-02         0.00000E+00
    0.24228E+00         0.11426E-01         0.00000E+00
    0.22276E+00         0.15727E-01         0.00000E+00
    0.20297E+00         0.19556E-01         0.00000E+00
    0.18315E+00         0.22815E-01         0.00000E+00
    0.16347E+00         0.25414E-01         0.00000E+00
    0.14404E+00         0.27261E-01         0.00000E+00
    0.12492E+00         0.28255E-01         0.00000E+00
    0.10613E+00         0.28284E-01         0.00000E+00
    0.87665E-01         0.27220E-01         0.00000E+00
    0.69528E-01         0.24917E-01         0.00000E+00
    0.51698E-01         0.21218E-01         0.00000E+00
    0.34166E-01         0.15952E-01         0.00000E+00
    0.16929E-01         0.89397E-02         0.00000E+00
    0.00000E+00         0.00000E+00         0.00000E+00
    0.34980E+00        -0.17679E-01         0.00000E+00
    0.32693E+00        -0.12097E-01         0.00000E+00
    0.30291E+00        -0.66808E-02         0.00000E+00
    0.27825E+00        -0.15568E-02         0.00000E+00
    0.25336E+00         0.31784E-02         0.00000E+00
    0.22851E+00         0.74427E-02         0.00000E+00
    0.20391E+00         0.11156E-01         0.00000E+00
    0.17966E+00         0.14232E-01         0.00000E+00
    0.15582E+00         0.16570E-01         0.00000E+00
    0.13242E+00         0.18051E-01         0.00000E+00
    0.10943E+00         0.18538E-01         0.00000E+00
    0.86832E-01         0.17872E-01         0.00000E+00
    0.64604E-01         0.15879E-01         0.00000E+00
    0.42724E-01         0.12370E-01         0.00000E+00
    0.21185E-01         0.71443E-02         0.00000E+00
    0.00000E+00         0.00000E+00         0.00000E+00
    0.42099E+00        -0.42338E-01         0.00000E+00
    0.39283E+00        -0.35823E-01         0.00000E+00
    0.36347E+00        -0.29433E-01         0.00000E+00
    0.33352E+00        -0.23260E-01         0.00000E+00
    0.30343E+00        -0.17373E-01         0.00000E+00
    0.27353E+00        -0.11834E-01         0.00000E+00
    0.24400E+00        -0.67111E-02         0.00000E+00
    0.21497E+00        -0.20845E-02         0.00000E+00
    0.18648E+00         0.19440E-02         0.00000E+00
    0.15853E+00         0.52493E-02         0.00000E+00
    0.13107E+00         0.76813E-02         0.00000E+00
    0.10408E+00         0.90660E-02         0.00000E+00
    0.77498E-01         0.92080E-02         0.00000E+00
    0.51295E-01         0.78947E-02         0.00000E+00
    0.25458E-01         0.49018E-02         0.00000E+00
    0.00000E+00         0.00000E+00         0.00000E+00
    0.49264E+00        -0.72467E-01         0.00000E+00
    0.45879E+00        -0.64791E-01         0.00000E+00
    0.42382E+00        -0.57190E-01         0.00000E+00
    0.38841E+00        -0.49715E-01         0.00000E+00
    0.35305E+00        -0.42404E-01         0.00000E+00
    0.31806E+00        -0.35295E-01         0.00000E+00
    0.28364E+00        -0.28439E-01         0.00000E+00
    0.24988E+00        -0.21913E-01         0.00000E+00
    0.21681E+00        -0.15818E-01         0.00000E+00
    0.18440E+00        -0.10289E-01         0.00000E+00
    0.15257E+00        -0.54888E-02         0.00000E+00
    0.12125E+00        -0.16123E-02         0.00000E+00
    0.90373E-01         0.11214E-02         0.00000E+00
    0.59882E-01         0.24720E-02         0.00000E+00
    0.29754E-01         0.21852E-02         0.00000E+00
    0.00000E+00         0.00000E+00         0.00000E+00
    0.56463E+00        -0.10854E+00         0.00000E+00
    0.52466E+00        -0.99442E-01         0.00000E+00
    0.48379E+00        -0.90362E-01         0.00000E+00
    0.44274E+00        -0.81303E-01         0.00000E+00
    0.40201E+00        -0.72263E-01         0.00000E+00
    0.36192E+00        -0.63253E-01         0.00000E+00
    0.32265E+00        -0.54310E-01         0.00000E+00
    0.28426E+00        -0.45502E-01         0.00000E+00
    0.24672E+00        -0.36934E-01         0.00000E+00
    0.20996E+00        -0.28748E-01         0.00000E+00
    0.17387E+00        -0.21127E-01         0.00000E+00
    0.13833E+00        -0.14285E-01         0.00000E+00
    0.10323E+00        -0.84721E-02         0.00000E+00
    0.68490E-01        -0.39591E-02         0.00000E+00
    0.34079E-01        -0.10358E-02         0.00000E+00
    0.00000E+00         0.00000E+00         0.00000E+00
    0.63674E+00        -0.15108E+00         0.00000E+00
    0.59019E+00        -0.14027E+00         0.00000E+00
    0.54311E+00        -0.12940E+00         0.00000E+00
    0.49624E+00        -0.11844E+00         0.00000E+00
    0.45008E+00        -0.10733E+00         0.00000E+00
    0.40491E+00        -0.96053E-01         0.00000E+00
    0.36086E+00        -0.84631E-01         0.00000E+00
    0.31795E+00        -0.73123E-01         0.00000E+00
    0.27609E+00        -0.61638E-01         0.00000E+00
    0.23513E+00        -0.50329E-01         0.00000E+00
    0.19492E+00        -0.39397E-01         0.00000E+00
    0.15527E+00        -0.29085E-01         0.00000E+00
    0.11605E+00        -0.19671E-01         0.00000E+00
    0.77122E-01        -0.11464E-01         0.00000E+00
    0.38439E-01        -0.47935E-02         0.00000E+00
    0.00000E+00         0.00000E+00         0.00000E+00
    0.70866E+00        -0.20066E+00         0.00000E+00
    0.65505E+00        -0.18779E+00         0.00000E+00
    0.60145E+00        -0.17480E+00         0.00000E+00
    0.54859E+00        -0.16157E+00         0.00000E+00
    0.49694E+00        -0.14801E+00         0.00000E+00
    0.44674E+00        -0.13406E+00         0.00000E+00
    0.39804E+00        -0.11972E+00         0.00000E+00
    0.35077E+00        -0.10506E+00         0.00000E+00
    0.30476E+00        -0.90173E-01         0.00000E+00
    0.25981E+00        -0.75236E-01         0.00000E+00
    0.21565E+00        -0.60470E-01         0.00000E+00
    0.17206E+00        -0.46145E-01         0.00000E+00
    0.12882E+00        -0.32575E-01         0.00000E+00
    0.85779E-01        -0.20109E-01         0.00000E+00
    0.42842E-01        -0.91212E-02         0.00000E+00
    0.00000E+00         0.00000E+00         0.00000E+00
    0.77995E+00        -0.25788E+00         0.00000E+00
    0.71877E+00        -0.24258E+00         0.00000E+00
    0.65834E+00        -0.22707E+00         0.00000E+00
    0.59937E+00        -0.21116E+00         0.00000E+00
    0.54223E+00        -0.19471E+00         0.00000E+00
    0.48709E+00        -0.17763E+00         0.00000E+00
    0.43390E+00        -0.15991E+00         0.00000E+00
    0.38249E+00        -0.14158E+00         0.00000E+00
    0.33258E+00        -0.12278E+00         0.00000E+00
    0.28386E+00        -0.10367E+00         0.00000E+00
    0.23598E+00        -0.84513E-01         0.00000E+00
    0.18864E+00        -0.65599E-01         0.00000E+00
    0.14153E+00        -0.47284E-01         0.00000E+00
    0.94462E-01        -0.29960E-01         0.00000E+00
    0.47293E-01        -0.14052E-01         0.00000E+00
    0.00000E+00         0.00000E+00         0.00000E+00
    0.85002E+00        -0.32336E+00         0.00000E+00
    0.78077E+00        -0.30519E+00         0.00000E+00
    0.71325E+00        -0.28670E+00         0.00000E+00
    0.64806E+00        -0.26765E+00         0.00000E+00
    0.58550E+00        -0.24783E+00         0.00000E+00
    0.52558E+00        -0.22713E+00         0.00000E+00
    0.46813E+00        -0.20549E+00         0.00000E+00
    0.41284E+00        -0.18297E+00         0.00000E+00
    0.35933E+00        -0.15968E+00         0.00000E+00
    0.30713E+00        -0.13583E+00         0.00000E+00
    0.25582E+00        -0.11168E+00         0.00000E+00
    0.20494E+00        -0.87568E-01         0.00000E+00
    0.15416E+00        -0.63888E-01         0.00000E+00
    0.10317E+00        -0.41079E-01         0.00000E+00
    0.51797E-01        -0.19616E-01         0.00000E+00
    0.00000E+00         0.00000E+00         0.00000E+00
    0.91813E+00        -0.39772E+00         0.00000E+00
    0.84035E+00        -0.37617E+00         0.00000E+00
    0.76551E+00        -0.35421E+00         0.00000E+00
    0.69408E+00        -0.33150E+00         0.00000E+00
    0.62620E+00        -0.30777E+00         0.00000E+00
    0.56173E+00        -0.28288E+00         0.00000E+00
    0.50033E+00        -0.25676E+00         0.00000E+00
    0.44153E+00        -0.22945E+00         0.00000E+00
    0.38476E+00        -0.20108E+00         0.00000E+00
    0.32946E+00        -0.17186E+00         0.00000E+00
    0.27502E+00        -0.14210E+00         0.00000E+00
    0.22090E+00        -0.11215E+00         0.00000E+00
    0.16665E+00        -0.82465E-01         0.00000E+00
    0.11188E+00        -0.53516E-01         0.00000E+00
    0.56357E-01        -0.25841E-01         0.00000E+00
    0.00000E+00         0.00000E+00         0.00000E+00
    0.98334E+00        -0.48153E+00         0.00000E+00
    0.89662E+00        -0.45605E+00         0.00000E+00
    0.81431E+00        -0.43004E+00         0.00000E+00
    0.73670E+00        -0.40308E+00         0.00000E+00
    0.66372E+00        -0.37485E+00         0.00000E+00
    0.59502E+00        -0.34516E+00         0.00000E+00
    0.53006E+00        -0.31393E+00         0.00000E+00
    0.46817E+00        -0.28120E+00         0.00000E+00
    0.40860E+00        -0.24711E+00         0.00000E+00
    0.35060E+00        -0.21189E+00         0.00000E+00
    0.29343E+00        -0.17586E+00         0.00000E+00
    0.23641E+00        -0.13943E+00         0.00000E+00
    0.17895E+00        -0.10307E+00         0.00000E+00
    0.12057E+00        -0.67311E-01         0.00000E+00
    0.60969E-01        -0.32745E-01         0.00000E+00
    0.00000E+00         0.00000E+00         0.00000E+00
    0.10445E+01        -0.57534E+00         0.00000E+00
    0.94855E+00        -0.54528E+00         0.00000E+00
    0.85872E+00        -0.51458E+00         0.00000E+00
    0.77509E+00        -0.48272E+00         0.00000E+00
    0.69733E+00        -0.44932E+00         0.00000E+00
    0.62484E+00        -0.41416E+00         0.00000E+00
    0.55680E+00        -0.37715E+00         0.00000E+00
    0.49234E+00        -0.33833E+00         0.00000E+00
    0.43049E+00        -0.29785E+00         0.00000E+00
    0.37031E+00        -0.25596E+00         0.00000E+00
    0.31087E+00        -0.21301E+00         0.00000E+00
    0.25134E+00        -0.16943E+00         0.00000E+00
    0.19098E+00        -0.12573E+00         0.00000E+00
    0.12922E+00        -0.82481E-01         0.00000E+00
    0.65625E-01        -0.40341E-01         0.00000E+00
    0.00000E+00         0.00000E+00         0.00000E+00
    0.11004E+01        -0.67957E+00         0.00000E+00
    0.99492E+00        -0.64422E+00         0.00000E+00
    0.89765E+00        -0.60811E+00         0.00000E+00
    0.80831E+00        -0.57062E+00         0.00000E+00
    0.72622E+00        -0.53132E+00         0.00000E+00
    0.65047E+00        -0.48997E+00         0.00000E+00
    0.57997E+00        -0.44647E+00         0.00000E+00
    0.51356E+00        -0.40085E+00         0.00000E+00
    0.45004E+00        -0.35329E+00         0.00000E+00
    0.38825E+00        -0.30406E+00         0.00000E+00
    0.32707E+00        -0.25352E+00         0.00000E+00
    0.26550E+00        -0.20212E+00         0.00000E+00
    0.20264E+00        -0.15042E+00         0.00000E+00
    0.13775E+00        -0.99021E-01         0.00000E+00
    0.70302E-01        -0.48626E-01         0.00000E+00
    0.00000E+00         0.00000E+00         0.00000E+00
    0.11493E+01        -0.79455E+00         0.00000E+00
    0.10343E+01        -0.75311E+00         0.00000E+00
    0.92988E+00        -0.71077E+00         0.00000E+00
    0.83528E+00        -0.66685E+00         0.00000E+00
    0.74946E+00        -0.62085E+00         0.00000E+00
    0.67114E+00        -0.57252E+00         0.00000E+00
    0.59890E+00        -0.52176E+00         0.00000E+00
    0.53126E+00        -0.46862E+00         0.00000E+00
    0.46678E+00        -0.41328E+00         0.00000E+00
    0.40405E+00        -0.35603E+00         0.00000E+00
    0.34175E+00        -0.29726E+00         0.00000E+00
    0.27867E+00        -0.23742E+00         0.00000E+00
    0.21375E+00        -0.17708E+00         0.00000E+00
    0.14607E+00        -0.11689E+00         0.00000E+00
    0.74965E-01        -0.57586E-01         0.00000E+00
    0.00000E+00         0.00000E+00         0.00000E+00
    0.11896E+01        -0.92041E+00         0.00000E+00
    0.10652E+01        -0.87198E+00         0.00000E+00
    0.95400E+00        -0.82252E+00         0.00000E+00
    0.85480E+00        -0.77127E+00         0.00000E+00
    0.76604E+00        -0.71771E+00         0.00000E+00
    0.68599E+00        -0.66157E+00         0.00000E+00
    0.61284E+00        -0.60275E+00         0.00000E+00
    0.54482E+00        -0.54134E+00         0.00000E+00
    0.48017E+00        -0.47753E+00         0.00000E+00
    0.41725E+00        -0.41162E+00         0.00000E+00
    0.35452E+00        -0.34400E+00         0.00000E+00
    0.29056E+00        -0.27513E+00         0.00000E+00
    0.22410E+00        -0.20558E+00         0.00000E+00
    0.15406E+00        -0.13601E+00         0.00000E+00
    0.79554E-01        -0.67186E-01         0.00000E+00
    0.00000E+00         0.00000E+00         0.00000E+00
    0.12190E+01        -0.10570E+01         0.00000E+00
    0.10857E+01        -0.10006E+01         0.00000E+00
    0.96849E+00        -0.94307E+00         0.00000E+00
    0.86558E+00        -0.88352E+00         0.00000E+00
    0.77484E+00        -0.82146E+00         0.00000E+00
    0.69405E+00        -0.75661E+00         0.00000E+00
    0.62098E+00        -0.68892E+00         0.00000E+00
    0.55350E+00        -0.61850E+00         0.00000E+00
    0.48957E+00        -0.54556E+00         0.00000E+00
    0.42729E+00        -0.47039E+00         0.00000E+00
    0.36490E+00        -0.39338E+00         0.00000E+00
    0.30077E+00        -0.31497E+00         0.00000E+00
    0.23341E+00        -0.23571E+00         0.00000E+00
    0.16151E+00        -0.15625E+00         0.00000E+00
    0.83979E-01        -0.77371E-01         0.00000E+00
    0.00000E+00         0.00000E+00         0.00000E+00
    0.12354E+01        -0.12041E+01         0.00000E+00
    0.10939E+01        -0.11386E+01         0.00000E+00
    0.97166E+00        -0.10718E+01         0.00000E+00
    0.86619E+00        -0.10029E+01         0.00000E+00
    0.77467E+00        -0.93134E+00         0.00000E+00
    0.69430E+00        -0.85687E+00         0.00000E+00
    0.62241E+00        -0.77949E+00         0.00000E+00
    0.55650E+00        -0.69933E+00         0.00000E+00
    0.49424E+00        -0.61664E+00         0.00000E+00
    0.43350E+00        -0.53171E+00         0.00000E+00
    0.37230E+00        -0.44487E+00         0.00000E+00
    0.30879E+00        -0.35653E+00         0.00000E+00
    0.24127E+00        -0.26719E+00         0.00000E+00
    0.16817E+00        -0.17744E+00         0.00000E+00
    0.88111E-01        -0.88061E-01         0.00000E+00
    0.00000E+00         0.00000E+00         0.00000E+00
    0.12361E+01        -0.13607E+01         0.00000E+00
    0.10875E+01        -0.12849E+01         0.00000E+00
    0.96170E+00        -0.12078E+01         0.00000E+00
    0.85514E+00        -0.11284E+01         0.00000E+00
    0.76426E+00        -0.10462E+01         0.00000E+00
    0.68565E+00        -0.96120E+00         0.00000E+00
    0.61615E+00        -0.87332E+00         0.00000E+00
    0.55290E+00        -0.78278E+00         0.00000E+00
    0.49332E+00        -0.68982E+00         0.00000E+00
    0.43507E+00        -0.59473E+00         0.00000E+00
    0.37598E+00        -0.49777E+00         0.00000E+00
    0.31400E+00        -0.39926E+00         0.00000E+00
    0.24718E+00        -0.29961E+00         0.00000E+00
    0.17367E+00        -0.19934E+00         0.00000E+00
    0.91766E-01        -0.99150E-01         0.00000E+00
    0.00000E+00         0.00000E+00         0.00000E+00
    0.12183E+01        -0.15257E+01         0.00000E+00
    0.10643E+01        -0.14384E+01         0.00000E+00
    0.93673E+00        -0.13496E+01         0.00000E+00
    0.83088E+00        -0.12584E+01         0.00000E+00
    0.74232E+00        -0.11646E+01         0.00000E+00
    0.66694E+00        -0.10681E+01         0.00000E+00
    0.60112E+00        -0.96891E+00         0.00000E+00
    0.54167E+00        -0.86742E+00         0.00000E+00
    0.48581E+00        -0.76383E+00         0.00000E+00
    0.43103E+00        -0.65835E+00         0.00000E+00
    0.37502E+00        -0.55117E+00         0.00000E+00
    0.31554E+00        -0.44247E+00         0.00000E+00
    0.25043E+00        -0.33250E+00         0.00000E+00
    0.17752E+00        -0.22164E+00         0.00000E+00
    0.94686E-01        -0.11051E+00         0.00000E+00
    0.00000E+00         0.00000E+00         0.00000E+00
    0.11789E+01        -0.16973E+01         0.00000E+00
    0.10218E+01        -0.15969E+01         0.00000E+00
    0.89479E+00        -0.14951E+01         0.00000E+00
    0.79186E+00        -0.13910E+01         0.00000E+00
    0.70753E+00        -0.12844E+01         0.00000E+00
    0.63700E+00        -0.11754E+01         0.00000E+00
    0.57619E+00        -0.10643E+01         0.00000E+00
    0.52168E+00        -0.95151E+00         0.00000E+00
    0.47054E+00        -0.83710E+00         0.00000E+00
    0.42020E+00        -0.72123E+00         0.00000E+00
    0.36826E+00        -0.60396E+00         0.00000E+00
    0.31237E+00        -0.48528E+00         0.00000E+00
    0.25014E+00        -0.36523E+00         0.00000E+00
    0.17905E+00        -0.24398E+00         0.00000E+00
    0.96524E-01        -0.12197E+00         0.00000E+00
    0.00000E+00         0.00000E+00         0.00000E+00
    0.11146E+01        -0.18730E+01         0.00000E+00
    0.95743E+00        -0.17580E+01         0.00000E+00
    0.83395E+00        -0.16416E+01         0.00000E+00
    0.73656E+00        -0.15232E+01         0.00000E+00
    0.65861E+00        -0.14027E+01         0.00000E+00
    0.59460E+00        -0.12806E+01         0.00000E+00
    0.54011E+00        -0.11572E+01         0.00000E+00
    0.49159E+00        -0.10329E+01         0.00000E+00
    0.44612E+00        -0.90771E+00         0.00000E+00
    0.40115E+00        -0.78175E+00         0.00000E+00
    0.35429E+00        -0.65481E+00         0.00000E+00
    0.30315E+00        -0.52667E+00         0.00000E+00
    0.24514E+00        -0.39708E+00         0.00000E+00
    0.17741E+00        -0.26592E+00         0.00000E+00
    0.96807E-01        -0.13335E+00         0.00000E+00
    0.00000E+00         0.00000E+00         0.00000E+00
    0.10217E+01        -0.20492E+01         0.00000E+00
    0.86859E+00        -0.19181E+01         0.00000E+00
    0.75241E+00        -0.17856E+01         0.00000E+00
    0.66362E+00        -0.16516E+01         0.00000E+00
    0.59435E+00        -0.15163E+01         0.00000E+00
    0.53852E+00        -0.13805E+01         0.00000E+00
    0.49154E+00        -0.12446E+01         0.00000E+00
    0.44995E+00        -0.11089E+01         0.00000E+00
    0.41096E+00        -0.97349E+00         0.00000E+00
    0.37220E+00        -0.83805E+00         0.00000E+00
    0.33139E+00        -0.70222E+00         0.00000E+00
    0.28620E+00        -0.56547E+00         0.00000E+00
    0.23394E+00        -0.42722E+00         0.00000E+00
    0.17144E+00        -0.28694E+00         0.00000E+00
    0.94901E-01        -0.14442E+00         0.00000E+00
    0.00000E+00         0.00000E+00         0.00000E+00
    0.89663E+00        -0.22213E+01         0.00000E+00
    0.75286E+00        -0.20723E+01         0.00000E+00
    0.64862E+00        -0.19222E+01         0.00000E+00
    0.57190E+00        -0.17714E+01         0.00000E+00
    0.51362E+00        -0.16208E+01         0.00000E+00
    0.46744E+00        -0.14712E+01         0.00000E+00
    0.42897E+00        -0.13233E+01         0.00000E+00
    0.39503E+00        -0.11769E+01         0.00000E+00
    0.36319E+00        -0.10320E+01         0.00000E+00
    0.33134E+00        -0.88812E+00         0.00000E+00
    0.29748E+00        -0.74449E+00         0.00000E+00
    0.25946E+00        -0.60033E+00         0.00000E+00
    0.21464E+00        -0.45466E+00         0.00000E+00
    0.15963E+00        -0.30647E+00         0.00000E+00
    0.89940E-01        -0.15496E+00         0.00000E+00
    0.00000E+00         0.00000E+00         0.00000E+00
    0.73536E+00        -0.23830E+01         0.00000E+00
    0.60819E+00        -0.22143E+01         0.00000E+00
    0.52158E+00        -0.20452E+01         0.00000E+00
    0.46054E+00        -0.18769E+01         0.00000E+00
    0.41531E+00        -0.17111E+01         0.00000E+00
    0.37994E+00        -0.15486E+01         0.00000E+00
    0.35067E+00        -0.13896E+01         0.00000E+00
    0.32490E+00        -0.12339E+01         0.00000E+00
    0.30067E+00        -0.10809E+01         0.00000E+00
    0.27629E+00        -0.92987E+00         0.00000E+00
    0.25016E+00        -0.77988E+00         0.00000E+00
    0.22045E+00        -0.62980E+00         0.00000E+00
    0.18483E+00        -0.47830E+00         0.00000E+00
    0.13993E+00        -0.32379E+00         0.00000E+00
    0.80708E-01        -0.16467E+00         0.00000E+00
    0.00000E+00         0.00000E+00         0.00000E+00
    0.53390E+00        -0.25251E+01         0.00000E+00
    0.43343E+00        -0.23350E+01         0.00000E+00
    0.37103E+00        -0.21460E+01         0.00000E+00
    0.32888E+00        -0.19609E+01         0.00000E+00
    0.29815E+00        -0.17816E+01         0.00000E+00
    0.27431E+00        -0.16081E+01         0.00000E+00
    0.25465E+00        -0.14402E+01         0.00000E+00
    0.23734E+00        -0.12770E+01         0.00000E+00
    0.22101E+00        -0.11178E+01         0.00000E+00
    0.20452E+00        -0.96136E+00         0.00000E+00
    0.18673E+00        -0.80667E+00         0.00000E+00
    0.16631E+00        -0.65236E+00         0.00000E+00
    0.14149E+00        -0.49682E+00         0.00000E+00
    0.10954E+00        -0.33799E+00         0.00000E+00
    0.65383E-01        -0.17318E+00         0.00000E+00
    0.00000E+00         0.00000E+00         0.00000E+00
    0.28846E+00        -0.26339E+01         0.00000E+00
    0.22957E+00        -0.24211E+01         0.00000E+00
    0.19738E+00        -0.22138E+01         0.00000E+00
    0.17595E+00        -0.20157E+01         0.00000E+00
    0.16046E+00        -0.18266E+01         0.00000E+00
    0.14848E+00        -0.16457E+01         0.00000E+00
    0.13860E+00        -0.14719E+01         0.00000E+00
    0.12989E+00        -0.13039E+01         0.00000E+00
    0.12167E+00        -0.11407E+01         0.00000E+00
    0.11333E+00        -0.98095E+00         0.00000E+00
    0.10431E+00        -0.82341E+00         0.00000E+00
    0.93897E-01        -0.66659E+00         0.00000E+00
    0.81141E-01        -0.50876E+00         0.00000E+00
    0.64469E-01        -0.34767E+00         0.00000E+00
    0.40825E-01        -0.17993E+00         0.00000E+00
    0.00000E+00         0.00000E+00         0.00000E+00
    0.00000E+00        -0.26822E+01         0.00000E+00
    0.00000E+00        -0.24534E+01         0.00000E+00
    0.00000E+00        -0.22380E+01         0.00000E+00
    0.00000E+00        -0.20348E+01         0.00000E+00
    0.00000E+00        -0.18422E+01         0.00000E+00
    0.00000E+00        -0.16586E+01         0.00000E+00
    0.00000E+00        -0.14827E+01         0.00000E+00
    0.00000E+00        -0.13131E+01         0.00000E+00
    0.00000E+00        -0.11485E+01         0.00000E+00
    0.00000E+00        -0.98760E+00         0.00000E+00
    0.00000E+00        -0.82909E+00         0.00000E+00
    0.00000E+00        -0.67145E+00         0.00000E+00
    0.00000E+00        -0.51290E+00         0.00000E+00
    0.00000E+00        -0.35114E+00         0.00000E+00
    0.00000E+00        -0.18277E+00         0.00000E+00
    0.00000E+00         0.00000E+00         0.00000E+00
CELL_DATA        450
VECTORS vDarcy double 
    0.85361E-08         0.70493E-10         0.00000E+00
    0.85207E-08         0.19869E-09         0.00000E+00
    0.85030E-08         0.30119E-09         0.00000E+00
    0.84839E-08         0.37839E-09         0.00000E+00
    0.84645E-08         0.43169E-09         0.00000E+00
    0.84452E-08         0.46305E-09         0.00000E+00
    0.84267E-08         0.47470E-09         0.00000E+00
    0.84092E-08         0.46886E-09         0.00000E+00
    0.83928E-08         0.44750E-09         0.00000E+00
    0.83776E-08         0.41222E-09         0.00000E+00
    0.83638E-08         0.36416E-09         0.00000E+00
    0.83512E-08         0.30402E-09         0.00000E+00
    0.83399E-08         0.23201E-09         0.00000E+00
    0.83300E-08         0.14798E-09         0.00000E+00
    0.83217E-08         0.51460E-10         0.00000E+00
    0.25862E-07         0.73509E-10         0.00000E+00
    0.25815E-07         0.20663E-09         0.00000E+00
    0.25761E-07         0.31206E-09         0.00000E+00
    0.25703E-07         0.39062E-09         0.00000E+00
    0.25644E-07         0.44410E-09         0.00000E+00
    0.25586E-07         0.47486E-09         0.00000E+00
    0.25530E-07         0.48545E-09         0.00000E+00
    0.25477E-07         0.47833E-09         0.00000E+00
    0.25428E-07         0.45565E-09         0.00000E+00
    0.25382E-07         0.41911E-09         0.00000E+00
    0.25341E-07         0.36989E-09         0.00000E+00
    0.25303E-07         0.30865E-09         0.00000E+00
    0.25269E-07         0.23554E-09         0.00000E+00
    0.25239E-07         0.15028E-09         0.00000E+00
    0.25214E-07         0.52281E-10         0.00000E+00
    0.43954E-07         0.79529E-10         0.00000E+00
    0.43871E-07         0.22242E-09         0.00000E+00
    0.43777E-07         0.33353E-09         0.00000E+00
    0.43678E-07         0.41457E-09         0.00000E+00
    0.43577E-07         0.46821E-09         0.00000E+00
    0.43479E-07         0.49758E-09         0.00000E+00
    0.43385E-07         0.50591E-09         0.00000E+00
    0.43297E-07         0.49616E-09         0.00000E+00
    0.43215E-07         0.47084E-09         0.00000E+00
    0.43139E-07         0.43185E-09         0.00000E+00
    0.43070E-07         0.38043E-09         0.00000E+00
    0.43007E-07         0.31716E-09         0.00000E+00
    0.42950E-07         0.24204E-09         0.00000E+00
    0.42900E-07         0.15456E-09         0.00000E+00
    0.42857E-07         0.53814E-10         0.00000E+00
    0.63330E-07         0.88503E-10         0.00000E+00
    0.63206E-07         0.24580E-09         0.00000E+00
    0.63067E-07         0.36495E-09         0.00000E+00
    0.62923E-07         0.44914E-09         0.00000E+00
    0.62778E-07         0.50246E-09         0.00000E+00
    0.62637E-07         0.52929E-09         0.00000E+00
    0.62504E-07         0.53389E-09         0.00000E+00
    0.62380E-07         0.52002E-09         0.00000E+00
    0.62265E-07         0.49074E-09         0.00000E+00
    0.62159E-07         0.44824E-09         0.00000E+00
    0.62062E-07         0.39383E-09         0.00000E+00
    0.61974E-07         0.32798E-09         0.00000E+00
    0.61895E-07         0.25037E-09         0.00000E+00
    0.61824E-07         0.16011E-09         0.00000E+00
    0.61763E-07         0.55831E-10         0.00000E+00
    0.84526E-07         0.10030E-09         0.00000E+00
    0.84351E-07         0.27620E-09         0.00000E+00
    0.84161E-07         0.40509E-09         0.00000E+00
    0.83965E-07         0.49236E-09         0.00000E+00
    0.83772E-07         0.54416E-09         0.00000E+00
    0.83587E-07         0.56669E-09         0.00000E+00
    0.83413E-07         0.56569E-09         0.00000E+00
    0.83253E-07         0.54603E-09         0.00000E+00
    0.83105E-07         0.51151E-09         0.00000E+00
    0.82970E-07         0.46470E-09         0.00000E+00
    0.82847E-07         0.40696E-09         0.00000E+00
    0.82734E-07         0.33852E-09         0.00000E+00
    0.82632E-07         0.25864E-09         0.00000E+00
    0.82540E-07         0.16581E-09         0.00000E+00
    0.82459E-07         0.57959E-10         0.00000E+00
    0.10809E-06         0.11465E-09         0.00000E+00
    0.10786E-06         0.31260E-09         0.00000E+00
    0.10760E-06         0.45186E-09         0.00000E+00
    0.10735E-06         0.54100E-09         0.00000E+00
    0.10710E-06         0.58905E-09         0.00000E+00
    0.10687E-06         0.60470E-09         0.00000E+00
    0.10666E-06         0.59569E-09         0.00000E+00
    0.10646E-06         0.56835E-09         0.00000E+00
    0.10628E-06         0.52740E-09         0.00000E+00
    0.10612E-06         0.47586E-09         0.00000E+00
    0.10597E-06         0.41511E-09         0.00000E+00
    0.10584E-06         0.34499E-09         0.00000E+00
    0.10571E-06         0.26409E-09         0.00000E+00
    0.10560E-06         0.16999E-09         0.00000E+00
    0.10550E-06         0.59649E-10         0.00000E+00
    0.13461E-06         0.13101E-09         0.00000E+00
    0.13429E-06         0.35315E-09         0.00000E+00
    0.13397E-06         0.50184E-09         0.00000E+00
    0.13365E-06         0.59004E-09         0.00000E+00
    0.13334E-06         0.63070E-09         0.00000E+00
    0.13306E-06         0.63583E-09         0.00000E+00
    0.13281E-06         0.61571E-09         0.00000E+00
    0.13258E-06         0.57855E-09         0.00000E+00
    0.13237E-06         0.53020E-09         0.00000E+00
    0.13218E-06         0.47416E-09         0.00000E+00
    0.13201E-06         0.41169E-09         0.00000E+00
    0.13185E-06         0.34204E-09         0.00000E+00
    0.13171E-06         0.26281E-09         0.00000E+00
    0.13157E-06         0.17034E-09         0.00000E+00
    0.13145E-06         0.60133E-10         0.00000E+00
    0.16467E-06         0.14847E-09         0.00000E+00
    0.16426E-06         0.39489E-09         0.00000E+00
    0.16384E-06         0.54975E-09         0.00000E+00
    0.16345E-06         0.63200E-09         0.00000E+00
    0.16308E-06         0.65979E-09         0.00000E+00
    0.16275E-06         0.64936E-09         0.00000E+00
    0.16246E-06         0.61428E-09         0.00000E+00
    0.16220E-06         0.56498E-09         0.00000E+00
    0.16197E-06         0.50865E-09         0.00000E+00
    0.16176E-06         0.44923E-09         0.00000E+00
    0.16157E-06         0.38769E-09         0.00000E+00
    0.16139E-06         0.32239E-09         0.00000E+00
    0.16123E-06         0.24953E-09         0.00000E+00
    0.16107E-06         0.16367E-09         0.00000E+00
    0.16092E-06         0.58363E-10         0.00000E+00
    0.19889E-06         0.16553E-09         0.00000E+00
    0.19836E-06         0.43318E-09         0.00000E+00
    0.19784E-06         0.58775E-09         0.00000E+00
    0.19736E-06         0.65610E-09         0.00000E+00
    0.19693E-06         0.66315E-09         0.00000E+00
    0.19655E-06         0.63050E-09         0.00000E+00
    0.19622E-06         0.57571E-09         0.00000E+00
    0.19594E-06         0.51189E-09         0.00000E+00
    0.19570E-06         0.44764E-09         0.00000E+00
    0.19548E-06         0.38728E-09         0.00000E+00
    0.19528E-06         0.33121E-09         0.00000E+00
    0.19509E-06         0.27645E-09         0.00000E+00
    0.19491E-06         0.21725E-09         0.00000E+00
    0.19473E-06         0.14579E-09         0.00000E+00
    0.19455E-06         0.52956E-10         0.00000E+00
    0.23792E-06         0.17994E-09         0.00000E+00
    0.23724E-06         0.46120E-09         0.00000E+00
    0.23660E-06         0.60457E-09         0.00000E+00
    0.23602E-06         0.64729E-09         0.00000E+00
    0.23553E-06         0.62281E-09         0.00000E+00
    0.23511E-06         0.55936E-09         0.00000E+00
    0.23475E-06         0.47924E-09         0.00000E+00
    0.23446E-06         0.39860E-09         0.00000E+00
    0.23421E-06         0.32751E-09         0.00000E+00
    0.23400E-06         0.27045E-09         0.00000E+00
    0.23380E-06         0.22686E-09         0.00000E+00
    0.23361E-06         0.19184E-09         0.00000E+00
    0.23341E-06         0.15700E-09         0.00000E+00
    0.23321E-06         0.11132E-09         0.00000E+00
    0.23301E-06         0.42127E-10         0.00000E+00
    0.28240E-06         0.18839E-09         0.00000E+00
    0.28154E-06         0.46917E-09         0.00000E+00
    0.28076E-06         0.58461E-09         0.00000E+00
    0.28009E-06         0.58518E-09         0.00000E+00
    0.27953E-06         0.51489E-09         0.00000E+00
    0.27907E-06         0.40992E-09         0.00000E+00
    0.27871E-06         0.29806E-09         0.00000E+00
    0.27843E-06         0.19871E-09         0.00000E+00
    0.27820E-06         0.12336E-09         0.00000E+00
    0.27800E-06         0.76257E-10         0.00000E+00
    0.27782E-06         0.55315E-10         0.00000E+00
    0.27764E-06         0.53022E-10         0.00000E+00
    0.27744E-06         0.57469E-10         0.00000E+00
    0.27722E-06         0.53443E-10         0.00000E+00
    0.27698E-06         0.23620E-10         0.00000E+00
    0.33299E-06         0.18624E-09         0.00000E+00
    0.33191E-06         0.44369E-09         0.00000E+00
    0.33097E-06         0.50692E-09         0.00000E+00
    0.33020E-06         0.44295E-09         0.00000E+00
    0.32959E-06         0.30855E-09         0.00000E+00
    0.32912E-06         0.14914E-09         0.00000E+00
    0.32877E-06        -0.14479E-11         0.00000E+00
    0.32852E-06        -0.12049E-09         0.00000E+00
    0.32834E-06        -0.19544E-09         0.00000E+00
    0.32818E-06        -0.22282E-09         0.00000E+00
    0.32804E-06        -0.20699E-09         0.00000E+00
    0.32788E-06        -0.15896E-09         0.00000E+00
    0.32769E-06        -0.95166E-10         0.00000E+00
    0.32746E-06        -0.36182E-10         0.00000E+00
    0.32718E-06        -0.53426E-11         0.00000E+00
    0.39032E-06         0.16720E-09         0.00000E+00
    0.38899E-06         0.36684E-09         0.00000E+00
    0.38788E-06         0.34418E-09         0.00000E+00
    0.38701E-06         0.18636E-09         0.00000E+00
    0.38636E-06        -0.34822E-10         0.00000E+00
    0.38591E-06        -0.26366E-09         0.00000E+00
    0.38561E-06        -0.46004E-09         0.00000E+00
    0.38543E-06        -0.59824E-09         0.00000E+00
    0.38533E-06        -0.66529E-09         0.00000E+00
    0.38525E-06        -0.65933E-09         0.00000E+00
    0.38518E-06        -0.58790E-09         0.00000E+00
    0.38507E-06        -0.46653E-09         0.00000E+00
    0.38490E-06        -0.31732E-09         0.00000E+00
    0.38466E-06        -0.16754E-09         0.00000E+00
    0.38434E-06        -0.48096E-10         0.00000E+00
    0.45500E-06         0.12302E-09         0.00000E+00
    0.45338E-06         0.21548E-09         0.00000E+00
    0.45210E-06         0.61829E-10         0.00000E+00
    0.45115E-06        -0.22691E-09         0.00000E+00
    0.45050E-06        -0.56200E-09         0.00000E+00
    0.45010E-06        -0.87684E-09         0.00000E+00
    0.44990E-06        -0.11254E-08         0.00000E+00
    0.44984E-06        -0.12798E-08         0.00000E+00
    0.44986E-06        -0.13278E-08         0.00000E+00
    0.44990E-06        -0.12702E-08         0.00000E+00
    0.44993E-06        -0.11190E-08         0.00000E+00
    0.44990E-06        -0.89524E-09         0.00000E+00
    0.44977E-06        -0.62783E-09         0.00000E+00
    0.44953E-06        -0.35218E-09         0.00000E+00
    0.44917E-06        -0.10854E-09         0.00000E+00
    0.52758E-06         0.43142E-10         0.00000E+00
    0.52564E-06        -0.39413E-10         0.00000E+00
    0.52419E-06        -0.38244E-09         0.00000E+00
    0.52319E-06        -0.84749E-09         0.00000E+00
    0.52258E-06        -0.13276E-08         0.00000E+00
    0.52230E-06        -0.17456E-08         0.00000E+00
    0.52225E-06        -0.20507E-08         0.00000E+00
    0.52237E-06        -0.22148E-08         0.00000E+00
    0.52258E-06        -0.22280E-08         0.00000E+00
    0.52280E-06        -0.20954E-08         0.00000E+00
    0.52297E-06        -0.18345E-08         0.00000E+00
    0.52305E-06        -0.14729E-08         0.00000E+00
    0.52300E-06        -0.10474E-08         0.00000E+00
    0.52277E-06        -0.60304E-09         0.00000E+00
    0.52237E-06        -0.19108E-09         0.00000E+00
    0.60851E-06        -0.85445E-10         0.00000E+00
    0.60624E-06        -0.43310E-09         0.00000E+00
    0.60464E-06        -0.10387E-08         0.00000E+00
    0.60364E-06        -0.17335E-08         0.00000E+00
    0.60315E-06        -0.23924E-08         0.00000E+00
    0.60306E-06        -0.29294E-08         0.00000E+00
    0.60325E-06        -0.32919E-08         0.00000E+00
    0.60363E-06        -0.34542E-08         0.00000E+00
    0.60409E-06        -0.34114E-08         0.00000E+00
    0.60455E-06        -0.31749E-08         0.00000E+00
    0.60493E-06        -0.27686E-08         0.00000E+00
    0.60517E-06        -0.22278E-08         0.00000E+00
    0.60521E-06        -0.15978E-08         0.00000E+00
    0.60501E-06        -0.93393E-09         0.00000E+00
    0.60456E-06        -0.30051E-09         0.00000E+00
    0.69815E-06        -0.27834E-09         0.00000E+00
    0.69555E-06        -0.10069E-08         0.00000E+00
    0.69385E-06        -0.19638E-08         0.00000E+00
    0.69294E-06        -0.29486E-08         0.00000E+00
    0.69266E-06        -0.38202E-08         0.00000E+00
    0.69285E-06        -0.44880E-08         0.00000E+00
    0.69338E-06        -0.49025E-08         0.00000E+00
    0.69411E-06        -0.50449E-08         0.00000E+00
    0.69491E-06        -0.49188E-08         0.00000E+00
    0.69568E-06        -0.45440E-08         0.00000E+00
    0.69633E-06        -0.39522E-08         0.00000E+00
    0.69677E-06        -0.31862E-08         0.00000E+00
    0.69695E-06        -0.22997E-08         0.00000E+00
    0.69681E-06        -0.13587E-08         0.00000E+00
    0.69632E-06        -0.44182E-09         0.00000E+00
    0.79667E-06        -0.55356E-09         0.00000E+00
    0.79377E-06        -0.18075E-08         0.00000E+00
    0.79207E-06        -0.32190E-08         0.00000E+00
    0.79135E-06        -0.45578E-08         0.00000E+00
    0.79141E-06        -0.56720E-08         0.00000E+00
    0.79202E-06        -0.64742E-08         0.00000E+00
    0.79300E-06        -0.69257E-08         0.00000E+00
    0.79418E-06        -0.70216E-08         0.00000E+00
    0.79541E-06        -0.67787E-08         0.00000E+00
    0.79657E-06        -0.62273E-08         0.00000E+00
    0.79756E-06        -0.54075E-08         0.00000E+00
    0.79828E-06        -0.43684E-08         0.00000E+00
    0.79865E-06        -0.31709E-08         0.00000E+00
    0.79859E-06        -0.18903E-08         0.00000E+00
    0.79806E-06        -0.61987E-09         0.00000E+00
    0.90404E-06        -0.93114E-09         0.00000E+00
    0.90094E-06        -0.28849E-08         0.00000E+00
    0.89937E-06        -0.48662E-08         0.00000E+00
    0.89901E-06        -0.66207E-08         0.00000E+00
    0.89956E-06        -0.79968E-08         0.00000E+00
    0.90074E-06        -0.89230E-08         0.00000E+00
    0.90230E-06        -0.93832E-08         0.00000E+00
    0.90405E-06        -0.93958E-08         0.00000E+00
    0.90581E-06        -0.89965E-08         0.00000E+00
    0.90745E-06        -0.82288E-08         0.00000E+00
    0.90885E-06        -0.71402E-08         0.00000E+00
    0.90991E-06        -0.57834E-08         0.00000E+00
    0.91052E-06        -0.42224E-08         0.00000E+00
    0.91058E-06        -0.25388E-08         0.00000E+00
    0.91003E-06        -0.83892E-09         0.00000E+00
    0.10200E-05        -0.14322E-08         0.00000E+00
    0.10168E-05        -0.42891E-08         0.00000E+00
    0.10156E-05        -0.69607E-08         0.00000E+00
    0.10158E-05        -0.91814E-08         0.00000E+00
    0.10171E-05        -0.10819E-07         0.00000E+00
    0.10190E-05        -0.11837E-07         0.00000E+00
    0.10213E-05        -0.12259E-07         0.00000E+00
    0.10237E-05        -0.12140E-07         0.00000E+00
    0.10261E-05        -0.11542E-07         0.00000E+00
    0.10283E-05        -0.10521E-07         0.00000E+00
    0.10302E-05        -0.91307E-08         0.00000E+00
    0.10316E-05        -0.74220E-08         0.00000E+00
    0.10326E-05        -0.54544E-08         0.00000E+00
    0.10328E-05        -0.33093E-08         0.00000E+00
    0.10323E-05        -0.11021E-08         0.00000E+00
    0.11439E-05        -0.20775E-08         0.00000E+00
    0.11410E-05        -0.60649E-08         0.00000E+00
    0.11404E-05        -0.95411E-08         0.00000E+00
    0.11414E-05        -0.12253E-07         0.00000E+00
    0.11436E-05        -0.14118E-07         0.00000E+00
    0.11465E-05        -0.15165E-07         0.00000E+00
    0.11496E-05        -0.15481E-07         0.00000E+00
    0.11528E-05        -0.15172E-07         0.00000E+00
    0.11559E-05        -0.14330E-07         0.00000E+00
    0.11587E-05        -0.13030E-07         0.00000E+00
    0.11612E-05        -0.11323E-07         0.00000E+00
    0.11631E-05        -0.92485E-08         0.00000E+00
    0.11644E-05        -0.68509E-08         0.00000E+00
    0.11650E-05        -0.41996E-08         0.00000E+00
    0.11645E-05        -0.14107E-08         0.00000E+00
    0.12747E-05        -0.28852E-08         0.00000E+00
    0.12725E-05        -0.82435E-08         0.00000E+00
    0.12729E-05        -0.12614E-07         0.00000E+00
    0.12752E-05        -0.15797E-07         0.00000E+00
    0.12786E-05        -0.17806E-07         0.00000E+00
    0.12826E-05        -0.18779E-07         0.00000E+00
    0.12867E-05        -0.18896E-07         0.00000E+00
    0.12908E-05        -0.18328E-07         0.00000E+00
    0.12946E-05        -0.17208E-07         0.00000E+00
    0.12981E-05        -0.15622E-07         0.00000E+00
    0.13012E-05        -0.13612E-07         0.00000E+00
    0.13037E-05        -0.11192E-07         0.00000E+00
    0.13055E-05        -0.83736E-08         0.00000E+00
    0.13063E-05        -0.51969E-08         0.00000E+00
    0.13060E-05        -0.17633E-08         0.00000E+00
    0.14112E-05        -0.38672E-08         0.00000E+00
    0.14102E-05        -0.10830E-07         0.00000E+00
    0.14122E-05        -0.16129E-07         0.00000E+00
    0.14162E-05        -0.19689E-07         0.00000E+00
    0.14211E-05        -0.21694E-07         0.00000E+00
    0.14264E-05        -0.22443E-07         0.00000E+00
    0.14315E-05        -0.22246E-07         0.00000E+00
    0.14365E-05        -0.21353E-07         0.00000E+00
    0.14410E-05        -0.19937E-07         0.00000E+00
    0.14452E-05        -0.18089E-07         0.00000E+00
    0.14489E-05        -0.15831E-07         0.00000E+00
    0.14520E-05        -0.13134E-07         0.00000E+00
    0.14544E-05        -0.99541E-08         0.00000E+00
    0.14557E-05        -0.62735E-08         0.00000E+00
    0.14558E-05        -0.21545E-08         0.00000E+00
    0.15513E-05        -0.50234E-08         0.00000E+00
    0.15524E-05        -0.13783E-07         0.00000E+00
    0.15568E-05        -0.19947E-07         0.00000E+00
    0.15629E-05        -0.23681E-07         0.00000E+00
    0.15696E-05        -0.25448E-07         0.00000E+00
    0.15763E-05        -0.25782E-07         0.00000E+00
    0.15825E-05        -0.25148E-07         0.00000E+00
    0.15882E-05        -0.23880E-07         0.00000E+00
    0.15934E-05        -0.22183E-07         0.00000E+00
    0.15982E-05        -0.20141E-07         0.00000E+00
    0.16025E-05        -0.17743E-07         0.00000E+00
    0.16063E-05        -0.14901E-07         0.00000E+00
    0.16093E-05        -0.11485E-07         0.00000E+00
    0.16114E-05        -0.73822E-08         0.00000E+00
    0.16120E-05        -0.25738E-08         0.00000E+00
    0.16926E-05        -0.63318E-08         0.00000E+00
    0.16969E-05        -0.16981E-07         0.00000E+00
    0.17046E-05        -0.23778E-07         0.00000E+00
    0.17134E-05        -0.27333E-07         0.00000E+00
    0.17222E-05        -0.28547E-07         0.00000E+00
    0.17302E-05        -0.28259E-07         0.00000E+00
    0.17374E-05        -0.27094E-07         0.00000E+00
    0.17437E-05        -0.25446E-07         0.00000E+00
    0.17495E-05        -0.23528E-07         0.00000E+00
    0.17547E-05        -0.21409E-07         0.00000E+00
    0.17595E-05        -0.19037E-07         0.00000E+00
    0.17639E-05        -0.16252E-07         0.00000E+00
    0.17679E-05        -0.12809E-07         0.00000E+00
    0.17709E-05        -0.84477E-08         0.00000E+00
    0.17724E-05        -0.30028E-08         0.00000E+00
    0.18319E-05        -0.77303E-08         0.00000E+00
    0.18412E-05        -0.20153E-07         0.00000E+00
    0.18532E-05        -0.27085E-07         0.00000E+00
    0.18652E-05        -0.29934E-07         0.00000E+00
    0.18760E-05        -0.30245E-07         0.00000E+00
    0.18852E-05        -0.29187E-07         0.00000E+00
    0.18931E-05        -0.27483E-07         0.00000E+00
    0.18999E-05        -0.25529E-07         0.00000E+00
    0.19059E-05        -0.23511E-07         0.00000E+00
    0.19114E-05        -0.21472E-07         0.00000E+00
    0.19166E-05        -0.19329E-07         0.00000E+00
    0.19216E-05        -0.16861E-07         0.00000E+00
    0.19265E-05        -0.13696E-07         0.00000E+00
    0.19309E-05        -0.93526E-08         0.00000E+00
    0.19338E-05        -0.34109E-08         0.00000E+00
    0.19652E-05        -0.90700E-08         0.00000E+00
    0.19819E-05        -0.22752E-07         0.00000E+00
    0.19994E-05        -0.28917E-07         0.00000E+00
    0.20148E-05        -0.30408E-07         0.00000E+00
    0.20274E-05        -0.29587E-07         0.00000E+00
    0.20374E-05        -0.27803E-07         0.00000E+00
    0.20457E-05        -0.25716E-07         0.00000E+00
    0.20525E-05        -0.23639E-07         0.00000E+00
    0.20586E-05        -0.21700E-07         0.00000E+00
    0.20641E-05        -0.19913E-07         0.00000E+00
    0.20695E-05        -0.18192E-07         0.00000E+00
    0.20751E-05        -0.16313E-07         0.00000E+00
    0.20810E-05        -0.13807E-07         0.00000E+00
    0.20870E-05        -0.99056E-08         0.00000E+00
    0.20921E-05        -0.37471E-08         0.00000E+00
    0.20882E-05        -0.10012E-07         0.00000E+00
    0.21153E-05        -0.23619E-07         0.00000E+00
    0.21394E-05        -0.27632E-07         0.00000E+00
    0.21576E-05        -0.27347E-07         0.00000E+00
    0.21712E-05        -0.25605E-07         0.00000E+00
    0.21816E-05        -0.23463E-07         0.00000E+00
    0.21898E-05        -0.21353E-07         0.00000E+00
    0.21965E-05        -0.19450E-07         0.00000E+00
    0.22024E-05        -0.17812E-07         0.00000E+00
    0.22078E-05        -0.16430E-07         0.00000E+00
    0.22131E-05        -0.15242E-07         0.00000E+00
    0.22189E-05        -0.14094E-07         0.00000E+00
    0.22256E-05        -0.12620E-07         0.00000E+00
    0.22337E-05        -0.97706E-08         0.00000E+00
    0.22420E-05        -0.39024E-08         0.00000E+00
    0.21958E-05        -0.94271E-08         0.00000E+00
    0.22377E-05        -0.20124E-07         0.00000E+00
    0.22673E-05        -0.20936E-07         0.00000E+00
    0.22869E-05        -0.19576E-07         0.00000E+00
    0.23007E-05        -0.17742E-07         0.00000E+00
    0.23110E-05        -0.15933E-07         0.00000E+00
    0.23189E-05        -0.14318E-07         0.00000E+00
    0.23254E-05        -0.12952E-07         0.00000E+00
    0.23309E-05        -0.11841E-07         0.00000E+00
    0.23361E-05        -0.10971E-07         0.00000E+00
    0.23412E-05        -0.10313E-07         0.00000E+00
    0.23469E-05        -0.98036E-08         0.00000E+00
    0.23540E-05        -0.92922E-08         0.00000E+00
    0.23640E-05        -0.82228E-08         0.00000E+00
    0.23769E-05        -0.37165E-08         0.00000E+00
    0.22855E-05        -0.42183E-08         0.00000E+00
    0.23431E-05        -0.83656E-08         0.00000E+00
    0.23737E-05        -0.79259E-08         0.00000E+00
    0.23935E-05        -0.71751E-08         0.00000E+00
    0.24072E-05        -0.63805E-08         0.00000E+00
    0.24172E-05        -0.56654E-08         0.00000E+00
    0.24249E-05        -0.50561E-08         0.00000E+00
    0.24312E-05        -0.45564E-08         0.00000E+00
    0.24365E-05        -0.41619E-08         0.00000E+00
    0.24415E-05        -0.38663E-08         0.00000E+00
    0.24465E-05        -0.36622E-08         0.00000E+00
    0.24520E-05        -0.35410E-08         0.00000E+00
    0.24590E-05        -0.34670E-08         0.00000E+00
    0.24689E-05        -0.34670E-08         0.00000E+00
    0.24881E-05        -0.17526E-08         0.00000E+00
POINT_DATA        496
VECTORS vDarcyNodal double 
    0.85368E-08         0.69739E-10         0.00000E+00
    0.85290E-08         0.13322E-09         0.00000E+00
    0.85122E-08         0.24757E-09         0.00000E+00
    0.84936E-08         0.33688E-09         0.00000E+00
    0.84742E-08         0.40192E-09         0.00000E+00
    0.84548E-08         0.44429E-09         0.00000E+00
    0.84358E-08         0.46599E-09         0.00000E+00
    0.84178E-08         0.46918E-09         0.00000E+00
    0.84008E-08         0.45590E-09         0.00000E+00
    0.83850E-08         0.42790E-09         0.00000E+00
    0.83706E-08         0.38654E-09         0.00000E+00
    0.83573E-08         0.33273E-09         0.00000E+00
    0.83454E-08         0.26695E-09         0.00000E+00
    0.83348E-08         0.18923E-09         0.00000E+00
    0.83257E-08         0.99314E-10         0.00000E+00
    0.83214E-08         0.51247E-10         0.00000E+00
    0.17201E-07         0.71248E-10         0.00000E+00
    0.17185E-07         0.13596E-09         0.00000E+00
    0.17151E-07         0.25230E-09         0.00000E+00
    0.17113E-07         0.34270E-09         0.00000E+00
    0.17074E-07         0.40815E-09         0.00000E+00
    0.17035E-07         0.45043E-09         0.00000E+00
    0.16997E-07         0.47174E-09         0.00000E+00
    0.16960E-07         0.47436E-09         0.00000E+00
    0.16926E-07         0.46044E-09         0.00000E+00
    0.16895E-07         0.43179E-09         0.00000E+00
    0.16866E-07         0.38981E-09         0.00000E+00
    0.16839E-07         0.33542E-09         0.00000E+00
    0.16816E-07         0.26906E-09         0.00000E+00
    0.16794E-07         0.19075E-09         0.00000E+00
    0.16776E-07         0.10012E-09         0.00000E+00
    0.16767E-07         0.51670E-10         0.00000E+00
    0.34911E-07         0.75772E-10         0.00000E+00
    0.34878E-07         0.14418E-09         0.00000E+00
    0.34807E-07         0.26639E-09         0.00000E+00
    0.34730E-07         0.35997E-09         0.00000E+00
    0.34650E-07         0.42655E-09         0.00000E+00
    0.34571E-07         0.46850E-09         0.00000E+00
    0.34494E-07         0.48854E-09         0.00000E+00
    0.34421E-07         0.48939E-09         0.00000E+00
    0.34353E-07         0.47351E-09         0.00000E+00
    0.34290E-07         0.44294E-09         0.00000E+00
    0.34232E-07         0.39916E-09         0.00000E+00
    0.34180E-07         0.34309E-09         0.00000E+00
    0.34132E-07         0.27510E-09         0.00000E+00
    0.34089E-07         0.19506E-09         0.00000E+00
    0.34052E-07         0.10244E-09         0.00000E+00
    0.34035E-07         0.52888E-10         0.00000E+00
    0.53646E-07         0.83287E-10         0.00000E+00
    0.53594E-07         0.15777E-09         0.00000E+00
    0.53482E-07         0.28956E-09         0.00000E+00
    0.53362E-07         0.38812E-09         0.00000E+00
    0.53239E-07         0.45621E-09         0.00000E+00
    0.53117E-07         0.49726E-09         0.00000E+00
    0.53000E-07         0.51492E-09         0.00000E+00
    0.52890E-07         0.51265E-09         0.00000E+00
    0.52788E-07         0.49346E-09         0.00000E+00
    0.52693E-07         0.45972E-09         0.00000E+00
    0.52607E-07         0.41309E-09         0.00000E+00
    0.52528E-07         0.35447E-09         0.00000E+00
    0.52456E-07         0.28408E-09         0.00000E+00
    0.52392E-07         0.20152E-09         0.00000E+00
    0.52335E-07         0.10593E-09         0.00000E+00
    0.52309E-07         0.54736E-10         0.00000E+00
    0.73934E-07         0.93720E-10         0.00000E+00
    0.73858E-07         0.17653E-09         0.00000E+00
    0.73699E-07         0.32118E-09         0.00000E+00
    0.73530E-07         0.42596E-09         0.00000E+00
    0.73359E-07         0.49537E-09         0.00000E+00
    0.73192E-07         0.53445E-09         0.00000E+00
    0.73034E-07         0.54821E-09         0.00000E+00
    0.72886E-07         0.54122E-09         0.00000E+00
    0.72749E-07         0.51727E-09         0.00000E+00
    0.72624E-07         0.47923E-09         0.00000E+00
    0.72509E-07         0.42896E-09         0.00000E+00
    0.72404E-07         0.36731E-09         0.00000E+00
    0.72308E-07         0.29424E-09         0.00000E+00
    0.72222E-07         0.20894E-09         0.00000E+00
    0.72146E-07         0.11000E-09         0.00000E+00
    0.72110E-07         0.56921E-10         0.00000E+00
    0.96317E-07         0.10689E-09         0.00000E+00
    0.96212E-07         0.19998E-09         0.00000E+00
    0.95996E-07         0.36010E-09         0.00000E+00
    0.95771E-07         0.47147E-09         0.00000E+00
    0.95547E-07         0.54112E-09         0.00000E+00
    0.95332E-07         0.57636E-09         0.00000E+00
    0.95131E-07         0.58412E-09         0.00000E+00
    0.94945E-07         0.57046E-09         0.00000E+00
    0.94774E-07         0.54023E-09         0.00000E+00
    0.94619E-07         0.49694E-09         0.00000E+00
    0.94477E-07         0.44266E-09         0.00000E+00
    0.94347E-07         0.37813E-09         0.00000E+00
    0.94228E-07         0.30289E-09         0.00000E+00
    0.94120E-07         0.21549E-09         0.00000E+00
    0.94022E-07         0.11375E-09         0.00000E+00
    0.93977E-07         0.58992E-10         0.00000E+00
    0.12136E-06         0.12241E-09         0.00000E+00
    0.12122E-06         0.22726E-09         0.00000E+00
    0.12093E-06         0.40433E-09         0.00000E+00
    0.12064E-06         0.52135E-09         0.00000E+00
    0.12036E-06         0.58888E-09         0.00000E+00
    0.12009E-06         0.61734E-09         0.00000E+00
    0.11985E-06         0.61622E-09         0.00000E+00
    0.11962E-06         0.59353E-09         0.00000E+00
    0.11942E-06         0.55546E-09         0.00000E+00
    0.11924E-06         0.50628E-09         0.00000E+00
    0.11907E-06         0.44827E-09         0.00000E+00
    0.11892E-06         0.38193E-09         0.00000E+00
    0.11878E-06         0.30615E-09         0.00000E+00
    0.11865E-06         0.21857E-09         0.00000E+00
    0.11853E-06         0.11588E-09         0.00000E+00
    0.11847E-06         0.60302E-10         0.00000E+00
    0.14965E-06         0.13961E-09         0.00000E+00
    0.14946E-06         0.25689E-09         0.00000E+00
    0.14909E-06         0.45063E-09         0.00000E+00
    0.14872E-06         0.57048E-09         0.00000E+00
    0.14838E-06         0.63180E-09         0.00000E+00
    0.14806E-06         0.64912E-09         0.00000E+00
    0.14777E-06         0.63526E-09         0.00000E+00
    0.14751E-06         0.60069E-09         0.00000E+00
    0.14728E-06         0.55325E-09         0.00000E+00
    0.14707E-06         0.49805E-09         0.00000E+00
    0.14688E-06         0.43754E-09         0.00000E+00
    0.14671E-06         0.37176E-09         0.00000E+00
    0.14655E-06         0.29867E-09         0.00000E+00
    0.14640E-06         0.21456E-09         0.00000E+00
    0.14625E-06         0.11458E-09         0.00000E+00
    0.14619E-06         0.59958E-10         0.00000E+00
    0.18179E-06         0.15732E-09         0.00000E+00
    0.18155E-06         0.28644E-09         0.00000E+00
    0.18107E-06         0.49396E-09         0.00000E+00
    0.18062E-06         0.61121E-09         0.00000E+00
    0.18020E-06         0.65991E-09         0.00000E+00
    0.17982E-06         0.65995E-09         0.00000E+00
    0.17949E-06         0.62831E-09         0.00000E+00
    0.17920E-06         0.57852E-09         0.00000E+00
    0.17895E-06         0.52035E-09         0.00000E+00
    0.17872E-06         0.45980E-09         0.00000E+00
    0.17852E-06         0.39936E-09         0.00000E+00
    0.17834E-06         0.33831E-09         0.00000E+00
    0.17816E-06         0.27324E-09         0.00000E+00
    0.17799E-06         0.19862E-09         0.00000E+00
    0.17782E-06         0.10744E-09         0.00000E+00
    0.17774E-06         0.56763E-10         0.00000E+00
    0.21841E-06         0.17373E-09         0.00000E+00
    0.21811E-06         0.31223E-09         0.00000E+00
    0.21751E-06         0.52690E-09         0.00000E+00
    0.21695E-06         0.63256E-09         0.00000E+00
    0.21645E-06         0.65926E-09         0.00000E+00
    0.21602E-06         0.63363E-09         0.00000E+00
    0.21565E-06         0.57786E-09         0.00000E+00
    0.21534E-06         0.50905E-09         0.00000E+00
    0.21508E-06         0.43917E-09         0.00000E+00
    0.21485E-06         0.37512E-09         0.00000E+00
    0.21464E-06         0.31914E-09         0.00000E+00
    0.21445E-06         0.26937E-09         0.00000E+00
    0.21426E-06         0.22048E-09         0.00000E+00
    0.21407E-06         0.16443E-09         0.00000E+00
    0.21388E-06         0.91308E-10         0.00000E+00
    0.21379E-06         0.49149E-10         0.00000E+00
    0.26017E-06         0.18612E-09         0.00000E+00
    0.25977E-06         0.32885E-09         0.00000E+00
    0.25903E-06         0.53878E-09         0.00000E+00
    0.25836E-06         0.61922E-09         0.00000E+00
    0.25778E-06         0.61078E-09         0.00000E+00
    0.25730E-06         0.54851E-09         0.00000E+00
    0.25690E-06         0.46076E-09         0.00000E+00
    0.25658E-06         0.36883E-09         0.00000E+00
    0.25632E-06         0.28700E-09         0.00000E+00
    0.25611E-06         0.22292E-09         0.00000E+00
    0.25591E-06         0.17825E-09         0.00000E+00
    0.25572E-06         0.14940E-09         0.00000E+00
    0.25553E-06         0.12842E-09         0.00000E+00
    0.25533E-06         0.10392E-09         0.00000E+00
    0.25512E-06         0.62152E-10         0.00000E+00
    0.25500E-06         0.35111E-10         0.00000E+00
    0.30769E-06         0.19061E-09         0.00000E+00
    0.30720E-06         0.32865E-09         0.00000E+00
    0.30628E-06         0.51492E-09         0.00000E+00
    0.30549E-06         0.55052E-09         0.00000E+00
    0.30483E-06         0.48928E-09         0.00000E+00
    0.30431E-06         0.37636E-09         0.00000E+00
    0.30391E-06         0.24735E-09         0.00000E+00
    0.30360E-06         0.12811E-09         0.00000E+00
    0.30337E-06         0.35272E-10         0.00000E+00
    0.30318E-06        -0.23096E-10         0.00000E+00
    0.30302E-06        -0.46477E-10         0.00000E+00
    0.30286E-06        -0.40893E-10         0.00000E+00
    0.30268E-06        -0.17798E-10         0.00000E+00
    0.30247E-06         0.70730E-11         0.00000E+00
    0.30223E-06         0.14951E-10         0.00000E+00
    0.30210E-06         0.12147E-10         0.00000E+00
    0.36164E-06         0.18182E-09         0.00000E+00
    0.36104E-06         0.30122E-09         0.00000E+00
    0.35992E-06         0.43565E-09         0.00000E+00
    0.35899E-06         0.39939E-09         0.00000E+00
    0.35827E-06         0.26235E-09         0.00000E+00
    0.35773E-06         0.81578E-10         0.00000E+00
    0.35734E-06        -0.99304E-10         0.00000E+00
    0.35708E-06        -0.24964E-09         0.00000E+00
    0.35691E-06        -0.35076E-09         0.00000E+00
    0.35678E-06        -0.39473E-09         0.00000E+00
    0.35668E-06        -0.38294E-09         0.00000E+00
    0.35656E-06        -0.32473E-09         0.00000E+00
    0.35641E-06        -0.23608E-09         0.00000E+00
    0.35620E-06        -0.13826E-09         0.00000E+00
    0.35593E-06        -0.56396E-10         0.00000E+00
    0.35579E-06        -0.22793E-10         0.00000E+00
    0.42264E-06         0.15256E-09         0.00000E+00
    0.42189E-06         0.23281E-09         0.00000E+00
    0.42055E-06         0.27545E-09         0.00000E+00
    0.41950E-06         0.13140E-09         0.00000E+00
    0.41873E-06        -0.11038E-09         0.00000E+00
    0.41820E-06        -0.37945E-09         0.00000E+00
    0.41787E-06        -0.62366E-09         0.00000E+00
    0.41769E-06        -0.80783E-09         0.00000E+00
    0.41762E-06        -0.91194E-09         0.00000E+00
    0.41760E-06        -0.92910E-09         0.00000E+00
    0.41759E-06        -0.86359E-09         0.00000E+00
    0.41754E-06        -0.72913E-09         0.00000E+00
    0.41744E-06        -0.54733E-09         0.00000E+00
    0.41725E-06        -0.34631E-09         0.00000E+00
    0.41696E-06        -0.15909E-09         0.00000E+00
    0.41679E-06        -0.73330E-10         0.00000E+00
    0.49125E-06         0.93501E-10         0.00000E+00
    0.49035E-06         0.10579E-09         0.00000E+00
    0.48878E-06         0.21997E-11         0.00000E+00
    0.48761E-06        -0.29583E-09         0.00000E+00
    0.48682E-06        -0.67757E-09         0.00000E+00
    0.48634E-06        -0.10582E-08         0.00000E+00
    0.48612E-06        -0.13772E-08         0.00000E+00
    0.48609E-06        -0.15959E-08         0.00000E+00
    0.48617E-06        -0.16942E-08         0.00000E+00
    0.48630E-06        -0.16676E-08         0.00000E+00
    0.48643E-06        -0.15245E-08         0.00000E+00
    0.48650E-06        -0.12842E-08         0.00000E+00
    0.48647E-06        -0.97502E-09         0.00000E+00
    0.48631E-06        -0.63323E-09         0.00000E+00
    0.48600E-06        -0.30139E-09         0.00000E+00
    0.48581E-06        -0.14363E-09         0.00000E+00
    0.56798E-06        -0.70738E-11         0.00000E+00
    0.56693E-06        -0.10172E-09         0.00000E+00
    0.56511E-06        -0.42323E-09         0.00000E+00
    0.56386E-06        -0.93274E-09         0.00000E+00
    0.56310E-06        -0.14957E-08         0.00000E+00
    0.56274E-06        -0.20128E-08         0.00000E+00
    0.56270E-06        -0.24167E-08         0.00000E+00
    0.56288E-06        -0.26672E-08         0.00000E+00
    0.56318E-06        -0.27463E-08         0.00000E+00
    0.56353E-06        -0.26537E-08         0.00000E+00
    0.56385E-06        -0.24036E-08         0.00000E+00
    0.56408E-06        -0.20217E-08         0.00000E+00
    0.56416E-06        -0.15442E-08         0.00000E+00
    0.56405E-06        -0.10165E-08         0.00000E+00
    0.56373E-06        -0.49236E-09         0.00000E+00
    0.56352E-06        -0.23834E-09         0.00000E+00
    0.65324E-06        -0.16345E-09         0.00000E+00
    0.65202E-06        -0.41603E-09         0.00000E+00
    0.64998E-06        -0.10469E-08         0.00000E+00
    0.64870E-06        -0.18369E-08         0.00000E+00
    0.64804E-06        -0.26270E-08         0.00000E+00
    0.64790E-06        -0.33053E-08         0.00000E+00
    0.64812E-06        -0.38007E-08         0.00000E+00
    0.64860E-06        -0.40751E-08         0.00000E+00
    0.64921E-06        -0.41158E-08         0.00000E+00
    0.64984E-06        -0.39294E-08         0.00000E+00
    0.65042E-06        -0.35371E-08         0.00000E+00
    0.65086E-06        -0.29725E-08         0.00000E+00
    0.65109E-06        -0.22797E-08         0.00000E+00
    0.65107E-06        -0.15141E-08         0.00000E+00
    0.65075E-06        -0.74154E-09         0.00000E+00
    0.65051E-06        -0.36241E-09         0.00000E+00
    0.74727E-06        -0.39246E-09         0.00000E+00
    0.74590E-06        -0.86768E-09         0.00000E+00
    0.74370E-06        -0.19207E-08         0.00000E+00
    0.74246E-06        -0.30710E-08         0.00000E+00
    0.74203E-06        -0.41365E-08         0.00000E+00
    0.74220E-06        -0.49971E-08         0.00000E+00
    0.74280E-06        -0.55838E-08         0.00000E+00
    0.74368E-06        -0.58665E-08         0.00000E+00
    0.74468E-06        -0.58427E-08         0.00000E+00
    0.74569E-06        -0.55288E-08         0.00000E+00
    0.74659E-06        -0.49552E-08         0.00000E+00
    0.74731E-06        -0.41628E-08         0.00000E+00
    0.74774E-06        -0.32039E-08         0.00000E+00
    0.74784E-06        -0.21428E-08         0.00000E+00
    0.74753E-06        -0.10583E-08         0.00000E+00
    0.74728E-06        -0.52086E-09         0.00000E+00
    0.85016E-06        -0.71324E-09         0.00000E+00
    0.84868E-06        -0.14906E-08         0.00000E+00
    0.84639E-06        -0.31005E-08         0.00000E+00
    0.84534E-06        -0.46985E-08         0.00000E+00
    0.84527E-06        -0.60849E-08         0.00000E+00
    0.84590E-06        -0.71402E-08         0.00000E+00
    0.84701E-06        -0.78073E-08         0.00000E+00
    0.84840E-06        -0.80725E-08         0.00000E+00
    0.84990E-06        -0.79501E-08         0.00000E+00
    0.85137E-06        -0.74706E-08         0.00000E+00
    0.85268E-06        -0.66741E-08         0.00000E+00
    0.85373E-06        -0.56088E-08         0.00000E+00
    0.85443E-06        -0.43323E-08         0.00000E+00
    0.85469E-06        -0.29163E-08         0.00000E+00
    0.85442E-06        -0.14509E-08         0.00000E+00
    0.85416E-06        -0.71837E-09         0.00000E+00
    0.96175E-06        -0.11466E-08         0.00000E+00
    0.96021E-06        -0.23207E-08         0.00000E+00
    0.95801E-06        -0.46420E-08         0.00000E+00
    0.95733E-06        -0.67772E-08         0.00000E+00
    0.95780E-06        -0.85200E-08         0.00000E+00
    0.95907E-06        -0.97666E-08         0.00000E+00
    0.96083E-06        -0.10486E-07         0.00000E+00
    0.96286E-06        -0.10695E-07         0.00000E+00
    0.96496E-06        -0.10432E-07         0.00000E+00
    0.96697E-06        -0.97460E-08         0.00000E+00
    0.96877E-06        -0.86876E-08         0.00000E+00
    0.97023E-06        -0.73091E-08         0.00000E+00
    0.97126E-06        -0.56694E-08         0.00000E+00
    0.97174E-06        -0.38421E-08         0.00000E+00
    0.97155E-06        -0.19254E-08         0.00000E+00
    0.97129E-06        -0.95880E-09         0.00000E+00
    0.10816E-05        -0.17138E-08         0.00000E+00
    0.10801E-05        -0.33931E-08         0.00000E+00
    0.10782E-05        -0.65946E-08         0.00000E+00
    0.10782E-05        -0.93484E-08         0.00000E+00
    0.10794E-05        -0.11462E-07         0.00000E+00
    0.10815E-05        -0.12871E-07         0.00000E+00
    0.10841E-05        -0.13593E-07         0.00000E+00
    0.10869E-05        -0.13690E-07         0.00000E+00
    0.10897E-05        -0.13237E-07         0.00000E+00
    0.10923E-05        -0.12305E-07         0.00000E+00
    0.10947E-05        -0.10955E-07         0.00000E+00
    0.10966E-05        -0.92363E-08         0.00000E+00
    0.10981E-05        -0.72017E-08         0.00000E+00
    0.10988E-05        -0.49181E-08         0.00000E+00
    0.10988E-05        -0.24842E-08         0.00000E+00
    0.10985E-05        -0.12446E-08         0.00000E+00
    0.12089E-05        -0.24350E-08         0.00000E+00
    0.12077E-05        -0.47380E-08         0.00000E+00
    0.12064E-05        -0.89921E-08         0.00000E+00
    0.12074E-05        -0.12422E-07         0.00000E+00
    0.12097E-05        -0.14885E-07         0.00000E+00
    0.12129E-05        -0.16389E-07         0.00000E+00
    0.12164E-05        -0.17032E-07         0.00000E+00
    0.12201E-05        -0.16944E-07         0.00000E+00
    0.12236E-05        -0.16249E-07         0.00000E+00
    0.12269E-05        -0.15041E-07         0.00000E+00
    0.12299E-05        -0.13387E-07         0.00000E+00
    0.12324E-05        -0.11326E-07         0.00000E+00
    0.12343E-05        -0.88912E-08         0.00000E+00
    0.12354E-05        -0.61282E-08         0.00000E+00
    0.12356E-05        -0.31240E-08         0.00000E+00
    0.12354E-05        -0.15758E-08         0.00000E+00
    0.13425E-05        -0.33261E-08         0.00000E+00
    0.13417E-05        -0.63743E-08         0.00000E+00
    0.13417E-05        -0.11838E-07         0.00000E+00
    0.13441E-05        -0.15956E-07         0.00000E+00
    0.13478E-05        -0.18687E-07         0.00000E+00
    0.13522E-05        -0.20168E-07         0.00000E+00
    0.13569E-05        -0.20618E-07         0.00000E+00
    0.13615E-05        -0.20258E-07         0.00000E+00
    0.13658E-05        -0.19269E-07         0.00000E+00
    0.13698E-05        -0.17773E-07         0.00000E+00
    0.13734E-05        -0.15834E-07         0.00000E+00
    0.13765E-05        -0.13467E-07         0.00000E+00
    0.13790E-05        -0.10666E-07         0.00000E+00
    0.13806E-05        -0.74372E-08         0.00000E+00
    0.13811E-05        -0.38337E-08         0.00000E+00
    0.13811E-05        -0.19495E-08         0.00000E+00
    0.14807E-05        -0.43947E-08         0.00000E+00
    0.14808E-05        -0.83000E-08         0.00000E+00
    0.14827E-05        -0.15085E-07         0.00000E+00
    0.14870E-05        -0.19822E-07         0.00000E+00
    0.14925E-05        -0.22658E-07         0.00000E+00
    0.14984E-05        -0.23935E-07         0.00000E+00
    0.15043E-05        -0.24043E-07         0.00000E+00
    0.15098E-05        -0.23317E-07         0.00000E+00
    0.15149E-05        -0.22000E-07         0.00000E+00
    0.15195E-05        -0.20236E-07         0.00000E+00
    0.15237E-05        -0.18072E-07         0.00000E+00
    0.15274E-05        -0.15487E-07         0.00000E+00
    0.15305E-05        -0.12413E-07         0.00000E+00
    0.15328E-05        -0.87847E-08         0.00000E+00
    0.15339E-05        -0.45915E-08         0.00000E+00
    0.15341E-05        -0.23582E-08         0.00000E+00
    0.16213E-05        -0.56332E-08         0.00000E+00
    0.16228E-05        -0.10476E-07         0.00000E+00
    0.16275E-05        -0.18600E-07         0.00000E+00
    0.16345E-05        -0.23759E-07         0.00000E+00
    0.16422E-05        -0.26429E-07         0.00000E+00
    0.16497E-05        -0.27259E-07         0.00000E+00
    0.16567E-05        -0.26859E-07         0.00000E+00
    0.16631E-05        -0.25688E-07         0.00000E+00
    0.16688E-05        -0.24043E-07         0.00000E+00
    0.16740E-05        -0.22072E-07         0.00000E+00
    0.16787E-05        -0.19798E-07         0.00000E+00
    0.16830E-05        -0.17146E-07         0.00000E+00
    0.16869E-05        -0.13965E-07         0.00000E+00
    0.16900E-05        -0.10077E-07         0.00000E+00
    0.16919E-05        -0.53614E-08         0.00000E+00
    0.16924E-05        -0.27880E-08         0.00000E+00
    0.17614E-05        -0.70056E-08         0.00000E+00
    0.17651E-05        -0.12798E-07         0.00000E+00
    0.17739E-05        -0.22106E-07         0.00000E+00
    0.17843E-05        -0.27303E-07         0.00000E+00
    0.17944E-05        -0.29412E-07         0.00000E+00
    0.18036E-05        -0.29517E-07         0.00000E+00
    0.18116E-05        -0.28472E-07         0.00000E+00
    0.18186E-05        -0.26834E-07         0.00000E+00
    0.18248E-05        -0.24917E-07         0.00000E+00
    0.18303E-05        -0.22853E-07         0.00000E+00
    0.18355E-05        -0.20636E-07         0.00000E+00
    0.18403E-05        -0.18132E-07         0.00000E+00
    0.18449E-05        -0.15088E-07         0.00000E+00
    0.18490E-05        -0.11174E-07         0.00000E+00
    0.18521E-05        -0.60859E-08         0.00000E+00
    0.18533E-05        -0.32161E-08         0.00000E+00
    0.18978E-05        -0.84243E-08         0.00000E+00
    0.19046E-05        -0.15042E-07         0.00000E+00
    0.19191E-05        -0.25080E-07         0.00000E+00
    0.19335E-05        -0.29676E-07         0.00000E+00
    0.19461E-05        -0.30741E-07         0.00000E+00
    0.19567E-05        -0.29899E-07         0.00000E+00
    0.19655E-05        -0.28189E-07         0.00000E+00
    0.19728E-05        -0.26172E-07         0.00000E+00
    0.19792E-05        -0.24118E-07         0.00000E+00
    0.19849E-05        -0.22125E-07         0.00000E+00
    0.19903E-05        -0.20158E-07         0.00000E+00
    0.19956E-05        -0.18051E-07         0.00000E+00
    0.20009E-05        -0.15463E-07         0.00000E+00
    0.20062E-05        -0.11869E-07         0.00000E+00
    0.20110E-05        -0.66745E-08         0.00000E+00
    0.20131E-05        -0.36044E-08         0.00000E+00
    0.20261E-05        -0.96825E-08         0.00000E+00
    0.20376E-05        -0.16740E-07         0.00000E+00
    0.20595E-05        -0.26556E-07         0.00000E+00
    0.20783E-05        -0.29638E-07         0.00000E+00
    0.20930E-05        -0.29257E-07         0.00000E+00
    0.21045E-05        -0.27501E-07         0.00000E+00
    0.21136E-05        -0.25341E-07         0.00000E+00
    0.21211E-05        -0.23193E-07         0.00000E+00
    0.21274E-05        -0.21229E-07         0.00000E+00
    0.21331E-05        -0.19495E-07         0.00000E+00
    0.21385E-05        -0.17949E-07         0.00000E+00
    0.21440E-05        -0.16453E-07         0.00000E+00
    0.21499E-05        -0.14654E-07         0.00000E+00
    0.21566E-05        -0.11839E-07         0.00000E+00
    0.21636E-05        -0.69755E-08         0.00000E+00
    0.21671E-05        -0.38887E-08         0.00000E+00
    0.21421E-05        -0.10317E-07         0.00000E+00
    0.21599E-05        -0.16879E-07         0.00000E+00
    0.21907E-05        -0.24715E-07         0.00000E+00
    0.22131E-05        -0.25384E-07         0.00000E+00
    0.22291E-05        -0.23741E-07         0.00000E+00
    0.22410E-05        -0.21609E-07         0.00000E+00
    0.22502E-05        -0.19512E-07         0.00000E+00
    0.22575E-05        -0.17641E-07         0.00000E+00
    0.22637E-05        -0.16058E-07         0.00000E+00
    0.22692E-05        -0.14767E-07         0.00000E+00
    0.22744E-05        -0.13738E-07         0.00000E+00
    0.22799E-05        -0.12894E-07         0.00000E+00
    0.22861E-05        -0.12065E-07         0.00000E+00
    0.22939E-05        -0.10551E-07         0.00000E+00
    0.23038E-05        -0.66959E-08         0.00000E+00
    0.23094E-05        -0.39153E-08         0.00000E+00
    0.22431E-05        -0.85719E-08         0.00000E+00
    0.22671E-05        -0.12744E-07         0.00000E+00
    0.23058E-05        -0.16458E-07         0.00000E+00
    0.23302E-05        -0.15236E-07         0.00000E+00
    0.23468E-05        -0.13667E-07         0.00000E+00
    0.23588E-05        -0.12139E-07         0.00000E+00
    0.23678E-05        -0.10801E-07         0.00000E+00
    0.23749E-05        -0.96816E-08         0.00000E+00
    0.23808E-05        -0.87793E-08         0.00000E+00
    0.23861E-05        -0.80830E-08         0.00000E+00
    0.23912E-05        -0.75787E-08         0.00000E+00
    0.23966E-05        -0.72498E-08         0.00000E+00
    0.24029E-05        -0.70515E-08         0.00000E+00
    0.24112E-05        -0.69741E-08         0.00000E+00
    0.24238E-05        -0.52450E-08         0.00000E+00
    0.24315E-05        -0.35178E-08         0.00000E+00
    0.22897E-05         0.00000E+00         0.00000E+00
    0.23163E-05         0.00000E+00         0.00000E+00
    0.23582E-05        -0.66480E-20         0.00000E+00
    0.23832E-05         0.98059E-22         0.00000E+00
    0.24000E-05         0.67461E-20         0.00000E+00
    0.24119E-05         0.00000E+00         0.00000E+00
    0.24208E-05         0.00000E+00         0.00000E+00
    0.24278E-05        -0.69840E-20         0.00000E+00
    0.24337E-05        -0.69840E-20         0.00000E+00
    0.24389E-05         0.70619E-20         0.00000E+00
    0.24439E-05         0.70619E-20         0.00000E+00
    0.24492E-05        -0.71352E-20         0.00000E+00
    0.24555E-05         0.40728E-22         0.00000E+00
    0.24639E-05         0.71759E-20         0.00000E+00
    0.24776E-05         0.00000E+00         0.00000E+00
    0.24864E-05         0.00000E+00         0.00000E+00
CELL_DATA        450
TENSORS stressef double 
    0.13455E+08         0.13875E+05         0.00000E+00
    0.13875E+05        -0.73288E+06         0.00000E+00
    0.00000E+00         0.00000E+00         0.00000E+00
 
    0.12565E+08         0.36628E+05         0.00000E+00
    0.36628E+05        -0.68232E+06         0.00000E+00
    0.00000E+00         0.00000E+00         0.00000E+00
 
    0.11625E+08         0.54153E+05         0.00000E+00
    0.54153E+05        -0.59144E+06         0.00000E+00
    0.00000E+00         0.00000E+00         0.00000E+00
 
    0.10657E+08         0.67998E+05         0.00000E+00
    0.67998E+05        -0.46916E+06         0.00000E+00
    0.00000E+00         0.00000E+00         0.00000E+00
 
    0.96747E+07         0.79492E+05         0.00000E+00
    0.79492E+05        -0.32151E+06         0.00000E+00
    0.00000E+00         0.00000E+00         0.00000E+00
 
    0.86907E+07         0.89729E+05         0.00000E+00
    0.89729E+05        -0.15212E+06         0.00000E+00
    0.00000E+00         0.00000E+00         0.00000E+00
 
    0.77127E+07         0.99572E+05         0.00000E+00
    0.99572E+05         0.37363E+05         0.00000E+00
    0.00000E+00         0.00000E+00         0.00000E+00
 
    0.67459E+07         0.10966E+06         0.00000E+00
    0.10966E+06         0.24678E+06         0.00000E+00
    0.00000E+00         0.00000E+00         0.00000E+00
 
    0.57935E+07         0.12042E+06         0.00000E+00
    0.12042E+06         0.47705E+06         0.00000E+00
    0.00000E+00         0.00000E+00         0.00000E+00
 
    0.48570E+07         0.13208E+06         0.00000E+00
    0.13208E+06         0.72974E+06         0.00000E+00
    0.00000E+00         0.00000E+00         0.00000E+00
 
    0.39371E+07         0.14471E+06         0.00000E+00
    0.14471E+06         0.10067E+07         0.00000E+00
    0.00000E+00         0.00000E+00         0.00000E+00
 
    0.30336E+07         0.15823E+06         0.00000E+00
    0.15823E+06         0.13099E+07         0.00000E+00
    0.00000E+00         0.00000E+00         0.00000E+00
 
    0.21466E+07         0.17244E+06         0.00000E+00
    0.17244E+06         0.16407E+07         0.00000E+00
    0.00000E+00         0.00000E+00         0.00000E+00
 
    0.12761E+07         0.18705E+06         0.00000E+00
    0.18705E+06         0.20004E+07         0.00000E+00
    0.00000E+00         0.00000E+00         0.00000E+00
 
    0.42252E+06         0.20174E+06         0.00000E+00
    0.20174E+06         0.23893E+07         0.00000E+00
    0.00000E+00         0.00000E+00         0.00000E+00
 
    0.13477E+08         0.41260E+05         0.00000E+00
    0.41260E+05        -0.76262E+06         0.00000E+00
    0.00000E+00         0.00000E+00         0.00000E+00
 
    0.12575E+08         0.10886E+06         0.00000E+00
    0.10886E+06        -0.71344E+06         0.00000E+00
    0.00000E+00         0.00000E+00         0.00000E+00
 
    0.11627E+08         0.16088E+06         0.00000E+00
    0.16088E+06        -0.62515E+06         0.00000E+00
    0.00000E+00         0.00000E+00         0.00000E+00
 
    0.10652E+08         0.20199E+06         0.00000E+00
    0.20199E+06        -0.50644E+06         0.00000E+00
    0.00000E+00         0.00000E+00         0.00000E+00
 
    0.96668E+07         0.23617E+06         0.00000E+00
    0.23617E+06        -0.36309E+06         0.00000E+00
    0.00000E+00         0.00000E+00         0.00000E+00
 
    0.86813E+07         0.26670E+06         0.00000E+00
    0.26670E+06        -0.19848E+06         0.00000E+00
    0.00000E+00         0.00000E+00         0.00000E+00
 
    0.77033E+07         0.29618E+06         0.00000E+00
    0.29618E+06        -0.14006E+05         0.00000E+00
    0.00000E+00         0.00000E+00         0.00000E+00
 
    0.67375E+07         0.32650E+06         0.00000E+00
    0.32650E+06         0.19041E+06         0.00000E+00
    0.00000E+00         0.00000E+00         0.00000E+00
 
    0.57868E+07         0.35894E+06         0.00000E+00
    0.35894E+06         0.41590E+06         0.00000E+00
    0.00000E+00         0.00000E+00         0.00000E+00
 
    0.48523E+07         0.39418E+06         0.00000E+00
    0.39418E+06         0.66422E+06         0.00000E+00
    0.00000E+00         0.00000E+00         0.00000E+00
 
    0.39343E+07         0.43240E+06         0.00000E+00
    0.43240E+06         0.93743E+06         0.00000E+00
    0.00000E+00         0.00000E+00         0.00000E+00
 
    0.30325E+07         0.47334E+06         0.00000E+00
    0.47334E+06         0.12375E+07         0.00000E+00
    0.00000E+00         0.00000E+00         0.00000E+00
 
    0.21466E+07         0.51639E+06         0.00000E+00
    0.51639E+06         0.15661E+07         0.00000E+00
    0.00000E+00         0.00000E+00         0.00000E+00
 
    0.12766E+07         0.56069E+06         0.00000E+00
    0.56069E+06         0.19244E+07         0.00000E+00
    0.00000E+00         0.00000E+00         0.00000E+00
 
    0.42279E+06         0.60521E+06         0.00000E+00
    0.60521E+06         0.23128E+07         0.00000E+00
    0.00000E+00         0.00000E+00         0.00000E+00
 
    0.13520E+08         0.67543E+05         0.00000E+00
    0.67543E+05        -0.82296E+06         0.00000E+00
    0.00000E+00         0.00000E+00         0.00000E+00
 
    0.12593E+08         0.17799E+06         0.00000E+00
    0.17799E+06        -0.77657E+06         0.00000E+00
    0.00000E+00         0.00000E+00         0.00000E+00
 
    0.11628E+08         0.26285E+06         0.00000E+00
    0.26285E+06        -0.69350E+06         0.00000E+00
    0.00000E+00         0.00000E+00         0.00000E+00
 
    0.10642E+08         0.32993E+06         0.00000E+00
    0.32993E+06        -0.58197E+06         0.00000E+00
    0.00000E+00         0.00000E+00         0.00000E+00
 
    0.96497E+07         0.38589E+06         0.00000E+00
    0.38589E+06        -0.44726E+06         0.00000E+00
    0.00000E+00         0.00000E+00         0.00000E+00
 
    0.86614E+07         0.43620E+06         0.00000E+00
    0.43620E+06        -0.29224E+06         0.00000E+00
    0.00000E+00         0.00000E+00         0.00000E+00
 
    0.76836E+07         0.48515E+06         0.00000E+00
    0.48515E+06        -0.11781E+06         0.00000E+00
    0.00000E+00         0.00000E+00         0.00000E+00
 
    0.67201E+07         0.53589E+06         0.00000E+00
    0.53589E+06         0.76573E+05         0.00000E+00
    0.00000E+00         0.00000E+00         0.00000E+00
 
    0.57730E+07         0.59050E+06         0.00000E+00
    0.59050E+06         0.29248E+06         0.00000E+00
    0.00000E+00         0.00000E+00         0.00000E+00
 
    0.48425E+07         0.65009E+06         0.00000E+00
    0.65009E+06         0.53206E+06         0.00000E+00
    0.00000E+00         0.00000E+00         0.00000E+00
 
    0.39285E+07         0.71489E+06         0.00000E+00
    0.71489E+06         0.79768E+06         0.00000E+00
    0.00000E+00         0.00000E+00         0.00000E+00
 
    0.30301E+07         0.78442E+06         0.00000E+00
    0.78442E+06         0.10916E+07         0.00000E+00
    0.00000E+00         0.00000E+00         0.00000E+00
 
    0.21466E+07         0.85761E+06         0.00000E+00
    0.85761E+06         0.14157E+07         0.00000E+00
    0.00000E+00         0.00000E+00         0.00000E+00
 
    0.12776E+07         0.93296E+06         0.00000E+00
    0.93296E+06         0.17713E+07         0.00000E+00
    0.00000E+00         0.00000E+00         0.00000E+00
 
    0.42336E+06         0.10087E+07         0.00000E+00
    0.10087E+07         0.21588E+07         0.00000E+00
    0.00000E+00         0.00000E+00         0.00000E+00
 
    0.13577E+08         0.91969E+05         0.00000E+00
    0.91969E+05        -0.91566E+06         0.00000E+00
    0.00000E+00         0.00000E+00         0.00000E+00
 
    0.12616E+08         0.24192E+06         0.00000E+00
    0.24192E+06        -0.87351E+06         0.00000E+00
    0.00000E+00         0.00000E+00         0.00000E+00
 
    0.11625E+08         0.35685E+06         0.00000E+00
    0.35685E+06        -0.79834E+06         0.00000E+00
    0.00000E+00         0.00000E+00         0.00000E+00
 
    0.10622E+08         0.44775E+06         0.00000E+00
    0.44775E+06        -0.69767E+06         0.00000E+00
    0.00000E+00         0.00000E+00         0.00000E+00
 
    0.96206E+07         0.52398E+06         0.00000E+00
    0.52398E+06        -0.57601E+06         0.00000E+00
    0.00000E+00         0.00000E+00         0.00000E+00
 
    0.86288E+07         0.59320E+06         0.00000E+00
    0.59320E+06        -0.43546E+06         0.00000E+00
    0.00000E+00         0.00000E+00         0.00000E+00
 
    0.76518E+07         0.66137E+06         0.00000E+00
    0.66137E+06        -0.27618E+06         0.00000E+00
    0.00000E+00         0.00000E+00         0.00000E+00
 
    0.66924E+07         0.73284E+06         0.00000E+00
    0.73284E+06        -0.96896E+05         0.00000E+00
    0.00000E+00         0.00000E+00         0.00000E+00
 
    0.57510E+07         0.81045E+06         0.00000E+00
    0.81045E+06         0.10459E+06         0.00000E+00
    0.00000E+00         0.00000E+00         0.00000E+00
 
    0.48272E+07         0.89565E+06         0.00000E+00
    0.89565E+06         0.33102E+06         0.00000E+00
    0.00000E+00         0.00000E+00         0.00000E+00
 
    0.39195E+07         0.98869E+06         0.00000E+00
    0.98869E+06         0.58525E+06         0.00000E+00
    0.00000E+00         0.00000E+00         0.00000E+00
 
    0.30264E+07         0.10888E+07         0.00000E+00
    0.10888E+07         0.86994E+06         0.00000E+00
    0.00000E+00         0.00000E+00         0.00000E+00
 
    0.21465E+07         0.11943E+07         0.00000E+00
    0.11943E+07         0.11873E+07         0.00000E+00
    0.00000E+00         0.00000E+00         0.00000E+00
 
    0.12791E+07         0.13030E+07         0.00000E+00
    0.13030E+07         0.15388E+07         0.00000E+00
    0.00000E+00         0.00000E+00         0.00000E+00
 
    0.42426E+06         0.14122E+07         0.00000E+00
    0.14122E+07         0.19251E+07         0.00000E+00
    0.00000E+00         0.00000E+00         0.00000E+00
 
    0.13644E+08         0.11376E+06         0.00000E+00
    0.11376E+06        -0.10434E+07         0.00000E+00
    0.00000E+00         0.00000E+00         0.00000E+00
 
    0.12636E+08         0.29848E+06         0.00000E+00
    0.29848E+06        -0.10070E+07         0.00000E+00
    0.00000E+00         0.00000E+00         0.00000E+00
 
    0.11612E+08         0.43955E+06         0.00000E+00
    0.43955E+06        -0.94249E+06         0.00000E+00
    0.00000E+00         0.00000E+00         0.00000E+00
 
    0.10588E+08         0.55125E+06         0.00000E+00
    0.55125E+06        -0.85645E+06         0.00000E+00
    0.00000E+00         0.00000E+00         0.00000E+00
 
    0.95755E+07         0.64566E+06         0.00000E+00
    0.64566E+06        -0.75236E+06         0.00000E+00
    0.00000E+00         0.00000E+00         0.00000E+00
 
    0.85801E+07         0.73260E+06         0.00000E+00
    0.73260E+06        -0.63125E+06         0.00000E+00
    0.00000E+00         0.00000E+00         0.00000E+00
 
    0.76055E+07         0.81965E+06         0.00000E+00
    0.81965E+06        -0.49227E+06         0.00000E+00
    0.00000E+00         0.00000E+00         0.00000E+00
 
    0.66523E+07         0.91232E+06         0.00000E+00
    0.91232E+06        -0.33322E+06         0.00000E+00
    0.00000E+00         0.00000E+00         0.00000E+00
 
    0.57196E+07         0.10141E+07         0.00000E+00
    0.10141E+07        -0.15103E+06         0.00000E+00
    0.00000E+00         0.00000E+00         0.00000E+00
 
    0.48053E+07         0.11267E+07         0.00000E+00
    0.11267E+07         0.57809E+05         0.00000E+00
    0.00000E+00         0.00000E+00         0.00000E+00
 
    0.39067E+07         0.12503E+07         0.00000E+00
    0.12503E+07         0.29682E+06         0.00000E+00
    0.00000E+00         0.00000E+00         0.00000E+00
 
    0.30211E+07         0.13837E+07         0.00000E+00
    0.13837E+07         0.56921E+06         0.00000E+00
    0.00000E+00         0.00000E+00         0.00000E+00
 
    0.21465E+07         0.15246E+07         0.00000E+00
    0.15246E+07         0.87760E+06         0.00000E+00
    0.00000E+00         0.00000E+00         0.00000E+00
 
    0.12814E+07         0.16699E+07         0.00000E+00
    0.16699E+07         0.12237E+07         0.00000E+00
    0.00000E+00         0.00000E+00         0.00000E+00
 
    0.42556E+06         0.18159E+07         0.00000E+00
    0.18159E+07         0.16084E+07         0.00000E+00
    0.00000E+00         0.00000E+00         0.00000E+00
 
    0.13709E+08         0.13208E+06         0.00000E+00
    0.13208E+06        -0.12097E+07         0.00000E+00
    0.00000E+00         0.00000E+00         0.00000E+00
 
    0.12645E+08         0.34539E+06         0.00000E+00
    0.34539E+06        -0.11806E+07         0.00000E+00
    0.00000E+00         0.00000E+00         0.00000E+00
 
    0.11582E+08         0.50753E+06         0.00000E+00
    0.50753E+06        -0.11297E+07         0.00000E+00
    0.00000E+00         0.00000E+00         0.00000E+00
 
    0.10534E+08         0.63616E+06         0.00000E+00
    0.63616E+06        -0.10622E+07         0.00000E+00
    0.00000E+00         0.00000E+00         0.00000E+00
 
    0.95090E+07         0.74607E+06         0.00000E+00
    0.74607E+06        -0.98030E+06         0.00000E+00
    0.00000E+00         0.00000E+00         0.00000E+00
 
    0.85111E+07         0.84921E+06         0.00000E+00
    0.84921E+06        -0.88369E+06         0.00000E+00
    0.00000E+00         0.00000E+00         0.00000E+00
 
    0.75410E+07         0.95476E+06         0.00000E+00
    0.95476E+06        -0.77026E+06         0.00000E+00
    0.00000E+00         0.00000E+00         0.00000E+00
 
    0.65973E+07         0.10692E+07         0.00000E+00
    0.10692E+07        -0.63663E+06         0.00000E+00
    0.00000E+00         0.00000E+00         0.00000E+00
 
    0.56769E+07         0.11967E+07         0.00000E+00
    0.11967E+07        -0.47865E+06         0.00000E+00
    0.00000E+00         0.00000E+00         0.00000E+00
 
    0.47757E+07         0.13391E+07         0.00000E+00
    0.13391E+07        -0.29186E+06         0.00000E+00
    0.00000E+00         0.00000E+00         0.00000E+00
 
    0.38894E+07         0.14963E+07         0.00000E+00
    0.14963E+07        -0.71909E+05         0.00000E+00
    0.00000E+00         0.00000E+00         0.00000E+00
 
    0.30140E+07         0.16666E+07         0.00000E+00
    0.16666E+07         0.18510E+06         0.00000E+00
    0.00000E+00         0.00000E+00         0.00000E+00
 
    0.21464E+07         0.18468E+07         0.00000E+00
    0.18468E+07         0.48230E+06         0.00000E+00
    0.00000E+00         0.00000E+00         0.00000E+00
 
    0.12844E+07         0.20329E+07         0.00000E+00
    0.20329E+07         0.82183E+06         0.00000E+00
    0.00000E+00         0.00000E+00         0.00000E+00
 
    0.42731E+06         0.22200E+07         0.00000E+00
    0.22200E+07         0.12046E+07         0.00000E+00
    0.00000E+00         0.00000E+00         0.00000E+00
 
    0.13761E+08         0.14607E+06         0.00000E+00
    0.14607E+06        -0.14192E+07         0.00000E+00
    0.00000E+00         0.00000E+00         0.00000E+00
 
    0.12632E+08         0.38029E+06         0.00000E+00
    0.38029E+06        -0.13991E+07         0.00000E+00
    0.00000E+00         0.00000E+00         0.00000E+00
 
    0.11525E+08         0.55726E+06         0.00000E+00
    0.55726E+06        -0.13647E+07         0.00000E+00
    0.00000E+00         0.00000E+00         0.00000E+00
 
    0.10451E+08         0.69807E+06         0.00000E+00
    0.69807E+06        -0.13198E+07         0.00000E+00
    0.00000E+00         0.00000E+00         0.00000E+00
 
    0.94141E+07         0.82024E+06         0.00000E+00
    0.82024E+06        -0.12648E+07         0.00000E+00
    0.00000E+00         0.00000E+00         0.00000E+00
 
    0.84159E+07         0.93780E+06         0.00000E+00
    0.93780E+06        -0.11979E+07         0.00000E+00
    0.00000E+00         0.00000E+00         0.00000E+00
 
    0.74540E+07         0.10614E+07         0.00000E+00
    0.10614E+07        -0.11153E+07         0.00000E+00
    0.00000E+00         0.00000E+00         0.00000E+00
 
    0.65241E+07         0.11985E+07         0.00000E+00
    0.11985E+07        -0.10123E+07         0.00000E+00
    0.00000E+00         0.00000E+00         0.00000E+00
 
    0.56204E+07         0.13536E+07         0.00000E+00
    0.13536E+07        -0.88347E+06         0.00000E+00
    0.00000E+00         0.00000E+00         0.00000E+00
 
    0.47367E+07         0.15287E+07         0.00000E+00
    0.15287E+07        -0.72318E+06         0.00000E+00
    0.00000E+00         0.00000E+00         0.00000E+00
 
    0.38667E+07         0.17232E+07         0.00000E+00
    0.17232E+07        -0.52612E+06         0.00000E+00
    0.00000E+00         0.00000E+00         0.00000E+00
 
    0.30048E+07         0.19347E+07         0.00000E+00
    0.19347E+07        -0.28757E+06         0.00000E+00
    0.00000E+00         0.00000E+00         0.00000E+00
 
    0.21463E+07         0.21592E+07         0.00000E+00
    0.21592E+07        -0.37289E+04         0.00000E+00
    0.00000E+00         0.00000E+00         0.00000E+00
 
    0.12884E+07         0.23913E+07         0.00000E+00
    0.23913E+07         0.32797E+06         0.00000E+00
    0.00000E+00         0.00000E+00         0.00000E+00
 
    0.42960E+06         0.26248E+07         0.00000E+00
    0.26248E+07         0.70870E+06         0.00000E+00
    0.00000E+00         0.00000E+00         0.00000E+00
 
    0.13786E+08         0.15482E+06         0.00000E+00
    0.15482E+06        -0.16775E+07         0.00000E+00
    0.00000E+00         0.00000E+00         0.00000E+00
 
    0.12584E+08         0.40070E+06         0.00000E+00
    0.40070E+06        -0.16680E+07         0.00000E+00
    0.00000E+00         0.00000E+00         0.00000E+00
 
    0.11430E+08         0.58507E+06         0.00000E+00
    0.58507E+06        -0.16534E+07         0.00000E+00
    0.00000E+00         0.00000E+00         0.00000E+00
 
    0.10329E+08         0.73246E+06         0.00000E+00
    0.73246E+06        -0.16352E+07         0.00000E+00
    0.00000E+00         0.00000E+00         0.00000E+00
 
    0.92827E+07         0.86312E+06         0.00000E+00
    0.86312E+06        -0.16119E+07         0.00000E+00
    0.00000E+00         0.00000E+00         0.00000E+00
 
    0.82880E+07         0.99305E+06         0.00000E+00
    0.99305E+06        -0.15798E+07         0.00000E+00
    0.00000E+00         0.00000E+00         0.00000E+00
 
    0.73391E+07         0.11343E+07         0.00000E+00
    0.11343E+07        -0.15334E+07         0.00000E+00
    0.00000E+00         0.00000E+00         0.00000E+00
 
    0.64284E+07         0.12950E+07         0.00000E+00
    0.12950E+07        -0.14663E+07         0.00000E+00
    0.00000E+00         0.00000E+00         0.00000E+00
 
    0.55471E+07         0.14801E+07         0.00000E+00
    0.14801E+07        -0.13715E+07         0.00000E+00
    0.00000E+00         0.00000E+00         0.00000E+00
 
    0.46863E+07         0.16912E+07         0.00000E+00
    0.16912E+07        -0.12421E+07         0.00000E+00
    0.00000E+00         0.00000E+00         0.00000E+00
 
    0.38373E+07         0.19275E+07         0.00000E+00
    0.19275E+07        -0.10718E+07         0.00000E+00
    0.00000E+00         0.00000E+00         0.00000E+00
 
    0.29926E+07         0.21855E+07         0.00000E+00
    0.21855E+07        -0.85469E+06         0.00000E+00
    0.00000E+00         0.00000E+00         0.00000E+00
 
    0.21460E+07         0.24601E+07         0.00000E+00
    0.24601E+07        -0.58636E+06         0.00000E+00
    0.00000E+00         0.00000E+00         0.00000E+00
 
    0.12933E+07         0.27444E+07         0.00000E+00
    0.27444E+07        -0.26365E+06         0.00000E+00
    0.00000E+00         0.00000E+00         0.00000E+00
 
    0.43249E+06         0.30306E+07         0.00000E+00
    0.30306E+07         0.11493E+06         0.00000E+00
    0.00000E+00         0.00000E+00         0.00000E+00
 
    0.13765E+08         0.15735E+06         0.00000E+00
    0.15735E+06        -0.19911E+07         0.00000E+00
    0.00000E+00         0.00000E+00         0.00000E+00
 
    0.12486E+08         0.40407E+06         0.00000E+00
    0.40407E+06        -0.19941E+07         0.00000E+00
    0.00000E+00         0.00000E+00         0.00000E+00
 
    0.11283E+08         0.58719E+06         0.00000E+00
    0.58719E+06        -0.20024E+07         0.00000E+00
    0.00000E+00         0.00000E+00         0.00000E+00
 
    0.10157E+08         0.73477E+06         0.00000E+00
    0.73477E+06        -0.20152E+07         0.00000E+00
    0.00000E+00         0.00000E+00         0.00000E+00
 
    0.91050E+07         0.86964E+06         0.00000E+00
    0.86964E+06        -0.20285E+07         0.00000E+00
    0.00000E+00         0.00000E+00         0.00000E+00
 
    0.81193E+07         0.10097E+07         0.00000E+00
    0.10097E+07        -0.20365E+07         0.00000E+00
    0.00000E+00         0.00000E+00         0.00000E+00
 
    0.71900E+07         0.11681E+07         0.00000E+00
    0.11681E+07        -0.20316E+07         0.00000E+00
    0.00000E+00         0.00000E+00         0.00000E+00
 
    0.63054E+07         0.13537E+07         0.00000E+00
    0.13537E+07        -0.20054E+07         0.00000E+00
    0.00000E+00         0.00000E+00         0.00000E+00
 
    0.54534E+07         0.15715E+07         0.00000E+00
    0.15715E+07        -0.19494E+07         0.00000E+00
    0.00000E+00         0.00000E+00         0.00000E+00
 
    0.46220E+07         0.18228E+07         0.00000E+00
    0.18228E+07        -0.18553E+07         0.00000E+00
    0.00000E+00         0.00000E+00         0.00000E+00
 
    0.37997E+07         0.21059E+07         0.00000E+00
    0.21059E+07        -0.17154E+07         0.00000E+00
    0.00000E+00         0.00000E+00         0.00000E+00
 
    0.29768E+07         0.24164E+07         0.00000E+00
    0.24164E+07        -0.15227E+07         0.00000E+00
    0.00000E+00         0.00000E+00         0.00000E+00
 
    0.21452E+07         0.27478E+07         0.00000E+00
    0.27478E+07        -0.12720E+07         0.00000E+00
    0.00000E+00         0.00000E+00         0.00000E+00
 
    0.12992E+07         0.30916E+07         0.00000E+00
    0.30916E+07        -0.95936E+06         0.00000E+00
    0.00000E+00         0.00000E+00         0.00000E+00
 
    0.43603E+06         0.34380E+07         0.00000E+00
    0.34380E+07        -0.58293E+06         0.00000E+00
    0.00000E+00         0.00000E+00         0.00000E+00
 
    0.13678E+08         0.15266E+06         0.00000E+00
    0.15266E+06        -0.23678E+07         0.00000E+00
    0.00000E+00         0.00000E+00         0.00000E+00
 
    0.12318E+08         0.38773E+06         0.00000E+00
    0.38773E+06        -0.23852E+07         0.00000E+00
    0.00000E+00         0.00000E+00         0.00000E+00
 
    0.11068E+08         0.55981E+06         0.00000E+00
    0.55981E+06        -0.24197E+07         0.00000E+00
    0.00000E+00         0.00000E+00         0.00000E+00
 
    0.99212E+07         0.70038E+06         0.00000E+00
    0.70038E+06        -0.24677E+07         0.00000E+00
    0.00000E+00         0.00000E+00         0.00000E+00
 
    0.88698E+07         0.83478E+06         0.00000E+00
    0.83478E+06        -0.25225E+07         0.00000E+00
    0.00000E+00         0.00000E+00         0.00000E+00
 
    0.79007E+07         0.98257E+06         0.00000E+00
    0.98257E+06        -0.25756E+07         0.00000E+00
    0.00000E+00         0.00000E+00         0.00000E+00
 
    0.69992E+07         0.11579E+07         0.00000E+00
    0.11579E+07        -0.26172E+07         0.00000E+00
    0.00000E+00         0.00000E+00         0.00000E+00
 
    0.61493E+07         0.13699E+07         0.00000E+00
    0.13699E+07        -0.26370E+07         0.00000E+00
    0.00000E+00         0.00000E+00         0.00000E+00
 
    0.53350E+07         0.16234E+07         0.00000E+00
    0.16234E+07        -0.26245E+07         0.00000E+00
    0.00000E+00         0.00000E+00         0.00000E+00
 
    0.45406E+07         0.19194E+07         0.00000E+00
    0.19194E+07        -0.25698E+07         0.00000E+00
    0.00000E+00         0.00000E+00         0.00000E+00
 
    0.37519E+07         0.22551E+07         0.00000E+00
    0.22551E+07        -0.24638E+07         0.00000E+00
    0.00000E+00         0.00000E+00         0.00000E+00
 
    0.29562E+07         0.26250E+07         0.00000E+00
    0.26250E+07        -0.22984E+07         0.00000E+00
    0.00000E+00         0.00000E+00         0.00000E+00
 
    0.21433E+07         0.30209E+07         0.00000E+00
    0.30209E+07        -0.20673E+07         0.00000E+00
    0.00000E+00         0.00000E+00         0.00000E+00
 
    0.13060E+07         0.34324E+07         0.00000E+00
    0.34324E+07        -0.17658E+07         0.00000E+00
    0.00000E+00         0.00000E+00         0.00000E+00
 
    0.44025E+06         0.38477E+07         0.00000E+00
    0.38477E+07        -0.13915E+07         0.00000E+00
    0.00000E+00         0.00000E+00         0.00000E+00
 
    0.13501E+08         0.13970E+06         0.00000E+00
    0.13970E+06        -0.28167E+07         0.00000E+00
    0.00000E+00         0.00000E+00         0.00000E+00
 
    0.12061E+08         0.34899E+06         0.00000E+00
    0.34899E+06        -0.28503E+07         0.00000E+00
    0.00000E+00         0.00000E+00         0.00000E+00
 
    0.10767E+08         0.49909E+06         0.00000E+00
    0.49909E+06        -0.29143E+07         0.00000E+00
    0.00000E+00         0.00000E+00         0.00000E+00
 
    0.96067E+07         0.62478E+06         0.00000E+00
    0.62478E+06        -0.30016E+07         0.00000E+00
    0.00000E+00         0.00000E+00         0.00000E+00
 
    0.85645E+07         0.75368E+06         0.00000E+00
    0.75368E+06        -0.31026E+07         0.00000E+00
    0.00000E+00         0.00000E+00         0.00000E+00
 
    0.76218E+07         0.90672E+06         0.00000E+00
    0.90672E+06        -0.32057E+07         0.00000E+00
    0.00000E+00         0.00000E+00         0.00000E+00
 
    0.67585E+07         0.10987E+07         0.00000E+00
    0.10987E+07        -0.32987E+07         0.00000E+00
    0.00000E+00         0.00000E+00         0.00000E+00
 
    0.59537E+07         0.13389E+07         0.00000E+00
    0.13389E+07        -0.33690E+07         0.00000E+00
    0.00000E+00         0.00000E+00         0.00000E+00
 
    0.51868E+07         0.16318E+07         0.00000E+00
    0.16318E+07        -0.34042E+07         0.00000E+00
    0.00000E+00         0.00000E+00         0.00000E+00
 
    0.44385E+07         0.19774E+07         0.00000E+00
    0.19774E+07        -0.33927E+07         0.00000E+00
    0.00000E+00         0.00000E+00         0.00000E+00
 
    0.36910E+07         0.23721E+07         0.00000E+00
    0.23721E+07        -0.33239E+07         0.00000E+00
    0.00000E+00         0.00000E+00         0.00000E+00
 
    0.29289E+07         0.28089E+07         0.00000E+00
    0.28089E+07        -0.31885E+07         0.00000E+00
    0.00000E+00         0.00000E+00         0.00000E+00
 
    0.21395E+07         0.32777E+07         0.00000E+00
    0.32777E+07        -0.29790E+07         0.00000E+00
    0.00000E+00         0.00000E+00         0.00000E+00
 
    0.13134E+07         0.37663E+07         0.00000E+00
    0.37663E+07        -0.26896E+07         0.00000E+00
    0.00000E+00         0.00000E+00         0.00000E+00
 
    0.44509E+06         0.42602E+07         0.00000E+00
    0.42602E+07        -0.23173E+07         0.00000E+00
    0.00000E+00         0.00000E+00         0.00000E+00
 
    0.13208E+08         0.11742E+06         0.00000E+00
    0.11742E+06        -0.33477E+07         0.00000E+00
    0.00000E+00         0.00000E+00         0.00000E+00
 
    0.11692E+08         0.28518E+06         0.00000E+00
    0.28518E+06        -0.33995E+07         0.00000E+00
    0.00000E+00         0.00000E+00         0.00000E+00
 
    0.10361E+08         0.40131E+06         0.00000E+00
    0.40131E+06        -0.34961E+07         0.00000E+00
    0.00000E+00         0.00000E+00         0.00000E+00
 
    0.91964E+07         0.50367E+06         0.00000E+00
    0.50367E+06        -0.36268E+07         0.00000E+00
    0.00000E+00         0.00000E+00         0.00000E+00
 
    0.81750E+07         0.62181E+06         0.00000E+00
    0.62181E+06        -0.37783E+07         0.00000E+00
    0.00000E+00         0.00000E+00         0.00000E+00
 
    0.72711E+07         0.77766E+06         0.00000E+00
    0.77766E+06        -0.39359E+07         0.00000E+00
    0.00000E+00         0.00000E+00         0.00000E+00
 
    0.64584E+07         0.98630E+06         0.00000E+00
    0.98630E+06        -0.40845E+07         0.00000E+00
    0.00000E+00         0.00000E+00         0.00000E+00
 
    0.57107E+07         0.12568E+07         0.00000E+00
    0.12568E+07        -0.42093E+07         0.00000E+00
    0.00000E+00         0.00000E+00         0.00000E+00
 
    0.50028E+07         0.15929E+07         0.00000E+00
    0.15929E+07        -0.42959E+07         0.00000E+00
    0.00000E+00         0.00000E+00         0.00000E+00
 
    0.43110E+07         0.19937E+07         0.00000E+00
    0.19937E+07        -0.43310E+07         0.00000E+00
    0.00000E+00         0.00000E+00         0.00000E+00
 
    0.36139E+07         0.24542E+07         0.00000E+00
    0.24542E+07        -0.43024E+07         0.00000E+00
    0.00000E+00         0.00000E+00         0.00000E+00
 
    0.28929E+07         0.29659E+07         0.00000E+00
    0.29659E+07        -0.41995E+07         0.00000E+00
    0.00000E+00         0.00000E+00         0.00000E+00
 
    0.21325E+07         0.35170E+07         0.00000E+00
    0.35170E+07        -0.40133E+07         0.00000E+00
    0.00000E+00         0.00000E+00         0.00000E+00
 
    0.13207E+07         0.40928E+07         0.00000E+00
    0.40928E+07        -0.37371E+07         0.00000E+00
    0.00000E+00         0.00000E+00         0.00000E+00
 
    0.45042E+06         0.46763E+07         0.00000E+00
    0.46763E+07        -0.33668E+07         0.00000E+00
    0.00000E+00         0.00000E+00         0.00000E+00
 
    0.12768E+08         0.84747E+05         0.00000E+00
    0.84747E+05        -0.39722E+07         0.00000E+00
    0.00000E+00         0.00000E+00         0.00000E+00
 
    0.11183E+08         0.19369E+06         0.00000E+00
    0.19369E+06        -0.40440E+07         0.00000E+00
    0.00000E+00         0.00000E+00         0.00000E+00
 
    0.98272E+07         0.26297E+06         0.00000E+00
    0.26297E+06        -0.41764E+07         0.00000E+00
    0.00000E+00         0.00000E+00         0.00000E+00
 
    0.86721E+07         0.33314E+06         0.00000E+00
    0.33314E+06        -0.43542E+07         0.00000E+00
    0.00000E+00         0.00000E+00         0.00000E+00
 
    0.76860E+07         0.43520E+06         0.00000E+00
    0.43520E+06        -0.45599E+07         0.00000E+00
    0.00000E+00         0.00000E+00         0.00000E+00
 
    0.68359E+07         0.59157E+06         0.00000E+00
    0.59157E+06        -0.47757E+07         0.00000E+00
    0.00000E+00         0.00000E+00         0.00000E+00
 
    0.60885E+07         0.81714E+06         0.00000E+00
    0.81714E+06        -0.49835E+07         0.00000E+00
    0.00000E+00         0.00000E+00         0.00000E+00
 
    0.54119E+07         0.11203E+07         0.00000E+00
    0.11203E+07        -0.51660E+07         0.00000E+00
    0.00000E+00         0.00000E+00         0.00000E+00
 
    0.47759E+07         0.15037E+07         0.00000E+00
    0.15037E+07        -0.53070E+07         0.00000E+00
    0.00000E+00         0.00000E+00         0.00000E+00
 
    0.41525E+07         0.19654E+07         0.00000E+00
    0.19654E+07        -0.53913E+07         0.00000E+00
    0.00000E+00         0.00000E+00         0.00000E+00
 
    0.35163E+07         0.24990E+07         0.00000E+00
    0.24990E+07        -0.54053E+07         0.00000E+00
    0.00000E+00         0.00000E+00         0.00000E+00
 
    0.28451E+07         0.30942E+07         0.00000E+00
    0.30942E+07        -0.53369E+07         0.00000E+00
    0.00000E+00         0.00000E+00         0.00000E+00
 
    0.21202E+07         0.37373E+07         0.00000E+00
    0.37373E+07        -0.51758E+07         0.00000E+00
    0.00000E+00         0.00000E+00         0.00000E+00
 
    0.13271E+07         0.44113E+07         0.00000E+00
    0.44113E+07        -0.49138E+07         0.00000E+00
    0.00000E+00         0.00000E+00         0.00000E+00
 
    0.45597E+06         0.50965E+07         0.00000E+00
    0.50965E+07        -0.45457E+07         0.00000E+00
    0.00000E+00         0.00000E+00         0.00000E+00
 
    0.12148E+08         0.40683E+05         0.00000E+00
    0.40683E+05        -0.47030E+07         0.00000E+00
    0.00000E+00         0.00000E+00         0.00000E+00
 
    0.10507E+08         0.72115E+05         0.00000E+00
    0.72115E+05        -0.47965E+07         0.00000E+00
    0.00000E+00         0.00000E+00         0.00000E+00
 
    0.91421E+07         0.80961E+05         0.00000E+00
    0.80961E+05        -0.49674E+07         0.00000E+00
    0.00000E+00         0.00000E+00         0.00000E+00
 
    0.80138E+07         0.10989E+06         0.00000E+00
    0.10989E+06        -0.51953E+07         0.00000E+00
    0.00000E+00         0.00000E+00         0.00000E+00
 
    0.70811E+07         0.19070E+06         0.00000E+00
    0.19070E+06        -0.54584E+07         0.00000E+00
    0.00000E+00         0.00000E+00         0.00000E+00
 
    0.63022E+07         0.34563E+06         0.00000E+00
    0.34563E+06        -0.57350E+07         0.00000E+00
    0.00000E+00         0.00000E+00         0.00000E+00
 
    0.56371E+07         0.58874E+06         0.00000E+00
    0.58874E+06        -0.60043E+07         0.00000E+00
    0.00000E+00         0.00000E+00         0.00000E+00
 
    0.50476E+07         0.92720E+06         0.00000E+00
    0.92720E+06        -0.62465E+07         0.00000E+00
    0.00000E+00         0.00000E+00         0.00000E+00
 
    0.44981E+07         0.13624E+07         0.00000E+00
    0.13624E+07        -0.64436E+07         0.00000E+00
    0.00000E+00         0.00000E+00         0.00000E+00
 
    0.39562E+07         0.18909E+07         0.00000E+00
    0.18909E+07        -0.65789E+07         0.00000E+00
    0.00000E+00         0.00000E+00         0.00000E+00
 
    0.33925E+07         0.25047E+07         0.00000E+00
    0.25047E+07        -0.66372E+07         0.00000E+00
    0.00000E+00         0.00000E+00         0.00000E+00
 
    0.27812E+07         0.31920E+07         0.00000E+00
    0.31920E+07        -0.66051E+07         0.00000E+00
    0.00000E+00         0.00000E+00         0.00000E+00
 
    0.21000E+07         0.39373E+07         0.00000E+00
    0.39373E+07        -0.64707E+07         0.00000E+00
    0.00000E+00         0.00000E+00         0.00000E+00
 
    0.13310E+07         0.47213E+07         0.00000E+00
    0.47213E+07        -0.62242E+07         0.00000E+00
    0.00000E+00         0.00000E+00         0.00000E+00
 
    0.46126E+06         0.55211E+07         0.00000E+00
    0.55211E+07        -0.58586E+07         0.00000E+00
    0.00000E+00         0.00000E+00         0.00000E+00
 
    0.11313E+08        -0.15716E+05         0.00000E+00
   -0.15716E+05        -0.55540E+07         0.00000E+00
    0.00000E+00         0.00000E+00         0.00000E+00
 
    0.96339E+07        -0.81645E+05         0.00000E+00
   -0.81645E+05        -0.56707E+07         0.00000E+00
    0.00000E+00         0.00000E+00         0.00000E+00
 
    0.82803E+07        -0.14721E+06         0.00000E+00
   -0.14721E+06        -0.58823E+07         0.00000E+00
    0.00000E+00         0.00000E+00         0.00000E+00
 
    0.72006E+07        -0.16843E+06         0.00000E+00
   -0.16843E+06        -0.61625E+07         0.00000E+00
    0.00000E+00         0.00000E+00         0.00000E+00
 
    0.63425E+07        -0.11361E+06         0.00000E+00
   -0.11361E+06        -0.64849E+07         0.00000E+00
    0.00000E+00         0.00000E+00         0.00000E+00
 
    0.56556E+07         0.38421E+05         0.00000E+00
    0.38421E+05        -0.68237E+07         0.00000E+00
    0.00000E+00         0.00000E+00         0.00000E+00
 
    0.50917E+07         0.30012E+06         0.00000E+00
    0.30012E+06        -0.71552E+07         0.00000E+00
    0.00000E+00         0.00000E+00         0.00000E+00
 
    0.46066E+07         0.67684E+06         0.00000E+00
    0.67684E+06        -0.74575E+07         0.00000E+00
    0.00000E+00         0.00000E+00         0.00000E+00
 
    0.41596E+07         0.11682E+07         0.00000E+00
    0.11682E+07        -0.77110E+07         0.00000E+00
    0.00000E+00         0.00000E+00         0.00000E+00
 
    0.37138E+07         0.17691E+07         0.00000E+00
    0.17691E+07        -0.78976E+07         0.00000E+00
    0.00000E+00         0.00000E+00         0.00000E+00
 
    0.32358E+07         0.24702E+07         0.00000E+00
    0.24702E+07        -0.80011E+07         0.00000E+00
    0.00000E+00         0.00000E+00         0.00000E+00
 
    0.26958E+07         0.32581E+07         0.00000E+00
    0.32581E+07        -0.80065E+07         0.00000E+00
    0.00000E+00         0.00000E+00         0.00000E+00
 
    0.20678E+07         0.41158E+07         0.00000E+00
    0.41158E+07        -0.79002E+07         0.00000E+00
    0.00000E+00         0.00000E+00         0.00000E+00
 
    0.13299E+07         0.50216E+07         0.00000E+00
    0.50216E+07        -0.76707E+07         0.00000E+00
    0.00000E+00         0.00000E+00         0.00000E+00
 
    0.46555E+06         0.59499E+07         0.00000E+00
    0.59499E+07        -0.73086E+07         0.00000E+00
    0.00000E+00         0.00000E+00         0.00000E+00
 
    0.10223E+08        -0.85263E+05         0.00000E+00
   -0.85263E+05        -0.65405E+07         0.00000E+00
    0.00000E+00         0.00000E+00         0.00000E+00
 
    0.85307E+07        -0.26924E+06         0.00000E+00
   -0.26924E+06        -0.66816E+07         0.00000E+00
    0.00000E+00         0.00000E+00         0.00000E+00
 
    0.72151E+07        -0.42319E+06         0.00000E+00
   -0.42319E+06        -0.69354E+07         0.00000E+00
    0.00000E+00         0.00000E+00         0.00000E+00
 
    0.62104E+07        -0.50291E+06         0.00000E+00
   -0.50291E+06        -0.72692E+07         0.00000E+00
    0.00000E+00         0.00000E+00         0.00000E+00
 
    0.54522E+07        -0.47802E+06         0.00000E+00
   -0.47802E+06        -0.76510E+07         0.00000E+00
    0.00000E+00         0.00000E+00         0.00000E+00
 
    0.48802E+07        -0.32955E+06         0.00000E+00
   -0.32955E+06        -0.80513E+07         0.00000E+00
    0.00000E+00         0.00000E+00         0.00000E+00
 
    0.44386E+07        -0.47668E+05         0.00000E+00
   -0.47668E+05        -0.84436E+07         0.00000E+00
    0.00000E+00         0.00000E+00         0.00000E+00
 
    0.40768E+07         0.37044E+06         0.00000E+00
    0.37044E+06        -0.88042E+07         0.00000E+00
    0.00000E+00         0.00000E+00         0.00000E+00
 
    0.37493E+07         0.92219E+06         0.00000E+00
    0.92219E+06        -0.91124E+07         0.00000E+00
    0.00000E+00         0.00000E+00         0.00000E+00
 
    0.34151E+07         0.16007E+07         0.00000E+00
    0.16007E+07        -0.93491E+07         0.00000E+00
    0.00000E+00         0.00000E+00         0.00000E+00
 
    0.30370E+07         0.23953E+07         0.00000E+00
    0.23953E+07        -0.94974E+07         0.00000E+00
    0.00000E+00         0.00000E+00         0.00000E+00
 
    0.25814E+07         0.32916E+07         0.00000E+00
    0.32916E+07        -0.95408E+07         0.00000E+00
    0.00000E+00         0.00000E+00         0.00000E+00
 
    0.20182E+07         0.42711E+07         0.00000E+00
    0.42711E+07        -0.94642E+07         0.00000E+00
    0.00000E+00         0.00000E+00         0.00000E+00
 
    0.13208E+07         0.53107E+07         0.00000E+00
    0.53107E+07        -0.92535E+07         0.00000E+00
    0.00000E+00         0.00000E+00         0.00000E+00
 
    0.46775E+06         0.63820E+07         0.00000E+00
    0.63820E+07        -0.88967E+07         0.00000E+00
    0.00000E+00         0.00000E+00         0.00000E+00
 
    0.88356E+07        -0.16860E+06         0.00000E+00
   -0.16860E+06        -0.76790E+07         0.00000E+00
    0.00000E+00         0.00000E+00         0.00000E+00
 
    0.71636E+07        -0.49168E+06         0.00000E+00
   -0.49168E+06        -0.78453E+07         0.00000E+00
    0.00000E+00         0.00000E+00         0.00000E+00
 
    0.59192E+07        -0.74744E+06         0.00000E+00
   -0.74744E+06        -0.81419E+07         0.00000E+00
    0.00000E+00         0.00000E+00         0.00000E+00
 
    0.50209E+07        -0.89292E+06         0.00000E+00
   -0.89292E+06        -0.85287E+07         0.00000E+00
    0.00000E+00         0.00000E+00         0.00000E+00
 
    0.43915E+07        -0.90059E+06         0.00000E+00
   -0.90059E+06        -0.89682E+07         0.00000E+00
    0.00000E+00         0.00000E+00         0.00000E+00
 
    0.39601E+07        -0.75524E+06         0.00000E+00
   -0.75524E+06        -0.94268E+07         0.00000E+00
    0.00000E+00         0.00000E+00         0.00000E+00
 
    0.36632E+07        -0.45091E+06         0.00000E+00
   -0.45091E+06        -0.98756E+07         0.00000E+00
    0.00000E+00         0.00000E+00         0.00000E+00
 
    0.34444E+07         0.11794E+05         0.00000E+00
    0.11794E+05        -0.10290E+08         0.00000E+00
    0.00000E+00         0.00000E+00         0.00000E+00
 
    0.32541E+07         0.62760E+06         0.00000E+00
    0.62760E+06        -0.10648E+08         0.00000E+00
    0.00000E+00         0.00000E+00         0.00000E+00
 
    0.30477E+07         0.13878E+07         0.00000E+00
    0.13878E+07        -0.10932E+08         0.00000E+00
    0.00000E+00         0.00000E+00         0.00000E+00
 
    0.27849E+07         0.22809E+07         0.00000E+00
    0.22809E+07        -0.11123E+08         0.00000E+00
    0.00000E+00         0.00000E+00         0.00000E+00
 
    0.24284E+07         0.32918E+07         0.00000E+00
    0.32918E+07        -0.11204E+08         0.00000E+00
    0.00000E+00         0.00000E+00         0.00000E+00
 
    0.19436E+07         0.44016E+07         0.00000E+00
    0.44016E+07        -0.11159E+08         0.00000E+00
    0.00000E+00         0.00000E+00         0.00000E+00
 
    0.12987E+07         0.55862E+07         0.00000E+00
    0.55862E+07        -0.10970E+08         0.00000E+00
    0.00000E+00         0.00000E+00         0.00000E+00
 
    0.46626E+06         0.68153E+07         0.00000E+00
    0.68153E+07        -0.10621E+08         0.00000E+00
    0.00000E+00         0.00000E+00         0.00000E+00
 
    0.71084E+07        -0.26612E+06         0.00000E+00
   -0.26612E+06        -0.89873E+07         0.00000E+00
    0.00000E+00         0.00000E+00         0.00000E+00
 
    0.54980E+07        -0.74916E+06         0.00000E+00
   -0.74916E+06        -0.91791E+07         0.00000E+00
    0.00000E+00         0.00000E+00         0.00000E+00
 
    0.43650E+07        -0.11189E+07         0.00000E+00
   -0.11189E+07        -0.95179E+07         0.00000E+00
    0.00000E+00         0.00000E+00         0.00000E+00
 
    0.36102E+07        -0.13355E+07         0.00000E+00
   -0.13355E+07        -0.99552E+07         0.00000E+00
    0.00000E+00         0.00000E+00         0.00000E+00
 
    0.31420E+07        -0.13765E+07         0.00000E+00
   -0.13765E+07        -0.10448E+08         0.00000E+00
    0.00000E+00         0.00000E+00         0.00000E+00
 
    0.28788E+07        -0.12323E+07         0.00000E+00
   -0.12323E+07        -0.10958E+08         0.00000E+00
    0.00000E+00         0.00000E+00         0.00000E+00
 
    0.27498E+07        -0.90248E+06         0.00000E+00
   -0.90248E+06        -0.11455E+08         0.00000E+00
    0.00000E+00         0.00000E+00         0.00000E+00
 
    0.26939E+07        -0.39207E+06         0.00000E+00
   -0.39207E+06        -0.11915E+08         0.00000E+00
    0.00000E+00         0.00000E+00         0.00000E+00
 
    0.26583E+07         0.29052E+06         0.00000E+00
    0.29052E+06        -0.12316E+08         0.00000E+00
    0.00000E+00         0.00000E+00         0.00000E+00
 
    0.25963E+07         0.11349E+07         0.00000E+00
    0.11349E+07        -0.12640E+08         0.00000E+00
    0.00000E+00         0.00000E+00         0.00000E+00
 
    0.24650E+07         0.21291E+07         0.00000E+00
    0.21291E+07        -0.12871E+08         0.00000E+00
    0.00000E+00         0.00000E+00         0.00000E+00
 
    0.22240E+07         0.32585E+07         0.00000E+00
    0.32585E+07        -0.12989E+08         0.00000E+00
    0.00000E+00         0.00000E+00         0.00000E+00
 
    0.18340E+07         0.45050E+07         0.00000E+00
    0.45050E+07        -0.12976E+08         0.00000E+00
    0.00000E+00         0.00000E+00         0.00000E+00
 
    0.12574E+07         0.58446E+07         0.00000E+00
    0.58446E+07        -0.12812E+08         0.00000E+00
    0.00000E+00         0.00000E+00         0.00000E+00
 
    0.45888E+06         0.72459E+07         0.00000E+00
    0.72459E+07        -0.12477E+08         0.00000E+00
    0.00000E+00         0.00000E+00         0.00000E+00
 
    0.49964E+07        -0.37795E+06         0.00000E+00
   -0.37795E+06        -0.10484E+08         0.00000E+00
    0.00000E+00         0.00000E+00         0.00000E+00
 
    0.34991E+07        -0.10408E+07         0.00000E+00
   -0.10408E+07        -0.10701E+08         0.00000E+00
    0.00000E+00         0.00000E+00         0.00000E+00
 
    0.25260E+07        -0.15344E+07         0.00000E+00
   -0.15344E+07        -0.11080E+08         0.00000E+00
    0.00000E+00         0.00000E+00         0.00000E+00
 
    0.19573E+07        -0.18248E+07         0.00000E+00
   -0.18248E+07        -0.11562E+08         0.00000E+00
    0.00000E+00         0.00000E+00         0.00000E+00
 
    0.16861E+07        -0.18972E+07         0.00000E+00
   -0.18972E+07        -0.12099E+08         0.00000E+00
    0.00000E+00         0.00000E+00         0.00000E+00
 
    0.16200E+07        -0.17503E+07         0.00000E+00
   -0.17503E+07        -0.12650E+08         0.00000E+00
    0.00000E+00         0.00000E+00         0.00000E+00
 
    0.16821E+07        -0.13910E+07         0.00000E+00
   -0.13910E+07        -0.13183E+08         0.00000E+00
    0.00000E+00         0.00000E+00         0.00000E+00
 
    0.18079E+07        -0.83010E+06         0.00000E+00
   -0.83010E+06        -0.13675E+08         0.00000E+00
    0.00000E+00         0.00000E+00         0.00000E+00
 
    0.19436E+07        -0.79624E+05         0.00000E+00
   -0.79624E+05        -0.14108E+08         0.00000E+00
    0.00000E+00         0.00000E+00         0.00000E+00
 
    0.20418E+07         0.84873E+06         0.00000E+00
    0.84873E+06        -0.14464E+08         0.00000E+00
    0.00000E+00         0.00000E+00         0.00000E+00
 
    0.20588E+07         0.19434E+07         0.00000E+00
    0.19434E+07        -0.14727E+08         0.00000E+00
    0.00000E+00         0.00000E+00         0.00000E+00
 
    0.19515E+07         0.31919E+07         0.00000E+00
    0.31919E+07        -0.14881E+08         0.00000E+00
    0.00000E+00         0.00000E+00         0.00000E+00
 
    0.16761E+07         0.45782E+07         0.00000E+00
    0.45782E+07        -0.14903E+08         0.00000E+00
    0.00000E+00         0.00000E+00         0.00000E+00
 
    0.11880E+07         0.60804E+07         0.00000E+00
    0.60804E+07        -0.14770E+08         0.00000E+00
    0.00000E+00         0.00000E+00         0.00000E+00
 
    0.44257E+06         0.76674E+07         0.00000E+00
    0.76674E+07        -0.14456E+08         0.00000E+00
    0.00000E+00         0.00000E+00         0.00000E+00
 
    0.24540E+07        -0.50383E+06         0.00000E+00
   -0.50383E+06        -0.12191E+08         0.00000E+00
    0.00000E+00         0.00000E+00         0.00000E+00
 
    0.11337E+07        -0.13642E+07         0.00000E+00
   -0.13642E+07        -0.12431E+08         0.00000E+00
    0.00000E+00         0.00000E+00         0.00000E+00
 
    0.37783E+06        -0.19881E+07         0.00000E+00
   -0.19881E+07        -0.12845E+08         0.00000E+00
    0.00000E+00         0.00000E+00         0.00000E+00
 
    0.43723E+05        -0.23509E+07         0.00000E+00
   -0.23509E+07        -0.13364E+08         0.00000E+00
    0.00000E+00         0.00000E+00         0.00000E+00
 
    0.78453E+04        -0.24492E+07         0.00000E+00
   -0.24492E+07        -0.13932E+08         0.00000E+00
    0.00000E+00         0.00000E+00         0.00000E+00
 
    0.16808E+06        -0.22932E+07         0.00000E+00
   -0.22932E+07        -0.14507E+08         0.00000E+00
    0.00000E+00         0.00000E+00         0.00000E+00
 
    0.44269E+06        -0.18996E+07         0.00000E+00
   -0.18996E+07        -0.15057E+08         0.00000E+00
    0.00000E+00         0.00000E+00         0.00000E+00
 
    0.76689E+06        -0.12864E+07         0.00000E+00
   -0.12864E+07        -0.15564E+08         0.00000E+00
    0.00000E+00         0.00000E+00         0.00000E+00
 
    0.10882E+07        -0.46934E+06         0.00000E+00
   -0.46934E+06        -0.16010E+08         0.00000E+00
    0.00000E+00         0.00000E+00         0.00000E+00
 
    0.13612E+07         0.53904E+06         0.00000E+00
    0.53904E+06        -0.16385E+08         0.00000E+00
    0.00000E+00         0.00000E+00         0.00000E+00
 
    0.15430E+07         0.17291E+07         0.00000E+00
    0.17291E+07        -0.16674E+08         0.00000E+00
    0.00000E+00         0.00000E+00         0.00000E+00
 
    0.15895E+07         0.30921E+07         0.00000E+00
    0.30921E+07        -0.16860E+08         0.00000E+00
    0.00000E+00         0.00000E+00         0.00000E+00
 
    0.14525E+07         0.46168E+07         0.00000E+00
    0.46168E+07        -0.16921E+08         0.00000E+00
    0.00000E+00         0.00000E+00         0.00000E+00
 
    0.10791E+07         0.62856E+07         0.00000E+00
    0.62856E+07        -0.16826E+08         0.00000E+00
    0.00000E+00         0.00000E+00         0.00000E+00
 
    0.41322E+06         0.80700E+07         0.00000E+00
    0.80700E+07        -0.16543E+08         0.00000E+00
    0.00000E+00         0.00000E+00         0.00000E+00
 
   -0.56344E+06        -0.64308E+06         0.00000E+00
   -0.64308E+06        -0.14126E+08         0.00000E+00
    0.00000E+00         0.00000E+00         0.00000E+00
 
   -0.16293E+07        -0.17155E+07         0.00000E+00
   -0.17155E+07        -0.14388E+08         0.00000E+00
    0.00000E+00         0.00000E+00         0.00000E+00
 
   -0.21003E+07        -0.24711E+07         0.00000E+00
   -0.24711E+07        -0.14830E+08         0.00000E+00
    0.00000E+00         0.00000E+00         0.00000E+00
 
   -0.21456E+07        -0.28993E+07         0.00000E+00
   -0.28993E+07        -0.15372E+08         0.00000E+00
    0.00000E+00         0.00000E+00         0.00000E+00
 
   -0.19059E+07        -0.30132E+07         0.00000E+00
   -0.30132E+07        -0.15952E+08         0.00000E+00
    0.00000E+00         0.00000E+00         0.00000E+00
 
   -0.14918E+07        -0.28387E+07         0.00000E+00
   -0.28387E+07        -0.16527E+08         0.00000E+00
    0.00000E+00         0.00000E+00         0.00000E+00
 
   -0.98646E+06        -0.24053E+07         0.00000E+00
   -0.24053E+07        -0.17069E+08         0.00000E+00
    0.00000E+00         0.00000E+00         0.00000E+00
 
   -0.45152E+06        -0.17394E+07         0.00000E+00
   -0.17394E+07        -0.17564E+08         0.00000E+00
    0.00000E+00         0.00000E+00         0.00000E+00
 
    0.65807E+05        -0.86058E+06         0.00000E+00
   -0.86058E+06        -0.18003E+08         0.00000E+00
    0.00000E+00         0.00000E+00         0.00000E+00
 
    0.52552E+06         0.21874E+06         0.00000E+00
    0.21874E+06        -0.18380E+08         0.00000E+00
    0.00000E+00         0.00000E+00         0.00000E+00
 
    0.88838E+06         0.14928E+07         0.00000E+00
    0.14928E+07        -0.18684E+08         0.00000E+00
    0.00000E+00         0.00000E+00         0.00000E+00
 
    0.11106E+07         0.29591E+07         0.00000E+00
    0.29591E+07        -0.18900E+08         0.00000E+00
    0.00000E+00         0.00000E+00         0.00000E+00
 
    0.11402E+07         0.46144E+07         0.00000E+00
    0.46144E+07        -0.19002E+08         0.00000E+00
    0.00000E+00         0.00000E+00         0.00000E+00
 
    0.91527E+06         0.64488E+07         0.00000E+00
    0.64488E+07        -0.18957E+08         0.00000E+00
    0.00000E+00         0.00000E+00         0.00000E+00
 
    0.36542E+06         0.84394E+07         0.00000E+00
    0.84394E+07        -0.18721E+08         0.00000E+00
    0.00000E+00         0.00000E+00         0.00000E+00
 
   -0.40987E+07        -0.79455E+06         0.00000E+00
   -0.79455E+06        -0.16314E+08         0.00000E+00
    0.00000E+00         0.00000E+00         0.00000E+00
 
   -0.48160E+07        -0.20884E+07         0.00000E+00
   -0.20884E+07        -0.16593E+08         0.00000E+00
    0.00000E+00         0.00000E+00         0.00000E+00
 
   -0.49231E+07        -0.29696E+07         0.00000E+00
   -0.29696E+07        -0.17052E+08         0.00000E+00
    0.00000E+00         0.00000E+00         0.00000E+00
 
   -0.46200E+07        -0.34485E+07         0.00000E+00
   -0.34485E+07        -0.17597E+08         0.00000E+00
    0.00000E+00         0.00000E+00         0.00000E+00
 
   -0.40647E+07        -0.35618E+07         0.00000E+00
   -0.35618E+07        -0.18161E+08         0.00000E+00
    0.00000E+00         0.00000E+00         0.00000E+00
 
   -0.33730E+07        -0.33564E+07         0.00000E+00
   -0.33564E+07        -0.18703E+08         0.00000E+00
    0.00000E+00         0.00000E+00         0.00000E+00
 
   -0.26247E+07        -0.28775E+07         0.00000E+00
   -0.28775E+07        -0.19203E+08         0.00000E+00
    0.00000E+00         0.00000E+00         0.00000E+00
 
   -0.18730E+07        -0.21611E+07         0.00000E+00
   -0.21611E+07        -0.19654E+08         0.00000E+00
    0.00000E+00         0.00000E+00         0.00000E+00
 
   -0.11547E+07        -0.12304E+07         0.00000E+00
   -0.12304E+07        -0.20058E+08         0.00000E+00
    0.00000E+00         0.00000E+00         0.00000E+00
 
   -0.50028E+06        -0.95926E+05         0.00000E+00
   -0.95926E+05        -0.20415E+08         0.00000E+00
    0.00000E+00         0.00000E+00         0.00000E+00
 
    0.58228E+05         0.12426E+07         0.00000E+00
    0.12426E+07        -0.20720E+08         0.00000E+00
    0.00000E+00         0.00000E+00         0.00000E+00
 
    0.47995E+06         0.27924E+07         0.00000E+00
    0.27924E+07        -0.20962E+08         0.00000E+00
    0.00000E+00         0.00000E+00         0.00000E+00
 
    0.71001E+06         0.45620E+07         0.00000E+00
    0.45620E+07        -0.21113E+08         0.00000E+00
    0.00000E+00         0.00000E+00         0.00000E+00
 
    0.67667E+06         0.65537E+07         0.00000E+00
    0.65537E+07        -0.21132E+08         0.00000E+00
    0.00000E+00         0.00000E+00         0.00000E+00
 
    0.29205E+06         0.87548E+07         0.00000E+00
    0.87548E+07        -0.20966E+08         0.00000E+00
    0.00000E+00         0.00000E+00         0.00000E+00
 
   -0.81910E+07        -0.95644E+06         0.00000E+00
   -0.95644E+06        -0.18775E+08         0.00000E+00
    0.00000E+00         0.00000E+00         0.00000E+00
 
   -0.84449E+07        -0.24736E+07         0.00000E+00
   -0.24736E+07        -0.19065E+08         0.00000E+00
    0.00000E+00         0.00000E+00         0.00000E+00
 
   -0.80965E+07        -0.34636E+07         0.00000E+00
   -0.34636E+07        -0.19524E+08         0.00000E+00
    0.00000E+00         0.00000E+00         0.00000E+00
 
   -0.73813E+07        -0.39685E+07         0.00000E+00
   -0.39685E+07        -0.20043E+08         0.00000E+00
    0.00000E+00         0.00000E+00         0.00000E+00
 
   -0.64732E+07        -0.40579E+07         0.00000E+00
   -0.40579E+07        -0.20553E+08         0.00000E+00
    0.00000E+00         0.00000E+00         0.00000E+00
 
   -0.54876E+07        -0.38063E+07         0.00000E+00
   -0.38063E+07        -0.21019E+08         0.00000E+00
    0.00000E+00         0.00000E+00         0.00000E+00
 
   -0.44931E+07        -0.32775E+07         0.00000E+00
   -0.32775E+07        -0.21432E+08         0.00000E+00
    0.00000E+00         0.00000E+00         0.00000E+00
 
   -0.35273E+07        -0.25172E+07         0.00000E+00
   -0.25172E+07        -0.21800E+08         0.00000E+00
    0.00000E+00         0.00000E+00         0.00000E+00
 
   -0.26107E+07        -0.15510E+07         0.00000E+00
   -0.15510E+07        -0.22134E+08         0.00000E+00
    0.00000E+00         0.00000E+00         0.00000E+00
 
   -0.17589E+07        -0.38565E+06         0.00000E+00
   -0.38565E+06        -0.22446E+08         0.00000E+00
    0.00000E+00         0.00000E+00         0.00000E+00
 
   -0.99262E+06         0.98789E+06         0.00000E+00
    0.98789E+06        -0.22738E+08         0.00000E+00
    0.00000E+00         0.00000E+00         0.00000E+00
 
   -0.34624E+06         0.25902E+07         0.00000E+00
    0.25902E+07        -0.23002E+08         0.00000E+00
    0.00000E+00         0.00000E+00         0.00000E+00
 
    0.12450E+06         0.44467E+07         0.00000E+00
    0.44467E+07        -0.23210E+08         0.00000E+00
    0.00000E+00         0.00000E+00         0.00000E+00
 
    0.33749E+06         0.65779E+07         0.00000E+00
    0.65779E+07        -0.23315E+08         0.00000E+00
    0.00000E+00         0.00000E+00         0.00000E+00
 
    0.18377E+06         0.89874E+07         0.00000E+00
    0.89874E+07        -0.23247E+08         0.00000E+00
    0.00000E+00         0.00000E+00         0.00000E+00
 
   -0.12873E+08        -0.11262E+07         0.00000E+00
   -0.11262E+07        -0.21532E+08         0.00000E+00
    0.00000E+00         0.00000E+00         0.00000E+00
 
   -0.12523E+08        -0.28571E+07         0.00000E+00
   -0.28571E+07        -0.21823E+08         0.00000E+00
    0.00000E+00         0.00000E+00         0.00000E+00
 
   -0.11613E+08        -0.39241E+07         0.00000E+00
   -0.39241E+07        -0.22257E+08         0.00000E+00
    0.00000E+00         0.00000E+00         0.00000E+00
 
   -0.10421E+08        -0.44172E+07         0.00000E+00
   -0.44172E+07        -0.22708E+08         0.00000E+00
    0.00000E+00         0.00000E+00         0.00000E+00
 
   -0.91312E+07        -0.44522E+07         0.00000E+00
   -0.44522E+07        -0.23110E+08         0.00000E+00
    0.00000E+00         0.00000E+00         0.00000E+00
 
   -0.78473E+07        -0.41381E+07         0.00000E+00
   -0.41381E+07        -0.23444E+08         0.00000E+00
    0.00000E+00         0.00000E+00         0.00000E+00
 
   -0.66158E+07        -0.35588E+07         0.00000E+00
   -0.35588E+07        -0.23718E+08         0.00000E+00
    0.00000E+00         0.00000E+00         0.00000E+00
 
   -0.54496E+07        -0.27679E+07         0.00000E+00
   -0.27679E+07        -0.23955E+08         0.00000E+00
    0.00000E+00         0.00000E+00         0.00000E+00
 
   -0.43462E+07        -0.17909E+07         0.00000E+00
   -0.17909E+07        -0.24183E+08         0.00000E+00
    0.00000E+00         0.00000E+00         0.00000E+00
 
   -0.33013E+07        -0.62867E+06         0.00000E+00
   -0.62867E+06        -0.24421E+08         0.00000E+00
    0.00000E+00         0.00000E+00         0.00000E+00
 
   -0.23189E+07         0.73903E+06         0.00000E+00
    0.73903E+06        -0.24682E+08         0.00000E+00
    0.00000E+00         0.00000E+00         0.00000E+00
 
   -0.14223E+07         0.23497E+07         0.00000E+00
    0.23497E+07        -0.24964E+08         0.00000E+00
    0.00000E+00         0.00000E+00         0.00000E+00
 
   -0.66408E+06         0.42512E+07         0.00000E+00
    0.42512E+07        -0.25241E+08         0.00000E+00
    0.00000E+00         0.00000E+00         0.00000E+00
 
   -0.13582E+06         0.64909E+07         0.00000E+00
    0.64909E+07        -0.25459E+08         0.00000E+00
    0.00000E+00         0.00000E+00         0.00000E+00
 
    0.28344E+05         0.90977E+07         0.00000E+00
    0.90977E+07        -0.25531E+08         0.00000E+00
    0.00000E+00         0.00000E+00         0.00000E+00
 
   -0.18168E+08        -0.13002E+07         0.00000E+00
   -0.13002E+07        -0.24605E+08         0.00000E+00
    0.00000E+00         0.00000E+00         0.00000E+00
 
   -0.17038E+08        -0.32177E+07         0.00000E+00
   -0.32177E+07        -0.24883E+08         0.00000E+00
    0.00000E+00         0.00000E+00         0.00000E+00
 
   -0.15448E+08        -0.43079E+07         0.00000E+00
   -0.43079E+07        -0.25252E+08         0.00000E+00
    0.00000E+00         0.00000E+00         0.00000E+00
 
   -0.13720E+08        -0.47353E+07         0.00000E+00
   -0.47353E+07        -0.25573E+08         0.00000E+00
    0.00000E+00         0.00000E+00         0.00000E+00
 
   -0.12035E+08        -0.46804E+07         0.00000E+00
   -0.46804E+07        -0.25796E+08         0.00000E+00
    0.00000E+00         0.00000E+00         0.00000E+00
 
   -0.10466E+08        -0.42914E+07         0.00000E+00
   -0.42914E+07        -0.25927E+08         0.00000E+00
    0.00000E+00         0.00000E+00         0.00000E+00
 
   -0.90219E+07        -0.36692E+07         0.00000E+00
   -0.36692E+07        -0.26001E+08         0.00000E+00
    0.00000E+00         0.00000E+00         0.00000E+00
 
   -0.76809E+07        -0.28706E+07         0.00000E+00
   -0.28706E+07        -0.26059E+08         0.00000E+00
    0.00000E+00         0.00000E+00         0.00000E+00
 
   -0.64118E+07        -0.19172E+07         0.00000E+00
   -0.19172E+07        -0.26141E+08         0.00000E+00
    0.00000E+00         0.00000E+00         0.00000E+00
 
   -0.51859E+07        -0.80209E+06         0.00000E+00
   -0.80209E+06        -0.26277E+08         0.00000E+00
    0.00000E+00         0.00000E+00         0.00000E+00
 
   -0.39854E+07         0.50709E+06         0.00000E+00
    0.50709E+06        -0.26489E+08         0.00000E+00
    0.00000E+00         0.00000E+00         0.00000E+00
 
   -0.28149E+07         0.20667E+07         0.00000E+00
    0.20667E+07        -0.26784E+08         0.00000E+00
    0.00000E+00         0.00000E+00         0.00000E+00
 
   -0.17166E+07         0.39534E+07         0.00000E+00
    0.39534E+07        -0.27143E+08         0.00000E+00
    0.00000E+00         0.00000E+00         0.00000E+00
 
   -0.78743E+06         0.62520E+07         0.00000E+00
    0.62520E+07        -0.27509E+08         0.00000E+00
    0.00000E+00         0.00000E+00         0.00000E+00
 
   -0.19063E+06         0.90315E+07         0.00000E+00
    0.90315E+07        -0.27777E+08         0.00000E+00
    0.00000E+00         0.00000E+00         0.00000E+00
 
   -0.24082E+08        -0.14727E+07         0.00000E+00
   -0.14727E+07        -0.28013E+08         0.00000E+00
    0.00000E+00         0.00000E+00         0.00000E+00
 
   -0.21951E+08        -0.35205E+07         0.00000E+00
   -0.35205E+07        -0.28252E+08         0.00000E+00
    0.00000E+00         0.00000E+00         0.00000E+00
 
   -0.19551E+08        -0.45474E+07         0.00000E+00
   -0.45474E+07        -0.28489E+08         0.00000E+00
    0.00000E+00         0.00000E+00         0.00000E+00
 
   -0.17246E+08        -0.48396E+07         0.00000E+00
   -0.48396E+07        -0.28588E+08         0.00000E+00
    0.00000E+00         0.00000E+00         0.00000E+00
 
   -0.15181E+08        -0.46621E+07         0.00000E+00
   -0.46621E+07        -0.28536E+08         0.00000E+00
    0.00000E+00         0.00000E+00         0.00000E+00
 
   -0.13365E+08        -0.41992E+07         0.00000E+00
   -0.41992E+07        -0.28385E+08         0.00000E+00
    0.00000E+00         0.00000E+00         0.00000E+00
 
   -0.11749E+08        -0.35570E+07         0.00000E+00
   -0.35570E+07        -0.28199E+08         0.00000E+00
    0.00000E+00         0.00000E+00         0.00000E+00
 
   -0.10269E+08        -0.27862E+07         0.00000E+00
   -0.27862E+07        -0.28035E+08         0.00000E+00
    0.00000E+00         0.00000E+00         0.00000E+00
 
   -0.88632E+07        -0.19002E+07         0.00000E+00
   -0.19002E+07        -0.27938E+08         0.00000E+00
    0.00000E+00         0.00000E+00         0.00000E+00
 
   -0.74766E+07        -0.88417E+06         0.00000E+00
   -0.88417E+06        -0.27946E+08         0.00000E+00
    0.00000E+00         0.00000E+00         0.00000E+00
 
   -0.60647E+07         0.30413E+06         0.00000E+00
    0.30413E+06        -0.28091E+08         0.00000E+00
    0.00000E+00         0.00000E+00         0.00000E+00
 
   -0.46040E+07         0.17382E+07         0.00000E+00
    0.17382E+07        -0.28392E+08         0.00000E+00
    0.00000E+00         0.00000E+00         0.00000E+00
 
   -0.31114E+07         0.35271E+07         0.00000E+00
    0.35271E+07        -0.28846E+08         0.00000E+00
    0.00000E+00         0.00000E+00         0.00000E+00
 
   -0.16775E+07         0.58086E+07         0.00000E+00
    0.58086E+07        -0.29403E+08         0.00000E+00
    0.00000E+00         0.00000E+00         0.00000E+00
 
   -0.49612E+06         0.87153E+07         0.00000E+00
    0.87153E+07        -0.29938E+08         0.00000E+00
    0.00000E+00         0.00000E+00         0.00000E+00
 
   -0.30595E+08        -0.16339E+07         0.00000E+00
   -0.16339E+07        -0.31772E+08         0.00000E+00
    0.00000E+00         0.00000E+00         0.00000E+00
 
   -0.27172E+08        -0.37018E+07         0.00000E+00
   -0.37018E+07        -0.31918E+08         0.00000E+00
    0.00000E+00         0.00000E+00         0.00000E+00
 
   -0.23841E+08        -0.45332E+07         0.00000E+00
   -0.45332E+07        -0.31907E+08         0.00000E+00
    0.00000E+00         0.00000E+00         0.00000E+00
 
   -0.20968E+08        -0.46156E+07         0.00000E+00
   -0.46156E+07        -0.31643E+08         0.00000E+00
    0.00000E+00         0.00000E+00         0.00000E+00
 
   -0.18581E+08        -0.43070E+07         0.00000E+00
   -0.43070E+07        -0.31203E+08         0.00000E+00
    0.00000E+00         0.00000E+00         0.00000E+00
 
   -0.16579E+08        -0.37994E+07         0.00000E+00
   -0.37994E+07        -0.30696E+08         0.00000E+00
    0.00000E+00         0.00000E+00         0.00000E+00
 
   -0.14843E+08        -0.31814E+07         0.00000E+00
   -0.31814E+07        -0.30205E+08         0.00000E+00
    0.00000E+00         0.00000E+00         0.00000E+00
 
   -0.13265E+08        -0.24873E+07         0.00000E+00
   -0.24873E+07        -0.29790E+08         0.00000E+00
    0.00000E+00         0.00000E+00         0.00000E+00
 
   -0.11757E+08        -0.17198E+07         0.00000E+00
   -0.17198E+07        -0.29497E+08         0.00000E+00
    0.00000E+00         0.00000E+00         0.00000E+00
 
   -0.10237E+08        -0.85808E+06         0.00000E+00
   -0.85808E+06        -0.29362E+08         0.00000E+00
    0.00000E+00         0.00000E+00         0.00000E+00
 
   -0.86329E+07         0.14371E+06         0.00000E+00
    0.14371E+06        -0.29424E+08         0.00000E+00
    0.00000E+00         0.00000E+00         0.00000E+00
 
   -0.68822E+07         0.13665E+07         0.00000E+00
    0.13665E+07        -0.29717E+08         0.00000E+00
    0.00000E+00         0.00000E+00         0.00000E+00
 
   -0.49514E+07         0.29476E+07         0.00000E+00
    0.29476E+07        -0.30271E+08         0.00000E+00
    0.00000E+00         0.00000E+00         0.00000E+00
 
   -0.28930E+07         0.50943E+07         0.00000E+00
    0.50943E+07        -0.31063E+08         0.00000E+00
    0.00000E+00         0.00000E+00         0.00000E+00
 
   -0.92315E+06         0.80470E+07         0.00000E+00
    0.80470E+07        -0.31963E+08         0.00000E+00
    0.00000E+00         0.00000E+00         0.00000E+00
 
   -0.37623E+08        -0.17614E+07         0.00000E+00
   -0.17614E+07        -0.35880E+08         0.00000E+00
    0.00000E+00         0.00000E+00         0.00000E+00
 
   -0.32531E+08        -0.36276E+07         0.00000E+00
   -0.36276E+07        -0.35813E+08         0.00000E+00
    0.00000E+00         0.00000E+00         0.00000E+00
 
   -0.28220E+08        -0.40822E+07         0.00000E+00
   -0.40822E+07        -0.35328E+08         0.00000E+00
    0.00000E+00         0.00000E+00         0.00000E+00
 
   -0.24882E+08        -0.39263E+07         0.00000E+00
   -0.39263E+07        -0.34517E+08         0.00000E+00
    0.00000E+00         0.00000E+00         0.00000E+00
 
   -0.22278E+08        -0.35385E+07         0.00000E+00
   -0.35385E+07        -0.33594E+08         0.00000E+00
    0.00000E+00         0.00000E+00         0.00000E+00
 
   -0.20165E+08        -0.30560E+07         0.00000E+00
   -0.30560E+07        -0.32692E+08         0.00000E+00
    0.00000E+00         0.00000E+00         0.00000E+00
 
   -0.18359E+08        -0.25289E+07         0.00000E+00
   -0.25289E+07        -0.31888E+08         0.00000E+00
    0.00000E+00         0.00000E+00         0.00000E+00
 
   -0.16722E+08        -0.19703E+07         0.00000E+00
   -0.19703E+07        -0.31227E+08         0.00000E+00
    0.00000E+00         0.00000E+00         0.00000E+00
 
   -0.15142E+08        -0.13739E+07         0.00000E+00
   -0.13739E+07        -0.30743E+08         0.00000E+00
    0.00000E+00         0.00000E+00         0.00000E+00
 
   -0.13520E+08        -0.71781E+06         0.00000E+00
   -0.71781E+06        -0.30468E+08         0.00000E+00
    0.00000E+00         0.00000E+00         0.00000E+00
 
   -0.11757E+08         0.38712E+05         0.00000E+00
    0.38712E+05        -0.30439E+08         0.00000E+00
    0.00000E+00         0.00000E+00         0.00000E+00
 
   -0.97475E+07         0.96814E+06         0.00000E+00
    0.96814E+06        -0.30705E+08         0.00000E+00
    0.00000E+00         0.00000E+00         0.00000E+00
 
   -0.73727E+07         0.22064E+07         0.00000E+00
    0.22064E+07        -0.31334E+08         0.00000E+00
    0.00000E+00         0.00000E+00         0.00000E+00
 
   -0.45718E+07         0.40330E+07         0.00000E+00
    0.40330E+07        -0.32393E+08         0.00000E+00
    0.00000E+00         0.00000E+00         0.00000E+00
 
   -0.15325E+07         0.68791E+07         0.00000E+00
    0.68791E+07        -0.33784E+08         0.00000E+00
    0.00000E+00         0.00000E+00         0.00000E+00
 
   -0.44929E+08        -0.17760E+07         0.00000E+00
   -0.17760E+07        -0.40292E+08         0.00000E+00
    0.00000E+00         0.00000E+00         0.00000E+00
 
   -0.37751E+08        -0.29664E+07         0.00000E+00
   -0.29664E+07        -0.39628E+08         0.00000E+00
    0.00000E+00         0.00000E+00         0.00000E+00
 
   -0.32658E+08        -0.29515E+07         0.00000E+00
   -0.29515E+07        -0.38316E+08         0.00000E+00
    0.00000E+00         0.00000E+00         0.00000E+00
 
   -0.29061E+08        -0.26808E+07         0.00000E+00
   -0.26808E+07        -0.36843E+08         0.00000E+00
    0.00000E+00         0.00000E+00         0.00000E+00
 
   -0.26353E+08        -0.23428E+07         0.00000E+00
   -0.23428E+07        -0.35436E+08         0.00000E+00
    0.00000E+00         0.00000E+00         0.00000E+00
 
   -0.24189E+08        -0.19877E+07         0.00000E+00
   -0.19877E+07        -0.34179E+08         0.00000E+00
    0.00000E+00         0.00000E+00         0.00000E+00
 
   -0.22350E+08        -0.16287E+07         0.00000E+00
   -0.16287E+07        -0.33111E+08         0.00000E+00
    0.00000E+00         0.00000E+00         0.00000E+00
 
   -0.20679E+08        -0.12643E+07         0.00000E+00
   -0.12643E+07        -0.32250E+08         0.00000E+00
    0.00000E+00         0.00000E+00         0.00000E+00
 
   -0.19054E+08        -0.88538E+06         0.00000E+00
   -0.88538E+06        -0.31614E+08         0.00000E+00
    0.00000E+00         0.00000E+00         0.00000E+00
 
   -0.17361E+08        -0.47530E+06         0.00000E+00
   -0.47530E+06        -0.31224E+08         0.00000E+00
    0.00000E+00         0.00000E+00         0.00000E+00
 
   -0.15483E+08        -0.64156E+04         0.00000E+00
   -0.64156E+04        -0.31113E+08         0.00000E+00
    0.00000E+00         0.00000E+00         0.00000E+00
 
   -0.13277E+08         0.57007E+06         0.00000E+00
    0.57007E+06        -0.31337E+08         0.00000E+00
    0.00000E+00         0.00000E+00         0.00000E+00
 
   -0.10542E+08         0.13504E+07         0.00000E+00
    0.13504E+07        -0.31992E+08         0.00000E+00
    0.00000E+00         0.00000E+00         0.00000E+00
 
   -0.69626E+07         0.25686E+07         0.00000E+00
    0.25686E+07        -0.33256E+08         0.00000E+00
    0.00000E+00         0.00000E+00         0.00000E+00
 
   -0.24558E+07         0.49729E+07         0.00000E+00
    0.49729E+07        -0.35310E+08         0.00000E+00
    0.00000E+00         0.00000E+00         0.00000E+00
 
   -0.51803E+08        -0.10859E+07         0.00000E+00
   -0.10859E+07        -0.44164E+08         0.00000E+00
    0.00000E+00         0.00000E+00         0.00000E+00
 
   -0.42695E+08        -0.12128E+07         0.00000E+00
   -0.12128E+07        -0.42266E+08         0.00000E+00
    0.00000E+00         0.00000E+00         0.00000E+00
 
   -0.37333E+08        -0.10904E+07         0.00000E+00
   -0.10904E+07        -0.40130E+08         0.00000E+00
    0.00000E+00         0.00000E+00         0.00000E+00
 
   -0.33641E+08        -0.95564E+06         0.00000E+00
   -0.95564E+06        -0.38169E+08         0.00000E+00
    0.00000E+00         0.00000E+00         0.00000E+00
 
   -0.30894E+08        -0.81986E+06         0.00000E+00
   -0.81986E+06        -0.36448E+08         0.00000E+00
    0.00000E+00         0.00000E+00         0.00000E+00
 
   -0.28707E+08        -0.68849E+06         0.00000E+00
   -0.68849E+06        -0.34977E+08         0.00000E+00
    0.00000E+00         0.00000E+00         0.00000E+00
 
   -0.26848E+08        -0.56082E+06         0.00000E+00
   -0.56082E+06        -0.33756E+08         0.00000E+00
    0.00000E+00         0.00000E+00         0.00000E+00
 
   -0.25155E+08        -0.43417E+06         0.00000E+00
   -0.43417E+06        -0.32782E+08         0.00000E+00
    0.00000E+00         0.00000E+00         0.00000E+00
 
   -0.23500E+08        -0.30429E+06         0.00000E+00
   -0.30429E+06        -0.32061E+08         0.00000E+00
    0.00000E+00         0.00000E+00         0.00000E+00
 
   -0.21764E+08        -0.16497E+06         0.00000E+00
   -0.16497E+06        -0.31606E+08         0.00000E+00
    0.00000E+00         0.00000E+00         0.00000E+00
 
   -0.19821E+08        -0.64975E+04         0.00000E+00
   -0.64975E+04        -0.31446E+08         0.00000E+00
    0.00000E+00         0.00000E+00         0.00000E+00
 
   -0.17504E+08         0.18793E+06         0.00000E+00
    0.18793E+06        -0.31637E+08         0.00000E+00
    0.00000E+00         0.00000E+00         0.00000E+00
 
   -0.14561E+08         0.45307E+06         0.00000E+00
    0.45307E+06        -0.32285E+08         0.00000E+00
    0.00000E+00         0.00000E+00         0.00000E+00
 
   -0.10529E+08         0.86643E+06         0.00000E+00
    0.86643E+06        -0.33611E+08         0.00000E+00
    0.00000E+00         0.00000E+00         0.00000E+00
 
   -0.40825E+07         0.18991E+07         0.00000E+00
    0.18991E+07        -0.36270E+08         0.00000E+00
    0.00000E+00         0.00000E+00         0.00000E+00
 
TENSORS stresstot double 
   -0.45800E+08         0.13875E+05         0.00000E+00
    0.13875E+05        -0.59987E+08         0.00000E+00
    0.00000E+00         0.00000E+00        -0.59255E+08
 
   -0.46690E+08         0.36628E+05         0.00000E+00
    0.36628E+05        -0.59937E+08         0.00000E+00
    0.00000E+00         0.00000E+00        -0.59255E+08
 
   -0.47630E+08         0.54153E+05         0.00000E+00
    0.54153E+05        -0.59847E+08         0.00000E+00
    0.00000E+00         0.00000E+00        -0.59255E+08
 
   -0.48599E+08         0.67998E+05         0.00000E+00
    0.67998E+05        -0.59725E+08         0.00000E+00
    0.00000E+00         0.00000E+00        -0.59256E+08
 
   -0.49582E+08         0.79492E+05         0.00000E+00
    0.79492E+05        -0.59578E+08         0.00000E+00
    0.00000E+00         0.00000E+00        -0.59256E+08
 
   -0.50567E+08         0.89729E+05         0.00000E+00
    0.89729E+05        -0.59409E+08         0.00000E+00
    0.00000E+00         0.00000E+00        -0.59257E+08
 
   -0.51545E+08         0.99572E+05         0.00000E+00
    0.99572E+05        -0.59221E+08         0.00000E+00
    0.00000E+00         0.00000E+00        -0.59258E+08
 
   -0.52513E+08         0.10966E+06         0.00000E+00
    0.10966E+06        -0.59012E+08         0.00000E+00
    0.00000E+00         0.00000E+00        -0.59259E+08
 
   -0.53466E+08         0.12042E+06         0.00000E+00
    0.12042E+06        -0.58783E+08         0.00000E+00
    0.00000E+00         0.00000E+00        -0.59260E+08
 
   -0.54403E+08         0.13208E+06         0.00000E+00
    0.13208E+06        -0.58531E+08         0.00000E+00
    0.00000E+00         0.00000E+00        -0.59260E+08
 
   -0.55324E+08         0.14471E+06         0.00000E+00
    0.14471E+06        -0.58254E+08         0.00000E+00
    0.00000E+00         0.00000E+00        -0.59261E+08
 
   -0.56228E+08         0.15823E+06         0.00000E+00
    0.15823E+06        -0.57952E+08         0.00000E+00
    0.00000E+00         0.00000E+00        -0.59262E+08
 
   -0.57115E+08         0.17244E+06         0.00000E+00
    0.17244E+06        -0.57621E+08         0.00000E+00
    0.00000E+00         0.00000E+00        -0.59262E+08
 
   -0.57986E+08         0.18705E+06         0.00000E+00
    0.18705E+06        -0.57262E+08         0.00000E+00
    0.00000E+00         0.00000E+00        -0.59262E+08
 
   -0.58840E+08         0.20174E+06         0.00000E+00
    0.20174E+06        -0.56873E+08         0.00000E+00
    0.00000E+00         0.00000E+00        -0.59263E+08
 
   -0.45748E+08         0.41260E+05         0.00000E+00
    0.41260E+05        -0.59988E+08         0.00000E+00
    0.00000E+00         0.00000E+00        -0.59225E+08
 
   -0.46650E+08         0.10886E+06         0.00000E+00
    0.10886E+06        -0.59939E+08         0.00000E+00
    0.00000E+00         0.00000E+00        -0.59225E+08
 
   -0.47599E+08         0.16088E+06         0.00000E+00
    0.16088E+06        -0.59851E+08         0.00000E+00
    0.00000E+00         0.00000E+00        -0.59226E+08
 
   -0.48574E+08         0.20199E+06         0.00000E+00
    0.20199E+06        -0.59733E+08         0.00000E+00
    0.00000E+00         0.00000E+00        -0.59226E+08
 
   -0.49560E+08         0.23617E+06         0.00000E+00
    0.23617E+06        -0.59590E+08         0.00000E+00
    0.00000E+00         0.00000E+00        -0.59227E+08
 
   -0.50547E+08         0.26670E+06         0.00000E+00
    0.26670E+06        -0.59426E+08         0.00000E+00
    0.00000E+00         0.00000E+00        -0.59228E+08
 
   -0.51526E+08         0.29618E+06         0.00000E+00
    0.29618E+06        -0.59243E+08         0.00000E+00
    0.00000E+00         0.00000E+00        -0.59229E+08
 
   -0.52492E+08         0.32650E+06         0.00000E+00
    0.32650E+06        -0.59039E+08         0.00000E+00
    0.00000E+00         0.00000E+00        -0.59230E+08
 
   -0.53444E+08         0.35894E+06         0.00000E+00
    0.35894E+06        -0.58815E+08         0.00000E+00
    0.00000E+00         0.00000E+00        -0.59230E+08
 
   -0.54379E+08         0.39418E+06         0.00000E+00
    0.39418E+06        -0.58567E+08         0.00000E+00
    0.00000E+00         0.00000E+00        -0.59231E+08
 
   -0.55298E+08         0.43240E+06         0.00000E+00
    0.43240E+06        -0.58294E+08         0.00000E+00
    0.00000E+00         0.00000E+00        -0.59232E+08
 
   -0.56200E+08         0.47334E+06         0.00000E+00
    0.47334E+06        -0.57995E+08         0.00000E+00
    0.00000E+00         0.00000E+00        -0.59232E+08
 
   -0.57086E+08         0.51639E+06         0.00000E+00
    0.51639E+06        -0.57667E+08         0.00000E+00
    0.00000E+00         0.00000E+00        -0.59233E+08
 
   -0.57957E+08         0.56069E+06         0.00000E+00
    0.56069E+06        -0.57309E+08         0.00000E+00
    0.00000E+00         0.00000E+00        -0.59233E+08
 
   -0.58811E+08         0.60521E+06         0.00000E+00
    0.60521E+06        -0.56921E+08         0.00000E+00
    0.00000E+00         0.00000E+00        -0.59233E+08
 
   -0.45646E+08         0.67543E+05         0.00000E+00
    0.67543E+05        -0.59989E+08         0.00000E+00
    0.00000E+00         0.00000E+00        -0.59166E+08
 
   -0.46573E+08         0.17799E+06         0.00000E+00
    0.17799E+06        -0.59942E+08         0.00000E+00
    0.00000E+00         0.00000E+00        -0.59166E+08
 
   -0.47539E+08         0.26285E+06         0.00000E+00
    0.26285E+06        -0.59860E+08         0.00000E+00
    0.00000E+00         0.00000E+00        -0.59166E+08
 
   -0.48525E+08         0.32993E+06         0.00000E+00
    0.32993E+06        -0.59749E+08         0.00000E+00
    0.00000E+00         0.00000E+00        -0.59167E+08
 
   -0.49518E+08         0.38589E+06         0.00000E+00
    0.38589E+06        -0.59615E+08         0.00000E+00
    0.00000E+00         0.00000E+00        -0.59168E+08
 
   -0.50507E+08         0.43620E+06         0.00000E+00
    0.43620E+06        -0.59461E+08         0.00000E+00
    0.00000E+00         0.00000E+00        -0.59169E+08
 
   -0.51486E+08         0.48515E+06         0.00000E+00
    0.48515E+06        -0.59287E+08         0.00000E+00
    0.00000E+00         0.00000E+00        -0.59169E+08
 
   -0.52450E+08         0.53589E+06         0.00000E+00
    0.53589E+06        -0.59094E+08         0.00000E+00
    0.00000E+00         0.00000E+00        -0.59170E+08
 
   -0.53398E+08         0.59050E+06         0.00000E+00
    0.59050E+06        -0.58879E+08         0.00000E+00
    0.00000E+00         0.00000E+00        -0.59171E+08
 
   -0.54329E+08         0.65009E+06         0.00000E+00
    0.65009E+06        -0.58640E+08         0.00000E+00
    0.00000E+00         0.00000E+00        -0.59172E+08
 
   -0.55244E+08         0.71489E+06         0.00000E+00
    0.71489E+06        -0.58375E+08         0.00000E+00
    0.00000E+00         0.00000E+00        -0.59173E+08
 
   -0.56143E+08         0.78442E+06         0.00000E+00
    0.78442E+06        -0.58082E+08         0.00000E+00
    0.00000E+00         0.00000E+00        -0.59173E+08
 
   -0.57027E+08         0.85761E+06         0.00000E+00
    0.85761E+06        -0.57758E+08         0.00000E+00
    0.00000E+00         0.00000E+00        -0.59174E+08
 
   -0.57896E+08         0.93296E+06         0.00000E+00
    0.93296E+06        -0.57403E+08         0.00000E+00
    0.00000E+00         0.00000E+00        -0.59174E+08
 
   -0.58751E+08         0.10087E+07         0.00000E+00
    0.10087E+07        -0.57015E+08         0.00000E+00
    0.00000E+00         0.00000E+00        -0.59174E+08
 
   -0.45497E+08         0.91969E+05         0.00000E+00
    0.91969E+05        -0.59990E+08         0.00000E+00
    0.00000E+00         0.00000E+00        -0.59074E+08
 
   -0.46459E+08         0.24192E+06         0.00000E+00
    0.24192E+06        -0.59948E+08         0.00000E+00
    0.00000E+00         0.00000E+00        -0.59074E+08
 
   -0.47450E+08         0.35685E+06         0.00000E+00
    0.35685E+06        -0.59873E+08         0.00000E+00
    0.00000E+00         0.00000E+00        -0.59075E+08
 
   -0.48454E+08         0.44775E+06         0.00000E+00
    0.44775E+06        -0.59773E+08         0.00000E+00
    0.00000E+00         0.00000E+00        -0.59076E+08
 
   -0.49456E+08         0.52398E+06         0.00000E+00
    0.52398E+06        -0.59653E+08         0.00000E+00
    0.00000E+00         0.00000E+00        -0.59076E+08
 
   -0.50449E+08         0.59320E+06         0.00000E+00
    0.59320E+06        -0.59513E+08         0.00000E+00
    0.00000E+00         0.00000E+00        -0.59077E+08
 
   -0.51426E+08         0.66137E+06         0.00000E+00
    0.66137E+06        -0.59354E+08         0.00000E+00
    0.00000E+00         0.00000E+00        -0.59078E+08
 
   -0.52387E+08         0.73284E+06         0.00000E+00
    0.73284E+06        -0.59176E+08         0.00000E+00
    0.00000E+00         0.00000E+00        -0.59079E+08
 
   -0.53329E+08         0.81045E+06         0.00000E+00
    0.81045E+06        -0.58975E+08         0.00000E+00
    0.00000E+00         0.00000E+00        -0.59080E+08
 
   -0.54254E+08         0.89565E+06         0.00000E+00
    0.89565E+06        -0.58750E+08         0.00000E+00
    0.00000E+00         0.00000E+00        -0.59081E+08
 
   -0.55162E+08         0.98869E+06         0.00000E+00
    0.98869E+06        -0.58496E+08         0.00000E+00
    0.00000E+00         0.00000E+00        -0.59082E+08
 
   -0.56056E+08         0.10888E+07         0.00000E+00
    0.10888E+07        -0.58212E+08         0.00000E+00
    0.00000E+00         0.00000E+00        -0.59082E+08
 
   -0.56936E+08         0.11943E+07         0.00000E+00
    0.11943E+07        -0.57895E+08         0.00000E+00
    0.00000E+00         0.00000E+00        -0.59083E+08
 
   -0.57804E+08         0.13030E+07         0.00000E+00
    0.13030E+07        -0.57544E+08         0.00000E+00
    0.00000E+00         0.00000E+00        -0.59083E+08
 
   -0.58659E+08         0.14122E+07         0.00000E+00
    0.14122E+07        -0.57158E+08         0.00000E+00
    0.00000E+00         0.00000E+00        -0.59083E+08
 
   -0.45304E+08         0.11376E+06         0.00000E+00
    0.11376E+06        -0.59992E+08         0.00000E+00
    0.00000E+00         0.00000E+00        -0.58948E+08
 
   -0.46313E+08         0.29848E+06         0.00000E+00
    0.29848E+06        -0.59955E+08         0.00000E+00
    0.00000E+00         0.00000E+00        -0.58948E+08
 
   -0.47337E+08         0.43955E+06         0.00000E+00
    0.43955E+06        -0.59892E+08         0.00000E+00
    0.00000E+00         0.00000E+00        -0.58949E+08
 
   -0.48361E+08         0.55125E+06         0.00000E+00
    0.55125E+06        -0.59806E+08         0.00000E+00
    0.00000E+00         0.00000E+00        -0.58950E+08
 
   -0.49375E+08         0.64566E+06         0.00000E+00
    0.64566E+06        -0.59703E+08         0.00000E+00
    0.00000E+00         0.00000E+00        -0.58951E+08
 
   -0.50372E+08         0.73260E+06         0.00000E+00
    0.73260E+06        -0.59583E+08         0.00000E+00
    0.00000E+00         0.00000E+00        -0.58952E+08
 
   -0.51347E+08         0.81965E+06         0.00000E+00
    0.81965E+06        -0.59445E+08         0.00000E+00
    0.00000E+00         0.00000E+00        -0.58953E+08
 
   -0.52301E+08         0.91232E+06         0.00000E+00
    0.91232E+06        -0.59287E+08         0.00000E+00
    0.00000E+00         0.00000E+00        -0.58954E+08
 
   -0.53235E+08         0.10141E+07         0.00000E+00
    0.10141E+07        -0.59106E+08         0.00000E+00
    0.00000E+00         0.00000E+00        -0.58954E+08
 
   -0.54150E+08         0.11267E+07         0.00000E+00
    0.11267E+07        -0.58898E+08         0.00000E+00
    0.00000E+00         0.00000E+00        -0.58955E+08
 
   -0.55049E+08         0.12503E+07         0.00000E+00
    0.12503E+07        -0.58659E+08         0.00000E+00
    0.00000E+00         0.00000E+00        -0.58956E+08
 
   -0.55936E+08         0.13837E+07         0.00000E+00
    0.13837E+07        -0.58388E+08         0.00000E+00
    0.00000E+00         0.00000E+00        -0.58957E+08
 
   -0.56811E+08         0.15246E+07         0.00000E+00
    0.15246E+07        -0.58080E+08         0.00000E+00
    0.00000E+00         0.00000E+00        -0.58957E+08
 
   -0.57676E+08         0.16699E+07         0.00000E+00
    0.16699E+07        -0.57734E+08         0.00000E+00
    0.00000E+00         0.00000E+00        -0.58958E+08
 
   -0.58532E+08         0.18159E+07         0.00000E+00
    0.18159E+07        -0.57349E+08         0.00000E+00
    0.00000E+00         0.00000E+00        -0.58958E+08
 
   -0.45075E+08         0.13208E+06         0.00000E+00
    0.13208E+06        -0.59994E+08         0.00000E+00
    0.00000E+00         0.00000E+00        -0.58784E+08
 
   -0.46140E+08         0.34539E+06         0.00000E+00
    0.34539E+06        -0.59965E+08         0.00000E+00
    0.00000E+00         0.00000E+00        -0.58784E+08
 
   -0.47203E+08         0.50753E+06         0.00000E+00
    0.50753E+06        -0.59915E+08         0.00000E+00
    0.00000E+00         0.00000E+00        -0.58785E+08
 
   -0.48252E+08         0.63616E+06         0.00000E+00
    0.63616E+06        -0.59848E+08         0.00000E+00
    0.00000E+00         0.00000E+00        -0.58786E+08
 
   -0.49278E+08         0.74607E+06         0.00000E+00
    0.74607E+06        -0.59767E+08         0.00000E+00
    0.00000E+00         0.00000E+00        -0.58787E+08
 
   -0.50277E+08         0.84921E+06         0.00000E+00
    0.84921E+06        -0.59671E+08         0.00000E+00
    0.00000E+00         0.00000E+00        -0.58788E+08
 
   -0.51248E+08         0.95476E+06         0.00000E+00
    0.95476E+06        -0.59559E+08         0.00000E+00
    0.00000E+00         0.00000E+00        -0.58789E+08
 
   -0.52192E+08         0.10692E+07         0.00000E+00
    0.10692E+07        -0.59426E+08         0.00000E+00
    0.00000E+00         0.00000E+00        -0.58790E+08
 
   -0.53114E+08         0.11967E+07         0.00000E+00
    0.11967E+07        -0.59269E+08         0.00000E+00
    0.00000E+00         0.00000E+00        -0.58791E+08
 
   -0.54016E+08         0.13391E+07         0.00000E+00
    0.13391E+07        -0.59084E+08         0.00000E+00
    0.00000E+00         0.00000E+00        -0.58792E+08
 
   -0.54903E+08         0.14963E+07         0.00000E+00
    0.14963E+07        -0.58864E+08         0.00000E+00
    0.00000E+00         0.00000E+00        -0.58792E+08
 
   -0.55779E+08         0.16666E+07         0.00000E+00
    0.16666E+07        -0.58608E+08         0.00000E+00
    0.00000E+00         0.00000E+00        -0.58793E+08
 
   -0.56647E+08         0.18468E+07         0.00000E+00
    0.18468E+07        -0.58311E+08         0.00000E+00
    0.00000E+00         0.00000E+00        -0.58794E+08
 
   -0.57510E+08         0.20329E+07         0.00000E+00
    0.20329E+07        -0.57972E+08         0.00000E+00
    0.00000E+00         0.00000E+00        -0.58794E+08
 
   -0.58367E+08         0.22200E+07         0.00000E+00
    0.22200E+07        -0.57590E+08         0.00000E+00
    0.00000E+00         0.00000E+00        -0.58794E+08
 
   -0.44816E+08         0.14607E+06         0.00000E+00
    0.14607E+06        -0.59996E+08         0.00000E+00
    0.00000E+00         0.00000E+00        -0.58577E+08
 
   -0.45946E+08         0.38029E+06         0.00000E+00
    0.38029E+06        -0.59977E+08         0.00000E+00
    0.00000E+00         0.00000E+00        -0.58577E+08
 
   -0.47053E+08         0.55726E+06         0.00000E+00
    0.55726E+06        -0.59943E+08         0.00000E+00
    0.00000E+00         0.00000E+00        -0.58578E+08
 
   -0.48128E+08         0.69807E+06         0.00000E+00
    0.69807E+06        -0.59899E+08         0.00000E+00
    0.00000E+00         0.00000E+00        -0.58579E+08
 
   -0.49166E+08         0.82024E+06         0.00000E+00
    0.82024E+06        -0.59845E+08         0.00000E+00
    0.00000E+00         0.00000E+00        -0.58580E+08
 
   -0.50165E+08         0.93780E+06         0.00000E+00
    0.93780E+06        -0.59779E+08         0.00000E+00
    0.00000E+00         0.00000E+00        -0.58581E+08
 
   -0.51128E+08         0.10614E+07         0.00000E+00
    0.10614E+07        -0.59698E+08         0.00000E+00
    0.00000E+00         0.00000E+00        -0.58582E+08
 
   -0.52059E+08         0.11985E+07         0.00000E+00
    0.11985E+07        -0.59596E+08         0.00000E+00
    0.00000E+00         0.00000E+00        -0.58583E+08
 
   -0.52964E+08         0.13536E+07         0.00000E+00
    0.13536E+07        -0.59468E+08         0.00000E+00
    0.00000E+00         0.00000E+00        -0.58584E+08
 
   -0.53849E+08         0.15287E+07         0.00000E+00
    0.15287E+07        -0.59308E+08         0.00000E+00
    0.00000E+00         0.00000E+00        -0.58585E+08
 
   -0.54719E+08         0.17232E+07         0.00000E+00
    0.17232E+07        -0.59112E+08         0.00000E+00
    0.00000E+00         0.00000E+00        -0.58586E+08
 
   -0.55582E+08         0.19347E+07         0.00000E+00
    0.19347E+07        -0.58874E+08         0.00000E+00
    0.00000E+00         0.00000E+00        -0.58587E+08
 
   -0.56441E+08         0.21592E+07         0.00000E+00
    0.21592E+07        -0.58591E+08         0.00000E+00
    0.00000E+00         0.00000E+00        -0.58587E+08
 
   -0.57299E+08         0.23913E+07         0.00000E+00
    0.23913E+07        -0.58260E+08         0.00000E+00
    0.00000E+00         0.00000E+00        -0.58588E+08
 
   -0.58158E+08         0.26248E+07         0.00000E+00
    0.26248E+07        -0.57879E+08         0.00000E+00
    0.00000E+00         0.00000E+00        -0.58588E+08
 
   -0.44536E+08         0.15482E+06         0.00000E+00
    0.15482E+06        -0.59999E+08         0.00000E+00
    0.00000E+00         0.00000E+00        -0.58322E+08
 
   -0.45738E+08         0.40070E+06         0.00000E+00
    0.40070E+06        -0.59990E+08         0.00000E+00
    0.00000E+00         0.00000E+00        -0.58322E+08
 
   -0.46893E+08         0.58507E+06         0.00000E+00
    0.58507E+06        -0.59977E+08         0.00000E+00
    0.00000E+00         0.00000E+00        -0.58323E+08
 
   -0.47995E+08         0.73246E+06         0.00000E+00
    0.73246E+06        -0.59959E+08         0.00000E+00
    0.00000E+00         0.00000E+00        -0.58324E+08
 
   -0.49043E+08         0.86312E+06         0.00000E+00
    0.86312E+06        -0.59937E+08         0.00000E+00
    0.00000E+00         0.00000E+00        -0.58325E+08
 
   -0.50038E+08         0.99305E+06         0.00000E+00
    0.99305E+06        -0.59906E+08         0.00000E+00
    0.00000E+00         0.00000E+00        -0.58326E+08
 
   -0.50988E+08         0.11343E+07         0.00000E+00
    0.11343E+07        -0.59861E+08         0.00000E+00
    0.00000E+00         0.00000E+00        -0.58328E+08
 
   -0.51900E+08         0.12950E+07         0.00000E+00
    0.12950E+07        -0.59795E+08         0.00000E+00
    0.00000E+00         0.00000E+00        -0.58329E+08
 
   -0.52782E+08         0.14801E+07         0.00000E+00
    0.14801E+07        -0.59701E+08         0.00000E+00
    0.00000E+00         0.00000E+00        -0.58330E+08
 
   -0.53644E+08         0.16912E+07         0.00000E+00
    0.16912E+07        -0.59572E+08         0.00000E+00
    0.00000E+00         0.00000E+00        -0.58330E+08
 
   -0.54494E+08         0.19275E+07         0.00000E+00
    0.19275E+07        -0.59403E+08         0.00000E+00
    0.00000E+00         0.00000E+00        -0.58331E+08
 
   -0.55339E+08         0.21855E+07         0.00000E+00
    0.21855E+07        -0.59186E+08         0.00000E+00
    0.00000E+00         0.00000E+00        -0.58332E+08
 
   -0.56186E+08         0.24601E+07         0.00000E+00
    0.24601E+07        -0.58919E+08         0.00000E+00
    0.00000E+00         0.00000E+00        -0.58332E+08
 
   -0.57039E+08         0.27444E+07         0.00000E+00
    0.27444E+07        -0.58596E+08         0.00000E+00
    0.00000E+00         0.00000E+00        -0.58333E+08
 
   -0.57900E+08         0.30306E+07         0.00000E+00
    0.30306E+07        -0.58218E+08         0.00000E+00
    0.00000E+00         0.00000E+00        -0.58333E+08
 
   -0.44247E+08         0.15735E+06         0.00000E+00
    0.15735E+06        -0.60003E+08         0.00000E+00
    0.00000E+00         0.00000E+00        -0.58012E+08
 
   -0.45527E+08         0.40407E+06         0.00000E+00
    0.40407E+06        -0.60007E+08         0.00000E+00
    0.00000E+00         0.00000E+00        -0.58013E+08
 
   -0.46731E+08         0.58719E+06         0.00000E+00
    0.58719E+06        -0.60016E+08         0.00000E+00
    0.00000E+00         0.00000E+00        -0.58013E+08
 
   -0.47857E+08         0.73477E+06         0.00000E+00
    0.73477E+06        -0.60030E+08         0.00000E+00
    0.00000E+00         0.00000E+00        -0.58014E+08
 
   -0.48911E+08         0.86964E+06         0.00000E+00
    0.86964E+06        -0.60044E+08         0.00000E+00
    0.00000E+00         0.00000E+00        -0.58016E+08
 
   -0.49897E+08         0.10097E+07         0.00000E+00
    0.10097E+07        -0.60053E+08         0.00000E+00
    0.00000E+00         0.00000E+00        -0.58017E+08
 
   -0.50828E+08         0.11681E+07         0.00000E+00
    0.11681E+07        -0.60049E+08         0.00000E+00
    0.00000E+00         0.00000E+00        -0.58018E+08
 
   -0.51713E+08         0.13537E+07         0.00000E+00
    0.13537E+07        -0.60024E+08         0.00000E+00
    0.00000E+00         0.00000E+00        -0.58019E+08
 
   -0.52566E+08         0.15715E+07         0.00000E+00
    0.15715E+07        -0.59969E+08         0.00000E+00
    0.00000E+00         0.00000E+00        -0.58020E+08
 
   -0.53398E+08         0.18228E+07         0.00000E+00
    0.18228E+07        -0.59876E+08         0.00000E+00
    0.00000E+00         0.00000E+00        -0.58020E+08
 
   -0.54221E+08         0.21059E+07         0.00000E+00
    0.21059E+07        -0.59736E+08         0.00000E+00
    0.00000E+00         0.00000E+00        -0.58021E+08
 
   -0.55045E+08         0.24164E+07         0.00000E+00
    0.24164E+07        -0.59544E+08         0.00000E+00
    0.00000E+00         0.00000E+00        -0.58021E+08
 
   -0.55877E+08         0.27478E+07         0.00000E+00
    0.27478E+07        -0.59294E+08         0.00000E+00
    0.00000E+00         0.00000E+00        -0.58022E+08
 
   -0.56723E+08         0.30916E+07         0.00000E+00
    0.30916E+07        -0.58981E+08         0.00000E+00
    0.00000E+00         0.00000E+00        -0.58022E+08
 
   -0.57586E+08         0.34380E+07         0.00000E+00
    0.34380E+07        -0.58605E+08         0.00000E+00
    0.00000E+00         0.00000E+00        -0.58022E+08
 
   -0.43962E+08         0.15266E+06         0.00000E+00
    0.15266E+06        -0.60007E+08         0.00000E+00
    0.00000E+00         0.00000E+00        -0.57639E+08
 
   -0.45322E+08         0.38773E+06         0.00000E+00
    0.38773E+06        -0.60025E+08         0.00000E+00
    0.00000E+00         0.00000E+00        -0.57640E+08
 
   -0.46573E+08         0.55981E+06         0.00000E+00
    0.55981E+06        -0.60061E+08         0.00000E+00
    0.00000E+00         0.00000E+00        -0.57641E+08
 
   -0.47721E+08         0.70038E+06         0.00000E+00
    0.70038E+06        -0.60110E+08         0.00000E+00
    0.00000E+00         0.00000E+00        -0.57642E+08
 
   -0.48773E+08         0.83478E+06         0.00000E+00
    0.83478E+06        -0.60166E+08         0.00000E+00
    0.00000E+00         0.00000E+00        -0.57643E+08
 
   -0.49743E+08         0.98257E+06         0.00000E+00
    0.98257E+06        -0.60220E+08         0.00000E+00
    0.00000E+00         0.00000E+00        -0.57644E+08
 
   -0.50646E+08         0.11579E+07         0.00000E+00
    0.11579E+07        -0.60262E+08         0.00000E+00
    0.00000E+00         0.00000E+00        -0.57645E+08
 
   -0.51496E+08         0.13699E+07         0.00000E+00
    0.13699E+07        -0.60283E+08         0.00000E+00
    0.00000E+00         0.00000E+00        -0.57646E+08
 
   -0.52311E+08         0.16234E+07         0.00000E+00
    0.16234E+07        -0.60271E+08         0.00000E+00
    0.00000E+00         0.00000E+00        -0.57646E+08
 
   -0.53106E+08         0.19194E+07         0.00000E+00
    0.19194E+07        -0.60217E+08         0.00000E+00
    0.00000E+00         0.00000E+00        -0.57647E+08
 
   -0.53896E+08         0.22551E+07         0.00000E+00
    0.22551E+07        -0.60111E+08         0.00000E+00
    0.00000E+00         0.00000E+00        -0.57647E+08
 
   -0.54692E+08         0.26250E+07         0.00000E+00
    0.26250E+07        -0.59946E+08         0.00000E+00
    0.00000E+00         0.00000E+00        -0.57648E+08
 
   -0.55505E+08         0.30209E+07         0.00000E+00
    0.30209E+07        -0.59715E+08         0.00000E+00
    0.00000E+00         0.00000E+00        -0.57648E+08
 
   -0.56342E+08         0.34324E+07         0.00000E+00
    0.34324E+07        -0.59414E+08         0.00000E+00
    0.00000E+00         0.00000E+00        -0.57648E+08
 
   -0.57208E+08         0.38477E+07         0.00000E+00
    0.38477E+07        -0.59040E+08         0.00000E+00
    0.00000E+00         0.00000E+00        -0.57648E+08
 
   -0.43695E+08         0.13970E+06         0.00000E+00
    0.13970E+06        -0.60012E+08         0.00000E+00
    0.00000E+00         0.00000E+00        -0.57195E+08
 
   -0.45135E+08         0.34899E+06         0.00000E+00
    0.34899E+06        -0.60046E+08         0.00000E+00
    0.00000E+00         0.00000E+00        -0.57196E+08
 
   -0.46430E+08         0.49909E+06         0.00000E+00
    0.49909E+06        -0.60111E+08         0.00000E+00
    0.00000E+00         0.00000E+00        -0.57197E+08
 
   -0.47591E+08         0.62478E+06         0.00000E+00
    0.62478E+06        -0.60200E+08         0.00000E+00
    0.00000E+00         0.00000E+00        -0.57198E+08
 
   -0.48634E+08         0.75368E+06         0.00000E+00
    0.75368E+06        -0.60301E+08         0.00000E+00
    0.00000E+00         0.00000E+00        -0.57199E+08
 
   -0.49578E+08         0.90672E+06         0.00000E+00
    0.90672E+06        -0.60405E+08         0.00000E+00
    0.00000E+00         0.00000E+00        -0.57200E+08
 
   -0.50442E+08         0.10987E+07         0.00000E+00
    0.10987E+07        -0.60499E+08         0.00000E+00
    0.00000E+00         0.00000E+00        -0.57200E+08
 
   -0.51247E+08         0.13389E+07         0.00000E+00
    0.13389E+07        -0.60570E+08         0.00000E+00
    0.00000E+00         0.00000E+00        -0.57201E+08
 
   -0.52014E+08         0.16318E+07         0.00000E+00
    0.16318E+07        -0.60605E+08         0.00000E+00
    0.00000E+00         0.00000E+00        -0.57201E+08
 
   -0.52763E+08         0.19774E+07         0.00000E+00
    0.19774E+07        -0.60594E+08         0.00000E+00
    0.00000E+00         0.00000E+00        -0.57201E+08
 
   -0.53510E+08         0.23721E+07         0.00000E+00
    0.23721E+07        -0.60525E+08         0.00000E+00
    0.00000E+00         0.00000E+00        -0.57201E+08
 
   -0.54272E+08         0.28089E+07         0.00000E+00
    0.28089E+07        -0.60390E+08         0.00000E+00
    0.00000E+00         0.00000E+00        -0.57201E+08
 
   -0.55062E+08         0.32777E+07         0.00000E+00
    0.32777E+07        -0.60180E+08         0.00000E+00
    0.00000E+00         0.00000E+00        -0.57201E+08
 
   -0.55888E+08         0.37663E+07         0.00000E+00
    0.37663E+07        -0.59891E+08         0.00000E+00
    0.00000E+00         0.00000E+00        -0.57202E+08
 
   -0.56757E+08         0.42602E+07         0.00000E+00
    0.42602E+07        -0.59519E+08         0.00000E+00
    0.00000E+00         0.00000E+00        -0.57202E+08
 
   -0.43462E+08         0.11742E+06         0.00000E+00
    0.11742E+06        -0.60018E+08         0.00000E+00
    0.00000E+00         0.00000E+00        -0.56670E+08
 
   -0.44979E+08         0.28518E+06         0.00000E+00
    0.28518E+06        -0.60070E+08         0.00000E+00
    0.00000E+00         0.00000E+00        -0.56670E+08
 
   -0.46310E+08         0.40131E+06         0.00000E+00
    0.40131E+06        -0.60167E+08         0.00000E+00
    0.00000E+00         0.00000E+00        -0.56671E+08
 
   -0.47476E+08         0.50367E+06         0.00000E+00
    0.50367E+06        -0.60299E+08         0.00000E+00
    0.00000E+00         0.00000E+00        -0.56672E+08
 
   -0.48498E+08         0.62181E+06         0.00000E+00
    0.62181E+06        -0.60451E+08         0.00000E+00
    0.00000E+00         0.00000E+00        -0.56673E+08
 
   -0.49402E+08         0.77766E+06         0.00000E+00
    0.77766E+06        -0.60609E+08         0.00000E+00
    0.00000E+00         0.00000E+00        -0.56673E+08
 
   -0.50215E+08         0.98630E+06         0.00000E+00
    0.98630E+06        -0.60758E+08         0.00000E+00
    0.00000E+00         0.00000E+00        -0.56673E+08
 
   -0.50962E+08         0.12568E+07         0.00000E+00
    0.12568E+07        -0.60882E+08         0.00000E+00
    0.00000E+00         0.00000E+00        -0.56673E+08
 
   -0.51670E+08         0.15929E+07         0.00000E+00
    0.15929E+07        -0.60969E+08         0.00000E+00
    0.00000E+00         0.00000E+00        -0.56673E+08
 
   -0.52362E+08         0.19937E+07         0.00000E+00
    0.19937E+07        -0.61003E+08         0.00000E+00
    0.00000E+00         0.00000E+00        -0.56672E+08
 
   -0.53058E+08         0.24542E+07         0.00000E+00
    0.24542E+07        -0.60975E+08         0.00000E+00
    0.00000E+00         0.00000E+00        -0.56672E+08
 
   -0.53779E+08         0.29659E+07         0.00000E+00
    0.29659E+07        -0.60871E+08         0.00000E+00
    0.00000E+00         0.00000E+00        -0.56672E+08
 
   -0.54539E+08         0.35170E+07         0.00000E+00
    0.35170E+07        -0.60685E+08         0.00000E+00
    0.00000E+00         0.00000E+00        -0.56672E+08
 
   -0.55351E+08         0.40928E+07         0.00000E+00
    0.40928E+07        -0.60409E+08         0.00000E+00
    0.00000E+00         0.00000E+00        -0.56671E+08
 
   -0.56221E+08         0.46763E+07         0.00000E+00
    0.46763E+07        -0.60038E+08         0.00000E+00
    0.00000E+00         0.00000E+00        -0.56671E+08
 
   -0.43283E+08         0.84747E+05         0.00000E+00
    0.84747E+05        -0.60024E+08         0.00000E+00
    0.00000E+00         0.00000E+00        -0.56051E+08
 
   -0.44869E+08         0.19369E+06         0.00000E+00
    0.19369E+06        -0.60096E+08         0.00000E+00
    0.00000E+00         0.00000E+00        -0.56052E+08
 
   -0.46225E+08         0.26297E+06         0.00000E+00
    0.26297E+06        -0.60229E+08         0.00000E+00
    0.00000E+00         0.00000E+00        -0.56052E+08
 
   -0.47381E+08         0.33314E+06         0.00000E+00
    0.33314E+06        -0.60407E+08         0.00000E+00
    0.00000E+00         0.00000E+00        -0.56053E+08
 
   -0.48367E+08         0.43520E+06         0.00000E+00
    0.43520E+06        -0.60613E+08         0.00000E+00
    0.00000E+00         0.00000E+00        -0.56053E+08
 
   -0.49217E+08         0.59157E+06         0.00000E+00
    0.59157E+06        -0.60828E+08         0.00000E+00
    0.00000E+00         0.00000E+00        -0.56053E+08
 
   -0.49964E+08         0.81714E+06         0.00000E+00
    0.81714E+06        -0.61036E+08         0.00000E+00
    0.00000E+00         0.00000E+00        -0.56052E+08
 
   -0.50639E+08         0.11203E+07         0.00000E+00
    0.11203E+07        -0.61217E+08         0.00000E+00
    0.00000E+00         0.00000E+00        -0.56051E+08
 
   -0.51274E+08         0.15037E+07         0.00000E+00
    0.15037E+07        -0.61357E+08         0.00000E+00
    0.00000E+00         0.00000E+00        -0.56050E+08
 
   -0.51896E+08         0.19654E+07         0.00000E+00
    0.19654E+07        -0.61440E+08         0.00000E+00
    0.00000E+00         0.00000E+00        -0.56049E+08
 
   -0.52532E+08         0.24990E+07         0.00000E+00
    0.24990E+07        -0.61453E+08         0.00000E+00
    0.00000E+00         0.00000E+00        -0.56048E+08
 
   -0.53202E+08         0.30942E+07         0.00000E+00
    0.30942E+07        -0.61384E+08         0.00000E+00
    0.00000E+00         0.00000E+00        -0.56047E+08
 
   -0.53926E+08         0.37373E+07         0.00000E+00
    0.37373E+07        -0.61222E+08         0.00000E+00
    0.00000E+00         0.00000E+00        -0.56046E+08
 
   -0.54719E+08         0.44113E+07         0.00000E+00
    0.44113E+07        -0.60960E+08         0.00000E+00
    0.00000E+00         0.00000E+00        -0.56046E+08
 
   -0.55590E+08         0.50965E+07         0.00000E+00
    0.50965E+07        -0.60591E+08         0.00000E+00
    0.00000E+00         0.00000E+00        -0.56046E+08
 
   -0.43179E+08         0.40683E+05         0.00000E+00
    0.40683E+05        -0.60030E+08         0.00000E+00
    0.00000E+00         0.00000E+00        -0.55327E+08
 
   -0.44820E+08         0.72115E+05         0.00000E+00
    0.72115E+05        -0.60124E+08         0.00000E+00
    0.00000E+00         0.00000E+00        -0.55327E+08
 
   -0.46185E+08         0.80961E+05         0.00000E+00
    0.80961E+05        -0.60295E+08         0.00000E+00
    0.00000E+00         0.00000E+00        -0.55328E+08
 
   -0.47314E+08         0.10989E+06         0.00000E+00
    0.10989E+06        -0.60523E+08         0.00000E+00
    0.00000E+00         0.00000E+00        -0.55327E+08
 
   -0.48246E+08         0.19070E+06         0.00000E+00
    0.19070E+06        -0.60785E+08         0.00000E+00
    0.00000E+00         0.00000E+00        -0.55327E+08
 
   -0.49023E+08         0.34563E+06         0.00000E+00
    0.34563E+06        -0.61060E+08         0.00000E+00
    0.00000E+00         0.00000E+00        -0.55325E+08
 
   -0.49687E+08         0.58874E+06         0.00000E+00
    0.58874E+06        -0.61328E+08         0.00000E+00
    0.00000E+00         0.00000E+00        -0.55324E+08
 
   -0.50274E+08         0.92720E+06         0.00000E+00
    0.92720E+06        -0.61568E+08         0.00000E+00
    0.00000E+00         0.00000E+00        -0.55322E+08
 
   -0.50821E+08         0.13624E+07         0.00000E+00
    0.13624E+07        -0.61763E+08         0.00000E+00
    0.00000E+00         0.00000E+00        -0.55319E+08
 
   -0.51361E+08         0.18909E+07         0.00000E+00
    0.18909E+07        -0.61896E+08         0.00000E+00
    0.00000E+00         0.00000E+00        -0.55317E+08
 
   -0.51922E+08         0.25047E+07         0.00000E+00
    0.25047E+07        -0.61952E+08         0.00000E+00
    0.00000E+00         0.00000E+00        -0.55315E+08
 
   -0.52532E+08         0.31920E+07         0.00000E+00
    0.31920E+07        -0.61918E+08         0.00000E+00
    0.00000E+00         0.00000E+00        -0.55313E+08
 
   -0.53212E+08         0.39373E+07         0.00000E+00
    0.39373E+07        -0.61783E+08         0.00000E+00
    0.00000E+00         0.00000E+00        -0.55312E+08
 
   -0.53980E+08         0.47213E+07         0.00000E+00
    0.47213E+07        -0.61535E+08         0.00000E+00
    0.00000E+00         0.00000E+00        -0.55311E+08
 
   -0.54849E+08         0.55211E+07         0.00000E+00
    0.55211E+07        -0.61169E+08         0.00000E+00
    0.00000E+00         0.00000E+00        -0.55311E+08
 
   -0.43170E+08        -0.15716E+05         0.00000E+00
   -0.15716E+05        -0.60037E+08         0.00000E+00
    0.00000E+00         0.00000E+00        -0.54483E+08
 
   -0.44849E+08        -0.81645E+05         0.00000E+00
   -0.81645E+05        -0.60154E+08         0.00000E+00
    0.00000E+00         0.00000E+00        -0.54483E+08
 
   -0.46202E+08        -0.14721E+06         0.00000E+00
   -0.14721E+06        -0.60365E+08         0.00000E+00
    0.00000E+00         0.00000E+00        -0.54483E+08
 
   -0.47281E+08        -0.16843E+06         0.00000E+00
   -0.16843E+06        -0.60644E+08         0.00000E+00
    0.00000E+00         0.00000E+00        -0.54482E+08
 
   -0.48137E+08        -0.11361E+06         0.00000E+00
   -0.11361E+06        -0.60965E+08         0.00000E+00
    0.00000E+00         0.00000E+00        -0.54480E+08
 
   -0.48821E+08         0.38421E+05         0.00000E+00
    0.38421E+05        -0.61301E+08         0.00000E+00
    0.00000E+00         0.00000E+00        -0.54477E+08
 
   -0.49382E+08         0.30012E+06         0.00000E+00
    0.30012E+06        -0.61629E+08         0.00000E+00
    0.00000E+00         0.00000E+00        -0.54474E+08
 
   -0.49863E+08         0.67684E+06         0.00000E+00
    0.67684E+06        -0.61928E+08         0.00000E+00
    0.00000E+00         0.00000E+00        -0.54470E+08
 
   -0.50306E+08         0.11682E+07         0.00000E+00
    0.11682E+07        -0.62177E+08         0.00000E+00
    0.00000E+00         0.00000E+00        -0.54466E+08
 
   -0.50749E+08         0.17691E+07         0.00000E+00
    0.17691E+07        -0.62360E+08         0.00000E+00
    0.00000E+00         0.00000E+00        -0.54462E+08
 
   -0.51223E+08         0.24702E+07         0.00000E+00
    0.24702E+07        -0.62460E+08         0.00000E+00
    0.00000E+00         0.00000E+00        -0.54459E+08
 
   -0.51760E+08         0.32581E+07         0.00000E+00
    0.32581E+07        -0.62462E+08         0.00000E+00
    0.00000E+00         0.00000E+00        -0.54456E+08
 
   -0.52386E+08         0.41158E+07         0.00000E+00
    0.41158E+07        -0.62354E+08         0.00000E+00
    0.00000E+00         0.00000E+00        -0.54454E+08
 
   -0.53122E+08         0.50216E+07         0.00000E+00
    0.50216E+07        -0.62123E+08         0.00000E+00
    0.00000E+00         0.00000E+00        -0.54452E+08
 
   -0.53986E+08         0.59499E+07         0.00000E+00
    0.59499E+07        -0.61760E+08         0.00000E+00
    0.00000E+00         0.00000E+00        -0.54452E+08
 
   -0.43281E+08        -0.85263E+05         0.00000E+00
   -0.85263E+05        -0.60045E+08         0.00000E+00
    0.00000E+00         0.00000E+00        -0.53504E+08
 
   -0.44973E+08        -0.26924E+06         0.00000E+00
   -0.26924E+06        -0.60185E+08         0.00000E+00
    0.00000E+00         0.00000E+00        -0.53504E+08
 
   -0.46287E+08        -0.42319E+06         0.00000E+00
   -0.42319E+06        -0.60438E+08         0.00000E+00
    0.00000E+00         0.00000E+00        -0.53502E+08
 
   -0.47290E+08        -0.50291E+06         0.00000E+00
   -0.50291E+06        -0.60769E+08         0.00000E+00
    0.00000E+00         0.00000E+00        -0.53500E+08
 
   -0.48044E+08        -0.47802E+06         0.00000E+00
   -0.47802E+06        -0.61147E+08         0.00000E+00
    0.00000E+00         0.00000E+00        -0.53496E+08
 
   -0.48611E+08        -0.32955E+06         0.00000E+00
   -0.32955E+06        -0.61543E+08         0.00000E+00
    0.00000E+00         0.00000E+00        -0.53492E+08
 
   -0.49048E+08        -0.47668E+05         0.00000E+00
   -0.47668E+05        -0.61930E+08         0.00000E+00
    0.00000E+00         0.00000E+00        -0.53486E+08
 
   -0.49403E+08         0.37044E+06         0.00000E+00
    0.37044E+06        -0.62284E+08         0.00000E+00
    0.00000E+00         0.00000E+00        -0.53480E+08
 
   -0.49725E+08         0.92219E+06         0.00000E+00
    0.92219E+06        -0.62587E+08         0.00000E+00
    0.00000E+00         0.00000E+00        -0.53474E+08
 
   -0.50053E+08         0.16007E+07         0.00000E+00
    0.16007E+07        -0.62818E+08         0.00000E+00
    0.00000E+00         0.00000E+00        -0.53468E+08
 
   -0.50426E+08         0.23953E+07         0.00000E+00
    0.23953E+07        -0.62960E+08         0.00000E+00
    0.00000E+00         0.00000E+00        -0.53463E+08
 
   -0.50877E+08         0.32916E+07         0.00000E+00
    0.32916E+07        -0.62999E+08         0.00000E+00
    0.00000E+00         0.00000E+00        -0.53459E+08
 
   -0.51437E+08         0.42711E+07         0.00000E+00
    0.42711E+07        -0.62919E+08         0.00000E+00
    0.00000E+00         0.00000E+00        -0.53455E+08
 
   -0.52132E+08         0.53107E+07         0.00000E+00
    0.53107E+07        -0.62707E+08         0.00000E+00
    0.00000E+00         0.00000E+00        -0.53453E+08
 
   -0.52984E+08         0.63820E+07         0.00000E+00
    0.63820E+07        -0.62349E+08         0.00000E+00
    0.00000E+00         0.00000E+00        -0.53452E+08
 
   -0.43538E+08        -0.16860E+06         0.00000E+00
   -0.16860E+06        -0.60052E+08         0.00000E+00
    0.00000E+00         0.00000E+00        -0.52373E+08
 
   -0.45209E+08        -0.49168E+06         0.00000E+00
   -0.49168E+06        -0.60217E+08         0.00000E+00
    0.00000E+00         0.00000E+00        -0.52372E+08
 
   -0.46450E+08        -0.74744E+06         0.00000E+00
   -0.74744E+06        -0.60512E+08         0.00000E+00
    0.00000E+00         0.00000E+00        -0.52370E+08
 
   -0.47344E+08        -0.89292E+06         0.00000E+00
   -0.89292E+06        -0.60894E+08         0.00000E+00
    0.00000E+00         0.00000E+00        -0.52365E+08
 
   -0.47968E+08        -0.90059E+06         0.00000E+00
   -0.90059E+06        -0.61328E+08         0.00000E+00
    0.00000E+00         0.00000E+00        -0.52359E+08
 
   -0.48392E+08        -0.75524E+06         0.00000E+00
   -0.75524E+06        -0.61779E+08         0.00000E+00
    0.00000E+00         0.00000E+00        -0.52352E+08
 
   -0.48681E+08        -0.45091E+06         0.00000E+00
   -0.45091E+06        -0.62219E+08         0.00000E+00
    0.00000E+00         0.00000E+00        -0.52344E+08
 
   -0.48891E+08         0.11794E+05         0.00000E+00
    0.11794E+05        -0.62625E+08         0.00000E+00
    0.00000E+00         0.00000E+00        -0.52335E+08
 
   -0.49072E+08         0.62760E+06         0.00000E+00
    0.62760E+06        -0.62974E+08         0.00000E+00
    0.00000E+00         0.00000E+00        -0.52326E+08
 
   -0.49270E+08         0.13878E+07         0.00000E+00
    0.13878E+07        -0.63250E+08         0.00000E+00
    0.00000E+00         0.00000E+00        -0.52318E+08
 
   -0.49525E+08         0.22809E+07         0.00000E+00
    0.22809E+07        -0.63433E+08         0.00000E+00
    0.00000E+00         0.00000E+00        -0.52310E+08
 
   -0.49875E+08         0.32918E+07         0.00000E+00
    0.32918E+07        -0.63508E+08         0.00000E+00
    0.00000E+00         0.00000E+00        -0.52304E+08
 
   -0.50355E+08         0.44016E+07         0.00000E+00
    0.44016E+07        -0.63458E+08         0.00000E+00
    0.00000E+00         0.00000E+00        -0.52299E+08
 
   -0.50997E+08         0.55862E+07         0.00000E+00
    0.55862E+07        -0.63265E+08         0.00000E+00
    0.00000E+00         0.00000E+00        -0.52296E+08
 
   -0.51828E+08         0.68153E+07         0.00000E+00
    0.68153E+07        -0.62915E+08         0.00000E+00
    0.00000E+00         0.00000E+00        -0.52294E+08
 
   -0.43964E+08        -0.26612E+06         0.00000E+00
   -0.26612E+06        -0.60060E+08         0.00000E+00
    0.00000E+00         0.00000E+00        -0.51073E+08
 
   -0.45573E+08        -0.74916E+06         0.00000E+00
   -0.74916E+06        -0.60250E+08         0.00000E+00
    0.00000E+00         0.00000E+00        -0.51071E+08
 
   -0.46701E+08        -0.11189E+07         0.00000E+00
   -0.11189E+07        -0.60584E+08         0.00000E+00
    0.00000E+00         0.00000E+00        -0.51066E+08
 
   -0.47449E+08        -0.13355E+07         0.00000E+00
   -0.13355E+07        -0.61015E+08         0.00000E+00
    0.00000E+00         0.00000E+00        -0.51060E+08
 
   -0.47909E+08        -0.13765E+07         0.00000E+00
   -0.13765E+07        -0.61498E+08         0.00000E+00
    0.00000E+00         0.00000E+00        -0.51051E+08
 
   -0.48161E+08        -0.12323E+07         0.00000E+00
   -0.12323E+07        -0.61998E+08         0.00000E+00
    0.00000E+00         0.00000E+00        -0.51040E+08
 
   -0.48278E+08        -0.90248E+06         0.00000E+00
   -0.90248E+06        -0.62483E+08         0.00000E+00
    0.00000E+00         0.00000E+00        -0.51028E+08
 
   -0.48322E+08        -0.39207E+06         0.00000E+00
   -0.39207E+06        -0.62930E+08         0.00000E+00
    0.00000E+00         0.00000E+00        -0.51016E+08
 
   -0.48345E+08         0.29052E+06         0.00000E+00
    0.29052E+06        -0.63319E+08         0.00000E+00
    0.00000E+00         0.00000E+00        -0.51003E+08
 
   -0.48395E+08         0.11349E+07         0.00000E+00
    0.11349E+07        -0.63632E+08         0.00000E+00
    0.00000E+00         0.00000E+00        -0.50992E+08
 
   -0.48516E+08         0.21291E+07         0.00000E+00
    0.21291E+07        -0.63852E+08         0.00000E+00
    0.00000E+00         0.00000E+00        -0.50981E+08
 
   -0.48749E+08         0.32585E+07         0.00000E+00
    0.32585E+07        -0.63962E+08         0.00000E+00
    0.00000E+00         0.00000E+00        -0.50973E+08
 
   -0.49132E+08         0.45050E+07         0.00000E+00
    0.45050E+07        -0.63942E+08         0.00000E+00
    0.00000E+00         0.00000E+00        -0.50966E+08
 
   -0.49704E+08         0.58446E+07         0.00000E+00
    0.58446E+07        -0.63774E+08         0.00000E+00
    0.00000E+00         0.00000E+00        -0.50961E+08
 
   -0.50500E+08         0.72459E+07         0.00000E+00
    0.72459E+07        -0.63436E+08         0.00000E+00
    0.00000E+00         0.00000E+00        -0.50959E+08
 
   -0.44587E+08        -0.37795E+06         0.00000E+00
   -0.37795E+06        -0.60068E+08         0.00000E+00
    0.00000E+00         0.00000E+00        -0.49584E+08
 
   -0.46081E+08        -0.10408E+07         0.00000E+00
   -0.10408E+07        -0.60282E+08         0.00000E+00
    0.00000E+00         0.00000E+00        -0.49580E+08
 
   -0.47047E+08        -0.15344E+07         0.00000E+00
   -0.15344E+07        -0.60653E+08         0.00000E+00
    0.00000E+00         0.00000E+00        -0.49573E+08
 
   -0.47606E+08        -0.18248E+07         0.00000E+00
   -0.18248E+07        -0.61126E+08         0.00000E+00
    0.00000E+00         0.00000E+00        -0.49563E+08
 
   -0.47864E+08        -0.18972E+07         0.00000E+00
   -0.18972E+07        -0.61650E+08         0.00000E+00
    0.00000E+00         0.00000E+00        -0.49550E+08
 
   -0.47915E+08        -0.17503E+07         0.00000E+00
   -0.17503E+07        -0.62185E+08         0.00000E+00
    0.00000E+00         0.00000E+00        -0.49535E+08
 
   -0.47837E+08        -0.13910E+07         0.00000E+00
   -0.13910E+07        -0.62702E+08         0.00000E+00
    0.00000E+00         0.00000E+00        -0.49519E+08
 
   -0.47694E+08        -0.83010E+06         0.00000E+00
   -0.83010E+06        -0.63178E+08         0.00000E+00
    0.00000E+00         0.00000E+00        -0.49502E+08
 
   -0.47542E+08        -0.79624E+05         0.00000E+00
   -0.79624E+05        -0.63593E+08         0.00000E+00
    0.00000E+00         0.00000E+00        -0.49486E+08
 
   -0.47428E+08         0.84873E+06         0.00000E+00
    0.84873E+06        -0.63934E+08         0.00000E+00
    0.00000E+00         0.00000E+00        -0.49470E+08
 
   -0.47398E+08         0.19434E+07         0.00000E+00
    0.19434E+07        -0.64184E+08         0.00000E+00
    0.00000E+00         0.00000E+00        -0.49457E+08
 
   -0.47493E+08         0.31919E+07         0.00000E+00
    0.31919E+07        -0.64326E+08         0.00000E+00
    0.00000E+00         0.00000E+00        -0.49445E+08
 
   -0.47760E+08         0.45782E+07         0.00000E+00
    0.45782E+07        -0.64339E+08         0.00000E+00
    0.00000E+00         0.00000E+00        -0.49436E+08
 
   -0.48242E+08         0.60804E+07         0.00000E+00
    0.60804E+07        -0.64200E+08         0.00000E+00
    0.00000E+00         0.00000E+00        -0.49430E+08
 
   -0.48984E+08         0.76674E+07         0.00000E+00
    0.76674E+07        -0.63883E+08         0.00000E+00
    0.00000E+00         0.00000E+00        -0.49427E+08
 
   -0.45431E+08        -0.50383E+06         0.00000E+00
   -0.50383E+06        -0.60076E+08         0.00000E+00
    0.00000E+00         0.00000E+00        -0.47885E+08
 
   -0.46747E+08        -0.13642E+07         0.00000E+00
   -0.13642E+07        -0.60311E+08         0.00000E+00
    0.00000E+00         0.00000E+00        -0.47880E+08
 
   -0.47492E+08        -0.19881E+07         0.00000E+00
   -0.19881E+07        -0.60715E+08         0.00000E+00
    0.00000E+00         0.00000E+00        -0.47870E+08
 
   -0.47812E+08        -0.23509E+07         0.00000E+00
   -0.23509E+07        -0.61220E+08         0.00000E+00
    0.00000E+00         0.00000E+00        -0.47856E+08
 
   -0.47830E+08        -0.24492E+07         0.00000E+00
   -0.24492E+07        -0.61770E+08         0.00000E+00
    0.00000E+00         0.00000E+00        -0.47838E+08
 
   -0.47650E+08        -0.22932E+07         0.00000E+00
   -0.22932E+07        -0.62324E+08         0.00000E+00
    0.00000E+00         0.00000E+00        -0.47818E+08
 
   -0.47353E+08        -0.18996E+07         0.00000E+00
   -0.18996E+07        -0.62853E+08         0.00000E+00
    0.00000E+00         0.00000E+00        -0.47796E+08
 
   -0.47007E+08        -0.12864E+07         0.00000E+00
   -0.12864E+07        -0.63338E+08         0.00000E+00
    0.00000E+00         0.00000E+00        -0.47774E+08
 
   -0.46665E+08        -0.46934E+06         0.00000E+00
   -0.46934E+06        -0.63763E+08         0.00000E+00
    0.00000E+00         0.00000E+00        -0.47753E+08
 
   -0.46372E+08         0.53904E+06         0.00000E+00
    0.53904E+06        -0.64118E+08         0.00000E+00
    0.00000E+00         0.00000E+00        -0.47733E+08
 
   -0.46172E+08         0.17291E+07         0.00000E+00
    0.17291E+07        -0.64389E+08         0.00000E+00
    0.00000E+00         0.00000E+00        -0.47715E+08
 
   -0.46111E+08         0.30921E+07         0.00000E+00
    0.30921E+07        -0.64561E+08         0.00000E+00
    0.00000E+00         0.00000E+00        -0.47700E+08
 
   -0.46236E+08         0.46168E+07         0.00000E+00
    0.46168E+07        -0.64609E+08         0.00000E+00
    0.00000E+00         0.00000E+00        -0.47689E+08
 
   -0.46602E+08         0.62856E+07         0.00000E+00
    0.62856E+07        -0.64507E+08         0.00000E+00
    0.00000E+00         0.00000E+00        -0.47681E+08
 
   -0.47264E+08         0.80700E+07         0.00000E+00
    0.80700E+07        -0.64220E+08         0.00000E+00
    0.00000E+00         0.00000E+00        -0.47677E+08
 
   -0.46520E+08        -0.64308E+06         0.00000E+00
   -0.64308E+06        -0.60083E+08         0.00000E+00
    0.00000E+00         0.00000E+00        -0.45957E+08
 
   -0.47579E+08        -0.17155E+07         0.00000E+00
   -0.17155E+07        -0.60338E+08         0.00000E+00
    0.00000E+00         0.00000E+00        -0.45950E+08
 
   -0.48036E+08        -0.24711E+07         0.00000E+00
   -0.24711E+07        -0.60766E+08         0.00000E+00
    0.00000E+00         0.00000E+00        -0.45935E+08
 
   -0.48061E+08        -0.28993E+07         0.00000E+00
   -0.28993E+07        -0.61288E+08         0.00000E+00
    0.00000E+00         0.00000E+00        -0.45916E+08
 
   -0.47798E+08        -0.30132E+07         0.00000E+00
   -0.30132E+07        -0.61844E+08         0.00000E+00
    0.00000E+00         0.00000E+00        -0.45892E+08
 
   -0.47357E+08        -0.28387E+07         0.00000E+00
   -0.28387E+07        -0.62392E+08         0.00000E+00
    0.00000E+00         0.00000E+00        -0.45865E+08
 
   -0.46824E+08        -0.24053E+07         0.00000E+00
   -0.24053E+07        -0.62907E+08         0.00000E+00
    0.00000E+00         0.00000E+00        -0.45838E+08
 
   -0.46262E+08        -0.17394E+07         0.00000E+00
   -0.17394E+07        -0.63374E+08         0.00000E+00
    0.00000E+00         0.00000E+00        -0.45810E+08
 
   -0.45717E+08        -0.86058E+06         0.00000E+00
   -0.86058E+06        -0.63787E+08         0.00000E+00
    0.00000E+00         0.00000E+00        -0.45783E+08
 
   -0.45233E+08         0.21874E+06         0.00000E+00
    0.21874E+06        -0.64138E+08         0.00000E+00
    0.00000E+00         0.00000E+00        -0.45759E+08
 
   -0.44848E+08         0.14928E+07         0.00000E+00
    0.14928E+07        -0.64420E+08         0.00000E+00
    0.00000E+00         0.00000E+00        -0.45736E+08
 
   -0.44607E+08         0.29591E+07         0.00000E+00
    0.29591E+07        -0.64617E+08         0.00000E+00
    0.00000E+00         0.00000E+00        -0.45718E+08
 
   -0.44563E+08         0.46144E+07         0.00000E+00
    0.46144E+07        -0.64705E+08         0.00000E+00
    0.00000E+00         0.00000E+00        -0.45703E+08
 
   -0.44778E+08         0.64488E+07         0.00000E+00
    0.64488E+07        -0.64650E+08         0.00000E+00
    0.00000E+00         0.00000E+00        -0.45693E+08
 
   -0.45323E+08         0.84394E+07         0.00000E+00
    0.84394E+07        -0.64409E+08         0.00000E+00
    0.00000E+00         0.00000E+00        -0.45688E+08
 
   -0.47875E+08        -0.79455E+06         0.00000E+00
   -0.79455E+06        -0.60090E+08         0.00000E+00
    0.00000E+00         0.00000E+00        -0.43776E+08
 
   -0.48582E+08        -0.20884E+07         0.00000E+00
   -0.20884E+07        -0.60359E+08         0.00000E+00
    0.00000E+00         0.00000E+00        -0.43766E+08
 
   -0.48670E+08        -0.29696E+07         0.00000E+00
   -0.29696E+07        -0.60799E+08         0.00000E+00
    0.00000E+00         0.00000E+00        -0.43747E+08
 
   -0.48341E+08        -0.34485E+07         0.00000E+00
   -0.34485E+07        -0.61318E+08         0.00000E+00
    0.00000E+00         0.00000E+00        -0.43721E+08
 
   -0.47755E+08        -0.35618E+07         0.00000E+00
   -0.35618E+07        -0.61851E+08         0.00000E+00
    0.00000E+00         0.00000E+00        -0.43690E+08
 
   -0.47030E+08        -0.33564E+07         0.00000E+00
   -0.33564E+07        -0.62360E+08         0.00000E+00
    0.00000E+00         0.00000E+00        -0.43657E+08
 
   -0.46247E+08        -0.28775E+07         0.00000E+00
   -0.28775E+07        -0.62825E+08         0.00000E+00
    0.00000E+00         0.00000E+00        -0.43622E+08
 
   -0.45461E+08        -0.21611E+07         0.00000E+00
   -0.21611E+07        -0.63243E+08         0.00000E+00
    0.00000E+00         0.00000E+00        -0.43589E+08
 
   -0.44711E+08        -0.12304E+07         0.00000E+00
   -0.12304E+07        -0.63614E+08         0.00000E+00
    0.00000E+00         0.00000E+00        -0.43556E+08
 
   -0.44026E+08        -0.95926E+05         0.00000E+00
   -0.95926E+05        -0.63941E+08         0.00000E+00
    0.00000E+00         0.00000E+00        -0.43526E+08
 
   -0.43441E+08         0.12426E+07         0.00000E+00
    0.12426E+07        -0.64220E+08         0.00000E+00
    0.00000E+00         0.00000E+00        -0.43500E+08
 
   -0.42997E+08         0.27924E+07         0.00000E+00
    0.27924E+07        -0.64439E+08         0.00000E+00
    0.00000E+00         0.00000E+00        -0.43477E+08
 
   -0.42749E+08         0.45620E+07         0.00000E+00
    0.45620E+07        -0.64572E+08         0.00000E+00
    0.00000E+00         0.00000E+00        -0.43459E+08
 
   -0.42770E+08         0.65537E+07         0.00000E+00
    0.65537E+07        -0.64579E+08         0.00000E+00
    0.00000E+00         0.00000E+00        -0.43447E+08
 
   -0.43148E+08         0.87548E+07         0.00000E+00
    0.87548E+07        -0.64406E+08         0.00000E+00
    0.00000E+00         0.00000E+00        -0.43440E+08
 
   -0.49511E+08        -0.95644E+06         0.00000E+00
   -0.95644E+06        -0.60095E+08         0.00000E+00
    0.00000E+00         0.00000E+00        -0.41321E+08
 
   -0.49752E+08        -0.24736E+07         0.00000E+00
   -0.24736E+07        -0.60372E+08         0.00000E+00
    0.00000E+00         0.00000E+00        -0.41307E+08
 
   -0.49379E+08        -0.34636E+07         0.00000E+00
   -0.34636E+07        -0.60806E+08         0.00000E+00
    0.00000E+00         0.00000E+00        -0.41282E+08
 
   -0.48630E+08        -0.39685E+07         0.00000E+00
   -0.39685E+07        -0.61292E+08         0.00000E+00
    0.00000E+00         0.00000E+00        -0.41249E+08
 
   -0.47684E+08        -0.40579E+07         0.00000E+00
   -0.40579E+07        -0.61764E+08         0.00000E+00
    0.00000E+00         0.00000E+00        -0.41211E+08
 
   -0.46658E+08        -0.38063E+07         0.00000E+00
   -0.38063E+07        -0.62189E+08         0.00000E+00
    0.00000E+00         0.00000E+00        -0.41170E+08
 
   -0.45622E+08        -0.32775E+07         0.00000E+00
   -0.32775E+07        -0.62561E+08         0.00000E+00
    0.00000E+00         0.00000E+00        -0.41129E+08
 
   -0.44616E+08        -0.25172E+07         0.00000E+00
   -0.25172E+07        -0.62889E+08         0.00000E+00
    0.00000E+00         0.00000E+00        -0.41089E+08
 
   -0.43661E+08        -0.15510E+07         0.00000E+00
   -0.15510E+07        -0.63185E+08         0.00000E+00
    0.00000E+00         0.00000E+00        -0.41051E+08
 
   -0.42775E+08        -0.38565E+06         0.00000E+00
   -0.38565E+06        -0.63462E+08         0.00000E+00
    0.00000E+00         0.00000E+00        -0.41016E+08
 
   -0.41977E+08         0.98789E+06         0.00000E+00
    0.98789E+06        -0.63723E+08         0.00000E+00
    0.00000E+00         0.00000E+00        -0.40985E+08
 
   -0.41304E+08         0.25902E+07         0.00000E+00
    0.25902E+07        -0.63960E+08         0.00000E+00
    0.00000E+00         0.00000E+00        -0.40958E+08
 
   -0.40812E+08         0.44467E+07         0.00000E+00
    0.44467E+07        -0.64147E+08         0.00000E+00
    0.00000E+00         0.00000E+00        -0.40937E+08
 
   -0.40585E+08         0.65779E+07         0.00000E+00
    0.65779E+07        -0.64237E+08         0.00000E+00
    0.00000E+00         0.00000E+00        -0.40922E+08
 
   -0.40731E+08         0.89874E+07         0.00000E+00
    0.89874E+07        -0.64162E+08         0.00000E+00
    0.00000E+00         0.00000E+00        -0.40914E+08
 
   -0.51441E+08        -0.11262E+07         0.00000E+00
   -0.11262E+07        -0.60100E+08         0.00000E+00
    0.00000E+00         0.00000E+00        -0.38568E+08
 
   -0.51073E+08        -0.28571E+07         0.00000E+00
   -0.28571E+07        -0.60373E+08         0.00000E+00
    0.00000E+00         0.00000E+00        -0.38550E+08
 
   -0.50132E+08        -0.39241E+07         0.00000E+00
   -0.39241E+07        -0.60776E+08         0.00000E+00
    0.00000E+00         0.00000E+00        -0.38519E+08
 
   -0.48899E+08        -0.44172E+07         0.00000E+00
   -0.44172E+07        -0.61186E+08         0.00000E+00
    0.00000E+00         0.00000E+00        -0.38478E+08
 
   -0.47563E+08        -0.44522E+07         0.00000E+00
   -0.44522E+07        -0.61542E+08         0.00000E+00
    0.00000E+00         0.00000E+00        -0.38432E+08
 
   -0.46231E+08        -0.41381E+07         0.00000E+00
   -0.41381E+07        -0.61828E+08         0.00000E+00
    0.00000E+00         0.00000E+00        -0.38384E+08
 
   -0.44952E+08        -0.35588E+07         0.00000E+00
   -0.35588E+07        -0.62054E+08         0.00000E+00
    0.00000E+00         0.00000E+00        -0.38337E+08
 
   -0.43741E+08        -0.27679E+07         0.00000E+00
   -0.27679E+07        -0.62246E+08         0.00000E+00
    0.00000E+00         0.00000E+00        -0.38291E+08
 
   -0.42594E+08        -0.17909E+07         0.00000E+00
   -0.17909E+07        -0.62431E+08         0.00000E+00
    0.00000E+00         0.00000E+00        -0.38248E+08
 
   -0.41510E+08        -0.62867E+06         0.00000E+00
   -0.62867E+06        -0.62630E+08         0.00000E+00
    0.00000E+00         0.00000E+00        -0.38209E+08
 
   -0.40493E+08         0.73903E+06         0.00000E+00
    0.73903E+06        -0.62856E+08         0.00000E+00
    0.00000E+00         0.00000E+00        -0.38174E+08
 
   -0.39566E+08         0.23497E+07         0.00000E+00
    0.23497E+07        -0.63108E+08         0.00000E+00
    0.00000E+00         0.00000E+00        -0.38144E+08
 
   -0.38784E+08         0.42512E+07         0.00000E+00
    0.42512E+07        -0.63360E+08         0.00000E+00
    0.00000E+00         0.00000E+00        -0.38119E+08
 
   -0.38238E+08         0.64909E+07         0.00000E+00
    0.64909E+07        -0.63561E+08         0.00000E+00
    0.00000E+00         0.00000E+00        -0.38102E+08
 
   -0.38065E+08         0.90977E+07         0.00000E+00
    0.90977E+07        -0.63624E+08         0.00000E+00
    0.00000E+00         0.00000E+00        -0.38093E+08
 
   -0.53664E+08        -0.13002E+07         0.00000E+00
   -0.13002E+07        -0.60101E+08         0.00000E+00
    0.00000E+00         0.00000E+00        -0.35497E+08
 
   -0.52513E+08        -0.32177E+07         0.00000E+00
   -0.32177E+07        -0.60357E+08         0.00000E+00
    0.00000E+00         0.00000E+00        -0.35474E+08
 
   -0.50883E+08        -0.43079E+07         0.00000E+00
   -0.43079E+07        -0.60687E+08         0.00000E+00
    0.00000E+00         0.00000E+00        -0.35435E+08
 
   -0.49106E+08        -0.47353E+07         0.00000E+00
   -0.47353E+07        -0.60960E+08         0.00000E+00
    0.00000E+00         0.00000E+00        -0.35387E+08
 
   -0.47368E+08        -0.46804E+07         0.00000E+00
   -0.46804E+07        -0.61129E+08         0.00000E+00
    0.00000E+00         0.00000E+00        -0.35334E+08
 
   -0.45746E+08        -0.42914E+07         0.00000E+00
   -0.42914E+07        -0.61207E+08         0.00000E+00
    0.00000E+00         0.00000E+00        -0.35280E+08
 
   -0.44250E+08        -0.36692E+07         0.00000E+00
   -0.36692E+07        -0.61229E+08         0.00000E+00
    0.00000E+00         0.00000E+00        -0.35228E+08
 
   -0.42859E+08        -0.28706E+07         0.00000E+00
   -0.28706E+07        -0.61238E+08         0.00000E+00
    0.00000E+00         0.00000E+00        -0.35178E+08
 
   -0.41544E+08        -0.19172E+07         0.00000E+00
   -0.19172E+07        -0.61273E+08         0.00000E+00
    0.00000E+00         0.00000E+00        -0.35133E+08
 
   -0.40276E+08        -0.80209E+06         0.00000E+00
   -0.80209E+06        -0.61367E+08         0.00000E+00
    0.00000E+00         0.00000E+00        -0.35091E+08
 
   -0.39038E+08         0.50709E+06         0.00000E+00
    0.50709E+06        -0.61542E+08         0.00000E+00
    0.00000E+00         0.00000E+00        -0.35053E+08
 
   -0.37835E+08         0.20667E+07         0.00000E+00
    0.20667E+07        -0.61804E+08         0.00000E+00
    0.00000E+00         0.00000E+00        -0.35020E+08
 
   -0.36709E+08         0.39534E+07         0.00000E+00
    0.39534E+07        -0.62136E+08         0.00000E+00
    0.00000E+00         0.00000E+00        -0.34993E+08
 
   -0.35761E+08         0.62520E+07         0.00000E+00
    0.62520E+07        -0.62482E+08         0.00000E+00
    0.00000E+00         0.00000E+00        -0.34973E+08
 
   -0.35153E+08         0.90315E+07         0.00000E+00
    0.90315E+07        -0.62739E+08         0.00000E+00
    0.00000E+00         0.00000E+00        -0.34963E+08
 
   -0.56168E+08        -0.14727E+07         0.00000E+00
   -0.14727E+07        -0.60099E+08         0.00000E+00
    0.00000E+00         0.00000E+00        -0.32086E+08
 
   -0.54010E+08        -0.35205E+07         0.00000E+00
   -0.35205E+07        -0.60310E+08         0.00000E+00
    0.00000E+00         0.00000E+00        -0.32059E+08
 
   -0.51563E+08        -0.45474E+07         0.00000E+00
   -0.45474E+07        -0.60502E+08         0.00000E+00
    0.00000E+00         0.00000E+00        -0.32013E+08
 
   -0.49203E+08        -0.48396E+07         0.00000E+00
   -0.48396E+07        -0.60545E+08         0.00000E+00
    0.00000E+00         0.00000E+00        -0.31957E+08
 
   -0.47080E+08        -0.46621E+07         0.00000E+00
   -0.46621E+07        -0.60435E+08         0.00000E+00
    0.00000E+00         0.00000E+00        -0.31900E+08
 
   -0.45207E+08        -0.41992E+07         0.00000E+00
   -0.41992E+07        -0.60228E+08         0.00000E+00
    0.00000E+00         0.00000E+00        -0.31843E+08
 
   -0.43537E+08        -0.35570E+07         0.00000E+00
   -0.35570E+07        -0.59988E+08         0.00000E+00
    0.00000E+00         0.00000E+00        -0.31788E+08
 
   -0.42007E+08        -0.27862E+07         0.00000E+00
   -0.27862E+07        -0.59773E+08         0.00000E+00
    0.00000E+00         0.00000E+00        -0.31738E+08
 
   -0.40555E+08        -0.19002E+07         0.00000E+00
   -0.19002E+07        -0.59629E+08         0.00000E+00
    0.00000E+00         0.00000E+00        -0.31691E+08
 
   -0.39126E+08        -0.88417E+06         0.00000E+00
   -0.88417E+06        -0.59595E+08         0.00000E+00
    0.00000E+00         0.00000E+00        -0.31649E+08
 
   -0.37675E+08         0.30413E+06         0.00000E+00
    0.30413E+06        -0.59701E+08         0.00000E+00
    0.00000E+00         0.00000E+00        -0.31611E+08
 
   -0.36181E+08         0.17382E+07         0.00000E+00
    0.17382E+07        -0.59969E+08         0.00000E+00
    0.00000E+00         0.00000E+00        -0.31577E+08
 
   -0.34659E+08         0.35271E+07         0.00000E+00
    0.35271E+07        -0.60394E+08         0.00000E+00
    0.00000E+00         0.00000E+00        -0.31548E+08
 
   -0.33204E+08         0.58086E+07         0.00000E+00
    0.58086E+07        -0.60929E+08         0.00000E+00
    0.00000E+00         0.00000E+00        -0.31526E+08
 
   -0.32011E+08         0.87153E+07         0.00000E+00
    0.87153E+07        -0.61453E+08         0.00000E+00
    0.00000E+00         0.00000E+00        -0.31514E+08
 
   -0.58913E+08        -0.16339E+07         0.00000E+00
   -0.16339E+07        -0.60090E+08         0.00000E+00
    0.00000E+00         0.00000E+00        -0.28318E+08
 
   -0.55458E+08        -0.37018E+07         0.00000E+00
   -0.37018E+07        -0.60204E+08         0.00000E+00
    0.00000E+00         0.00000E+00        -0.28286E+08
 
   -0.52076E+08        -0.45332E+07         0.00000E+00
   -0.45332E+07        -0.60142E+08         0.00000E+00
    0.00000E+00         0.00000E+00        -0.28235E+08
 
   -0.49144E+08        -0.46156E+07         0.00000E+00
   -0.46156E+07        -0.59819E+08         0.00000E+00
    0.00000E+00         0.00000E+00        -0.28176E+08
 
   -0.46699E+08        -0.43070E+07         0.00000E+00
   -0.43070E+07        -0.59321E+08         0.00000E+00
    0.00000E+00         0.00000E+00        -0.28118E+08
 
   -0.44641E+08        -0.37994E+07         0.00000E+00
   -0.37994E+07        -0.58758E+08         0.00000E+00
    0.00000E+00         0.00000E+00        -0.28062E+08
 
   -0.42853E+08        -0.31814E+07         0.00000E+00
   -0.31814E+07        -0.58215E+08         0.00000E+00
    0.00000E+00         0.00000E+00        -0.28010E+08
 
   -0.41228E+08        -0.24873E+07         0.00000E+00
   -0.24873E+07        -0.57753E+08         0.00000E+00
    0.00000E+00         0.00000E+00        -0.27963E+08
 
   -0.39676E+08        -0.17198E+07         0.00000E+00
   -0.17198E+07        -0.57416E+08         0.00000E+00
    0.00000E+00         0.00000E+00        -0.27919E+08
 
   -0.38116E+08        -0.85808E+06         0.00000E+00
   -0.85808E+06        -0.57242E+08         0.00000E+00
    0.00000E+00         0.00000E+00        -0.27879E+08
 
   -0.36476E+08         0.14371E+06         0.00000E+00
    0.14371E+06        -0.57267E+08         0.00000E+00
    0.00000E+00         0.00000E+00        -0.27843E+08
 
   -0.34693E+08         0.13665E+07         0.00000E+00
    0.13665E+07        -0.57527E+08         0.00000E+00
    0.00000E+00         0.00000E+00        -0.27810E+08
 
   -0.32733E+08         0.29476E+07         0.00000E+00
    0.29476E+07        -0.58053E+08         0.00000E+00
    0.00000E+00         0.00000E+00        -0.27782E+08
 
   -0.30653E+08         0.50943E+07         0.00000E+00
    0.50943E+07        -0.58822E+08         0.00000E+00
    0.00000E+00         0.00000E+00        -0.27760E+08
 
   -0.28670E+08         0.80470E+07         0.00000E+00
    0.80470E+07        -0.59709E+08         0.00000E+00
    0.00000E+00         0.00000E+00        -0.27747E+08
 
   -0.61803E+08        -0.17614E+07         0.00000E+00
   -0.17614E+07        -0.60060E+08         0.00000E+00
    0.00000E+00         0.00000E+00        -0.24180E+08
 
   -0.56677E+08        -0.36276E+07         0.00000E+00
   -0.36276E+07        -0.59959E+08         0.00000E+00
    0.00000E+00         0.00000E+00        -0.24146E+08
 
   -0.52314E+08        -0.40822E+07         0.00000E+00
   -0.40822E+07        -0.59422E+08         0.00000E+00
    0.00000E+00         0.00000E+00        -0.24094E+08
 
   -0.48920E+08        -0.39263E+07         0.00000E+00
   -0.39263E+07        -0.58556E+08         0.00000E+00
    0.00000E+00         0.00000E+00        -0.24038E+08
 
   -0.46264E+08        -0.35385E+07         0.00000E+00
   -0.35385E+07        -0.57579E+08         0.00000E+00
    0.00000E+00         0.00000E+00        -0.23986E+08
 
   -0.44102E+08        -0.30560E+07         0.00000E+00
   -0.30560E+07        -0.56629E+08         0.00000E+00
    0.00000E+00         0.00000E+00        -0.23937E+08
 
   -0.42252E+08        -0.25289E+07         0.00000E+00
   -0.25289E+07        -0.55781E+08         0.00000E+00
    0.00000E+00         0.00000E+00        -0.23893E+08
 
   -0.40575E+08        -0.19703E+07         0.00000E+00
   -0.19703E+07        -0.55080E+08         0.00000E+00
    0.00000E+00         0.00000E+00        -0.23853E+08
 
   -0.38959E+08        -0.13739E+07         0.00000E+00
   -0.13739E+07        -0.54561E+08         0.00000E+00
    0.00000E+00         0.00000E+00        -0.23817E+08
 
   -0.37304E+08        -0.71781E+06         0.00000E+00
   -0.71781E+06        -0.54252E+08         0.00000E+00
    0.00000E+00         0.00000E+00        -0.23784E+08
 
   -0.35511E+08         0.38712E+05         0.00000E+00
    0.38712E+05        -0.54192E+08         0.00000E+00
    0.00000E+00         0.00000E+00        -0.23754E+08
 
   -0.33473E+08         0.96814E+06         0.00000E+00
    0.96814E+06        -0.54430E+08         0.00000E+00
    0.00000E+00         0.00000E+00        -0.23726E+08
 
   -0.31073E+08         0.22064E+07         0.00000E+00
    0.22064E+07        -0.55034E+08         0.00000E+00
    0.00000E+00         0.00000E+00        -0.23700E+08
 
   -0.28251E+08         0.40330E+07         0.00000E+00
    0.40330E+07        -0.56072E+08         0.00000E+00
    0.00000E+00         0.00000E+00        -0.23679E+08
 
   -0.25198E+08         0.68791E+07         0.00000E+00
    0.68791E+07        -0.57450E+08         0.00000E+00
    0.00000E+00         0.00000E+00        -0.23666E+08
 
   -0.64596E+08        -0.17760E+07         0.00000E+00
   -0.17760E+07        -0.59959E+08         0.00000E+00
    0.00000E+00         0.00000E+00        -0.19667E+08
 
   -0.57387E+08        -0.29664E+07         0.00000E+00
   -0.29664E+07        -0.59264E+08         0.00000E+00
    0.00000E+00         0.00000E+00        -0.19636E+08
 
   -0.52251E+08        -0.29515E+07         0.00000E+00
   -0.29515E+07        -0.57909E+08         0.00000E+00
    0.00000E+00         0.00000E+00        -0.19593E+08
 
   -0.48613E+08        -0.26808E+07         0.00000E+00
   -0.26808E+07        -0.56395E+08         0.00000E+00
    0.00000E+00         0.00000E+00        -0.19552E+08
 
   -0.45866E+08        -0.23428E+07         0.00000E+00
   -0.23428E+07        -0.54949E+08         0.00000E+00
    0.00000E+00         0.00000E+00        -0.19514E+08
 
   -0.43669E+08        -0.19877E+07         0.00000E+00
   -0.19877E+07        -0.53659E+08         0.00000E+00
    0.00000E+00         0.00000E+00        -0.19480E+08
 
   -0.41800E+08        -0.16287E+07         0.00000E+00
   -0.16287E+07        -0.52560E+08         0.00000E+00
    0.00000E+00         0.00000E+00        -0.19450E+08
 
   -0.40102E+08        -0.12643E+07         0.00000E+00
   -0.12643E+07        -0.51673E+08         0.00000E+00
    0.00000E+00         0.00000E+00        -0.19423E+08
 
   -0.38452E+08        -0.88538E+06         0.00000E+00
   -0.88538E+06        -0.51012E+08         0.00000E+00
    0.00000E+00         0.00000E+00        -0.19399E+08
 
   -0.36737E+08        -0.47530E+06         0.00000E+00
   -0.47530E+06        -0.50600E+08         0.00000E+00
    0.00000E+00         0.00000E+00        -0.19376E+08
 
   -0.34839E+08        -0.64156E+04         0.00000E+00
   -0.64156E+04        -0.50468E+08         0.00000E+00
    0.00000E+00         0.00000E+00        -0.19355E+08
 
   -0.32613E+08         0.57007E+06         0.00000E+00
    0.57007E+06        -0.50673E+08         0.00000E+00
    0.00000E+00         0.00000E+00        -0.19336E+08
 
   -0.29860E+08         0.13504E+07         0.00000E+00
    0.13504E+07        -0.51310E+08         0.00000E+00
    0.00000E+00         0.00000E+00        -0.19318E+08
 
   -0.26263E+08         0.25686E+07         0.00000E+00
    0.25686E+07        -0.52556E+08         0.00000E+00
    0.00000E+00         0.00000E+00        -0.19301E+08
 
   -0.21745E+08         0.49729E+07         0.00000E+00
    0.49729E+07        -0.54600E+08         0.00000E+00
    0.00000E+00         0.00000E+00        -0.19289E+08
 
   -0.66595E+08        -0.10859E+07         0.00000E+00
   -0.10859E+07        -0.58956E+08         0.00000E+00
    0.00000E+00         0.00000E+00        -0.14792E+08
 
   -0.57473E+08        -0.12128E+07         0.00000E+00
   -0.12128E+07        -0.57044E+08         0.00000E+00
    0.00000E+00         0.00000E+00        -0.14778E+08
 
   -0.52094E+08        -0.10904E+07         0.00000E+00
   -0.10904E+07        -0.54890E+08         0.00000E+00
    0.00000E+00         0.00000E+00        -0.14761E+08
 
   -0.48386E+08        -0.95564E+06         0.00000E+00
   -0.95564E+06        -0.52914E+08         0.00000E+00
    0.00000E+00         0.00000E+00        -0.14745E+08
 
   -0.45625E+08        -0.81986E+06         0.00000E+00
   -0.81986E+06        -0.51179E+08         0.00000E+00
    0.00000E+00         0.00000E+00        -0.14731E+08
 
   -0.43426E+08        -0.68849E+06         0.00000E+00
   -0.68849E+06        -0.49696E+08         0.00000E+00
    0.00000E+00         0.00000E+00        -0.14719E+08
 
   -0.41556E+08        -0.56082E+06         0.00000E+00
   -0.56082E+06        -0.48464E+08         0.00000E+00
    0.00000E+00         0.00000E+00        -0.14708E+08
 
   -0.39854E+08        -0.43417E+06         0.00000E+00
   -0.43417E+06        -0.47481E+08         0.00000E+00
    0.00000E+00         0.00000E+00        -0.14698E+08
 
   -0.38190E+08        -0.30429E+06         0.00000E+00
   -0.30429E+06        -0.46750E+08         0.00000E+00
    0.00000E+00         0.00000E+00        -0.14689E+08
 
   -0.36446E+08        -0.16497E+06         0.00000E+00
   -0.16497E+06        -0.46287E+08         0.00000E+00
    0.00000E+00         0.00000E+00        -0.14682E+08
 
   -0.34495E+08        -0.64975E+04         0.00000E+00
   -0.64975E+04        -0.46120E+08         0.00000E+00
    0.00000E+00         0.00000E+00        -0.14674E+08
 
   -0.32171E+08         0.18793E+06         0.00000E+00
    0.18793E+06        -0.46304E+08         0.00000E+00
    0.00000E+00         0.00000E+00        -0.14667E+08
 
   -0.29221E+08         0.45307E+06         0.00000E+00
    0.45307E+06        -0.46946E+08         0.00000E+00
    0.00000E+00         0.00000E+00        -0.14660E+08
 
   -0.25183E+08         0.86643E+06         0.00000E+00
    0.86643E+06        -0.48265E+08         0.00000E+00
    0.00000E+00         0.00000E+00        -0.14653E+08
 
   -0.18731E+08         0.18991E+07         0.00000E+00
    0.18991E+07        -0.50918E+08         0.00000E+00
    0.00000E+00         0.00000E+00        -0.14648E+08
 
SCALARS stresss double 
LOOKUP_TABLE default
  -55013829.5821111     
  -55293927.5479184     
  -55577234.1696837     
  -55859899.8982424     
  -56138709.7437544     
  -56411014.7202634     
  -56674661.3257462     
  -56927921.4690342     
  -57169424.9043074     
  -57398095.9315396     
  -57613095.8670015     
  -57813772.5789451     
  -57999618.2144789     
  -58170236.1061831     
  -58325317.7303917     
  -54986963.2400752     
  -55271564.9486353     
  -55558678.2388010     
  -55844517.8839013     
  -56125937.8239120     
  -56400359.8455487     
  -56665700.6836841     
  -56920299.9105470     
  -57162850.6265680     
  -57392334.6645002     
  -57607963.7666439     
  -57809127.9912121     
  -57995352.4427793     
  -58166263.2950039     
  -58321563.9701272     
  -54933418.1941069     
  -55226966.9373808     
  -55521625.8091264     
  -55813741.3443154     
  -56100308.0423328     
  -56378891.5592418     
  -56647551.0961363     
  -56904763.2588238     
  -57149349.3072406     
  -57380407.4104331     
  -57597251.2756923     
  -57799356.3268409     
  -57986314.4617517     
  -58157798.3142717     
  -58313535.8686666     
  -54853573.1806428     
  -55160387.6107840     
  -55466192.2041399     
  -55767538.8893747     
  -56061639.7106281     
  -56346281.8916099     
  -56619743.2659538     
  -56880710.2091008     
  -57128199.8424793     
  -57361487.9762725     
  -57580044.0155238     
  -57783473.8755487     
  -57971471.8322490     
  -58143782.1619513     
  -58300171.3901755     
  -54748004.6561563     
  -55072207.1594695     
  -55392541.3420983     
  -55705847.3460082     
  -56009639.6688340     
  -56302011.5855487     
  -56581541.5126588     
  -56847203.2583637     
  -57098281.7244352     
  -57334295.3153900     
  -57554926.0741496     
  -57759958.4031859     
  -57949227.1430275     
  -58122575.7564910     
  -58279825.3913712     
  -54617495.9735068     
  -54962929.9904737     
  -55300874.2491972     
  -55628551.9831477     
  -55943875.4093593     
  -56245337.1631563     
  -56531905.6744292     
  -56802926.1822416     
  -57058028.6842499     
  -57297043.7939087     
  -57519927.2437433     
  -57726693.6337401     
  -57917359.9790951     
  -58091899.6512062     
  -58250207.4112051     
  -54463048.1802427     
  -54833180.9843880     
  -55191412.7207451     
  -55535459.3568802     
  -55863738.7063044     
  -56175246.7436570     
  -56469440.3094136     
  -56746127.5974938     
  -57005367.3800090     
  -57247377.5725551     
  -57472453.5022740     
  -57680896.1227496     
  -57872950.4268254     
  -58048754.4300267     
  -58208299.3104849     
  -54285891.1558002     
  -54683698.7876279     
  -55064377.2272398     
  -55426262.0861153     
  -55768399.2926226     
  -56090404.4035530     
  -56392331.2443866     
  -56674550.9116992     
  -56937641.6655756     
  -57182289.8375716     
  -57409201.6166284     
  -57619025.4749795     
  -57812285.0651934     
  -57989322.6462880     
  -58150253.4521874     
  -54087493.4259647     
  -54515324.7193499     
  -54919957.8995390     
  -55300494.6718294     
  -55656748.0071916     
  -55989082.8385953     
  -56298269.5863529     
  -56585351.1326538     
  -56851523.2475739     
  -57098027.9750673     
  -57326059.1761245     
  -57536679.3357684     
  -57730746.8834149     
  -57908853.6380499     
  -58071272.5320670     
  -53869568.5869431     
  -54328985.5219644     
  -54758277.1329910     
  -55157479.2470726     
  -55527328.6955645     
  -55869084.0571574     
  -56184363.4080851     
  -56474999.2401233     
  -56742909.9017223     
  -56989986.2686098     
  -57217991.9491514     
  -57428475.2354186     
  -57622691.2423611     
  -57801533.2147237     
  -57965472.7709007     
  -53634075.8450997     
  -54125667.7986986     
  -54579342.0095714     
  -54996259.8706341     
  -55378257.9727097     
  -55727647.7922125     
  -56047037.4377121     
  -56339175.1199465     
  -56606812.8969030     
  -56852588.3425397     
  -57078921.2346973     
  -57287922.2400957     
  -57481310.9161798     
  -57660341.1185752     
  -57825733.0215340     
  -53383211.7474821     
  -53906381.5553606     
  -54382984.3275165     
  -54815523.6237558     
  -55207131.7126920     
  -55561347.2414577     
  -55881921.2158583     
  -56172650.4319309     
  -56437235.8895380     
  -56679162.4125317     
  -56901594.9066025     
  -57107286.5222342     
  -57298494.4790668     
  -57476900.3914458     
  -57643533.4961612     
  -53119389.7688867     
  -53672109.7873546     
  -54168785.5146591     
  -54613506.2885958     
  -55010916.7716580     
  -55365971.5968857     
  -55683726.3157816     
  -55969163.2357202     
  -56227048.3316787     
  -56461813.4894599     
  -56677457.1857884     
  -56877456.4834711     
  -57064683.9219798     
  -57241324.4072870     
  -57408789.3683675     
  -52845204.0710798     
  -53423740.5091919     
  -53935983.0273576     
  -54387879.7040533     
  -54785825.9048655     
  -55136394.5546044     
  -55446113.3306462     
  -55721286.7435621     
  -55967857.4242083     
  -56191298.0770731     
  -56396523.9059952     
  -56587815.0360439     
  -56768739.4938760     
  -56942069.4668815     
  -57109686.5544727     
  -52563373.5064234     
  -53161976.9731171     
  -53683353.9043757     
  -54135616.8898191     
  -54527172.9980503     
  -54866427.5305270     
  -55161549.3917433     
  -55420295.2265576     
  -55649883.9016332     
  -55856908.6963278     
  -56047272.2668242     
  -56226129.1879463     
  -56397822.4783822     
  -56565803.6102689     
  -56732529.6501779     
  -52276661.8508907     
  -52887220.9809410     
  -53409069.7858341     
  -53852829.5120025     
  -54229204.4374842     
  -54548655.5507810     
  -54821156.9695586     
  -55056030.9157051     
  -55261848.5506430     
  -55446377.8830065     
  -55616556.9311166     
  -55778470.3215880     
  -55937310.0735933     
  -56097305.8137668     
  -56261615.4211888     
  -51987770.3508914     
  -52599422.9797041     
  -53110515.6251426     
  -53534569.9248166     
  -53884900.4551507     
  -54174252.6170633     
  -54414554.6247161     
  -54616776.8029319     
  -54790878.4909419     
  -54945814.3163841     
  -55089568.0007753     
  -55229182.6725672     
  -55370760.8881534     
  -55519414.1313782     
  -55679149.5419174     
  -51699198.9213204     
  -52297890.6825005     
  -52784060.9908727     
  -53174586.3615086     
  -53485737.2648961     
  -53732771.6389809     
  -53929690.2793473     
  -54089141.7454823     
  -54222445.1245726     
  -54339687.6936297     
  -54449851.1264782     
  -54560922.7036332     
  -54679954.9592225     
  -54813046.7281955     
  -54965229.5256463     
  -51413072.5509650     
  -51981044.5423057     
  -52424767.3337263     
  -52765014.0473047     
  -53021396.2821516     
  -53211901.6986604     
  -53352667.6866670     
  -53457966.5675655     
  -53540349.6663449     
  -53610884.2034124     
  -53679416.0567044     
  -53754798.5628872     
  -53845038.8075298     
  -53957326.2182210     
  -54097922.9837659     
  -51130929.1323137     
  -51646102.0861103     
  -52026005.1663127     
  -52295975.7336018     
  -52479400.0998354     
  -52597182.5956468     
  -52667567.6512774     
  -52706263.6033199     
  -52726777.8611520     
  -52740861.3796955     
  -52758967.6235301     
  -52790646.8885655     
  -52844814.0819213     
  -52929845.3217918     
  -53053477.3327723     
  -50853462.8238942     
  -51288660.9902935     
  -51578938.5827126     
  -51755050.2181988     
  -51844645.5904326     
  -51871664.0514123     
  -51856268.5180100     
  -51815208.5245029     
  -51762453.6080064     
  -51709940.0845198     
  -51668302.7424247     
  -51647494.2017111     
  -51657218.1751647     
  -51707120.7400091     
  -51806704.4944630     
  -50580210.4613155     
  -50902126.8992155     
  -51071804.7534536     
  -51126543.2945165     
  -51098792.4373837     
  -51015497.0077112     
  -50898278.4027854     
  -50764214.3581902     
  -50626932.4378873     
  -50497782.2729819     
  -50386928.3568776     
  -50304262.4507552     
  -50260057.6529591     
  -50265292.9004832     
  -50331591.5621317     
  -50309151.7253467     
  -50476883.1572445     
  -50488860.7791792     
  -50390456.5739717     
  -50219452.8471136     
  -50005453.4762843     
  -49770610.7106029     
  -49531136.3326643     
  -49299090.0504015     
  -49084114.3291550     
  -48894967.2961593     
  -48740793.5309335     
  -48632072.6887671     
  -48581143.8813705     
  -48602195.7530127     
  -50036151.3884899     
  -49998996.6893685     
  -49808762.5565648     
  -49520989.0332663     
  -49179124.4975943     
  -48814405.7526281     
  -48447776.2913719     
  -48092686.3412136     
  -47757875.1409795     
  -47449761.7320654     
  -47174427.5843951     
  -46939287.2572967     
  -46754438.2457080     
  -46633530.9709446     
  -46593890.6261904     
  -49754075.1917046     
  -49448012.0063759     
  -49001929.4690704     
  -48484316.1167286     
  -47943851.0412773     
  -47410891.3735773     
  -46902050.2923457     
  -46425177.7187070     
  -45983400.1594638     
  -45578045.7806813     
  -45210907.4650859     
  -44886269.8957232     
  -44612862.2791447     
  -44405384.7977822     
  -44285048.8102299     
  -49451091.7361659     
  -48792829.6594813     
  -48025973.4825680     
  -47235336.3274984     
  -46471779.2453791     
  -45759127.3230319     
  -45104315.1548968     
  -44505764.5564505     
  -43958413.2304165     
  -43456536.1931020     
  -42995750.8573569     
  -42575248.6152099     
  -42200539.8482621     
  -41886564.6305598     
  -41659289.8612306     
  -49107028.8142288     
  -47982775.3077843     
  -46817532.0344718     
  -45713209.6490490     
  -44712490.4797297     
  -43820290.4672811     
  -43025925.2177813     
  -42314355.4191388     
  -41670134.8912616     
  -41078956.0961112     
  -40528552.8917812     
  -40010110.3994623     
  -39522563.8041156     
  -39078151.5995792     
  -38708633.9295415     
  -48681081.4853872     
  -46927123.0774323     
  -45276643.0377163     
  -43838050.5544001     
  -42609694.1044275     
  -41556171.7930389     
  -40642068.5296399     
  -39836327.3154792     
  -39112352.8722169     
  -38446913.5707277     
  -37819027.1759049     
  -37209542.8141522     
  -36602282.1003398     
  -36000504.4636514     
  -35438135.2700394     
  -48074009.2608380     
  -45428732.0301400     
  -43251080.9868643     
  -41519634.0703195     
  -40109876.0539039     
  -38936137.0239171     
  -37936792.6665690     
  -37066017.6344776     
  -36287662.7752523     
  -35571027.7480217     
  -34887484.4598430     
  -34207133.1020744     
  -33495618.2058381     
  -32706861.5774808     
  -31878090.9769805     
  -46780752.6782836     
  -43098415.7429580     
  -40581520.7337568     
  -38681738.9950455     
  -37178197.1465827     
  -35946854.0808127     
  -34909263.0143231     
  -34010763.0115133     
  -33209806.9444832     
  -32471552.2443970     
  -31762943.4512594     
  -31047365.0088967     
  -30275669.5903103     
  -29367023.6125849     
  -28099143.0853018     
SCALARS 2waySource double 
LOOKUP_TABLE default
  0.000000000000000E+000
  0.000000000000000E+000
  0.000000000000000E+000
  0.000000000000000E+000
  0.000000000000000E+000
  0.000000000000000E+000
  0.000000000000000E+000
  0.000000000000000E+000
  0.000000000000000E+000
  0.000000000000000E+000
  0.000000000000000E+000
  0.000000000000000E+000
  0.000000000000000E+000
  0.000000000000000E+000
  0.000000000000000E+000
  0.000000000000000E+000
  0.000000000000000E+000
  0.000000000000000E+000
  0.000000000000000E+000
  0.000000000000000E+000
  0.000000000000000E+000
  0.000000000000000E+000
  0.000000000000000E+000
  0.000000000000000E+000
  0.000000000000000E+000
  0.000000000000000E+000
  0.000000000000000E+000
  0.000000000000000E+000
  0.000000000000000E+000
  0.000000000000000E+000
  0.000000000000000E+000
  0.000000000000000E+000
  0.000000000000000E+000
  0.000000000000000E+000
  0.000000000000000E+000
  0.000000000000000E+000
  0.000000000000000E+000
  0.000000000000000E+000
  0.000000000000000E+000
  0.000000000000000E+000
  0.000000000000000E+000
  0.000000000000000E+000
  0.000000000000000E+000
  0.000000000000000E+000
  0.000000000000000E+000
  0.000000000000000E+000
  0.000000000000000E+000
  0.000000000000000E+000
  0.000000000000000E+000
  0.000000000000000E+000
  0.000000000000000E+000
  0.000000000000000E+000
  0.000000000000000E+000
  0.000000000000000E+000
  0.000000000000000E+000
  0.000000000000000E+000
  0.000000000000000E+000
  0.000000000000000E+000
  0.000000000000000E+000
  0.000000000000000E+000
  0.000000000000000E+000
  0.000000000000000E+000
  0.000000000000000E+000
  0.000000000000000E+000
  0.000000000000000E+000
  0.000000000000000E+000
  0.000000000000000E+000
  0.000000000000000E+000
  0.000000000000000E+000
  0.000000000000000E+000
  0.000000000000000E+000
  0.000000000000000E+000
  0.000000000000000E+000
  0.000000000000000E+000
  0.000000000000000E+000
  0.000000000000000E+000
  0.000000000000000E+000
  0.000000000000000E+000
  0.000000000000000E+000
  0.000000000000000E+000
  0.000000000000000E+000
  0.000000000000000E+000
  0.000000000000000E+000
  0.000000000000000E+000
  0.000000000000000E+000
  0.000000000000000E+000
  0.000000000000000E+000
  0.000000000000000E+000
  0.000000000000000E+000
  0.000000000000000E+000
  0.000000000000000E+000
  0.000000000000000E+000
  0.000000000000000E+000
  0.000000000000000E+000
  0.000000000000000E+000
  0.000000000000000E+000
  0.000000000000000E+000
  0.000000000000000E+000
  0.000000000000000E+000
  0.000000000000000E+000
  0.000000000000000E+000
  0.000000000000000E+000
  0.000000000000000E+000
  0.000000000000000E+000
  0.000000000000000E+000
  0.000000000000000E+000
  0.000000000000000E+000
  0.000000000000000E+000
  0.000000000000000E+000
  0.000000000000000E+000
  0.000000000000000E+000
  0.000000000000000E+000
  0.000000000000000E+000
  0.000000000000000E+000
  0.000000000000000E+000
  0.000000000000000E+000
  0.000000000000000E+000
  0.000000000000000E+000
  0.000000000000000E+000
  0.000000000000000E+000
  0.000000000000000E+000
  0.000000000000000E+000
  0.000000000000000E+000
  0.000000000000000E+000
  0.000000000000000E+000
  0.000000000000000E+000
  0.000000000000000E+000
  0.000000000000000E+000
  0.000000000000000E+000
  0.000000000000000E+000
  0.000000000000000E+000
  0.000000000000000E+000
  0.000000000000000E+000
  0.000000000000000E+000
  0.000000000000000E+000
  0.000000000000000E+000
  0.000000000000000E+000
  0.000000000000000E+000
  0.000000000000000E+000
  0.000000000000000E+000
  0.000000000000000E+000
  0.000000000000000E+000
  0.000000000000000E+000
  0.000000000000000E+000
  0.000000000000000E+000
  0.000000000000000E+000
  0.000000000000000E+000
  0.000000000000000E+000
  0.000000000000000E+000
  0.000000000000000E+000
  0.000000000000000E+000
  0.000000000000000E+000
  0.000000000000000E+000
  0.000000000000000E+000
  0.000000000000000E+000
  0.000000000000000E+000
  0.000000000000000E+000
  0.000000000000000E+000
  0.000000000000000E+000
  0.000000000000000E+000
  0.000000000000000E+000
  0.000000000000000E+000
  0.000000000000000E+000
  0.000000000000000E+000
  0.000000000000000E+000
  0.000000000000000E+000
  0.000000000000000E+000
  0.000000000000000E+000
  0.000000000000000E+000
  0.000000000000000E+000
  0.000000000000000E+000
  0.000000000000000E+000
  0.000000000000000E+000
  0.000000000000000E+000
  0.000000000000000E+000
  0.000000000000000E+000
  0.000000000000000E+000
  0.000000000000000E+000
  0.000000000000000E+000
  0.000000000000000E+000
  0.000000000000000E+000
  0.000000000000000E+000
  0.000000000000000E+000
  0.000000000000000E+000
  0.000000000000000E+000
  0.000000000000000E+000
  0.000000000000000E+000
  0.000000000000000E+000
  0.000000000000000E+000
  0.000000000000000E+000
  0.000000000000000E+000
  0.000000000000000E+000
  0.000000000000000E+000
  0.000000000000000E+000
  0.000000000000000E+000
  0.000000000000000E+000
  0.000000000000000E+000
  0.000000000000000E+000
  0.000000000000000E+000
  0.000000000000000E+000
  0.000000000000000E+000
  0.000000000000000E+000
  0.000000000000000E+000
  0.000000000000000E+000
  0.000000000000000E+000
  0.000000000000000E+000
  0.000000000000000E+000
  0.000000000000000E+000
  0.000000000000000E+000
  0.000000000000000E+000
  0.000000000000000E+000
  0.000000000000000E+000
  0.000000000000000E+000
  0.000000000000000E+000
  0.000000000000000E+000
  0.000000000000000E+000
  0.000000000000000E+000
  0.000000000000000E+000
  0.000000000000000E+000
  0.000000000000000E+000
  0.000000000000000E+000
  0.000000000000000E+000
  0.000000000000000E+000
  0.000000000000000E+000
  0.000000000000000E+000
  0.000000000000000E+000
  0.000000000000000E+000
  0.000000000000000E+000
  0.000000000000000E+000
  0.000000000000000E+000
  0.000000000000000E+000
  0.000000000000000E+000
  0.000000000000000E+000
  0.000000000000000E+000
  0.000000000000000E+000
  0.000000000000000E+000
  0.000000000000000E+000
  0.000000000000000E+000
  0.000000000000000E+000
  0.000000000000000E+000
  0.000000000000000E+000
  0.000000000000000E+000
  0.000000000000000E+000
  0.000000000000000E+000
  0.000000000000000E+000
  0.000000000000000E+000
  0.000000000000000E+000
  0.000000000000000E+000
  0.000000000000000E+000
  0.000000000000000E+000
  0.000000000000000E+000
  0.000000000000000E+000
  0.000000000000000E+000
  0.000000000000000E+000
  0.000000000000000E+000
  0.000000000000000E+000
  0.000000000000000E+000
  0.000000000000000E+000
  0.000000000000000E+000
  0.000000000000000E+000
  0.000000000000000E+000
  0.000000000000000E+000
  0.000000000000000E+000
  0.000000000000000E+000
  0.000000000000000E+000
  0.000000000000000E+000
  0.000000000000000E+000
  0.000000000000000E+000
  0.000000000000000E+000
  0.000000000000000E+000
  0.000000000000000E+000
  0.000000000000000E+000
  0.000000000000000E+000
  0.000000000000000E+000
  0.000000000000000E+000
  0.000000000000000E+000
  0.000000000000000E+000
  0.000000000000000E+000
  0.000000000000000E+000
  0.000000000000000E+000
  0.000000000000000E+000
  0.000000000000000E+000
  0.000000000000000E+000
  0.000000000000000E+000
  0.000000000000000E+000
  0.000000000000000E+000
  0.000000000000000E+000
  0.000000000000000E+000
  0.000000000000000E+000
  0.000000000000000E+000
  0.000000000000000E+000
  0.000000000000000E+000
  0.000000000000000E+000
  0.000000000000000E+000
  0.000000000000000E+000
  0.000000000000000E+000
  0.000000000000000E+000
  0.000000000000000E+000
  0.000000000000000E+000
  0.000000000000000E+000
  0.000000000000000E+000
  0.000000000000000E+000
  0.000000000000000E+000
  0.000000000000000E+000
  0.000000000000000E+000
  0.000000000000000E+000
  0.000000000000000E+000
  0.000000000000000E+000
  0.000000000000000E+000
  0.000000000000000E+000
  0.000000000000000E+000
  0.000000000000000E+000
  0.000000000000000E+000
  0.000000000000000E+000
  0.000000000000000E+000
  0.000000000000000E+000
  0.000000000000000E+000
  0.000000000000000E+000
  0.000000000000000E+000
  0.000000000000000E+000
  0.000000000000000E+000
  0.000000000000000E+000
  0.000000000000000E+000
  0.000000000000000E+000
  0.000000000000000E+000
  0.000000000000000E+000
  0.000000000000000E+000
  0.000000000000000E+000
  0.000000000000000E+000
  0.000000000000000E+000
  0.000000000000000E+000
  0.000000000000000E+000
  0.000000000000000E+000
  0.000000000000000E+000
  0.000000000000000E+000
  0.000000000000000E+000
  0.000000000000000E+000
  0.000000000000000E+000
  0.000000000000000E+000
  0.000000000000000E+000
  0.000000000000000E+000
  0.000000000000000E+000
  0.000000000000000E+000
  0.000000000000000E+000
  0.000000000000000E+000
  0.000000000000000E+000
  0.000000000000000E+000
  0.000000000000000E+000
  0.000000000000000E+000
  0.000000000000000E+000
  0.000000000000000E+000
  0.000000000000000E+000
  0.000000000000000E+000
  0.000000000000000E+000
  0.000000000000000E+000
  0.000000000000000E+000
  0.000000000000000E+000
  0.000000000000000E+000
  0.000000000000000E+000
  0.000000000000000E+000
  0.000000000000000E+000
  0.000000000000000E+000
  0.000000000000000E+000
  0.000000000000000E+000
  0.000000000000000E+000
  0.000000000000000E+000
  0.000000000000000E+000
  0.000000000000000E+000
  0.000000000000000E+000
  0.000000000000000E+000
  0.000000000000000E+000
  0.000000000000000E+000
  0.000000000000000E+000
  0.000000000000000E+000
  0.000000000000000E+000
  0.000000000000000E+000
  0.000000000000000E+000
  0.000000000000000E+000
  0.000000000000000E+000
  0.000000000000000E+000
  0.000000000000000E+000
  0.000000000000000E+000
  0.000000000000000E+000
  0.000000000000000E+000
  0.000000000000000E+000
  0.000000000000000E+000
  0.000000000000000E+000
  0.000000000000000E+000
  0.000000000000000E+000
  0.000000000000000E+000
  0.000000000000000E+000
  0.000000000000000E+000
  0.000000000000000E+000
  0.000000000000000E+000
  0.000000000000000E+000
  0.000000000000000E+000
  0.000000000000000E+000
  0.000000000000000E+000
  0.000000000000000E+000
  0.000000000000000E+000
  0.000000000000000E+000
  0.000000000000000E+000
  0.000000000000000E+000
  0.000000000000000E+000
  0.000000000000000E+000
  0.000000000000000E+000
  0.000000000000000E+000
  0.000000000000000E+000
  0.000000000000000E+000
  0.000000000000000E+000
  0.000000000000000E+000
  0.000000000000000E+000
  0.000000000000000E+000
  0.000000000000000E+000
  0.000000000000000E+000
  0.000000000000000E+000
  0.000000000000000E+000
  0.000000000000000E+000
  0.000000000000000E+000
  0.000000000000000E+000
  0.000000000000000E+000
  0.000000000000000E+000
  0.000000000000000E+000
  0.000000000000000E+000
  0.000000000000000E+000
  0.000000000000000E+000
  0.000000000000000E+000
  0.000000000000000E+000
  0.000000000000000E+000
  0.000000000000000E+000
  0.000000000000000E+000
  0.000000000000000E+000
  0.000000000000000E+000
  0.000000000000000E+000
  0.000000000000000E+000
  0.000000000000000E+000
  0.000000000000000E+000
  0.000000000000000E+000
  0.000000000000000E+000
  0.000000000000000E+000
  0.000000000000000E+000
  0.000000000000000E+000
  0.000000000000000E+000
  0.000000000000000E+000
  0.000000000000000E+000
  0.000000000000000E+000
  0.000000000000000E+000
  0.000000000000000E+000
  0.000000000000000E+000
  0.000000000000000E+000
SCALARS elementIsPlast double 
LOOKUP_TABLE default
  0.000000000000000E+000
  0.000000000000000E+000
  0.000000000000000E+000
  0.000000000000000E+000
  0.000000000000000E+000
  0.000000000000000E+000
  0.000000000000000E+000
  0.000000000000000E+000
  0.000000000000000E+000
  0.000000000000000E+000
  0.000000000000000E+000
  0.000000000000000E+000
  0.000000000000000E+000
  0.000000000000000E+000
  0.000000000000000E+000
  0.000000000000000E+000
  0.000000000000000E+000
  0.000000000000000E+000
  0.000000000000000E+000
  0.000000000000000E+000
  0.000000000000000E+000
  0.000000000000000E+000
  0.000000000000000E+000
  0.000000000000000E+000
  0.000000000000000E+000
  0.000000000000000E+000
  0.000000000000000E+000
  0.000000000000000E+000
  0.000000000000000E+000
  0.000000000000000E+000
  0.000000000000000E+000
  0.000000000000000E+000
  0.000000000000000E+000
  0.000000000000000E+000
  0.000000000000000E+000
  0.000000000000000E+000
  0.000000000000000E+000
  0.000000000000000E+000
  0.000000000000000E+000
  0.000000000000000E+000
  0.000000000000000E+000
  0.000000000000000E+000
  0.000000000000000E+000
  0.000000000000000E+000
  0.000000000000000E+000
  0.000000000000000E+000
  0.000000000000000E+000
  0.000000000000000E+000
  0.000000000000000E+000
  0.000000000000000E+000
  0.000000000000000E+000
  0.000000000000000E+000
  0.000000000000000E+000
  0.000000000000000E+000
  0.000000000000000E+000
  0.000000000000000E+000
  0.000000000000000E+000
  0.000000000000000E+000
  0.000000000000000E+000
  0.000000000000000E+000
  0.000000000000000E+000
  0.000000000000000E+000
  0.000000000000000E+000
  0.000000000000000E+000
  0.000000000000000E+000
  0.000000000000000E+000
  0.000000000000000E+000
  0.000000000000000E+000
  0.000000000000000E+000
  0.000000000000000E+000
  0.000000000000000E+000
  0.000000000000000E+000
  0.000000000000000E+000
  0.000000000000000E+000
  0.000000000000000E+000
  0.000000000000000E+000
  0.000000000000000E+000
  0.000000000000000E+000
  0.000000000000000E+000
  0.000000000000000E+000
  0.000000000000000E+000
  0.000000000000000E+000
  0.000000000000000E+000
  0.000000000000000E+000
  0.000000000000000E+000
  0.000000000000000E+000
  0.000000000000000E+000
  0.000000000000000E+000
  0.000000000000000E+000
  0.000000000000000E+000
  0.000000000000000E+000
  0.000000000000000E+000
  0.000000000000000E+000
  0.000000000000000E+000
  0.000000000000000E+000
  0.000000000000000E+000
  0.000000000000000E+000
  0.000000000000000E+000
  0.000000000000000E+000
  0.000000000000000E+000
  0.000000000000000E+000
  0.000000000000000E+000
  0.000000000000000E+000
  0.000000000000000E+000
  0.000000000000000E+000
  0.000000000000000E+000
  0.000000000000000E+000
  0.000000000000000E+000
  0.000000000000000E+000
  0.000000000000000E+000
  0.000000000000000E+000
  0.000000000000000E+000
  0.000000000000000E+000
  0.000000000000000E+000
  0.000000000000000E+000
  0.000000000000000E+000
  0.000000000000000E+000
  0.000000000000000E+000
  0.000000000000000E+000
  0.000000000000000E+000
  0.000000000000000E+000
  0.000000000000000E+000
  0.000000000000000E+000
  0.000000000000000E+000
  0.000000000000000E+000
  0.000000000000000E+000
  0.000000000000000E+000
  0.000000000000000E+000
  0.000000000000000E+000
  0.000000000000000E+000
  0.000000000000000E+000
  0.000000000000000E+000
  0.000000000000000E+000
  0.000000000000000E+000
  0.000000000000000E+000
  0.000000000000000E+000
  0.000000000000000E+000
  0.000000000000000E+000
  0.000000000000000E+000
  0.000000000000000E+000
  0.000000000000000E+000
  0.000000000000000E+000
  0.000000000000000E+000
  0.000000000000000E+000
  0.000000000000000E+000
  0.000000000000000E+000
  0.000000000000000E+000
  0.000000000000000E+000
  0.000000000000000E+000
  0.000000000000000E+000
  0.000000000000000E+000
  0.000000000000000E+000
  0.000000000000000E+000
  0.000000000000000E+000
  0.000000000000000E+000
  0.000000000000000E+000
  0.000000000000000E+000
  0.000000000000000E+000
  0.000000000000000E+000
  0.000000000000000E+000
  0.000000000000000E+000
  0.000000000000000E+000
  0.000000000000000E+000
  0.000000000000000E+000
  0.000000000000000E+000
  0.000000000000000E+000
  0.000000000000000E+000
  0.000000000000000E+000
  0.000000000000000E+000
  0.000000000000000E+000
  0.000000000000000E+000
  0.000000000000000E+000
  0.000000000000000E+000
  0.000000000000000E+000
  0.000000000000000E+000
  0.000000000000000E+000
  0.000000000000000E+000
  0.000000000000000E+000
  0.000000000000000E+000
  0.000000000000000E+000
  0.000000000000000E+000
  0.000000000000000E+000
  0.000000000000000E+000
  0.000000000000000E+000
  0.000000000000000E+000
  0.000000000000000E+000
  0.000000000000000E+000
  0.000000000000000E+000
  0.000000000000000E+000
  0.000000000000000E+000
  0.000000000000000E+000
  0.000000000000000E+000
  0.000000000000000E+000
  0.000000000000000E+000
  0.000000000000000E+000
  0.000000000000000E+000
  0.000000000000000E+000
  0.000000000000000E+000
  0.000000000000000E+000
  0.000000000000000E+000
  0.000000000000000E+000
  0.000000000000000E+000
  0.000000000000000E+000
  0.000000000000000E+000
  0.000000000000000E+000
  0.000000000000000E+000
  0.000000000000000E+000
  0.000000000000000E+000
  0.000000000000000E+000
  0.000000000000000E+000
  0.000000000000000E+000
  0.000000000000000E+000
  0.000000000000000E+000
  0.000000000000000E+000
  0.000000000000000E+000
  0.000000000000000E+000
  0.000000000000000E+000
  0.000000000000000E+000
  0.000000000000000E+000
  0.000000000000000E+000
  0.000000000000000E+000
  0.000000000000000E+000
  0.000000000000000E+000
  0.000000000000000E+000
  0.000000000000000E+000
  0.000000000000000E+000
  0.000000000000000E+000
  0.000000000000000E+000
  0.000000000000000E+000
  0.000000000000000E+000
  0.000000000000000E+000
  0.000000000000000E+000
  0.000000000000000E+000
  0.000000000000000E+000
  0.000000000000000E+000
  0.000000000000000E+000
  0.000000000000000E+000
  0.000000000000000E+000
  0.000000000000000E+000
  0.000000000000000E+000
  0.000000000000000E+000
  0.000000000000000E+000
  0.000000000000000E+000
  0.000000000000000E+000
  0.000000000000000E+000
  0.000000000000000E+000
  0.000000000000000E+000
  0.000000000000000E+000
  0.000000000000000E+000
  0.000000000000000E+000
  0.000000000000000E+000
  0.000000000000000E+000
  0.000000000000000E+000
  0.000000000000000E+000
  0.000000000000000E+000
  0.000000000000000E+000
  0.000000000000000E+000
  0.000000000000000E+000
  0.000000000000000E+000
  0.000000000000000E+000
  0.000000000000000E+000
  0.000000000000000E+000
  0.000000000000000E+000
  0.000000000000000E+000
  0.000000000000000E+000
  0.000000000000000E+000
  0.000000000000000E+000
  0.000000000000000E+000
  0.000000000000000E+000
  0.000000000000000E+000
  0.000000000000000E+000
  0.000000000000000E+000
  0.000000000000000E+000
  0.000000000000000E+000
  0.000000000000000E+000
  0.000000000000000E+000
  0.000000000000000E+000
  0.000000000000000E+000
  0.000000000000000E+000
  0.000000000000000E+000
  0.000000000000000E+000
  0.000000000000000E+000
  0.000000000000000E+000
  0.000000000000000E+000
  0.000000000000000E+000
  0.000000000000000E+000
  0.000000000000000E+000
  0.000000000000000E+000
  0.000000000000000E+000
  0.000000000000000E+000
  0.000000000000000E+000
  0.000000000000000E+000
  0.000000000000000E+000
  0.000000000000000E+000
  0.000000000000000E+000
  0.000000000000000E+000
  0.000000000000000E+000
  0.000000000000000E+000
  0.000000000000000E+000
  0.000000000000000E+000
  0.000000000000000E+000
  0.000000000000000E+000
  0.000000000000000E+000
  0.000000000000000E+000
  0.000000000000000E+000
  0.000000000000000E+000
  0.000000000000000E+000
  0.000000000000000E+000
  0.000000000000000E+000
  0.000000000000000E+000
  0.000000000000000E+000
  0.000000000000000E+000
  0.000000000000000E+000
  0.000000000000000E+000
  0.000000000000000E+000
  0.000000000000000E+000
  0.000000000000000E+000
  0.000000000000000E+000
  0.000000000000000E+000
  0.000000000000000E+000
  0.000000000000000E+000
  0.000000000000000E+000
  0.000000000000000E+000
  0.000000000000000E+000
  0.000000000000000E+000
  0.000000000000000E+000
  0.000000000000000E+000
  0.000000000000000E+000
  0.000000000000000E+000
  0.000000000000000E+000
  0.000000000000000E+000
  0.000000000000000E+000
  0.000000000000000E+000
  0.000000000000000E+000
  0.000000000000000E+000
  0.000000000000000E+000
  0.000000000000000E+000
  0.000000000000000E+000
  0.000000000000000E+000
  0.000000000000000E+000
  0.000000000000000E+000
  0.000000000000000E+000
  0.000000000000000E+000
  0.000000000000000E+000
  0.000000000000000E+000
  0.000000000000000E+000
  0.000000000000000E+000
  0.000000000000000E+000
  0.000000000000000E+000
  0.000000000000000E+000
  0.000000000000000E+000
  0.000000000000000E+000
  0.000000000000000E+000
  0.000000000000000E+000
  0.000000000000000E+000
  0.000000000000000E+000
  0.000000000000000E+000
  0.000000000000000E+000
  0.000000000000000E+000
  0.000000000000000E+000
  0.000000000000000E+000
  0.000000000000000E+000
  0.000000000000000E+000
  0.000000000000000E+000
  0.000000000000000E+000
  0.000000000000000E+000
  0.000000000000000E+000
  0.000000000000000E+000
  0.000000000000000E+000
  0.000000000000000E+000
  0.000000000000000E+000
  0.000000000000000E+000
  0.000000000000000E+000
  0.000000000000000E+000
  0.000000000000000E+000
  0.000000000000000E+000
  0.000000000000000E+000
  0.000000000000000E+000
  0.000000000000000E+000
  0.000000000000000E+000
  0.000000000000000E+000
  0.000000000000000E+000
  0.000000000000000E+000
  0.000000000000000E+000
  0.000000000000000E+000
  0.000000000000000E+000
  0.000000000000000E+000
  0.000000000000000E+000
  0.000000000000000E+000
  0.000000000000000E+000
  0.000000000000000E+000
  0.000000000000000E+000
  0.000000000000000E+000
  0.000000000000000E+000
  0.000000000000000E+000
  0.000000000000000E+000
  0.000000000000000E+000
  0.000000000000000E+000
  0.000000000000000E+000
  0.000000000000000E+000
  0.000000000000000E+000
  0.000000000000000E+000
  0.000000000000000E+000
  0.000000000000000E+000
  0.000000000000000E+000
  0.000000000000000E+000
  0.000000000000000E+000
  0.000000000000000E+000
  0.000000000000000E+000
  0.000000000000000E+000
  0.000000000000000E+000
  0.000000000000000E+000
  0.000000000000000E+000
  0.000000000000000E+000
  0.000000000000000E+000
  0.000000000000000E+000
  0.000000000000000E+000
  0.000000000000000E+000
  0.000000000000000E+000
  0.000000000000000E+000
  0.000000000000000E+000
  0.000000000000000E+000
  0.000000000000000E+000
  0.000000000000000E+000
  0.000000000000000E+000
  0.000000000000000E+000
  0.000000000000000E+000
  0.000000000000000E+000
  0.000000000000000E+000
  0.000000000000000E+000
  0.000000000000000E+000
  0.000000000000000E+000
  0.000000000000000E+000
  0.000000000000000E+000
  0.000000000000000E+000
  0.000000000000000E+000
  0.000000000000000E+000
  0.000000000000000E+000
  0.000000000000000E+000
  0.000000000000000E+000
  0.000000000000000E+000
  0.000000000000000E+000
  0.000000000000000E+000
  0.000000000000000E+000
  0.000000000000000E+000
  0.000000000000000E+000
  0.000000000000000E+000
  0.000000000000000E+000
  0.000000000000000E+000
  0.000000000000000E+000
SCALARS poroL double 
LOOKUP_TABLE default
  0.253180506633981     
  0.252970605505267     
  0.252758446010365     
  0.252546883041303     
  0.252338296564814     
  0.252134644055281     
  0.251937513940555     
  0.251748178322568     
  0.251567643508018     
  0.251396697114578     
  0.251235950706475     
  0.251085877063163     
  0.250946841301359     
  0.250819125161055     
  0.250702943839165     
  0.253178656986209     
  0.252965385065083     
  0.252750382634608     
  0.252536454069513     
  0.252325925887367     
  0.252120701230499     
  0.251922315038995     
  0.251731988221087     
  0.251550679400937     
  0.251379133052544     
  0.251217923013635     
  0.251067490518058     
  0.250928175994438     
  0.250800243960086     
  0.250683900401457     
  0.253174167844295     
  0.252954199604646     
  0.252733561880994     
  0.252514955592350     
  0.252300598307037     
  0.252092282779160     
  0.251891435530436     
  0.251699173874194     
  0.251516360052681     
  0.251343651384909     
  0.251181545500984     
  0.251030419873093     
  0.250890564947922     
  0.250762210247912     
  0.250645542849087     
  0.253165448829650     
  0.252935552028312     
  0.252706590155619     
  0.252481102933354     
  0.252261139421867     
  0.252048322528110     
  0.251843912585296     
  0.251648868540656     
  0.251463905563436     
  0.251289548107876     
  0.251126177635532     
  0.250974074319999     
  0.250833452129510     
  0.250704486716829     
  0.250587335551952     
  0.253150088181190     
  0.252907177342286     
  0.252667363543167     
  0.252432960462098     
  0.252205783114311     
  0.251987220111754     
  0.251778303686677     
  0.251579776208506     
  0.251392152201860     
  0.251215775092876     
  0.251050868069586     
  0.250897578540557     
  0.250756015718409     
  0.250626280849072     
  0.250508489565742     
  0.253124822790054     
  0.252866020806511     
  0.252613052840512     
  0.252367932399036     
  0.252132167152370     
  0.251906840536769     
  0.251692689470898     
  0.251490177166294     
  0.251299560296352     
  0.251120950006397     
  0.250954366394485     
  0.250799786166894     
  0.250657183176537     
  0.250526561494920     
  0.250407980562185     
  0.253085500708478     
  0.252808211103971     
  0.252540085716593     
  0.252282752469753     
  0.252037329028370     
  0.251804515091237     
  0.251584678793396     
  0.251377936511421     
  0.251184225661072     
  0.251003370298933     
  0.250835139477418     
  0.250679298350024     
  0.250535651981660     
  0.250404081695423     
  0.250284573597968     
  0.253027038275100     
  0.252729030521861     
  0.252444127830366     
  0.252173474065928     
  0.251917703508871     
  0.251677044882316     
  0.251451417115168     
  0.251240516510334     
  0.251043895309488     
  0.250861031882960     
  0.250691392908034     
  0.250534487919110     
  0.250389916516463     
  0.250257408314872     
  0.250136855417895     
  0.252943374563005     
  0.252622884660019     
  0.252320065217962     
  0.252035463005750     
  0.251769123756069     
  0.251520708619630     
  0.251289599580071     
  0.251074993941306     
  0.250875988367784     
  0.250691653230406     
  0.250521098155104     
  0.250363529666447     
  0.250218301658554     
  0.250084959119007     
  0.249963275101026     
  0.252827426423467     
  0.252483274709605     
  0.252161990751989     
  0.251863395438899     
  0.251586828285651     
  0.251331276608374     
  0.251095490433770     
  0.250878083760136     
  0.250677623240202     
  0.250492705697282     
  0.250322026061763     
  0.250164437291740     
  0.250019003608764     
  0.249885047947867     
  0.249762193919933     
  0.252671047953569     
  0.252302775874910     
  0.251963197984677     
  0.251651263920776     
  0.251365476460837     
  0.251104033288107     
  0.250864950728646     
  0.250646170634402     
  0.250445652193962     
  0.250261450916499     
  0.250091787275015     
  0.249935107463691     
  0.249790138406164     
  0.249655938563140     
  0.249531945269831     
  0.252464998739881     
  0.252073026040648     
  0.251716186223012     
  0.251392395206856     
  0.251099175709775     
  0.250833811070462     
  0.250593476579143     
  0.250375350097825     
  0.250176704618397     
  0.249994986076066     
  0.249827880090545     
  0.249673371280931     
  0.249529798377839     
  0.249395907567229     
  0.249270905404826     
  0.252198925699208     
  0.251784729319031     
  0.251412681272290     
  0.251079483927158     
  0.250781524232515     
  0.250515038725296     
  0.250276250601867     
  0.250061481292261     
  0.249867240266673     
  0.249690297801848     
  0.249527745970272     
  0.249377053103666     
  0.249236116420688     
  0.249103316453273     
  0.248977575450332     
  0.251861363726521     
  0.251427679663109     
  0.251043676973284     
  0.250704647057614     
  0.250405673700475     
  0.250141808194889     
  0.249908209630180     
  0.249700253504943     
  0.249513613802486     
  0.249344325167885     
  0.249188832620775     
  0.249044036236475     
  0.248907337460554     
  0.248776692298172     
  0.248650674688317     
  0.251439760651181     
  0.250990810352351     
  0.250599503539799     
  0.250259505121809     
  0.249964417453172     
  0.249707964564938     
  0.249484132387085     
  0.249287268991942     
  0.249112151937089     
  0.248954032028293     
  0.248808663955054     
  0.248672334211609     
  0.248541895616121     
  0.248414815787092     
  0.248289244365183     
  0.250920532196269     
  0.250462275945503     
  0.250069929945175     
  0.249735297521895     
  0.249450311135690     
  0.249207225117033     
  0.248998751605870     
  0.248818144925271     
  0.248659244330562     
  0.248516488348935     
  0.248384915425733     
  0.248260165370348     
  0.248138494429238     
  0.248016814076402     
  0.247892760167419     
  0.250289152776192     
  0.249829574457020     
  0.249444309503531     
  0.249123041624217     
  0.248855834862382     
  0.248633335113524     
  0.248446896196513     
  0.248288637721346     
  0.248151449196822     
  0.248028959428632     
  0.247915492010391     
  0.247806026958662     
  0.247696185906218     
  0.247582254368560     
  0.247461249957166     
  0.249530288186087     
  0.249079719431057     
  0.248711780859628     
  0.248413748725306     
  0.248173609242883     
  0.247980270471091     
  0.247823670563193     
  0.247694793480760     
  0.247585614097616     
  0.247489000701808     
  0.247398604396738     
  0.247308762892639     
  0.247214441914237     
  0.247111231882013     
  0.246995411275363     
  0.248627976834063     
  0.248199474977346     
  0.247861541739445     
  0.247598715633185     
  0.247396682564552     
  0.247242501070125     
  0.247124680141295     
  0.247033128690662     
  0.246959011555655     
  0.246894553996918     
  0.246832836438720     
  0.246767616498684     
  0.246693208514906     
  0.246604443033379     
  0.246496720452225     
  0.247565867769894     
  0.247175673034336     
  0.246883221612663     
  0.246669919682545     
  0.246518913940497     
  0.246415333422136     
  0.246346314548208     
  0.246300845436011     
  0.246269487551271     
  0.246244038390881     
  0.246217193438622     
  0.246182255591046     
  0.246132929826255     
  0.246063230951605     
  0.245967521922829     
  0.246327527617103     
  0.245995643697613     
  0.245767394757267     
  0.245620559805306     
  0.245535488410832     
  0.245495357849772     
  0.245486101923396     
  0.245496084525078     
  0.245515618220014     
  0.245536424808962     
  0.245551115903277     
  0.245552751770753     
  0.245534522515636     
  0.245489585627536     
  0.245411082614248     
  0.244896837143726     
  0.244647811453559     
  0.244506302536786     
  0.244445810471625     
  0.244443615997885     
  0.244481032424271     
  0.244543148572250     
  0.244618216952606     
  0.244696865594396     
  0.244771278098068     
  0.244834436855478     
  0.244879488128288     
  0.244899274099429     
  0.244886074360391     
  0.244831592150701     
  0.243258516637085     
  0.243122553459029     
  0.243094903552737     
  0.243143894970762     
  0.243243487708588     
  0.243373440372311     
  0.243518673174412     
  0.243668166946351     
  0.243813716810473     
  0.243948744166046     
  0.244067252721840     
  0.244162958572264     
  0.244228625708507     
  0.244255667844116     
  0.244234084901170     
  0.241398860134634     
  0.241413504156267     
  0.241532465617523     
  0.241717647951260     
  0.241939583500968     
  0.242177249234716     
  0.242416626591514     
  0.242648745445019     
  0.242867784525223     
  0.243069455975164     
  0.243249670321584     
  0.243403405769576     
  0.243523778239992     
  0.243601407894937     
  0.243624253265815     
  0.239306845317661     
  0.239519690750900     
  0.239825097600956     
  0.240176836569656     
  0.240542427213998     
  0.240901853688915     
  0.241244341205362     
  0.241564949730469     
  0.241861845098576     
  0.242134341237802     
  0.242381390332861     
  0.242600222812360     
  0.242785016256480     
  0.242925822116619     
  0.243008106662011     
  0.236976048261140     
  0.237449334403834     
  0.237990025831524     
  0.238541609000774     
  0.239070794772438     
  0.239562537999615     
  0.240013061610694     
  0.240424157670371     
  0.240799813117097     
  0.241144351532410     
  0.241461121030801     
  0.241751004289019     
  0.242010561864176     
  0.242229878445951     
  0.242391395802336     
  0.234408312743647     
  0.235227641963357     
  0.236063081567980     
  0.236847445820342     
  0.237553917803376     
  0.238181176885086     
  0.238738102541057     
  0.239236131245598     
  0.239686693603365     
  0.240100274226420     
  0.240485887417957     
  0.240850184182382     
  0.241194495979257     
  0.241511047201807     
  0.241778558849274     
  0.231624406196048     
  0.232913981327125     
  0.234112781422583     
  0.235150265817141     
  0.236031971958180     
  0.236785744266090     
  0.237438328565353     
  0.238012771884744     
  0.238528623969184     
  0.239002891183461     
  0.239450956113238     
  0.239886993020440     
  0.240323324547474     
  0.240758701079598     
  0.241170767182617     
  0.228694771575224     
  0.230655333756285     
  0.232256549407441     
  0.233523990263972     
  0.234552949959373     
  0.235407903463569     
  0.236134815345575     
  0.236767661511519     
  0.237333137699936     
  0.237853873624183     
  0.238350988648142     
  0.238846632624129     
  0.239366459189154     
  0.239945427034016     
  0.240558458408759     
  0.226008124662895     
  0.228759657462996     
  0.230634358380258     
  0.232047377240806     
  0.233164563011292     
  0.234078861325490     
  0.234848926991306     
  0.235515566796997     
  0.236109762283926     
  0.236657481405335     
  0.237183367112389     
  0.237714748341567     
  0.238288389087193     
  0.238964828755788     
  0.239911967062931     
