# vtk DataFile Version 3.0
vtk output
ASCII
DATASET UNSTRUCTURED_GRID
POINTS       496 double 
  0.00000000E+00  3.00000000E+02  0.00000000E+00
  0.00000000E+00  2.80000000E+02  0.00000000E+00
  0.00000000E+00  2.60000000E+02  0.00000000E+00
  0.00000000E+00  2.40000000E+02  0.00000000E+00
  0.00000000E+00  2.20000000E+02  0.00000000E+00
  0.00000000E+00  2.00000000E+02  0.00000000E+00
  0.00000000E+00  1.80000000E+02  0.00000000E+00
  0.00000000E+00  1.60000000E+02  0.00000000E+00
  0.00000000E+00  1.40000000E+02  0.00000000E+00
  0.00000000E+00  1.20000000E+02  0.00000000E+00
  0.00000000E+00  1.00000000E+02  0.00000000E+00
  0.00000000E+00  8.00000000E+01  0.00000000E+00
  0.00000000E+00  6.00000000E+01  0.00000000E+00
  0.00000000E+00  4.00000000E+01  0.00000000E+00
  0.00000000E+00  2.00000000E+01  0.00000000E+00
  0.00000000E+00  4.99600361E-14  0.00000000E+00
  2.00000000E+01  3.00000000E+02  0.00000000E+00
  2.00000000E+01  2.80000000E+02  0.00000000E+00
  2.00000000E+01  2.60000000E+02  0.00000000E+00
  2.00000000E+01  2.40000000E+02  0.00000000E+00
  2.00000000E+01  2.20000000E+02  0.00000000E+00
  2.00000000E+01  2.00000000E+02  0.00000000E+00
  2.00000000E+01  1.80000000E+02  0.00000000E+00
  2.00000000E+01  1.60000000E+02  0.00000000E+00
  2.00000000E+01  1.40000000E+02  0.00000000E+00
  2.00000000E+01  1.20000000E+02  0.00000000E+00
  2.00000000E+01  1.00000000E+02  0.00000000E+00
  2.00000000E+01  8.00000000E+01  0.00000000E+00
  2.00000000E+01  6.00000000E+01  0.00000000E+00
  2.00000000E+01  4.00000000E+01  0.00000000E+00
  2.00000000E+01  2.00000000E+01  0.00000000E+00
  2.00000000E+01  4.99600361E-14  0.00000000E+00
  4.00000000E+01  3.00000000E+02  0.00000000E+00
  4.00000000E+01  2.80000000E+02  0.00000000E+00
  4.00000000E+01  2.60000000E+02  0.00000000E+00
  4.00000000E+01  2.40000000E+02  0.00000000E+00
  4.00000000E+01  2.20000000E+02  0.00000000E+00
  4.00000000E+01  2.00000000E+02  0.00000000E+00
  4.00000000E+01  1.80000000E+02  0.00000000E+00
  4.00000000E+01  1.60000000E+02  0.00000000E+00
  4.00000000E+01  1.40000000E+02  0.00000000E+00
  4.00000000E+01  1.20000000E+02  0.00000000E+00
  4.00000000E+01  1.00000000E+02  0.00000000E+00
  4.00000000E+01  8.00000000E+01  0.00000000E+00
  4.00000000E+01  6.00000000E+01  0.00000000E+00
  4.00000000E+01  4.00000000E+01  0.00000000E+00
  4.00000000E+01  2.00000000E+01  0.00000000E+00
  4.00000000E+01  4.99600361E-14  0.00000000E+00
  6.00000000E+01  3.00000000E+02  0.00000000E+00
  6.00000000E+01  2.80000000E+02  0.00000000E+00
  6.00000000E+01  2.60000000E+02  0.00000000E+00
  6.00000000E+01  2.40000000E+02  0.00000000E+00
  6.00000000E+01  2.20000000E+02  0.00000000E+00
  6.00000000E+01  2.00000000E+02  0.00000000E+00
  6.00000000E+01  1.80000000E+02  0.00000000E+00
  6.00000000E+01  1.60000000E+02  0.00000000E+00
  6.00000000E+01  1.40000000E+02  0.00000000E+00
  6.00000000E+01  1.20000000E+02  0.00000000E+00
  6.00000000E+01  1.00000000E+02  0.00000000E+00
  6.00000000E+01  8.00000000E+01  0.00000000E+00
  6.00000000E+01  6.00000000E+01  0.00000000E+00
  6.00000000E+01  4.00000000E+01  0.00000000E+00
  6.00000000E+01  2.00000000E+01  0.00000000E+00
  6.00000000E+01  4.99600361E-14  0.00000000E+00
  8.00000000E+01  3.00000000E+02  0.00000000E+00
  8.00000000E+01  2.80000000E+02  0.00000000E+00
  8.00000000E+01  2.60000000E+02  0.00000000E+00
  8.00000000E+01  2.40000000E+02  0.00000000E+00
  8.00000000E+01  2.20000000E+02  0.00000000E+00
  8.00000000E+01  2.00000000E+02  0.00000000E+00
  8.00000000E+01  1.80000000E+02  0.00000000E+00
  8.00000000E+01  1.60000000E+02  0.00000000E+00
  8.00000000E+01  1.40000000E+02  0.00000000E+00
  8.00000000E+01  1.20000000E+02  0.00000000E+00
  8.00000000E+01  1.00000000E+02  0.00000000E+00
  8.00000000E+01  8.00000000E+01  0.00000000E+00
  8.00000000E+01  6.00000000E+01  0.00000000E+00
  8.00000000E+01  4.00000000E+01  0.00000000E+00
  8.00000000E+01  2.00000000E+01  0.00000000E+00
  8.00000000E+01  4.99600361E-14  0.00000000E+00
  1.00000000E+02  3.00000000E+02  0.00000000E+00
  1.00000000E+02  2.80000000E+02  0.00000000E+00
  1.00000000E+02  2.60000000E+02  0.00000000E+00
  1.00000000E+02  2.40000000E+02  0.00000000E+00
  1.00000000E+02  2.20000000E+02  0.00000000E+00
  1.00000000E+02  2.00000000E+02  0.00000000E+00
  1.00000000E+02  1.80000000E+02  0.00000000E+00
  1.00000000E+02  1.60000000E+02  0.00000000E+00
  1.00000000E+02  1.40000000E+02  0.00000000E+00
  1.00000000E+02  1.20000000E+02  0.00000000E+00
  1.00000000E+02  1.00000000E+02  0.00000000E+00
  1.00000000E+02  8.00000000E+01  0.00000000E+00
  1.00000000E+02  6.00000000E+01  0.00000000E+00
  1.00000000E+02  4.00000000E+01  0.00000000E+00
  1.00000000E+02  2.00000000E+01  0.00000000E+00
  1.00000000E+02  4.99600361E-14  0.00000000E+00
  1.20000000E+02  3.00000000E+02  0.00000000E+00
  1.20000000E+02  2.80000000E+02  0.00000000E+00
  1.20000000E+02  2.60000000E+02  0.00000000E+00
  1.20000000E+02  2.40000000E+02  0.00000000E+00
  1.20000000E+02  2.20000000E+02  0.00000000E+00
  1.20000000E+02  2.00000000E+02  0.00000000E+00
  1.20000000E+02  1.80000000E+02  0.00000000E+00
  1.20000000E+02  1.60000000E+02  0.00000000E+00
  1.20000000E+02  1.40000000E+02  0.00000000E+00
  1.20000000E+02  1.20000000E+02  0.00000000E+00
  1.20000000E+02  1.00000000E+02  0.00000000E+00
  1.20000000E+02  8.00000000E+01  0.00000000E+00
  1.20000000E+02  6.00000000E+01  0.00000000E+00
  1.20000000E+02  4.00000000E+01  0.00000000E+00
  1.20000000E+02  2.00000000E+01  0.00000000E+00
  1.20000000E+02  4.99600361E-14  0.00000000E+00
  1.40000000E+02  3.00000000E+02  0.00000000E+00
  1.40000000E+02  2.80000000E+02  0.00000000E+00
  1.40000000E+02  2.60000000E+02  0.00000000E+00
  1.40000000E+02  2.40000000E+02  0.00000000E+00
  1.40000000E+02  2.20000000E+02  0.00000000E+00
  1.40000000E+02  2.00000000E+02  0.00000000E+00
  1.40000000E+02  1.80000000E+02  0.00000000E+00
  1.40000000E+02  1.60000000E+02  0.00000000E+00
  1.40000000E+02  1.40000000E+02  0.00000000E+00
  1.40000000E+02  1.20000000E+02  0.00000000E+00
  1.40000000E+02  1.00000000E+02  0.00000000E+00
  1.40000000E+02  8.00000000E+01  0.00000000E+00
  1.40000000E+02  6.00000000E+01  0.00000000E+00
  1.40000000E+02  4.00000000E+01  0.00000000E+00
  1.40000000E+02  2.00000000E+01  0.00000000E+00
  1.40000000E+02  4.99600361E-14  0.00000000E+00
  1.60000000E+02  3.00000000E+02  0.00000000E+00
  1.60000000E+02  2.80000000E+02  0.00000000E+00
  1.60000000E+02  2.60000000E+02  0.00000000E+00
  1.60000000E+02  2.40000000E+02  0.00000000E+00
  1.60000000E+02  2.20000000E+02  0.00000000E+00
  1.60000000E+02  2.00000000E+02  0.00000000E+00
  1.60000000E+02  1.80000000E+02  0.00000000E+00
  1.60000000E+02  1.60000000E+02  0.00000000E+00
  1.60000000E+02  1.40000000E+02  0.00000000E+00
  1.60000000E+02  1.20000000E+02  0.00000000E+00
  1.60000000E+02  1.00000000E+02  0.00000000E+00
  1.60000000E+02  8.00000000E+01  0.00000000E+00
  1.60000000E+02  6.00000000E+01  0.00000000E+00
  1.60000000E+02  4.00000000E+01  0.00000000E+00
  1.60000000E+02  2.00000000E+01  0.00000000E+00
  1.60000000E+02  4.99600361E-14  0.00000000E+00
  1.80000000E+02  3.00000000E+02  0.00000000E+00
  1.80000000E+02  2.80000000E+02  0.00000000E+00
  1.80000000E+02  2.60000000E+02  0.00000000E+00
  1.80000000E+02  2.40000000E+02  0.00000000E+00
  1.80000000E+02  2.20000000E+02  0.00000000E+00
  1.80000000E+02  2.00000000E+02  0.00000000E+00
  1.80000000E+02  1.80000000E+02  0.00000000E+00
  1.80000000E+02  1.60000000E+02  0.00000000E+00
  1.80000000E+02  1.40000000E+02  0.00000000E+00
  1.80000000E+02  1.20000000E+02  0.00000000E+00
  1.80000000E+02  1.00000000E+02  0.00000000E+00
  1.80000000E+02  8.00000000E+01  0.00000000E+00
  1.80000000E+02  6.00000000E+01  0.00000000E+00
  1.80000000E+02  4.00000000E+01  0.00000000E+00
  1.80000000E+02  2.00000000E+01  0.00000000E+00
  1.80000000E+02  4.99600361E-14  0.00000000E+00
  2.00000000E+02  3.00000000E+02  0.00000000E+00
  2.00000000E+02  2.80000000E+02  0.00000000E+00
  2.00000000E+02  2.60000000E+02  0.00000000E+00
  2.00000000E+02  2.40000000E+02  0.00000000E+00
  2.00000000E+02  2.20000000E+02  0.00000000E+00
  2.00000000E+02  2.00000000E+02  0.00000000E+00
  2.00000000E+02  1.80000000E+02  0.00000000E+00
  2.00000000E+02  1.60000000E+02  0.00000000E+00
  2.00000000E+02  1.40000000E+02  0.00000000E+00
  2.00000000E+02  1.20000000E+02  0.00000000E+00
  2.00000000E+02  1.00000000E+02  0.00000000E+00
  2.00000000E+02  8.00000000E+01  0.00000000E+00
  2.00000000E+02  6.00000000E+01  0.00000000E+00
  2.00000000E+02  4.00000000E+01  0.00000000E+00
  2.00000000E+02  2.00000000E+01  0.00000000E+00
  2.00000000E+02  4.99600361E-14  0.00000000E+00
  2.20000000E+02  3.00000000E+02  0.00000000E+00
  2.20000000E+02  2.80000000E+02  0.00000000E+00
  2.20000000E+02  2.60000000E+02  0.00000000E+00
  2.20000000E+02  2.40000000E+02  0.00000000E+00
  2.20000000E+02  2.20000000E+02  0.00000000E+00
  2.20000000E+02  2.00000000E+02  0.00000000E+00
  2.20000000E+02  1.80000000E+02  0.00000000E+00
  2.20000000E+02  1.60000000E+02  0.00000000E+00
  2.20000000E+02  1.40000000E+02  0.00000000E+00
  2.20000000E+02  1.20000000E+02  0.00000000E+00
  2.20000000E+02  1.00000000E+02  0.00000000E+00
  2.20000000E+02  8.00000000E+01  0.00000000E+00
  2.20000000E+02  6.00000000E+01  0.00000000E+00
  2.20000000E+02  4.00000000E+01  0.00000000E+00
  2.20000000E+02  2.00000000E+01  0.00000000E+00
  2.20000000E+02  4.99600361E-14  0.00000000E+00
  2.40000000E+02  3.00000000E+02  0.00000000E+00
  2.40000000E+02  2.80000000E+02  0.00000000E+00
  2.40000000E+02  2.60000000E+02  0.00000000E+00
  2.40000000E+02  2.40000000E+02  0.00000000E+00
  2.40000000E+02  2.20000000E+02  0.00000000E+00
  2.40000000E+02  2.00000000E+02  0.00000000E+00
  2.40000000E+02  1.80000000E+02  0.00000000E+00
  2.40000000E+02  1.60000000E+02  0.00000000E+00
  2.40000000E+02  1.40000000E+02  0.00000000E+00
  2.40000000E+02  1.20000000E+02  0.00000000E+00
  2.40000000E+02  1.00000000E+02  0.00000000E+00
  2.40000000E+02  8.00000000E+01  0.00000000E+00
  2.40000000E+02  6.00000000E+01  0.00000000E+00
  2.40000000E+02  4.00000000E+01  0.00000000E+00
  2.40000000E+02  2.00000000E+01  0.00000000E+00
  2.40000000E+02  4.99600361E-14  0.00000000E+00
  2.60000000E+02  3.00000000E+02  0.00000000E+00
  2.60000000E+02  2.80000000E+02  0.00000000E+00
  2.60000000E+02  2.60000000E+02  0.00000000E+00
  2.60000000E+02  2.40000000E+02  0.00000000E+00
  2.60000000E+02  2.20000000E+02  0.00000000E+00
  2.60000000E+02  2.00000000E+02  0.00000000E+00
  2.60000000E+02  1.80000000E+02  0.00000000E+00
  2.60000000E+02  1.60000000E+02  0.00000000E+00
  2.60000000E+02  1.40000000E+02  0.00000000E+00
  2.60000000E+02  1.20000000E+02  0.00000000E+00
  2.60000000E+02  1.00000000E+02  0.00000000E+00
  2.60000000E+02  8.00000000E+01  0.00000000E+00
  2.60000000E+02  6.00000000E+01  0.00000000E+00
  2.60000000E+02  4.00000000E+01  0.00000000E+00
  2.60000000E+02  2.00000000E+01  0.00000000E+00
  2.60000000E+02  4.99600361E-14  0.00000000E+00
  2.80000000E+02  3.00000000E+02  0.00000000E+00
  2.80000000E+02  2.80000000E+02  0.00000000E+00
  2.80000000E+02  2.60000000E+02  0.00000000E+00
  2.80000000E+02  2.40000000E+02  0.00000000E+00
  2.80000000E+02  2.20000000E+02  0.00000000E+00
  2.80000000E+02  2.00000000E+02  0.00000000E+00
  2.80000000E+02  1.80000000E+02  0.00000000E+00
  2.80000000E+02  1.60000000E+02  0.00000000E+00
  2.80000000E+02  1.40000000E+02  0.00000000E+00
  2.80000000E+02  1.20000000E+02  0.00000000E+00
  2.80000000E+02  1.00000000E+02  0.00000000E+00
  2.80000000E+02  8.00000000E+01  0.00000000E+00
  2.80000000E+02  6.00000000E+01  0.00000000E+00
  2.80000000E+02  4.00000000E+01  0.00000000E+00
  2.80000000E+02  2.00000000E+01  0.00000000E+00
  2.80000000E+02  4.99600361E-14  0.00000000E+00
  3.00000000E+02  3.00000000E+02  0.00000000E+00
  3.00000000E+02  2.80000000E+02  0.00000000E+00
  3.00000000E+02  2.60000000E+02  0.00000000E+00
  3.00000000E+02  2.40000000E+02  0.00000000E+00
  3.00000000E+02  2.20000000E+02  0.00000000E+00
  3.00000000E+02  2.00000000E+02  0.00000000E+00
  3.00000000E+02  1.80000000E+02  0.00000000E+00
  3.00000000E+02  1.60000000E+02  0.00000000E+00
  3.00000000E+02  1.40000000E+02  0.00000000E+00
  3.00000000E+02  1.20000000E+02  0.00000000E+00
  3.00000000E+02  1.00000000E+02  0.00000000E+00
  3.00000000E+02  8.00000000E+01  0.00000000E+00
  3.00000000E+02  6.00000000E+01  0.00000000E+00
  3.00000000E+02  4.00000000E+01  0.00000000E+00
  3.00000000E+02  2.00000000E+01  0.00000000E+00
  3.00000000E+02  4.99600361E-14  0.00000000E+00
  3.20000000E+02  3.00000000E+02  0.00000000E+00
  3.20000000E+02  2.80000000E+02  0.00000000E+00
  3.20000000E+02  2.60000000E+02  0.00000000E+00
  3.20000000E+02  2.40000000E+02  0.00000000E+00
  3.20000000E+02  2.20000000E+02  0.00000000E+00
  3.20000000E+02  2.00000000E+02  0.00000000E+00
  3.20000000E+02  1.80000000E+02  0.00000000E+00
  3.20000000E+02  1.60000000E+02  0.00000000E+00
  3.20000000E+02  1.40000000E+02  0.00000000E+00
  3.20000000E+02  1.20000000E+02  0.00000000E+00
  3.20000000E+02  1.00000000E+02  0.00000000E+00
  3.20000000E+02  8.00000000E+01  0.00000000E+00
  3.20000000E+02  6.00000000E+01  0.00000000E+00
  3.20000000E+02  4.00000000E+01  0.00000000E+00
  3.20000000E+02  2.00000000E+01  0.00000000E+00
  3.20000000E+02  4.99600361E-14  0.00000000E+00
  3.40000000E+02  3.00000000E+02  0.00000000E+00
  3.40000000E+02  2.80000000E+02  0.00000000E+00
  3.40000000E+02  2.60000000E+02  0.00000000E+00
  3.40000000E+02  2.40000000E+02  0.00000000E+00
  3.40000000E+02  2.20000000E+02  0.00000000E+00
  3.40000000E+02  2.00000000E+02  0.00000000E+00
  3.40000000E+02  1.80000000E+02  0.00000000E+00
  3.40000000E+02  1.60000000E+02  0.00000000E+00
  3.40000000E+02  1.40000000E+02  0.00000000E+00
  3.40000000E+02  1.20000000E+02  0.00000000E+00
  3.40000000E+02  1.00000000E+02  0.00000000E+00
  3.40000000E+02  8.00000000E+01  0.00000000E+00
  3.40000000E+02  6.00000000E+01  0.00000000E+00
  3.40000000E+02  4.00000000E+01  0.00000000E+00
  3.40000000E+02  2.00000000E+01  0.00000000E+00
  3.40000000E+02  4.99600361E-14  0.00000000E+00
  3.60000000E+02  3.00000000E+02  0.00000000E+00
  3.60000000E+02  2.80000000E+02  0.00000000E+00
  3.60000000E+02  2.60000000E+02  0.00000000E+00
  3.60000000E+02  2.40000000E+02  0.00000000E+00
  3.60000000E+02  2.20000000E+02  0.00000000E+00
  3.60000000E+02  2.00000000E+02  0.00000000E+00
  3.60000000E+02  1.80000000E+02  0.00000000E+00
  3.60000000E+02  1.60000000E+02  0.00000000E+00
  3.60000000E+02  1.40000000E+02  0.00000000E+00
  3.60000000E+02  1.20000000E+02  0.00000000E+00
  3.60000000E+02  1.00000000E+02  0.00000000E+00
  3.60000000E+02  8.00000000E+01  0.00000000E+00
  3.60000000E+02  6.00000000E+01  0.00000000E+00
  3.60000000E+02  4.00000000E+01  0.00000000E+00
  3.60000000E+02  2.00000000E+01  0.00000000E+00
  3.60000000E+02  4.99600361E-14  0.00000000E+00
  3.80000000E+02  3.00000000E+02  0.00000000E+00
  3.80000000E+02  2.80000000E+02  0.00000000E+00
  3.80000000E+02  2.60000000E+02  0.00000000E+00
  3.80000000E+02  2.40000000E+02  0.00000000E+00
  3.80000000E+02  2.20000000E+02  0.00000000E+00
  3.80000000E+02  2.00000000E+02  0.00000000E+00
  3.80000000E+02  1.80000000E+02  0.00000000E+00
  3.80000000E+02  1.60000000E+02  0.00000000E+00
  3.80000000E+02  1.40000000E+02  0.00000000E+00
  3.80000000E+02  1.20000000E+02  0.00000000E+00
  3.80000000E+02  1.00000000E+02  0.00000000E+00
  3.80000000E+02  8.00000000E+01  0.00000000E+00
  3.80000000E+02  6.00000000E+01  0.00000000E+00
  3.80000000E+02  4.00000000E+01  0.00000000E+00
  3.80000000E+02  2.00000000E+01  0.00000000E+00
  3.80000000E+02  4.99600361E-14  0.00000000E+00
  4.00000000E+02  3.00000000E+02  0.00000000E+00
  4.00000000E+02  2.80000000E+02  0.00000000E+00
  4.00000000E+02  2.60000000E+02  0.00000000E+00
  4.00000000E+02  2.40000000E+02  0.00000000E+00
  4.00000000E+02  2.20000000E+02  0.00000000E+00
  4.00000000E+02  2.00000000E+02  0.00000000E+00
  4.00000000E+02  1.80000000E+02  0.00000000E+00
  4.00000000E+02  1.60000000E+02  0.00000000E+00
  4.00000000E+02  1.40000000E+02  0.00000000E+00
  4.00000000E+02  1.20000000E+02  0.00000000E+00
  4.00000000E+02  1.00000000E+02  0.00000000E+00
  4.00000000E+02  8.00000000E+01  0.00000000E+00
  4.00000000E+02  6.00000000E+01  0.00000000E+00
  4.00000000E+02  4.00000000E+01  0.00000000E+00
  4.00000000E+02  2.00000000E+01  0.00000000E+00
  4.00000000E+02  4.99600361E-14  0.00000000E+00
  4.20000000E+02  3.00000000E+02  0.00000000E+00
  4.20000000E+02  2.80000000E+02  0.00000000E+00
  4.20000000E+02  2.60000000E+02  0.00000000E+00
  4.20000000E+02  2.40000000E+02  0.00000000E+00
  4.20000000E+02  2.20000000E+02  0.00000000E+00
  4.20000000E+02  2.00000000E+02  0.00000000E+00
  4.20000000E+02  1.80000000E+02  0.00000000E+00
  4.20000000E+02  1.60000000E+02  0.00000000E+00
  4.20000000E+02  1.40000000E+02  0.00000000E+00
  4.20000000E+02  1.20000000E+02  0.00000000E+00
  4.20000000E+02  1.00000000E+02  0.00000000E+00
  4.20000000E+02  8.00000000E+01  0.00000000E+00
  4.20000000E+02  6.00000000E+01  0.00000000E+00
  4.20000000E+02  4.00000000E+01  0.00000000E+00
  4.20000000E+02  2.00000000E+01  0.00000000E+00
  4.20000000E+02  4.99600361E-14  0.00000000E+00
  4.40000000E+02  3.00000000E+02  0.00000000E+00
  4.40000000E+02  2.80000000E+02  0.00000000E+00
  4.40000000E+02  2.60000000E+02  0.00000000E+00
  4.40000000E+02  2.40000000E+02  0.00000000E+00
  4.40000000E+02  2.20000000E+02  0.00000000E+00
  4.40000000E+02  2.00000000E+02  0.00000000E+00
  4.40000000E+02  1.80000000E+02  0.00000000E+00
  4.40000000E+02  1.60000000E+02  0.00000000E+00
  4.40000000E+02  1.40000000E+02  0.00000000E+00
  4.40000000E+02  1.20000000E+02  0.00000000E+00
  4.40000000E+02  1.00000000E+02  0.00000000E+00
  4.40000000E+02  8.00000000E+01  0.00000000E+00
  4.40000000E+02  6.00000000E+01  0.00000000E+00
  4.40000000E+02  4.00000000E+01  0.00000000E+00
  4.40000000E+02  2.00000000E+01  0.00000000E+00
  4.40000000E+02  4.99600361E-14  0.00000000E+00
  4.60000000E+02  3.00000000E+02  0.00000000E+00
  4.60000000E+02  2.80000000E+02  0.00000000E+00
  4.60000000E+02  2.60000000E+02  0.00000000E+00
  4.60000000E+02  2.40000000E+02  0.00000000E+00
  4.60000000E+02  2.20000000E+02  0.00000000E+00
  4.60000000E+02  2.00000000E+02  0.00000000E+00
  4.60000000E+02  1.80000000E+02  0.00000000E+00
  4.60000000E+02  1.60000000E+02  0.00000000E+00
  4.60000000E+02  1.40000000E+02  0.00000000E+00
  4.60000000E+02  1.20000000E+02  0.00000000E+00
  4.60000000E+02  1.00000000E+02  0.00000000E+00
  4.60000000E+02  8.00000000E+01  0.00000000E+00
  4.60000000E+02  6.00000000E+01  0.00000000E+00
  4.60000000E+02  4.00000000E+01  0.00000000E+00
  4.60000000E+02  2.00000000E+01  0.00000000E+00
  4.60000000E+02  4.99600361E-14  0.00000000E+00
  4.80000000E+02  3.00000000E+02  0.00000000E+00
  4.80000000E+02  2.80000000E+02  0.00000000E+00
  4.80000000E+02  2.60000000E+02  0.00000000E+00
  4.80000000E+02  2.40000000E+02  0.00000000E+00
  4.80000000E+02  2.20000000E+02  0.00000000E+00
  4.80000000E+02  2.00000000E+02  0.00000000E+00
  4.80000000E+02  1.80000000E+02  0.00000000E+00
  4.80000000E+02  1.60000000E+02  0.00000000E+00
  4.80000000E+02  1.40000000E+02  0.00000000E+00
  4.80000000E+02  1.20000000E+02  0.00000000E+00
  4.80000000E+02  1.00000000E+02  0.00000000E+00
  4.80000000E+02  8.00000000E+01  0.00000000E+00
  4.80000000E+02  6.00000000E+01  0.00000000E+00
  4.80000000E+02  4.00000000E+01  0.00000000E+00
  4.80000000E+02  2.00000000E+01  0.00000000E+00
  4.80000000E+02  4.99600361E-14  0.00000000E+00
  5.00000000E+02  3.00000000E+02  0.00000000E+00
  5.00000000E+02  2.80000000E+02  0.00000000E+00
  5.00000000E+02  2.60000000E+02  0.00000000E+00
  5.00000000E+02  2.40000000E+02  0.00000000E+00
  5.00000000E+02  2.20000000E+02  0.00000000E+00
  5.00000000E+02  2.00000000E+02  0.00000000E+00
  5.00000000E+02  1.80000000E+02  0.00000000E+00
  5.00000000E+02  1.60000000E+02  0.00000000E+00
  5.00000000E+02  1.40000000E+02  0.00000000E+00
  5.00000000E+02  1.20000000E+02  0.00000000E+00
  5.00000000E+02  1.00000000E+02  0.00000000E+00
  5.00000000E+02  8.00000000E+01  0.00000000E+00
  5.00000000E+02  6.00000000E+01  0.00000000E+00
  5.00000000E+02  4.00000000E+01  0.00000000E+00
  5.00000000E+02  2.00000000E+01  0.00000000E+00
  5.00000000E+02  4.99600361E-14  0.00000000E+00
  5.20000000E+02  3.00000000E+02  0.00000000E+00
  5.20000000E+02  2.80000000E+02  0.00000000E+00
  5.20000000E+02  2.60000000E+02  0.00000000E+00
  5.20000000E+02  2.40000000E+02  0.00000000E+00
  5.20000000E+02  2.20000000E+02  0.00000000E+00
  5.20000000E+02  2.00000000E+02  0.00000000E+00
  5.20000000E+02  1.80000000E+02  0.00000000E+00
  5.20000000E+02  1.60000000E+02  0.00000000E+00
  5.20000000E+02  1.40000000E+02  0.00000000E+00
  5.20000000E+02  1.20000000E+02  0.00000000E+00
  5.20000000E+02  1.00000000E+02  0.00000000E+00
  5.20000000E+02  8.00000000E+01  0.00000000E+00
  5.20000000E+02  6.00000000E+01  0.00000000E+00
  5.20000000E+02  4.00000000E+01  0.00000000E+00
  5.20000000E+02  2.00000000E+01  0.00000000E+00
  5.20000000E+02  4.99600361E-14  0.00000000E+00
  5.40000000E+02  3.00000000E+02  0.00000000E+00
  5.40000000E+02  2.80000000E+02  0.00000000E+00
  5.40000000E+02  2.60000000E+02  0.00000000E+00
  5.40000000E+02  2.40000000E+02  0.00000000E+00
  5.40000000E+02  2.20000000E+02  0.00000000E+00
  5.40000000E+02  2.00000000E+02  0.00000000E+00
  5.40000000E+02  1.80000000E+02  0.00000000E+00
  5.40000000E+02  1.60000000E+02  0.00000000E+00
  5.40000000E+02  1.40000000E+02  0.00000000E+00
  5.40000000E+02  1.20000000E+02  0.00000000E+00
  5.40000000E+02  1.00000000E+02  0.00000000E+00
  5.40000000E+02  8.00000000E+01  0.00000000E+00
  5.40000000E+02  6.00000000E+01  0.00000000E+00
  5.40000000E+02  4.00000000E+01  0.00000000E+00
  5.40000000E+02  2.00000000E+01  0.00000000E+00
  5.40000000E+02  4.99600361E-14  0.00000000E+00
  5.60000000E+02  3.00000000E+02  0.00000000E+00
  5.60000000E+02  2.80000000E+02  0.00000000E+00
  5.60000000E+02  2.60000000E+02  0.00000000E+00
  5.60000000E+02  2.40000000E+02  0.00000000E+00
  5.60000000E+02  2.20000000E+02  0.00000000E+00
  5.60000000E+02  2.00000000E+02  0.00000000E+00
  5.60000000E+02  1.80000000E+02  0.00000000E+00
  5.60000000E+02  1.60000000E+02  0.00000000E+00
  5.60000000E+02  1.40000000E+02  0.00000000E+00
  5.60000000E+02  1.20000000E+02  0.00000000E+00
  5.60000000E+02  1.00000000E+02  0.00000000E+00
  5.60000000E+02  8.00000000E+01  0.00000000E+00
  5.60000000E+02  6.00000000E+01  0.00000000E+00
  5.60000000E+02  4.00000000E+01  0.00000000E+00
  5.60000000E+02  2.00000000E+01  0.00000000E+00
  5.60000000E+02  4.99600361E-14  0.00000000E+00
  5.80000000E+02  3.00000000E+02  0.00000000E+00
  5.80000000E+02  2.80000000E+02  0.00000000E+00
  5.80000000E+02  2.60000000E+02  0.00000000E+00
  5.80000000E+02  2.40000000E+02  0.00000000E+00
  5.80000000E+02  2.20000000E+02  0.00000000E+00
  5.80000000E+02  2.00000000E+02  0.00000000E+00
  5.80000000E+02  1.80000000E+02  0.00000000E+00
  5.80000000E+02  1.60000000E+02  0.00000000E+00
  5.80000000E+02  1.40000000E+02  0.00000000E+00
  5.80000000E+02  1.20000000E+02  0.00000000E+00
  5.80000000E+02  1.00000000E+02  0.00000000E+00
  5.80000000E+02  8.00000000E+01  0.00000000E+00
  5.80000000E+02  6.00000000E+01  0.00000000E+00
  5.80000000E+02  4.00000000E+01  0.00000000E+00
  5.80000000E+02  2.00000000E+01  0.00000000E+00
  5.80000000E+02  4.99600361E-14  0.00000000E+00
  6.00000000E+02  3.00000000E+02  0.00000000E+00
  6.00000000E+02  2.80000000E+02  0.00000000E+00
  6.00000000E+02  2.60000000E+02  0.00000000E+00
  6.00000000E+02  2.40000000E+02  0.00000000E+00
  6.00000000E+02  2.20000000E+02  0.00000000E+00
  6.00000000E+02  2.00000000E+02  0.00000000E+00
  6.00000000E+02  1.80000000E+02  0.00000000E+00
  6.00000000E+02  1.60000000E+02  0.00000000E+00
  6.00000000E+02  1.40000000E+02  0.00000000E+00
  6.00000000E+02  1.20000000E+02  0.00000000E+00
  6.00000000E+02  1.00000000E+02  0.00000000E+00
  6.00000000E+02  8.00000000E+01  0.00000000E+00
  6.00000000E+02  6.00000000E+01  0.00000000E+00
  6.00000000E+02  4.00000000E+01  0.00000000E+00
  6.00000000E+02  2.00000000E+01  0.00000000E+00
  6.00000000E+02  4.99600361E-14  0.00000000E+00
CELLS       450      2250
         4           0           1          17          16
         4           1           2          18          17
         4           2           3          19          18
         4           3           4          20          19
         4           4           5          21          20
         4           5           6          22          21
         4           6           7          23          22
         4           7           8          24          23
         4           8           9          25          24
         4           9          10          26          25
         4          10          11          27          26
         4          11          12          28          27
         4          12          13          29          28
         4          13          14          30          29
         4          14          15          31          30
         4          16          17          33          32
         4          17          18          34          33
         4          18          19          35          34
         4          19          20          36          35
         4          20          21          37          36
         4          21          22          38          37
         4          22          23          39          38
         4          23          24          40          39
         4          24          25          41          40
         4          25          26          42          41
         4          26          27          43          42
         4          27          28          44          43
         4          28          29          45          44
         4          29          30          46          45
         4          30          31          47          46
         4          32          33          49          48
         4          33          34          50          49
         4          34          35          51          50
         4          35          36          52          51
         4          36          37          53          52
         4          37          38          54          53
         4          38          39          55          54
         4          39          40          56          55
         4          40          41          57          56
         4          41          42          58          57
         4          42          43          59          58
         4          43          44          60          59
         4          44          45          61          60
         4          45          46          62          61
         4          46          47          63          62
         4          48          49          65          64
         4          49          50          66          65
         4          50          51          67          66
         4          51          52          68          67
         4          52          53          69          68
         4          53          54          70          69
         4          54          55          71          70
         4          55          56          72          71
         4          56          57          73          72
         4          57          58          74          73
         4          58          59          75          74
         4          59          60          76          75
         4          60          61          77          76
         4          61          62          78          77
         4          62          63          79          78
         4          64          65          81          80
         4          65          66          82          81
         4          66          67          83          82
         4          67          68          84          83
         4          68          69          85          84
         4          69          70          86          85
         4          70          71          87          86
         4          71          72          88          87
         4          72          73          89          88
         4          73          74          90          89
         4          74          75          91          90
         4          75          76          92          91
         4          76          77          93          92
         4          77          78          94          93
         4          78          79          95          94
         4          80          81          97          96
         4          81          82          98          97
         4          82          83          99          98
         4          83          84         100          99
         4          84          85         101         100
         4          85          86         102         101
         4          86          87         103         102
         4          87          88         104         103
         4          88          89         105         104
         4          89          90         106         105
         4          90          91         107         106
         4          91          92         108         107
         4          92          93         109         108
         4          93          94         110         109
         4          94          95         111         110
         4          96          97         113         112
         4          97          98         114         113
         4          98          99         115         114
         4          99         100         116         115
         4         100         101         117         116
         4         101         102         118         117
         4         102         103         119         118
         4         103         104         120         119
         4         104         105         121         120
         4         105         106         122         121
         4         106         107         123         122
         4         107         108         124         123
         4         108         109         125         124
         4         109         110         126         125
         4         110         111         127         126
         4         112         113         129         128
         4         113         114         130         129
         4         114         115         131         130
         4         115         116         132         131
         4         116         117         133         132
         4         117         118         134         133
         4         118         119         135         134
         4         119         120         136         135
         4         120         121         137         136
         4         121         122         138         137
         4         122         123         139         138
         4         123         124         140         139
         4         124         125         141         140
         4         125         126         142         141
         4         126         127         143         142
         4         128         129         145         144
         4         129         130         146         145
         4         130         131         147         146
         4         131         132         148         147
         4         132         133         149         148
         4         133         134         150         149
         4         134         135         151         150
         4         135         136         152         151
         4         136         137         153         152
         4         137         138         154         153
         4         138         139         155         154
         4         139         140         156         155
         4         140         141         157         156
         4         141         142         158         157
         4         142         143         159         158
         4         144         145         161         160
         4         145         146         162         161
         4         146         147         163         162
         4         147         148         164         163
         4         148         149         165         164
         4         149         150         166         165
         4         150         151         167         166
         4         151         152         168         167
         4         152         153         169         168
         4         153         154         170         169
         4         154         155         171         170
         4         155         156         172         171
         4         156         157         173         172
         4         157         158         174         173
         4         158         159         175         174
         4         160         161         177         176
         4         161         162         178         177
         4         162         163         179         178
         4         163         164         180         179
         4         164         165         181         180
         4         165         166         182         181
         4         166         167         183         182
         4         167         168         184         183
         4         168         169         185         184
         4         169         170         186         185
         4         170         171         187         186
         4         171         172         188         187
         4         172         173         189         188
         4         173         174         190         189
         4         174         175         191         190
         4         176         177         193         192
         4         177         178         194         193
         4         178         179         195         194
         4         179         180         196         195
         4         180         181         197         196
         4         181         182         198         197
         4         182         183         199         198
         4         183         184         200         199
         4         184         185         201         200
         4         185         186         202         201
         4         186         187         203         202
         4         187         188         204         203
         4         188         189         205         204
         4         189         190         206         205
         4         190         191         207         206
         4         192         193         209         208
         4         193         194         210         209
         4         194         195         211         210
         4         195         196         212         211
         4         196         197         213         212
         4         197         198         214         213
         4         198         199         215         214
         4         199         200         216         215
         4         200         201         217         216
         4         201         202         218         217
         4         202         203         219         218
         4         203         204         220         219
         4         204         205         221         220
         4         205         206         222         221
         4         206         207         223         222
         4         208         209         225         224
         4         209         210         226         225
         4         210         211         227         226
         4         211         212         228         227
         4         212         213         229         228
         4         213         214         230         229
         4         214         215         231         230
         4         215         216         232         231
         4         216         217         233         232
         4         217         218         234         233
         4         218         219         235         234
         4         219         220         236         235
         4         220         221         237         236
         4         221         222         238         237
         4         222         223         239         238
         4         224         225         241         240
         4         225         226         242         241
         4         226         227         243         242
         4         227         228         244         243
         4         228         229         245         244
         4         229         230         246         245
         4         230         231         247         246
         4         231         232         248         247
         4         232         233         249         248
         4         233         234         250         249
         4         234         235         251         250
         4         235         236         252         251
         4         236         237         253         252
         4         237         238         254         253
         4         238         239         255         254
         4         240         241         257         256
         4         241         242         258         257
         4         242         243         259         258
         4         243         244         260         259
         4         244         245         261         260
         4         245         246         262         261
         4         246         247         263         262
         4         247         248         264         263
         4         248         249         265         264
         4         249         250         266         265
         4         250         251         267         266
         4         251         252         268         267
         4         252         253         269         268
         4         253         254         270         269
         4         254         255         271         270
         4         256         257         273         272
         4         257         258         274         273
         4         258         259         275         274
         4         259         260         276         275
         4         260         261         277         276
         4         261         262         278         277
         4         262         263         279         278
         4         263         264         280         279
         4         264         265         281         280
         4         265         266         282         281
         4         266         267         283         282
         4         267         268         284         283
         4         268         269         285         284
         4         269         270         286         285
         4         270         271         287         286
         4         272         273         289         288
         4         273         274         290         289
         4         274         275         291         290
         4         275         276         292         291
         4         276         277         293         292
         4         277         278         294         293
         4         278         279         295         294
         4         279         280         296         295
         4         280         281         297         296
         4         281         282         298         297
         4         282         283         299         298
         4         283         284         300         299
         4         284         285         301         300
         4         285         286         302         301
         4         286         287         303         302
         4         288         289         305         304
         4         289         290         306         305
         4         290         291         307         306
         4         291         292         308         307
         4         292         293         309         308
         4         293         294         310         309
         4         294         295         311         310
         4         295         296         312         311
         4         296         297         313         312
         4         297         298         314         313
         4         298         299         315         314
         4         299         300         316         315
         4         300         301         317         316
         4         301         302         318         317
         4         302         303         319         318
         4         304         305         321         320
         4         305         306         322         321
         4         306         307         323         322
         4         307         308         324         323
         4         308         309         325         324
         4         309         310         326         325
         4         310         311         327         326
         4         311         312         328         327
         4         312         313         329         328
         4         313         314         330         329
         4         314         315         331         330
         4         315         316         332         331
         4         316         317         333         332
         4         317         318         334         333
         4         318         319         335         334
         4         320         321         337         336
         4         321         322         338         337
         4         322         323         339         338
         4         323         324         340         339
         4         324         325         341         340
         4         325         326         342         341
         4         326         327         343         342
         4         327         328         344         343
         4         328         329         345         344
         4         329         330         346         345
         4         330         331         347         346
         4         331         332         348         347
         4         332         333         349         348
         4         333         334         350         349
         4         334         335         351         350
         4         336         337         353         352
         4         337         338         354         353
         4         338         339         355         354
         4         339         340         356         355
         4         340         341         357         356
         4         341         342         358         357
         4         342         343         359         358
         4         343         344         360         359
         4         344         345         361         360
         4         345         346         362         361
         4         346         347         363         362
         4         347         348         364         363
         4         348         349         365         364
         4         349         350         366         365
         4         350         351         367         366
         4         352         353         369         368
         4         353         354         370         369
         4         354         355         371         370
         4         355         356         372         371
         4         356         357         373         372
         4         357         358         374         373
         4         358         359         375         374
         4         359         360         376         375
         4         360         361         377         376
         4         361         362         378         377
         4         362         363         379         378
         4         363         364         380         379
         4         364         365         381         380
         4         365         366         382         381
         4         366         367         383         382
         4         368         369         385         384
         4         369         370         386         385
         4         370         371         387         386
         4         371         372         388         387
         4         372         373         389         388
         4         373         374         390         389
         4         374         375         391         390
         4         375         376         392         391
         4         376         377         393         392
         4         377         378         394         393
         4         378         379         395         394
         4         379         380         396         395
         4         380         381         397         396
         4         381         382         398         397
         4         382         383         399         398
         4         384         385         401         400
         4         385         386         402         401
         4         386         387         403         402
         4         387         388         404         403
         4         388         389         405         404
         4         389         390         406         405
         4         390         391         407         406
         4         391         392         408         407
         4         392         393         409         408
         4         393         394         410         409
         4         394         395         411         410
         4         395         396         412         411
         4         396         397         413         412
         4         397         398         414         413
         4         398         399         415         414
         4         400         401         417         416
         4         401         402         418         417
         4         402         403         419         418
         4         403         404         420         419
         4         404         405         421         420
         4         405         406         422         421
         4         406         407         423         422
         4         407         408         424         423
         4         408         409         425         424
         4         409         410         426         425
         4         410         411         427         426
         4         411         412         428         427
         4         412         413         429         428
         4         413         414         430         429
         4         414         415         431         430
         4         416         417         433         432
         4         417         418         434         433
         4         418         419         435         434
         4         419         420         436         435
         4         420         421         437         436
         4         421         422         438         437
         4         422         423         439         438
         4         423         424         440         439
         4         424         425         441         440
         4         425         426         442         441
         4         426         427         443         442
         4         427         428         444         443
         4         428         429         445         444
         4         429         430         446         445
         4         430         431         447         446
         4         432         433         449         448
         4         433         434         450         449
         4         434         435         451         450
         4         435         436         452         451
         4         436         437         453         452
         4         437         438         454         453
         4         438         439         455         454
         4         439         440         456         455
         4         440         441         457         456
         4         441         442         458         457
         4         442         443         459         458
         4         443         444         460         459
         4         444         445         461         460
         4         445         446         462         461
         4         446         447         463         462
         4         448         449         465         464
         4         449         450         466         465
         4         450         451         467         466
         4         451         452         468         467
         4         452         453         469         468
         4         453         454         470         469
         4         454         455         471         470
         4         455         456         472         471
         4         456         457         473         472
         4         457         458         474         473
         4         458         459         475         474
         4         459         460         476         475
         4         460         461         477         476
         4         461         462         478         477
         4         462         463         479         478
         4         464         465         481         480
         4         465         466         482         481
         4         466         467         483         482
         4         467         468         484         483
         4         468         469         485         484
         4         469         470         486         485
         4         470         471         487         486
         4         471         472         488         487
         4         472         473         489         488
         4         473         474         490         489
         4         474         475         491         490
         4         475         476         492         491
         4         476         477         493         492
         4         477         478         494         493
         4         478         479         495         494
CELL_TYPES        450
9
9
9
9
9
9
9
9
9
9
9
9
9
9
9
9
9
9
9
9
9
9
9
9
9
9
9
9
9
9
9
9
9
9
9
9
9
9
9
9
9
9
9
9
9
9
9
9
9
9
9
9
9
9
9
9
9
9
9
9
9
9
9
9
9
9
9
9
9
9
9
9
9
9
9
9
9
9
9
9
9
9
9
9
9
9
9
9
9
9
9
9
9
9
9
9
9
9
9
9
9
9
9
9
9
9
9
9
9
9
9
9
9
9
9
9
9
9
9
9
9
9
9
9
9
9
9
9
9
9
9
9
9
9
9
9
9
9
9
9
9
9
9
9
9
9
9
9
9
9
9
9
9
9
9
9
9
9
9
9
9
9
9
9
9
9
9
9
9
9
9
9
9
9
9
9
9
9
9
9
9
9
9
9
9
9
9
9
9
9
9
9
9
9
9
9
9
9
9
9
9
9
9
9
9
9
9
9
9
9
9
9
9
9
9
9
9
9
9
9
9
9
9
9
9
9
9
9
9
9
9
9
9
9
9
9
9
9
9
9
9
9
9
9
9
9
9
9
9
9
9
9
9
9
9
9
9
9
9
9
9
9
9
9
9
9
9
9
9
9
9
9
9
9
9
9
9
9
9
9
9
9
9
9
9
9
9
9
9
9
9
9
9
9
9
9
9
9
9
9
9
9
9
9
9
9
9
9
9
9
9
9
9
9
9
9
9
9
9
9
9
9
9
9
9
9
9
9
9
9
9
9
9
9
9
9
9
9
9
9
9
9
9
9
9
9
9
9
9
9
9
9
9
9
9
9
9
9
9
9
9
9
9
9
9
9
9
9
9
9
9
9
9
9
9
9
9
9
9
9
9
9
9
9
9
9
9
9
9
9
9
9
9
9
9
9
9
9
9
9
9
9
9
9
9
9
9
9
9
9
9
9
9
9
9
9
9
9
9
9
9
9
9
9
9
9
9
9
9
9
9
9
9
9
9
9
9
9
9
9
9
9
9
9
9
9
9
9
9
9
POINT_DATA       496
SCALARS p double 
LOOKUP_TABLE default
   25120526.8345874     
   25120526.8359425     
   25120526.8389641     
   25120526.8422544     
   25120526.8453975     
   25120526.8483867     
   25120526.8512644     
   25120526.8539985     
   25120526.8565525     
   25120526.8588991     
   25120526.8610112     
   25120526.8628582     
   25120526.8644095     
   25120526.8656272     
   25120526.8664632     
   25120526.8667793     
   24616509.3040602     
   24616509.3043408     
   24616509.3051716     
   24616509.3063628     
   24616509.3077507     
   24616509.3093022     
   24616509.3109296     
   24616509.3125605     
   24616509.3141367     
   24616509.3156090     
   24616509.3169355     
   24616509.3180824     
   24616509.3190152     
   24616509.3196981     
   24616509.3200899     
   24616509.3202073     
   24112491.7661744     
   24112491.7661013     
   24112491.7660191     
   24112491.7662213     
   24112491.7667591     
   24112491.7674643     
   24112491.7682517     
   24112491.7690806     
   24112491.7699106     
   24112491.7707014     
   24112491.7714174     
   24112491.7720268     
   24112491.7725045     
   24112491.7728354     
   24112491.7730283     
   24112491.7730936     
   23608474.2225936     
   23608474.2225575     
   23608474.2225542     
   23608474.2226661     
   23608474.2228557     
   23608474.2230983     
   23608474.2233753     
   23608474.2236730     
   23608474.2239787     
   23608474.2242749     
   23608474.2245433     
   23608474.2247682     
   23608474.2249403     
   23608474.2250619     
   23608474.2251380     
   23608474.2251648     
   23104456.6765812     
   23104456.6765699     
   23104456.6765427     
   23104456.6765213     
   23104456.6765126     
   23104456.6765016     
   23104456.6764823     
   23104456.6764553     
   23104456.6764233     
   23104456.6763903     
   23104456.6763588     
   23104456.6763305     
   23104456.6763092     
   23104456.6762981     
   23104456.6762962     
   23104456.6762972     
   22600439.1286793     
   22600439.1286244     
   22600439.1284952     
   22600439.1283415     
   22600439.1281772     
   22600439.1279961     
   22600439.1277920     
   22600439.1275675     
   22600439.1273323     
   22600439.1271002     
   22600439.1268858     
   22600439.1267027     
   22600439.1265609     
   22600439.1264643     
   22600439.1264100     
   22600439.1263928     
   22096421.5789794     
   22096421.5788996     
   22096421.5787005     
   22096421.5784413     
   22096421.5781488     
   22096421.5778344     
   22096421.5775009     
   22096421.5771518     
   22096421.5767971     
   22096421.5764524     
   22096421.5761353     
   22096421.5758629     
   22096421.5756480     
   22096421.5754968     
   22096421.5754085     
   22096421.5753796     
   21592404.0276524     
   21592404.0275609     
   21592404.0273193     
   21592404.0269851     
   21592404.0265992     
   21592404.0261858     
   21592404.0257579     
   21592404.0253250     
   21592404.0248977     
   21592404.0244901     
   21592404.0241180     
   21592404.0237969     
   21592404.0235390     
   21592404.0233528     
   21592404.0232421     
   21592404.0232059     
   21088386.4748323     
   21088386.4747317     
   21088386.4744624     
   21088386.4740822     
   21088386.4736357     
   21088386.4731548     
   21088386.4726608     
   21088386.4721694     
   21088386.4716941     
   21088386.4712482     
   21088386.4708452     
   21088386.4704975     
   21088386.4702163     
   21088386.4700099     
   21088386.4698845     
   21088386.4698426     
   20584368.9206030     
   20584368.9204985     
   20584368.9202157     
   20584368.9198110     
   20584368.9193294     
   20584368.9188060     
   20584368.9182678     
   20584368.9177356     
   20584368.9172260     
   20584368.9167529     
   20584368.9163288     
   20584368.9159645     
   20584368.9156694     
   20584368.9154518     
   20584368.9153176     
   20584368.9152720     
   20080351.3650353     
   20080351.3649305     
   20080351.3646445     
   20080351.3642297     
   20080351.3637299     
   20080351.3631816     
   20080351.3626148     
   20080351.3620538     
   20080351.3615178     
   20080351.3610222     
   20080351.3605797     
   20080351.3602010     
   20080351.3598949     
   20080351.3596688     
   20080351.3595293     
   20080351.3594820     
   19576333.8081851     
   19576333.8080820     
   19576333.8077981     
   19576333.8073810     
   19576333.8068729     
   19576333.8063105     
   19576333.8057250     
   19576333.8051426     
   19576333.8045846     
   19576333.8040685     
   19576333.8036077     
   19576333.8032134     
   19576333.8028948     
   19576333.8026596     
   19576333.8025151     
   19576333.8024664     
   19072316.2500940     
   19072316.2499928     
   19072316.2497121     
   19072316.2492957     
   19072316.2487839     
   19072316.2482127     
   19072316.2476138     
   19072316.2470144     
   19072316.2464373     
   19072316.2459015     
   19072316.2454219     
   19072316.2450110     
   19072316.2446788     
   19072316.2444338     
   19072316.2442826     
   19072316.2442312     
   18568298.6907894     
   18568298.6906898     
   18568298.6904117     
   18568298.6899962     
   18568298.6894815     
   18568298.6889029     
   18568298.6882922     
   18568298.6876771     
   18568298.6870819     
   18568298.6865267     
   18568298.6860282     
   18568298.6856001     
   18568298.6852536     
   18568298.6849976     
   18568298.6848389     
   18568298.6847847     
   18064281.1302902     
   18064281.1301913     
   18064281.1299143     
   18064281.1294978     
   18064281.1289787     
   18064281.1283916     
   18064281.1277682     
   18064281.1271371     
   18064281.1265232     
   18064281.1259482     
   18064281.1254301     
   18064281.1249839     
   18064281.1246219     
   18064281.1243540     
   18064281.1241885     
   18064281.1241322     
   17560263.5686083     
   17560263.5685093     
   17560263.5682312     
   17560263.5678110     
   17560263.5672847     
   17560263.5666866     
   17560263.5660486     
   17560263.5653999     
   17560263.5647663     
   17560263.5641704     
   17560263.5636318     
   17560263.5631666     
   17560263.5627882     
   17560263.5625080     
   17560263.5623354     
   17560263.5622771     
   17056246.0057519     
   17056246.0056517     
   17056246.0053697     
   17056246.0049425     
   17056246.0044058     
   17056246.0037939     
   17056246.0031390     
   17056246.0024708     
   17056246.0018162     
   17056246.0011986     
   17056246.0006387     
   17056246.0001540     
   17056245.9997594     
   17056245.9994670     
   17056245.9992865     
   17056245.9992253     
   16552228.4417233     
   16552228.4416211     
   16552228.4413330     
   16552228.4408960     
   16552228.4403462     
   16552228.4397180     
   16552228.4390444     
   16552228.4383556     
   16552228.4376792     
   16552228.4370397     
   16552228.4364591     
   16552228.4359560     
   16552228.4355462     
   16552228.4352422     
   16552228.4350538     
   16552228.4349895     
   16048210.8765215     
   16048210.8764166     
   16048210.8761211     
   16048210.8756726     
   16048210.8751080     
   16048210.8744626     
   16048210.8737698     
   16048210.8730606     
   16048210.8723633     
   16048210.8717037     
   16048210.8711042     
   16048210.8705845     
   16048210.8701603     
   16048210.8698450     
   16048210.8696493     
   16048210.8695825     
   15544193.3101431     
   15544193.3100353     
   15544193.3097316     
   15544193.3092712     
   15544193.3086921     
   15544193.3080303     
   15544193.3073201     
   15544193.3065930     
   15544193.3058780     
   15544193.3052013     
   15544193.3045858     
   15544193.3040512     
   15544193.3036141     
   15544193.3032885     
   15544193.3030865     
   15544193.3030178     
   15040175.7425828     
   15040175.7424720     
   15040175.7421606     
   15040175.7416895     
   15040175.7410980     
   15040175.7404233     
   15040175.7397001     
   15040175.7389602     
   15040175.7382328     
   15040175.7375439     
   15040175.7369164     
   15040175.7363703     
   15040175.7359227     
   15040175.7355888     
   15040175.7353815     
   15040175.7353110     
   14536158.1738335     
   14536158.1737201     
   14536158.1734022     
   14536158.1729232     
   14536158.1723239     
   14536158.1716425     
   14536158.1709138     
   14536158.1701695     
   14536158.1694379     
   14536158.1687444     
   14536158.1681114     
   14536158.1675589     
   14536158.1671046     
   14536158.1667646     
   14536158.1665522     
   14536158.1664795     
   14032140.6038869     
   14032140.6037716     
   14032140.6034495     
   14032140.6029669     
   14032140.6023667     
   14032140.6016879     
   14032140.6009650     
   14032140.6002283     
   14032140.5995047     
   14032140.5988176     
   14032140.5981883     
   14032140.5976364     
   14032140.5971802     
   14032140.5968364     
   14032140.5966200     
   14032140.5965456     
   13528123.0327337     
   13528123.0326173     
   13528123.0322939     
   13528123.0318135     
   13528123.0312218     
   13528123.0305582     
   13528123.0298564     
   13528123.0291443     
   13528123.0284452     
   13528123.0277793     
   13528123.0271659     
   13528123.0266235     
   13528123.0261710     
   13528123.0258264     
   13528123.0256077     
   13528123.0255320     
   13024105.4603639     
   13024105.4602471     
   13024105.4599258     
   13024105.4594551     
   13024105.4588837     
   13024105.4582517     
   13024105.4575907     
   13024105.4569242     
   13024105.4562704     
   13024105.4556447     
   13024105.4550625     
   13024105.4545409     
   13024105.4540992     
   13024105.4537579     
   13024105.4535383     
   13024105.4534617     
   12520087.8867665     
   12520087.8866503     
   12520087.8863351     
   12520087.8858834     
   12520087.8853475     
   12520087.8847673     
   12520087.8841702     
   12520087.8835736     
   12520087.8829890     
   12520087.8824257     
   12520087.8818940     
   12520087.8814078     
   12520087.8809863     
   12520087.8806534     
   12520087.8804349     
   12520087.8803577     
   12016070.3119302     
   12016070.3118156     
   12016070.3115118     
   12016070.3110917     
   12016070.3106111     
   12016070.3101068     
   12016070.3095987     
   12016070.3090967     
   12016070.3086056     
   12016070.3081287     
   12016070.3076703     
   12016070.3072389     
   12016070.3068514     
   12016070.3065341     
   12016070.3063193     
   12016070.3062419     
   11512052.7358434     
   11512052.7357320     
   11512052.7354482     
   11512052.7350789     
   11512052.7346800     
   11512052.7342782     
   11512052.7338827     
   11512052.7334966     
   11512052.7331198     
   11512052.7327513     
   11512052.7323907     
   11512052.7320398     
   11512052.7317072     
   11512052.7314175     
   11512052.7312108     
   11512052.7311337     
   11008035.1584951     
   11008035.1583906     
   11008035.1581444     
   11008035.1578585     
   11008035.1575740     
   11008035.1572984     
   11008035.1570329     
   11008035.1567766     
   11008035.1565272     
   11008035.1562824     
   11008035.1560396     
   11008035.1557963     
   11008035.1555522     
   11008035.1553140     
   11008035.1551236     
   11008035.1550494     
   10504017.5798761     
   10504017.5797915     
   10504017.5796281     
   10504017.5794746     
   10504017.5793300     
   10504017.5791939     
   10504017.5790648     
   10504017.5789414     
   10504017.5788220     
   10504017.5787048     
   10504017.5785879     
   10504017.5784691     
   10504017.5783452     
   10504017.5782121     
   10504017.5780659     
   10504017.5779890     
   10000000.0000000     
   10000000.0000000     
   10000000.0000000     
   10000000.0000000     
   10000000.0000000     
   10000000.0000000     
   10000000.0000000     
   10000000.0000000     
   10000000.0000000     
   10000000.0000000     
   10000000.0000000     
   10000000.0000000     
   10000000.0000000     
  10000000.00000000     
   10000000.0000000     
   10000000.0000000     
VECTORS u double 
    0.00000E+00        -0.34291E-05         0.00000E+00
    0.00000E+00        -0.31811E-05         0.00000E+00
    0.00000E+00        -0.29314E-05         0.00000E+00
    0.00000E+00        -0.26828E-05         0.00000E+00
    0.00000E+00        -0.24378E-05         0.00000E+00
    0.00000E+00        -0.21977E-05         0.00000E+00
    0.00000E+00        -0.19617E-05         0.00000E+00
    0.00000E+00        -0.17294E-05         0.00000E+00
    0.00000E+00        -0.15005E-05         0.00000E+00
    0.00000E+00        -0.12748E-05         0.00000E+00
    0.00000E+00        -0.10524E-05         0.00000E+00
    0.00000E+00        -0.83355E-06         0.00000E+00
    0.00000E+00        -0.61832E-06         0.00000E+00
    0.00000E+00        -0.40711E-06         0.00000E+00
    0.00000E+00        -0.20054E-06         0.00000E+00
    0.00000E+00         0.00000E+00         0.00000E+00
    0.12628E-06        -0.34334E-05         0.00000E+00
    0.11779E-06        -0.31849E-05         0.00000E+00
    0.10734E-06        -0.29360E-05         0.00000E+00
    0.95155E-07        -0.26878E-05         0.00000E+00
    0.83284E-07        -0.24434E-05         0.00000E+00
    0.72942E-07        -0.22030E-05         0.00000E+00
    0.63824E-07        -0.19666E-05         0.00000E+00
    0.55571E-07        -0.17337E-05         0.00000E+00
    0.48076E-07        -0.15043E-05         0.00000E+00
    0.41014E-07        -0.12782E-05         0.00000E+00
    0.34249E-07        -0.10555E-05         0.00000E+00
    0.27719E-07        -0.83619E-06         0.00000E+00
    0.21223E-07        -0.62058E-06         0.00000E+00
    0.14640E-07        -0.40898E-06         0.00000E+00
    0.76991E-08        -0.20190E-06         0.00000E+00
    0.00000E+00         0.00000E+00         0.00000E+00
    0.22405E-06        -0.34420E-05         0.00000E+00
    0.21001E-06        -0.31949E-05         0.00000E+00
    0.19157E-06        -0.29475E-05         0.00000E+00
    0.17201E-06        -0.27012E-05         0.00000E+00
    0.15306E-06        -0.24575E-05         0.00000E+00
    0.13516E-06        -0.22167E-05         0.00000E+00
    0.11848E-06        -0.19794E-05         0.00000E+00
    0.10309E-06        -0.17454E-05         0.00000E+00
    0.88816E-07        -0.15149E-05         0.00000E+00
    0.75302E-07        -0.12877E-05         0.00000E+00
    0.62389E-07        -0.10639E-05         0.00000E+00
    0.49850E-07        -0.84354E-06         0.00000E+00
    0.37467E-07        -0.62681E-06         0.00000E+00
    0.25056E-07        -0.41391E-06         0.00000E+00
    0.12503E-07        -0.20503E-06         0.00000E+00
    0.00000E+00         0.00000E+00         0.00000E+00
    0.29690E-06        -0.34563E-05         0.00000E+00
    0.27825E-06        -0.32096E-05         0.00000E+00
    0.25726E-06        -0.29640E-05         0.00000E+00
    0.23443E-06        -0.27194E-05         0.00000E+00
    0.21088E-06        -0.24765E-05         0.00000E+00
    0.18758E-06        -0.22357E-05         0.00000E+00
    0.16504E-06        -0.19977E-05         0.00000E+00
    0.14369E-06        -0.17626E-05         0.00000E+00
    0.12347E-06        -0.15307E-05         0.00000E+00
    0.10419E-06        -0.13019E-05         0.00000E+00
    0.85697E-07        -0.10765E-05         0.00000E+00
    0.67771E-07        -0.85447E-06         0.00000E+00
    0.50223E-07        -0.63583E-06         0.00000E+00
    0.32965E-07        -0.42063E-06         0.00000E+00
    0.16121E-07        -0.20878E-06         0.00000E+00
    0.00000E+00         0.00000E+00         0.00000E+00
    0.35857E-06        -0.34756E-05         0.00000E+00
    0.33573E-06        -0.32292E-05         0.00000E+00
    0.31116E-06        -0.29844E-05         0.00000E+00
    0.28514E-06        -0.27409E-05         0.00000E+00
    0.25818E-06        -0.24988E-05         0.00000E+00
    0.23095E-06        -0.22582E-05         0.00000E+00
    0.20406E-06        -0.20197E-05         0.00000E+00
    0.17797E-06        -0.17836E-05         0.00000E+00
    0.15279E-06        -0.15502E-05         0.00000E+00
    0.12854E-06        -0.13197E-05         0.00000E+00
    0.10518E-06        -0.10923E-05         0.00000E+00
    0.82575E-07        -0.86791E-06         0.00000E+00
    0.60663E-07        -0.64665E-06         0.00000E+00
    0.39467E-07        -0.42837E-06         0.00000E+00
    0.19150E-07        -0.21289E-06         0.00000E+00
    0.00000E+00         0.00000E+00         0.00000E+00
    0.41211E-06        -0.35002E-05         0.00000E+00
    0.38450E-06        -0.32538E-05         0.00000E+00
    0.35595E-06        -0.30091E-05         0.00000E+00
    0.32664E-06        -0.27659E-05         0.00000E+00
    0.29673E-06        -0.25240E-05         0.00000E+00
    0.26644E-06        -0.22834E-05         0.00000E+00
    0.23623E-06        -0.20444E-05         0.00000E+00
    0.20645E-06        -0.18073E-05         0.00000E+00
    0.17732E-06        -0.15724E-05         0.00000E+00
    0.14900E-06        -0.13399E-05         0.00000E+00
    0.12157E-06        -0.11101E-05         0.00000E+00
    0.95064E-07        -0.88299E-06         0.00000E+00
    0.69526E-07        -0.65857E-06         0.00000E+00
    0.45064E-07        -0.43670E-06         0.00000E+00
    0.21817E-07        -0.21723E-06         0.00000E+00
    0.00000E+00         0.00000E+00         0.00000E+00
    0.45752E-06        -0.35297E-05         0.00000E+00
    0.42560E-06        -0.32831E-05         0.00000E+00
    0.39340E-06        -0.30380E-05         0.00000E+00
    0.36094E-06        -0.27944E-05         0.00000E+00
    0.32821E-06        -0.25520E-05         0.00000E+00
    0.29529E-06        -0.23109E-05         0.00000E+00
    0.26241E-06        -0.20711E-05         0.00000E+00
    0.22976E-06        -0.18328E-05         0.00000E+00
    0.19757E-06        -0.15962E-05         0.00000E+00
    0.16606E-06        -0.13617E-05         0.00000E+00
    0.13540E-06        -0.11292E-05         0.00000E+00
    0.10573E-06        -0.89908E-06         0.00000E+00
    0.77209E-07        -0.67115E-06         0.00000E+00
    0.49987E-07        -0.44540E-06         0.00000E+00
    0.24200E-07        -0.22171E-06         0.00000E+00
    0.00000E+00         0.00000E+00         0.00000E+00
    0.49541E-06        -0.35634E-05         0.00000E+00
    0.45995E-06        -0.33162E-05         0.00000E+00
    0.42455E-06        -0.30705E-05         0.00000E+00
    0.38921E-06        -0.28260E-05         0.00000E+00
    0.35390E-06        -0.25826E-05         0.00000E+00
    0.31866E-06        -0.23405E-05         0.00000E+00
    0.28353E-06        -0.20994E-05         0.00000E+00
    0.24862E-06        -0.18596E-05         0.00000E+00
    0.21409E-06        -0.16212E-05         0.00000E+00
    0.18014E-06        -0.13843E-05         0.00000E+00
    0.14700E-06        -0.11491E-05         0.00000E+00
    0.11485E-06        -0.91572E-06         0.00000E+00
    0.83906E-07        -0.68412E-06         0.00000E+00
    0.54344E-07        -0.45433E-06         0.00000E+00
    0.26327E-07        -0.22631E-06         0.00000E+00
    0.00000E+00         0.00000E+00         0.00000E+00
    0.52661E-06        -0.36005E-05         0.00000E+00
    0.48817E-06        -0.33526E-05         0.00000E+00
    0.45006E-06        -0.31058E-05         0.00000E+00
    0.41225E-06        -0.28602E-05         0.00000E+00
    0.37472E-06        -0.26155E-05         0.00000E+00
    0.33746E-06        -0.23719E-05         0.00000E+00
    0.30044E-06        -0.21292E-05         0.00000E+00
    0.26372E-06        -0.18876E-05         0.00000E+00
    0.22738E-06        -0.16470E-05         0.00000E+00
    0.19161E-06        -0.14076E-05         0.00000E+00
    0.15661E-06        -0.11694E-05         0.00000E+00
    0.12257E-06        -0.93265E-06         0.00000E+00
    0.89698E-07        -0.69728E-06         0.00000E+00
    0.58200E-07        -0.46338E-06         0.00000E+00
    0.28250E-07        -0.23095E-06         0.00000E+00
    0.00000E+00         0.00000E+00         0.00000E+00
    0.55164E-06        -0.36405E-05         0.00000E+00
    0.51077E-06        -0.33916E-05         0.00000E+00
    0.47045E-06        -0.31436E-05         0.00000E+00
    0.43063E-06        -0.28965E-05         0.00000E+00
    0.39128E-06        -0.26503E-05         0.00000E+00
    0.35234E-06        -0.24049E-05         0.00000E+00
    0.31379E-06        -0.21602E-05         0.00000E+00
    0.27563E-06        -0.19164E-05         0.00000E+00
    0.23793E-06        -0.16733E-05         0.00000E+00
    0.20080E-06        -0.14312E-05         0.00000E+00
    0.16442E-06        -0.11899E-05         0.00000E+00
    0.12896E-06        -0.94968E-06         0.00000E+00
    0.94610E-07        -0.71050E-06         0.00000E+00
    0.61553E-07        -0.47245E-06         0.00000E+00
    0.29971E-07        -0.23560E-06         0.00000E+00
    0.00000E+00         0.00000E+00         0.00000E+00
    0.57097E-06        -0.36827E-05         0.00000E+00
    0.52820E-06        -0.34326E-05         0.00000E+00
    0.48616E-06        -0.31832E-05         0.00000E+00
    0.44479E-06        -0.29345E-05         0.00000E+00
    0.40401E-06        -0.26865E-05         0.00000E+00
    0.36378E-06        -0.24390E-05         0.00000E+00
    0.32404E-06        -0.21922E-05         0.00000E+00
    0.28481E-06        -0.19459E-05         0.00000E+00
    0.24610E-06        -0.17002E-05         0.00000E+00
    0.20800E-06        -0.14550E-05         0.00000E+00
    0.17063E-06        -0.12105E-05         0.00000E+00
    0.13413E-06        -0.96675E-06         0.00000E+00
    0.98669E-07        -0.72371E-06         0.00000E+00
    0.64388E-07        -0.48151E-06         0.00000E+00
    0.31451E-07        -0.24025E-06         0.00000E+00
    0.00000E+00         0.00000E+00         0.00000E+00
    0.58504E-06        -0.37267E-05         0.00000E+00
    0.54086E-06        -0.34752E-05         0.00000E+00
    0.49756E-06        -0.32243E-05         0.00000E+00
    0.45504E-06        -0.29738E-05         0.00000E+00
    0.41324E-06        -0.27238E-05         0.00000E+00
    0.37209E-06        -0.24741E-05         0.00000E+00
    0.33153E-06        -0.22248E-05         0.00000E+00
    0.29155E-06        -0.19759E-05         0.00000E+00
    0.25217E-06        -0.17273E-05         0.00000E+00
    0.21342E-06        -0.14791E-05         0.00000E+00
    0.17539E-06        -0.12313E-05         0.00000E+00
    0.13817E-06        -0.98383E-06         0.00000E+00
    0.10190E-06        -0.73690E-06         0.00000E+00
    0.66694E-07        -0.49057E-06         0.00000E+00
    0.32679E-07        -0.24490E-06         0.00000E+00
    0.00000E+00         0.00000E+00         0.00000E+00
    0.59421E-06        -0.37720E-05         0.00000E+00
    0.54905E-06        -0.35190E-05         0.00000E+00
    0.50490E-06        -0.32664E-05         0.00000E+00
    0.46164E-06        -0.30140E-05         0.00000E+00
    0.41920E-06        -0.27618E-05         0.00000E+00
    0.37749E-06        -0.25099E-05         0.00000E+00
    0.33647E-06        -0.22580E-05         0.00000E+00
    0.29609E-06        -0.20064E-05         0.00000E+00
    0.25634E-06        -0.17548E-05         0.00000E+00
    0.21724E-06        -0.15033E-05         0.00000E+00
    0.17884E-06        -0.12520E-05         0.00000E+00
    0.14119E-06        -0.10009E-05         0.00000E+00
    0.10438E-06        -0.75005E-06         0.00000E+00
    0.68517E-07        -0.49955E-06         0.00000E+00
    0.33692E-07        -0.24950E-06         0.00000E+00
    0.00000E+00         0.00000E+00         0.00000E+00
    0.59877E-06        -0.38181E-05         0.00000E+00
    0.55300E-06        -0.35635E-05         0.00000E+00
    0.50837E-06        -0.33091E-05         0.00000E+00
    0.46475E-06        -0.30547E-05         0.00000E+00
    0.42204E-06        -0.28004E-05         0.00000E+00
    0.38015E-06        -0.25460E-05         0.00000E+00
    0.33900E-06        -0.22916E-05         0.00000E+00
    0.29854E-06        -0.20370E-05         0.00000E+00
    0.25874E-06        -0.17824E-05         0.00000E+00
    0.21959E-06        -0.15276E-05         0.00000E+00
    0.18108E-06        -0.12728E-05         0.00000E+00
    0.14326E-06        -0.10179E-05         0.00000E+00
    0.10618E-06        -0.76311E-06         0.00000E+00
    0.69897E-07        -0.50845E-06         0.00000E+00
    0.34488E-07        -0.25404E-06         0.00000E+00
    0.00000E+00         0.00000E+00         0.00000E+00
    0.59889E-06        -0.38647E-05         0.00000E+00
    0.55287E-06        -0.36084E-05         0.00000E+00
    0.50812E-06        -0.33522E-05         0.00000E+00
    0.46449E-06        -0.30958E-05         0.00000E+00
    0.42187E-06        -0.28392E-05         0.00000E+00
    0.38014E-06        -0.25824E-05         0.00000E+00
    0.33921E-06        -0.23252E-05         0.00000E+00
    0.29901E-06        -0.20678E-05         0.00000E+00
    0.25946E-06        -0.18100E-05         0.00000E+00
    0.22052E-06        -0.15519E-05         0.00000E+00
    0.18219E-06        -0.12935E-05         0.00000E+00
    0.14445E-06        -0.10349E-05         0.00000E+00
    0.10733E-06        -0.77610E-06         0.00000E+00
    0.70849E-07        -0.51729E-06         0.00000E+00
    0.35059E-07        -0.25854E-06         0.00000E+00
    0.00000E+00         0.00000E+00         0.00000E+00
    0.59471E-06        -0.39114E-05         0.00000E+00
    0.54876E-06        -0.36535E-05         0.00000E+00
    0.50423E-06        -0.33953E-05         0.00000E+00
    0.46094E-06        -0.31369E-05         0.00000E+00
    0.41876E-06        -0.28780E-05         0.00000E+00
    0.37754E-06        -0.26187E-05         0.00000E+00
    0.33716E-06        -0.23589E-05         0.00000E+00
    0.29752E-06        -0.20985E-05         0.00000E+00
    0.25853E-06        -0.18375E-05         0.00000E+00
    0.22010E-06        -0.15761E-05         0.00000E+00
    0.18220E-06        -0.13141E-05         0.00000E+00
    0.14479E-06        -0.10517E-05         0.00000E+00
    0.10785E-06        -0.78901E-06         0.00000E+00
    0.71386E-07        -0.52608E-06         0.00000E+00
    0.35420E-07        -0.26303E-06         0.00000E+00
    0.00000E+00         0.00000E+00         0.00000E+00
    0.58631E-06        -0.39581E-05         0.00000E+00
    0.54074E-06        -0.36984E-05         0.00000E+00
    0.49674E-06        -0.34383E-05         0.00000E+00
    0.45413E-06        -0.31778E-05         0.00000E+00
    0.41272E-06        -0.29167E-05         0.00000E+00
    0.37235E-06        -0.26548E-05         0.00000E+00
    0.33286E-06        -0.23923E-05         0.00000E+00
    0.29411E-06        -0.21290E-05         0.00000E+00
    0.25597E-06        -0.18649E-05         0.00000E+00
    0.21835E-06        -0.16001E-05         0.00000E+00
    0.18114E-06        -0.13346E-05         0.00000E+00
    0.14429E-06        -0.10685E-05         0.00000E+00
    0.10776E-06        -0.80184E-06         0.00000E+00
    0.71534E-07        -0.53481E-06         0.00000E+00
    0.35607E-07        -0.26748E-06         0.00000E+00
    0.00000E+00         0.00000E+00         0.00000E+00
    0.57370E-06        -0.40042E-05         0.00000E+00
    0.52881E-06        -0.37428E-05         0.00000E+00
    0.48566E-06        -0.34809E-05         0.00000E+00
    0.44405E-06        -0.32183E-05         0.00000E+00
    0.40375E-06        -0.29549E-05         0.00000E+00
    0.36457E-06        -0.26906E-05         0.00000E+00
    0.32630E-06        -0.24253E-05         0.00000E+00
    0.28876E-06        -0.21591E-05         0.00000E+00
    0.25179E-06        -0.18920E-05         0.00000E+00
    0.21525E-06        -0.16238E-05         0.00000E+00
    0.17901E-06        -0.13548E-05         0.00000E+00
    0.14299E-06        -0.10850E-05         0.00000E+00
    0.10711E-06        -0.81450E-06         0.00000E+00
    0.71335E-07        -0.54340E-06         0.00000E+00
    0.35640E-07        -0.27184E-06         0.00000E+00
    0.00000E+00         0.00000E+00         0.00000E+00
    0.55687E-06        -0.40497E-05         0.00000E+00
    0.51295E-06        -0.37865E-05         0.00000E+00
    0.47097E-06        -0.35227E-05         0.00000E+00
    0.43069E-06        -0.32580E-05         0.00000E+00
    0.39183E-06        -0.29924E-05         0.00000E+00
    0.35417E-06        -0.27257E-05         0.00000E+00
    0.31746E-06        -0.24578E-05         0.00000E+00
    0.28146E-06        -0.21888E-05         0.00000E+00
    0.24597E-06        -0.19186E-05         0.00000E+00
    0.21082E-06        -0.16472E-05         0.00000E+00
    0.17583E-06        -0.13747E-05         0.00000E+00
    0.14089E-06        -0.11013E-05         0.00000E+00
    0.10591E-06        -0.82692E-06         0.00000E+00
    0.70791E-07        -0.55181E-06         0.00000E+00
    0.35501E-07        -0.27612E-06         0.00000E+00
    0.00000E+00         0.00000E+00         0.00000E+00
    0.53575E-06        -0.40941E-05         0.00000E+00
    0.49311E-06        -0.38293E-05         0.00000E+00
    0.45262E-06        -0.35636E-05         0.00000E+00
    0.41399E-06        -0.32969E-05         0.00000E+00
    0.37692E-06        -0.30290E-05         0.00000E+00
    0.34111E-06        -0.27599E-05         0.00000E+00
    0.30629E-06        -0.24895E-05         0.00000E+00
    0.27216E-06        -0.22177E-05         0.00000E+00
    0.23848E-06        -0.19445E-05         0.00000E+00
    0.20502E-06        -0.16700E-05         0.00000E+00
    0.17158E-06        -0.13941E-05         0.00000E+00
    0.13800E-06        -0.11171E-05         0.00000E+00
    0.10413E-06        -0.83905E-06         0.00000E+00
    0.69883E-07        -0.56005E-06         0.00000E+00
    0.35181E-07        -0.28031E-06         0.00000E+00
    0.00000E+00         0.00000E+00         0.00000E+00
    0.51029E-06        -0.41373E-05         0.00000E+00
    0.46924E-06        -0.38707E-05         0.00000E+00
    0.43056E-06        -0.36031E-05         0.00000E+00
    0.39390E-06        -0.33344E-05         0.00000E+00
    0.35894E-06        -0.30645E-05         0.00000E+00
    0.32534E-06        -0.27930E-05         0.00000E+00
    0.29274E-06        -0.25201E-05         0.00000E+00
    0.26081E-06        -0.22456E-05         0.00000E+00
    0.22927E-06        -0.19696E-05         0.00000E+00
    0.19782E-06        -0.16920E-05         0.00000E+00
    0.16622E-06        -0.14130E-05         0.00000E+00
    0.13425E-06        -0.11325E-05         0.00000E+00
    0.10175E-06        -0.85086E-06         0.00000E+00
    0.68582E-07        -0.56810E-06         0.00000E+00
    0.34679E-07        -0.28442E-06         0.00000E+00
    0.00000E+00         0.00000E+00         0.00000E+00
    0.48039E-06        -0.41787E-05         0.00000E+00
    0.44126E-06        -0.39105E-05         0.00000E+00
    0.40471E-06        -0.36411E-05         0.00000E+00
    0.37037E-06        -0.33705E-05         0.00000E+00
    0.33785E-06        -0.30984E-05         0.00000E+00
    0.30677E-06        -0.28247E-05         0.00000E+00
    0.27672E-06        -0.25494E-05         0.00000E+00
    0.24733E-06        -0.22723E-05         0.00000E+00
    0.21823E-06        -0.19936E-05         0.00000E+00
    0.18911E-06        -0.17131E-05         0.00000E+00
    0.15963E-06        -0.14310E-05         0.00000E+00
    0.12956E-06        -0.11474E-05         0.00000E+00
    0.98683E-07        -0.86227E-06         0.00000E+00
    0.66851E-07        -0.57590E-06         0.00000E+00
    0.33975E-07        -0.28841E-06         0.00000E+00
    0.00000E+00         0.00000E+00         0.00000E+00
    0.44599E-06        -0.42183E-05         0.00000E+00
    0.40911E-06        -0.39484E-05         0.00000E+00
    0.37503E-06        -0.36772E-05         0.00000E+00
    0.34333E-06        -0.34046E-05         0.00000E+00
    0.31358E-06        -0.31304E-05         0.00000E+00
    0.28533E-06        -0.28546E-05         0.00000E+00
    0.25815E-06        -0.25769E-05         0.00000E+00
    0.23159E-06        -0.22975E-05         0.00000E+00
    0.20526E-06        -0.20162E-05         0.00000E+00
    0.17874E-06        -0.17331E-05         0.00000E+00
    0.15170E-06        -0.14482E-05         0.00000E+00
    0.12381E-06        -0.11615E-05         0.00000E+00
    0.94846E-07        -0.87320E-06         0.00000E+00
    0.64626E-07        -0.58340E-06         0.00000E+00
    0.33037E-07        -0.29227E-06         0.00000E+00
    0.00000E+00         0.00000E+00         0.00000E+00
    0.40700E-06        -0.42555E-05         0.00000E+00
    0.37273E-06        -0.39839E-05         0.00000E+00
    0.34147E-06        -0.37110E-05         0.00000E+00
    0.31274E-06        -0.34365E-05         0.00000E+00
    0.28607E-06        -0.31603E-05         0.00000E+00
    0.26095E-06        -0.28823E-05         0.00000E+00
    0.23691E-06        -0.26025E-05         0.00000E+00
    0.21346E-06        -0.23208E-05         0.00000E+00
    0.19015E-06        -0.20372E-05         0.00000E+00
    0.16653E-06        -0.17517E-05         0.00000E+00
    0.14221E-06        -0.14642E-05         0.00000E+00
    0.11683E-06        -0.11748E-05         0.00000E+00
    0.90097E-07        -0.88356E-06         0.00000E+00
    0.61805E-07        -0.59056E-06         0.00000E+00
    0.31804E-07        -0.29598E-06         0.00000E+00
    0.00000E+00         0.00000E+00         0.00000E+00
    0.36335E-06        -0.42901E-05         0.00000E+00
    0.33207E-06        -0.40168E-05         0.00000E+00
    0.30399E-06        -0.37421E-05         0.00000E+00
    0.27858E-06        -0.34657E-05         0.00000E+00
    0.25528E-06        -0.31875E-05         0.00000E+00
    0.23356E-06        -0.29074E-05         0.00000E+00
    0.21288E-06        -0.26256E-05         0.00000E+00
    0.19275E-06        -0.23418E-05         0.00000E+00
    0.17268E-06        -0.20562E-05         0.00000E+00
    0.15222E-06        -0.17686E-05         0.00000E+00
    0.13091E-06        -0.14789E-05         0.00000E+00
    0.10836E-06        -0.11871E-05         0.00000E+00
    0.84227E-07        -0.89324E-06         0.00000E+00
    0.58235E-07        -0.59734E-06         0.00000E+00
    0.30197E-07        -0.29954E-06         0.00000E+00
    0.00000E+00         0.00000E+00         0.00000E+00
    0.31498E-06        -0.43215E-05         0.00000E+00
    0.28711E-06        -0.40467E-05         0.00000E+00
    0.26261E-06        -0.37701E-05         0.00000E+00
    0.24085E-06        -0.34918E-05         0.00000E+00
    0.22121E-06        -0.32116E-05         0.00000E+00
    0.20308E-06        -0.29296E-05         0.00000E+00
    0.18592E-06        -0.26458E-05         0.00000E+00
    0.16924E-06        -0.23603E-05         0.00000E+00
    0.15257E-06        -0.20728E-05         0.00000E+00
    0.13545E-06        -0.17834E-05         0.00000E+00
    0.11743E-06        -0.14920E-05         0.00000E+00
    0.98070E-07        -0.11982E-05         0.00000E+00
    0.76944E-07        -0.90215E-06         0.00000E+00
    0.53705E-07        -0.60369E-06         0.00000E+00
    0.28106E-07        -0.30293E-06         0.00000E+00
    0.00000E+00         0.00000E+00         0.00000E+00
    0.26182E-06        -0.43495E-05         0.00000E+00
    0.23784E-06        -0.40730E-05         0.00000E+00
    0.21736E-06        -0.37946E-05         0.00000E+00
    0.19960E-06        -0.35143E-05         0.00000E+00
    0.18384E-06        -0.32321E-05         0.00000E+00
    0.16944E-06        -0.29483E-05         0.00000E+00
    0.15587E-06        -0.26628E-05         0.00000E+00
    0.14269E-06        -0.23757E-05         0.00000E+00
    0.12947E-06        -0.20868E-05         0.00000E+00
    0.11582E-06        -0.17960E-05         0.00000E+00
    0.10131E-06        -0.15032E-05         0.00000E+00
    0.85485E-07        -0.12079E-05         0.00000E+00
    0.67846E-07        -0.91013E-06         0.00000E+00
    0.47925E-07        -0.60954E-06         0.00000E+00
    0.25378E-07        -0.30614E-06         0.00000E+00
    0.00000E+00         0.00000E+00         0.00000E+00
    0.20380E-06        -0.43734E-05         0.00000E+00
    0.18431E-06        -0.40952E-05         0.00000E+00
    0.16833E-06        -0.38149E-05         0.00000E+00
    0.15490E-06        -0.35326E-05         0.00000E+00
    0.14317E-06        -0.32487E-05         0.00000E+00
    0.13253E-06        -0.29632E-05         0.00000E+00
    0.12253E-06        -0.26763E-05         0.00000E+00
    0.11281E-06        -0.23878E-05         0.00000E+00
    0.10303E-06        -0.20978E-05         0.00000E+00
    0.92885E-07        -0.18060E-05         0.00000E+00
    0.82017E-07        -0.15122E-05         0.00000E+00
    0.70022E-07        -0.12159E-05         0.00000E+00
    0.56380E-07        -0.91695E-06         0.00000E+00
    0.40479E-07        -0.61478E-06         0.00000E+00
    0.21792E-07        -0.30914E-06         0.00000E+00
    0.00000E+00         0.00000E+00         0.00000E+00
    0.14084E-06        -0.43925E-05         0.00000E+00
    0.12662E-06        -0.41126E-05         0.00000E+00
    0.11570E-06        -0.38304E-05         0.00000E+00
    0.10682E-06        -0.35463E-05         0.00000E+00
    0.99132E-07        -0.32608E-05         0.00000E+00
    0.92179E-07        -0.29740E-05         0.00000E+00
    0.85645E-07        -0.26859E-05         0.00000E+00
    0.79283E-07        -0.23965E-05         0.00000E+00
    0.72873E-07        -0.21057E-05         0.00000E+00
    0.66197E-07        -0.18132E-05         0.00000E+00
    0.59011E-07        -0.15187E-05         0.00000E+00
    0.51019E-07        -0.12219E-05         0.00000E+00
    0.41799E-07        -0.92228E-06         0.00000E+00
    0.30726E-07        -0.61918E-06         0.00000E+00
    0.16993E-07        -0.31188E-06         0.00000E+00
    0.00000E+00         0.00000E+00         0.00000E+00
    0.72867E-07        -0.44059E-05         0.00000E+00
    0.65050E-07        -0.41241E-05         0.00000E+00
    0.59641E-07        -0.38401E-05         0.00000E+00
    0.55284E-07        -0.35547E-05         0.00000E+00
    0.51522E-07        -0.32681E-05         0.00000E+00
    0.48115E-07        -0.29804E-05         0.00000E+00
    0.44911E-07        -0.26917E-05         0.00000E+00
    0.41790E-07        -0.24017E-05         0.00000E+00
    0.38640E-07        -0.21103E-05         0.00000E+00
    0.35353E-07        -0.18174E-05         0.00000E+00
    0.31807E-07        -0.15226E-05         0.00000E+00
    0.27847E-07        -0.12255E-05         0.00000E+00
    0.23253E-07        -0.92567E-06         0.00000E+00
    0.17629E-07        -0.62227E-06         0.00000E+00
    0.10302E-07        -0.31421E-06         0.00000E+00
    0.00000E+00         0.00000E+00         0.00000E+00
    0.00000E+00        -0.44116E-05         0.00000E+00
    0.00000E+00        -0.41283E-05         0.00000E+00
    0.00000E+00        -0.38435E-05         0.00000E+00
    0.00000E+00        -0.35575E-05         0.00000E+00
    0.00000E+00        -0.32705E-05         0.00000E+00
    0.00000E+00        -0.29826E-05         0.00000E+00
    0.00000E+00        -0.26935E-05         0.00000E+00
    0.00000E+00        -0.24034E-05         0.00000E+00
    0.00000E+00        -0.21119E-05         0.00000E+00
    0.00000E+00        -0.18188E-05         0.00000E+00
    0.00000E+00        -0.15239E-05         0.00000E+00
    0.00000E+00        -0.12267E-05         0.00000E+00
    0.00000E+00        -0.92683E-06         0.00000E+00
    0.00000E+00        -0.62340E-06         0.00000E+00
    0.00000E+00        -0.31526E-06         0.00000E+00
    0.00000E+00         0.00000E+00         0.00000E+00
CELL_DATA        450
VECTORS vDarcy double 
    0.34700E-05         0.56307E-14         0.00000E+00
    0.34700E-05         0.13261E-13         0.00000E+00
    0.34700E-05         0.15427E-13         0.00000E+00
    0.34700E-05         0.15598E-13         0.00000E+00
    0.34700E-05         0.15630E-13         0.00000E+00
    0.34700E-05         0.15508E-13         0.00000E+00
    0.34700E-05         0.15026E-13         0.00000E+00
    0.34700E-05         0.14218E-13         0.00000E+00
    0.34700E-05         0.13146E-13         0.00000E+00
    0.34700E-05         0.11837E-13         0.00000E+00
    0.34700E-05         0.10306E-13         0.00000E+00
    0.34700E-05         0.85510E-14         0.00000E+00
    0.34700E-05         0.65425E-14         0.00000E+00
    0.34700E-05         0.42268E-14         0.00000E+00
    0.34700E-05         0.14919E-14         0.00000E+00
    0.34700E-05         0.71452E-15         0.00000E+00
    0.34700E-05         0.25771E-14         0.00000E+00
    0.34700E-05         0.47963E-14         0.00000E+00
    0.34700E-05         0.66293E-14         0.00000E+00
    0.34700E-05         0.77684E-14         0.00000E+00
    0.34700E-05         0.83123E-14         0.00000E+00
    0.34700E-05         0.84673E-14         0.00000E+00
    0.34700E-05         0.82832E-14         0.00000E+00
    0.34700E-05         0.77902E-14         0.00000E+00
    0.34700E-05         0.70310E-14         0.00000E+00
    0.34700E-05         0.60458E-14         0.00000E+00
    0.34700E-05         0.48552E-14         0.00000E+00
    0.34700E-05         0.34902E-14         0.00000E+00
    0.34700E-05         0.20130E-14         0.00000E+00
    0.34700E-05         0.62847E-15         0.00000E+00
    0.34700E-05        -0.37549E-15         0.00000E+00
    0.34700E-05        -0.29429E-15         0.00000E+00
    0.34700E-05         0.10810E-14         0.00000E+00
    0.34700E-05         0.25038E-14         0.00000E+00
    0.34700E-05         0.32627E-14         0.00000E+00
    0.34700E-05         0.36638E-14         0.00000E+00
    0.34700E-05         0.38781E-14         0.00000E+00
    0.34700E-05         0.39098E-14         0.00000E+00
    0.34700E-05         0.37416E-14         0.00000E+00
    0.34700E-05         0.33886E-14         0.00000E+00
    0.34700E-05         0.28719E-14         0.00000E+00
    0.34700E-05         0.22369E-14         0.00000E+00
    0.34700E-05         0.15579E-14         0.00000E+00
    0.34700E-05         0.92607E-15         0.00000E+00
    0.34700E-05         0.31686E-15         0.00000E+00
    0.34700E-05        -0.16288E-15         0.00000E+00
    0.34700E-05        -0.10499E-15         0.00000E+00
    0.34700E-05         0.31141E-15         0.00000E+00
    0.34700E-05         0.62237E-15         0.00000E+00
    0.34700E-05         0.79751E-15         0.00000E+00
    0.34700E-05         0.88701E-15         0.00000E+00
    0.34700E-05         0.93190E-15         0.00000E+00
    0.34700E-05         0.94220E-15         0.00000E+00
    0.34700E-05         0.90607E-15         0.00000E+00
    0.34700E-05         0.81536E-15         0.00000E+00
    0.34700E-05         0.67682E-15         0.00000E+00
    0.34700E-05         0.51927E-15         0.00000E+00
    0.34700E-05         0.38012E-15         0.00000E+00
    0.34700E-05         0.25565E-15         0.00000E+00
    0.34700E-05         0.95761E-16         0.00000E+00
    0.34700E-05        -0.22755E-15         0.00000E+00
    0.34700E-05        -0.53847E-15         0.00000E+00
    0.34700E-05        -0.60276E-15         0.00000E+00
    0.34700E-05        -0.59587E-15         0.00000E+00
    0.34700E-05        -0.66109E-15         0.00000E+00
    0.34700E-05        -0.76894E-15         0.00000E+00
    0.34700E-05        -0.86573E-15         0.00000E+00
    0.34700E-05        -0.91982E-15         0.00000E+00
    0.34700E-05        -0.91251E-15         0.00000E+00
    0.34700E-05        -0.84667E-15         0.00000E+00
    0.34700E-05        -0.72763E-15         0.00000E+00
    0.34700E-05        -0.56132E-15         0.00000E+00
    0.34700E-05        -0.37104E-15         0.00000E+00
    0.34700E-05        -0.19315E-15         0.00000E+00
    0.34700E-05        -0.55855E-16         0.00000E+00
    0.34700E-05        -0.46359E-15         0.00000E+00
    0.34700E-05        -0.11302E-14         0.00000E+00
    0.34700E-05        -0.14214E-14         0.00000E+00
    0.34700E-05        -0.15725E-14         0.00000E+00
    0.34700E-05        -0.17060E-14         0.00000E+00
    0.34700E-05        -0.18503E-14         0.00000E+00
    0.34700E-05        -0.19747E-14         0.00000E+00
    0.34700E-05        -0.20305E-14         0.00000E+00
    0.34700E-05        -0.19858E-14         0.00000E+00
    0.34700E-05        -0.18295E-14         0.00000E+00
    0.34700E-05        -0.15682E-14         0.00000E+00
    0.34700E-05        -0.12278E-14         0.00000E+00
    0.34700E-05        -0.85291E-15         0.00000E+00
    0.34700E-05        -0.49067E-15         0.00000E+00
    0.34700E-05        -0.15907E-15         0.00000E+00
    0.34700E-05        -0.58964E-15         0.00000E+00
    0.34700E-05        -0.15170E-14         0.00000E+00
    0.34700E-05        -0.20427E-14         0.00000E+00
    0.34700E-05        -0.23353E-14         0.00000E+00
    0.34700E-05        -0.25056E-14         0.00000E+00
    0.34700E-05        -0.26207E-14         0.00000E+00
    0.34700E-05        -0.26921E-14         0.00000E+00
    0.34700E-05        -0.26917E-14         0.00000E+00
    0.34700E-05        -0.25899E-14         0.00000E+00
    0.34700E-05        -0.23722E-14         0.00000E+00
    0.34700E-05        -0.20434E-14         0.00000E+00
    0.34700E-05        -0.16273E-14         0.00000E+00
    0.34700E-05        -0.11613E-14         0.00000E+00
    0.34700E-05        -0.68494E-15         0.00000E+00
    0.34700E-05        -0.22443E-15         0.00000E+00
    0.34700E-05        -0.66092E-15         0.00000E+00
    0.34700E-05        -0.17588E-14         0.00000E+00
    0.34700E-05        -0.24592E-14         0.00000E+00
    0.34700E-05        -0.28655E-14         0.00000E+00
    0.34700E-05        -0.30787E-14         0.00000E+00
    0.34700E-05        -0.31733E-14         0.00000E+00
    0.34700E-05        -0.31819E-14         0.00000E+00
    0.34700E-05        -0.31069E-14         0.00000E+00
    0.34700E-05        -0.29380E-14         0.00000E+00
    0.34700E-05        -0.26682E-14         0.00000E+00
    0.34700E-05        -0.23022E-14         0.00000E+00
    0.34700E-05        -0.18558E-14         0.00000E+00
    0.34700E-05        -0.13513E-14         0.00000E+00
    0.34700E-05        -0.81282E-15         0.00000E+00
    0.34700E-05        -0.26892E-15         0.00000E+00
    0.34700E-05        -0.70599E-15         0.00000E+00
    0.34700E-05        -0.19006E-14         0.00000E+00
    0.34700E-05        -0.27021E-14         0.00000E+00
    0.34700E-05        -0.31945E-14         0.00000E+00
    0.34700E-05        -0.34572E-14         0.00000E+00
    0.34700E-05        -0.35532E-14         0.00000E+00
    0.34700E-05        -0.35236E-14         0.00000E+00
    0.34700E-05        -0.33906E-14         0.00000E+00
    0.34700E-05        -0.31632E-14         0.00000E+00
    0.34700E-05        -0.28473E-14         0.00000E+00
    0.34700E-05        -0.24509E-14         0.00000E+00
    0.34700E-05        -0.19841E-14         0.00000E+00
    0.34700E-05        -0.14595E-14         0.00000E+00
    0.34700E-05        -0.89355E-15         0.00000E+00
    0.34700E-05        -0.30124E-15         0.00000E+00
    0.34700E-05        -0.72049E-15         0.00000E+00
    0.34700E-05        -0.19578E-14         0.00000E+00
    0.34700E-05        -0.28212E-14         0.00000E+00
    0.34700E-05        -0.33781E-14         0.00000E+00
    0.34700E-05        -0.36890E-14         0.00000E+00
    0.34700E-05        -0.38037E-14         0.00000E+00
    0.34700E-05        -0.37632E-14         0.00000E+00
    0.34700E-05        -0.35995E-14         0.00000E+00
    0.34700E-05        -0.33344E-14         0.00000E+00
    0.34700E-05        -0.29830E-14         0.00000E+00
    0.34700E-05        -0.25578E-14         0.00000E+00
    0.34700E-05        -0.20696E-14         0.00000E+00
    0.34700E-05        -0.15275E-14         0.00000E+00
    0.34700E-05        -0.94183E-15         0.00000E+00
    0.34700E-05        -0.31992E-15         0.00000E+00
    0.34700E-05        -0.71562E-15         0.00000E+00
    0.34700E-05        -0.19619E-14         0.00000E+00
    0.34700E-05        -0.28637E-14         0.00000E+00
    0.34700E-05        -0.34695E-14         0.00000E+00
    0.34700E-05        -0.38234E-14         0.00000E+00
    0.34700E-05        -0.39666E-14         0.00000E+00
    0.34700E-05        -0.39361E-14         0.00000E+00
    0.34700E-05        -0.37656E-14         0.00000E+00
    0.34700E-05        -0.34828E-14         0.00000E+00
    0.34700E-05        -0.31093E-14         0.00000E+00
    0.34700E-05        -0.26608E-14         0.00000E+00
    0.34700E-05        -0.21506E-14         0.00000E+00
    0.34700E-05        -0.15880E-14         0.00000E+00
    0.34700E-05        -0.97754E-15         0.00000E+00
    0.34700E-05        -0.33037E-15         0.00000E+00
    0.34700E-05        -0.70319E-15         0.00000E+00
    0.34700E-05        -0.19439E-14         0.00000E+00
    0.34700E-05        -0.28690E-14         0.00000E+00
    0.34700E-05        -0.35108E-14         0.00000E+00
    0.34700E-05        -0.39023E-14         0.00000E+00
    0.34700E-05        -0.40772E-14         0.00000E+00
    0.34700E-05        -0.40683E-14         0.00000E+00
    0.34700E-05        -0.39068E-14         0.00000E+00
    0.34700E-05        -0.36215E-14         0.00000E+00
    0.34700E-05        -0.32368E-14         0.00000E+00
    0.34700E-05        -0.27719E-14         0.00000E+00
    0.34700E-05        -0.22403E-14         0.00000E+00
    0.34700E-05        -0.16532E-14         0.00000E+00
    0.34700E-05        -0.10178E-14         0.00000E+00
    0.34700E-05        -0.34438E-15         0.00000E+00
    0.34700E-05        -0.69140E-15         0.00000E+00
    0.34700E-05        -0.19234E-14         0.00000E+00
    0.34700E-05        -0.28637E-14         0.00000E+00
    0.34700E-05        -0.35335E-14         0.00000E+00
    0.34700E-05        -0.39580E-14         0.00000E+00
    0.34700E-05        -0.41642E-14         0.00000E+00
    0.34700E-05        -0.41806E-14         0.00000E+00
    0.34700E-05        -0.40354E-14         0.00000E+00
    0.34700E-05        -0.37559E-14         0.00000E+00
    0.34700E-05        -0.33667E-14         0.00000E+00
    0.34700E-05        -0.28881E-14         0.00000E+00
    0.34700E-05        -0.23361E-14         0.00000E+00
    0.34700E-05        -0.17249E-14         0.00000E+00
    0.34700E-05        -0.10666E-14         0.00000E+00
    0.34700E-05        -0.36362E-15         0.00000E+00
    0.34700E-05        -0.68353E-15         0.00000E+00
    0.34700E-05        -0.19107E-14         0.00000E+00
    0.34700E-05        -0.28642E-14         0.00000E+00
    0.34700E-05        -0.35585E-14         0.00000E+00
    0.34700E-05        -0.40126E-14         0.00000E+00
    0.34700E-05        -0.42483E-14         0.00000E+00
    0.34700E-05        -0.42897E-14         0.00000E+00
    0.34700E-05        -0.41621E-14         0.00000E+00
    0.34700E-05        -0.38908E-14         0.00000E+00
    0.34700E-05        -0.34995E-14         0.00000E+00
    0.34700E-05        -0.30093E-14         0.00000E+00
    0.34700E-05        -0.24388E-14         0.00000E+00
    0.34700E-05        -0.18035E-14         0.00000E+00
    0.34700E-05        -0.11161E-14         0.00000E+00
    0.34700E-05        -0.38033E-15         0.00000E+00
    0.34700E-05        -0.68100E-15         0.00000E+00
    0.34700E-05        -0.19109E-14         0.00000E+00
    0.34700E-05        -0.28803E-14         0.00000E+00
    0.34700E-05        -0.35985E-14         0.00000E+00
    0.34700E-05        -0.40798E-14         0.00000E+00
    0.34700E-05        -0.43419E-14         0.00000E+00
    0.34700E-05        -0.44058E-14         0.00000E+00
    0.34700E-05        -0.42942E-14         0.00000E+00
    0.34700E-05        -0.40305E-14         0.00000E+00
    0.34700E-05        -0.36377E-14         0.00000E+00
    0.34700E-05        -0.31373E-14         0.00000E+00
    0.34700E-05        -0.25485E-14         0.00000E+00
    0.34700E-05        -0.18869E-14         0.00000E+00
    0.34700E-05        -0.11640E-14         0.00000E+00
    0.34700E-05        -0.39428E-15         0.00000E+00
    0.34700E-05        -0.68540E-15         0.00000E+00
    0.34700E-05        -0.19280E-14         0.00000E+00
    0.34700E-05        -0.29172E-14         0.00000E+00
    0.34700E-05        -0.36592E-14         0.00000E+00
    0.34700E-05        -0.41653E-14         0.00000E+00
    0.34700E-05        -0.44505E-14         0.00000E+00
    0.34700E-05        -0.45333E-14         0.00000E+00
    0.34700E-05        -0.44347E-14         0.00000E+00
    0.34700E-05        -0.41768E-14         0.00000E+00
    0.34700E-05        -0.37817E-14         0.00000E+00
    0.34700E-05        -0.32699E-14         0.00000E+00
    0.34700E-05        -0.26608E-14         0.00000E+00
    0.34700E-05        -0.19711E-14         0.00000E+00
    0.34700E-05        -0.12154E-14         0.00000E+00
    0.34700E-05        -0.41137E-15         0.00000E+00
    0.34700E-05        -0.69657E-15         0.00000E+00
    0.34700E-05        -0.19622E-14         0.00000E+00
    0.34700E-05        -0.29749E-14         0.00000E+00
    0.34700E-05        -0.37404E-14         0.00000E+00
    0.34700E-05        -0.42687E-14         0.00000E+00
    0.34700E-05        -0.45732E-14         0.00000E+00
    0.34700E-05        -0.46711E-14         0.00000E+00
    0.34700E-05        -0.45822E-14         0.00000E+00
    0.34700E-05        -0.43269E-14         0.00000E+00
    0.34700E-05        -0.39262E-14         0.00000E+00
    0.34700E-05        -0.34004E-14         0.00000E+00
    0.34700E-05        -0.27691E-14         0.00000E+00
    0.34700E-05        -0.20527E-14         0.00000E+00
    0.34700E-05        -0.12699E-14         0.00000E+00
    0.34700E-05        -0.43191E-15         0.00000E+00
    0.34700E-05        -0.71276E-15         0.00000E+00
    0.34700E-05        -0.20089E-14         0.00000E+00
    0.34700E-05        -0.30481E-14         0.00000E+00
    0.34700E-05        -0.38365E-14         0.00000E+00
    0.34700E-05        -0.43838E-14         0.00000E+00
    0.34700E-05        -0.47036E-14         0.00000E+00
    0.34700E-05        -0.48124E-14         0.00000E+00
    0.34700E-05        -0.47288E-14         0.00000E+00
    0.34700E-05        -0.44720E-14         0.00000E+00
    0.34700E-05        -0.40622E-14         0.00000E+00
    0.34700E-05        -0.35211E-14         0.00000E+00
    0.34700E-05        -0.28706E-14         0.00000E+00
    0.34700E-05        -0.21317E-14         0.00000E+00
    0.34700E-05        -0.13226E-14         0.00000E+00
    0.34700E-05        -0.45121E-15         0.00000E+00
    0.34700E-05        -0.73216E-15         0.00000E+00
    0.34700E-05        -0.20628E-14         0.00000E+00
    0.34700E-05        -0.31286E-14         0.00000E+00
    0.34700E-05        -0.39372E-14         0.00000E+00
    0.34700E-05        -0.44995E-14         0.00000E+00
    0.34700E-05        -0.48297E-14         0.00000E+00
    0.34700E-05        -0.49443E-14         0.00000E+00
    0.34700E-05        -0.48613E-14         0.00000E+00
    0.34700E-05        -0.46003E-14         0.00000E+00
    0.34700E-05        -0.41822E-14         0.00000E+00
    0.34700E-05        -0.36296E-14         0.00000E+00
    0.34700E-05        -0.29646E-14         0.00000E+00
    0.34700E-05        -0.22062E-14         0.00000E+00
    0.34700E-05        -0.13692E-14         0.00000E+00
    0.34700E-05        -0.46625E-15         0.00000E+00
    0.34700E-05        -0.75251E-15         0.00000E+00
    0.34700E-05        -0.21175E-14         0.00000E+00
    0.34700E-05        -0.32064E-14         0.00000E+00
    0.34700E-05        -0.40297E-14         0.00000E+00
    0.34700E-05        -0.46004E-14         0.00000E+00
    0.34700E-05        -0.49346E-14         0.00000E+00
    0.34700E-05        -0.50499E-14         0.00000E+00
    0.34700E-05        -0.49652E-14         0.00000E+00
    0.34700E-05        -0.47008E-14         0.00000E+00
    0.34700E-05        -0.42785E-14         0.00000E+00
    0.34700E-05        -0.37204E-14         0.00000E+00
    0.34700E-05        -0.30455E-14         0.00000E+00
    0.34700E-05        -0.22704E-14         0.00000E+00
    0.34700E-05        -0.14088E-14         0.00000E+00
    0.34700E-05        -0.47901E-15         0.00000E+00
    0.34700E-05        -0.77150E-15         0.00000E+00
    0.34700E-05        -0.21663E-14         0.00000E+00
    0.34700E-05        -0.32707E-14         0.00000E+00
    0.34700E-05        -0.40989E-14         0.00000E+00
    0.34700E-05        -0.46681E-14         0.00000E+00
    0.34700E-05        -0.49981E-14         0.00000E+00
    0.34700E-05        -0.51093E-14         0.00000E+00
    0.34700E-05        -0.50224E-14         0.00000E+00
    0.34700E-05        -0.47585E-14         0.00000E+00
    0.34700E-05        -0.43388E-14         0.00000E+00
    0.34700E-05        -0.37820E-14         0.00000E+00
    0.34700E-05        -0.31045E-14         0.00000E+00
    0.34700E-05        -0.23200E-14         0.00000E+00
    0.34700E-05        -0.14445E-14         0.00000E+00
    0.34700E-05        -0.49321E-15         0.00000E+00
    0.34700E-05        -0.78716E-15         0.00000E+00
    0.34700E-05        -0.22029E-14         0.00000E+00
    0.34700E-05        -0.33102E-14         0.00000E+00
    0.34700E-05        -0.41289E-14         0.00000E+00
    0.34700E-05        -0.46824E-14         0.00000E+00
    0.34700E-05        -0.49970E-14         0.00000E+00
    0.34700E-05        -0.50981E-14         0.00000E+00
    0.34700E-05        -0.50093E-14         0.00000E+00
    0.34700E-05        -0.47524E-14         0.00000E+00
    0.34700E-05        -0.43451E-14         0.00000E+00
    0.34700E-05        -0.38019E-14         0.00000E+00
    0.34700E-05        -0.31341E-14         0.00000E+00
    0.34700E-05        -0.23542E-14         0.00000E+00
    0.34700E-05        -0.14757E-14         0.00000E+00
    0.34700E-05        -0.50658E-15         0.00000E+00
    0.34700E-05        -0.79783E-15         0.00000E+00
    0.34700E-05        -0.22219E-14         0.00000E+00
    0.34700E-05        -0.33147E-14         0.00000E+00
    0.34700E-05        -0.41032E-14         0.00000E+00
    0.34700E-05        -0.46210E-14         0.00000E+00
    0.34700E-05        -0.49043E-14         0.00000E+00
    0.34700E-05        -0.49870E-14         0.00000E+00
    0.34700E-05        -0.48976E-14         0.00000E+00
    0.34700E-05        -0.46573E-14         0.00000E+00
    0.34700E-05        -0.42780E-14         0.00000E+00
    0.34700E-05        -0.37667E-14         0.00000E+00
    0.34700E-05        -0.31282E-14         0.00000E+00
    0.34700E-05        -0.23699E-14         0.00000E+00
    0.34700E-05        -0.14977E-14         0.00000E+00
    0.34700E-05        -0.51672E-15         0.00000E+00
    0.34700E-05        -0.80283E-15         0.00000E+00
    0.34700E-05        -0.22193E-14         0.00000E+00
    0.34700E-05        -0.32737E-14         0.00000E+00
    0.34700E-05        -0.40042E-14         0.00000E+00
    0.34700E-05        -0.44596E-14         0.00000E+00
    0.34700E-05        -0.46913E-14         0.00000E+00
    0.34700E-05        -0.47456E-14         0.00000E+00
    0.34700E-05        -0.46573E-14         0.00000E+00
    0.34700E-05        -0.44460E-14         0.00000E+00
    0.34700E-05        -0.41159E-14         0.00000E+00
    0.34700E-05        -0.36622E-14         0.00000E+00
    0.34700E-05        -0.30785E-14         0.00000E+00
    0.34700E-05        -0.23609E-14         0.00000E+00
    0.34700E-05        -0.15088E-14         0.00000E+00
    0.34700E-05        -0.52460E-15         0.00000E+00
    0.34700E-05        -0.80182E-15         0.00000E+00
    0.34700E-05        -0.21911E-14         0.00000E+00
    0.34700E-05        -0.31754E-14         0.00000E+00
    0.34700E-05        -0.38117E-14         0.00000E+00
    0.34700E-05        -0.41726E-14         0.00000E+00
    0.34700E-05        -0.43311E-14         0.00000E+00
    0.34700E-05        -0.43480E-14         0.00000E+00
    0.34700E-05        -0.42630E-14         0.00000E+00
    0.34700E-05        -0.40930E-14         0.00000E+00
    0.34700E-05        -0.38346E-14         0.00000E+00
    0.34700E-05        -0.34691E-14         0.00000E+00
    0.34700E-05        -0.29714E-14         0.00000E+00
    0.34700E-05        -0.23209E-14         0.00000E+00
    0.34700E-05        -0.15077E-14         0.00000E+00
    0.34700E-05        -0.53000E-15         0.00000E+00
    0.34700E-05        -0.79418E-15         0.00000E+00
    0.34700E-05        -0.21307E-14         0.00000E+00
    0.34700E-05        -0.30015E-14         0.00000E+00
    0.34700E-05        -0.34988E-14         0.00000E+00
    0.34700E-05        -0.37333E-14         0.00000E+00
    0.34700E-05        -0.38047E-14         0.00000E+00
    0.34700E-05        -0.37818E-14         0.00000E+00
    0.34700E-05        -0.37027E-14         0.00000E+00
    0.34700E-05        -0.35808E-14         0.00000E+00
    0.34700E-05        -0.34086E-14         0.00000E+00
    0.34700E-05        -0.31587E-14         0.00000E+00
    0.34700E-05        -0.27846E-14         0.00000E+00
    0.34700E-05        -0.22384E-14         0.00000E+00
    0.34700E-05        -0.14912E-14         0.00000E+00
    0.34700E-05        -0.53256E-15         0.00000E+00
    0.34700E-05        -0.77770E-15         0.00000E+00
    0.34700E-05        -0.20227E-14         0.00000E+00
    0.34700E-05        -0.27178E-14         0.00000E+00
    0.34700E-05        -0.30271E-14         0.00000E+00
    0.34700E-05        -0.31196E-14         0.00000E+00
    0.34700E-05        -0.31103E-14         0.00000E+00
    0.34700E-05        -0.30572E-14         0.00000E+00
    0.34700E-05        -0.29875E-14         0.00000E+00
    0.34700E-05        -0.29102E-14         0.00000E+00
    0.34700E-05        -0.28196E-14         0.00000E+00
    0.34700E-05        -0.26929E-14         0.00000E+00
    0.34700E-05        -0.24787E-14         0.00000E+00
    0.34700E-05        -0.20895E-14         0.00000E+00
    0.34700E-05        -0.14509E-14         0.00000E+00
    0.34700E-05        -0.53188E-15         0.00000E+00
    0.34700E-05        -0.74292E-15         0.00000E+00
    0.34700E-05        -0.18246E-14         0.00000E+00
    0.34700E-05        -0.22554E-14         0.00000E+00
    0.34700E-05        -0.23523E-14         0.00000E+00
    0.34700E-05        -0.23323E-14         0.00000E+00
    0.34700E-05        -0.22750E-14         0.00000E+00
    0.34700E-05        -0.22117E-14         0.00000E+00
    0.34700E-05        -0.21555E-14         0.00000E+00
    0.34700E-05        -0.21111E-14         0.00000E+00
    0.34700E-05        -0.20774E-14         0.00000E+00
    0.34700E-05        -0.20451E-14         0.00000E+00
    0.34700E-05        -0.19852E-14         0.00000E+00
    0.34700E-05        -0.18173E-14         0.00000E+00
    0.34700E-05        -0.13669E-14         0.00000E+00
    0.34700E-05        -0.52102E-15         0.00000E+00
    0.34700E-05        -0.65075E-15         0.00000E+00
    0.34700E-05        -0.14102E-14         0.00000E+00
    0.34700E-05        -0.15122E-14         0.00000E+00
    0.34700E-05        -0.14772E-14         0.00000E+00
    0.34700E-05        -0.14175E-14         0.00000E+00
    0.34700E-05        -0.13580E-14         0.00000E+00
    0.34700E-05        -0.13074E-14         0.00000E+00
    0.34700E-05        -0.12695E-14         0.00000E+00
    0.34700E-05        -0.12461E-14         0.00000E+00
    0.34700E-05        -0.12383E-14         0.00000E+00
    0.34700E-05        -0.12463E-14         0.00000E+00
    0.34700E-05        -0.12668E-14         0.00000E+00
    0.34700E-05        -0.12781E-14         0.00000E+00
    0.34700E-05        -0.11586E-14         0.00000E+00
    0.34700E-05        -0.52039E-15         0.00000E+00
    0.34700E-05        -0.29122E-15         0.00000E+00
    0.34700E-05        -0.56259E-15         0.00000E+00
    0.34700E-05        -0.52823E-15         0.00000E+00
    0.34700E-05        -0.49785E-15         0.00000E+00
    0.34700E-05        -0.46864E-15         0.00000E+00
    0.34700E-05        -0.44421E-15         0.00000E+00
    0.34700E-05        -0.42487E-15         0.00000E+00
    0.34700E-05        -0.41117E-15         0.00000E+00
    0.34700E-05        -0.40340E-15         0.00000E+00
    0.34700E-05        -0.40236E-15         0.00000E+00
    0.34700E-05        -0.40907E-15         0.00000E+00
    0.34700E-05        -0.42651E-15         0.00000E+00
    0.34700E-05        -0.45797E-15         0.00000E+00
    0.34700E-05        -0.50337E-15         0.00000E+00
    0.34700E-05        -0.26471E-15         0.00000E+00
POINT_DATA        496
VECTORS vDarcyNodal double 
    0.34700E-05         0.93295E-14         0.00000E+00
    0.34700E-05         0.15066E-13         0.00000E+00
    0.34700E-05         0.21728E-13         0.00000E+00
    0.34700E-05         0.22146E-13         0.00000E+00
    0.34700E-05         0.21109E-13         0.00000E+00
    0.34700E-05         0.20196E-13         0.00000E+00
    0.34700E-05         0.19318E-13         0.00000E+00
    0.34700E-05         0.18203E-13         0.00000E+00
    0.34700E-05         0.16869E-13         0.00000E+00
    0.34700E-05         0.15348E-13         0.00000E+00
    0.34700E-05         0.13628E-13         0.00000E+00
    0.34700E-05         0.11698E-13         0.00000E+00
    0.34700E-05         0.95319E-14         0.00000E+00
    0.34700E-05         0.70695E-14         0.00000E+00
    0.34700E-05         0.39658E-14         0.00000E+00
    0.34700E-05         0.21760E-14         0.00000E+00
    0.34700E-05         0.19320E-14         0.00000E+00
    0.34700E-05         0.38260E-14         0.00000E+00
    0.34700E-05         0.69604E-14         0.00000E+00
    0.34700E-05         0.88782E-14         0.00000E+00
    0.34700E-05         0.10119E-13         0.00000E+00
    0.34700E-05         0.10943E-13         0.00000E+00
    0.34700E-05         0.11216E-13         0.00000E+00
    0.34700E-05         0.11040E-13         0.00000E+00
    0.34700E-05         0.10494E-13         0.00000E+00
    0.34700E-05         0.96344E-14         0.00000E+00
    0.34700E-05         0.85144E-14         0.00000E+00
    0.34700E-05         0.71589E-14         0.00000E+00
    0.34700E-05         0.55616E-14         0.00000E+00
    0.34700E-05         0.36998E-14         0.00000E+00
    0.34700E-05         0.17529E-14         0.00000E+00
    0.34700E-05         0.80775E-15         0.00000E+00
    0.34700E-05        -0.50295E-15         0.00000E+00
    0.34700E-05        -0.53440E-15         0.00000E+00
    0.34700E-05         0.41297E-15         0.00000E+00
    0.34700E-05         0.25473E-14         0.00000E+00
    0.34700E-05         0.42790E-14         0.00000E+00
    0.34700E-05         0.51378E-14         0.00000E+00
    0.34700E-05         0.55635E-14         0.00000E+00
    0.34700E-05         0.57107E-14         0.00000E+00
    0.34700E-05         0.55795E-14         0.00000E+00
    0.34700E-05         0.51868E-14         0.00000E+00
    0.34700E-05         0.45624E-14         0.00000E+00
    0.34700E-05         0.37421E-14         0.00000E+00
    0.34700E-05         0.27838E-14         0.00000E+00
    0.34700E-05         0.18034E-14         0.00000E+00
    0.34700E-05         0.88857E-15         0.00000E+00
    0.34700E-05         0.44919E-15         0.00000E+00
    0.34700E-05        -0.24804E-15         0.00000E+00
    0.34700E-05        -0.13539E-15         0.00000E+00
    0.34700E-05         0.37375E-15         0.00000E+00
    0.34700E-05         0.10376E-14         0.00000E+00
    0.34700E-05         0.14876E-14         0.00000E+00
    0.34700E-05         0.17887E-14         0.00000E+00
    0.34700E-05         0.19783E-14         0.00000E+00
    0.34700E-05         0.20772E-14         0.00000E+00
    0.34700E-05         0.20719E-14         0.00000E+00
    0.34700E-05         0.19434E-14         0.00000E+00
    0.34700E-05         0.16981E-14         0.00000E+00
    0.34700E-05         0.13667E-14         0.00000E+00
    0.34700E-05         0.10110E-14         0.00000E+00
    0.34700E-05         0.68059E-15         0.00000E+00
    0.34700E-05         0.35435E-15         0.00000E+00
    0.34700E-05         0.18453E-15         0.00000E+00
    0.34700E-05        -0.77737E-16         0.00000E+00
    0.34700E-05        -0.13250E-15         0.00000E+00
    0.34700E-05        -0.16733E-15         0.00000E+00
    0.34700E-05        -0.10378E-15         0.00000E+00
    0.34700E-05        -0.67729E-16         0.00000E+00
    0.34700E-05        -0.10422E-15         0.00000E+00
    0.34700E-05        -0.15942E-15         0.00000E+00
    0.34700E-05        -0.20314E-15         0.00000E+00
    0.34700E-05        -0.22369E-15         0.00000E+00
    0.34700E-05        -0.22194E-15         0.00000E+00
    0.34700E-05        -0.20590E-15         0.00000E+00
    0.34700E-05        -0.17064E-15         0.00000E+00
    0.34700E-05        -0.11166E-15         0.00000E+00
    0.34700E-05        -0.44819E-16         0.00000E+00
    0.34700E-05        -0.29210E-17         0.00000E+00
    0.34700E-05         0.70138E-17         0.00000E+00
    0.34700E-05        -0.37737E-15         0.00000E+00
    0.34700E-05        -0.63353E-15         0.00000E+00
    0.34700E-05        -0.97387E-15         0.00000E+00
    0.34700E-05        -0.10949E-14         0.00000E+00
    0.34700E-05        -0.11892E-14         0.00000E+00
    0.34700E-05        -0.13258E-14         0.00000E+00
    0.34700E-05        -0.14753E-14         0.00000E+00
    0.34700E-05        -0.15824E-14         0.00000E+00
    0.34700E-05        -0.16086E-14         0.00000E+00
    0.34700E-05        -0.15372E-14         0.00000E+00
    0.34700E-05        -0.13684E-14         0.00000E+00
    0.34700E-05        -0.11183E-14         0.00000E+00
    0.34700E-05        -0.82072E-15         0.00000E+00
    0.34700E-05        -0.51938E-15         0.00000E+00
    0.34700E-05        -0.24609E-15         0.00000E+00
    0.34700E-05        -0.11872E-15         0.00000E+00
    0.34700E-05        -0.54985E-15         0.00000E+00
    0.34700E-05        -0.96024E-15         0.00000E+00
    0.34700E-05        -0.15776E-14         0.00000E+00
    0.34700E-05        -0.18990E-14         0.00000E+00
    0.34700E-05        -0.20892E-14         0.00000E+00
    0.34700E-05        -0.22305E-14         0.00000E+00
    0.34700E-05        -0.23497E-14         0.00000E+00
    0.34700E-05        -0.24227E-14         0.00000E+00
    0.34700E-05        -0.24076E-14         0.00000E+00
    0.34700E-05        -0.22780E-14         0.00000E+00
    0.34700E-05        -0.20293E-14         0.00000E+00
    0.34700E-05        -0.16777E-14         0.00000E+00
    0.34700E-05        -0.12600E-14         0.00000E+00
    0.34700E-05        -0.82421E-15         0.00000E+00
    0.34700E-05        -0.40366E-15         0.00000E+00
    0.34700E-05        -0.19939E-15         0.00000E+00
    0.34700E-05        -0.62945E-15         0.00000E+00
    0.34700E-05        -0.11464E-14         0.00000E+00
    0.34700E-05        -0.19821E-14         0.00000E+00
    0.34700E-05        -0.24790E-14         0.00000E+00
    0.34700E-05        -0.27517E-14         0.00000E+00
    0.34700E-05        -0.28958E-14         0.00000E+00
    0.34700E-05        -0.29631E-14         0.00000E+00
    0.34700E-05        -0.29611E-14         0.00000E+00
    0.34700E-05        -0.28740E-14         0.00000E+00
    0.34700E-05        -0.26841E-14         0.00000E+00
    0.34700E-05        -0.23863E-14         0.00000E+00
    0.34700E-05        -0.19930E-14         0.00000E+00
    0.34700E-05        -0.15286E-14         0.00000E+00
    0.34700E-05        -0.10220E-14         0.00000E+00
    0.34700E-05        -0.50572E-15         0.00000E+00
    0.34700E-05        -0.24949E-15         0.00000E+00
    0.34700E-05        -0.69241E-15         0.00000E+00
    0.34700E-05        -0.12734E-14         0.00000E+00
    0.34700E-05        -0.22360E-14         0.00000E+00
    0.34700E-05        -0.28456E-14         0.00000E+00
    0.34700E-05        -0.31924E-14         0.00000E+00
    0.34700E-05        -0.33561E-14         0.00000E+00
    0.34700E-05        -0.33921E-14         0.00000E+00
    0.34700E-05        -0.33277E-14         0.00000E+00
    0.34700E-05        -0.31709E-14         0.00000E+00
    0.34700E-05        -0.29222E-14         0.00000E+00
    0.34700E-05        -0.25841E-14         0.00000E+00
    0.34700E-05        -0.21650E-14         0.00000E+00
    0.34700E-05        -0.16785E-14         0.00000E+00
    0.34700E-05        -0.11421E-14         0.00000E+00
    0.34700E-05        -0.57602E-15         0.00000E+00
    0.34700E-05        -0.28836E-15         0.00000E+00
    0.34700E-05        -0.71958E-15         0.00000E+00
    0.34700E-05        -0.13332E-14         0.00000E+00
    0.34700E-05        -0.23667E-14         0.00000E+00
    0.34700E-05        -0.30510E-14         0.00000E+00
    0.34700E-05        -0.34593E-14         0.00000E+00
    0.34700E-05        -0.36542E-14         0.00000E+00
    0.34700E-05        -0.36847E-14         0.00000E+00
    0.34700E-05        -0.35865E-14         0.00000E+00
    0.34700E-05        -0.33828E-14         0.00000E+00
    0.34700E-05        -0.30882E-14         0.00000E+00
    0.34700E-05        -0.27140E-14         0.00000E+00
    0.34700E-05        -0.22700E-14         0.00000E+00
    0.34700E-05        -0.17650E-14         0.00000E+00
    0.34700E-05        -0.12109E-14         0.00000E+00
    0.34700E-05        -0.61876E-15         0.00000E+00
    0.34700E-05        -0.31410E-15         0.00000E+00
    0.34700E-05        -0.72140E-15         0.00000E+00
    0.34700E-05        -0.13451E-14         0.00000E+00
    0.34700E-05        -0.24123E-14         0.00000E+00
    0.34700E-05        -0.31483E-14         0.00000E+00
    0.34700E-05        -0.36078E-14         0.00000E+00
    0.34700E-05        -0.38384E-14         0.00000E+00
    0.34700E-05        -0.38823E-14         0.00000E+00
    0.34700E-05        -0.37763E-14         0.00000E+00
    0.34700E-05        -0.35511E-14         0.00000E+00
    0.34700E-05        -0.32292E-14         0.00000E+00
    0.34700E-05        -0.28268E-14         0.00000E+00
    0.34700E-05        -0.23574E-14         0.00000E+00
    0.34700E-05        -0.18321E-14         0.00000E+00
    0.34700E-05        -0.12585E-14         0.00000E+00
    0.34700E-05        -0.64299E-15         0.00000E+00
    0.34700E-05        -0.32574E-15         0.00000E+00
    0.34700E-05        -0.70981E-15         0.00000E+00
    0.34700E-05        -0.13324E-14         0.00000E+00
    0.34700E-05        -0.24133E-14         0.00000E+00
    0.34700E-05        -0.31848E-14         0.00000E+00
    0.34700E-05        -0.36851E-14         0.00000E+00
    0.34700E-05        -0.39515E-14         0.00000E+00
    0.34700E-05        -0.40203E-14         0.00000E+00
    0.34700E-05        -0.39253E-14         0.00000E+00
    0.34700E-05        -0.36973E-14         0.00000E+00
    0.34700E-05        -0.33629E-14         0.00000E+00
    0.34700E-05        -0.29433E-14         0.00000E+00
    0.34700E-05        -0.24541E-14         0.00000E+00
    0.34700E-05        -0.19065E-14         0.00000E+00
    0.34700E-05        -0.13071E-14         0.00000E+00
    0.34700E-05        -0.66492E-15         0.00000E+00
    0.34700E-05        -0.33500E-15         0.00000E+00
    0.34700E-05        -0.69655E-15         0.00000E+00
    0.34700E-05        -0.13146E-14         0.00000E+00
    0.34700E-05        -0.23995E-14         0.00000E+00
    0.34700E-05        -0.31950E-14         0.00000E+00
    0.34700E-05        -0.37281E-14         0.00000E+00
    0.34700E-05        -0.40280E-14         0.00000E+00
    0.34700E-05        -0.41251E-14         0.00000E+00
    0.34700E-05        -0.40498E-14         0.00000E+00
    0.34700E-05        -0.38310E-14         0.00000E+00
    0.34700E-05        -0.34954E-14         0.00000E+00
    0.34700E-05        -0.30654E-14         0.00000E+00
    0.34700E-05        -0.25581E-14         0.00000E+00
    0.34700E-05        -0.19870E-14         0.00000E+00
    0.34700E-05        -0.13639E-14         0.00000E+00
    0.34700E-05        -0.69722E-15         0.00000E+00
    0.34700E-05        -0.35372E-15         0.00000E+00
    0.34700E-05        -0.68625E-15         0.00000E+00
    0.34700E-05        -0.13002E-14         0.00000E+00
    0.34700E-05        -0.23876E-14         0.00000E+00
    0.34700E-05        -0.32022E-14         0.00000E+00
    0.34700E-05        -0.37633E-14         0.00000E+00
    0.34700E-05        -0.40941E-14         0.00000E+00
    0.34700E-05        -0.42196E-14         0.00000E+00
    0.34700E-05        -0.41661E-14         0.00000E+00
    0.34700E-05        -0.39603E-14         0.00000E+00
    0.34700E-05        -0.36273E-14         0.00000E+00
    0.34700E-05        -0.31895E-14         0.00000E+00
    0.34700E-05        -0.26662E-14         0.00000E+00
    0.34700E-05        -0.20740E-14         0.00000E+00
    0.34700E-05        -0.14275E-14         0.00000E+00
    0.34700E-05        -0.73296E-15         0.00000E+00
    0.34700E-05        -0.37351E-15         0.00000E+00
    0.34700E-05        -0.68080E-15         0.00000E+00
    0.34700E-05        -0.12940E-14         0.00000E+00
    0.34700E-05        -0.23873E-14         0.00000E+00
    0.34700E-05        -0.32206E-14         0.00000E+00
    0.34700E-05        -0.38078E-14         0.00000E+00
    0.34700E-05        -0.41668E-14         0.00000E+00
    0.34700E-05        -0.43184E-14         0.00000E+00
    0.34700E-05        -0.42857E-14         0.00000E+00
    0.34700E-05        -0.40926E-14         0.00000E+00
    0.34700E-05        -0.37631E-14         0.00000E+00
    0.34700E-05        -0.33194E-14         0.00000E+00
    0.34700E-05        -0.27820E-14         0.00000E+00
    0.34700E-05        -0.21683E-14         0.00000E+00
    0.34700E-05        -0.14921E-14         0.00000E+00
    0.34700E-05        -0.76342E-15         0.00000E+00
    0.34700E-05        -0.38716E-15         0.00000E+00
    0.34700E-05        -0.68121E-15         0.00000E+00
    0.34700E-05        -0.12980E-14         0.00000E+00
    0.34700E-05        -0.24039E-14         0.00000E+00
    0.34700E-05        -0.32582E-14         0.00000E+00
    0.34700E-05        -0.38705E-14         0.00000E+00
    0.34700E-05        -0.42549E-14         0.00000E+00
    0.34700E-05        -0.44293E-14         0.00000E+00
    0.34700E-05        -0.44144E-14         0.00000E+00
    0.34700E-05        -0.42321E-14         0.00000E+00
    0.34700E-05        -0.39052E-14         0.00000E+00
    0.34700E-05        -0.34556E-14         0.00000E+00
    0.34700E-05        -0.29038E-14         0.00000E+00
    0.34700E-05        -0.22670E-14         0.00000E+00
    0.34700E-05        -0.15588E-14         0.00000E+00
    0.34700E-05        -0.79483E-15         0.00000E+00
    0.34700E-05        -0.40138E-15         0.00000E+00
    0.34700E-05        -0.68956E-15         0.00000E+00
    0.34700E-05        -0.13155E-14         0.00000E+00
    0.34700E-05        -0.24413E-14         0.00000E+00
    0.34700E-05        -0.33182E-14         0.00000E+00
    0.34700E-05        -0.39540E-14         0.00000E+00
    0.34700E-05        -0.43609E-14         0.00000E+00
    0.34700E-05        -0.45544E-14         0.00000E+00
    0.34700E-05        -0.45536E-14         0.00000E+00
    0.34700E-05        -0.43793E-14         0.00000E+00
    0.34700E-05        -0.40533E-14         0.00000E+00
    0.34700E-05        -0.35959E-14         0.00000E+00
    0.34700E-05        -0.30269E-14         0.00000E+00
    0.34700E-05        -0.23649E-14         0.00000E+00
    0.34700E-05        -0.16277E-14         0.00000E+00
    0.34700E-05        -0.83192E-15         0.00000E+00
    0.34700E-05        -0.42136E-15         0.00000E+00
    0.34700E-05        -0.70358E-15         0.00000E+00
    0.34700E-05        -0.13433E-14         0.00000E+00
    0.34700E-05        -0.24958E-14         0.00000E+00
    0.34700E-05        -0.33972E-14         0.00000E+00
    0.34700E-05        -0.40551E-14         0.00000E+00
    0.34700E-05        -0.44810E-14         0.00000E+00
    0.34700E-05        -0.46899E-14         0.00000E+00
    0.34700E-05        -0.46997E-14         0.00000E+00
    0.34700E-05        -0.45298E-14         0.00000E+00
    0.34700E-05        -0.41999E-14         0.00000E+00
    0.34700E-05        -0.37306E-14         0.00000E+00
    0.34700E-05        -0.31426E-14         0.00000E+00
    0.34700E-05        -0.24570E-14         0.00000E+00
    0.34700E-05        -0.16949E-14         0.00000E+00
    0.34700E-05        -0.86988E-15         0.00000E+00
    0.34700E-05        -0.44247E-15         0.00000E+00
    0.34700E-05        -0.72194E-15         0.00000E+00
    0.34700E-05        -0.13784E-14         0.00000E+00
    0.34700E-05        -0.25612E-14         0.00000E+00
    0.34700E-05        -0.34874E-14         0.00000E+00
    0.34700E-05        -0.41652E-14         0.00000E+00
    0.34700E-05        -0.46064E-14         0.00000E+00
    0.34700E-05        -0.48262E-14         0.00000E+00
    0.34700E-05        -0.48415E-14         0.00000E+00
    0.34700E-05        -0.46709E-14         0.00000E+00
    0.34700E-05        -0.43343E-14         0.00000E+00
    0.34700E-05        -0.38528E-14         0.00000E+00
    0.34700E-05        -0.32491E-14         0.00000E+00
    0.34700E-05        -0.25453E-14         0.00000E+00
    0.34700E-05        -0.17593E-14         0.00000E+00
    0.34700E-05        -0.90390E-15         0.00000E+00
    0.34700E-05        -0.45997E-15         0.00000E+00
    0.34700E-05        -0.74240E-15         0.00000E+00
    0.34700E-05        -0.14166E-14         0.00000E+00
    0.34700E-05        -0.26301E-14         0.00000E+00
    0.34700E-05        -0.35784E-14         0.00000E+00
    0.34700E-05        -0.42715E-14         0.00000E+00
    0.34700E-05        -0.47228E-14         0.00000E+00
    0.34700E-05        -0.49479E-14         0.00000E+00
    0.34700E-05        -0.49642E-14         0.00000E+00
    0.34700E-05        -0.47907E-14         0.00000E+00
    0.34700E-05        -0.44482E-14         0.00000E+00
    0.34700E-05        -0.39591E-14         0.00000E+00
    0.34700E-05        -0.33451E-14         0.00000E+00
    0.34700E-05        -0.26255E-14         0.00000E+00
    0.34700E-05        -0.18161E-14         0.00000E+00
    0.34700E-05        -0.93158E-15         0.00000E+00
    0.34700E-05        -0.47255E-15         0.00000E+00
    0.34700E-05        -0.76263E-15         0.00000E+00
    0.34700E-05        -0.14534E-14         0.00000E+00
    0.34700E-05        -0.26937E-14         0.00000E+00
    0.34700E-05        -0.36577E-14         0.00000E+00
    0.34700E-05        -0.43585E-14         0.00000E+00
    0.34700E-05        -0.48121E-14         0.00000E+00
    0.34700E-05        -0.50366E-14         0.00000E+00
    0.34700E-05        -0.50510E-14         0.00000E+00
    0.34700E-05        -0.48754E-14         0.00000E+00
    0.34700E-05        -0.45312E-14         0.00000E+00
    0.34700E-05        -0.40399E-14         0.00000E+00
    0.34700E-05        -0.34207E-14         0.00000E+00
    0.34700E-05        -0.26903E-14         0.00000E+00
    0.34700E-05        -0.18631E-14         0.00000E+00
    0.34700E-05        -0.95624E-15         0.00000E+00
    0.34700E-05        -0.48546E-15         0.00000E+00
    0.34700E-05        -0.78041E-15         0.00000E+00
    0.34700E-05        -0.14844E-14         0.00000E+00
    0.34700E-05        -0.27432E-14         0.00000E+00
    0.34700E-05        -0.37118E-14         0.00000E+00
    0.34700E-05        -0.44085E-14         0.00000E+00
    0.34700E-05        -0.48541E-14         0.00000E+00
    0.34700E-05        -0.50708E-14         0.00000E+00
    0.34700E-05        -0.50808E-14         0.00000E+00
    0.34700E-05        -0.49055E-14         0.00000E+00
    0.34700E-05        -0.45661E-14         0.00000E+00
    0.34700E-05        -0.40809E-14         0.00000E+00
    0.34700E-05        -0.34658E-14         0.00000E+00
    0.34700E-05        -0.27342E-14         0.00000E+00
    0.34700E-05        -0.19015E-14         0.00000E+00
    0.34700E-05        -0.98150E-15         0.00000E+00
    0.34700E-05        -0.50096E-15         0.00000E+00
    0.34700E-05        -0.79392E-15         0.00000E+00
    0.34700E-05        -0.15057E-14         0.00000E+00
    0.34700E-05        -0.27700E-14         0.00000E+00
    0.34700E-05        -0.37273E-14         0.00000E+00
    0.34700E-05        -0.44028E-14         0.00000E+00
    0.34700E-05        -0.48253E-14         0.00000E+00
    0.34700E-05        -0.50242E-14         0.00000E+00
    0.34700E-05        -0.50266E-14         0.00000E+00
    0.34700E-05        -0.48562E-14         0.00000E+00
    0.34700E-05        -0.45315E-14         0.00000E+00
    0.34700E-05        -0.40661E-14         0.00000E+00
    0.34700E-05        -0.34702E-14         0.00000E+00
    0.34700E-05        -0.27542E-14         0.00000E+00
    0.34700E-05        -0.19284E-14         0.00000E+00
    0.34700E-05        -0.10008E-14         0.00000E+00
    0.34700E-05        -0.51220E-15         0.00000E+00
    0.34700E-05        -0.80175E-15         0.00000E+00
    0.34700E-05        -0.15141E-14         0.00000E+00
    0.34700E-05        -0.27666E-14         0.00000E+00
    0.34700E-05        -0.36906E-14         0.00000E+00
    0.34700E-05        -0.43214E-14         0.00000E+00
    0.34700E-05        -0.47000E-14         0.00000E+00
    0.34700E-05        -0.48670E-14         0.00000E+00
    0.34700E-05        -0.48580E-14         0.00000E+00
    0.34700E-05        -0.46987E-14         0.00000E+00
    0.34700E-05        -0.44038E-14         0.00000E+00
    0.34700E-05        -0.39787E-14         0.00000E+00
    0.34700E-05        -0.34247E-14         0.00000E+00
    0.34700E-05        -0.27439E-14         0.00000E+00
    0.34700E-05        -0.19391E-14         0.00000E+00
    0.34700E-05        -0.10136E-14         0.00000E+00
    0.34700E-05        -0.52127E-15         0.00000E+00
    0.34700E-05        -0.80390E-15         0.00000E+00
    0.34700E-05        -0.15081E-14         0.00000E+00
    0.34700E-05        -0.27264E-14         0.00000E+00
    0.34700E-05        -0.35873E-14         0.00000E+00
    0.34700E-05        -0.41425E-14         0.00000E+00
    0.34700E-05        -0.44510E-14         0.00000E+00
    0.34700E-05        -0.45698E-14         0.00000E+00
    0.34700E-05        -0.45450E-14         0.00000E+00
    0.34700E-05        -0.44046E-14         0.00000E+00
    0.34700E-05        -0.41580E-14         0.00000E+00
    0.34700E-05        -0.37994E-14         0.00000E+00
    0.34700E-05        -0.33161E-14         0.00000E+00
    0.34700E-05        -0.26955E-14         0.00000E+00
    0.34700E-05        -0.19305E-14         0.00000E+00
    0.34700E-05        -0.10197E-14         0.00000E+00
    0.34700E-05        -0.52797E-15         0.00000E+00
    0.34700E-05        -0.79974E-15         0.00000E+00
    0.34700E-05        -0.14849E-14         0.00000E+00
    0.34700E-05        -0.26401E-14         0.00000E+00
    0.34700E-05        -0.33997E-14         0.00000E+00
    0.34700E-05        -0.38418E-14         0.00000E+00
    0.34700E-05        -0.40528E-14         0.00000E+00
    0.34700E-05        -0.41093E-14         0.00000E+00
    0.34700E-05        -0.40660E-14         0.00000E+00
    0.34700E-05        -0.39514E-14         0.00000E+00
    0.34700E-05        -0.37696E-14         0.00000E+00
    0.34700E-05        -0.35042E-14         0.00000E+00
    0.34700E-05        -0.31244E-14         0.00000E+00
    0.34700E-05        -0.25968E-14         0.00000E+00
    0.34700E-05        -0.18980E-14         0.00000E+00
    0.34700E-05        -0.10180E-14         0.00000E+00
    0.34700E-05        -0.53205E-15         0.00000E+00
    0.34700E-05        -0.78861E-15         0.00000E+00
    0.34700E-05        -0.14400E-14         0.00000E+00
    0.34700E-05        -0.24921E-14         0.00000E+00
    0.34700E-05        -0.31005E-14         0.00000E+00
    0.34700E-05        -0.33903E-14         0.00000E+00
    0.34700E-05        -0.34853E-14         0.00000E+00
    0.34700E-05        -0.34771E-14         0.00000E+00
    0.34700E-05        -0.34184E-14         0.00000E+00
    0.34700E-05        -0.33321E-14         0.00000E+00
    0.34700E-05        -0.32198E-14         0.00000E+00
    0.34700E-05        -0.30631E-14         0.00000E+00
    0.34700E-05        -0.28189E-14         0.00000E+00
    0.34700E-05        -0.24262E-14         0.00000E+00
    0.34700E-05        -0.18316E-14         0.00000E+00
    0.34700E-05        -0.10058E-14         0.00000E+00
    0.34700E-05        -0.53307E-15         0.00000E+00
    0.34700E-05        -0.76678E-15         0.00000E+00
    0.34700E-05        -0.13604E-14         0.00000E+00
    0.34700E-05        -0.22484E-14         0.00000E+00
    0.34700E-05        -0.26443E-14         0.00000E+00
    0.34700E-05        -0.27564E-14         0.00000E+00
    0.34700E-05        -0.27446E-14         0.00000E+00
    0.34700E-05        -0.26903E-14         0.00000E+00
    0.34700E-05        -0.26262E-14         0.00000E+00
    0.34700E-05        -0.25656E-14         0.00000E+00
    0.34700E-05        -0.25099E-14         0.00000E+00
    0.34700E-05        -0.24494E-14         0.00000E+00
    0.34700E-05        -0.23527E-14         0.00000E+00
    0.34700E-05        -0.21420E-14         0.00000E+00
    0.34700E-05        -0.17088E-14         0.00000E+00
    0.34700E-05        -0.97698E-15         0.00000E+00
    0.34700E-05        -0.53069E-15         0.00000E+00
    0.34700E-05        -0.71907E-15         0.00000E+00
    0.34700E-05        -0.12072E-14         0.00000E+00
    0.34700E-05        -0.18317E-14         0.00000E+00
    0.34700E-05        -0.19634E-14         0.00000E+00
    0.34700E-05        -0.19282E-14         0.00000E+00
    0.34700E-05        -0.18626E-14         0.00000E+00
    0.34700E-05        -0.17963E-14         0.00000E+00
    0.34700E-05        -0.17409E-14         0.00000E+00
    0.34700E-05        -0.17010E-14         0.00000E+00
    0.34700E-05        -0.16786E-14         0.00000E+00
    0.34700E-05        -0.16732E-14         0.00000E+00
    0.34700E-05        -0.16776E-14         0.00000E+00
    0.34700E-05        -0.16604E-14         0.00000E+00
    0.34700E-05        -0.14753E-14         0.00000E+00
    0.34700E-05        -0.91089E-15         0.00000E+00
    0.34700E-05        -0.51136E-15         0.00000E+00
    0.34700E-05        -0.58244E-15         0.00000E+00
    0.34700E-05        -0.85380E-15         0.00000E+00
    0.34700E-05        -0.10908E-14         0.00000E+00
    0.34700E-05        -0.10261E-14         0.00000E+00
    0.34700E-05        -0.96651E-15         0.00000E+00
    0.34700E-05        -0.91286E-15         0.00000E+00
    0.34700E-05        -0.86908E-15         0.00000E+00
    0.34700E-05        -0.83603E-15         0.00000E+00
    0.34700E-05        -0.81456E-15         0.00000E+00
    0.34700E-05        -0.80578E-15         0.00000E+00
    0.34700E-05        -0.81144E-15         0.00000E+00
    0.34700E-05        -0.83557E-15         0.00000E+00
    0.34700E-05        -0.88448E-15         0.00000E+00
    0.34700E-05        -0.96136E-15         0.00000E+00
    0.34700E-05        -0.76809E-15         0.00000E+00
    0.34700E-05        -0.52943E-15         0.00000E+00
    0.34700E-05         0.00000E+00         0.00000E+00
    0.34700E-05         0.00000E+00         0.00000E+00
    0.34700E-05        -0.80148E-20         0.00000E+00
    0.34700E-05         0.11220E-28         0.00000E+00
    0.34700E-05         0.12022E-19         0.00000E+00
    0.34700E-05         0.00000E+00         0.00000E+00
    0.34700E-05         0.00000E+00         0.00000E+00
    0.34700E-05        -0.80148E-20         0.00000E+00
    0.34700E-05        -0.80148E-20         0.00000E+00
    0.34700E-05         0.80148E-20         0.00000E+00
    0.34700E-05         0.12022E-19         0.00000E+00
    0.34700E-05        -0.12022E-19         0.00000E+00
    0.34700E-05        -0.40074E-20         0.00000E+00
    0.34700E-05         0.12022E-19         0.00000E+00
    0.34700E-05         0.80148E-20         0.00000E+00
    0.34700E-05         0.00000E+00         0.00000E+00
CELL_DATA        450
TENSORS stressef double 
   -0.44785E+07         0.41907E+05         0.00000E+00
    0.41907E+05        -0.34950E+08         0.00000E+00
    0.00000E+00         0.00000E+00        -0.10001E+08
 
   -0.42804E+07         0.58111E+05         0.00000E+00
    0.58111E+05        -0.34853E+08         0.00000E+00
    0.00000E+00         0.00000E+00        -0.10185E+08
 
   -0.41835E+07         0.56888E+05         0.00000E+00
    0.56888E+05        -0.34762E+08         0.00000E+00
    0.00000E+00         0.00000E+00        -0.10227E+08
 
   -0.41855E+07         0.34472E+05         0.00000E+00
    0.34472E+05        -0.34683E+08         0.00000E+00
    0.00000E+00         0.00000E+00        -0.10133E+08
 
   -0.42669E+07         0.90344E+04         0.00000E+00
    0.90344E+04        -0.34661E+08         0.00000E+00
    0.00000E+00         0.00000E+00        -0.99845E+07
 
   -0.43829E+07        -0.14782E+04         0.00000E+00
   -0.14782E+04        -0.34661E+08         0.00000E+00
    0.00000E+00         0.00000E+00        -0.98123E+07
 
   -0.45178E+07        -0.29587E+04         0.00000E+00
   -0.29587E+04        -0.34666E+08         0.00000E+00
    0.00000E+00         0.00000E+00        -0.96228E+07
 
   -0.46714E+07         0.21393E+03         0.00000E+00
    0.21393E+03        -0.34668E+08         0.00000E+00
    0.00000E+00         0.00000E+00        -0.94081E+07
 
   -0.48432E+07         0.81667E+04         0.00000E+00
    0.81667E+04        -0.34659E+08         0.00000E+00
    0.00000E+00         0.00000E+00        -0.91623E+07
 
   -0.50271E+07         0.18979E+05         0.00000E+00
    0.18979E+05        -0.34631E+08         0.00000E+00
    0.00000E+00         0.00000E+00        -0.88880E+07
 
   -0.52272E+07         0.33224E+05         0.00000E+00
    0.33224E+05        -0.34579E+08         0.00000E+00
    0.00000E+00         0.00000E+00        -0.85755E+07
 
   -0.54419E+07         0.52449E+05         0.00000E+00
    0.52449E+05        -0.34493E+08         0.00000E+00
    0.00000E+00         0.00000E+00        -0.82212E+07
 
   -0.56750E+07         0.78887E+05         0.00000E+00
    0.78887E+05        -0.34363E+08         0.00000E+00
    0.00000E+00         0.00000E+00        -0.78126E+07
 
   -0.59332E+07         0.12058E+06         0.00000E+00
    0.12058E+06        -0.34168E+08         0.00000E+00
    0.00000E+00         0.00000E+00        -0.73287E+07
 
   -0.62257E+07         0.21021E+06         0.00000E+00
    0.21021E+06        -0.33867E+08         0.00000E+00
    0.00000E+00         0.00000E+00        -0.67293E+07
 
   -0.48757E+07         0.10404E+06         0.00000E+00
    0.10404E+06        -0.35671E+08         0.00000E+00
    0.00000E+00         0.00000E+00        -0.10236E+08
 
   -0.47751E+07         0.16518E+06         0.00000E+00
    0.16518E+06        -0.35625E+08         0.00000E+00
    0.00000E+00         0.00000E+00        -0.10334E+08
 
   -0.46997E+07         0.15171E+06         0.00000E+00
    0.15171E+06        -0.35535E+08         0.00000E+00
    0.00000E+00         0.00000E+00        -0.10341E+08
 
   -0.47403E+07         0.96791E+05         0.00000E+00
    0.96791E+05        -0.35485E+08         0.00000E+00
    0.00000E+00         0.00000E+00        -0.10224E+08
 
   -0.48033E+07         0.50237E+05         0.00000E+00
    0.50237E+05        -0.35413E+08         0.00000E+00
    0.00000E+00         0.00000E+00        -0.10051E+08
 
   -0.48994E+07         0.24446E+05         0.00000E+00
    0.24446E+05        -0.35355E+08         0.00000E+00
    0.00000E+00         0.00000E+00        -0.98496E+07
 
   -0.50212E+07         0.17887E+05         0.00000E+00
    0.17887E+05        -0.35309E+08         0.00000E+00
    0.00000E+00         0.00000E+00        -0.96289E+07
 
   -0.51664E+07         0.24358E+05         0.00000E+00
    0.24358E+05        -0.35265E+08         0.00000E+00
    0.00000E+00         0.00000E+00        -0.93840E+07
 
   -0.53292E+07         0.43944E+05         0.00000E+00
    0.43944E+05        -0.35215E+08         0.00000E+00
    0.00000E+00         0.00000E+00        -0.91163E+07
 
   -0.55067E+07         0.75011E+05         0.00000E+00
    0.75011E+05        -0.35152E+08         0.00000E+00
    0.00000E+00         0.00000E+00        -0.88226E+07
 
   -0.56978E+07         0.11713E+06         0.00000E+00
    0.11713E+06        -0.35065E+08         0.00000E+00
    0.00000E+00         0.00000E+00        -0.84975E+07
 
   -0.59000E+07         0.17479E+06         0.00000E+00
    0.17479E+06        -0.34947E+08         0.00000E+00
    0.00000E+00         0.00000E+00        -0.81380E+07
 
   -0.61123E+07         0.25481E+06         0.00000E+00
    0.25481E+06        -0.34784E+08         0.00000E+00
    0.00000E+00         0.00000E+00        -0.77366E+07
 
   -0.63254E+07         0.37506E+06         0.00000E+00
    0.37506E+06        -0.34562E+08         0.00000E+00
    0.00000E+00         0.00000E+00        -0.72932E+07
 
   -0.65144E+07         0.56624E+06         0.00000E+00
    0.56624E+06        -0.34271E+08         0.00000E+00
    0.00000E+00         0.00000E+00        -0.68309E+07
 
   -0.52224E+07         0.85649E+05         0.00000E+00
    0.85649E+05        -0.36197E+08         0.00000E+00
    0.00000E+00         0.00000E+00        -0.10329E+08
 
   -0.52298E+07         0.18432E+06         0.00000E+00
    0.18432E+06        -0.36215E+08         0.00000E+00
    0.00000E+00         0.00000E+00        -0.10340E+08
 
   -0.52553E+07         0.18635E+06         0.00000E+00
    0.18635E+06        -0.36216E+08         0.00000E+00
    0.00000E+00         0.00000E+00        -0.10306E+08
 
   -0.52867E+07         0.15314E+06         0.00000E+00
    0.15314E+06        -0.36161E+08         0.00000E+00
    0.00000E+00         0.00000E+00        -0.10200E+08
 
   -0.53438E+07         0.12053E+06         0.00000E+00
    0.12053E+06        -0.36096E+08         0.00000E+00
    0.00000E+00         0.00000E+00        -0.10048E+08
 
   -0.54233E+07         0.94142E+05         0.00000E+00
    0.94142E+05        -0.36019E+08         0.00000E+00
    0.00000E+00         0.00000E+00        -0.98549E+07
 
   -0.55277E+07         0.82886E+05         0.00000E+00
    0.82886E+05        -0.35939E+08         0.00000E+00
    0.00000E+00         0.00000E+00        -0.96293E+07
 
   -0.56557E+07         0.90568E+05         0.00000E+00
    0.90568E+05        -0.35859E+08         0.00000E+00
    0.00000E+00         0.00000E+00        -0.93766E+07
 
   -0.58016E+07         0.11836E+06         0.00000E+00
    0.11836E+06        -0.35772E+08         0.00000E+00
    0.00000E+00         0.00000E+00        -0.91010E+07
 
   -0.59636E+07         0.16580E+06         0.00000E+00
    0.16580E+06        -0.35675E+08         0.00000E+00
    0.00000E+00         0.00000E+00        -0.88012E+07
 
   -0.61364E+07         0.23403E+06         0.00000E+00
    0.23403E+06        -0.35557E+08         0.00000E+00
    0.00000E+00         0.00000E+00        -0.84775E+07
 
   -0.63144E+07         0.32731E+06         0.00000E+00
    0.32731E+06        -0.35411E+08         0.00000E+00
    0.00000E+00         0.00000E+00        -0.81305E+07
 
   -0.64914E+07         0.45341E+06         0.00000E+00
    0.45341E+06        -0.35230E+08         0.00000E+00
    0.00000E+00         0.00000E+00        -0.77634E+07
 
   -0.66544E+07         0.62079E+06         0.00000E+00
    0.62079E+06        -0.35014E+08         0.00000E+00
    0.00000E+00         0.00000E+00        -0.73933E+07
 
   -0.68026E+07         0.82334E+06         0.00000E+00
    0.82334E+06        -0.34784E+08         0.00000E+00
    0.00000E+00         0.00000E+00        -0.70433E+07
 
   -0.56049E+07         0.59266E+05         0.00000E+00
    0.59266E+05        -0.36665E+08         0.00000E+00
    0.00000E+00         0.00000E+00        -0.10312E+08
 
   -0.56796E+07         0.13856E+06         0.00000E+00
    0.13856E+06        -0.36703E+08         0.00000E+00
    0.00000E+00         0.00000E+00        -0.10252E+08
 
   -0.57474E+07         0.18273E+06         0.00000E+00
    0.18273E+06        -0.36734E+08         0.00000E+00
    0.00000E+00         0.00000E+00        -0.10195E+08
 
   -0.58083E+07         0.19411E+06         0.00000E+00
    0.19411E+06        -0.36731E+08         0.00000E+00
    0.00000E+00         0.00000E+00        -0.10111E+08
 
   -0.58688E+07         0.18488E+06         0.00000E+00
    0.18488E+06        -0.36688E+08         0.00000E+00
    0.00000E+00         0.00000E+00        -0.99839E+07
 
   -0.59419E+07         0.17371E+06         0.00000E+00
    0.17371E+06        -0.36620E+08         0.00000E+00
    0.00000E+00         0.00000E+00        -0.98156E+07
 
   -0.60318E+07         0.17143E+06         0.00000E+00
    0.17143E+06        -0.36534E+08         0.00000E+00
    0.00000E+00         0.00000E+00        -0.96090E+07
 
   -0.61389E+07         0.18650E+06         0.00000E+00
    0.18650E+06        -0.36435E+08         0.00000E+00
    0.00000E+00         0.00000E+00        -0.93716E+07
 
   -0.62625E+07         0.22388E+06         0.00000E+00
    0.22388E+06        -0.36326E+08         0.00000E+00
    0.00000E+00         0.00000E+00        -0.91081E+07
 
   -0.64009E+07         0.28609E+06         0.00000E+00
    0.28609E+06        -0.36203E+08         0.00000E+00
    0.00000E+00         0.00000E+00        -0.88206E+07
 
   -0.65472E+07         0.37586E+06         0.00000E+00
    0.37586E+06        -0.36064E+08         0.00000E+00
    0.00000E+00         0.00000E+00        -0.85158E+07
 
   -0.66945E+07         0.49582E+06         0.00000E+00
    0.49582E+06        -0.35905E+08         0.00000E+00
    0.00000E+00         0.00000E+00        -0.82002E+07
 
   -0.68371E+07         0.64762E+06         0.00000E+00
    0.64762E+06        -0.35725E+08         0.00000E+00
    0.00000E+00         0.00000E+00        -0.78830E+07
 
   -0.69703E+07         0.82727E+06         0.00000E+00
    0.82727E+06        -0.35536E+08         0.00000E+00
    0.00000E+00         0.00000E+00        -0.75794E+07
 
   -0.70969E+07         0.10266E+07         0.00000E+00
    0.10266E+07        -0.35347E+08         0.00000E+00
    0.00000E+00         0.00000E+00        -0.72968E+07
 
   -0.60250E+07         0.36578E+05         0.00000E+00
    0.36578E+05        -0.37157E+08         0.00000E+00
    0.00000E+00         0.00000E+00        -0.10278E+08
 
   -0.61196E+07         0.10580E+06         0.00000E+00
    0.10580E+06        -0.37185E+08         0.00000E+00
    0.00000E+00         0.00000E+00        -0.10183E+08
 
   -0.62105E+07         0.16177E+06         0.00000E+00
    0.16177E+06        -0.37212E+08         0.00000E+00
    0.00000E+00         0.00000E+00        -0.10096E+08
 
   -0.62935E+07         0.20163E+06         0.00000E+00
    0.20163E+06        -0.37224E+08         0.00000E+00
    0.00000E+00         0.00000E+00        -0.10003E+08
 
   -0.63680E+07         0.22601E+06         0.00000E+00
    0.22601E+06        -0.37208E+08         0.00000E+00
    0.00000E+00         0.00000E+00        -0.98914E+07
 
   -0.64416E+07         0.24251E+06         0.00000E+00
    0.24251E+06        -0.37160E+08         0.00000E+00
    0.00000E+00         0.00000E+00        -0.97494E+07
 
   -0.65211E+07         0.26206E+06         0.00000E+00
    0.26206E+06        -0.37084E+08         0.00000E+00
    0.00000E+00         0.00000E+00        -0.95739E+07
 
   -0.66100E+07         0.29412E+06         0.00000E+00
    0.29412E+06        -0.36986E+08         0.00000E+00
    0.00000E+00         0.00000E+00        -0.93669E+07
 
   -0.67104E+07         0.34601E+06         0.00000E+00
    0.34601E+06        -0.36870E+08         0.00000E+00
    0.00000E+00         0.00000E+00        -0.91321E+07
 
   -0.68215E+07         0.42313E+06         0.00000E+00
    0.42313E+06        -0.36738E+08         0.00000E+00
    0.00000E+00         0.00000E+00        -0.88752E+07
 
   -0.69384E+07         0.52869E+06         0.00000E+00
    0.52869E+06        -0.36592E+08         0.00000E+00
    0.00000E+00         0.00000E+00        -0.86054E+07
 
   -0.70562E+07         0.66299E+06         0.00000E+00
    0.66299E+06        -0.36434E+08         0.00000E+00
    0.00000E+00         0.00000E+00        -0.83325E+07
 
   -0.71726E+07         0.82305E+06         0.00000E+00
    0.82305E+06        -0.36269E+08         0.00000E+00
    0.00000E+00         0.00000E+00        -0.80650E+07
 
   -0.72864E+07         0.10026E+07         0.00000E+00
    0.10026E+07        -0.36104E+08         0.00000E+00
    0.00000E+00         0.00000E+00        -0.78110E+07
 
   -0.73998E+07         0.11954E+07         0.00000E+00
    0.11954E+07        -0.35943E+08         0.00000E+00
    0.00000E+00         0.00000E+00        -0.75731E+07
 
   -0.64648E+07         0.26704E+05         0.00000E+00
    0.26704E+05        -0.37660E+08         0.00000E+00
    0.00000E+00         0.00000E+00        -0.10240E+08
 
   -0.65633E+07         0.84854E+05         0.00000E+00
    0.84854E+05        -0.37671E+08         0.00000E+00
    0.00000E+00         0.00000E+00        -0.10127E+08
 
   -0.66619E+07         0.14270E+06         0.00000E+00
    0.14270E+06        -0.37687E+08         0.00000E+00
    0.00000E+00         0.00000E+00        -0.10021E+08
 
   -0.67533E+07         0.19802E+06         0.00000E+00
    0.19802E+06        -0.37698E+08         0.00000E+00
    0.00000E+00         0.00000E+00        -0.99196E+07
 
   -0.68365E+07         0.24843E+06         0.00000E+00
    0.24843E+06        -0.37691E+08         0.00000E+00
    0.00000E+00         0.00000E+00        -0.98128E+07
 
   -0.69133E+07         0.29466E+06         0.00000E+00
    0.29466E+06        -0.37659E+08         0.00000E+00
    0.00000E+00         0.00000E+00        -0.96890E+07
 
   -0.69870E+07         0.34176E+06         0.00000E+00
    0.34176E+06        -0.37599E+08         0.00000E+00
    0.00000E+00         0.00000E+00        -0.95423E+07
 
   -0.70623E+07         0.39727E+06         0.00000E+00
    0.39727E+06        -0.37513E+08         0.00000E+00
    0.00000E+00         0.00000E+00        -0.93700E+07
 
   -0.71420E+07         0.46840E+06         0.00000E+00
    0.46840E+06        -0.37405E+08         0.00000E+00
    0.00000E+00         0.00000E+00        -0.91740E+07
 
   -0.72279E+07         0.56087E+06         0.00000E+00
    0.56087E+06        -0.37278E+08         0.00000E+00
    0.00000E+00         0.00000E+00        -0.89588E+07
 
   -0.73182E+07         0.67745E+06         0.00000E+00
    0.67745E+06        -0.37140E+08         0.00000E+00
    0.00000E+00         0.00000E+00        -0.87333E+07
 
   -0.74112E+07         0.81767E+06         0.00000E+00
    0.81767E+06        -0.36995E+08         0.00000E+00
    0.00000E+00         0.00000E+00        -0.85061E+07
 
   -0.75073E+07         0.97832E+06         0.00000E+00
    0.97832E+06        -0.36848E+08         0.00000E+00
    0.00000E+00         0.00000E+00        -0.82832E+07
 
   -0.76068E+07         0.11545E+07         0.00000E+00
    0.11545E+07        -0.36704E+08         0.00000E+00
    0.00000E+00         0.00000E+00        -0.80684E+07
 
   -0.77099E+07         0.13414E+07         0.00000E+00
    0.13414E+07        -0.36564E+08         0.00000E+00
    0.00000E+00         0.00000E+00        -0.78635E+07
 
   -0.69149E+07         0.21945E+05         0.00000E+00
    0.21945E+05        -0.38162E+08         0.00000E+00
    0.00000E+00         0.00000E+00        -0.10198E+08
 
   -0.70119E+07         0.74551E+05         0.00000E+00
    0.74551E+05        -0.38166E+08         0.00000E+00
    0.00000E+00         0.00000E+00        -0.10083E+08
 
   -0.71069E+07         0.13301E+06         0.00000E+00
    0.13301E+06        -0.38173E+08         0.00000E+00
    0.00000E+00         0.00000E+00        -0.99756E+07
 
   -0.71973E+07         0.19680E+06         0.00000E+00
    0.19680E+06        -0.38176E+08         0.00000E+00
    0.00000E+00         0.00000E+00        -0.98718E+07
 
   -0.72813E+07         0.26415E+06         0.00000E+00
    0.26415E+06        -0.38168E+08         0.00000E+00
    0.00000E+00         0.00000E+00        -0.97667E+07
 
   -0.73576E+07         0.33382E+06         0.00000E+00
    0.33382E+06        -0.38143E+08         0.00000E+00
    0.00000E+00         0.00000E+00        -0.96553E+07
 
   -0.74269E+07         0.40687E+06         0.00000E+00
    0.40687E+06        -0.38096E+08         0.00000E+00
    0.00000E+00         0.00000E+00        -0.95319E+07
 
   -0.74920E+07         0.48678E+06         0.00000E+00
    0.48678E+06        -0.38025E+08         0.00000E+00
    0.00000E+00         0.00000E+00        -0.93924E+07
 
   -0.75557E+07         0.57839E+06         0.00000E+00
    0.57839E+06        -0.37932E+08         0.00000E+00
    0.00000E+00         0.00000E+00        -0.92365E+07
 
   -0.76217E+07         0.68583E+06         0.00000E+00
    0.68583E+06        -0.37823E+08         0.00000E+00
    0.00000E+00         0.00000E+00        -0.90657E+07
 
   -0.76910E+07         0.81127E+06         0.00000E+00
    0.81127E+06        -0.37702E+08         0.00000E+00
    0.00000E+00         0.00000E+00        -0.88857E+07
 
   -0.77646E+07         0.95455E+06         0.00000E+00
    0.95455E+06        -0.37576E+08         0.00000E+00
    0.00000E+00         0.00000E+00        -0.87026E+07
 
   -0.78442E+07         0.11139E+07         0.00000E+00
    0.11139E+07        -0.37449E+08         0.00000E+00
    0.00000E+00         0.00000E+00        -0.85200E+07
 
   -0.79313E+07         0.12870E+07         0.00000E+00
    0.12870E+07        -0.37324E+08         0.00000E+00
    0.00000E+00         0.00000E+00        -0.83398E+07
 
   -0.80257E+07         0.14702E+07         0.00000E+00
    0.14702E+07        -0.37202E+08         0.00000E+00
    0.00000E+00         0.00000E+00        -0.81630E+07
 
   -0.73708E+07         0.19633E+05         0.00000E+00
    0.19633E+05        -0.38664E+08         0.00000E+00
    0.00000E+00         0.00000E+00        -0.10158E+08
 
   -0.74608E+07         0.70996E+05         0.00000E+00
    0.70996E+05        -0.38665E+08         0.00000E+00
    0.00000E+00         0.00000E+00        -0.10053E+08
 
   -0.75479E+07         0.13146E+06         0.00000E+00
    0.13146E+06        -0.38666E+08         0.00000E+00
    0.00000E+00         0.00000E+00        -0.99520E+07
 
   -0.76313E+07         0.20123E+06         0.00000E+00
    0.20123E+06        -0.38662E+08         0.00000E+00
    0.00000E+00         0.00000E+00        -0.98531E+07
 
   -0.77094E+07         0.27971E+06         0.00000E+00
    0.27971E+06        -0.38651E+08         0.00000E+00
    0.00000E+00         0.00000E+00        -0.97550E+07
 
   -0.77803E+07         0.36581E+06         0.00000E+00
    0.36581E+06        -0.38628E+08         0.00000E+00
    0.00000E+00         0.00000E+00        -0.96560E+07
 
   -0.78437E+07         0.45892E+06         0.00000E+00
    0.45892E+06        -0.38590E+08         0.00000E+00
    0.00000E+00         0.00000E+00        -0.95525E+07
 
   -0.79001E+07         0.55959E+06         0.00000E+00
    0.55959E+06        -0.38534E+08         0.00000E+00
    0.00000E+00         0.00000E+00        -0.94418E+07
 
   -0.79522E+07         0.66945E+06         0.00000E+00
    0.66945E+06        -0.38460E+08         0.00000E+00
    0.00000E+00         0.00000E+00        -0.93220E+07
 
   -0.80038E+07         0.79059E+06         0.00000E+00
    0.79059E+06        -0.38372E+08         0.00000E+00
    0.00000E+00         0.00000E+00        -0.91922E+07
 
   -0.80580E+07         0.92445E+06         0.00000E+00
    0.92445E+06        -0.38273E+08         0.00000E+00
    0.00000E+00         0.00000E+00        -0.90544E+07
 
   -0.81169E+07         0.10712E+07         0.00000E+00
    0.10712E+07        -0.38168E+08         0.00000E+00
    0.00000E+00         0.00000E+00        -0.89114E+07
 
   -0.81828E+07         0.12305E+07         0.00000E+00
    0.12305E+07        -0.38061E+08         0.00000E+00
    0.00000E+00         0.00000E+00        -0.87651E+07
 
   -0.82582E+07         0.14014E+07         0.00000E+00
    0.14014E+07        -0.37954E+08         0.00000E+00
    0.00000E+00         0.00000E+00        -0.86169E+07
 
   -0.83446E+07         0.15822E+07         0.00000E+00
    0.15822E+07        -0.37850E+08         0.00000E+00
    0.00000E+00         0.00000E+00        -0.84671E+07
 
   -0.78285E+07         0.19173E+05         0.00000E+00
    0.19173E+05        -0.39167E+08         0.00000E+00
    0.00000E+00         0.00000E+00        -0.10128E+08
 
   -0.79082E+07         0.71188E+05         0.00000E+00
    0.71188E+05        -0.39166E+08         0.00000E+00
    0.00000E+00         0.00000E+00        -0.10035E+08
 
   -0.79850E+07         0.13458E+06         0.00000E+00
    0.13458E+06        -0.39163E+08         0.00000E+00
    0.00000E+00         0.00000E+00        -0.99459E+07
 
   -0.80580E+07         0.20963E+06         0.00000E+00
    0.20963E+06        -0.39156E+08         0.00000E+00
    0.00000E+00         0.00000E+00        -0.98584E+07
 
   -0.81261E+07         0.29608E+06         0.00000E+00
    0.29608E+06        -0.39144E+08         0.00000E+00
    0.00000E+00         0.00000E+00        -0.97730E+07
 
   -0.81880E+07         0.39332E+06         0.00000E+00
    0.39332E+06        -0.39123E+08         0.00000E+00
    0.00000E+00         0.00000E+00        -0.96889E+07
 
   -0.82429E+07         0.50033E+06         0.00000E+00
    0.50033E+06        -0.39092E+08         0.00000E+00
    0.00000E+00         0.00000E+00        -0.96049E+07
 
   -0.82911E+07         0.61617E+06         0.00000E+00
    0.61617E+06        -0.39049E+08         0.00000E+00
    0.00000E+00         0.00000E+00        -0.95194E+07
 
   -0.83341E+07         0.74031E+06         0.00000E+00
    0.74031E+06        -0.38993E+08         0.00000E+00
    0.00000E+00         0.00000E+00        -0.94305E+07
 
   -0.83753E+07         0.87306E+06         0.00000E+00
    0.87306E+06        -0.38926E+08         0.00000E+00
    0.00000E+00         0.00000E+00        -0.93360E+07
 
   -0.84187E+07         0.10151E+07         0.00000E+00
    0.10151E+07        -0.38850E+08         0.00000E+00
    0.00000E+00         0.00000E+00        -0.92349E+07
 
   -0.84666E+07         0.11667E+07         0.00000E+00
    0.11667E+07        -0.38767E+08         0.00000E+00
    0.00000E+00         0.00000E+00        -0.91277E+07
 
   -0.85219E+07         0.13279E+07         0.00000E+00
    0.13279E+07        -0.38680E+08         0.00000E+00
    0.00000E+00         0.00000E+00        -0.90147E+07
 
   -0.85871E+07         0.14984E+07         0.00000E+00
    0.14984E+07        -0.38591E+08         0.00000E+00
    0.00000E+00         0.00000E+00        -0.88960E+07
 
   -0.86651E+07         0.16778E+07         0.00000E+00
    0.16778E+07        -0.38503E+08         0.00000E+00
    0.00000E+00         0.00000E+00        -0.87717E+07
 
   -0.82857E+07         0.19581E+05         0.00000E+00
    0.19581E+05        -0.39670E+08         0.00000E+00
    0.00000E+00         0.00000E+00        -0.10106E+08
 
   -0.83536E+07         0.73183E+05         0.00000E+00
    0.73183E+05        -0.39669E+08         0.00000E+00
    0.00000E+00         0.00000E+00        -0.10029E+08
 
   -0.84181E+07         0.13964E+06         0.00000E+00
    0.13964E+06        -0.39665E+08         0.00000E+00
    0.00000E+00         0.00000E+00        -0.99550E+07
 
   -0.84787E+07         0.21912E+06         0.00000E+00
    0.21912E+06        -0.39658E+08         0.00000E+00
    0.00000E+00         0.00000E+00        -0.98833E+07
 
   -0.85348E+07         0.31151E+06         0.00000E+00
    0.31151E+06        -0.39646E+08         0.00000E+00
    0.00000E+00         0.00000E+00        -0.98143E+07
 
   -0.85854E+07         0.41623E+06         0.00000E+00
    0.41623E+06        -0.39629E+08         0.00000E+00
    0.00000E+00         0.00000E+00        -0.97481E+07
 
   -0.86303E+07         0.53224E+06         0.00000E+00
    0.53224E+06        -0.39605E+08         0.00000E+00
    0.00000E+00         0.00000E+00        -0.96844E+07
 
   -0.86696E+07         0.65811E+06         0.00000E+00
    0.65811E+06        -0.39574E+08         0.00000E+00
    0.00000E+00         0.00000E+00        -0.96222E+07
 
   -0.87046E+07         0.79248E+06         0.00000E+00
    0.79248E+06        -0.39534E+08         0.00000E+00
    0.00000E+00         0.00000E+00        -0.95598E+07
 
   -0.87378E+07         0.93439E+06         0.00000E+00
    0.93439E+06        -0.39486E+08         0.00000E+00
    0.00000E+00         0.00000E+00        -0.94950E+07
 
   -0.87726E+07         0.10839E+07         0.00000E+00
    0.10839E+07        -0.39430E+08         0.00000E+00
    0.00000E+00         0.00000E+00        -0.94254E+07
 
   -0.88121E+07         0.12411E+07         0.00000E+00
    0.12411E+07        -0.39368E+08         0.00000E+00
    0.00000E+00         0.00000E+00        -0.93495E+07
 
   -0.88589E+07         0.14060E+07         0.00000E+00
    0.14060E+07        -0.39302E+08         0.00000E+00
    0.00000E+00         0.00000E+00        -0.92666E+07
 
   -0.89159E+07         0.15787E+07         0.00000E+00
    0.15787E+07        -0.39231E+08         0.00000E+00
    0.00000E+00         0.00000E+00        -0.91757E+07
 
   -0.89852E+07         0.17592E+07         0.00000E+00
    0.17592E+07        -0.39157E+08         0.00000E+00
    0.00000E+00         0.00000E+00        -0.90758E+07
 
   -0.87420E+07         0.20182E+05         0.00000E+00
    0.20182E+05        -0.40174E+08         0.00000E+00
    0.00000E+00         0.00000E+00        -0.10095E+08
 
   -0.87967E+07         0.75380E+05         0.00000E+00
    0.75380E+05        -0.40172E+08         0.00000E+00
    0.00000E+00         0.00000E+00        -0.10034E+08
 
   -0.88478E+07         0.14432E+06         0.00000E+00
    0.14432E+06        -0.40169E+08         0.00000E+00
    0.00000E+00         0.00000E+00        -0.99772E+07
 
   -0.88949E+07         0.22711E+06         0.00000E+00
    0.22711E+06        -0.40164E+08         0.00000E+00
    0.00000E+00         0.00000E+00        -0.99237E+07
 
   -0.89379E+07         0.32359E+06         0.00000E+00
    0.32359E+06        -0.40156E+08         0.00000E+00
    0.00000E+00         0.00000E+00        -0.98737E+07
 
   -0.89762E+07         0.43315E+06         0.00000E+00
    0.43315E+06        -0.40145E+08         0.00000E+00
    0.00000E+00         0.00000E+00        -0.98274E+07
 
   -0.90101E+07         0.55474E+06         0.00000E+00
    0.55474E+06        -0.40129E+08         0.00000E+00
    0.00000E+00         0.00000E+00        -0.97846E+07
 
   -0.90399E+07         0.68691E+06         0.00000E+00
    0.68691E+06        -0.40109E+08         0.00000E+00
    0.00000E+00         0.00000E+00        -0.97447E+07
 
   -0.90667E+07         0.82809E+06         0.00000E+00
    0.82809E+06        -0.40083E+08         0.00000E+00
    0.00000E+00         0.00000E+00        -0.97061E+07
 
   -0.90927E+07         0.97700E+06         0.00000E+00
    0.97700E+06        -0.40052E+08         0.00000E+00
    0.00000E+00         0.00000E+00        -0.96667E+07
 
   -0.91203E+07         0.11328E+07         0.00000E+00
    0.11328E+07        -0.40014E+08         0.00000E+00
    0.00000E+00         0.00000E+00        -0.96238E+07
 
   -0.91526E+07         0.12955E+07         0.00000E+00
    0.12955E+07        -0.39971E+08         0.00000E+00
    0.00000E+00         0.00000E+00        -0.95753E+07
 
   -0.91921E+07         0.14652E+07         0.00000E+00
    0.14652E+07        -0.39923E+08         0.00000E+00
    0.00000E+00         0.00000E+00        -0.95195E+07
 
   -0.92415E+07         0.16423E+07         0.00000E+00
    0.16423E+07        -0.39870E+08         0.00000E+00
    0.00000E+00         0.00000E+00        -0.94549E+07
 
   -0.93037E+07         0.18264E+07         0.00000E+00
    0.18264E+07        -0.39813E+08         0.00000E+00
    0.00000E+00         0.00000E+00        -0.93797E+07
 
   -0.91974E+07         0.20548E+05         0.00000E+00
    0.20548E+05        -0.40678E+08         0.00000E+00
    0.00000E+00         0.00000E+00        -0.10091E+08
 
   -0.92381E+07         0.76432E+05         0.00000E+00
    0.76432E+05        -0.40677E+08         0.00000E+00
    0.00000E+00         0.00000E+00        -0.10048E+08
 
   -0.92751E+07         0.14674E+06         0.00000E+00
    0.14674E+06        -0.40677E+08         0.00000E+00
    0.00000E+00         0.00000E+00        -0.10010E+08
 
   -0.93082E+07         0.23145E+06         0.00000E+00
    0.23145E+06        -0.40675E+08         0.00000E+00
    0.00000E+00         0.00000E+00        -0.99759E+07
 
   -0.93374E+07         0.33029E+06         0.00000E+00
    0.33029E+06        -0.40672E+08         0.00000E+00
    0.00000E+00         0.00000E+00        -0.99464E+07
 
   -0.93630E+07         0.44266E+06         0.00000E+00
    0.44266E+06        -0.40668E+08         0.00000E+00
    0.00000E+00         0.00000E+00        -0.99211E+07
 
   -0.93852E+07         0.56754E+06         0.00000E+00
    0.56754E+06        -0.40661E+08         0.00000E+00
    0.00000E+00         0.00000E+00        -0.98998E+07
 
   -0.94049E+07         0.70359E+06         0.00000E+00
    0.70359E+06        -0.40652E+08         0.00000E+00
    0.00000E+00         0.00000E+00        -0.98815E+07
 
   -0.94231E+07         0.84933E+06         0.00000E+00
    0.84933E+06        -0.40639E+08         0.00000E+00
    0.00000E+00         0.00000E+00        -0.98650E+07
 
   -0.94415E+07         0.10033E+07         0.00000E+00
    0.10033E+07        -0.40622E+08         0.00000E+00
    0.00000E+00         0.00000E+00        -0.98480E+07
 
   -0.94623E+07         0.11646E+07         0.00000E+00
    0.11646E+07        -0.40600E+08         0.00000E+00
    0.00000E+00         0.00000E+00        -0.98284E+07
 
   -0.94878E+07         0.13326E+07         0.00000E+00
    0.13326E+07        -0.40573E+08         0.00000E+00
    0.00000E+00         0.00000E+00        -0.98037E+07
 
   -0.95204E+07         0.15073E+07         0.00000E+00
    0.15073E+07        -0.40542E+08         0.00000E+00
    0.00000E+00         0.00000E+00        -0.97720E+07
 
   -0.95629E+07         0.16883E+07         0.00000E+00
    0.16883E+07        -0.40506E+08         0.00000E+00
    0.00000E+00         0.00000E+00        -0.97316E+07
 
   -0.96190E+07         0.18760E+07         0.00000E+00
    0.18760E+07        -0.40466E+08         0.00000E+00
    0.00000E+00         0.00000E+00        -0.96801E+07
 
   -0.96532E+07         0.20225E+05         0.00000E+00
    0.20225E+05        -0.41182E+08         0.00000E+00
    0.00000E+00         0.00000E+00        -0.10094E+08
 
   -0.96792E+07         0.75356E+05         0.00000E+00
    0.75356E+05        -0.41183E+08         0.00000E+00
    0.00000E+00         0.00000E+00        -0.10069E+08
 
   -0.97014E+07         0.14545E+06         0.00000E+00
    0.14545E+06        -0.41186E+08         0.00000E+00
    0.00000E+00         0.00000E+00        -0.10050E+08
 
   -0.97200E+07         0.23045E+06         0.00000E+00
    0.23045E+06        -0.41190E+08         0.00000E+00
    0.00000E+00         0.00000E+00        -0.10037E+08
 
   -0.97352E+07         0.33007E+06         0.00000E+00
    0.33007E+06        -0.41193E+08         0.00000E+00
    0.00000E+00         0.00000E+00        -0.10028E+08
 
   -0.97475E+07         0.44367E+06         0.00000E+00
    0.44367E+06        -0.41197E+08         0.00000E+00
    0.00000E+00         0.00000E+00        -0.10025E+08
 
   -0.97576E+07         0.57030E+06         0.00000E+00
    0.57030E+06        -0.41200E+08         0.00000E+00
    0.00000E+00         0.00000E+00        -0.10025E+08
 
   -0.97664E+07         0.70875E+06         0.00000E+00
    0.70875E+06        -0.41201E+08         0.00000E+00
    0.00000E+00         0.00000E+00        -0.10029E+08
 
   -0.97753E+07         0.85763E+06         0.00000E+00
    0.85763E+06        -0.41200E+08         0.00000E+00
    0.00000E+00         0.00000E+00        -0.10033E+08
 
   -0.97857E+07         0.10156E+07         0.00000E+00
    0.10156E+07        -0.41196E+08         0.00000E+00
    0.00000E+00         0.00000E+00        -0.10037E+08
 
   -0.97993E+07         0.11814E+07         0.00000E+00
    0.11814E+07        -0.41188E+08         0.00000E+00
    0.00000E+00         0.00000E+00        -0.10039E+08
 
   -0.98181E+07         0.13542E+07         0.00000E+00
    0.13542E+07        -0.41176E+08         0.00000E+00
    0.00000E+00         0.00000E+00        -0.10035E+08
 
   -0.98444E+07         0.15334E+07         0.00000E+00
    0.15334E+07        -0.41159E+08         0.00000E+00
    0.00000E+00         0.00000E+00        -0.10025E+08
 
   -0.98806E+07         0.17187E+07         0.00000E+00
    0.17187E+07        -0.41138E+08         0.00000E+00
    0.00000E+00         0.00000E+00        -0.10006E+08
 
   -0.99294E+07         0.19109E+07         0.00000E+00
    0.19109E+07        -0.41111E+08         0.00000E+00
    0.00000E+00         0.00000E+00        -0.99757E+07
 
   -0.10111E+08         0.18874E+05         0.00000E+00
    0.18874E+05        -0.41686E+08         0.00000E+00
    0.00000E+00         0.00000E+00        -0.10102E+08
 
   -0.10122E+08         0.71354E+05         0.00000E+00
    0.71354E+05        -0.41689E+08         0.00000E+00
    0.00000E+00         0.00000E+00        -0.10095E+08
 
   -0.10129E+08         0.13940E+06         0.00000E+00
    0.13940E+06        -0.41696E+08         0.00000E+00
    0.00000E+00         0.00000E+00        -0.10096E+08
 
   -0.10132E+08         0.22303E+06         0.00000E+00
    0.22303E+06        -0.41706E+08         0.00000E+00
    0.00000E+00         0.00000E+00        -0.10103E+08
 
   -0.10133E+08         0.32193E+06         0.00000E+00
    0.32193E+06        -0.41718E+08         0.00000E+00
    0.00000E+00         0.00000E+00        -0.10116E+08
 
   -0.10131E+08         0.43550E+06         0.00000E+00
    0.43550E+06        -0.41730E+08         0.00000E+00
    0.00000E+00         0.00000E+00        -0.10135E+08
 
   -0.10128E+08         0.56281E+06         0.00000E+00
    0.56281E+06        -0.41743E+08         0.00000E+00
    0.00000E+00         0.00000E+00        -0.10157E+08
 
   -0.10126E+08         0.70269E+06         0.00000E+00
    0.70269E+06        -0.41755E+08         0.00000E+00
    0.00000E+00         0.00000E+00        -0.10182E+08
 
   -0.10124E+08         0.85386E+06         0.00000E+00
    0.85386E+06        -0.41765E+08         0.00000E+00
    0.00000E+00         0.00000E+00        -0.10207E+08
 
   -0.10126E+08         0.10149E+07         0.00000E+00
    0.10149E+07        -0.41774E+08         0.00000E+00
    0.00000E+00         0.00000E+00        -0.10232E+08
 
   -0.10132E+08         0.11847E+07         0.00000E+00
    0.11847E+07        -0.41778E+08         0.00000E+00
    0.00000E+00         0.00000E+00        -0.10253E+08
 
   -0.10144E+08         0.13619E+07         0.00000E+00
    0.13619E+07        -0.41779E+08         0.00000E+00
    0.00000E+00         0.00000E+00        -0.10270E+08
 
   -0.10164E+08         0.15459E+07         0.00000E+00
    0.15459E+07        -0.41775E+08         0.00000E+00
    0.00000E+00         0.00000E+00        -0.10279E+08
 
   -0.10194E+08         0.17364E+07         0.00000E+00
    0.17364E+07        -0.41766E+08         0.00000E+00
    0.00000E+00         0.00000E+00        -0.10279E+08
 
   -0.10235E+08         0.19335E+07         0.00000E+00
    0.19335E+07        -0.41751E+08         0.00000E+00
    0.00000E+00         0.00000E+00        -0.10268E+08
 
   -0.10573E+08         0.16288E+05         0.00000E+00
    0.16288E+05        -0.42190E+08         0.00000E+00
    0.00000E+00         0.00000E+00        -0.10113E+08
 
   -0.10567E+08         0.63878E+05         0.00000E+00
    0.63878E+05        -0.42196E+08         0.00000E+00
    0.00000E+00         0.00000E+00        -0.10123E+08
 
   -0.10558E+08         0.12796E+06         0.00000E+00
    0.12796E+06        -0.42208E+08         0.00000E+00
    0.00000E+00         0.00000E+00        -0.10144E+08
 
   -0.10546E+08         0.20856E+06         0.00000E+00
    0.20856E+06        -0.42224E+08         0.00000E+00
    0.00000E+00         0.00000E+00        -0.10172E+08
 
   -0.10531E+08         0.30540E+06         0.00000E+00
    0.30540E+06        -0.42243E+08         0.00000E+00
    0.00000E+00         0.00000E+00        -0.10208E+08
 
   -0.10515E+08         0.41785E+06         0.00000E+00
    0.41785E+06        -0.42265E+08         0.00000E+00
    0.00000E+00         0.00000E+00        -0.10248E+08
 
   -0.10499E+08         0.54499E+06         0.00000E+00
    0.54499E+06        -0.42287E+08         0.00000E+00
    0.00000E+00         0.00000E+00        -0.10293E+08
 
   -0.10483E+08         0.68567E+06         0.00000E+00
    0.68567E+06        -0.42310E+08         0.00000E+00
    0.00000E+00         0.00000E+00        -0.10339E+08
 
   -0.10471E+08         0.83858E+06         0.00000E+00
    0.83858E+06        -0.42332E+08         0.00000E+00
    0.00000E+00         0.00000E+00        -0.10385E+08
 
   -0.10463E+08         0.10023E+07         0.00000E+00
    0.10023E+07        -0.42351E+08         0.00000E+00
    0.00000E+00         0.00000E+00        -0.10430E+08
 
   -0.10460E+08         0.11756E+07         0.00000E+00
    0.11756E+07        -0.42368E+08         0.00000E+00
    0.00000E+00         0.00000E+00        -0.10470E+08
 
   -0.10465E+08         0.13572E+07         0.00000E+00
    0.13572E+07        -0.42380E+08         0.00000E+00
    0.00000E+00         0.00000E+00        -0.10505E+08
 
   -0.10478E+08         0.15465E+07         0.00000E+00
    0.15465E+07        -0.42388E+08         0.00000E+00
    0.00000E+00         0.00000E+00        -0.10533E+08
 
   -0.10501E+08         0.17428E+07         0.00000E+00
    0.17428E+07        -0.42390E+08         0.00000E+00
    0.00000E+00         0.00000E+00        -0.10550E+08
 
   -0.10536E+08         0.19452E+07         0.00000E+00
    0.19452E+07        -0.42387E+08         0.00000E+00
    0.00000E+00         0.00000E+00        -0.10557E+08
 
   -0.11041E+08         0.12375E+05         0.00000E+00
    0.12375E+05        -0.42694E+08         0.00000E+00
    0.00000E+00         0.00000E+00        -0.10123E+08
 
   -0.11019E+08         0.52731E+05         0.00000E+00
    0.52731E+05        -0.42703E+08         0.00000E+00
    0.00000E+00         0.00000E+00        -0.10152E+08
 
   -0.10993E+08         0.11087E+06         0.00000E+00
    0.11087E+06        -0.42719E+08         0.00000E+00
    0.00000E+00         0.00000E+00        -0.10192E+08
 
   -0.10963E+08         0.18685E+06         0.00000E+00
    0.18685E+06        -0.42742E+08         0.00000E+00
    0.00000E+00         0.00000E+00        -0.10242E+08
 
   -0.10932E+08         0.28036E+06         0.00000E+00
    0.28036E+06        -0.42769E+08         0.00000E+00
    0.00000E+00         0.00000E+00        -0.10299E+08
 
   -0.10900E+08         0.39074E+06         0.00000E+00
    0.39074E+06        -0.42800E+08         0.00000E+00
    0.00000E+00         0.00000E+00        -0.10362E+08
 
   -0.10869E+08         0.51703E+06         0.00000E+00
    0.51703E+06        -0.42832E+08         0.00000E+00
    0.00000E+00         0.00000E+00        -0.10429E+08
 
   -0.10840E+08         0.65804E+06         0.00000E+00
    0.65804E+06        -0.42865E+08         0.00000E+00
    0.00000E+00         0.00000E+00        -0.10497E+08
 
   -0.10816E+08         0.81238E+06         0.00000E+00
    0.81238E+06        -0.42897E+08         0.00000E+00
    0.00000E+00         0.00000E+00        -0.10564E+08
 
   -0.10797E+08         0.97866E+06         0.00000E+00
    0.97866E+06        -0.42927E+08         0.00000E+00
    0.00000E+00         0.00000E+00        -0.10628E+08
 
   -0.10785E+08         0.11555E+07         0.00000E+00
    0.11555E+07        -0.42954E+08         0.00000E+00
    0.00000E+00         0.00000E+00        -0.10687E+08
 
   -0.10781E+08         0.13417E+07         0.00000E+00
    0.13417E+07        -0.42977E+08         0.00000E+00
    0.00000E+00         0.00000E+00        -0.10740E+08
 
   -0.10786E+08         0.15363E+07         0.00000E+00
    0.15363E+07        -0.42995E+08         0.00000E+00
    0.00000E+00         0.00000E+00        -0.10785E+08
 
   -0.10803E+08         0.17374E+07         0.00000E+00
    0.17374E+07        -0.43009E+08         0.00000E+00
    0.00000E+00         0.00000E+00        -0.10820E+08
 
   -0.10834E+08         0.19435E+07         0.00000E+00
    0.19435E+07        -0.43018E+08         0.00000E+00
    0.00000E+00         0.00000E+00        -0.10844E+08
 
   -0.11518E+08         0.71119E+04         0.00000E+00
    0.71119E+04        -0.43199E+08         0.00000E+00
    0.00000E+00         0.00000E+00        -0.10130E+08
 
   -0.11478E+08         0.38007E+05         0.00000E+00
    0.38007E+05        -0.43210E+08         0.00000E+00
    0.00000E+00         0.00000E+00        -0.10178E+08
 
   -0.11433E+08         0.88306E+05         0.00000E+00
    0.88306E+05        -0.43231E+08         0.00000E+00
    0.00000E+00         0.00000E+00        -0.10238E+08
 
   -0.11385E+08         0.15813E+06         0.00000E+00
    0.15813E+06        -0.43259E+08         0.00000E+00
    0.00000E+00         0.00000E+00        -0.10310E+08
 
   -0.11335E+08         0.24712E+06         0.00000E+00
    0.24712E+06        -0.43294E+08         0.00000E+00
    0.00000E+00         0.00000E+00        -0.10390E+08
 
   -0.11286E+08         0.35456E+06         0.00000E+00
    0.35456E+06        -0.43332E+08         0.00000E+00
    0.00000E+00         0.00000E+00        -0.10475E+08
 
   -0.11239E+08         0.47940E+06         0.00000E+00
    0.47940E+06        -0.43374E+08         0.00000E+00
    0.00000E+00         0.00000E+00        -0.10564E+08
 
   -0.11196E+08         0.62035E+06         0.00000E+00
    0.62035E+06        -0.43416E+08         0.00000E+00
    0.00000E+00         0.00000E+00        -0.10653E+08
 
   -0.11158E+08         0.77600E+06         0.00000E+00
    0.77600E+06        -0.43458E+08         0.00000E+00
    0.00000E+00         0.00000E+00        -0.10741E+08
 
   -0.11128E+08         0.94491E+06         0.00000E+00
    0.94491E+06        -0.43498E+08         0.00000E+00
    0.00000E+00         0.00000E+00        -0.10825E+08
 
   -0.11105E+08         0.11255E+07         0.00000E+00
    0.11255E+07        -0.43535E+08         0.00000E+00
    0.00000E+00         0.00000E+00        -0.10903E+08
 
   -0.11092E+08         0.13161E+07         0.00000E+00
    0.13161E+07        -0.43568E+08         0.00000E+00
    0.00000E+00         0.00000E+00        -0.10973E+08
 
   -0.11090E+08         0.15146E+07         0.00000E+00
    0.15146E+07        -0.43597E+08         0.00000E+00
    0.00000E+00         0.00000E+00        -0.11035E+08
 
   -0.11101E+08         0.17198E+07         0.00000E+00
    0.17198E+07        -0.43621E+08         0.00000E+00
    0.00000E+00         0.00000E+00        -0.11086E+08
 
   -0.11126E+08         0.19315E+07         0.00000E+00
    0.19315E+07        -0.43641E+08         0.00000E+00
    0.00000E+00         0.00000E+00        -0.11126E+08
 
   -0.12007E+08         0.60681E+03         0.00000E+00
    0.60681E+03        -0.43703E+08         0.00000E+00
    0.00000E+00         0.00000E+00        -0.10134E+08
 
   -0.11946E+08         0.19972E+05         0.00000E+00
    0.19972E+05        -0.43716E+08         0.00000E+00
    0.00000E+00         0.00000E+00        -0.10200E+08
 
   -0.11881E+08         0.60775E+05         0.00000E+00
    0.60775E+05        -0.43741E+08         0.00000E+00
    0.00000E+00         0.00000E+00        -0.10281E+08
 
   -0.11813E+08         0.12306E+06         0.00000E+00
    0.12306E+06        -0.43775E+08         0.00000E+00
    0.00000E+00         0.00000E+00        -0.10374E+08
 
   -0.11743E+08         0.20644E+06         0.00000E+00
    0.20644E+06        -0.43816E+08         0.00000E+00
    0.00000E+00         0.00000E+00        -0.10476E+08
 
   -0.11675E+08         0.31009E+06         0.00000E+00
    0.31009E+06        -0.43862E+08         0.00000E+00
    0.00000E+00         0.00000E+00        -0.10584E+08
 
   -0.11611E+08         0.43288E+06         0.00000E+00
    0.43288E+06        -0.43911E+08         0.00000E+00
    0.00000E+00         0.00000E+00        -0.10695E+08
 
   -0.11551E+08         0.57347E+06         0.00000E+00
    0.57347E+06        -0.43962E+08         0.00000E+00
    0.00000E+00         0.00000E+00        -0.10806E+08
 
   -0.11499E+08         0.73032E+06         0.00000E+00
    0.73032E+06        -0.44013E+08         0.00000E+00
    0.00000E+00         0.00000E+00        -0.10914E+08
 
   -0.11455E+08         0.90159E+06         0.00000E+00
    0.90159E+06        -0.44062E+08         0.00000E+00
    0.00000E+00         0.00000E+00        -0.11018E+08
 
   -0.11422E+08         0.10854E+07         0.00000E+00
    0.10854E+07        -0.44109E+08         0.00000E+00
    0.00000E+00         0.00000E+00        -0.11115E+08
 
   -0.11400E+08         0.12796E+07         0.00000E+00
    0.12796E+07        -0.44152E+08         0.00000E+00
    0.00000E+00         0.00000E+00        -0.11203E+08
 
   -0.11390E+08         0.14826E+07         0.00000E+00
    0.14826E+07        -0.44191E+08         0.00000E+00
    0.00000E+00         0.00000E+00        -0.11281E+08
 
   -0.11394E+08         0.16934E+07         0.00000E+00
    0.16934E+07        -0.44224E+08         0.00000E+00
    0.00000E+00         0.00000E+00        -0.11347E+08
 
   -0.11412E+08         0.19113E+07         0.00000E+00
    0.19113E+07        -0.44252E+08         0.00000E+00
    0.00000E+00         0.00000E+00        -0.11401E+08
 
   -0.12509E+08        -0.69429E+04         0.00000E+00
   -0.69429E+04        -0.44208E+08         0.00000E+00
    0.00000E+00         0.00000E+00        -0.10131E+08
 
   -0.12426E+08        -0.84984E+03         0.00000E+00
   -0.84984E+03        -0.44223E+08         0.00000E+00
    0.00000E+00         0.00000E+00        -0.10217E+08
 
   -0.12338E+08         0.29067E+05         0.00000E+00
    0.29067E+05        -0.44250E+08         0.00000E+00
    0.00000E+00         0.00000E+00        -0.10319E+08
 
   -0.12247E+08         0.82679E+05         0.00000E+00
    0.82679E+05        -0.44288E+08         0.00000E+00
    0.00000E+00         0.00000E+00        -0.10434E+08
 
   -0.12157E+08         0.15947E+06         0.00000E+00
    0.15947E+06        -0.44334E+08         0.00000E+00
    0.00000E+00         0.00000E+00        -0.10558E+08
 
   -0.12068E+08         0.25852E+06         0.00000E+00
    0.25852E+06        -0.44386E+08         0.00000E+00
    0.00000E+00         0.00000E+00        -0.10688E+08
 
   -0.11984E+08         0.37865E+06         0.00000E+00
    0.37865E+06        -0.44442E+08         0.00000E+00
    0.00000E+00         0.00000E+00        -0.10820E+08
 
   -0.11906E+08         0.51831E+06         0.00000E+00
    0.51831E+06        -0.44501E+08         0.00000E+00
    0.00000E+00         0.00000E+00        -0.10953E+08
 
   -0.11838E+08         0.67571E+06         0.00000E+00
    0.67571E+06        -0.44559E+08         0.00000E+00
    0.00000E+00         0.00000E+00        -0.11082E+08
 
   -0.11780E+08         0.84880E+06         0.00000E+00
    0.84880E+06        -0.44617E+08         0.00000E+00
    0.00000E+00         0.00000E+00        -0.11205E+08
 
   -0.11735E+08         0.10354E+07         0.00000E+00
    0.10354E+07        -0.44673E+08         0.00000E+00
    0.00000E+00         0.00000E+00        -0.11321E+08
 
   -0.11703E+08         0.12336E+07         0.00000E+00
    0.12336E+07        -0.44726E+08         0.00000E+00
    0.00000E+00         0.00000E+00        -0.11427E+08
 
   -0.11684E+08         0.14418E+07         0.00000E+00
    0.14418E+07        -0.44774E+08         0.00000E+00
    0.00000E+00         0.00000E+00        -0.11521E+08
 
   -0.11680E+08         0.16589E+07         0.00000E+00
    0.16589E+07        -0.44816E+08         0.00000E+00
    0.00000E+00         0.00000E+00        -0.11603E+08
 
   -0.11691E+08         0.18835E+07         0.00000E+00
    0.18835E+07        -0.44851E+08         0.00000E+00
    0.00000E+00         0.00000E+00        -0.11671E+08
 
   -0.13027E+08        -0.15281E+05         0.00000E+00
   -0.15281E+05        -0.44712E+08         0.00000E+00
    0.00000E+00         0.00000E+00        -0.10122E+08
 
   -0.12919E+08        -0.23743E+05         0.00000E+00
   -0.23743E+05        -0.44728E+08         0.00000E+00
    0.00000E+00         0.00000E+00        -0.10228E+08
 
   -0.12806E+08        -0.57253E+04         0.00000E+00
   -0.57253E+04        -0.44758E+08         0.00000E+00
    0.00000E+00         0.00000E+00        -0.10351E+08
 
   -0.12690E+08         0.38357E+05         0.00000E+00
    0.38357E+05        -0.44799E+08         0.00000E+00
    0.00000E+00         0.00000E+00        -0.10487E+08
 
   -0.12576E+08         0.10776E+06         0.00000E+00
    0.10776E+06        -0.44848E+08         0.00000E+00
    0.00000E+00         0.00000E+00        -0.10633E+08
 
   -0.12464E+08         0.20144E+06         0.00000E+00
    0.20144E+06        -0.44904E+08         0.00000E+00
    0.00000E+00         0.00000E+00        -0.10784E+08
 
   -0.12359E+08         0.31803E+06         0.00000E+00
    0.31803E+06        -0.44965E+08         0.00000E+00
    0.00000E+00         0.00000E+00        -0.10938E+08
 
   -0.12262E+08         0.45587E+06         0.00000E+00
    0.45587E+06        -0.45030E+08         0.00000E+00
    0.00000E+00         0.00000E+00        -0.11091E+08
 
   -0.12176E+08         0.61303E+06         0.00000E+00
    0.61303E+06        -0.45095E+08         0.00000E+00
    0.00000E+00         0.00000E+00        -0.11241E+08
 
   -0.12103E+08         0.78730E+06         0.00000E+00
    0.78730E+06        -0.45161E+08         0.00000E+00
    0.00000E+00         0.00000E+00        -0.11384E+08
 
   -0.12045E+08         0.97653E+06         0.00000E+00
    0.97653E+06        -0.45225E+08         0.00000E+00
    0.00000E+00         0.00000E+00        -0.11518E+08
 
   -0.12001E+08         0.11788E+07         0.00000E+00
    0.11788E+07        -0.45287E+08         0.00000E+00
    0.00000E+00         0.00000E+00        -0.11642E+08
 
   -0.11973E+08         0.13924E+07         0.00000E+00
    0.13924E+07        -0.45343E+08         0.00000E+00
    0.00000E+00         0.00000E+00        -0.11753E+08
 
   -0.11960E+08         0.16158E+07         0.00000E+00
    0.16158E+07        -0.45394E+08         0.00000E+00
    0.00000E+00         0.00000E+00        -0.11851E+08
 
   -0.11964E+08         0.18469E+07         0.00000E+00
    0.18469E+07        -0.45439E+08         0.00000E+00
    0.00000E+00         0.00000E+00        -0.11934E+08
 
   -0.13561E+08        -0.24123E+05         0.00000E+00
   -0.24123E+05        -0.45216E+08         0.00000E+00
    0.00000E+00         0.00000E+00        -0.10106E+08
 
   -0.13425E+08        -0.47886E+05         0.00000E+00
   -0.47886E+05        -0.45233E+08         0.00000E+00
    0.00000E+00         0.00000E+00        -0.10233E+08
 
   -0.13284E+08        -0.42294E+05         0.00000E+00
   -0.42294E+05        -0.45264E+08         0.00000E+00
    0.00000E+00         0.00000E+00        -0.10377E+08
 
   -0.13142E+08        -0.82031E+04         0.00000E+00
   -0.82031E+04        -0.45306E+08         0.00000E+00
    0.00000E+00         0.00000E+00        -0.10534E+08
 
   -0.13001E+08         0.53282E+05         0.00000E+00
    0.53282E+05        -0.45356E+08         0.00000E+00
    0.00000E+00         0.00000E+00        -0.10701E+08
 
   -0.12865E+08         0.14083E+06         0.00000E+00
    0.14083E+06        -0.45414E+08         0.00000E+00
    0.00000E+00         0.00000E+00        -0.10873E+08
 
   -0.12737E+08         0.25292E+06         0.00000E+00
    0.25292E+06        -0.45478E+08         0.00000E+00
    0.00000E+00         0.00000E+00        -0.11046E+08
 
   -0.12619E+08         0.38786E+06         0.00000E+00
    0.38786E+06        -0.45546E+08         0.00000E+00
    0.00000E+00         0.00000E+00        -0.11220E+08
 
   -0.12515E+08         0.54373E+06         0.00000E+00
    0.54373E+06        -0.45617E+08         0.00000E+00
    0.00000E+00         0.00000E+00        -0.11389E+08
 
   -0.12425E+08         0.71834E+06         0.00000E+00
    0.71834E+06        -0.45689E+08         0.00000E+00
    0.00000E+00         0.00000E+00        -0.11551E+08
 
   -0.12351E+08         0.90956E+06         0.00000E+00
    0.90956E+06        -0.45761E+08         0.00000E+00
    0.00000E+00         0.00000E+00        -0.11704E+08
 
   -0.12295E+08         0.11153E+07         0.00000E+00
    0.11153E+07        -0.45830E+08         0.00000E+00
    0.00000E+00         0.00000E+00        -0.11845E+08
 
   -0.12255E+08         0.13339E+07         0.00000E+00
    0.13339E+07        -0.45896E+08         0.00000E+00
    0.00000E+00         0.00000E+00        -0.11975E+08
 
   -0.12234E+08         0.15627E+07         0.00000E+00
    0.15627E+07        -0.45957E+08         0.00000E+00
    0.00000E+00         0.00000E+00        -0.12090E+08
 
   -0.12232E+08         0.17992E+07         0.00000E+00
    0.17992E+07        -0.46014E+08         0.00000E+00
    0.00000E+00         0.00000E+00        -0.12190E+08
 
   -0.14113E+08        -0.33193E+05         0.00000E+00
   -0.33193E+05        -0.45720E+08         0.00000E+00
    0.00000E+00         0.00000E+00        -0.10084E+08
 
   -0.13945E+08        -0.72432E+05         0.00000E+00
   -0.72432E+05        -0.45737E+08         0.00000E+00
    0.00000E+00         0.00000E+00        -0.10232E+08
 
   -0.13774E+08        -0.79210E+05         0.00000E+00
   -0.79210E+05        -0.45768E+08         0.00000E+00
    0.00000E+00         0.00000E+00        -0.10398E+08
 
   -0.13602E+08        -0.55012E+05         0.00000E+00
   -0.55012E+05        -0.45809E+08         0.00000E+00
    0.00000E+00         0.00000E+00        -0.10575E+08
 
   -0.13434E+08        -0.15481E+04         0.00000E+00
   -0.15481E+04        -0.45859E+08         0.00000E+00
    0.00000E+00         0.00000E+00        -0.10761E+08
 
   -0.13272E+08         0.79378E+05         0.00000E+00
    0.79378E+05        -0.45916E+08         0.00000E+00
    0.00000E+00         0.00000E+00        -0.10951E+08
 
   -0.13120E+08         0.18604E+06         0.00000E+00
    0.18604E+06        -0.45979E+08         0.00000E+00
    0.00000E+00         0.00000E+00        -0.11142E+08
 
   -0.12979E+08         0.31681E+06         0.00000E+00
    0.31681E+06        -0.46048E+08         0.00000E+00
    0.00000E+00         0.00000E+00        -0.11333E+08
 
   -0.12854E+08         0.46982E+06         0.00000E+00
    0.46982E+06        -0.46121E+08         0.00000E+00
    0.00000E+00         0.00000E+00        -0.11521E+08
 
   -0.12746E+08         0.64315E+06         0.00000E+00
    0.64315E+06        -0.46198E+08         0.00000E+00
    0.00000E+00         0.00000E+00        -0.11701E+08
 
   -0.12656E+08         0.83479E+06         0.00000E+00
    0.83479E+06        -0.46276E+08         0.00000E+00
    0.00000E+00         0.00000E+00        -0.11873E+08
 
   -0.12585E+08         0.10428E+07         0.00000E+00
    0.10428E+07        -0.46354E+08         0.00000E+00
    0.00000E+00         0.00000E+00        -0.12034E+08
 
   -0.12533E+08         0.12646E+07         0.00000E+00
    0.12646E+07        -0.46431E+08         0.00000E+00
    0.00000E+00         0.00000E+00        -0.12183E+08
 
   -0.12503E+08         0.14976E+07         0.00000E+00
    0.14976E+07        -0.46504E+08         0.00000E+00
    0.00000E+00         0.00000E+00        -0.12318E+08
 
   -0.12491E+08         0.17410E+07         0.00000E+00
    0.17410E+07        -0.46572E+08         0.00000E+00
    0.00000E+00         0.00000E+00        -0.12436E+08
 
   -0.14681E+08        -0.42255E+05         0.00000E+00
   -0.42255E+05        -0.46224E+08         0.00000E+00
    0.00000E+00         0.00000E+00        -0.10055E+08
 
   -0.14478E+08        -0.96589E+05         0.00000E+00
   -0.96589E+05        -0.46241E+08         0.00000E+00
    0.00000E+00         0.00000E+00        -0.10227E+08
 
   -0.14274E+08        -0.11496E+06         0.00000E+00
   -0.11496E+06        -0.46270E+08         0.00000E+00
    0.00000E+00         0.00000E+00        -0.10413E+08
 
   -0.14072E+08        -0.99799E+05         0.00000E+00
   -0.99799E+05        -0.46309E+08         0.00000E+00
    0.00000E+00         0.00000E+00        -0.10610E+08
 
   -0.13874E+08        -0.53751E+05         0.00000E+00
   -0.53751E+05        -0.46355E+08         0.00000E+00
    0.00000E+00         0.00000E+00        -0.10812E+08
 
   -0.13686E+08         0.20594E+05         0.00000E+00
    0.20594E+05        -0.46407E+08         0.00000E+00
    0.00000E+00         0.00000E+00        -0.11018E+08
 
   -0.13508E+08         0.12106E+06         0.00000E+00
    0.12106E+06        -0.46466E+08         0.00000E+00
    0.00000E+00         0.00000E+00        -0.11224E+08
 
   -0.13344E+08         0.24594E+06         0.00000E+00
    0.24594E+06        -0.46531E+08         0.00000E+00
    0.00000E+00         0.00000E+00        -0.11429E+08
 
   -0.13197E+08         0.39366E+06         0.00000E+00
    0.39366E+06        -0.46604E+08         0.00000E+00
    0.00000E+00         0.00000E+00        -0.11632E+08
 
   -0.13068E+08         0.56290E+06         0.00000E+00
    0.56290E+06        -0.46683E+08         0.00000E+00
    0.00000E+00         0.00000E+00        -0.11830E+08
 
   -0.12960E+08         0.75220E+06         0.00000E+00
    0.75220E+06        -0.46768E+08         0.00000E+00
    0.00000E+00         0.00000E+00        -0.12022E+08
 
   -0.12873E+08         0.95968E+06         0.00000E+00
    0.95968E+06        -0.46855E+08         0.00000E+00
    0.00000E+00         0.00000E+00        -0.12204E+08
 
   -0.12808E+08         0.11829E+07         0.00000E+00
    0.11829E+07        -0.46944E+08         0.00000E+00
    0.00000E+00         0.00000E+00        -0.12375E+08
 
   -0.12765E+08         0.14202E+07         0.00000E+00
    0.14202E+07        -0.47031E+08         0.00000E+00
    0.00000E+00         0.00000E+00        -0.12531E+08
 
   -0.12743E+08         0.16702E+07         0.00000E+00
    0.16702E+07        -0.47113E+08         0.00000E+00
    0.00000E+00         0.00000E+00        -0.12672E+08
 
   -0.15267E+08        -0.51161E+05         0.00000E+00
   -0.51161E+05        -0.46728E+08         0.00000E+00
    0.00000E+00         0.00000E+00        -0.10022E+08
 
   -0.15024E+08        -0.11958E+06         0.00000E+00
   -0.11958E+06        -0.46744E+08         0.00000E+00
    0.00000E+00         0.00000E+00        -0.10218E+08
 
   -0.14784E+08        -0.14791E+06         0.00000E+00
   -0.14791E+06        -0.46771E+08         0.00000E+00
    0.00000E+00         0.00000E+00        -0.10426E+08
 
   -0.14548E+08        -0.13993E+06         0.00000E+00
   -0.13993E+06        -0.46804E+08         0.00000E+00
    0.00000E+00         0.00000E+00        -0.10640E+08
 
   -0.14321E+08        -0.99753E+05         0.00000E+00
   -0.99753E+05        -0.46843E+08         0.00000E+00
    0.00000E+00         0.00000E+00        -0.10856E+08
 
   -0.14105E+08        -0.31311E+05         0.00000E+00
   -0.31311E+05        -0.46887E+08         0.00000E+00
    0.00000E+00         0.00000E+00        -0.11073E+08
 
   -0.13903E+08         0.62359E+05         0.00000E+00
    0.62359E+05        -0.46936E+08         0.00000E+00
    0.00000E+00         0.00000E+00        -0.11288E+08
 
   -0.13715E+08         0.17916E+06         0.00000E+00
    0.17916E+06        -0.46994E+08         0.00000E+00
    0.00000E+00         0.00000E+00        -0.11504E+08
 
   -0.13546E+08         0.31809E+06         0.00000E+00
    0.31809E+06        -0.47063E+08         0.00000E+00
    0.00000E+00         0.00000E+00        -0.11718E+08
 
   -0.13396E+08         0.47895E+06         0.00000E+00
    0.47895E+06        -0.47142E+08         0.00000E+00
    0.00000E+00         0.00000E+00        -0.11932E+08
 
   -0.13268E+08         0.66150E+06         0.00000E+00
    0.66150E+06        -0.47232E+08         0.00000E+00
    0.00000E+00         0.00000E+00        -0.12144E+08
 
   -0.13163E+08         0.86474E+06         0.00000E+00
    0.86474E+06        -0.47330E+08         0.00000E+00
    0.00000E+00         0.00000E+00        -0.12349E+08
 
   -0.13081E+08         0.10873E+07         0.00000E+00
    0.10873E+07        -0.47433E+08         0.00000E+00
    0.00000E+00         0.00000E+00        -0.12545E+08
 
   -0.13023E+08         0.13276E+07         0.00000E+00
    0.13276E+07        -0.47536E+08         0.00000E+00
    0.00000E+00         0.00000E+00        -0.12728E+08
 
   -0.12988E+08         0.15835E+07         0.00000E+00
    0.15835E+07        -0.47636E+08         0.00000E+00
    0.00000E+00         0.00000E+00        -0.12896E+08
 
   -0.15868E+08        -0.59835E+05         0.00000E+00
   -0.59835E+05        -0.47232E+08         0.00000E+00
    0.00000E+00         0.00000E+00        -0.99860E+07
 
   -0.15581E+08        -0.14066E+06         0.00000E+00
   -0.14066E+06        -0.47247E+08         0.00000E+00
    0.00000E+00         0.00000E+00        -0.10207E+08
 
   -0.15300E+08        -0.17612E+06         0.00000E+00
   -0.17612E+06        -0.47269E+08         0.00000E+00
    0.00000E+00         0.00000E+00        -0.10436E+08
 
   -0.15029E+08        -0.17219E+06         0.00000E+00
   -0.17219E+06        -0.47295E+08         0.00000E+00
    0.00000E+00         0.00000E+00        -0.10666E+08
 
   -0.14772E+08        -0.13536E+06         0.00000E+00
   -0.13536E+06        -0.47322E+08         0.00000E+00
    0.00000E+00         0.00000E+00        -0.10892E+08
 
   -0.14531E+08        -0.71653E+05         0.00000E+00
   -0.71653E+05        -0.47353E+08         0.00000E+00
    0.00000E+00         0.00000E+00        -0.11114E+08
 
   -0.14306E+08         0.14514E+05         0.00000E+00
    0.14514E+05        -0.47389E+08         0.00000E+00
    0.00000E+00         0.00000E+00        -0.11333E+08
 
   -0.14097E+08         0.12065E+06         0.00000E+00
    0.12065E+06        -0.47435E+08         0.00000E+00
    0.00000E+00         0.00000E+00        -0.11552E+08
 
   -0.13906E+08         0.24645E+06         0.00000E+00
    0.24645E+06        -0.47495E+08         0.00000E+00
    0.00000E+00         0.00000E+00        -0.11774E+08
 
   -0.13734E+08         0.39326E+06         0.00000E+00
    0.39326E+06        -0.47572E+08         0.00000E+00
    0.00000E+00         0.00000E+00        -0.12001E+08
 
   -0.13584E+08         0.56291E+06         0.00000E+00
    0.56291E+06        -0.47665E+08         0.00000E+00
    0.00000E+00         0.00000E+00        -0.12231E+08
 
   -0.13456E+08         0.75681E+06         0.00000E+00
    0.75681E+06        -0.47774E+08         0.00000E+00
    0.00000E+00         0.00000E+00        -0.12462E+08
 
   -0.13354E+08         0.97491E+06         0.00000E+00
    0.97491E+06        -0.47893E+08         0.00000E+00
    0.00000E+00         0.00000E+00        -0.12689E+08
 
   -0.13277E+08         0.12155E+07         0.00000E+00
    0.12155E+07        -0.48017E+08         0.00000E+00
    0.00000E+00         0.00000E+00        -0.12905E+08
 
   -0.13225E+08         0.14762E+07         0.00000E+00
    0.14762E+07        -0.48140E+08         0.00000E+00
    0.00000E+00         0.00000E+00        -0.13108E+08
 
   -0.16485E+08        -0.68285E+05         0.00000E+00
   -0.68285E+05        -0.47737E+08         0.00000E+00
    0.00000E+00         0.00000E+00        -0.99476E+07
 
   -0.16146E+08        -0.15877E+06         0.00000E+00
   -0.15877E+06        -0.47749E+08         0.00000E+00
    0.00000E+00         0.00000E+00        -0.10197E+08
 
   -0.15820E+08        -0.19681E+06         0.00000E+00
   -0.19681E+06        -0.47765E+08         0.00000E+00
    0.00000E+00         0.00000E+00        -0.10447E+08
 
   -0.15513E+08        -0.19231E+06         0.00000E+00
   -0.19231E+06        -0.47778E+08         0.00000E+00
    0.00000E+00         0.00000E+00        -0.10689E+08
 
   -0.15227E+08        -0.15575E+06         0.00000E+00
   -0.15575E+06        -0.47789E+08         0.00000E+00
    0.00000E+00         0.00000E+00        -0.10919E+08
 
   -0.14963E+08        -0.95956E+05         0.00000E+00
   -0.95956E+05        -0.47801E+08         0.00000E+00
    0.00000E+00         0.00000E+00        -0.11139E+08
 
   -0.14719E+08        -0.18552E+05         0.00000E+00
   -0.18552E+05        -0.47820E+08         0.00000E+00
    0.00000E+00         0.00000E+00        -0.11355E+08
 
   -0.14493E+08         0.74049E+05         0.00000E+00
    0.74049E+05        -0.47852E+08         0.00000E+00
    0.00000E+00         0.00000E+00        -0.11572E+08
 
   -0.14283E+08         0.18227E+06         0.00000E+00
    0.18227E+06        -0.47901E+08         0.00000E+00
    0.00000E+00         0.00000E+00        -0.11796E+08
 
   -0.14090E+08         0.30881E+06         0.00000E+00
    0.30881E+06        -0.47971E+08         0.00000E+00
    0.00000E+00         0.00000E+00        -0.12031E+08
 
   -0.13915E+08         0.45800E+06         0.00000E+00
    0.45800E+06        -0.48065E+08         0.00000E+00
    0.00000E+00         0.00000E+00        -0.12278E+08
 
   -0.13760E+08         0.63465E+06         0.00000E+00
    0.63465E+06        -0.48184E+08         0.00000E+00
    0.00000E+00         0.00000E+00        -0.12537E+08
 
   -0.13631E+08         0.84166E+06         0.00000E+00
    0.84166E+06        -0.48322E+08         0.00000E+00
    0.00000E+00         0.00000E+00        -0.12799E+08
 
   -0.13530E+08         0.10783E+07         0.00000E+00
    0.10783E+07        -0.48471E+08         0.00000E+00
    0.00000E+00         0.00000E+00        -0.13058E+08
 
   -0.13456E+08         0.13416E+07         0.00000E+00
    0.13416E+07        -0.48625E+08         0.00000E+00
    0.00000E+00         0.00000E+00        -0.13306E+08
 
   -0.17114E+08        -0.76531E+05         0.00000E+00
   -0.76531E+05        -0.48241E+08         0.00000E+00
    0.00000E+00         0.00000E+00        -0.99090E+07
 
   -0.16714E+08        -0.17179E+06         0.00000E+00
   -0.17179E+06        -0.48250E+08         0.00000E+00
    0.00000E+00         0.00000E+00        -0.10190E+08
 
   -0.16337E+08        -0.20507E+06         0.00000E+00
   -0.20507E+06        -0.48254E+08         0.00000E+00
    0.00000E+00         0.00000E+00        -0.10460E+08
 
   -0.15993E+08        -0.19422E+06         0.00000E+00
   -0.19422E+06        -0.48247E+08         0.00000E+00
    0.00000E+00         0.00000E+00        -0.10707E+08
 
   -0.15683E+08        -0.15591E+06         0.00000E+00
   -0.15591E+06        -0.48236E+08         0.00000E+00
    0.00000E+00         0.00000E+00        -0.10932E+08
 
   -0.15402E+08        -0.10108E+06         0.00000E+00
   -0.10108E+06        -0.48227E+08         0.00000E+00
    0.00000E+00         0.00000E+00        -0.11143E+08
 
   -0.15144E+08        -0.34849E+05         0.00000E+00
   -0.34849E+05        -0.48228E+08         0.00000E+00
    0.00000E+00         0.00000E+00        -0.11349E+08
 
   -0.14906E+08         0.41281E+05         0.00000E+00
    0.41281E+05        -0.48245E+08         0.00000E+00
    0.00000E+00         0.00000E+00        -0.11559E+08
 
   -0.14682E+08         0.12832E+06         0.00000E+00
    0.12832E+06        -0.48281E+08         0.00000E+00
    0.00000E+00         0.00000E+00        -0.11780E+08
 
   -0.14469E+08         0.22944E+06         0.00000E+00
    0.22944E+06        -0.48343E+08         0.00000E+00
    0.00000E+00         0.00000E+00        -0.12018E+08
 
   -0.14269E+08         0.35024E+06         0.00000E+00
    0.35024E+06        -0.48433E+08         0.00000E+00
    0.00000E+00         0.00000E+00        -0.12278E+08
 
   -0.14084E+08         0.49863E+06         0.00000E+00
    0.49863E+06        -0.48557E+08         0.00000E+00
    0.00000E+00         0.00000E+00        -0.12563E+08
 
   -0.13920E+08         0.68350E+06         0.00000E+00
    0.68350E+06        -0.48714E+08         0.00000E+00
    0.00000E+00         0.00000E+00        -0.12867E+08
 
   -0.13786E+08         0.90853E+06         0.00000E+00
    0.90853E+06        -0.48896E+08         0.00000E+00
    0.00000E+00         0.00000E+00        -0.13180E+08
 
   -0.13683E+08         0.11708E+07         0.00000E+00
    0.11708E+07        -0.49089E+08         0.00000E+00
    0.00000E+00         0.00000E+00        -0.13488E+08
 
   -0.17754E+08        -0.84271E+05         0.00000E+00
   -0.84271E+05        -0.48745E+08         0.00000E+00
    0.00000E+00         0.00000E+00        -0.98727E+07
 
   -0.17275E+08        -0.17426E+06         0.00000E+00
   -0.17426E+06        -0.48746E+08         0.00000E+00
    0.00000E+00         0.00000E+00        -0.10190E+08
 
   -0.16844E+08        -0.19145E+06         0.00000E+00
   -0.19145E+06        -0.48726E+08         0.00000E+00
    0.00000E+00         0.00000E+00        -0.10472E+08
 
   -0.16469E+08        -0.17030E+06         0.00000E+00
   -0.17030E+06        -0.48690E+08         0.00000E+00
    0.00000E+00         0.00000E+00        -0.10711E+08
 
   -0.16142E+08        -0.13271E+06         0.00000E+00
   -0.13271E+06        -0.48652E+08         0.00000E+00
    0.00000E+00         0.00000E+00        -0.10922E+08
 
   -0.15851E+08        -0.86814E+05         0.00000E+00
   -0.86814E+05        -0.48623E+08         0.00000E+00
    0.00000E+00         0.00000E+00        -0.11119E+08
 
   -0.15586E+08        -0.35343E+05         0.00000E+00
   -0.35343E+05        -0.48608E+08         0.00000E+00
    0.00000E+00         0.00000E+00        -0.11313E+08
 
   -0.15339E+08         0.21558E+05         0.00000E+00
    0.21558E+05        -0.48612E+08         0.00000E+00
    0.00000E+00         0.00000E+00        -0.11514E+08
 
   -0.15105E+08         0.85117E+05         0.00000E+00
    0.85117E+05        -0.48638E+08         0.00000E+00
    0.00000E+00         0.00000E+00        -0.11729E+08
 
   -0.14878E+08         0.15795E+06         0.00000E+00
    0.15795E+06        -0.48691E+08         0.00000E+00
    0.00000E+00         0.00000E+00        -0.11965E+08
 
   -0.14657E+08         0.24487E+06         0.00000E+00
    0.24487E+06        -0.48775E+08         0.00000E+00
    0.00000E+00         0.00000E+00        -0.12231E+08
 
   -0.14440E+08         0.35408E+06         0.00000E+00
    0.35408E+06        -0.48898E+08         0.00000E+00
    0.00000E+00         0.00000E+00        -0.12534E+08
 
   -0.14234E+08         0.49893E+06         0.00000E+00
    0.49893E+06        -0.49066E+08         0.00000E+00
    0.00000E+00         0.00000E+00        -0.12880E+08
 
   -0.14053E+08         0.69654E+06         0.00000E+00
    0.69654E+06        -0.49284E+08         0.00000E+00
    0.00000E+00         0.00000E+00        -0.13260E+08
 
   -0.13907E+08         0.94997E+06         0.00000E+00
    0.94997E+06        -0.49532E+08         0.00000E+00
    0.00000E+00         0.00000E+00        -0.13651E+08
 
   -0.18395E+08        -0.88887E+05         0.00000E+00
   -0.88887E+05        -0.49247E+08         0.00000E+00
    0.00000E+00         0.00000E+00        -0.98427E+07
 
   -0.17815E+08        -0.14984E+06         0.00000E+00
   -0.14984E+06        -0.49220E+08         0.00000E+00
    0.00000E+00         0.00000E+00        -0.10194E+08
 
   -0.17335E+08        -0.14120E+06         0.00000E+00
   -0.14120E+06        -0.49154E+08         0.00000E+00
    0.00000E+00         0.00000E+00        -0.10464E+08
 
   -0.16943E+08        -0.11682E+06         0.00000E+00
   -0.11682E+06        -0.49085E+08         0.00000E+00
    0.00000E+00         0.00000E+00        -0.10683E+08
 
   -0.16609E+08        -0.88032E+05         0.00000E+00
   -0.88032E+05        -0.49025E+08         0.00000E+00
    0.00000E+00         0.00000E+00        -0.10875E+08
 
   -0.16314E+08        -0.57039E+05         0.00000E+00
   -0.57039E+05        -0.48982E+08         0.00000E+00
    0.00000E+00         0.00000E+00        -0.11058E+08
 
   -0.16045E+08        -0.24194E+05         0.00000E+00
   -0.24194E+05        -0.48957E+08         0.00000E+00
    0.00000E+00         0.00000E+00        -0.11242E+08
 
   -0.15794E+08         0.11124E+05         0.00000E+00
    0.11124E+05        -0.48954E+08         0.00000E+00
    0.00000E+00         0.00000E+00        -0.11434E+08
 
   -0.15554E+08         0.49889E+05         0.00000E+00
    0.49889E+05        -0.48974E+08         0.00000E+00
    0.00000E+00         0.00000E+00        -0.11643E+08
 
   -0.15319E+08         0.93640E+05         0.00000E+00
    0.93640E+05        -0.49022E+08         0.00000E+00
    0.00000E+00         0.00000E+00        -0.11876E+08
 
   -0.15084E+08         0.14523E+06         0.00000E+00
    0.14523E+06        -0.49101E+08         0.00000E+00
    0.00000E+00         0.00000E+00        -0.12142E+08
 
   -0.14843E+08         0.21005E+06         0.00000E+00
    0.21005E+06        -0.49219E+08         0.00000E+00
    0.00000E+00         0.00000E+00        -0.12454E+08
 
   -0.14596E+08         0.29850E+06         0.00000E+00
    0.29850E+06        -0.49388E+08         0.00000E+00
    0.00000E+00         0.00000E+00        -0.12826E+08
 
   -0.14348E+08         0.43339E+06         0.00000E+00
    0.43339E+06        -0.49625E+08         0.00000E+00
    0.00000E+00         0.00000E+00        -0.13272E+08
 
   -0.14138E+08         0.65514E+06         0.00000E+00
    0.65514E+06        -0.49950E+08         0.00000E+00
    0.00000E+00         0.00000E+00        -0.13784E+08
 
   -0.19007E+08        -0.65670E+05         0.00000E+00
   -0.65670E+05        -0.49715E+08         0.00000E+00
    0.00000E+00         0.00000E+00        -0.98133E+07
 
   -0.18317E+08        -0.64180E+05         0.00000E+00
   -0.64180E+05        -0.49608E+08         0.00000E+00
    0.00000E+00         0.00000E+00        -0.10161E+08
 
   -0.17823E+08        -0.52367E+05         0.00000E+00
   -0.52367E+05        -0.49502E+08         0.00000E+00
    0.00000E+00         0.00000E+00        -0.10402E+08
 
   -0.17428E+08        -0.41388E+05         0.00000E+00
   -0.41388E+05        -0.49414E+08         0.00000E+00
    0.00000E+00         0.00000E+00        -0.10601E+08
 
   -0.17092E+08        -0.30489E+05         0.00000E+00
   -0.30489E+05        -0.49345E+08         0.00000E+00
    0.00000E+00         0.00000E+00        -0.10781E+08
 
   -0.16796E+08        -0.19514E+05         0.00000E+00
   -0.19514E+05        -0.49297E+08         0.00000E+00
    0.00000E+00         0.00000E+00        -0.10955E+08
 
   -0.16527E+08        -0.82129E+04         0.00000E+00
   -0.82129E+04        -0.49270E+08         0.00000E+00
    0.00000E+00         0.00000E+00        -0.11132E+08
 
   -0.16274E+08         0.37865E+04         0.00000E+00
    0.37865E+04        -0.49267E+08         0.00000E+00
    0.00000E+00         0.00000E+00        -0.11320E+08
 
   -0.16031E+08         0.16850E+05         0.00000E+00
    0.16850E+05        -0.49289E+08         0.00000E+00
    0.00000E+00         0.00000E+00        -0.11525E+08
 
   -0.15792E+08         0.31447E+05         0.00000E+00
    0.31447E+05        -0.49338E+08         0.00000E+00
    0.00000E+00         0.00000E+00        -0.11756E+08
 
   -0.15550E+08         0.48481E+05         0.00000E+00
    0.48481E+05        -0.49419E+08         0.00000E+00
    0.00000E+00         0.00000E+00        -0.12021E+08
 
   -0.15297E+08         0.69640E+05         0.00000E+00
    0.69640E+05        -0.49538E+08         0.00000E+00
    0.00000E+00         0.00000E+00        -0.12335E+08
 
   -0.15027E+08         0.98410E+05         0.00000E+00
    0.98410E+05        -0.49707E+08         0.00000E+00
    0.00000E+00         0.00000E+00        -0.12716E+08
 
   -0.14727E+08         0.14410E+06         0.00000E+00
    0.14410E+06        -0.49947E+08         0.00000E+00
    0.00000E+00         0.00000E+00        -0.13200E+08
 
   -0.14389E+08         0.24298E+06         0.00000E+00
    0.24298E+06        -0.50305E+08         0.00000E+00
    0.00000E+00         0.00000E+00        -0.13846E+08
 
TENSORS stresstot double 
   -0.29347E+08         0.41907E+05         0.00000E+00
    0.41907E+05        -0.59819E+08         0.00000E+00
    0.00000E+00         0.00000E+00        -0.34869E+08
 
   -0.29149E+08         0.58111E+05         0.00000E+00
    0.58111E+05        -0.59722E+08         0.00000E+00
    0.00000E+00         0.00000E+00        -0.35054E+08
 
   -0.29052E+08         0.56888E+05         0.00000E+00
    0.56888E+05        -0.59630E+08         0.00000E+00
    0.00000E+00         0.00000E+00        -0.35096E+08
 
   -0.29054E+08         0.34472E+05         0.00000E+00
    0.34472E+05        -0.59552E+08         0.00000E+00
    0.00000E+00         0.00000E+00        -0.35002E+08
 
   -0.29135E+08         0.90344E+04         0.00000E+00
    0.90344E+04        -0.59529E+08         0.00000E+00
    0.00000E+00         0.00000E+00        -0.34853E+08
 
   -0.29251E+08        -0.14782E+04         0.00000E+00
   -0.14782E+04        -0.59529E+08         0.00000E+00
    0.00000E+00         0.00000E+00        -0.34681E+08
 
   -0.29386E+08        -0.29587E+04         0.00000E+00
   -0.29587E+04        -0.59534E+08         0.00000E+00
    0.00000E+00         0.00000E+00        -0.34491E+08
 
   -0.29540E+08         0.21393E+03         0.00000E+00
    0.21393E+03        -0.59536E+08         0.00000E+00
    0.00000E+00         0.00000E+00        -0.34277E+08
 
   -0.29712E+08         0.81667E+04         0.00000E+00
    0.81667E+04        -0.59527E+08         0.00000E+00
    0.00000E+00         0.00000E+00        -0.34031E+08
 
   -0.29896E+08         0.18979E+05         0.00000E+00
    0.18979E+05        -0.59500E+08         0.00000E+00
    0.00000E+00         0.00000E+00        -0.33757E+08
 
   -0.30096E+08         0.33224E+05         0.00000E+00
    0.33224E+05        -0.59448E+08         0.00000E+00
    0.00000E+00         0.00000E+00        -0.33444E+08
 
   -0.30310E+08         0.52449E+05         0.00000E+00
    0.52449E+05        -0.59362E+08         0.00000E+00
    0.00000E+00         0.00000E+00        -0.33090E+08
 
   -0.30544E+08         0.78887E+05         0.00000E+00
    0.78887E+05        -0.59232E+08         0.00000E+00
    0.00000E+00         0.00000E+00        -0.32681E+08
 
   -0.30802E+08         0.12058E+06         0.00000E+00
    0.12058E+06        -0.59037E+08         0.00000E+00
    0.00000E+00         0.00000E+00        -0.32197E+08
 
   -0.31094E+08         0.21021E+06         0.00000E+00
    0.21021E+06        -0.58735E+08         0.00000E+00
    0.00000E+00         0.00000E+00        -0.31598E+08
 
   -0.29240E+08         0.10404E+06         0.00000E+00
    0.10404E+06        -0.60035E+08         0.00000E+00
    0.00000E+00         0.00000E+00        -0.34601E+08
 
   -0.29140E+08         0.16518E+06         0.00000E+00
    0.16518E+06        -0.59990E+08         0.00000E+00
    0.00000E+00         0.00000E+00        -0.34698E+08
 
   -0.29064E+08         0.15171E+06         0.00000E+00
    0.15171E+06        -0.59899E+08         0.00000E+00
    0.00000E+00         0.00000E+00        -0.34706E+08
 
   -0.29105E+08         0.96791E+05         0.00000E+00
    0.96791E+05        -0.59849E+08         0.00000E+00
    0.00000E+00         0.00000E+00        -0.34588E+08
 
   -0.29168E+08         0.50237E+05         0.00000E+00
    0.50237E+05        -0.59778E+08         0.00000E+00
    0.00000E+00         0.00000E+00        -0.34416E+08
 
   -0.29264E+08         0.24446E+05         0.00000E+00
    0.24446E+05        -0.59720E+08         0.00000E+00
    0.00000E+00         0.00000E+00        -0.34214E+08
 
   -0.29386E+08         0.17887E+05         0.00000E+00
    0.17887E+05        -0.59674E+08         0.00000E+00
    0.00000E+00         0.00000E+00        -0.33993E+08
 
   -0.29531E+08         0.24358E+05         0.00000E+00
    0.24358E+05        -0.59629E+08         0.00000E+00
    0.00000E+00         0.00000E+00        -0.33748E+08
 
   -0.29694E+08         0.43944E+05         0.00000E+00
    0.43944E+05        -0.59580E+08         0.00000E+00
    0.00000E+00         0.00000E+00        -0.33481E+08
 
   -0.29871E+08         0.75011E+05         0.00000E+00
    0.75011E+05        -0.59516E+08         0.00000E+00
    0.00000E+00         0.00000E+00        -0.33187E+08
 
   -0.30062E+08         0.11713E+06         0.00000E+00
    0.11713E+06        -0.59429E+08         0.00000E+00
    0.00000E+00         0.00000E+00        -0.32862E+08
 
   -0.30265E+08         0.17479E+06         0.00000E+00
    0.17479E+06        -0.59311E+08         0.00000E+00
    0.00000E+00         0.00000E+00        -0.32503E+08
 
   -0.30477E+08         0.25481E+06         0.00000E+00
    0.25481E+06        -0.59149E+08         0.00000E+00
    0.00000E+00         0.00000E+00        -0.32101E+08
 
   -0.30690E+08         0.37506E+06         0.00000E+00
    0.37506E+06        -0.58927E+08         0.00000E+00
    0.00000E+00         0.00000E+00        -0.31658E+08
 
   -0.30879E+08         0.56624E+06         0.00000E+00
    0.56624E+06        -0.58635E+08         0.00000E+00
    0.00000E+00         0.00000E+00        -0.31195E+08
 
   -0.29083E+08         0.85649E+05         0.00000E+00
    0.85649E+05        -0.60058E+08         0.00000E+00
    0.00000E+00         0.00000E+00        -0.34190E+08
 
   -0.29090E+08         0.18432E+06         0.00000E+00
    0.18432E+06        -0.60075E+08         0.00000E+00
    0.00000E+00         0.00000E+00        -0.34201E+08
 
   -0.29116E+08         0.18635E+06         0.00000E+00
    0.18635E+06        -0.60077E+08         0.00000E+00
    0.00000E+00         0.00000E+00        -0.34167E+08
 
   -0.29147E+08         0.15314E+06         0.00000E+00
    0.15314E+06        -0.60022E+08         0.00000E+00
    0.00000E+00         0.00000E+00        -0.34060E+08
 
   -0.29204E+08         0.12053E+06         0.00000E+00
    0.12053E+06        -0.59956E+08         0.00000E+00
    0.00000E+00         0.00000E+00        -0.33909E+08
 
   -0.29284E+08         0.94142E+05         0.00000E+00
    0.94142E+05        -0.59879E+08         0.00000E+00
    0.00000E+00         0.00000E+00        -0.33715E+08
 
   -0.29388E+08         0.82886E+05         0.00000E+00
    0.82886E+05        -0.59799E+08         0.00000E+00
    0.00000E+00         0.00000E+00        -0.33490E+08
 
   -0.29516E+08         0.90568E+05         0.00000E+00
    0.90568E+05        -0.59719E+08         0.00000E+00
    0.00000E+00         0.00000E+00        -0.33237E+08
 
   -0.29662E+08         0.11836E+06         0.00000E+00
    0.11836E+06        -0.59633E+08         0.00000E+00
    0.00000E+00         0.00000E+00        -0.32962E+08
 
   -0.29824E+08         0.16580E+06         0.00000E+00
    0.16580E+06        -0.59535E+08         0.00000E+00
    0.00000E+00         0.00000E+00        -0.32662E+08
 
   -0.29997E+08         0.23403E+06         0.00000E+00
    0.23403E+06        -0.59417E+08         0.00000E+00
    0.00000E+00         0.00000E+00        -0.32338E+08
 
   -0.30175E+08         0.32731E+06         0.00000E+00
    0.32731E+06        -0.59272E+08         0.00000E+00
    0.00000E+00         0.00000E+00        -0.31991E+08
 
   -0.30352E+08         0.45341E+06         0.00000E+00
    0.45341E+06        -0.59091E+08         0.00000E+00
    0.00000E+00         0.00000E+00        -0.31624E+08
 
   -0.30515E+08         0.62079E+06         0.00000E+00
    0.62079E+06        -0.58874E+08         0.00000E+00
    0.00000E+00         0.00000E+00        -0.31254E+08
 
   -0.30663E+08         0.82334E+06         0.00000E+00
    0.82334E+06        -0.58644E+08         0.00000E+00
    0.00000E+00         0.00000E+00        -0.30904E+08
 
   -0.28961E+08         0.59266E+05         0.00000E+00
    0.59266E+05        -0.60022E+08         0.00000E+00
    0.00000E+00         0.00000E+00        -0.33668E+08
 
   -0.29036E+08         0.13856E+06         0.00000E+00
    0.13856E+06        -0.60059E+08         0.00000E+00
    0.00000E+00         0.00000E+00        -0.33608E+08
 
   -0.29104E+08         0.18273E+06         0.00000E+00
    0.18273E+06        -0.60091E+08         0.00000E+00
    0.00000E+00         0.00000E+00        -0.33552E+08
 
   -0.29165E+08         0.19411E+06         0.00000E+00
    0.19411E+06        -0.60087E+08         0.00000E+00
    0.00000E+00         0.00000E+00        -0.33467E+08
 
   -0.29225E+08         0.18488E+06         0.00000E+00
    0.18488E+06        -0.60045E+08         0.00000E+00
    0.00000E+00         0.00000E+00        -0.33340E+08
 
   -0.29298E+08         0.17371E+06         0.00000E+00
    0.17371E+06        -0.59977E+08         0.00000E+00
    0.00000E+00         0.00000E+00        -0.33172E+08
 
   -0.29388E+08         0.17143E+06         0.00000E+00
    0.17143E+06        -0.59891E+08         0.00000E+00
    0.00000E+00         0.00000E+00        -0.32965E+08
 
   -0.29495E+08         0.18650E+06         0.00000E+00
    0.18650E+06        -0.59792E+08         0.00000E+00
    0.00000E+00         0.00000E+00        -0.32728E+08
 
   -0.29619E+08         0.22388E+06         0.00000E+00
    0.22388E+06        -0.59682E+08         0.00000E+00
    0.00000E+00         0.00000E+00        -0.32465E+08
 
   -0.29757E+08         0.28609E+06         0.00000E+00
    0.28609E+06        -0.59560E+08         0.00000E+00
    0.00000E+00         0.00000E+00        -0.32177E+08
 
   -0.29904E+08         0.37586E+06         0.00000E+00
    0.37586E+06        -0.59421E+08         0.00000E+00
    0.00000E+00         0.00000E+00        -0.31872E+08
 
   -0.30051E+08         0.49582E+06         0.00000E+00
    0.49582E+06        -0.59261E+08         0.00000E+00
    0.00000E+00         0.00000E+00        -0.31557E+08
 
   -0.30194E+08         0.64762E+06         0.00000E+00
    0.64762E+06        -0.59082E+08         0.00000E+00
    0.00000E+00         0.00000E+00        -0.31239E+08
 
   -0.30327E+08         0.82727E+06         0.00000E+00
    0.82727E+06        -0.58892E+08         0.00000E+00
    0.00000E+00         0.00000E+00        -0.30936E+08
 
   -0.30453E+08         0.10266E+07         0.00000E+00
    0.10266E+07        -0.58703E+08         0.00000E+00
    0.00000E+00         0.00000E+00        -0.30653E+08
 
   -0.28877E+08         0.36578E+05         0.00000E+00
    0.36578E+05        -0.60009E+08         0.00000E+00
    0.00000E+00         0.00000E+00        -0.33130E+08
 
   -0.28972E+08         0.10580E+06         0.00000E+00
    0.10580E+06        -0.60037E+08         0.00000E+00
    0.00000E+00         0.00000E+00        -0.33036E+08
 
   -0.29063E+08         0.16177E+06         0.00000E+00
    0.16177E+06        -0.60065E+08         0.00000E+00
    0.00000E+00         0.00000E+00        -0.32948E+08
 
   -0.29146E+08         0.20163E+06         0.00000E+00
    0.20163E+06        -0.60077E+08         0.00000E+00
    0.00000E+00         0.00000E+00        -0.32855E+08
 
   -0.29220E+08         0.22601E+06         0.00000E+00
    0.22601E+06        -0.60060E+08         0.00000E+00
    0.00000E+00         0.00000E+00        -0.32744E+08
 
   -0.29294E+08         0.24251E+06         0.00000E+00
    0.24251E+06        -0.60012E+08         0.00000E+00
    0.00000E+00         0.00000E+00        -0.32602E+08
 
   -0.29374E+08         0.26206E+06         0.00000E+00
    0.26206E+06        -0.59937E+08         0.00000E+00
    0.00000E+00         0.00000E+00        -0.32426E+08
 
   -0.29462E+08         0.29412E+06         0.00000E+00
    0.29412E+06        -0.59839E+08         0.00000E+00
    0.00000E+00         0.00000E+00        -0.32219E+08
 
   -0.29563E+08         0.34601E+06         0.00000E+00
    0.34601E+06        -0.59723E+08         0.00000E+00
    0.00000E+00         0.00000E+00        -0.31985E+08
 
   -0.29674E+08         0.42313E+06         0.00000E+00
    0.42313E+06        -0.59591E+08         0.00000E+00
    0.00000E+00         0.00000E+00        -0.31728E+08
 
   -0.29791E+08         0.52869E+06         0.00000E+00
    0.52869E+06        -0.59445E+08         0.00000E+00
    0.00000E+00         0.00000E+00        -0.31458E+08
 
   -0.29909E+08         0.66299E+06         0.00000E+00
    0.66299E+06        -0.59287E+08         0.00000E+00
    0.00000E+00         0.00000E+00        -0.31185E+08
 
   -0.30025E+08         0.82305E+06         0.00000E+00
    0.82305E+06        -0.59122E+08         0.00000E+00
    0.00000E+00         0.00000E+00        -0.30917E+08
 
   -0.30139E+08         0.10026E+07         0.00000E+00
    0.10026E+07        -0.58956E+08         0.00000E+00
    0.00000E+00         0.00000E+00        -0.30663E+08
 
   -0.30252E+08         0.11954E+07         0.00000E+00
    0.11954E+07        -0.58796E+08         0.00000E+00
    0.00000E+00         0.00000E+00        -0.30426E+08
 
   -0.28813E+08         0.26704E+05         0.00000E+00
    0.26704E+05        -0.60008E+08         0.00000E+00
    0.00000E+00         0.00000E+00        -0.32588E+08
 
   -0.28912E+08         0.84854E+05         0.00000E+00
    0.84854E+05        -0.60020E+08         0.00000E+00
    0.00000E+00         0.00000E+00        -0.32475E+08
 
   -0.29010E+08         0.14270E+06         0.00000E+00
    0.14270E+06        -0.60036E+08         0.00000E+00
    0.00000E+00         0.00000E+00        -0.32369E+08
 
   -0.29102E+08         0.19802E+06         0.00000E+00
    0.19802E+06        -0.60046E+08         0.00000E+00
    0.00000E+00         0.00000E+00        -0.32268E+08
 
   -0.29185E+08         0.24843E+06         0.00000E+00
    0.24843E+06        -0.60040E+08         0.00000E+00
    0.00000E+00         0.00000E+00        -0.32161E+08
 
   -0.29262E+08         0.29466E+06         0.00000E+00
    0.29466E+06        -0.60008E+08         0.00000E+00
    0.00000E+00         0.00000E+00        -0.32037E+08
 
   -0.29335E+08         0.34176E+06         0.00000E+00
    0.34176E+06        -0.59948E+08         0.00000E+00
    0.00000E+00         0.00000E+00        -0.31891E+08
 
   -0.29411E+08         0.39727E+06         0.00000E+00
    0.39727E+06        -0.59861E+08         0.00000E+00
    0.00000E+00         0.00000E+00        -0.31718E+08
 
   -0.29490E+08         0.46840E+06         0.00000E+00
    0.46840E+06        -0.59753E+08         0.00000E+00
    0.00000E+00         0.00000E+00        -0.31522E+08
 
   -0.29576E+08         0.56087E+06         0.00000E+00
    0.56087E+06        -0.59627E+08         0.00000E+00
    0.00000E+00         0.00000E+00        -0.31307E+08
 
   -0.29667E+08         0.67745E+06         0.00000E+00
    0.67745E+06        -0.59489E+08         0.00000E+00
    0.00000E+00         0.00000E+00        -0.31082E+08
 
   -0.29760E+08         0.81767E+06         0.00000E+00
    0.81767E+06        -0.59343E+08         0.00000E+00
    0.00000E+00         0.00000E+00        -0.30855E+08
 
   -0.29856E+08         0.97832E+06         0.00000E+00
    0.97832E+06        -0.59197E+08         0.00000E+00
    0.00000E+00         0.00000E+00        -0.30632E+08
 
   -0.29955E+08         0.11545E+07         0.00000E+00
    0.11545E+07        -0.59053E+08         0.00000E+00
    0.00000E+00         0.00000E+00        -0.30417E+08
 
   -0.30058E+08         0.13414E+07         0.00000E+00
    0.13414E+07        -0.58913E+08         0.00000E+00
    0.00000E+00         0.00000E+00        -0.30212E+08
 
   -0.28759E+08         0.21945E+05         0.00000E+00
    0.21945E+05        -0.60006E+08         0.00000E+00
    0.00000E+00         0.00000E+00        -0.32042E+08
 
   -0.28856E+08         0.74551E+05         0.00000E+00
    0.74551E+05        -0.60011E+08         0.00000E+00
    0.00000E+00         0.00000E+00        -0.31928E+08
 
   -0.28951E+08         0.13301E+06         0.00000E+00
    0.13301E+06        -0.60017E+08         0.00000E+00
    0.00000E+00         0.00000E+00        -0.31820E+08
 
   -0.29042E+08         0.19680E+06         0.00000E+00
    0.19680E+06        -0.60020E+08         0.00000E+00
    0.00000E+00         0.00000E+00        -0.31716E+08
 
   -0.29126E+08         0.26415E+06         0.00000E+00
    0.26415E+06        -0.60012E+08         0.00000E+00
    0.00000E+00         0.00000E+00        -0.31611E+08
 
   -0.29202E+08         0.33382E+06         0.00000E+00
    0.33382E+06        -0.59987E+08         0.00000E+00
    0.00000E+00         0.00000E+00        -0.31500E+08
 
   -0.29271E+08         0.40687E+06         0.00000E+00
    0.40687E+06        -0.59940E+08         0.00000E+00
    0.00000E+00         0.00000E+00        -0.31376E+08
 
   -0.29336E+08         0.48678E+06         0.00000E+00
    0.48678E+06        -0.59869E+08         0.00000E+00
    0.00000E+00         0.00000E+00        -0.31237E+08
 
   -0.29400E+08         0.57839E+06         0.00000E+00
    0.57839E+06        -0.59777E+08         0.00000E+00
    0.00000E+00         0.00000E+00        -0.31081E+08
 
   -0.29466E+08         0.68583E+06         0.00000E+00
    0.68583E+06        -0.59667E+08         0.00000E+00
    0.00000E+00         0.00000E+00        -0.30910E+08
 
   -0.29535E+08         0.81127E+06         0.00000E+00
    0.81127E+06        -0.59547E+08         0.00000E+00
    0.00000E+00         0.00000E+00        -0.30730E+08
 
   -0.29609E+08         0.95455E+06         0.00000E+00
    0.95455E+06        -0.59420E+08         0.00000E+00
    0.00000E+00         0.00000E+00        -0.30547E+08
 
   -0.29689E+08         0.11139E+07         0.00000E+00
    0.11139E+07        -0.59293E+08         0.00000E+00
    0.00000E+00         0.00000E+00        -0.30364E+08
 
   -0.29776E+08         0.12870E+07         0.00000E+00
    0.12870E+07        -0.59169E+08         0.00000E+00
    0.00000E+00         0.00000E+00        -0.30184E+08
 
   -0.29870E+08         0.14702E+07         0.00000E+00
    0.14702E+07        -0.59046E+08         0.00000E+00
    0.00000E+00         0.00000E+00        -0.30007E+08
 
   -0.28711E+08         0.19633E+05         0.00000E+00
    0.19633E+05        -0.60004E+08         0.00000E+00
    0.00000E+00         0.00000E+00        -0.31499E+08
 
   -0.28801E+08         0.70996E+05         0.00000E+00
    0.70996E+05        -0.60006E+08         0.00000E+00
    0.00000E+00         0.00000E+00        -0.31394E+08
 
   -0.28888E+08         0.13146E+06         0.00000E+00
    0.13146E+06        -0.60006E+08         0.00000E+00
    0.00000E+00         0.00000E+00        -0.31292E+08
 
   -0.28972E+08         0.20123E+06         0.00000E+00
    0.20123E+06        -0.60002E+08         0.00000E+00
    0.00000E+00         0.00000E+00        -0.31193E+08
 
   -0.29050E+08         0.27971E+06         0.00000E+00
    0.27971E+06        -0.59991E+08         0.00000E+00
    0.00000E+00         0.00000E+00        -0.31095E+08
 
   -0.29121E+08         0.36581E+06         0.00000E+00
    0.36581E+06        -0.59969E+08         0.00000E+00
    0.00000E+00         0.00000E+00        -0.30996E+08
 
   -0.29184E+08         0.45892E+06         0.00000E+00
    0.45892E+06        -0.59931E+08         0.00000E+00
    0.00000E+00         0.00000E+00        -0.30893E+08
 
   -0.29241E+08         0.55959E+06         0.00000E+00
    0.55959E+06        -0.59874E+08         0.00000E+00
    0.00000E+00         0.00000E+00        -0.30782E+08
 
   -0.29293E+08         0.66945E+06         0.00000E+00
    0.66945E+06        -0.59801E+08         0.00000E+00
    0.00000E+00         0.00000E+00        -0.30662E+08
 
   -0.29344E+08         0.79059E+06         0.00000E+00
    0.79059E+06        -0.59712E+08         0.00000E+00
    0.00000E+00         0.00000E+00        -0.30533E+08
 
   -0.29398E+08         0.92445E+06         0.00000E+00
    0.92445E+06        -0.59613E+08         0.00000E+00
    0.00000E+00         0.00000E+00        -0.30395E+08
 
   -0.29457E+08         0.10712E+07         0.00000E+00
    0.10712E+07        -0.59509E+08         0.00000E+00
    0.00000E+00         0.00000E+00        -0.30252E+08
 
   -0.29523E+08         0.12305E+07         0.00000E+00
    0.12305E+07        -0.59401E+08         0.00000E+00
    0.00000E+00         0.00000E+00        -0.30106E+08
 
   -0.29599E+08         0.14014E+07         0.00000E+00
    0.14014E+07        -0.59295E+08         0.00000E+00
    0.00000E+00         0.00000E+00        -0.29957E+08
 
   -0.29685E+08         0.15822E+07         0.00000E+00
    0.15822E+07        -0.59190E+08         0.00000E+00
    0.00000E+00         0.00000E+00        -0.29807E+08
 
   -0.28665E+08         0.19173E+05         0.00000E+00
    0.19173E+05        -0.60003E+08         0.00000E+00
    0.00000E+00         0.00000E+00        -0.30964E+08
 
   -0.28745E+08         0.71188E+05         0.00000E+00
    0.71188E+05        -0.60003E+08         0.00000E+00
    0.00000E+00         0.00000E+00        -0.30872E+08
 
   -0.28821E+08         0.13458E+06         0.00000E+00
    0.13458E+06        -0.60000E+08         0.00000E+00
    0.00000E+00         0.00000E+00        -0.30782E+08
 
   -0.28894E+08         0.20963E+06         0.00000E+00
    0.20963E+06        -0.59993E+08         0.00000E+00
    0.00000E+00         0.00000E+00        -0.30695E+08
 
   -0.28962E+08         0.29608E+06         0.00000E+00
    0.29608E+06        -0.59980E+08         0.00000E+00
    0.00000E+00         0.00000E+00        -0.30609E+08
 
   -0.29024E+08         0.39332E+06         0.00000E+00
    0.39332E+06        -0.59960E+08         0.00000E+00
    0.00000E+00         0.00000E+00        -0.30525E+08
 
   -0.29079E+08         0.50033E+06         0.00000E+00
    0.50033E+06        -0.59929E+08         0.00000E+00
    0.00000E+00         0.00000E+00        -0.30441E+08
 
   -0.29127E+08         0.61617E+06         0.00000E+00
    0.61617E+06        -0.59885E+08         0.00000E+00
    0.00000E+00         0.00000E+00        -0.30356E+08
 
   -0.29170E+08         0.74031E+06         0.00000E+00
    0.74031E+06        -0.59830E+08         0.00000E+00
    0.00000E+00         0.00000E+00        -0.30267E+08
 
   -0.29212E+08         0.87306E+06         0.00000E+00
    0.87306E+06        -0.59762E+08         0.00000E+00
    0.00000E+00         0.00000E+00        -0.30172E+08
 
   -0.29255E+08         0.10151E+07         0.00000E+00
    0.10151E+07        -0.59686E+08         0.00000E+00
    0.00000E+00         0.00000E+00        -0.30071E+08
 
   -0.29303E+08         0.11667E+07         0.00000E+00
    0.11667E+07        -0.59603E+08         0.00000E+00
    0.00000E+00         0.00000E+00        -0.29964E+08
 
   -0.29358E+08         0.13279E+07         0.00000E+00
    0.13279E+07        -0.59516E+08         0.00000E+00
    0.00000E+00         0.00000E+00        -0.29851E+08
 
   -0.29424E+08         0.14984E+07         0.00000E+00
    0.14984E+07        -0.59428E+08         0.00000E+00
    0.00000E+00         0.00000E+00        -0.29732E+08
 
   -0.29501E+08         0.16778E+07         0.00000E+00
    0.16778E+07        -0.59339E+08         0.00000E+00
    0.00000E+00         0.00000E+00        -0.29608E+08
 
   -0.28618E+08         0.19581E+05         0.00000E+00
    0.19581E+05        -0.60003E+08         0.00000E+00
    0.00000E+00         0.00000E+00        -0.30439E+08
 
   -0.28686E+08         0.73183E+05         0.00000E+00
    0.73183E+05        -0.60001E+08         0.00000E+00
    0.00000E+00         0.00000E+00        -0.30362E+08
 
   -0.28750E+08         0.13964E+06         0.00000E+00
    0.13964E+06        -0.59997E+08         0.00000E+00
    0.00000E+00         0.00000E+00        -0.30287E+08
 
   -0.28811E+08         0.21912E+06         0.00000E+00
    0.21912E+06        -0.59990E+08         0.00000E+00
    0.00000E+00         0.00000E+00        -0.30216E+08
 
   -0.28867E+08         0.31151E+06         0.00000E+00
    0.31151E+06        -0.59978E+08         0.00000E+00
    0.00000E+00         0.00000E+00        -0.30147E+08
 
   -0.28918E+08         0.41623E+06         0.00000E+00
    0.41623E+06        -0.59961E+08         0.00000E+00
    0.00000E+00         0.00000E+00        -0.30080E+08
 
   -0.28963E+08         0.53224E+06         0.00000E+00
    0.53224E+06        -0.59938E+08         0.00000E+00
    0.00000E+00         0.00000E+00        -0.30017E+08
 
   -0.29002E+08         0.65811E+06         0.00000E+00
    0.65811E+06        -0.59906E+08         0.00000E+00
    0.00000E+00         0.00000E+00        -0.29955E+08
 
   -0.29037E+08         0.79248E+06         0.00000E+00
    0.79248E+06        -0.59866E+08         0.00000E+00
    0.00000E+00         0.00000E+00        -0.29892E+08
 
   -0.29070E+08         0.93439E+06         0.00000E+00
    0.93439E+06        -0.59818E+08         0.00000E+00
    0.00000E+00         0.00000E+00        -0.29827E+08
 
   -0.29105E+08         0.10839E+07         0.00000E+00
    0.10839E+07        -0.59763E+08         0.00000E+00
    0.00000E+00         0.00000E+00        -0.29758E+08
 
   -0.29144E+08         0.12411E+07         0.00000E+00
    0.12411E+07        -0.59701E+08         0.00000E+00
    0.00000E+00         0.00000E+00        -0.29682E+08
 
   -0.29191E+08         0.14060E+07         0.00000E+00
    0.14060E+07        -0.59634E+08         0.00000E+00
    0.00000E+00         0.00000E+00        -0.29599E+08
 
   -0.29248E+08         0.15787E+07         0.00000E+00
    0.15787E+07        -0.59563E+08         0.00000E+00
    0.00000E+00         0.00000E+00        -0.29508E+08
 
   -0.29318E+08         0.17592E+07         0.00000E+00
    0.17592E+07        -0.59490E+08         0.00000E+00
    0.00000E+00         0.00000E+00        -0.29408E+08
 
   -0.28570E+08         0.20182E+05         0.00000E+00
    0.20182E+05        -0.60002E+08         0.00000E+00
    0.00000E+00         0.00000E+00        -0.29923E+08
 
   -0.28625E+08         0.75380E+05         0.00000E+00
    0.75380E+05        -0.60001E+08         0.00000E+00
    0.00000E+00         0.00000E+00        -0.29862E+08
 
   -0.28676E+08         0.14432E+06         0.00000E+00
    0.14432E+06        -0.59998E+08         0.00000E+00
    0.00000E+00         0.00000E+00        -0.29806E+08
 
   -0.28723E+08         0.22711E+06         0.00000E+00
    0.22711E+06        -0.59993E+08         0.00000E+00
    0.00000E+00         0.00000E+00        -0.29752E+08
 
   -0.28766E+08         0.32359E+06         0.00000E+00
    0.32359E+06        -0.59984E+08         0.00000E+00
    0.00000E+00         0.00000E+00        -0.29702E+08
 
   -0.28805E+08         0.43315E+06         0.00000E+00
    0.43315E+06        -0.59973E+08         0.00000E+00
    0.00000E+00         0.00000E+00        -0.29656E+08
 
   -0.28838E+08         0.55474E+06         0.00000E+00
    0.55474E+06        -0.59957E+08         0.00000E+00
    0.00000E+00         0.00000E+00        -0.29613E+08
 
   -0.28868E+08         0.68691E+06         0.00000E+00
    0.68691E+06        -0.59937E+08         0.00000E+00
    0.00000E+00         0.00000E+00        -0.29573E+08
 
   -0.28895E+08         0.82809E+06         0.00000E+00
    0.82809E+06        -0.59911E+08         0.00000E+00
    0.00000E+00         0.00000E+00        -0.29534E+08
 
   -0.28921E+08         0.97700E+06         0.00000E+00
    0.97700E+06        -0.59880E+08         0.00000E+00
    0.00000E+00         0.00000E+00        -0.29495E+08
 
   -0.28949E+08         0.11328E+07         0.00000E+00
    0.11328E+07        -0.59843E+08         0.00000E+00
    0.00000E+00         0.00000E+00        -0.29452E+08
 
   -0.28981E+08         0.12955E+07         0.00000E+00
    0.12955E+07        -0.59800E+08         0.00000E+00
    0.00000E+00         0.00000E+00        -0.29404E+08
 
   -0.29020E+08         0.14652E+07         0.00000E+00
    0.14652E+07        -0.59751E+08         0.00000E+00
    0.00000E+00         0.00000E+00        -0.29348E+08
 
   -0.29070E+08         0.16423E+07         0.00000E+00
    0.16423E+07        -0.59698E+08         0.00000E+00
    0.00000E+00         0.00000E+00        -0.29283E+08
 
   -0.29132E+08         0.18264E+07         0.00000E+00
    0.18264E+07        -0.59641E+08         0.00000E+00
    0.00000E+00         0.00000E+00        -0.29208E+08
 
   -0.28522E+08         0.20548E+05         0.00000E+00
    0.20548E+05        -0.60002E+08         0.00000E+00
    0.00000E+00         0.00000E+00        -0.29415E+08
 
   -0.28562E+08         0.76432E+05         0.00000E+00
    0.76432E+05        -0.60002E+08         0.00000E+00
    0.00000E+00         0.00000E+00        -0.29372E+08
 
   -0.28599E+08         0.14674E+06         0.00000E+00
    0.14674E+06        -0.60001E+08         0.00000E+00
    0.00000E+00         0.00000E+00        -0.29334E+08
 
   -0.28632E+08         0.23145E+06         0.00000E+00
    0.23145E+06        -0.60000E+08         0.00000E+00
    0.00000E+00         0.00000E+00        -0.29300E+08
 
   -0.28662E+08         0.33029E+06         0.00000E+00
    0.33029E+06        -0.59997E+08         0.00000E+00
    0.00000E+00         0.00000E+00        -0.29271E+08
 
   -0.28687E+08         0.44266E+06         0.00000E+00
    0.44266E+06        -0.59992E+08         0.00000E+00
    0.00000E+00         0.00000E+00        -0.29245E+08
 
   -0.28710E+08         0.56754E+06         0.00000E+00
    0.56754E+06        -0.59986E+08         0.00000E+00
    0.00000E+00         0.00000E+00        -0.29224E+08
 
   -0.28729E+08         0.70359E+06         0.00000E+00
    0.70359E+06        -0.59976E+08         0.00000E+00
    0.00000E+00         0.00000E+00        -0.29206E+08
 
   -0.28747E+08         0.84933E+06         0.00000E+00
    0.84933E+06        -0.59963E+08         0.00000E+00
    0.00000E+00         0.00000E+00        -0.29189E+08
 
   -0.28766E+08         0.10033E+07         0.00000E+00
    0.10033E+07        -0.59946E+08         0.00000E+00
    0.00000E+00         0.00000E+00        -0.29172E+08
 
   -0.28787E+08         0.11646E+07         0.00000E+00
    0.11646E+07        -0.59925E+08         0.00000E+00
    0.00000E+00         0.00000E+00        -0.29153E+08
 
   -0.28812E+08         0.13326E+07         0.00000E+00
    0.13326E+07        -0.59898E+08         0.00000E+00
    0.00000E+00         0.00000E+00        -0.29128E+08
 
   -0.28845E+08         0.15073E+07         0.00000E+00
    0.15073E+07        -0.59866E+08         0.00000E+00
    0.00000E+00         0.00000E+00        -0.29096E+08
 
   -0.28887E+08         0.16883E+07         0.00000E+00
    0.16883E+07        -0.59830E+08         0.00000E+00
    0.00000E+00         0.00000E+00        -0.29056E+08
 
   -0.28943E+08         0.18760E+07         0.00000E+00
    0.18760E+07        -0.59790E+08         0.00000E+00
    0.00000E+00         0.00000E+00        -0.29004E+08
 
   -0.28474E+08         0.20225E+05         0.00000E+00
    0.20225E+05        -0.60002E+08         0.00000E+00
    0.00000E+00         0.00000E+00        -0.28915E+08
 
   -0.28500E+08         0.75356E+05         0.00000E+00
    0.75356E+05        -0.60003E+08         0.00000E+00
    0.00000E+00         0.00000E+00        -0.28890E+08
 
   -0.28522E+08         0.14545E+06         0.00000E+00
    0.14545E+06        -0.60006E+08         0.00000E+00
    0.00000E+00         0.00000E+00        -0.28871E+08
 
   -0.28540E+08         0.23045E+06         0.00000E+00
    0.23045E+06        -0.60010E+08         0.00000E+00
    0.00000E+00         0.00000E+00        -0.28857E+08
 
   -0.28556E+08         0.33007E+06         0.00000E+00
    0.33007E+06        -0.60014E+08         0.00000E+00
    0.00000E+00         0.00000E+00        -0.28849E+08
 
   -0.28568E+08         0.44367E+06         0.00000E+00
    0.44367E+06        -0.60017E+08         0.00000E+00
    0.00000E+00         0.00000E+00        -0.28845E+08
 
   -0.28578E+08         0.57030E+06         0.00000E+00
    0.57030E+06        -0.60020E+08         0.00000E+00
    0.00000E+00         0.00000E+00        -0.28846E+08
 
   -0.28587E+08         0.70875E+06         0.00000E+00
    0.70875E+06        -0.60022E+08         0.00000E+00
    0.00000E+00         0.00000E+00        -0.28849E+08
 
   -0.28596E+08         0.85763E+06         0.00000E+00
    0.85763E+06        -0.60021E+08         0.00000E+00
    0.00000E+00         0.00000E+00        -0.28853E+08
 
   -0.28606E+08         0.10156E+07         0.00000E+00
    0.10156E+07        -0.60017E+08         0.00000E+00
    0.00000E+00         0.00000E+00        -0.28858E+08
 
   -0.28620E+08         0.11814E+07         0.00000E+00
    0.11814E+07        -0.60009E+08         0.00000E+00
    0.00000E+00         0.00000E+00        -0.28859E+08
 
   -0.28638E+08         0.13542E+07         0.00000E+00
    0.13542E+07        -0.59996E+08         0.00000E+00
    0.00000E+00         0.00000E+00        -0.28856E+08
 
   -0.28665E+08         0.15334E+07         0.00000E+00
    0.15334E+07        -0.59980E+08         0.00000E+00
    0.00000E+00         0.00000E+00        -0.28845E+08
 
   -0.28701E+08         0.17187E+07         0.00000E+00
    0.17187E+07        -0.59958E+08         0.00000E+00
    0.00000E+00         0.00000E+00        -0.28826E+08
 
   -0.28750E+08         0.19109E+07         0.00000E+00
    0.19109E+07        -0.59932E+08         0.00000E+00
    0.00000E+00         0.00000E+00        -0.28796E+08
 
   -0.28427E+08         0.18874E+05         0.00000E+00
    0.18874E+05        -0.60002E+08         0.00000E+00
    0.00000E+00         0.00000E+00        -0.28419E+08
 
   -0.28438E+08         0.71354E+05         0.00000E+00
    0.71354E+05        -0.60006E+08         0.00000E+00
    0.00000E+00         0.00000E+00        -0.28412E+08
 
   -0.28445E+08         0.13940E+06         0.00000E+00
    0.13940E+06        -0.60013E+08         0.00000E+00
    0.00000E+00         0.00000E+00        -0.28412E+08
 
   -0.28448E+08         0.22303E+06         0.00000E+00
    0.22303E+06        -0.60022E+08         0.00000E+00
    0.00000E+00         0.00000E+00        -0.28419E+08
 
   -0.28449E+08         0.32193E+06         0.00000E+00
    0.32193E+06        -0.60034E+08         0.00000E+00
    0.00000E+00         0.00000E+00        -0.28433E+08
 
   -0.28447E+08         0.43550E+06         0.00000E+00
    0.43550E+06        -0.60046E+08         0.00000E+00
    0.00000E+00         0.00000E+00        -0.28451E+08
 
   -0.28445E+08         0.56281E+06         0.00000E+00
    0.56281E+06        -0.60059E+08         0.00000E+00
    0.00000E+00         0.00000E+00        -0.28474E+08
 
   -0.28442E+08         0.70269E+06         0.00000E+00
    0.70269E+06        -0.60071E+08         0.00000E+00
    0.00000E+00         0.00000E+00        -0.28498E+08
 
   -0.28441E+08         0.85386E+06         0.00000E+00
    0.85386E+06        -0.60082E+08         0.00000E+00
    0.00000E+00         0.00000E+00        -0.28524E+08
 
   -0.28442E+08         0.10149E+07         0.00000E+00
    0.10149E+07        -0.60090E+08         0.00000E+00
    0.00000E+00         0.00000E+00        -0.28548E+08
 
   -0.28448E+08         0.11847E+07         0.00000E+00
    0.11847E+07        -0.60095E+08         0.00000E+00
    0.00000E+00         0.00000E+00        -0.28570E+08
 
   -0.28460E+08         0.13619E+07         0.00000E+00
    0.13619E+07        -0.60095E+08         0.00000E+00
    0.00000E+00         0.00000E+00        -0.28586E+08
 
   -0.28480E+08         0.15459E+07         0.00000E+00
    0.15459E+07        -0.60092E+08         0.00000E+00
    0.00000E+00         0.00000E+00        -0.28595E+08
 
   -0.28510E+08         0.17364E+07         0.00000E+00
    0.17364E+07        -0.60082E+08         0.00000E+00
    0.00000E+00         0.00000E+00        -0.28595E+08
 
   -0.28551E+08         0.19335E+07         0.00000E+00
    0.19335E+07        -0.60067E+08         0.00000E+00
    0.00000E+00         0.00000E+00        -0.28584E+08
 
   -0.28385E+08         0.16288E+05         0.00000E+00
    0.16288E+05        -0.60002E+08         0.00000E+00
    0.00000E+00         0.00000E+00        -0.27925E+08
 
   -0.28380E+08         0.63878E+05         0.00000E+00
    0.63878E+05        -0.60008E+08         0.00000E+00
    0.00000E+00         0.00000E+00        -0.27936E+08
 
   -0.28371E+08         0.12796E+06         0.00000E+00
    0.12796E+06        -0.60020E+08         0.00000E+00
    0.00000E+00         0.00000E+00        -0.27956E+08
 
   -0.28358E+08         0.20856E+06         0.00000E+00
    0.20856E+06        -0.60036E+08         0.00000E+00
    0.00000E+00         0.00000E+00        -0.27985E+08
 
   -0.28343E+08         0.30540E+06         0.00000E+00
    0.30540E+06        -0.60056E+08         0.00000E+00
    0.00000E+00         0.00000E+00        -0.28020E+08
 
   -0.28327E+08         0.41785E+06         0.00000E+00
    0.41785E+06        -0.60077E+08         0.00000E+00
    0.00000E+00         0.00000E+00        -0.28061E+08
 
   -0.28311E+08         0.54499E+06         0.00000E+00
    0.54499E+06        -0.60100E+08         0.00000E+00
    0.00000E+00         0.00000E+00        -0.28105E+08
 
   -0.28296E+08         0.68567E+06         0.00000E+00
    0.68567E+06        -0.60122E+08         0.00000E+00
    0.00000E+00         0.00000E+00        -0.28151E+08
 
   -0.28283E+08         0.83858E+06         0.00000E+00
    0.83858E+06        -0.60144E+08         0.00000E+00
    0.00000E+00         0.00000E+00        -0.28198E+08
 
   -0.28275E+08         0.10023E+07         0.00000E+00
    0.10023E+07        -0.60163E+08         0.00000E+00
    0.00000E+00         0.00000E+00        -0.28242E+08
 
   -0.28273E+08         0.11756E+07         0.00000E+00
    0.11756E+07        -0.60180E+08         0.00000E+00
    0.00000E+00         0.00000E+00        -0.28283E+08
 
   -0.28277E+08         0.13572E+07         0.00000E+00
    0.13572E+07        -0.60192E+08         0.00000E+00
    0.00000E+00         0.00000E+00        -0.28318E+08
 
   -0.28290E+08         0.15465E+07         0.00000E+00
    0.15465E+07        -0.60200E+08         0.00000E+00
    0.00000E+00         0.00000E+00        -0.28345E+08
 
   -0.28313E+08         0.17428E+07         0.00000E+00
    0.17428E+07        -0.60202E+08         0.00000E+00
    0.00000E+00         0.00000E+00        -0.28363E+08
 
   -0.28348E+08         0.19452E+07         0.00000E+00
    0.19452E+07        -0.60199E+08         0.00000E+00
    0.00000E+00         0.00000E+00        -0.28370E+08
 
   -0.28349E+08         0.12375E+05         0.00000E+00
    0.12375E+05        -0.60003E+08         0.00000E+00
    0.00000E+00         0.00000E+00        -0.27431E+08
 
   -0.28327E+08         0.52731E+05         0.00000E+00
    0.52731E+05        -0.60011E+08         0.00000E+00
    0.00000E+00         0.00000E+00        -0.27460E+08
 
   -0.28301E+08         0.11087E+06         0.00000E+00
    0.11087E+06        -0.60028E+08         0.00000E+00
    0.00000E+00         0.00000E+00        -0.27500E+08
 
   -0.28271E+08         0.18685E+06         0.00000E+00
    0.18685E+06        -0.60050E+08         0.00000E+00
    0.00000E+00         0.00000E+00        -0.27550E+08
 
   -0.28240E+08         0.28036E+06         0.00000E+00
    0.28036E+06        -0.60077E+08         0.00000E+00
    0.00000E+00         0.00000E+00        -0.27608E+08
 
   -0.28208E+08         0.39074E+06         0.00000E+00
    0.39074E+06        -0.60108E+08         0.00000E+00
    0.00000E+00         0.00000E+00        -0.27671E+08
 
   -0.28177E+08         0.51703E+06         0.00000E+00
    0.51703E+06        -0.60140E+08         0.00000E+00
    0.00000E+00         0.00000E+00        -0.27737E+08
 
   -0.28148E+08         0.65804E+06         0.00000E+00
    0.65804E+06        -0.60173E+08         0.00000E+00
    0.00000E+00         0.00000E+00        -0.27805E+08
 
   -0.28124E+08         0.81238E+06         0.00000E+00
    0.81238E+06        -0.60205E+08         0.00000E+00
    0.00000E+00         0.00000E+00        -0.27872E+08
 
   -0.28105E+08         0.97866E+06         0.00000E+00
    0.97866E+06        -0.60235E+08         0.00000E+00
    0.00000E+00         0.00000E+00        -0.27936E+08
 
   -0.28093E+08         0.11555E+07         0.00000E+00
    0.11555E+07        -0.60262E+08         0.00000E+00
    0.00000E+00         0.00000E+00        -0.27996E+08
 
   -0.28089E+08         0.13417E+07         0.00000E+00
    0.13417E+07        -0.60285E+08         0.00000E+00
    0.00000E+00         0.00000E+00        -0.28049E+08
 
   -0.28094E+08         0.15363E+07         0.00000E+00
    0.15363E+07        -0.60303E+08         0.00000E+00
    0.00000E+00         0.00000E+00        -0.28093E+08
 
   -0.28111E+08         0.17374E+07         0.00000E+00
    0.17374E+07        -0.60317E+08         0.00000E+00
    0.00000E+00         0.00000E+00        -0.28129E+08
 
   -0.28142E+08         0.19435E+07         0.00000E+00
    0.19435E+07        -0.60326E+08         0.00000E+00
    0.00000E+00         0.00000E+00        -0.28153E+08
 
   -0.28322E+08         0.71119E+04         0.00000E+00
    0.71119E+04        -0.60003E+08         0.00000E+00
    0.00000E+00         0.00000E+00        -0.26934E+08
 
   -0.28282E+08         0.38007E+05         0.00000E+00
    0.38007E+05        -0.60014E+08         0.00000E+00
    0.00000E+00         0.00000E+00        -0.26982E+08
 
   -0.28237E+08         0.88306E+05         0.00000E+00
    0.88306E+05        -0.60035E+08         0.00000E+00
    0.00000E+00         0.00000E+00        -0.27042E+08
 
   -0.28189E+08         0.15813E+06         0.00000E+00
    0.15813E+06        -0.60063E+08         0.00000E+00
    0.00000E+00         0.00000E+00        -0.27114E+08
 
   -0.28140E+08         0.24712E+06         0.00000E+00
    0.24712E+06        -0.60098E+08         0.00000E+00
    0.00000E+00         0.00000E+00        -0.27194E+08
 
   -0.28091E+08         0.35456E+06         0.00000E+00
    0.35456E+06        -0.60137E+08         0.00000E+00
    0.00000E+00         0.00000E+00        -0.27279E+08
 
   -0.28043E+08         0.47940E+06         0.00000E+00
    0.47940E+06        -0.60178E+08         0.00000E+00
    0.00000E+00         0.00000E+00        -0.27368E+08
 
   -0.28000E+08         0.62035E+06         0.00000E+00
    0.62035E+06        -0.60220E+08         0.00000E+00
    0.00000E+00         0.00000E+00        -0.27457E+08
 
   -0.27963E+08         0.77600E+06         0.00000E+00
    0.77600E+06        -0.60262E+08         0.00000E+00
    0.00000E+00         0.00000E+00        -0.27545E+08
 
   -0.27932E+08         0.94491E+06         0.00000E+00
    0.94491E+06        -0.60302E+08         0.00000E+00
    0.00000E+00         0.00000E+00        -0.27629E+08
 
   -0.27909E+08         0.11255E+07         0.00000E+00
    0.11255E+07        -0.60339E+08         0.00000E+00
    0.00000E+00         0.00000E+00        -0.27707E+08
 
   -0.27896E+08         0.13161E+07         0.00000E+00
    0.13161E+07        -0.60372E+08         0.00000E+00
    0.00000E+00         0.00000E+00        -0.27778E+08
 
   -0.27895E+08         0.15146E+07         0.00000E+00
    0.15146E+07        -0.60401E+08         0.00000E+00
    0.00000E+00         0.00000E+00        -0.27839E+08
 
   -0.27906E+08         0.17198E+07         0.00000E+00
    0.17198E+07        -0.60425E+08         0.00000E+00
    0.00000E+00         0.00000E+00        -0.27891E+08
 
   -0.27930E+08         0.19315E+07         0.00000E+00
    0.19315E+07        -0.60445E+08         0.00000E+00
    0.00000E+00         0.00000E+00        -0.27930E+08
 
   -0.28307E+08         0.60681E+03         0.00000E+00
    0.60681E+03        -0.60003E+08         0.00000E+00
    0.00000E+00         0.00000E+00        -0.26434E+08
 
   -0.28247E+08         0.19972E+05         0.00000E+00
    0.19972E+05        -0.60017E+08         0.00000E+00
    0.00000E+00         0.00000E+00        -0.26500E+08
 
   -0.28181E+08         0.60775E+05         0.00000E+00
    0.60775E+05        -0.60041E+08         0.00000E+00
    0.00000E+00         0.00000E+00        -0.26581E+08
 
   -0.28113E+08         0.12306E+06         0.00000E+00
    0.12306E+06        -0.60075E+08         0.00000E+00
    0.00000E+00         0.00000E+00        -0.26674E+08
 
   -0.28044E+08         0.20644E+06         0.00000E+00
    0.20644E+06        -0.60116E+08         0.00000E+00
    0.00000E+00         0.00000E+00        -0.26776E+08
 
   -0.27976E+08         0.31009E+06         0.00000E+00
    0.31009E+06        -0.60162E+08         0.00000E+00
    0.00000E+00         0.00000E+00        -0.26884E+08
 
   -0.27911E+08         0.43288E+06         0.00000E+00
    0.43288E+06        -0.60212E+08         0.00000E+00
    0.00000E+00         0.00000E+00        -0.26995E+08
 
   -0.27852E+08         0.57347E+06         0.00000E+00
    0.57347E+06        -0.60262E+08         0.00000E+00
    0.00000E+00         0.00000E+00        -0.27106E+08
 
   -0.27799E+08         0.73032E+06         0.00000E+00
    0.73032E+06        -0.60313E+08         0.00000E+00
    0.00000E+00         0.00000E+00        -0.27214E+08
 
   -0.27755E+08         0.90159E+06         0.00000E+00
    0.90159E+06        -0.60362E+08         0.00000E+00
    0.00000E+00         0.00000E+00        -0.27318E+08
 
   -0.27722E+08         0.10854E+07         0.00000E+00
    0.10854E+07        -0.60409E+08         0.00000E+00
    0.00000E+00         0.00000E+00        -0.27415E+08
 
   -0.27700E+08         0.12796E+07         0.00000E+00
    0.12796E+07        -0.60452E+08         0.00000E+00
    0.00000E+00         0.00000E+00        -0.27503E+08
 
   -0.27690E+08         0.14826E+07         0.00000E+00
    0.14826E+07        -0.60491E+08         0.00000E+00
    0.00000E+00         0.00000E+00        -0.27581E+08
 
   -0.27694E+08         0.16934E+07         0.00000E+00
    0.16934E+07        -0.60525E+08         0.00000E+00
    0.00000E+00         0.00000E+00        -0.27648E+08
 
   -0.27712E+08         0.19113E+07         0.00000E+00
    0.19113E+07        -0.60552E+08         0.00000E+00
    0.00000E+00         0.00000E+00        -0.27701E+08
 
   -0.28306E+08        -0.69429E+04         0.00000E+00
   -0.69429E+04        -0.60004E+08         0.00000E+00
    0.00000E+00         0.00000E+00        -0.25927E+08
 
   -0.28222E+08        -0.84984E+03         0.00000E+00
   -0.84984E+03        -0.60019E+08         0.00000E+00
    0.00000E+00         0.00000E+00        -0.26013E+08
 
   -0.28134E+08         0.29067E+05         0.00000E+00
    0.29067E+05        -0.60046E+08         0.00000E+00
    0.00000E+00         0.00000E+00        -0.26115E+08
 
   -0.28044E+08         0.82679E+05         0.00000E+00
    0.82679E+05        -0.60084E+08         0.00000E+00
    0.00000E+00         0.00000E+00        -0.26230E+08
 
   -0.27953E+08         0.15947E+06         0.00000E+00
    0.15947E+06        -0.60130E+08         0.00000E+00
    0.00000E+00         0.00000E+00        -0.26354E+08
 
   -0.27864E+08         0.25852E+06         0.00000E+00
    0.25852E+06        -0.60182E+08         0.00000E+00
    0.00000E+00         0.00000E+00        -0.26484E+08
 
   -0.27780E+08         0.37865E+06         0.00000E+00
    0.37865E+06        -0.60239E+08         0.00000E+00
    0.00000E+00         0.00000E+00        -0.26617E+08
 
   -0.27703E+08         0.51831E+06         0.00000E+00
    0.51831E+06        -0.60297E+08         0.00000E+00
    0.00000E+00         0.00000E+00        -0.26749E+08
 
   -0.27634E+08         0.67571E+06         0.00000E+00
    0.67571E+06        -0.60356E+08         0.00000E+00
    0.00000E+00         0.00000E+00        -0.26878E+08
 
   -0.27577E+08         0.84880E+06         0.00000E+00
    0.84880E+06        -0.60414E+08         0.00000E+00
    0.00000E+00         0.00000E+00        -0.27001E+08
 
   -0.27531E+08         0.10354E+07         0.00000E+00
    0.10354E+07        -0.60470E+08         0.00000E+00
    0.00000E+00         0.00000E+00        -0.27117E+08
 
   -0.27499E+08         0.12336E+07         0.00000E+00
    0.12336E+07        -0.60522E+08         0.00000E+00
    0.00000E+00         0.00000E+00        -0.27223E+08
 
   -0.27481E+08         0.14418E+07         0.00000E+00
    0.14418E+07        -0.60570E+08         0.00000E+00
    0.00000E+00         0.00000E+00        -0.27317E+08
 
   -0.27477E+08         0.16589E+07         0.00000E+00
    0.16589E+07        -0.60612E+08         0.00000E+00
    0.00000E+00         0.00000E+00        -0.27399E+08
 
   -0.27487E+08         0.18835E+07         0.00000E+00
    0.18835E+07        -0.60647E+08         0.00000E+00
    0.00000E+00         0.00000E+00        -0.27467E+08
 
   -0.28319E+08        -0.15281E+05         0.00000E+00
   -0.15281E+05        -0.60004E+08         0.00000E+00
    0.00000E+00         0.00000E+00        -0.25414E+08
 
   -0.28211E+08        -0.23743E+05         0.00000E+00
   -0.23743E+05        -0.60020E+08         0.00000E+00
    0.00000E+00         0.00000E+00        -0.25520E+08
 
   -0.28098E+08        -0.57253E+04         0.00000E+00
   -0.57253E+04        -0.60050E+08         0.00000E+00
    0.00000E+00         0.00000E+00        -0.25643E+08
 
   -0.27983E+08         0.38357E+05         0.00000E+00
    0.38357E+05        -0.60091E+08         0.00000E+00
    0.00000E+00         0.00000E+00        -0.25779E+08
 
   -0.27868E+08         0.10776E+06         0.00000E+00
    0.10776E+06        -0.60140E+08         0.00000E+00
    0.00000E+00         0.00000E+00        -0.25925E+08
 
   -0.27756E+08         0.20144E+06         0.00000E+00
    0.20144E+06        -0.60196E+08         0.00000E+00
    0.00000E+00         0.00000E+00        -0.26077E+08
 
   -0.27651E+08         0.31803E+06         0.00000E+00
    0.31803E+06        -0.60257E+08         0.00000E+00
    0.00000E+00         0.00000E+00        -0.26230E+08
 
   -0.27554E+08         0.45587E+06         0.00000E+00
    0.45587E+06        -0.60322E+08         0.00000E+00
    0.00000E+00         0.00000E+00        -0.26384E+08
 
   -0.27469E+08         0.61303E+06         0.00000E+00
    0.61303E+06        -0.60388E+08         0.00000E+00
    0.00000E+00         0.00000E+00        -0.26533E+08
 
   -0.27396E+08         0.78730E+06         0.00000E+00
    0.78730E+06        -0.60453E+08         0.00000E+00
    0.00000E+00         0.00000E+00        -0.26676E+08
 
   -0.27337E+08         0.97653E+06         0.00000E+00
    0.97653E+06        -0.60518E+08         0.00000E+00
    0.00000E+00         0.00000E+00        -0.26810E+08
 
   -0.27293E+08         0.11788E+07         0.00000E+00
    0.11788E+07        -0.60579E+08         0.00000E+00
    0.00000E+00         0.00000E+00        -0.26934E+08
 
   -0.27265E+08         0.13924E+07         0.00000E+00
    0.13924E+07        -0.60635E+08         0.00000E+00
    0.00000E+00         0.00000E+00        -0.27045E+08
 
   -0.27252E+08         0.16158E+07         0.00000E+00
    0.16158E+07        -0.60686E+08         0.00000E+00
    0.00000E+00         0.00000E+00        -0.27143E+08
 
   -0.27257E+08         0.18469E+07         0.00000E+00
    0.18469E+07        -0.60731E+08         0.00000E+00
    0.00000E+00         0.00000E+00        -0.27226E+08
 
   -0.28349E+08        -0.24123E+05         0.00000E+00
   -0.24123E+05        -0.60004E+08         0.00000E+00
    0.00000E+00         0.00000E+00        -0.24894E+08
 
   -0.28213E+08        -0.47886E+05         0.00000E+00
   -0.47886E+05        -0.60021E+08         0.00000E+00
    0.00000E+00         0.00000E+00        -0.25021E+08
 
   -0.28072E+08        -0.42294E+05         0.00000E+00
   -0.42294E+05        -0.60052E+08         0.00000E+00
    0.00000E+00         0.00000E+00        -0.25165E+08
 
   -0.27930E+08        -0.82031E+04         0.00000E+00
   -0.82031E+04        -0.60094E+08         0.00000E+00
    0.00000E+00         0.00000E+00        -0.25323E+08
 
   -0.27789E+08         0.53282E+05         0.00000E+00
    0.53282E+05        -0.60145E+08         0.00000E+00
    0.00000E+00         0.00000E+00        -0.25489E+08
 
   -0.27654E+08         0.14083E+06         0.00000E+00
    0.14083E+06        -0.60203E+08         0.00000E+00
    0.00000E+00         0.00000E+00        -0.25661E+08
 
   -0.27525E+08         0.25292E+06         0.00000E+00
    0.25292E+06        -0.60266E+08         0.00000E+00
    0.00000E+00         0.00000E+00        -0.25835E+08
 
   -0.27408E+08         0.38786E+06         0.00000E+00
    0.38786E+06        -0.60334E+08         0.00000E+00
    0.00000E+00         0.00000E+00        -0.26008E+08
 
   -0.27303E+08         0.54373E+06         0.00000E+00
    0.54373E+06        -0.60405E+08         0.00000E+00
    0.00000E+00         0.00000E+00        -0.26177E+08
 
   -0.27213E+08         0.71834E+06         0.00000E+00
    0.71834E+06        -0.60477E+08         0.00000E+00
    0.00000E+00         0.00000E+00        -0.26339E+08
 
   -0.27139E+08         0.90956E+06         0.00000E+00
    0.90956E+06        -0.60549E+08         0.00000E+00
    0.00000E+00         0.00000E+00        -0.26492E+08
 
   -0.27083E+08         0.11153E+07         0.00000E+00
    0.11153E+07        -0.60619E+08         0.00000E+00
    0.00000E+00         0.00000E+00        -0.26634E+08
 
   -0.27043E+08         0.13339E+07         0.00000E+00
    0.13339E+07        -0.60684E+08         0.00000E+00
    0.00000E+00         0.00000E+00        -0.26763E+08
 
   -0.27022E+08         0.15627E+07         0.00000E+00
    0.15627E+07        -0.60746E+08         0.00000E+00
    0.00000E+00         0.00000E+00        -0.26878E+08
 
   -0.27020E+08         0.17992E+07         0.00000E+00
    0.17992E+07        -0.60802E+08         0.00000E+00
    0.00000E+00         0.00000E+00        -0.26978E+08
 
   -0.28397E+08        -0.33193E+05         0.00000E+00
   -0.33193E+05        -0.60004E+08         0.00000E+00
    0.00000E+00         0.00000E+00        -0.24368E+08
 
   -0.28229E+08        -0.72432E+05         0.00000E+00
   -0.72432E+05        -0.60021E+08         0.00000E+00
    0.00000E+00         0.00000E+00        -0.24517E+08
 
   -0.28058E+08        -0.79210E+05         0.00000E+00
   -0.79210E+05        -0.60052E+08         0.00000E+00
    0.00000E+00         0.00000E+00        -0.24682E+08
 
   -0.27887E+08        -0.55012E+05         0.00000E+00
   -0.55012E+05        -0.60093E+08         0.00000E+00
    0.00000E+00         0.00000E+00        -0.24859E+08
 
   -0.27718E+08        -0.15481E+04         0.00000E+00
   -0.15481E+04        -0.60143E+08         0.00000E+00
    0.00000E+00         0.00000E+00        -0.25045E+08
 
   -0.27557E+08         0.79378E+05         0.00000E+00
    0.79378E+05        -0.60200E+08         0.00000E+00
    0.00000E+00         0.00000E+00        -0.25235E+08
 
   -0.27404E+08         0.18604E+06         0.00000E+00
    0.18604E+06        -0.60263E+08         0.00000E+00
    0.00000E+00         0.00000E+00        -0.25427E+08
 
   -0.27264E+08         0.31681E+06         0.00000E+00
    0.31681E+06        -0.60332E+08         0.00000E+00
    0.00000E+00         0.00000E+00        -0.25618E+08
 
   -0.27138E+08         0.46982E+06         0.00000E+00
    0.46982E+06        -0.60405E+08         0.00000E+00
    0.00000E+00         0.00000E+00        -0.25805E+08
 
   -0.27030E+08         0.64315E+06         0.00000E+00
    0.64315E+06        -0.60482E+08         0.00000E+00
    0.00000E+00         0.00000E+00        -0.25985E+08
 
   -0.26940E+08         0.83479E+06         0.00000E+00
    0.83479E+06        -0.60560E+08         0.00000E+00
    0.00000E+00         0.00000E+00        -0.26157E+08
 
   -0.26869E+08         0.10428E+07         0.00000E+00
    0.10428E+07        -0.60638E+08         0.00000E+00
    0.00000E+00         0.00000E+00        -0.26319E+08
 
   -0.26818E+08         0.12646E+07         0.00000E+00
    0.12646E+07        -0.60715E+08         0.00000E+00
    0.00000E+00         0.00000E+00        -0.26467E+08
 
   -0.26787E+08         0.14976E+07         0.00000E+00
    0.14976E+07        -0.60789E+08         0.00000E+00
    0.00000E+00         0.00000E+00        -0.26602E+08
 
   -0.26776E+08         0.17410E+07         0.00000E+00
    0.17410E+07        -0.60857E+08         0.00000E+00
    0.00000E+00         0.00000E+00        -0.26720E+08
 
   -0.28461E+08        -0.42255E+05         0.00000E+00
   -0.42255E+05        -0.60005E+08         0.00000E+00
    0.00000E+00         0.00000E+00        -0.23836E+08
 
   -0.28258E+08        -0.96589E+05         0.00000E+00
   -0.96589E+05        -0.60021E+08         0.00000E+00
    0.00000E+00         0.00000E+00        -0.24007E+08
 
   -0.28054E+08        -0.11496E+06         0.00000E+00
   -0.11496E+06        -0.60050E+08         0.00000E+00
    0.00000E+00         0.00000E+00        -0.24193E+08
 
   -0.27852E+08        -0.99799E+05         0.00000E+00
   -0.99799E+05        -0.60089E+08         0.00000E+00
    0.00000E+00         0.00000E+00        -0.24390E+08
 
   -0.27655E+08        -0.53751E+05         0.00000E+00
   -0.53751E+05        -0.60135E+08         0.00000E+00
    0.00000E+00         0.00000E+00        -0.24593E+08
 
   -0.27466E+08         0.20594E+05         0.00000E+00
    0.20594E+05        -0.60187E+08         0.00000E+00
    0.00000E+00         0.00000E+00        -0.24798E+08
 
   -0.27288E+08         0.12106E+06         0.00000E+00
    0.12106E+06        -0.60246E+08         0.00000E+00
    0.00000E+00         0.00000E+00        -0.25004E+08
 
   -0.27124E+08         0.24594E+06         0.00000E+00
    0.24594E+06        -0.60312E+08         0.00000E+00
    0.00000E+00         0.00000E+00        -0.25210E+08
 
   -0.26977E+08         0.39366E+06         0.00000E+00
    0.39366E+06        -0.60384E+08         0.00000E+00
    0.00000E+00         0.00000E+00        -0.25412E+08
 
   -0.26848E+08         0.56290E+06         0.00000E+00
    0.56290E+06        -0.60463E+08         0.00000E+00
    0.00000E+00         0.00000E+00        -0.25610E+08
 
   -0.26740E+08         0.75220E+06         0.00000E+00
    0.75220E+06        -0.60548E+08         0.00000E+00
    0.00000E+00         0.00000E+00        -0.25802E+08
 
   -0.26653E+08         0.95968E+06         0.00000E+00
    0.95968E+06        -0.60636E+08         0.00000E+00
    0.00000E+00         0.00000E+00        -0.25984E+08
 
   -0.26588E+08         0.11829E+07         0.00000E+00
    0.11829E+07        -0.60725E+08         0.00000E+00
    0.00000E+00         0.00000E+00        -0.26155E+08
 
   -0.26546E+08         0.14202E+07         0.00000E+00
    0.14202E+07        -0.60812E+08         0.00000E+00
    0.00000E+00         0.00000E+00        -0.26311E+08
 
   -0.26524E+08         0.16702E+07         0.00000E+00
    0.16702E+07        -0.60893E+08         0.00000E+00
    0.00000E+00         0.00000E+00        -0.26452E+08
 
   -0.28543E+08        -0.51161E+05         0.00000E+00
   -0.51161E+05        -0.60005E+08         0.00000E+00
    0.00000E+00         0.00000E+00        -0.23299E+08
 
   -0.28300E+08        -0.11958E+06         0.00000E+00
   -0.11958E+06        -0.60020E+08         0.00000E+00
    0.00000E+00         0.00000E+00        -0.23494E+08
 
   -0.28060E+08        -0.14791E+06         0.00000E+00
   -0.14791E+06        -0.60047E+08         0.00000E+00
    0.00000E+00         0.00000E+00        -0.23702E+08
 
   -0.27824E+08        -0.13993E+06         0.00000E+00
   -0.13993E+06        -0.60080E+08         0.00000E+00
    0.00000E+00         0.00000E+00        -0.23916E+08
 
   -0.27597E+08        -0.99753E+05         0.00000E+00
   -0.99753E+05        -0.60119E+08         0.00000E+00
    0.00000E+00         0.00000E+00        -0.24132E+08
 
   -0.27381E+08        -0.31311E+05         0.00000E+00
   -0.31311E+05        -0.60163E+08         0.00000E+00
    0.00000E+00         0.00000E+00        -0.24349E+08
 
   -0.27179E+08         0.62359E+05         0.00000E+00
    0.62359E+05        -0.60213E+08         0.00000E+00
    0.00000E+00         0.00000E+00        -0.24564E+08
 
   -0.26992E+08         0.17916E+06         0.00000E+00
    0.17916E+06        -0.60271E+08         0.00000E+00
    0.00000E+00         0.00000E+00        -0.24780E+08
 
   -0.26822E+08         0.31809E+06         0.00000E+00
    0.31809E+06        -0.60339E+08         0.00000E+00
    0.00000E+00         0.00000E+00        -0.24995E+08
 
   -0.26672E+08         0.47895E+06         0.00000E+00
    0.47895E+06        -0.60418E+08         0.00000E+00
    0.00000E+00         0.00000E+00        -0.25209E+08
 
   -0.26544E+08         0.66150E+06         0.00000E+00
    0.66150E+06        -0.60508E+08         0.00000E+00
    0.00000E+00         0.00000E+00        -0.25420E+08
 
   -0.26439E+08         0.86474E+06         0.00000E+00
    0.86474E+06        -0.60606E+08         0.00000E+00
    0.00000E+00         0.00000E+00        -0.25625E+08
 
   -0.26357E+08         0.10873E+07         0.00000E+00
    0.10873E+07        -0.60709E+08         0.00000E+00
    0.00000E+00         0.00000E+00        -0.25821E+08
 
   -0.26299E+08         0.13276E+07         0.00000E+00
    0.13276E+07        -0.60812E+08         0.00000E+00
    0.00000E+00         0.00000E+00        -0.26004E+08
 
   -0.26264E+08         0.15835E+07         0.00000E+00
    0.15835E+07        -0.60912E+08         0.00000E+00
    0.00000E+00         0.00000E+00        -0.26172E+08
 
   -0.28640E+08        -0.59835E+05         0.00000E+00
   -0.59835E+05        -0.60005E+08         0.00000E+00
    0.00000E+00         0.00000E+00        -0.22758E+08
 
   -0.28353E+08        -0.14066E+06         0.00000E+00
   -0.14066E+06        -0.60019E+08         0.00000E+00
    0.00000E+00         0.00000E+00        -0.22979E+08
 
   -0.28073E+08        -0.17612E+06         0.00000E+00
   -0.17612E+06        -0.60042E+08         0.00000E+00
    0.00000E+00         0.00000E+00        -0.23208E+08
 
   -0.27802E+08        -0.17219E+06         0.00000E+00
   -0.17219E+06        -0.60067E+08         0.00000E+00
    0.00000E+00         0.00000E+00        -0.23438E+08
 
   -0.27545E+08        -0.13536E+06         0.00000E+00
   -0.13536E+06        -0.60095E+08         0.00000E+00
    0.00000E+00         0.00000E+00        -0.23664E+08
 
   -0.27303E+08        -0.71653E+05         0.00000E+00
   -0.71653E+05        -0.60125E+08         0.00000E+00
    0.00000E+00         0.00000E+00        -0.23886E+08
 
   -0.27078E+08         0.14514E+05         0.00000E+00
    0.14514E+05        -0.60161E+08         0.00000E+00
    0.00000E+00         0.00000E+00        -0.24105E+08
 
   -0.26869E+08         0.12065E+06         0.00000E+00
    0.12065E+06        -0.60207E+08         0.00000E+00
    0.00000E+00         0.00000E+00        -0.24324E+08
 
   -0.26678E+08         0.24645E+06         0.00000E+00
    0.24645E+06        -0.60267E+08         0.00000E+00
    0.00000E+00         0.00000E+00        -0.24546E+08
 
   -0.26507E+08         0.39326E+06         0.00000E+00
    0.39326E+06        -0.60344E+08         0.00000E+00
    0.00000E+00         0.00000E+00        -0.24773E+08
 
   -0.26356E+08         0.56291E+06         0.00000E+00
    0.56291E+06        -0.60437E+08         0.00000E+00
    0.00000E+00         0.00000E+00        -0.25003E+08
 
   -0.26228E+08         0.75681E+06         0.00000E+00
    0.75681E+06        -0.60546E+08         0.00000E+00
    0.00000E+00         0.00000E+00        -0.25235E+08
 
   -0.26126E+08         0.97491E+06         0.00000E+00
    0.97491E+06        -0.60665E+08         0.00000E+00
    0.00000E+00         0.00000E+00        -0.25461E+08
 
   -0.26049E+08         0.12155E+07         0.00000E+00
    0.12155E+07        -0.60789E+08         0.00000E+00
    0.00000E+00         0.00000E+00        -0.25677E+08
 
   -0.25997E+08         0.14762E+07         0.00000E+00
    0.14762E+07        -0.60912E+08         0.00000E+00
    0.00000E+00         0.00000E+00        -0.25880E+08
 
   -0.28753E+08        -0.68285E+05         0.00000E+00
   -0.68285E+05        -0.60005E+08         0.00000E+00
    0.00000E+00         0.00000E+00        -0.22216E+08
 
   -0.28414E+08        -0.15877E+06         0.00000E+00
   -0.15877E+06        -0.60017E+08         0.00000E+00
    0.00000E+00         0.00000E+00        -0.22465E+08
 
   -0.28088E+08        -0.19681E+06         0.00000E+00
   -0.19681E+06        -0.60033E+08         0.00000E+00
    0.00000E+00         0.00000E+00        -0.22716E+08
 
   -0.27781E+08        -0.19231E+06         0.00000E+00
   -0.19231E+06        -0.60046E+08         0.00000E+00
    0.00000E+00         0.00000E+00        -0.22958E+08
 
   -0.27495E+08        -0.15575E+06         0.00000E+00
   -0.15575E+06        -0.60057E+08         0.00000E+00
    0.00000E+00         0.00000E+00        -0.23187E+08
 
   -0.27231E+08        -0.95956E+05         0.00000E+00
   -0.95956E+05        -0.60069E+08         0.00000E+00
    0.00000E+00         0.00000E+00        -0.23407E+08
 
   -0.26987E+08        -0.18552E+05         0.00000E+00
   -0.18552E+05        -0.60089E+08         0.00000E+00
    0.00000E+00         0.00000E+00        -0.23623E+08
 
   -0.26761E+08         0.74049E+05         0.00000E+00
    0.74049E+05        -0.60120E+08         0.00000E+00
    0.00000E+00         0.00000E+00        -0.23840E+08
 
   -0.26551E+08         0.18227E+06         0.00000E+00
    0.18227E+06        -0.60169E+08         0.00000E+00
    0.00000E+00         0.00000E+00        -0.24064E+08
 
   -0.26358E+08         0.30881E+06         0.00000E+00
    0.30881E+06        -0.60239E+08         0.00000E+00
    0.00000E+00         0.00000E+00        -0.24299E+08
 
   -0.26183E+08         0.45800E+06         0.00000E+00
    0.45800E+06        -0.60333E+08         0.00000E+00
    0.00000E+00         0.00000E+00        -0.24546E+08
 
   -0.26028E+08         0.63465E+06         0.00000E+00
    0.63465E+06        -0.60452E+08         0.00000E+00
    0.00000E+00         0.00000E+00        -0.24805E+08
 
   -0.25899E+08         0.84166E+06         0.00000E+00
    0.84166E+06        -0.60590E+08         0.00000E+00
    0.00000E+00         0.00000E+00        -0.25068E+08
 
   -0.25798E+08         0.10783E+07         0.00000E+00
    0.10783E+07        -0.60740E+08         0.00000E+00
    0.00000E+00         0.00000E+00        -0.25326E+08
 
   -0.25724E+08         0.13416E+07         0.00000E+00
    0.13416E+07        -0.60893E+08         0.00000E+00
    0.00000E+00         0.00000E+00        -0.25574E+08
 
   -0.28878E+08        -0.76531E+05         0.00000E+00
   -0.76531E+05        -0.60005E+08         0.00000E+00
    0.00000E+00         0.00000E+00        -0.21673E+08
 
   -0.28478E+08        -0.17179E+06         0.00000E+00
   -0.17179E+06        -0.60014E+08         0.00000E+00
    0.00000E+00         0.00000E+00        -0.21954E+08
 
   -0.28101E+08        -0.20507E+06         0.00000E+00
   -0.20507E+06        -0.60018E+08         0.00000E+00
    0.00000E+00         0.00000E+00        -0.22224E+08
 
   -0.27757E+08        -0.19422E+06         0.00000E+00
   -0.19422E+06        -0.60012E+08         0.00000E+00
    0.00000E+00         0.00000E+00        -0.22471E+08
 
   -0.27447E+08        -0.15591E+06         0.00000E+00
   -0.15591E+06        -0.60000E+08         0.00000E+00
    0.00000E+00         0.00000E+00        -0.22696E+08
 
   -0.27166E+08        -0.10108E+06         0.00000E+00
   -0.10108E+06        -0.59991E+08         0.00000E+00
    0.00000E+00         0.00000E+00        -0.22907E+08
 
   -0.26908E+08        -0.34849E+05         0.00000E+00
   -0.34849E+05        -0.59992E+08         0.00000E+00
    0.00000E+00         0.00000E+00        -0.23113E+08
 
   -0.26670E+08         0.41281E+05         0.00000E+00
    0.41281E+05        -0.60009E+08         0.00000E+00
    0.00000E+00         0.00000E+00        -0.23323E+08
 
   -0.26446E+08         0.12832E+06         0.00000E+00
    0.12832E+06        -0.60045E+08         0.00000E+00
    0.00000E+00         0.00000E+00        -0.23544E+08
 
   -0.26234E+08         0.22944E+06         0.00000E+00
    0.22944E+06        -0.60107E+08         0.00000E+00
    0.00000E+00         0.00000E+00        -0.23782E+08
 
   -0.26033E+08         0.35024E+06         0.00000E+00
    0.35024E+06        -0.60197E+08         0.00000E+00
    0.00000E+00         0.00000E+00        -0.24042E+08
 
   -0.25848E+08         0.49863E+06         0.00000E+00
    0.49863E+06        -0.60321E+08         0.00000E+00
    0.00000E+00         0.00000E+00        -0.24327E+08
 
   -0.25684E+08         0.68350E+06         0.00000E+00
    0.68350E+06        -0.60478E+08         0.00000E+00
    0.00000E+00         0.00000E+00        -0.24631E+08
 
   -0.25550E+08         0.90853E+06         0.00000E+00
    0.90853E+06        -0.60660E+08         0.00000E+00
    0.00000E+00         0.00000E+00        -0.24944E+08
 
   -0.25447E+08         0.11708E+07         0.00000E+00
    0.11708E+07        -0.60853E+08         0.00000E+00
    0.00000E+00         0.00000E+00        -0.25252E+08
 
   -0.29014E+08        -0.84271E+05         0.00000E+00
   -0.84271E+05        -0.60005E+08         0.00000E+00
    0.00000E+00         0.00000E+00        -0.21133E+08
 
   -0.28535E+08        -0.17426E+06         0.00000E+00
   -0.17426E+06        -0.60006E+08         0.00000E+00
    0.00000E+00         0.00000E+00        -0.21450E+08
 
   -0.28104E+08        -0.19145E+06         0.00000E+00
   -0.19145E+06        -0.59986E+08         0.00000E+00
    0.00000E+00         0.00000E+00        -0.21732E+08
 
   -0.27729E+08        -0.17030E+06         0.00000E+00
   -0.17030E+06        -0.59950E+08         0.00000E+00
    0.00000E+00         0.00000E+00        -0.21971E+08
 
   -0.27402E+08        -0.13271E+06         0.00000E+00
   -0.13271E+06        -0.59912E+08         0.00000E+00
    0.00000E+00         0.00000E+00        -0.22182E+08
 
   -0.27111E+08        -0.86814E+05         0.00000E+00
   -0.86814E+05        -0.59883E+08         0.00000E+00
    0.00000E+00         0.00000E+00        -0.22379E+08
 
   -0.26846E+08        -0.35343E+05         0.00000E+00
   -0.35343E+05        -0.59868E+08         0.00000E+00
    0.00000E+00         0.00000E+00        -0.22573E+08
 
   -0.26599E+08         0.21558E+05         0.00000E+00
    0.21558E+05        -0.59872E+08         0.00000E+00
    0.00000E+00         0.00000E+00        -0.22774E+08
 
   -0.26365E+08         0.85117E+05         0.00000E+00
    0.85117E+05        -0.59899E+08         0.00000E+00
    0.00000E+00         0.00000E+00        -0.22989E+08
 
   -0.26138E+08         0.15795E+06         0.00000E+00
    0.15795E+06        -0.59951E+08         0.00000E+00
    0.00000E+00         0.00000E+00        -0.23225E+08
 
   -0.25917E+08         0.24487E+06         0.00000E+00
    0.24487E+06        -0.60035E+08         0.00000E+00
    0.00000E+00         0.00000E+00        -0.23491E+08
 
   -0.25700E+08         0.35408E+06         0.00000E+00
    0.35408E+06        -0.60158E+08         0.00000E+00
    0.00000E+00         0.00000E+00        -0.23794E+08
 
   -0.25494E+08         0.49893E+06         0.00000E+00
    0.49893E+06        -0.60326E+08         0.00000E+00
    0.00000E+00         0.00000E+00        -0.24140E+08
 
   -0.25313E+08         0.69654E+06         0.00000E+00
    0.69654E+06        -0.60544E+08         0.00000E+00
    0.00000E+00         0.00000E+00        -0.24520E+08
 
   -0.25167E+08         0.94997E+06         0.00000E+00
    0.94997E+06        -0.60793E+08         0.00000E+00
    0.00000E+00         0.00000E+00        -0.24911E+08
 
   -0.29151E+08        -0.88887E+05         0.00000E+00
   -0.88887E+05        -0.60003E+08         0.00000E+00
    0.00000E+00         0.00000E+00        -0.20599E+08
 
   -0.28571E+08        -0.14984E+06         0.00000E+00
   -0.14984E+06        -0.59976E+08         0.00000E+00
    0.00000E+00         0.00000E+00        -0.20950E+08
 
   -0.28091E+08        -0.14120E+06         0.00000E+00
   -0.14120E+06        -0.59910E+08         0.00000E+00
    0.00000E+00         0.00000E+00        -0.21220E+08
 
   -0.27699E+08        -0.11682E+06         0.00000E+00
   -0.11682E+06        -0.59841E+08         0.00000E+00
    0.00000E+00         0.00000E+00        -0.21439E+08
 
   -0.27365E+08        -0.88032E+05         0.00000E+00
   -0.88032E+05        -0.59781E+08         0.00000E+00
    0.00000E+00         0.00000E+00        -0.21631E+08
 
   -0.27070E+08        -0.57039E+05         0.00000E+00
   -0.57039E+05        -0.59738E+08         0.00000E+00
    0.00000E+00         0.00000E+00        -0.21814E+08
 
   -0.26801E+08        -0.24194E+05         0.00000E+00
   -0.24194E+05        -0.59713E+08         0.00000E+00
    0.00000E+00         0.00000E+00        -0.21998E+08
 
   -0.26550E+08         0.11124E+05         0.00000E+00
    0.11124E+05        -0.59710E+08         0.00000E+00
    0.00000E+00         0.00000E+00        -0.22190E+08
 
   -0.26310E+08         0.49889E+05         0.00000E+00
    0.49889E+05        -0.59730E+08         0.00000E+00
    0.00000E+00         0.00000E+00        -0.22399E+08
 
   -0.26075E+08         0.93640E+05         0.00000E+00
    0.93640E+05        -0.59778E+08         0.00000E+00
    0.00000E+00         0.00000E+00        -0.22632E+08
 
   -0.25840E+08         0.14523E+06         0.00000E+00
    0.14523E+06        -0.59857E+08         0.00000E+00
    0.00000E+00         0.00000E+00        -0.22898E+08
 
   -0.25599E+08         0.21005E+06         0.00000E+00
    0.21005E+06        -0.59975E+08         0.00000E+00
    0.00000E+00         0.00000E+00        -0.23210E+08
 
   -0.25352E+08         0.29850E+06         0.00000E+00
    0.29850E+06        -0.60144E+08         0.00000E+00
    0.00000E+00         0.00000E+00        -0.23582E+08
 
   -0.25104E+08         0.43339E+06         0.00000E+00
    0.43339E+06        -0.60381E+08         0.00000E+00
    0.00000E+00         0.00000E+00        -0.24028E+08
 
   -0.24894E+08         0.65514E+06         0.00000E+00
    0.65514E+06        -0.60706E+08         0.00000E+00
    0.00000E+00         0.00000E+00        -0.24540E+08
 
   -0.29259E+08        -0.65670E+05         0.00000E+00
   -0.65670E+05        -0.59967E+08         0.00000E+00
    0.00000E+00         0.00000E+00        -0.20065E+08
 
   -0.28569E+08        -0.64180E+05         0.00000E+00
   -0.64180E+05        -0.59860E+08         0.00000E+00
    0.00000E+00         0.00000E+00        -0.20413E+08
 
   -0.28075E+08        -0.52367E+05         0.00000E+00
   -0.52367E+05        -0.59754E+08         0.00000E+00
    0.00000E+00         0.00000E+00        -0.20654E+08
 
   -0.27680E+08        -0.41388E+05         0.00000E+00
   -0.41388E+05        -0.59666E+08         0.00000E+00
    0.00000E+00         0.00000E+00        -0.20853E+08
 
   -0.27344E+08        -0.30489E+05         0.00000E+00
   -0.30489E+05        -0.59597E+08         0.00000E+00
    0.00000E+00         0.00000E+00        -0.21033E+08
 
   -0.27048E+08        -0.19514E+05         0.00000E+00
   -0.19514E+05        -0.59549E+08         0.00000E+00
    0.00000E+00         0.00000E+00        -0.21207E+08
 
   -0.26779E+08        -0.82129E+04         0.00000E+00
   -0.82129E+04        -0.59522E+08         0.00000E+00
    0.00000E+00         0.00000E+00        -0.21384E+08
 
   -0.26526E+08         0.37865E+04         0.00000E+00
    0.37865E+04        -0.59519E+08         0.00000E+00
    0.00000E+00         0.00000E+00        -0.21572E+08
 
   -0.26283E+08         0.16850E+05         0.00000E+00
    0.16850E+05        -0.59541E+08         0.00000E+00
    0.00000E+00         0.00000E+00        -0.21777E+08
 
   -0.26044E+08         0.31447E+05         0.00000E+00
    0.31447E+05        -0.59590E+08         0.00000E+00
    0.00000E+00         0.00000E+00        -0.22008E+08
 
   -0.25802E+08         0.48481E+05         0.00000E+00
    0.48481E+05        -0.59671E+08         0.00000E+00
    0.00000E+00         0.00000E+00        -0.22273E+08
 
   -0.25549E+08         0.69640E+05         0.00000E+00
    0.69640E+05        -0.59790E+08         0.00000E+00
    0.00000E+00         0.00000E+00        -0.22587E+08
 
   -0.25279E+08         0.98410E+05         0.00000E+00
    0.98410E+05        -0.59959E+08         0.00000E+00
    0.00000E+00         0.00000E+00        -0.22968E+08
 
   -0.24979E+08         0.14410E+06         0.00000E+00
    0.14410E+06        -0.60199E+08         0.00000E+00
    0.00000E+00         0.00000E+00        -0.23452E+08
 
   -0.24641E+08         0.24298E+06         0.00000E+00
    0.24298E+06        -0.60557E+08         0.00000E+00
    0.00000E+00         0.00000E+00        -0.24098E+08
 
SCALARS stresss double 
LOOKUP_TABLE default
  -41345087.3137432     
  -41308112.5873883     
  -41259217.4972417     
  -41202422.9171052     
  -41172646.9221848     
  -41153802.2395118     
  -41137285.9313233     
  -41117602.7842992     
  -41089919.8876829     
  -41050630.0378110     
  -40995779.7836032     
  -40920705.8630339     
  -40818740.7371042     
  -40678553.9035135     
  -40475778.0543731     
  -41292085.8745436     
  -41275835.7591717     
  -41223114.2701926     
  -41180826.1290118     
  -41120529.2160802     
  -41065946.7200591     
  -41017531.4348012     
  -40969579.8663977     
  -40918119.5799269     
  -40858134.6085417     
  -40784586.3185980     
  -40692709.7704495     
  -40575548.1057754     
  -40424828.1782170     
  -40236483.5216955     
  -41110143.5604068     
  -41122118.1032894     
  -41119814.9733445     
  -41076329.6193628     
  -41023018.4416864     
  -40959385.3966313     
  -40892476.9648032     
  -40824069.2122535     
  -40752111.4119142     
  -40673605.2224712     
  -40584113.5997964     
  -40479181.1801470     
  -40355509.2478460     
  -40214347.1550696     
  -40070401.0959713     
  -40883718.9433311     
  -40901302.3128782     
  -40915491.7289383     
  -40906384.4327042     
  -40870021.7635591     
  -40815711.6773975     
  -40748074.7537199     
  -40671789.9727958     
  -40588627.7516862     
  -40498115.3928450     
  -40398813.8820601     
  -40289556.6105472     
  -40171640.5194154     
  -40051594.8084828     
  -39936522.9267035     
  -40672185.2338038     
  -40681625.0388889     
  -40692027.7863277     
  -40692586.5244615     
  -40674869.1696010     
  -40636012.2599830     
  -40578961.7238387     
  -40506934.1415169     
  -40423388.3223863     
  -40330789.7613652     
  -40231099.6457205     
  -40126722.6916351     
  -40021492.9404624     
  -39919573.1953691     
  -39824585.7509594     
  -40469738.2227307     
  -40468975.1575059     
  -40471799.9251549     
  -40471995.6893327     
  -40461978.7439807     
  -40435606.1547629     
  -40391228.1154143     
  -40330168.4460355     
  -40255289.6104038     
  -40170143.5171036     
  -40078953.5188637     
  -39985884.7803850     
  -39894769.6694283     
  -39808224.2019736     
  -39727616.1425827     
  -40269164.7372287     
  -40264883.6756720     
  -40262853.6116698     
  -40259339.3029792     
  -40249703.8154720     
  -40229697.4546666     
  -40195930.7613261     
  -40147514.0072173     
  -40085948.8801056     
  -40014532.6047998     
  -39937393.5273408     
  -39858774.7755171     
  -39782133.5827067     
  -39709521.1685706     
  -39641313.6258524     
  -40071233.5336173     
  -40066791.7368524     
  -40062216.4725955     
  -40055837.5917026     
  -40045518.2247678     
  -40028592.5545409     
  -40002487.3133660     
  -39965702.4694910     
  -39918546.5105500     
  -39863042.8849106     
  -39802208.9019976     
  -39739201.6731633     
  -39676711.2244085     
  -39616916.4472576     
  -39560939.3985454     
  -39877411.5448596     
  -39872925.1526720     
  -39867741.2675686     
  -39860654.1574257     
  -39850649.3789551     
  -39836365.4741955     
  -39816359.7776047     
  -39789528.6123880     
  -39755639.6742249     
  -39715476.8396213     
  -39670751.0342710     
  -39623328.8035848     
  -39575147.7718262     
  -39527831.5894616     
  -39482893.5850619     
  -39686573.0344905     
  -39682932.5971387     
  -39678326.8028837     
  -39672235.3852741     
  -39664060.4632276     
  -39653189.6059867     
  -39638988.5217283     
  -39620873.5450398     
  -39598497.8527381     
  -39571928.0549401     
  -39541775.3224327     
  -39509014.8615553     
  -39474724.9654995     
  -39439889.5733184     
  -39405184.3717450     
  -39498517.4104301     
  -39496107.1054224     
  -39493150.2269718     
  -39489291.3692467     
  -39484226.9660110     
  -39477725.1903400     
  -39469548.6205046     
  -39459426.4915839     
  -39446993.6908810     
  -39431989.0935622     
  -39414429.6932988     
  -39394702.6060721     
  -39373185.7427810     
  -39350462.6315622     
  -39327149.4539168     
  -39313007.0251806     
  -39312163.0412055     
  -39311502.8256059     
  -39310751.7177219     
  -39309744.6645983     
  -39308343.3460151     
  -39306404.1340915     
  -39303715.8314515     
  -39299985.0744770     
  -39294842.4138645     
  -39287991.4782608     
  -39279301.3651192     
  -39269021.9040939     
  -39257667.2892774     
  -39245919.7908377     
  -39130004.7530042     
  -39130813.0138908     
  -39132801.4873895     
  -39135724.7191887     
  -39139348.9756357     
  -39143480.9220836     
  -39147917.0180308     
  -39152402.5989085     
  -39156593.2804266     
  -39160078.3771100     
  -39162448.5731384     
  -39163479.4658235     
  -39163171.0626483     
  -39161661.0946699     
  -39159138.4620713     
  -38949253.1568440     
  -38951715.8076262     
  -38956555.9523499     
  -38963397.1000017     
  -38971885.3745888     
  -38981681.8965044     
  -38992449.5691464     
  -39003826.1289748     
  -39015410.0129981     
  -39026770.6739784     
  -39037490.9182231     
  -39047197.9244884     
  -39055576.6343858     
  -39062362.6700446     
  -39067435.9368146     
  -38770701.7339559     
  -38774658.9885063     
  -38782286.3098331     
  -38793016.3565703     
  -38806306.9111843     
  -38821637.3776431     
  -38838510.9210827     
  -38856439.5116203     
  -38874942.7847487     
  -38893528.0299095     
  -38911703.4836379     
  -38928995.1774612     
  -38944920.5887290     
  -38959234.5492627     
  -38972301.0924647     
  -38594186.0502580     
  -38599405.0585424     
  -38609577.8710373     
  -38623907.8140537     
  -38641667.3426010     
  -38662159.6931420     
  -38684732.0367834     
  -38708755.2972004     
  -38733627.7785516     
  -38758773.0622858     
  -38783585.0906124     
  -38807519.5452198     
  -38830337.0254186     
  -38852258.4150938     
  -38873620.6662241     
  -38419980.7870726     
  -38426001.9077875     
  -38438172.6617582     
  -38455530.0258774     
  -38477148.9706315     
  -38502178.3214231     
  -38529811.6736183     
  -38559301.3493608     
  -38589898.6822799     
  -38620882.0396955     
  -38651695.9294584     
  -38681967.9228670     
  -38711615.5429443     
  -38740552.1422132     
  -38768255.1925919     
  -38248135.8452715     
  -38254431.5938097     
  -38267912.2684801     
  -38287454.7852821     
  -38312036.9699460     
  -38340692.8803534     
  -38372519.8492266     
  -38406616.2621508     
  -38442173.1441030     
  -38478516.6903312     
  -38515124.6539101     
  -38551617.7532414     
  -38587554.0274846     
  -38622142.2613294     
  -38654942.1461768     
  -38078900.8204804     
  -38084756.3423038     
  -38098650.0446651     
  -38119327.9599641     
  -38145715.2350175     
  -38176819.4484923     
  -38211687.8868867     
  -38249437.3818515     
  -38289286.6075041     
  -38330529.2553322     
  -38372524.5619403     
  -38414607.7374406     
  -38455925.8364087     
  -38495872.7987586     
  -38533761.7773440     
  -37912547.0991640     
  -37917135.5280304     
  -37930364.1691606     
  -37950908.7460029     
  -37977696.5445459     
  -38009793.0243503     
  -38046348.0643895     
  -38086600.1918506     
  -38129750.9102755     
  -38175040.9132618     
  -38221621.2952279     
  -38268578.3553821     
  -38315146.2117845     
  -38360460.1594163     
  -38404650.4211446     
  -37749381.2640508     
  -37751773.6137474     
  -37763146.4428076     
  -37782112.2976788     
  -37807651.3513063     
  -37838988.1687483     
  -37875507.0372979     
  -37916581.1093833     
  -37961595.2634532     
  -38009727.5942782     
  -38060071.7960289     
  -38111683.6253618     
  -38163547.3132749     
  -38215275.9451214     
  -38266603.7333915     
  -37589700.7988168     
  -37588912.4413453     
  -37597161.1387026     
  -37612965.3347943     
  -37635370.1408971     
  -37663805.8144971     
  -37697987.0255608     
  -37737713.0563860     
  -37782676.6061449     
  -37832321.1592655     
  -37885778.7997405     
  -37941996.8431516     
  -37999973.1841190     
  -38059032.6750008     
  -38117352.6530524     
  -37433813.7646324     
  -37428775.1865420     
  -37432571.4527241     
  -37443494.9838847     
  -37460608.3578834     
  -37483609.3043541     
  -37512691.2841188     
  -37548373.1907619     
  -37591050.5980242     
  -37640687.7771996     
  -37696646.4625249     
  -37757705.9463566     
  -37822675.3725024     
  -37889480.5318194     
  -37956245.0502989     
  -37281931.2810850     
  -37271530.9911423     
  -37269427.2221822     
  -37273536.6673002     
  -37282903.3143390     
  -37297604.0287191     
  -37318560.0993040     
  -37347259.4745617     
  -37385120.9046108     
  -37432935.5705793     
  -37490526.9610156     
  -37556647.5463004     
  -37629176.2551496     
  -37705325.0210842     
  -37782792.9805037     
  -37134297.1011078     
  -37117203.3570376     
  -37107458.6432514     
  -37102397.0047654     
  -37101174.9607975     
  -37104574.6380393     
  -37114520.8866140     
  -37133539.8822802     
  -37164023.8770824     
  -37207790.4093536     
  -37265545.8632703     
  -37336361.2705413     
  -37417447.2106760     
  -37505350.8712738     
  -37596563.1606171     
  -36991009.0407384     
  -36965496.7842206     
  -36945643.1171125     
  -36928193.7786873     
  -36913059.0682355     
  -36902407.6273083     
  -36899300.5234397     
  -36906864.8869840     
  -36927987.2243965     
  -36965283.6850128     
  -37020757.8487849     
  -37094917.2541456     
  -37185532.3417156     
  -37288062.4025658     
  -37397173.4380366     
  -36852093.8098450     
  -36815379.8117407     
  -36781234.5865029     
  -36746692.5254403     
  -36714212.4559272     
  -36687962.5740161     
  -36671365.4502972     
  -36667302.5119721     
  -36678393.8521549     
  -36707445.5667965     
  -36757591.9370268     
  -36831824.2022964     
  -36931235.2969958     
  -37051392.0879895     
  -37184228.0358189     
  -36717149.5081689     
  -36663655.7961040     
  -36607222.7058936     
  -36549750.4292888     
  -36498479.8355184     
  -36457444.1373366     
  -36429042.5083432     
  -36415046.4383653     
  -36417278.4972064     
  -36438135.9197614     
  -36481030.8957736     
  -36550736.7856217     
  -36653153.2898171     
  -36792199.8673661     
  -36956843.4073382     
  -36584017.1677837     
  -36498776.5570481     
  -36407339.7161687     
  -36326261.1613761     
  -36259258.2031170     
  -36207271.5987471     
  -36170711.6806665     
  -36150096.7386532     
  -36146458.5958254     
  -36161524.7410059     
  -36198225.1203197     
  -36261366.1818480     
  -36359119.7715404     
  -36504311.4976037     
  -36713295.0139758     
  -36430392.6575831     
  -36280626.7785782     
  -36161205.5286472     
  -36066012.5466020     
  -35991210.0263148     
  -35934557.9838833     
  -35894942.0594740     
  -35872233.0956998     
  -35866980.3951170     
  -35880489.8198269     
  -35915164.5439593     
  -35975298.2782286     
  -36068608.8079738     
  -36210168.6329240     
  -36431993.9829156     
SCALARS 2waySource double 
LOOKUP_TABLE default
  0.000000000000000E+000
  0.000000000000000E+000
  0.000000000000000E+000
  0.000000000000000E+000
  0.000000000000000E+000
  0.000000000000000E+000
  0.000000000000000E+000
  0.000000000000000E+000
  0.000000000000000E+000
  0.000000000000000E+000
  0.000000000000000E+000
  0.000000000000000E+000
  0.000000000000000E+000
  0.000000000000000E+000
  0.000000000000000E+000
  0.000000000000000E+000
  0.000000000000000E+000
  0.000000000000000E+000
  0.000000000000000E+000
  0.000000000000000E+000
  0.000000000000000E+000
  0.000000000000000E+000
  0.000000000000000E+000
  0.000000000000000E+000
  0.000000000000000E+000
  0.000000000000000E+000
  0.000000000000000E+000
  0.000000000000000E+000
  0.000000000000000E+000
  0.000000000000000E+000
  0.000000000000000E+000
  0.000000000000000E+000
  0.000000000000000E+000
  0.000000000000000E+000
  0.000000000000000E+000
  0.000000000000000E+000
  0.000000000000000E+000
  0.000000000000000E+000
  0.000000000000000E+000
  0.000000000000000E+000
  0.000000000000000E+000
  0.000000000000000E+000
  0.000000000000000E+000
  0.000000000000000E+000
  0.000000000000000E+000
  0.000000000000000E+000
  0.000000000000000E+000
  0.000000000000000E+000
  0.000000000000000E+000
  0.000000000000000E+000
  0.000000000000000E+000
  0.000000000000000E+000
  0.000000000000000E+000
  0.000000000000000E+000
  0.000000000000000E+000
  0.000000000000000E+000
  0.000000000000000E+000
  0.000000000000000E+000
  0.000000000000000E+000
  0.000000000000000E+000
  0.000000000000000E+000
  0.000000000000000E+000
  0.000000000000000E+000
  0.000000000000000E+000
  0.000000000000000E+000
  0.000000000000000E+000
  0.000000000000000E+000
  0.000000000000000E+000
  0.000000000000000E+000
  0.000000000000000E+000
  0.000000000000000E+000
  0.000000000000000E+000
  0.000000000000000E+000
  0.000000000000000E+000
  0.000000000000000E+000
  0.000000000000000E+000
  0.000000000000000E+000
  0.000000000000000E+000
  0.000000000000000E+000
  0.000000000000000E+000
  0.000000000000000E+000
  0.000000000000000E+000
  0.000000000000000E+000
  0.000000000000000E+000
  0.000000000000000E+000
  0.000000000000000E+000
  0.000000000000000E+000
  0.000000000000000E+000
  0.000000000000000E+000
  0.000000000000000E+000
  0.000000000000000E+000
  0.000000000000000E+000
  0.000000000000000E+000
  0.000000000000000E+000
  0.000000000000000E+000
  0.000000000000000E+000
  0.000000000000000E+000
  0.000000000000000E+000
  0.000000000000000E+000
  0.000000000000000E+000
  0.000000000000000E+000
  0.000000000000000E+000
  0.000000000000000E+000
  0.000000000000000E+000
  0.000000000000000E+000
  0.000000000000000E+000
  0.000000000000000E+000
  0.000000000000000E+000
  0.000000000000000E+000
  0.000000000000000E+000
  0.000000000000000E+000
  0.000000000000000E+000
  0.000000000000000E+000
  0.000000000000000E+000
  0.000000000000000E+000
  0.000000000000000E+000
  0.000000000000000E+000
  0.000000000000000E+000
  0.000000000000000E+000
  0.000000000000000E+000
  0.000000000000000E+000
  0.000000000000000E+000
  0.000000000000000E+000
  0.000000000000000E+000
  0.000000000000000E+000
  0.000000000000000E+000
  0.000000000000000E+000
  0.000000000000000E+000
  0.000000000000000E+000
  0.000000000000000E+000
  0.000000000000000E+000
  0.000000000000000E+000
  0.000000000000000E+000
  0.000000000000000E+000
  0.000000000000000E+000
  0.000000000000000E+000
  0.000000000000000E+000
  0.000000000000000E+000
  0.000000000000000E+000
  0.000000000000000E+000
  0.000000000000000E+000
  0.000000000000000E+000
  0.000000000000000E+000
  0.000000000000000E+000
  0.000000000000000E+000
  0.000000000000000E+000
  0.000000000000000E+000
  0.000000000000000E+000
  0.000000000000000E+000
  0.000000000000000E+000
  0.000000000000000E+000
  0.000000000000000E+000
  0.000000000000000E+000
  0.000000000000000E+000
  0.000000000000000E+000
  0.000000000000000E+000
  0.000000000000000E+000
  0.000000000000000E+000
  0.000000000000000E+000
  0.000000000000000E+000
  0.000000000000000E+000
  0.000000000000000E+000
  0.000000000000000E+000
  0.000000000000000E+000
  0.000000000000000E+000
  0.000000000000000E+000
  0.000000000000000E+000
  0.000000000000000E+000
  0.000000000000000E+000
  0.000000000000000E+000
  0.000000000000000E+000
  0.000000000000000E+000
  0.000000000000000E+000
  0.000000000000000E+000
  0.000000000000000E+000
  0.000000000000000E+000
  0.000000000000000E+000
  0.000000000000000E+000
  0.000000000000000E+000
  0.000000000000000E+000
  0.000000000000000E+000
  0.000000000000000E+000
  0.000000000000000E+000
  0.000000000000000E+000
  0.000000000000000E+000
  0.000000000000000E+000
  0.000000000000000E+000
  0.000000000000000E+000
  0.000000000000000E+000
  0.000000000000000E+000
  0.000000000000000E+000
  0.000000000000000E+000
  0.000000000000000E+000
  0.000000000000000E+000
  0.000000000000000E+000
  0.000000000000000E+000
  0.000000000000000E+000
  0.000000000000000E+000
  0.000000000000000E+000
  0.000000000000000E+000
  0.000000000000000E+000
  0.000000000000000E+000
  0.000000000000000E+000
  0.000000000000000E+000
  0.000000000000000E+000
  0.000000000000000E+000
  0.000000000000000E+000
  0.000000000000000E+000
  0.000000000000000E+000
  0.000000000000000E+000
  0.000000000000000E+000
  0.000000000000000E+000
  0.000000000000000E+000
  0.000000000000000E+000
  0.000000000000000E+000
  0.000000000000000E+000
  0.000000000000000E+000
  0.000000000000000E+000
  0.000000000000000E+000
  0.000000000000000E+000
  0.000000000000000E+000
  0.000000000000000E+000
  0.000000000000000E+000
  0.000000000000000E+000
  0.000000000000000E+000
  0.000000000000000E+000
  0.000000000000000E+000
  0.000000000000000E+000
  0.000000000000000E+000
  0.000000000000000E+000
  0.000000000000000E+000
  0.000000000000000E+000
  0.000000000000000E+000
  0.000000000000000E+000
  0.000000000000000E+000
  0.000000000000000E+000
  0.000000000000000E+000
  0.000000000000000E+000
  0.000000000000000E+000
  0.000000000000000E+000
  0.000000000000000E+000
  0.000000000000000E+000
  0.000000000000000E+000
  0.000000000000000E+000
  0.000000000000000E+000
  0.000000000000000E+000
  0.000000000000000E+000
  0.000000000000000E+000
  0.000000000000000E+000
  0.000000000000000E+000
  0.000000000000000E+000
  0.000000000000000E+000
  0.000000000000000E+000
  0.000000000000000E+000
  0.000000000000000E+000
  0.000000000000000E+000
  0.000000000000000E+000
  0.000000000000000E+000
  0.000000000000000E+000
  0.000000000000000E+000
  0.000000000000000E+000
  0.000000000000000E+000
  0.000000000000000E+000
  0.000000000000000E+000
  0.000000000000000E+000
  0.000000000000000E+000
  0.000000000000000E+000
  0.000000000000000E+000
  0.000000000000000E+000
  0.000000000000000E+000
  0.000000000000000E+000
  0.000000000000000E+000
  0.000000000000000E+000
  0.000000000000000E+000
  0.000000000000000E+000
  0.000000000000000E+000
  0.000000000000000E+000
  0.000000000000000E+000
  0.000000000000000E+000
  0.000000000000000E+000
  0.000000000000000E+000
  0.000000000000000E+000
  0.000000000000000E+000
  0.000000000000000E+000
  0.000000000000000E+000
  0.000000000000000E+000
  0.000000000000000E+000
  0.000000000000000E+000
  0.000000000000000E+000
  0.000000000000000E+000
  0.000000000000000E+000
  0.000000000000000E+000
  0.000000000000000E+000
  0.000000000000000E+000
  0.000000000000000E+000
  0.000000000000000E+000
  0.000000000000000E+000
  0.000000000000000E+000
  0.000000000000000E+000
  0.000000000000000E+000
  0.000000000000000E+000
  0.000000000000000E+000
  0.000000000000000E+000
  0.000000000000000E+000
  0.000000000000000E+000
  0.000000000000000E+000
  0.000000000000000E+000
  0.000000000000000E+000
  0.000000000000000E+000
  0.000000000000000E+000
  0.000000000000000E+000
  0.000000000000000E+000
  0.000000000000000E+000
  0.000000000000000E+000
  0.000000000000000E+000
  0.000000000000000E+000
  0.000000000000000E+000
  0.000000000000000E+000
  0.000000000000000E+000
  0.000000000000000E+000
  0.000000000000000E+000
  0.000000000000000E+000
  0.000000000000000E+000
  0.000000000000000E+000
  0.000000000000000E+000
  0.000000000000000E+000
  0.000000000000000E+000
  0.000000000000000E+000
  0.000000000000000E+000
  0.000000000000000E+000
  0.000000000000000E+000
  0.000000000000000E+000
  0.000000000000000E+000
  0.000000000000000E+000
  0.000000000000000E+000
  0.000000000000000E+000
  0.000000000000000E+000
  0.000000000000000E+000
  0.000000000000000E+000
  0.000000000000000E+000
  0.000000000000000E+000
  0.000000000000000E+000
  0.000000000000000E+000
  0.000000000000000E+000
  0.000000000000000E+000
  0.000000000000000E+000
  0.000000000000000E+000
  0.000000000000000E+000
  0.000000000000000E+000
  0.000000000000000E+000
  0.000000000000000E+000
  0.000000000000000E+000
  0.000000000000000E+000
  0.000000000000000E+000
  0.000000000000000E+000
  0.000000000000000E+000
  0.000000000000000E+000
  0.000000000000000E+000
  0.000000000000000E+000
  0.000000000000000E+000
  0.000000000000000E+000
  0.000000000000000E+000
  0.000000000000000E+000
  0.000000000000000E+000
  0.000000000000000E+000
  0.000000000000000E+000
  0.000000000000000E+000
  0.000000000000000E+000
  0.000000000000000E+000
  0.000000000000000E+000
  0.000000000000000E+000
  0.000000000000000E+000
  0.000000000000000E+000
  0.000000000000000E+000
  0.000000000000000E+000
  0.000000000000000E+000
  0.000000000000000E+000
  0.000000000000000E+000
  0.000000000000000E+000
  0.000000000000000E+000
  0.000000000000000E+000
  0.000000000000000E+000
  0.000000000000000E+000
  0.000000000000000E+000
  0.000000000000000E+000
  0.000000000000000E+000
  0.000000000000000E+000
  0.000000000000000E+000
  0.000000000000000E+000
  0.000000000000000E+000
  0.000000000000000E+000
  0.000000000000000E+000
  0.000000000000000E+000
  0.000000000000000E+000
  0.000000000000000E+000
  0.000000000000000E+000
  0.000000000000000E+000
  0.000000000000000E+000
  0.000000000000000E+000
  0.000000000000000E+000
  0.000000000000000E+000
  0.000000000000000E+000
  0.000000000000000E+000
  0.000000000000000E+000
  0.000000000000000E+000
  0.000000000000000E+000
  0.000000000000000E+000
  0.000000000000000E+000
  0.000000000000000E+000
  0.000000000000000E+000
  0.000000000000000E+000
  0.000000000000000E+000
  0.000000000000000E+000
  0.000000000000000E+000
  0.000000000000000E+000
  0.000000000000000E+000
  0.000000000000000E+000
  0.000000000000000E+000
  0.000000000000000E+000
  0.000000000000000E+000
  0.000000000000000E+000
  0.000000000000000E+000
  0.000000000000000E+000
  0.000000000000000E+000
  0.000000000000000E+000
  0.000000000000000E+000
  0.000000000000000E+000
  0.000000000000000E+000
  0.000000000000000E+000
  0.000000000000000E+000
  0.000000000000000E+000
  0.000000000000000E+000
  0.000000000000000E+000
  0.000000000000000E+000
  0.000000000000000E+000
  0.000000000000000E+000
  0.000000000000000E+000
  0.000000000000000E+000
  0.000000000000000E+000
  0.000000000000000E+000
  0.000000000000000E+000
  0.000000000000000E+000
  0.000000000000000E+000
  0.000000000000000E+000
  0.000000000000000E+000
  0.000000000000000E+000
  0.000000000000000E+000
  0.000000000000000E+000
  0.000000000000000E+000
  0.000000000000000E+000
SCALARS elementIsPlast double 
LOOKUP_TABLE default
  0.000000000000000E+000
  0.000000000000000E+000
  0.000000000000000E+000
  0.000000000000000E+000
  0.000000000000000E+000
  0.000000000000000E+000
  0.000000000000000E+000
  0.000000000000000E+000
  0.000000000000000E+000
  0.000000000000000E+000
  0.000000000000000E+000
  0.000000000000000E+000
  0.000000000000000E+000
  0.000000000000000E+000
  0.000000000000000E+000
  0.000000000000000E+000
  0.000000000000000E+000
  0.000000000000000E+000
  0.000000000000000E+000
  0.000000000000000E+000
  0.000000000000000E+000
  0.000000000000000E+000
  0.000000000000000E+000
  0.000000000000000E+000
  0.000000000000000E+000
  0.000000000000000E+000
  0.000000000000000E+000
  0.000000000000000E+000
  0.000000000000000E+000
  0.000000000000000E+000
  0.000000000000000E+000
  0.000000000000000E+000
  0.000000000000000E+000
  0.000000000000000E+000
  0.000000000000000E+000
  0.000000000000000E+000
  0.000000000000000E+000
  0.000000000000000E+000
  0.000000000000000E+000
  0.000000000000000E+000
  0.000000000000000E+000
  0.000000000000000E+000
  0.000000000000000E+000
  0.000000000000000E+000
  0.000000000000000E+000
  0.000000000000000E+000
  0.000000000000000E+000
  0.000000000000000E+000
  0.000000000000000E+000
  0.000000000000000E+000
  0.000000000000000E+000
  0.000000000000000E+000
  0.000000000000000E+000
  0.000000000000000E+000
  0.000000000000000E+000
  0.000000000000000E+000
  0.000000000000000E+000
  0.000000000000000E+000
  0.000000000000000E+000
  0.000000000000000E+000
  0.000000000000000E+000
  0.000000000000000E+000
  0.000000000000000E+000
  0.000000000000000E+000
  0.000000000000000E+000
  0.000000000000000E+000
  0.000000000000000E+000
  0.000000000000000E+000
  0.000000000000000E+000
  0.000000000000000E+000
  0.000000000000000E+000
  0.000000000000000E+000
  0.000000000000000E+000
  0.000000000000000E+000
  0.000000000000000E+000
  0.000000000000000E+000
  0.000000000000000E+000
  0.000000000000000E+000
  0.000000000000000E+000
  0.000000000000000E+000
  0.000000000000000E+000
  0.000000000000000E+000
  0.000000000000000E+000
  0.000000000000000E+000
  0.000000000000000E+000
  0.000000000000000E+000
  0.000000000000000E+000
  0.000000000000000E+000
  0.000000000000000E+000
  0.000000000000000E+000
  0.000000000000000E+000
  0.000000000000000E+000
  0.000000000000000E+000
  0.000000000000000E+000
  0.000000000000000E+000
  0.000000000000000E+000
  0.000000000000000E+000
  0.000000000000000E+000
  0.000000000000000E+000
  0.000000000000000E+000
  0.000000000000000E+000
  0.000000000000000E+000
  0.000000000000000E+000
  0.000000000000000E+000
  0.000000000000000E+000
  0.000000000000000E+000
  0.000000000000000E+000
  0.000000000000000E+000
  0.000000000000000E+000
  0.000000000000000E+000
  0.000000000000000E+000
  0.000000000000000E+000
  0.000000000000000E+000
  0.000000000000000E+000
  0.000000000000000E+000
  0.000000000000000E+000
  0.000000000000000E+000
  0.000000000000000E+000
  0.000000000000000E+000
  0.000000000000000E+000
  0.000000000000000E+000
  0.000000000000000E+000
  0.000000000000000E+000
  0.000000000000000E+000
  0.000000000000000E+000
  0.000000000000000E+000
  0.000000000000000E+000
  0.000000000000000E+000
  0.000000000000000E+000
  0.000000000000000E+000
  0.000000000000000E+000
  0.000000000000000E+000
  0.000000000000000E+000
  0.000000000000000E+000
  0.000000000000000E+000
  0.000000000000000E+000
  0.000000000000000E+000
  0.000000000000000E+000
  0.000000000000000E+000
  0.000000000000000E+000
  0.000000000000000E+000
  0.000000000000000E+000
  0.000000000000000E+000
  0.000000000000000E+000
  0.000000000000000E+000
  0.000000000000000E+000
  0.000000000000000E+000
  0.000000000000000E+000
  0.000000000000000E+000
  0.000000000000000E+000
  0.000000000000000E+000
  0.000000000000000E+000
  0.000000000000000E+000
  0.000000000000000E+000
  0.000000000000000E+000
  0.000000000000000E+000
  0.000000000000000E+000
  0.000000000000000E+000
  0.000000000000000E+000
  0.000000000000000E+000
  0.000000000000000E+000
  0.000000000000000E+000
  0.000000000000000E+000
  0.000000000000000E+000
  0.000000000000000E+000
  0.000000000000000E+000
  0.000000000000000E+000
  0.000000000000000E+000
  0.000000000000000E+000
  0.000000000000000E+000
  0.000000000000000E+000
  0.000000000000000E+000
  0.000000000000000E+000
  0.000000000000000E+000
  0.000000000000000E+000
  0.000000000000000E+000
  0.000000000000000E+000
  0.000000000000000E+000
  0.000000000000000E+000
  0.000000000000000E+000
  0.000000000000000E+000
  0.000000000000000E+000
  0.000000000000000E+000
  0.000000000000000E+000
  0.000000000000000E+000
  0.000000000000000E+000
  0.000000000000000E+000
  0.000000000000000E+000
  0.000000000000000E+000
  0.000000000000000E+000
  0.000000000000000E+000
  0.000000000000000E+000
  0.000000000000000E+000
  0.000000000000000E+000
  0.000000000000000E+000
  0.000000000000000E+000
  0.000000000000000E+000
  0.000000000000000E+000
  0.000000000000000E+000
  0.000000000000000E+000
  0.000000000000000E+000
  0.000000000000000E+000
  0.000000000000000E+000
  0.000000000000000E+000
  0.000000000000000E+000
  0.000000000000000E+000
  0.000000000000000E+000
  0.000000000000000E+000
  0.000000000000000E+000
  0.000000000000000E+000
  0.000000000000000E+000
  0.000000000000000E+000
  0.000000000000000E+000
  0.000000000000000E+000
  0.000000000000000E+000
  0.000000000000000E+000
  0.000000000000000E+000
  0.000000000000000E+000
  0.000000000000000E+000
  0.000000000000000E+000
  0.000000000000000E+000
  0.000000000000000E+000
  0.000000000000000E+000
  0.000000000000000E+000
  0.000000000000000E+000
  0.000000000000000E+000
  0.000000000000000E+000
  0.000000000000000E+000
  0.000000000000000E+000
  0.000000000000000E+000
  0.000000000000000E+000
  0.000000000000000E+000
  0.000000000000000E+000
  0.000000000000000E+000
  0.000000000000000E+000
  0.000000000000000E+000
  0.000000000000000E+000
  0.000000000000000E+000
  0.000000000000000E+000
  0.000000000000000E+000
  0.000000000000000E+000
  0.000000000000000E+000
  0.000000000000000E+000
  0.000000000000000E+000
  0.000000000000000E+000
  0.000000000000000E+000
  0.000000000000000E+000
  0.000000000000000E+000
  0.000000000000000E+000
  0.000000000000000E+000
  0.000000000000000E+000
  0.000000000000000E+000
  0.000000000000000E+000
  0.000000000000000E+000
  0.000000000000000E+000
  0.000000000000000E+000
  0.000000000000000E+000
  0.000000000000000E+000
  0.000000000000000E+000
  0.000000000000000E+000
  0.000000000000000E+000
  0.000000000000000E+000
  0.000000000000000E+000
  0.000000000000000E+000
  0.000000000000000E+000
  0.000000000000000E+000
  0.000000000000000E+000
  0.000000000000000E+000
  0.000000000000000E+000
  0.000000000000000E+000
  0.000000000000000E+000
  0.000000000000000E+000
  0.000000000000000E+000
  0.000000000000000E+000
  0.000000000000000E+000
  0.000000000000000E+000
  0.000000000000000E+000
  0.000000000000000E+000
  0.000000000000000E+000
  0.000000000000000E+000
  0.000000000000000E+000
  0.000000000000000E+000
  0.000000000000000E+000
  0.000000000000000E+000
  0.000000000000000E+000
  0.000000000000000E+000
  0.000000000000000E+000
  0.000000000000000E+000
  0.000000000000000E+000
  0.000000000000000E+000
  0.000000000000000E+000
  0.000000000000000E+000
  0.000000000000000E+000
  0.000000000000000E+000
  0.000000000000000E+000
  0.000000000000000E+000
  0.000000000000000E+000
  0.000000000000000E+000
  0.000000000000000E+000
  0.000000000000000E+000
  0.000000000000000E+000
  0.000000000000000E+000
  0.000000000000000E+000
  0.000000000000000E+000
  0.000000000000000E+000
  0.000000000000000E+000
  0.000000000000000E+000
  0.000000000000000E+000
  0.000000000000000E+000
  0.000000000000000E+000
  0.000000000000000E+000
  0.000000000000000E+000
  0.000000000000000E+000
  0.000000000000000E+000
  0.000000000000000E+000
  0.000000000000000E+000
  0.000000000000000E+000
  0.000000000000000E+000
  0.000000000000000E+000
  0.000000000000000E+000
  0.000000000000000E+000
  0.000000000000000E+000
  0.000000000000000E+000
  0.000000000000000E+000
  0.000000000000000E+000
  0.000000000000000E+000
  0.000000000000000E+000
  0.000000000000000E+000
  0.000000000000000E+000
  0.000000000000000E+000
  0.000000000000000E+000
  0.000000000000000E+000
  0.000000000000000E+000
  0.000000000000000E+000
  0.000000000000000E+000
  0.000000000000000E+000
  0.000000000000000E+000
  0.000000000000000E+000
  0.000000000000000E+000
  0.000000000000000E+000
  0.000000000000000E+000
  0.000000000000000E+000
  0.000000000000000E+000
  0.000000000000000E+000
  0.000000000000000E+000
  0.000000000000000E+000
  0.000000000000000E+000
  0.000000000000000E+000
  0.000000000000000E+000
  0.000000000000000E+000
  0.000000000000000E+000
  0.000000000000000E+000
  0.000000000000000E+000
  0.000000000000000E+000
  0.000000000000000E+000
  0.000000000000000E+000
  0.000000000000000E+000
  0.000000000000000E+000
  0.000000000000000E+000
  0.000000000000000E+000
  0.000000000000000E+000
  0.000000000000000E+000
  0.000000000000000E+000
  0.000000000000000E+000
  0.000000000000000E+000
  0.000000000000000E+000
  0.000000000000000E+000
  0.000000000000000E+000
  0.000000000000000E+000
  0.000000000000000E+000
  0.000000000000000E+000
  0.000000000000000E+000
  0.000000000000000E+000
  0.000000000000000E+000
  0.000000000000000E+000
  0.000000000000000E+000
  0.000000000000000E+000
  0.000000000000000E+000
  0.000000000000000E+000
  0.000000000000000E+000
  0.000000000000000E+000
  0.000000000000000E+000
  0.000000000000000E+000
  0.000000000000000E+000
  0.000000000000000E+000
  0.000000000000000E+000
  0.000000000000000E+000
  0.000000000000000E+000
  0.000000000000000E+000
  0.000000000000000E+000
  0.000000000000000E+000
  0.000000000000000E+000
  0.000000000000000E+000
  0.000000000000000E+000
  0.000000000000000E+000
  0.000000000000000E+000
  0.000000000000000E+000
  0.000000000000000E+000
  0.000000000000000E+000
  0.000000000000000E+000
  0.000000000000000E+000
  0.000000000000000E+000
  0.000000000000000E+000
  0.000000000000000E+000
  0.000000000000000E+000
  0.000000000000000E+000
  0.000000000000000E+000
  0.000000000000000E+000
  0.000000000000000E+000
  0.000000000000000E+000
  0.000000000000000E+000
  0.000000000000000E+000
  0.000000000000000E+000
  0.000000000000000E+000
  0.000000000000000E+000
  0.000000000000000E+000
  0.000000000000000E+000
  0.000000000000000E+000
  0.000000000000000E+000
  0.000000000000000E+000
  0.000000000000000E+000
  0.000000000000000E+000
  0.000000000000000E+000
  0.000000000000000E+000
  0.000000000000000E+000
  0.000000000000000E+000
  0.000000000000000E+000
  0.000000000000000E+000
  0.000000000000000E+000
  0.000000000000000E+000
  0.000000000000000E+000
  0.000000000000000E+000
  0.000000000000000E+000
  0.000000000000000E+000
  0.000000000000000E+000
  0.000000000000000E+000
  0.000000000000000E+000
  0.000000000000000E+000
  0.000000000000000E+000
  0.000000000000000E+000
  0.000000000000000E+000
  0.000000000000000E+000
  0.000000000000000E+000
  0.000000000000000E+000
  0.000000000000000E+000
  0.000000000000000E+000
  0.000000000000000E+000
  0.000000000000000E+000
  0.000000000000000E+000
  0.000000000000000E+000
SCALARS poroL double 
LOOKUP_TABLE default
  0.249999993691451     
  0.249999993162880     
  0.249999992641572     
  0.249999992224482     
  0.249999991895485     
  0.249999991608254     
  0.249999991355199     
  0.249999991131786     
  0.249999990933583     
  0.249999990754924     
  0.249999990595021     
  0.249999990452411     
  0.249999990326199     
  0.249999990217479     
  0.249999990131306     
  0.249999992358172     
  0.249999992004742     
  0.249999991665575     
  0.249999991460671     
  0.249999991272214     
  0.249999991075741     
  0.249999990884689     
  0.249999990707468     
  0.249999990544370     
  0.249999990397317     
  0.249999990266146     
  0.249999990150723     
  0.249999990053879     
  0.249999989981638     
  0.249999989946797     
  0.249999991180257     
  0.249999991024229     
  0.249999990932554     
  0.249999990838488     
  0.249999990719215     
  0.249999990588567     
  0.249999990453069     
  0.249999990318964     
  0.249999990191296     
  0.249999990074252     
  0.249999989970396     
  0.249999989882570     
  0.249999989814406     
  0.249999989769783     
  0.249999989745295     
  0.249999990650088     
  0.249999990523821     
  0.249999990414955     
  0.249999990322839     
  0.249999990235715     
  0.249999990145660     
  0.249999990052371     
  0.249999989956139     
  0.249999989861756     
  0.249999989774076     
  0.249999989696758     
  0.249999989633507     
  0.249999989586755     
  0.249999989554893     
  0.249999989534039     
  0.249999990236879     
  0.249999990102453     
  0.249999989990451     
  0.249999989899528     
  0.249999989822806     
  0.249999989753172     
  0.249999989685117     
  0.249999989617278     
  0.249999989551367     
  0.249999989489887     
  0.249999989435736     
  0.249999989391482     
  0.249999989357796     
  0.249999989333031     
  0.249999989313700     
  0.249999989836872     
  0.249999989721819     
  0.249999989622410     
  0.249999989536897     
  0.249999989465009     
  0.249999989404765     
  0.249999989351575     
  0.249999989302826     
  0.249999989257827     
  0.249999989216879     
  0.249999989180642     
  0.249999989149859     
  0.249999989124540     
  0.249999989103856     
  0.249999989086034     
  0.249999989461586     
  0.249999989367480     
  0.249999989282121     
  0.249999989206920     
  0.249999989143444     
  0.249999989090719     
  0.249999989046951     
  0.249999989010298     
  0.249999988979088     
  0.249999988952103     
  0.249999988928459     
  0.249999988907242     
  0.249999988887677     
  0.249999988869480     
  0.249999988852692     
  0.249999989108206     
  0.249999989029998     
  0.249999988959522     
  0.249999988897472     
  0.249999988844270     
  0.249999988799784     
  0.249999988763658     
  0.249999988734928     
  0.249999988712172     
  0.249999988693770     
  0.249999988678024     
  0.249999988663394     
  0.249999988648707     
  0.249999988633202     
  0.249999988616657     
  0.249999988769035     
  0.249999988706503     
  0.249999988650567     
  0.249999988601421     
  0.249999988558840     
  0.249999988522975     
  0.249999988493950     
  0.249999988471324     
  0.249999988454059     
  0.249999988440677     
  0.249999988429546     
  0.249999988419075     
  0.249999988407808     
  0.249999988394850     
  0.249999988379252     
  0.249999988442923     
  0.249999988394818     
  0.249999988352205     
  0.249999988314684     
  0.249999988282130     
  0.249999988254663     
  0.249999988232357     
  0.249999988215017     
  0.249999988201879     
  0.249999988191727     
  0.249999988183277     
  0.249999988175225     
  0.249999988166134     
  0.249999988154817     
  0.249999988140842     
  0.249999988128297     
  0.249999988092906     
  0.249999988061766     
  0.249999988034514     
  0.249999988011094     
  0.249999987991457     
  0.249999987975508     
  0.249999987963011     
  0.249999987953469     
  0.249999987946003     
  0.249999987939495     
  0.249999987932843     
  0.249999987925028     
  0.249999987914972     
  0.249999987902079     
  0.249999987822864     
  0.249999987798341     
  0.249999987777126     
  0.249999987758987     
  0.249999987743751     
  0.249999987731262     
  0.249999987721319     
  0.249999987713620     
  0.249999987707679     
  0.249999987702831     
  0.249999987698271     
  0.249999987693171     
  0.249999987686688     
  0.249999987677883     
  0.249999987665383     
  0.249999987523979     
  0.249999987509001     
  0.249999987496648     
  0.249999987486660     
  0.249999987478810     
  0.249999987472851     
  0.249999987468504     
  0.249999987465418     
  0.249999987463159     
  0.249999987461191     
  0.249999987458911     
  0.249999987455623     
  0.249999987450533     
  0.249999987442788     
  0.249999987431421     
  0.249999987229630     
  0.249999987223280     
  0.249999987218977     
  0.249999987216437     
  0.249999987215387     
  0.249999987215532     
  0.249999987216534     
  0.249999987218009     
  0.249999987219533     
  0.249999987220632     
  0.249999987220771     
  0.249999987219347     
  0.249999987215696     
  0.249999987209221     
  0.249999987199664     
  0.249999986938151     
  0.249999986939793     
  0.249999986943000     
  0.249999986947453     
  0.249999986952866     
  0.249999986958911     
  0.249999986965200     
  0.249999986971306     
  0.249999986976780     
  0.249999986981161     
  0.249999986983959     
  0.249999986984662     
  0.249999986982765     
  0.249999986977819     
  0.249999986969569     
  0.249999986648327     
  0.249999986657481     
  0.249999986667807     
  0.249999986679045     
  0.249999986690840     
  0.249999986702800     
  0.249999986714473     
  0.249999986725382     
  0.249999986735053     
  0.249999986743003     
  0.249999986748786     
  0.249999986752020     
  0.249999986752306     
  0.249999986749117     
  0.249999986741715     
  0.249999986358499     
  0.249999986375147     
  0.249999986392627     
  0.249999986410707     
  0.249999986429024     
  0.249999986447107     
  0.249999986464437     
  0.249999986480461     
  0.249999986494671     
  0.249999986506681     
  0.249999986516056     
  0.249999986522342     
  0.249999986525106     
  0.249999986523748     
  0.249999986517660     
  0.249999986067656     
  0.249999986091926     
  0.249999986116805     
  0.249999986142042     
  0.249999986167230     
  0.249999986191837     
  0.249999986215250     
  0.249999986236912     
  0.249999986256325     
  0.249999986272966     
  0.249999986286355     
  0.249999986295935     
  0.249999986301102     
  0.249999986301653     
  0.249999986297498     
  0.249999985775005     
  0.249999985807229     
  0.249999985839904     
  0.249999985872767     
  0.249999985905349     
  0.249999985937039     
  0.249999985967176     
  0.249999985995132     
  0.249999986020287     
  0.249999986042011     
  0.249999986059629     
  0.249999986072554     
  0.249999986080506     
  0.249999986083312     
  0.249999986081281     
  0.249999985480008     
  0.249999985520653     
  0.249999985561653     
  0.249999985602725     
  0.249999985643338     
  0.249999985682797     
  0.249999985720348     
  0.249999985755220     
  0.249999985786648     
  0.249999985813807     
  0.249999985835998     
  0.249999985852779     
  0.249999985863881     
  0.249999985869406     
  0.249999985869168     
  0.249999985182338     
  0.249999985231987     
  0.249999985281930     
  0.249999985331865     
  0.249999985381197     
  0.249999985429136     
  0.249999985474786     
  0.249999985517241     
  0.249999985555491     
  0.249999985588616     
  0.249999985615931     
  0.249999985637013     
  0.249999985651767     
  0.249999985660020     
  0.249999985661610     
  0.249999984881871     
  0.249999984941200     
  0.249999985000772     
  0.249999985060258     
  0.249999985118997     
  0.249999985176101     
  0.249999985230553     
  0.249999985281230     
  0.249999985326924     
  0.249999985366606     
  0.249999985399598     
  0.249999985425502     
  0.249999985444135     
  0.249999985455321     
  0.249999985459569     
  0.249999984578628     
  0.249999984648441     
  0.249999984718401     
  0.249999984788163     
  0.249999984856979     
  0.249999984923855     
  0.249999984987670     
  0.249999985047089     
  0.249999985100755     
  0.249999985147575     
  0.249999985186766     
  0.249999985217942     
  0.249999985240807     
  0.249999985255647     
  0.249999985263011     
  0.249999984272793     
  0.249999984354041     
  0.249999984435304     
  0.249999984516142     
  0.249999984595661     
  0.249999984672742     
  0.249999984746148     
  0.249999984814468     
  0.249999984876371     
  0.249999984930751     
  0.249999984976731     
  0.249999985013733     
  0.249999985041589     
  0.249999985060756     
  0.249999985071901     
  0.249999983964517     
  0.249999984058568     
  0.249999984152346     
  0.249999984245209     
  0.249999984335973     
  0.249999984423312     
  0.249999984505962     
  0.249999984582727     
  0.249999984652623     
  0.249999984714720     
  0.249999984768085     
  0.249999984811875     
  0.249999984845792     
  0.249999984870189     
  0.249999984886044     
  0.249999983654127     
  0.249999983762973     
  0.249999983870997     
  0.249999983977049     
  0.249999984079372     
  0.249999984176400     
  0.249999984267150     
  0.249999984351093     
  0.249999984427978     
  0.249999984497426     
  0.249999984558688     
  0.249999984610582     
  0.249999984652083     
  0.249999984683167     
  0.249999984705045     
  0.249999983342056     
  0.249999983468938     
  0.249999983593804     
  0.249999983714296     
  0.249999983827768     
  0.249999983932909     
  0.249999984029774     
  0.249999984118886     
  0.249999984200965     
  0.249999984276506     
  0.249999984345457     
  0.249999984406795     
  0.249999984458189     
  0.249999984498306     
  0.249999984528198     
  0.249999983029290     
  0.249999983179885     
  0.249999983325325     
  0.249999983460565     
  0.249999983582986     
  0.249999983693562     
  0.249999983793935     
  0.249999983885770     
  0.249999983970666     
  0.249999984050002     
  0.249999984124765     
  0.249999984195254     
  0.249999984259757     
  0.249999984312929     
  0.249999984354349     
  0.249999982718832     
  0.249999982904116     
  0.249999983073067     
  0.249999983218940     
  0.249999983346232     
  0.249999983458860     
  0.249999983559921     
  0.249999983651914     
  0.249999983736968     
  0.249999983817090     
  0.249999983894137     
  0.249999983970084     
  0.249999984046380     
  0.249999984121429     
  0.249999984180456     
  0.249999982426877     
  0.249999982661650     
  0.249999982842026     
  0.249999982990949     
  0.249999983118208     
  0.249999983229451     
  0.249999983328423     
  0.249999983417962     
  0.249999983500457     
  0.249999983578097     
  0.249999983653159     
  0.249999983728237     
  0.249999983807331     
  0.249999983896681     
  0.249999984005725     
