# vtk DataFile Version 3.0
vtk output
ASCII
DATASET UNSTRUCTURED_GRID
POINTS       496 double 
  0.00000000E+00  3.00000000E+02  0.00000000E+00
  0.00000000E+00  2.80000000E+02  0.00000000E+00
  0.00000000E+00  2.60000000E+02  0.00000000E+00
  0.00000000E+00  2.40000000E+02  0.00000000E+00
  0.00000000E+00  2.20000000E+02  0.00000000E+00
  0.00000000E+00  2.00000000E+02  0.00000000E+00
  0.00000000E+00  1.80000000E+02  0.00000000E+00
  0.00000000E+00  1.60000000E+02  0.00000000E+00
  0.00000000E+00  1.40000000E+02  0.00000000E+00
  0.00000000E+00  1.20000000E+02  0.00000000E+00
  0.00000000E+00  1.00000000E+02  0.00000000E+00
  0.00000000E+00  8.00000000E+01  0.00000000E+00
  0.00000000E+00  6.00000000E+01  0.00000000E+00
  0.00000000E+00  4.00000000E+01  0.00000000E+00
  0.00000000E+00  2.00000000E+01  0.00000000E+00
  0.00000000E+00  4.99600361E-14  0.00000000E+00
  2.00000000E+01  3.00000000E+02  0.00000000E+00
  2.00000000E+01  2.80000000E+02  0.00000000E+00
  2.00000000E+01  2.60000000E+02  0.00000000E+00
  2.00000000E+01  2.40000000E+02  0.00000000E+00
  2.00000000E+01  2.20000000E+02  0.00000000E+00
  2.00000000E+01  2.00000000E+02  0.00000000E+00
  2.00000000E+01  1.80000000E+02  0.00000000E+00
  2.00000000E+01  1.60000000E+02  0.00000000E+00
  2.00000000E+01  1.40000000E+02  0.00000000E+00
  2.00000000E+01  1.20000000E+02  0.00000000E+00
  2.00000000E+01  1.00000000E+02  0.00000000E+00
  2.00000000E+01  8.00000000E+01  0.00000000E+00
  2.00000000E+01  6.00000000E+01  0.00000000E+00
  2.00000000E+01  4.00000000E+01  0.00000000E+00
  2.00000000E+01  2.00000000E+01  0.00000000E+00
  2.00000000E+01  4.99600361E-14  0.00000000E+00
  4.00000000E+01  3.00000000E+02  0.00000000E+00
  4.00000000E+01  2.80000000E+02  0.00000000E+00
  4.00000000E+01  2.60000000E+02  0.00000000E+00
  4.00000000E+01  2.40000000E+02  0.00000000E+00
  4.00000000E+01  2.20000000E+02  0.00000000E+00
  4.00000000E+01  2.00000000E+02  0.00000000E+00
  4.00000000E+01  1.80000000E+02  0.00000000E+00
  4.00000000E+01  1.60000000E+02  0.00000000E+00
  4.00000000E+01  1.40000000E+02  0.00000000E+00
  4.00000000E+01  1.20000000E+02  0.00000000E+00
  4.00000000E+01  1.00000000E+02  0.00000000E+00
  4.00000000E+01  8.00000000E+01  0.00000000E+00
  4.00000000E+01  6.00000000E+01  0.00000000E+00
  4.00000000E+01  4.00000000E+01  0.00000000E+00
  4.00000000E+01  2.00000000E+01  0.00000000E+00
  4.00000000E+01  4.99600361E-14  0.00000000E+00
  6.00000000E+01  3.00000000E+02  0.00000000E+00
  6.00000000E+01  2.80000000E+02  0.00000000E+00
  6.00000000E+01  2.60000000E+02  0.00000000E+00
  6.00000000E+01  2.40000000E+02  0.00000000E+00
  6.00000000E+01  2.20000000E+02  0.00000000E+00
  6.00000000E+01  2.00000000E+02  0.00000000E+00
  6.00000000E+01  1.80000000E+02  0.00000000E+00
  6.00000000E+01  1.60000000E+02  0.00000000E+00
  6.00000000E+01  1.40000000E+02  0.00000000E+00
  6.00000000E+01  1.20000000E+02  0.00000000E+00
  6.00000000E+01  1.00000000E+02  0.00000000E+00
  6.00000000E+01  8.00000000E+01  0.00000000E+00
  6.00000000E+01  6.00000000E+01  0.00000000E+00
  6.00000000E+01  4.00000000E+01  0.00000000E+00
  6.00000000E+01  2.00000000E+01  0.00000000E+00
  6.00000000E+01  4.99600361E-14  0.00000000E+00
  8.00000000E+01  3.00000000E+02  0.00000000E+00
  8.00000000E+01  2.80000000E+02  0.00000000E+00
  8.00000000E+01  2.60000000E+02  0.00000000E+00
  8.00000000E+01  2.40000000E+02  0.00000000E+00
  8.00000000E+01  2.20000000E+02  0.00000000E+00
  8.00000000E+01  2.00000000E+02  0.00000000E+00
  8.00000000E+01  1.80000000E+02  0.00000000E+00
  8.00000000E+01  1.60000000E+02  0.00000000E+00
  8.00000000E+01  1.40000000E+02  0.00000000E+00
  8.00000000E+01  1.20000000E+02  0.00000000E+00
  8.00000000E+01  1.00000000E+02  0.00000000E+00
  8.00000000E+01  8.00000000E+01  0.00000000E+00
  8.00000000E+01  6.00000000E+01  0.00000000E+00
  8.00000000E+01  4.00000000E+01  0.00000000E+00
  8.00000000E+01  2.00000000E+01  0.00000000E+00
  8.00000000E+01  4.99600361E-14  0.00000000E+00
  1.00000000E+02  3.00000000E+02  0.00000000E+00
  1.00000000E+02  2.80000000E+02  0.00000000E+00
  1.00000000E+02  2.60000000E+02  0.00000000E+00
  1.00000000E+02  2.40000000E+02  0.00000000E+00
  1.00000000E+02  2.20000000E+02  0.00000000E+00
  1.00000000E+02  2.00000000E+02  0.00000000E+00
  1.00000000E+02  1.80000000E+02  0.00000000E+00
  1.00000000E+02  1.60000000E+02  0.00000000E+00
  1.00000000E+02  1.40000000E+02  0.00000000E+00
  1.00000000E+02  1.20000000E+02  0.00000000E+00
  1.00000000E+02  1.00000000E+02  0.00000000E+00
  1.00000000E+02  8.00000000E+01  0.00000000E+00
  1.00000000E+02  6.00000000E+01  0.00000000E+00
  1.00000000E+02  4.00000000E+01  0.00000000E+00
  1.00000000E+02  2.00000000E+01  0.00000000E+00
  1.00000000E+02  4.99600361E-14  0.00000000E+00
  1.20000000E+02  3.00000000E+02  0.00000000E+00
  1.20000000E+02  2.80000000E+02  0.00000000E+00
  1.20000000E+02  2.60000000E+02  0.00000000E+00
  1.20000000E+02  2.40000000E+02  0.00000000E+00
  1.20000000E+02  2.20000000E+02  0.00000000E+00
  1.20000000E+02  2.00000000E+02  0.00000000E+00
  1.20000000E+02  1.80000000E+02  0.00000000E+00
  1.20000000E+02  1.60000000E+02  0.00000000E+00
  1.20000000E+02  1.40000000E+02  0.00000000E+00
  1.20000000E+02  1.20000000E+02  0.00000000E+00
  1.20000000E+02  1.00000000E+02  0.00000000E+00
  1.20000000E+02  8.00000000E+01  0.00000000E+00
  1.20000000E+02  6.00000000E+01  0.00000000E+00
  1.20000000E+02  4.00000000E+01  0.00000000E+00
  1.20000000E+02  2.00000000E+01  0.00000000E+00
  1.20000000E+02  4.99600361E-14  0.00000000E+00
  1.40000000E+02  3.00000000E+02  0.00000000E+00
  1.40000000E+02  2.80000000E+02  0.00000000E+00
  1.40000000E+02  2.60000000E+02  0.00000000E+00
  1.40000000E+02  2.40000000E+02  0.00000000E+00
  1.40000000E+02  2.20000000E+02  0.00000000E+00
  1.40000000E+02  2.00000000E+02  0.00000000E+00
  1.40000000E+02  1.80000000E+02  0.00000000E+00
  1.40000000E+02  1.60000000E+02  0.00000000E+00
  1.40000000E+02  1.40000000E+02  0.00000000E+00
  1.40000000E+02  1.20000000E+02  0.00000000E+00
  1.40000000E+02  1.00000000E+02  0.00000000E+00
  1.40000000E+02  8.00000000E+01  0.00000000E+00
  1.40000000E+02  6.00000000E+01  0.00000000E+00
  1.40000000E+02  4.00000000E+01  0.00000000E+00
  1.40000000E+02  2.00000000E+01  0.00000000E+00
  1.40000000E+02  4.99600361E-14  0.00000000E+00
  1.60000000E+02  3.00000000E+02  0.00000000E+00
  1.60000000E+02  2.80000000E+02  0.00000000E+00
  1.60000000E+02  2.60000000E+02  0.00000000E+00
  1.60000000E+02  2.40000000E+02  0.00000000E+00
  1.60000000E+02  2.20000000E+02  0.00000000E+00
  1.60000000E+02  2.00000000E+02  0.00000000E+00
  1.60000000E+02  1.80000000E+02  0.00000000E+00
  1.60000000E+02  1.60000000E+02  0.00000000E+00
  1.60000000E+02  1.40000000E+02  0.00000000E+00
  1.60000000E+02  1.20000000E+02  0.00000000E+00
  1.60000000E+02  1.00000000E+02  0.00000000E+00
  1.60000000E+02  8.00000000E+01  0.00000000E+00
  1.60000000E+02  6.00000000E+01  0.00000000E+00
  1.60000000E+02  4.00000000E+01  0.00000000E+00
  1.60000000E+02  2.00000000E+01  0.00000000E+00
  1.60000000E+02  4.99600361E-14  0.00000000E+00
  1.80000000E+02  3.00000000E+02  0.00000000E+00
  1.80000000E+02  2.80000000E+02  0.00000000E+00
  1.80000000E+02  2.60000000E+02  0.00000000E+00
  1.80000000E+02  2.40000000E+02  0.00000000E+00
  1.80000000E+02  2.20000000E+02  0.00000000E+00
  1.80000000E+02  2.00000000E+02  0.00000000E+00
  1.80000000E+02  1.80000000E+02  0.00000000E+00
  1.80000000E+02  1.60000000E+02  0.00000000E+00
  1.80000000E+02  1.40000000E+02  0.00000000E+00
  1.80000000E+02  1.20000000E+02  0.00000000E+00
  1.80000000E+02  1.00000000E+02  0.00000000E+00
  1.80000000E+02  8.00000000E+01  0.00000000E+00
  1.80000000E+02  6.00000000E+01  0.00000000E+00
  1.80000000E+02  4.00000000E+01  0.00000000E+00
  1.80000000E+02  2.00000000E+01  0.00000000E+00
  1.80000000E+02  4.99600361E-14  0.00000000E+00
  2.00000000E+02  3.00000000E+02  0.00000000E+00
  2.00000000E+02  2.80000000E+02  0.00000000E+00
  2.00000000E+02  2.60000000E+02  0.00000000E+00
  2.00000000E+02  2.40000000E+02  0.00000000E+00
  2.00000000E+02  2.20000000E+02  0.00000000E+00
  2.00000000E+02  2.00000000E+02  0.00000000E+00
  2.00000000E+02  1.80000000E+02  0.00000000E+00
  2.00000000E+02  1.60000000E+02  0.00000000E+00
  2.00000000E+02  1.40000000E+02  0.00000000E+00
  2.00000000E+02  1.20000000E+02  0.00000000E+00
  2.00000000E+02  1.00000000E+02  0.00000000E+00
  2.00000000E+02  8.00000000E+01  0.00000000E+00
  2.00000000E+02  6.00000000E+01  0.00000000E+00
  2.00000000E+02  4.00000000E+01  0.00000000E+00
  2.00000000E+02  2.00000000E+01  0.00000000E+00
  2.00000000E+02  4.99600361E-14  0.00000000E+00
  2.20000000E+02  3.00000000E+02  0.00000000E+00
  2.20000000E+02  2.80000000E+02  0.00000000E+00
  2.20000000E+02  2.60000000E+02  0.00000000E+00
  2.20000000E+02  2.40000000E+02  0.00000000E+00
  2.20000000E+02  2.20000000E+02  0.00000000E+00
  2.20000000E+02  2.00000000E+02  0.00000000E+00
  2.20000000E+02  1.80000000E+02  0.00000000E+00
  2.20000000E+02  1.60000000E+02  0.00000000E+00
  2.20000000E+02  1.40000000E+02  0.00000000E+00
  2.20000000E+02  1.20000000E+02  0.00000000E+00
  2.20000000E+02  1.00000000E+02  0.00000000E+00
  2.20000000E+02  8.00000000E+01  0.00000000E+00
  2.20000000E+02  6.00000000E+01  0.00000000E+00
  2.20000000E+02  4.00000000E+01  0.00000000E+00
  2.20000000E+02  2.00000000E+01  0.00000000E+00
  2.20000000E+02  4.99600361E-14  0.00000000E+00
  2.40000000E+02  3.00000000E+02  0.00000000E+00
  2.40000000E+02  2.80000000E+02  0.00000000E+00
  2.40000000E+02  2.60000000E+02  0.00000000E+00
  2.40000000E+02  2.40000000E+02  0.00000000E+00
  2.40000000E+02  2.20000000E+02  0.00000000E+00
  2.40000000E+02  2.00000000E+02  0.00000000E+00
  2.40000000E+02  1.80000000E+02  0.00000000E+00
  2.40000000E+02  1.60000000E+02  0.00000000E+00
  2.40000000E+02  1.40000000E+02  0.00000000E+00
  2.40000000E+02  1.20000000E+02  0.00000000E+00
  2.40000000E+02  1.00000000E+02  0.00000000E+00
  2.40000000E+02  8.00000000E+01  0.00000000E+00
  2.40000000E+02  6.00000000E+01  0.00000000E+00
  2.40000000E+02  4.00000000E+01  0.00000000E+00
  2.40000000E+02  2.00000000E+01  0.00000000E+00
  2.40000000E+02  4.99600361E-14  0.00000000E+00
  2.60000000E+02  3.00000000E+02  0.00000000E+00
  2.60000000E+02  2.80000000E+02  0.00000000E+00
  2.60000000E+02  2.60000000E+02  0.00000000E+00
  2.60000000E+02  2.40000000E+02  0.00000000E+00
  2.60000000E+02  2.20000000E+02  0.00000000E+00
  2.60000000E+02  2.00000000E+02  0.00000000E+00
  2.60000000E+02  1.80000000E+02  0.00000000E+00
  2.60000000E+02  1.60000000E+02  0.00000000E+00
  2.60000000E+02  1.40000000E+02  0.00000000E+00
  2.60000000E+02  1.20000000E+02  0.00000000E+00
  2.60000000E+02  1.00000000E+02  0.00000000E+00
  2.60000000E+02  8.00000000E+01  0.00000000E+00
  2.60000000E+02  6.00000000E+01  0.00000000E+00
  2.60000000E+02  4.00000000E+01  0.00000000E+00
  2.60000000E+02  2.00000000E+01  0.00000000E+00
  2.60000000E+02  4.99600361E-14  0.00000000E+00
  2.80000000E+02  3.00000000E+02  0.00000000E+00
  2.80000000E+02  2.80000000E+02  0.00000000E+00
  2.80000000E+02  2.60000000E+02  0.00000000E+00
  2.80000000E+02  2.40000000E+02  0.00000000E+00
  2.80000000E+02  2.20000000E+02  0.00000000E+00
  2.80000000E+02  2.00000000E+02  0.00000000E+00
  2.80000000E+02  1.80000000E+02  0.00000000E+00
  2.80000000E+02  1.60000000E+02  0.00000000E+00
  2.80000000E+02  1.40000000E+02  0.00000000E+00
  2.80000000E+02  1.20000000E+02  0.00000000E+00
  2.80000000E+02  1.00000000E+02  0.00000000E+00
  2.80000000E+02  8.00000000E+01  0.00000000E+00
  2.80000000E+02  6.00000000E+01  0.00000000E+00
  2.80000000E+02  4.00000000E+01  0.00000000E+00
  2.80000000E+02  2.00000000E+01  0.00000000E+00
  2.80000000E+02  4.99600361E-14  0.00000000E+00
  3.00000000E+02  3.00000000E+02  0.00000000E+00
  3.00000000E+02  2.80000000E+02  0.00000000E+00
  3.00000000E+02  2.60000000E+02  0.00000000E+00
  3.00000000E+02  2.40000000E+02  0.00000000E+00
  3.00000000E+02  2.20000000E+02  0.00000000E+00
  3.00000000E+02  2.00000000E+02  0.00000000E+00
  3.00000000E+02  1.80000000E+02  0.00000000E+00
  3.00000000E+02  1.60000000E+02  0.00000000E+00
  3.00000000E+02  1.40000000E+02  0.00000000E+00
  3.00000000E+02  1.20000000E+02  0.00000000E+00
  3.00000000E+02  1.00000000E+02  0.00000000E+00
  3.00000000E+02  8.00000000E+01  0.00000000E+00
  3.00000000E+02  6.00000000E+01  0.00000000E+00
  3.00000000E+02  4.00000000E+01  0.00000000E+00
  3.00000000E+02  2.00000000E+01  0.00000000E+00
  3.00000000E+02  4.99600361E-14  0.00000000E+00
  3.20000000E+02  3.00000000E+02  0.00000000E+00
  3.20000000E+02  2.80000000E+02  0.00000000E+00
  3.20000000E+02  2.60000000E+02  0.00000000E+00
  3.20000000E+02  2.40000000E+02  0.00000000E+00
  3.20000000E+02  2.20000000E+02  0.00000000E+00
  3.20000000E+02  2.00000000E+02  0.00000000E+00
  3.20000000E+02  1.80000000E+02  0.00000000E+00
  3.20000000E+02  1.60000000E+02  0.00000000E+00
  3.20000000E+02  1.40000000E+02  0.00000000E+00
  3.20000000E+02  1.20000000E+02  0.00000000E+00
  3.20000000E+02  1.00000000E+02  0.00000000E+00
  3.20000000E+02  8.00000000E+01  0.00000000E+00
  3.20000000E+02  6.00000000E+01  0.00000000E+00
  3.20000000E+02  4.00000000E+01  0.00000000E+00
  3.20000000E+02  2.00000000E+01  0.00000000E+00
  3.20000000E+02  4.99600361E-14  0.00000000E+00
  3.40000000E+02  3.00000000E+02  0.00000000E+00
  3.40000000E+02  2.80000000E+02  0.00000000E+00
  3.40000000E+02  2.60000000E+02  0.00000000E+00
  3.40000000E+02  2.40000000E+02  0.00000000E+00
  3.40000000E+02  2.20000000E+02  0.00000000E+00
  3.40000000E+02  2.00000000E+02  0.00000000E+00
  3.40000000E+02  1.80000000E+02  0.00000000E+00
  3.40000000E+02  1.60000000E+02  0.00000000E+00
  3.40000000E+02  1.40000000E+02  0.00000000E+00
  3.40000000E+02  1.20000000E+02  0.00000000E+00
  3.40000000E+02  1.00000000E+02  0.00000000E+00
  3.40000000E+02  8.00000000E+01  0.00000000E+00
  3.40000000E+02  6.00000000E+01  0.00000000E+00
  3.40000000E+02  4.00000000E+01  0.00000000E+00
  3.40000000E+02  2.00000000E+01  0.00000000E+00
  3.40000000E+02  4.99600361E-14  0.00000000E+00
  3.60000000E+02  3.00000000E+02  0.00000000E+00
  3.60000000E+02  2.80000000E+02  0.00000000E+00
  3.60000000E+02  2.60000000E+02  0.00000000E+00
  3.60000000E+02  2.40000000E+02  0.00000000E+00
  3.60000000E+02  2.20000000E+02  0.00000000E+00
  3.60000000E+02  2.00000000E+02  0.00000000E+00
  3.60000000E+02  1.80000000E+02  0.00000000E+00
  3.60000000E+02  1.60000000E+02  0.00000000E+00
  3.60000000E+02  1.40000000E+02  0.00000000E+00
  3.60000000E+02  1.20000000E+02  0.00000000E+00
  3.60000000E+02  1.00000000E+02  0.00000000E+00
  3.60000000E+02  8.00000000E+01  0.00000000E+00
  3.60000000E+02  6.00000000E+01  0.00000000E+00
  3.60000000E+02  4.00000000E+01  0.00000000E+00
  3.60000000E+02  2.00000000E+01  0.00000000E+00
  3.60000000E+02  4.99600361E-14  0.00000000E+00
  3.80000000E+02  3.00000000E+02  0.00000000E+00
  3.80000000E+02  2.80000000E+02  0.00000000E+00
  3.80000000E+02  2.60000000E+02  0.00000000E+00
  3.80000000E+02  2.40000000E+02  0.00000000E+00
  3.80000000E+02  2.20000000E+02  0.00000000E+00
  3.80000000E+02  2.00000000E+02  0.00000000E+00
  3.80000000E+02  1.80000000E+02  0.00000000E+00
  3.80000000E+02  1.60000000E+02  0.00000000E+00
  3.80000000E+02  1.40000000E+02  0.00000000E+00
  3.80000000E+02  1.20000000E+02  0.00000000E+00
  3.80000000E+02  1.00000000E+02  0.00000000E+00
  3.80000000E+02  8.00000000E+01  0.00000000E+00
  3.80000000E+02  6.00000000E+01  0.00000000E+00
  3.80000000E+02  4.00000000E+01  0.00000000E+00
  3.80000000E+02  2.00000000E+01  0.00000000E+00
  3.80000000E+02  4.99600361E-14  0.00000000E+00
  4.00000000E+02  3.00000000E+02  0.00000000E+00
  4.00000000E+02  2.80000000E+02  0.00000000E+00
  4.00000000E+02  2.60000000E+02  0.00000000E+00
  4.00000000E+02  2.40000000E+02  0.00000000E+00
  4.00000000E+02  2.20000000E+02  0.00000000E+00
  4.00000000E+02  2.00000000E+02  0.00000000E+00
  4.00000000E+02  1.80000000E+02  0.00000000E+00
  4.00000000E+02  1.60000000E+02  0.00000000E+00
  4.00000000E+02  1.40000000E+02  0.00000000E+00
  4.00000000E+02  1.20000000E+02  0.00000000E+00
  4.00000000E+02  1.00000000E+02  0.00000000E+00
  4.00000000E+02  8.00000000E+01  0.00000000E+00
  4.00000000E+02  6.00000000E+01  0.00000000E+00
  4.00000000E+02  4.00000000E+01  0.00000000E+00
  4.00000000E+02  2.00000000E+01  0.00000000E+00
  4.00000000E+02  4.99600361E-14  0.00000000E+00
  4.20000000E+02  3.00000000E+02  0.00000000E+00
  4.20000000E+02  2.80000000E+02  0.00000000E+00
  4.20000000E+02  2.60000000E+02  0.00000000E+00
  4.20000000E+02  2.40000000E+02  0.00000000E+00
  4.20000000E+02  2.20000000E+02  0.00000000E+00
  4.20000000E+02  2.00000000E+02  0.00000000E+00
  4.20000000E+02  1.80000000E+02  0.00000000E+00
  4.20000000E+02  1.60000000E+02  0.00000000E+00
  4.20000000E+02  1.40000000E+02  0.00000000E+00
  4.20000000E+02  1.20000000E+02  0.00000000E+00
  4.20000000E+02  1.00000000E+02  0.00000000E+00
  4.20000000E+02  8.00000000E+01  0.00000000E+00
  4.20000000E+02  6.00000000E+01  0.00000000E+00
  4.20000000E+02  4.00000000E+01  0.00000000E+00
  4.20000000E+02  2.00000000E+01  0.00000000E+00
  4.20000000E+02  4.99600361E-14  0.00000000E+00
  4.40000000E+02  3.00000000E+02  0.00000000E+00
  4.40000000E+02  2.80000000E+02  0.00000000E+00
  4.40000000E+02  2.60000000E+02  0.00000000E+00
  4.40000000E+02  2.40000000E+02  0.00000000E+00
  4.40000000E+02  2.20000000E+02  0.00000000E+00
  4.40000000E+02  2.00000000E+02  0.00000000E+00
  4.40000000E+02  1.80000000E+02  0.00000000E+00
  4.40000000E+02  1.60000000E+02  0.00000000E+00
  4.40000000E+02  1.40000000E+02  0.00000000E+00
  4.40000000E+02  1.20000000E+02  0.00000000E+00
  4.40000000E+02  1.00000000E+02  0.00000000E+00
  4.40000000E+02  8.00000000E+01  0.00000000E+00
  4.40000000E+02  6.00000000E+01  0.00000000E+00
  4.40000000E+02  4.00000000E+01  0.00000000E+00
  4.40000000E+02  2.00000000E+01  0.00000000E+00
  4.40000000E+02  4.99600361E-14  0.00000000E+00
  4.60000000E+02  3.00000000E+02  0.00000000E+00
  4.60000000E+02  2.80000000E+02  0.00000000E+00
  4.60000000E+02  2.60000000E+02  0.00000000E+00
  4.60000000E+02  2.40000000E+02  0.00000000E+00
  4.60000000E+02  2.20000000E+02  0.00000000E+00
  4.60000000E+02  2.00000000E+02  0.00000000E+00
  4.60000000E+02  1.80000000E+02  0.00000000E+00
  4.60000000E+02  1.60000000E+02  0.00000000E+00
  4.60000000E+02  1.40000000E+02  0.00000000E+00
  4.60000000E+02  1.20000000E+02  0.00000000E+00
  4.60000000E+02  1.00000000E+02  0.00000000E+00
  4.60000000E+02  8.00000000E+01  0.00000000E+00
  4.60000000E+02  6.00000000E+01  0.00000000E+00
  4.60000000E+02  4.00000000E+01  0.00000000E+00
  4.60000000E+02  2.00000000E+01  0.00000000E+00
  4.60000000E+02  4.99600361E-14  0.00000000E+00
  4.80000000E+02  3.00000000E+02  0.00000000E+00
  4.80000000E+02  2.80000000E+02  0.00000000E+00
  4.80000000E+02  2.60000000E+02  0.00000000E+00
  4.80000000E+02  2.40000000E+02  0.00000000E+00
  4.80000000E+02  2.20000000E+02  0.00000000E+00
  4.80000000E+02  2.00000000E+02  0.00000000E+00
  4.80000000E+02  1.80000000E+02  0.00000000E+00
  4.80000000E+02  1.60000000E+02  0.00000000E+00
  4.80000000E+02  1.40000000E+02  0.00000000E+00
  4.80000000E+02  1.20000000E+02  0.00000000E+00
  4.80000000E+02  1.00000000E+02  0.00000000E+00
  4.80000000E+02  8.00000000E+01  0.00000000E+00
  4.80000000E+02  6.00000000E+01  0.00000000E+00
  4.80000000E+02  4.00000000E+01  0.00000000E+00
  4.80000000E+02  2.00000000E+01  0.00000000E+00
  4.80000000E+02  4.99600361E-14  0.00000000E+00
  5.00000000E+02  3.00000000E+02  0.00000000E+00
  5.00000000E+02  2.80000000E+02  0.00000000E+00
  5.00000000E+02  2.60000000E+02  0.00000000E+00
  5.00000000E+02  2.40000000E+02  0.00000000E+00
  5.00000000E+02  2.20000000E+02  0.00000000E+00
  5.00000000E+02  2.00000000E+02  0.00000000E+00
  5.00000000E+02  1.80000000E+02  0.00000000E+00
  5.00000000E+02  1.60000000E+02  0.00000000E+00
  5.00000000E+02  1.40000000E+02  0.00000000E+00
  5.00000000E+02  1.20000000E+02  0.00000000E+00
  5.00000000E+02  1.00000000E+02  0.00000000E+00
  5.00000000E+02  8.00000000E+01  0.00000000E+00
  5.00000000E+02  6.00000000E+01  0.00000000E+00
  5.00000000E+02  4.00000000E+01  0.00000000E+00
  5.00000000E+02  2.00000000E+01  0.00000000E+00
  5.00000000E+02  4.99600361E-14  0.00000000E+00
  5.20000000E+02  3.00000000E+02  0.00000000E+00
  5.20000000E+02  2.80000000E+02  0.00000000E+00
  5.20000000E+02  2.60000000E+02  0.00000000E+00
  5.20000000E+02  2.40000000E+02  0.00000000E+00
  5.20000000E+02  2.20000000E+02  0.00000000E+00
  5.20000000E+02  2.00000000E+02  0.00000000E+00
  5.20000000E+02  1.80000000E+02  0.00000000E+00
  5.20000000E+02  1.60000000E+02  0.00000000E+00
  5.20000000E+02  1.40000000E+02  0.00000000E+00
  5.20000000E+02  1.20000000E+02  0.00000000E+00
  5.20000000E+02  1.00000000E+02  0.00000000E+00
  5.20000000E+02  8.00000000E+01  0.00000000E+00
  5.20000000E+02  6.00000000E+01  0.00000000E+00
  5.20000000E+02  4.00000000E+01  0.00000000E+00
  5.20000000E+02  2.00000000E+01  0.00000000E+00
  5.20000000E+02  4.99600361E-14  0.00000000E+00
  5.40000000E+02  3.00000000E+02  0.00000000E+00
  5.40000000E+02  2.80000000E+02  0.00000000E+00
  5.40000000E+02  2.60000000E+02  0.00000000E+00
  5.40000000E+02  2.40000000E+02  0.00000000E+00
  5.40000000E+02  2.20000000E+02  0.00000000E+00
  5.40000000E+02  2.00000000E+02  0.00000000E+00
  5.40000000E+02  1.80000000E+02  0.00000000E+00
  5.40000000E+02  1.60000000E+02  0.00000000E+00
  5.40000000E+02  1.40000000E+02  0.00000000E+00
  5.40000000E+02  1.20000000E+02  0.00000000E+00
  5.40000000E+02  1.00000000E+02  0.00000000E+00
  5.40000000E+02  8.00000000E+01  0.00000000E+00
  5.40000000E+02  6.00000000E+01  0.00000000E+00
  5.40000000E+02  4.00000000E+01  0.00000000E+00
  5.40000000E+02  2.00000000E+01  0.00000000E+00
  5.40000000E+02  4.99600361E-14  0.00000000E+00
  5.60000000E+02  3.00000000E+02  0.00000000E+00
  5.60000000E+02  2.80000000E+02  0.00000000E+00
  5.60000000E+02  2.60000000E+02  0.00000000E+00
  5.60000000E+02  2.40000000E+02  0.00000000E+00
  5.60000000E+02  2.20000000E+02  0.00000000E+00
  5.60000000E+02  2.00000000E+02  0.00000000E+00
  5.60000000E+02  1.80000000E+02  0.00000000E+00
  5.60000000E+02  1.60000000E+02  0.00000000E+00
  5.60000000E+02  1.40000000E+02  0.00000000E+00
  5.60000000E+02  1.20000000E+02  0.00000000E+00
  5.60000000E+02  1.00000000E+02  0.00000000E+00
  5.60000000E+02  8.00000000E+01  0.00000000E+00
  5.60000000E+02  6.00000000E+01  0.00000000E+00
  5.60000000E+02  4.00000000E+01  0.00000000E+00
  5.60000000E+02  2.00000000E+01  0.00000000E+00
  5.60000000E+02  4.99600361E-14  0.00000000E+00
  5.80000000E+02  3.00000000E+02  0.00000000E+00
  5.80000000E+02  2.80000000E+02  0.00000000E+00
  5.80000000E+02  2.60000000E+02  0.00000000E+00
  5.80000000E+02  2.40000000E+02  0.00000000E+00
  5.80000000E+02  2.20000000E+02  0.00000000E+00
  5.80000000E+02  2.00000000E+02  0.00000000E+00
  5.80000000E+02  1.80000000E+02  0.00000000E+00
  5.80000000E+02  1.60000000E+02  0.00000000E+00
  5.80000000E+02  1.40000000E+02  0.00000000E+00
  5.80000000E+02  1.20000000E+02  0.00000000E+00
  5.80000000E+02  1.00000000E+02  0.00000000E+00
  5.80000000E+02  8.00000000E+01  0.00000000E+00
  5.80000000E+02  6.00000000E+01  0.00000000E+00
  5.80000000E+02  4.00000000E+01  0.00000000E+00
  5.80000000E+02  2.00000000E+01  0.00000000E+00
  5.80000000E+02  4.99600361E-14  0.00000000E+00
  6.00000000E+02  3.00000000E+02  0.00000000E+00
  6.00000000E+02  2.80000000E+02  0.00000000E+00
  6.00000000E+02  2.60000000E+02  0.00000000E+00
  6.00000000E+02  2.40000000E+02  0.00000000E+00
  6.00000000E+02  2.20000000E+02  0.00000000E+00
  6.00000000E+02  2.00000000E+02  0.00000000E+00
  6.00000000E+02  1.80000000E+02  0.00000000E+00
  6.00000000E+02  1.60000000E+02  0.00000000E+00
  6.00000000E+02  1.40000000E+02  0.00000000E+00
  6.00000000E+02  1.20000000E+02  0.00000000E+00
  6.00000000E+02  1.00000000E+02  0.00000000E+00
  6.00000000E+02  8.00000000E+01  0.00000000E+00
  6.00000000E+02  6.00000000E+01  0.00000000E+00
  6.00000000E+02  4.00000000E+01  0.00000000E+00
  6.00000000E+02  2.00000000E+01  0.00000000E+00
  6.00000000E+02  4.99600361E-14  0.00000000E+00
CELLS       450      2250
         4           0           1          17          16
         4           1           2          18          17
         4           2           3          19          18
         4           3           4          20          19
         4           4           5          21          20
         4           5           6          22          21
         4           6           7          23          22
         4           7           8          24          23
         4           8           9          25          24
         4           9          10          26          25
         4          10          11          27          26
         4          11          12          28          27
         4          12          13          29          28
         4          13          14          30          29
         4          14          15          31          30
         4          16          17          33          32
         4          17          18          34          33
         4          18          19          35          34
         4          19          20          36          35
         4          20          21          37          36
         4          21          22          38          37
         4          22          23          39          38
         4          23          24          40          39
         4          24          25          41          40
         4          25          26          42          41
         4          26          27          43          42
         4          27          28          44          43
         4          28          29          45          44
         4          29          30          46          45
         4          30          31          47          46
         4          32          33          49          48
         4          33          34          50          49
         4          34          35          51          50
         4          35          36          52          51
         4          36          37          53          52
         4          37          38          54          53
         4          38          39          55          54
         4          39          40          56          55
         4          40          41          57          56
         4          41          42          58          57
         4          42          43          59          58
         4          43          44          60          59
         4          44          45          61          60
         4          45          46          62          61
         4          46          47          63          62
         4          48          49          65          64
         4          49          50          66          65
         4          50          51          67          66
         4          51          52          68          67
         4          52          53          69          68
         4          53          54          70          69
         4          54          55          71          70
         4          55          56          72          71
         4          56          57          73          72
         4          57          58          74          73
         4          58          59          75          74
         4          59          60          76          75
         4          60          61          77          76
         4          61          62          78          77
         4          62          63          79          78
         4          64          65          81          80
         4          65          66          82          81
         4          66          67          83          82
         4          67          68          84          83
         4          68          69          85          84
         4          69          70          86          85
         4          70          71          87          86
         4          71          72          88          87
         4          72          73          89          88
         4          73          74          90          89
         4          74          75          91          90
         4          75          76          92          91
         4          76          77          93          92
         4          77          78          94          93
         4          78          79          95          94
         4          80          81          97          96
         4          81          82          98          97
         4          82          83          99          98
         4          83          84         100          99
         4          84          85         101         100
         4          85          86         102         101
         4          86          87         103         102
         4          87          88         104         103
         4          88          89         105         104
         4          89          90         106         105
         4          90          91         107         106
         4          91          92         108         107
         4          92          93         109         108
         4          93          94         110         109
         4          94          95         111         110
         4          96          97         113         112
         4          97          98         114         113
         4          98          99         115         114
         4          99         100         116         115
         4         100         101         117         116
         4         101         102         118         117
         4         102         103         119         118
         4         103         104         120         119
         4         104         105         121         120
         4         105         106         122         121
         4         106         107         123         122
         4         107         108         124         123
         4         108         109         125         124
         4         109         110         126         125
         4         110         111         127         126
         4         112         113         129         128
         4         113         114         130         129
         4         114         115         131         130
         4         115         116         132         131
         4         116         117         133         132
         4         117         118         134         133
         4         118         119         135         134
         4         119         120         136         135
         4         120         121         137         136
         4         121         122         138         137
         4         122         123         139         138
         4         123         124         140         139
         4         124         125         141         140
         4         125         126         142         141
         4         126         127         143         142
         4         128         129         145         144
         4         129         130         146         145
         4         130         131         147         146
         4         131         132         148         147
         4         132         133         149         148
         4         133         134         150         149
         4         134         135         151         150
         4         135         136         152         151
         4         136         137         153         152
         4         137         138         154         153
         4         138         139         155         154
         4         139         140         156         155
         4         140         141         157         156
         4         141         142         158         157
         4         142         143         159         158
         4         144         145         161         160
         4         145         146         162         161
         4         146         147         163         162
         4         147         148         164         163
         4         148         149         165         164
         4         149         150         166         165
         4         150         151         167         166
         4         151         152         168         167
         4         152         153         169         168
         4         153         154         170         169
         4         154         155         171         170
         4         155         156         172         171
         4         156         157         173         172
         4         157         158         174         173
         4         158         159         175         174
         4         160         161         177         176
         4         161         162         178         177
         4         162         163         179         178
         4         163         164         180         179
         4         164         165         181         180
         4         165         166         182         181
         4         166         167         183         182
         4         167         168         184         183
         4         168         169         185         184
         4         169         170         186         185
         4         170         171         187         186
         4         171         172         188         187
         4         172         173         189         188
         4         173         174         190         189
         4         174         175         191         190
         4         176         177         193         192
         4         177         178         194         193
         4         178         179         195         194
         4         179         180         196         195
         4         180         181         197         196
         4         181         182         198         197
         4         182         183         199         198
         4         183         184         200         199
         4         184         185         201         200
         4         185         186         202         201
         4         186         187         203         202
         4         187         188         204         203
         4         188         189         205         204
         4         189         190         206         205
         4         190         191         207         206
         4         192         193         209         208
         4         193         194         210         209
         4         194         195         211         210
         4         195         196         212         211
         4         196         197         213         212
         4         197         198         214         213
         4         198         199         215         214
         4         199         200         216         215
         4         200         201         217         216
         4         201         202         218         217
         4         202         203         219         218
         4         203         204         220         219
         4         204         205         221         220
         4         205         206         222         221
         4         206         207         223         222
         4         208         209         225         224
         4         209         210         226         225
         4         210         211         227         226
         4         211         212         228         227
         4         212         213         229         228
         4         213         214         230         229
         4         214         215         231         230
         4         215         216         232         231
         4         216         217         233         232
         4         217         218         234         233
         4         218         219         235         234
         4         219         220         236         235
         4         220         221         237         236
         4         221         222         238         237
         4         222         223         239         238
         4         224         225         241         240
         4         225         226         242         241
         4         226         227         243         242
         4         227         228         244         243
         4         228         229         245         244
         4         229         230         246         245
         4         230         231         247         246
         4         231         232         248         247
         4         232         233         249         248
         4         233         234         250         249
         4         234         235         251         250
         4         235         236         252         251
         4         236         237         253         252
         4         237         238         254         253
         4         238         239         255         254
         4         240         241         257         256
         4         241         242         258         257
         4         242         243         259         258
         4         243         244         260         259
         4         244         245         261         260
         4         245         246         262         261
         4         246         247         263         262
         4         247         248         264         263
         4         248         249         265         264
         4         249         250         266         265
         4         250         251         267         266
         4         251         252         268         267
         4         252         253         269         268
         4         253         254         270         269
         4         254         255         271         270
         4         256         257         273         272
         4         257         258         274         273
         4         258         259         275         274
         4         259         260         276         275
         4         260         261         277         276
         4         261         262         278         277
         4         262         263         279         278
         4         263         264         280         279
         4         264         265         281         280
         4         265         266         282         281
         4         266         267         283         282
         4         267         268         284         283
         4         268         269         285         284
         4         269         270         286         285
         4         270         271         287         286
         4         272         273         289         288
         4         273         274         290         289
         4         274         275         291         290
         4         275         276         292         291
         4         276         277         293         292
         4         277         278         294         293
         4         278         279         295         294
         4         279         280         296         295
         4         280         281         297         296
         4         281         282         298         297
         4         282         283         299         298
         4         283         284         300         299
         4         284         285         301         300
         4         285         286         302         301
         4         286         287         303         302
         4         288         289         305         304
         4         289         290         306         305
         4         290         291         307         306
         4         291         292         308         307
         4         292         293         309         308
         4         293         294         310         309
         4         294         295         311         310
         4         295         296         312         311
         4         296         297         313         312
         4         297         298         314         313
         4         298         299         315         314
         4         299         300         316         315
         4         300         301         317         316
         4         301         302         318         317
         4         302         303         319         318
         4         304         305         321         320
         4         305         306         322         321
         4         306         307         323         322
         4         307         308         324         323
         4         308         309         325         324
         4         309         310         326         325
         4         310         311         327         326
         4         311         312         328         327
         4         312         313         329         328
         4         313         314         330         329
         4         314         315         331         330
         4         315         316         332         331
         4         316         317         333         332
         4         317         318         334         333
         4         318         319         335         334
         4         320         321         337         336
         4         321         322         338         337
         4         322         323         339         338
         4         323         324         340         339
         4         324         325         341         340
         4         325         326         342         341
         4         326         327         343         342
         4         327         328         344         343
         4         328         329         345         344
         4         329         330         346         345
         4         330         331         347         346
         4         331         332         348         347
         4         332         333         349         348
         4         333         334         350         349
         4         334         335         351         350
         4         336         337         353         352
         4         337         338         354         353
         4         338         339         355         354
         4         339         340         356         355
         4         340         341         357         356
         4         341         342         358         357
         4         342         343         359         358
         4         343         344         360         359
         4         344         345         361         360
         4         345         346         362         361
         4         346         347         363         362
         4         347         348         364         363
         4         348         349         365         364
         4         349         350         366         365
         4         350         351         367         366
         4         352         353         369         368
         4         353         354         370         369
         4         354         355         371         370
         4         355         356         372         371
         4         356         357         373         372
         4         357         358         374         373
         4         358         359         375         374
         4         359         360         376         375
         4         360         361         377         376
         4         361         362         378         377
         4         362         363         379         378
         4         363         364         380         379
         4         364         365         381         380
         4         365         366         382         381
         4         366         367         383         382
         4         368         369         385         384
         4         369         370         386         385
         4         370         371         387         386
         4         371         372         388         387
         4         372         373         389         388
         4         373         374         390         389
         4         374         375         391         390
         4         375         376         392         391
         4         376         377         393         392
         4         377         378         394         393
         4         378         379         395         394
         4         379         380         396         395
         4         380         381         397         396
         4         381         382         398         397
         4         382         383         399         398
         4         384         385         401         400
         4         385         386         402         401
         4         386         387         403         402
         4         387         388         404         403
         4         388         389         405         404
         4         389         390         406         405
         4         390         391         407         406
         4         391         392         408         407
         4         392         393         409         408
         4         393         394         410         409
         4         394         395         411         410
         4         395         396         412         411
         4         396         397         413         412
         4         397         398         414         413
         4         398         399         415         414
         4         400         401         417         416
         4         401         402         418         417
         4         402         403         419         418
         4         403         404         420         419
         4         404         405         421         420
         4         405         406         422         421
         4         406         407         423         422
         4         407         408         424         423
         4         408         409         425         424
         4         409         410         426         425
         4         410         411         427         426
         4         411         412         428         427
         4         412         413         429         428
         4         413         414         430         429
         4         414         415         431         430
         4         416         417         433         432
         4         417         418         434         433
         4         418         419         435         434
         4         419         420         436         435
         4         420         421         437         436
         4         421         422         438         437
         4         422         423         439         438
         4         423         424         440         439
         4         424         425         441         440
         4         425         426         442         441
         4         426         427         443         442
         4         427         428         444         443
         4         428         429         445         444
         4         429         430         446         445
         4         430         431         447         446
         4         432         433         449         448
         4         433         434         450         449
         4         434         435         451         450
         4         435         436         452         451
         4         436         437         453         452
         4         437         438         454         453
         4         438         439         455         454
         4         439         440         456         455
         4         440         441         457         456
         4         441         442         458         457
         4         442         443         459         458
         4         443         444         460         459
         4         444         445         461         460
         4         445         446         462         461
         4         446         447         463         462
         4         448         449         465         464
         4         449         450         466         465
         4         450         451         467         466
         4         451         452         468         467
         4         452         453         469         468
         4         453         454         470         469
         4         454         455         471         470
         4         455         456         472         471
         4         456         457         473         472
         4         457         458         474         473
         4         458         459         475         474
         4         459         460         476         475
         4         460         461         477         476
         4         461         462         478         477
         4         462         463         479         478
         4         464         465         481         480
         4         465         466         482         481
         4         466         467         483         482
         4         467         468         484         483
         4         468         469         485         484
         4         469         470         486         485
         4         470         471         487         486
         4         471         472         488         487
         4         472         473         489         488
         4         473         474         490         489
         4         474         475         491         490
         4         475         476         492         491
         4         476         477         493         492
         4         477         478         494         493
         4         478         479         495         494
CELL_TYPES        450
9
9
9
9
9
9
9
9
9
9
9
9
9
9
9
9
9
9
9
9
9
9
9
9
9
9
9
9
9
9
9
9
9
9
9
9
9
9
9
9
9
9
9
9
9
9
9
9
9
9
9
9
9
9
9
9
9
9
9
9
9
9
9
9
9
9
9
9
9
9
9
9
9
9
9
9
9
9
9
9
9
9
9
9
9
9
9
9
9
9
9
9
9
9
9
9
9
9
9
9
9
9
9
9
9
9
9
9
9
9
9
9
9
9
9
9
9
9
9
9
9
9
9
9
9
9
9
9
9
9
9
9
9
9
9
9
9
9
9
9
9
9
9
9
9
9
9
9
9
9
9
9
9
9
9
9
9
9
9
9
9
9
9
9
9
9
9
9
9
9
9
9
9
9
9
9
9
9
9
9
9
9
9
9
9
9
9
9
9
9
9
9
9
9
9
9
9
9
9
9
9
9
9
9
9
9
9
9
9
9
9
9
9
9
9
9
9
9
9
9
9
9
9
9
9
9
9
9
9
9
9
9
9
9
9
9
9
9
9
9
9
9
9
9
9
9
9
9
9
9
9
9
9
9
9
9
9
9
9
9
9
9
9
9
9
9
9
9
9
9
9
9
9
9
9
9
9
9
9
9
9
9
9
9
9
9
9
9
9
9
9
9
9
9
9
9
9
9
9
9
9
9
9
9
9
9
9
9
9
9
9
9
9
9
9
9
9
9
9
9
9
9
9
9
9
9
9
9
9
9
9
9
9
9
9
9
9
9
9
9
9
9
9
9
9
9
9
9
9
9
9
9
9
9
9
9
9
9
9
9
9
9
9
9
9
9
9
9
9
9
9
9
9
9
9
9
9
9
9
9
9
9
9
9
9
9
9
9
9
9
9
9
9
9
9
9
9
9
9
9
9
9
9
9
9
9
9
9
9
9
9
9
9
9
9
9
9
9
9
9
9
9
9
9
9
9
9
9
9
9
9
9
9
9
9
9
9
9
9
9
9
9
9
9
9
9
9
9
9
9
POINT_DATA       496
SCALARS p double 
LOOKUP_TABLE default
   68305147.8639660     
   68319298.3979599     
   68352606.6828854     
   68392431.3243847     
   68433189.6979545     
   68470567.2619396     
   68502869.4004501     
   68531412.3984065     
   68557507.1114511     
   68581476.2647782     
   68603428.7662362     
   68623370.9293690     
   68641210.0535887     
   68656666.1007354     
   68669246.3085243     
   68674758.0525040     
   66601908.3088285     
   66603400.7485289     
   66607067.7347615     
   66612106.6610846     
   66619600.6514799     
   66631351.5128958     
   66647049.7159802     
   66664267.7485005     
   66681243.6297087     
   66697379.9045314     
   66712331.3931407     
   66725810.7773434     
   66737479.8992090     
   66746842.4381886     
   66752776.7424201     
   66754683.0920323     
   64882004.9237559     
   64879651.7061491     
   64876762.6565414     
   64877826.5725584     
   64882318.6414186     
   64888796.4759204     
   64896619.1079398     
   64905679.2701294     
   64915430.2049231     
   64925138.3958890     
   64934289.1998356     
   64942466.6355970     
   64949265.9320329     
   64954212.8685535     
   64956975.2822918     
   64957794.0146087     
   63237972.6761303     
   63237633.5140194     
   63237319.9755055     
   63238006.0881694     
   63239905.4211412     
   63242791.0501875     
   63246404.4892502     
   63250640.4487706     
   63255378.7363910     
   63260311.7369198     
   63265046.6042804     
   63269222.1865206     
   63272514.7801570     
   63274689.5181808     
   63275729.4380425     
   63275981.9844571     
   61688892.6480942     
   61688804.8273409     
   61688674.6355106     
   61688746.9490300     
   61689125.9856155     
   61689790.3970980     
   61690728.5505812     
   61691950.8595059     
   61693438.4756258     
   61695085.0479898     
   61696699.3713685     
   61698064.7408476     
   61699004.2999462     
   61699443.0568506     
   61699478.3965179     
   61699420.3685122     
   60223567.4248622     
   60223435.3541889     
   60223067.6114271     
   60222526.7020657     
   60221867.0542274     
   60221129.1376403     
   60220368.0852644     
   60219654.5196915     
   60219038.8257425     
   60218520.7207345     
   60218047.6596806     
   60217544.7844634     
   60216962.2542681     
   60216323.9466603     
   60215763.0639474     
   60215526.1548973     
   58829546.3767501     
   58829332.1996516     
   58828704.0279899     
   58827689.9642871     
   58826326.1564642     
   58824671.0689168     
   58822808.2635849     
   58820837.2760664     
   58818852.2600415     
   58816922.2427714     
   58815087.5650361     
   58813375.1157206     
   58811825.6378075     
   58810521.6330829     
   58809603.4086614     
   58809262.0091048     
   57492164.6492592     
   57491891.2154838     
   57491073.0410465     
   57489721.6923224     
   57487870.7451332     
   57485587.2870822     
   57482970.7437761     
   57480142.0654870     
   57477227.7699892     
   57474345.8975686     
   57471600.6605690     
   57469087.9095383     
   57466907.7447268     
   57465177.0613223     
   57464033.9575883     
   57463627.7345645     
   56195015.6331902     
   56194702.6044298     
   56193747.8123098     
   56192140.7178409     
   56189912.9527799     
   56187140.1549474     
   56183936.7950447     
   56180445.0039902     
   56176820.6859110     
   56173221.1681271     
   56169797.8989624     
   56166695.2328335     
   56164053.2694361     
   56162010.5053426     
   56160701.5943715     
   56160246.9079364     
   54920553.8717970     
   54920204.7645887     
   54919121.7832337     
   54917269.2064445     
   54914676.4579240     
   54911430.1780054     
   54907663.8807158     
   54903544.8888198     
   54899260.2421420     
   54895003.9403477     
   54890967.3773694     
   54887333.4268543     
   54884272.9641988     
   54881941.4143165     
   54880472.7266216     
   54879969.1431219     
   53650715.8571132     
   53650317.1737472     
   53649067.5425605     
   53646909.6930361     
   53643874.8285879     
   53640066.3902021     
   53635644.0341825     
   53630807.3014349     
   53625779.6821850     
   53620794.2400512     
   53616081.6825989     
   53611860.9890519     
   53608331.8068385     
   53605667.2227874     
   53604005.5037671     
   53603440.0647216     
   52367483.1822598     
   52367006.1979744     
   52365509.0291056     
   52362922.9437524     
   52359290.4936094     
   52354741.9440211     
   52349473.4109226     
   52343726.4173620     
   52337769.1242886     
   52331879.6914116     
   52326332.0440576     
   52321383.8885270     
   52317266.3522732     
   52314174.3587364     
   52312256.9420025     
   52311607.1963646     
   51053353.8465907     
   51052756.3185583     
   51050893.0829080     
   51047700.1000126     
   51043246.5580455     
   51037704.1455202     
   51031319.1650341     
   51024387.5147729     
   51017232.6113510     
   51010186.2807046     
   51003572.4579032     
   50997693.2720975     
   50992816.8670159     
   50989166.2426646     
   50986908.5782373     
   50986144.9107573     
   49691709.8826426     
   49690937.2971318     
   49688555.7644592     
   49684528.3588440     
   49678971.9297410     
   49672118.7832825     
   49664282.4815189     
   49655828.0314141     
   49647146.4283600     
   49638633.2514258     
   49630670.7614060     
   49623612.7580872     
   49617771.3653833     
   49613404.9843749     
   49610706.9085296     
   49609794.5107738     
   48267085.2022983     
   48266071.7807651     
   48262989.5402791     
   48257857.9928989     
   48250868.5407836     
   48242337.7745452     
   48232666.6139214     
   48222305.7025331     
   48211726.8681383     
   48201399.9842037     
   48191774.2354866     
   48183262.6197953     
   48176228.5257858     
   48170973.4156556     
   48167724.9956701     
   48166625.7364541     
   46765347.3862451     
   46764017.1834720     
   46760025.5608010     
   46753485.5158895     
   46744695.9641642     
   46734085.6895114     
   46722165.5353897     
   46709489.2779230     
   46696622.7160897     
   46684119.8167885     
   46672504.3194328     
   46662255.0505691     
   46653793.3045703     
   46647470.9695376     
   46643558.5651691     
   46642232.9552000     
   45173812.2556299     
   45172080.6483101     
   45166949.8255623     
   45158671.8888399     
   45147692.4713650     
   45134584.3126370     
   45119992.3823261     
   45104590.9028043     
   45089051.3258418     
   45074019.3597858     
   45060098.6092867     
   45047838.2806070     
   45037722.6547314     
   45030160.5372161     
   45025473.5587995     
   45023882.9536818     
   43481311.5357853     
   43479087.3422133     
   43472573.3827588     
   43462215.8529817     
   43448652.6059560     
   43432635.3105140     
   43414967.7044977     
   43396460.0291047     
   43377897.8971140     
   43360022.5680760     
   43343518.9907331     
   43329007.9855535     
   43317039.4349226     
   43308084.1313564     
   43302522.8301798     
   43300631.9719033     
   41678232.8524115     
   41675421.2767846     
   41667275.6596576     
   41654501.4055223     
   41637980.2360679     
   41618679.9057656     
   41597586.2944634     
   41575657.4004577     
   41553796.1547939     
   41532837.3270918     
   41513543.1777838     
   41496602.7897764     
   41482630.9294624     
   41472163.5204328     
   41465648.0155271     
   41463427.9748744     
   39756548.6693081     
   39753055.2323560     
   39743037.4428858     
   39727535.9008166     
   39707733.5397857     
   39684851.9286286     
   39660078.7655488     
   39634524.9259490     
   39609205.7481815     
   39585039.2723705     
   39562853.7303760     
   39543397.3314787     
   39527344.9801862     
   39515298.5632937     
   39507779.2025042     
   39505210.7649190     
   37709847.3475444     
   37705582.9478836     
   37693476.6688535     
   37674991.9943193     
   37651675.1912795     
   37625037.4287948     
   37596480.7361576     
   37567263.7226397     
   37538497.9000145     
   37511163.5338743     
   37486134.3563272     
   37464201.8475193     
   37446092.0348764     
   37432471.2522211     
   37423940.3966704     
   37421017.9650802     
   35533375.7959896     
   35528263.0521468     
   35513896.6028334     
   35492263.2559661     
   35465337.7906105     
   35434950.8053573     
   35402719.0159473     
   35370028.7133076     
   35338056.4612611     
   35307810.4273328     
   35280178.4601414     
   35255972.0033315     
   35235955.7887231     
   35220857.7327765     
   35211363.3310908     
   35208099.7329584     
   33224099.4812849     
   33218080.5660929     
   33201352.5837427     
   33176540.2946669     
   33146111.9340639     
   33112234.7515258     
   33076721.0551947     
   33041044.2144518     
   33006396.6666302     
   32973765.5758916     
   32944009.7597819     
   32917927.8814655     
   32896308.6584559     
   32879943.5785654     
   32869606.2379571     
   32866039.4366491     
   30780781.9699432     
   30773828.3664993     
   30754740.6545063     
   30726912.2882856     
   30693363.0228298     
   30656589.8766191     
   30618551.5251805     
   30580741.1102680     
   30544298.5053795     
   30510128.1886539     
   30479007.1224204     
   30451678.1203477     
   30428926.8169503     
   30411625.9866197     
   30400664.4904771     
   30396876.2363695     
   28204082.6902830     
   28196207.8758384     
   28174909.6840099     
   28144499.0546906     
   28108584.1891218     
   28069940.4406122     
   28030578.4116720     
   27991912.3771693     
   27954945.7441026     
   27920433.4368371     
   27889015.3348263     
   27861329.5994480     
   27838113.4941556     
   27820301.2225969     
   27809031.4203799     
   27805185.1069810     
   25496667.9088540     
   25487945.8217768     
   25464799.6046583     
   25432623.8847212     
   25395598.8759004     
   25356645.7179256     
   25317669.6085313     
   25279878.9693583     
   25244055.2972534     
   25210747.4696980     
   25180413.9967480     
   25153543.1675130     
   25130774.2805734     
   25113026.7378954     
   25101751.9194358     
   25097957.8263962     
   22663327.2701718     
   22653923.0781825     
   22629617.1646071     
   22597054.6441485     
   22560840.9553187     
   22523770.5863777     
   22487415.5673971     
   22452649.8724344     
   22419974.9025821     
   22389708.9151400     
   22362112.8697580     
   22337496.6585795     
   22316347.8610852     
   22299516.0293614     
   22288518.3202961     
   22284718.6391151     
   19711077.5375358     
   19701321.2713623     
   19677096.7960533     
   19646386.3552279     
   19613766.2342186     
   19581420.0921896     
   19550353.9402221     
   19521045.7482573     
   19493720.3295351     
   19468491.3697201     
   19445447.4509759     
   19424726.3809206     
   19406611.0427951     
   19391752.5242660     
   19381441.0063241     
   19377627.2002988     
   16649285.2946599     
   16639835.5647749     
   16618023.1893790     
   16592769.5720209     
   16567433.6311149     
   16543080.8732534     
   16520132.9574109     
   16498735.5228033     
   16478918.8579500     
   16460668.6487291     
   16443967.6032083     
   16428830.0333317     
   16415352.2058739     
   16403764.1545470     
   16394896.9248662     
   16391313.1704714     
   13489628.4795109     
   13482417.3329967     
   13467849.5053217     
   13453154.8871922     
   13439046.2223277     
   13425807.6920962     
   13413501.4296232     
   13402119.7564062     
   13391626.8530606     
   13381979.2914916     
   13373137.6285888     
   13365075.8810269     
   13357784.6874379     
   13351277.0830412     
   13345308.7737824     
   13342402.2962776     
   10250000.0000000     
   10250000.0000000     
   10250000.0000000     
   10250000.0000000     
   10250000.0000000     
   10250000.0000000     
   10250000.0000000     
   10250000.0000000     
   10250000.0000000     
   10250000.0000000     
   10250000.0000000     
   10250000.0000000     
   10250000.0000000     
   10250000.0000000     
   10250000.0000000     
   10250000.0000000     
VECTORS u double 
    0.00000E+00         0.44800E+00         0.00000E+00
    0.00000E+00         0.44209E+00         0.00000E+00
    0.00000E+00         0.42089E+00         0.00000E+00
    0.00000E+00         0.38868E+00         0.00000E+00
    0.00000E+00         0.34991E+00         0.00000E+00
    0.00000E+00         0.30964E+00         0.00000E+00
    0.00000E+00         0.27297E+00         0.00000E+00
    0.00000E+00         0.24090E+00         0.00000E+00
    0.00000E+00         0.21217E+00         0.00000E+00
    0.00000E+00         0.18535E+00         0.00000E+00
    0.00000E+00         0.15929E+00         0.00000E+00
    0.00000E+00         0.13298E+00         0.00000E+00
    0.00000E+00         0.10540E+00         0.00000E+00
    0.00000E+00         0.75356E-01         0.00000E+00
    0.00000E+00         0.41302E-01         0.00000E+00
    0.00000E+00         0.00000E+00         0.00000E+00
    0.35673E+00         0.43143E+00         0.00000E+00
    0.31050E+00         0.41497E+00         0.00000E+00
    0.25650E+00         0.39057E+00         0.00000E+00
    0.20269E+00         0.36018E+00         0.00000E+00
    0.15369E+00         0.32681E+00         0.00000E+00
    0.11792E+00         0.29346E+00         0.00000E+00
    0.99658E-01         0.26198E+00         0.00000E+00
    0.88436E-01         0.23288E+00         0.00000E+00
    0.79034E-01         0.20591E+00         0.00000E+00
    0.70347E-01         0.18031E+00         0.00000E+00
    0.61819E-01         0.15520E+00         0.00000E+00
    0.53048E-01         0.12968E+00         0.00000E+00
    0.43605E-01         0.10277E+00         0.00000E+00
    0.32868E-01         0.73344E-01         0.00000E+00
    0.19665E-01         0.39862E-01         0.00000E+00
    0.00000E+00         0.00000E+00         0.00000E+00
    0.54333E+00         0.37358E+00         0.00000E+00
    0.46218E+00         0.35003E+00         0.00000E+00
    0.38495E+00         0.32622E+00         0.00000E+00
    0.31741E+00         0.30208E+00         0.00000E+00
    0.26316E+00         0.27837E+00         0.00000E+00
    0.22143E+00         0.25562E+00         0.00000E+00
    0.19134E+00         0.23311E+00         0.00000E+00
    0.16888E+00         0.21042E+00         0.00000E+00
    0.14995E+00         0.18793E+00         0.00000E+00
    0.13248E+00         0.16569E+00         0.00000E+00
    0.11540E+00         0.14328E+00         0.00000E+00
    0.97921E-01         0.12004E+00         0.00000E+00
    0.79218E-01         0.95169E-01         0.00000E+00
    0.58197E-01         0.67670E-01         0.00000E+00
    0.32925E-01         0.36302E-01         0.00000E+00
    0.00000E+00         0.00000E+00         0.00000E+00
    0.65788E+00         0.28588E+00         0.00000E+00
    0.57134E+00         0.26944E+00         0.00000E+00
    0.49233E+00         0.25332E+00         0.00000E+00
    0.42222E+00         0.23797E+00         0.00000E+00
    0.36282E+00         0.22306E+00         0.00000E+00
    0.31410E+00         0.20817E+00         0.00000E+00
    0.27469E+00         0.19291E+00         0.00000E+00
    0.24220E+00         0.17693E+00         0.00000E+00
    0.21390E+00         0.16017E+00         0.00000E+00
    0.18769E+00         0.14271E+00         0.00000E+00
    0.16213E+00         0.12437E+00         0.00000E+00
    0.13612E+00         0.10476E+00         0.00000E+00
    0.10856E+00         0.83248E-01         0.00000E+00
    0.78068E-01         0.59094E-01         0.00000E+00
    0.42748E-01         0.31516E-01         0.00000E+00
    0.00000E+00         0.00000E+00         0.00000E+00
    0.76344E+00         0.19352E+00         0.00000E+00
    0.67334E+00         0.18510E+00         0.00000E+00
    0.59116E+00         0.17685E+00         0.00000E+00
    0.51750E+00         0.16898E+00         0.00000E+00
    0.45297E+00         0.16133E+00         0.00000E+00
    0.39748E+00         0.15346E+00         0.00000E+00
    0.34996E+00         0.14492E+00         0.00000E+00
    0.30866E+00         0.13540E+00         0.00000E+00
    0.27160E+00         0.12472E+00         0.00000E+00
    0.23694E+00         0.11283E+00         0.00000E+00
    0.20316E+00         0.99579E-01         0.00000E+00
    0.16897E+00         0.84703E-01         0.00000E+00
    0.13311E+00         0.67769E-01         0.00000E+00
    0.94166E-01         0.48274E-01         0.00000E+00
    0.50446E-01         0.25758E-01         0.00000E+00
    0.00000E+00         0.00000E+00         0.00000E+00
    0.86140E+00         0.97975E-01         0.00000E+00
    0.76782E+00         0.96883E-01         0.00000E+00
    0.68193E+00         0.95909E-01         0.00000E+00
    0.60407E+00         0.95052E-01         0.00000E+00
    0.53439E+00         0.94145E-01         0.00000E+00
    0.47258E+00         0.92856E-01         0.00000E+00
    0.41778E+00         0.90804E-01         0.00000E+00
    0.36863E+00         0.87674E-01         0.00000E+00
    0.32356E+00         0.83258E-01         0.00000E+00
    0.28098E+00         0.77412E-01         0.00000E+00
    0.23943E+00         0.69981E-01         0.00000E+00
    0.19756E+00         0.60746E-01         0.00000E+00
    0.15407E+00         0.49409E-01         0.00000E+00
    0.10762E+00         0.35647E-01         0.00000E+00
    0.56756E-01         0.19202E-01         0.00000E+00
    0.00000E+00         0.00000E+00         0.00000E+00
    0.95215E+00        -0.11167E-02         0.00000E+00
    0.85487E+00         0.47365E-02         0.00000E+00
    0.76502E+00         0.10610E-01         0.00000E+00
    0.68271E+00         0.16444E-01         0.00000E+00
    0.60790E+00         0.22068E-01         0.00000E+00
    0.54019E+00         0.27220E-01         0.00000E+00
    0.47879E+00         0.31595E-01         0.00000E+00
    0.42259E+00         0.34914E-01         0.00000E+00
    0.37026E+00         0.36954E-01         0.00000E+00
    0.32041E+00         0.37535E-01         0.00000E+00
    0.27167E+00         0.36487E-01         0.00000E+00
    0.22272E+00         0.33617E-01         0.00000E+00
    0.17231E+00         0.28706E-01         0.00000E+00
    0.11919E+00         0.21541E-01         0.00000E+00
    0.62133E-01         0.11976E-01         0.00000E+00
    0.00000E+00         0.00000E+00         0.00000E+00
    0.10359E+01        -0.10389E+00         0.00000E+00
    0.93477E+00        -0.91366E-01         0.00000E+00
    0.84080E+00        -0.78892E-01         0.00000E+00
    0.75399E+00        -0.66546E-01         0.00000E+00
    0.67420E+00        -0.54473E-01         0.00000E+00
    0.60097E+00        -0.42882E-01         0.00000E+00
    0.53358E+00        -0.32015E-01         0.00000E+00
    0.47104E+00        -0.22110E-01         0.00000E+00
    0.41217E+00        -0.13383E-01         0.00000E+00
    0.35574E+00        -0.60245E-02         0.00000E+00
    0.30046E+00        -0.21054E-03         0.00000E+00
    0.24509E+00         0.38803E-02         0.00000E+00
    0.18845E+00         0.60703E-02         0.00000E+00
    0.12939E+00         0.62025E-02         0.00000E+00
    0.66872E-01         0.41785E-02         0.00000E+00
    0.00000E+00         0.00000E+00         0.00000E+00
    0.11128E+01        -0.21041E+00         0.00000E+00
    0.10078E+01        -0.19141E+00         0.00000E+00
    0.90964E+00        -0.17247E+00         0.00000E+00
    0.81838E+00        -0.15369E+00         0.00000E+00
    0.73380E+00        -0.13517E+00         0.00000E+00
    0.65545E+00        -0.11706E+00         0.00000E+00
    0.58263E+00        -0.99565E-01         0.00000E+00
    0.51440E+00        -0.82881E-01         0.00000E+00
    0.44971E+00        -0.67205E-01         0.00000E+00
    0.38739E+00        -0.52724E-01         0.00000E+00
    0.32626E+00        -0.39617E-01         0.00000E+00
    0.26514E+00        -0.28055E-01         0.00000E+00
    0.20292E+00        -0.18200E-01         0.00000E+00
    0.13857E+00        -0.10190E-01         0.00000E+00
    0.71167E-01        -0.41165E-02         0.00000E+00
    0.00000E+00         0.00000E+00         0.00000E+00
    0.11832E+01        -0.32078E+00         0.00000E+00
    0.10741E+01        -0.29540E+00         0.00000E+00
    0.97178E+00        -0.27007E+00         0.00000E+00
    0.87618E+00        -0.24485E+00         0.00000E+00
    0.78709E+00        -0.21981E+00         0.00000E+00
    0.70404E+00        -0.19506E+00         0.00000E+00
    0.62632E+00        -0.17075E+00         0.00000E+00
    0.55305E+00        -0.14705E+00         0.00000E+00
    0.48321E+00        -0.12414E+00         0.00000E+00
    0.41571E+00        -0.10219E+00         0.00000E+00
    0.34941E+00        -0.81393E-01         0.00000E+00
    0.28319E+00        -0.61907E-01         0.00000E+00
    0.21603E+00        -0.43899E-01         0.00000E+00
    0.14694E+00        -0.27513E-01         0.00000E+00
    0.75141E-01        -0.12859E-01         0.00000E+00
    0.00000E+00         0.00000E+00         0.00000E+00
    0.12471E+01        -0.43519E+00         0.00000E+00
    0.11339E+01        -0.40344E+00         0.00000E+00
    0.10274E+01        -0.37170E+00         0.00000E+00
    0.92759E+00        -0.33996E+00         0.00000E+00
    0.83429E+00        -0.30828E+00         0.00000E+00
    0.74697E+00        -0.27671E+00         0.00000E+00
    0.66491E+00        -0.24537E+00         0.00000E+00
    0.58722E+00        -0.21439E+00         0.00000E+00
    0.51292E+00        -0.18394E+00         0.00000E+00
    0.44092E+00        -0.15419E+00         0.00000E+00
    0.37013E+00        -0.12531E+00         0.00000E+00
    0.29948E+00        -0.97487E-01         0.00000E+00
    0.22796E+00        -0.70891E-01         0.00000E+00
    0.15467E+00        -0.45685E-01         0.00000E+00
    0.78867E-01        -0.22015E-01         0.00000E+00
    0.00000E+00         0.00000E+00         0.00000E+00
    0.13046E+01        -0.55387E+00         0.00000E+00
    0.11871E+01        -0.51568E+00         0.00000E+00
    0.10764E+01        -0.47742E+00         0.00000E+00
    0.97267E+00        -0.43905E+00         0.00000E+00
    0.87550E+00        -0.40054E+00         0.00000E+00
    0.78438E+00        -0.36193E+00         0.00000E+00
    0.69854E+00        -0.32330E+00         0.00000E+00
    0.61708E+00        -0.28476E+00         0.00000E+00
    0.53899E+00        -0.24645E+00         0.00000E+00
    0.46319E+00        -0.20855E+00         0.00000E+00
    0.38859E+00        -0.17123E+00         0.00000E+00
    0.31413E+00        -0.13467E+00         0.00000E+00
    0.23883E+00        -0.99085E-01         0.00000E+00
    0.16183E+00        -0.64653E-01         0.00000E+00
    0.82388E-01        -0.31564E-01         0.00000E+00
    0.00000E+00         0.00000E+00         0.00000E+00
    0.13556E+01        -0.67710E+00         0.00000E+00
    0.12336E+01        -0.63231E+00         0.00000E+00
    0.11188E+01        -0.58736E+00         0.00000E+00
    0.10113E+01        -0.54214E+00         0.00000E+00
    0.91068E+00        -0.49658E+00         0.00000E+00
    0.81626E+00        -0.45067E+00         0.00000E+00
    0.72724E+00        -0.40446E+00         0.00000E+00
    0.64267E+00        -0.35805E+00         0.00000E+00
    0.56148E+00        -0.31156E+00         0.00000E+00
    0.48257E+00        -0.26516E+00         0.00000E+00
    0.40483E+00        -0.21903E+00         0.00000E+00
    0.32721E+00        -0.17338E+00         0.00000E+00
    0.24870E+00        -0.12842E+00         0.00000E+00
    0.16844E+00        -0.84381E-01         0.00000E+00
    0.85716E-01        -0.41493E-01         0.00000E+00
    0.00000E+00         0.00000E+00         0.00000E+00
    0.13997E+01        -0.80516E+00         0.00000E+00
    0.12731E+01        -0.75354E+00         0.00000E+00
    0.11543E+01        -0.70165E+00         0.00000E+00
    0.10434E+01        -0.64932E+00         0.00000E+00
    0.93968E+00        -0.59642E+00         0.00000E+00
    0.84251E+00        -0.54291E+00         0.00000E+00
    0.75095E+00        -0.48880E+00         0.00000E+00
    0.66393E+00        -0.43418E+00         0.00000E+00
    0.58035E+00        -0.37917E+00         0.00000E+00
    0.49905E+00        -0.32393E+00         0.00000E+00
    0.41886E+00        -0.26864E+00         0.00000E+00
    0.33871E+00        -0.21354E+00         0.00000E+00
    0.25755E+00        -0.15885E+00         0.00000E+00
    0.17451E+00        -0.10484E+00         0.00000E+00
    0.88846E-01        -0.51791E-01         0.00000E+00
    0.00000E+00         0.00000E+00         0.00000E+00
    0.14364E+01        -0.93832E+00         0.00000E+00
    0.13051E+01        -0.87954E+00         0.00000E+00
    0.11825E+01        -0.82039E+00         0.00000E+00
    0.10685E+01        -0.76062E+00         0.00000E+00
    0.96224E+00        -0.70005E+00         0.00000E+00
    0.86292E+00        -0.63859E+00         0.00000E+00
    0.76947E+00        -0.57624E+00         0.00000E+00
    0.68074E+00        -0.51307E+00         0.00000E+00
    0.59551E+00        -0.44918E+00         0.00000E+00
    0.51253E+00        -0.38475E+00         0.00000E+00
    0.43060E+00        -0.31997E+00         0.00000E+00
    0.34856E+00        -0.25507E+00         0.00000E+00
    0.26534E+00        -0.19032E+00         0.00000E+00
    0.18000E+00        -0.12600E+00         0.00000E+00
    0.91755E-01        -0.62445E-01         0.00000E+00
    0.00000E+00         0.00000E+00         0.00000E+00
    0.14650E+01        -0.10767E+01         0.00000E+00
    0.13290E+01        -0.10104E+01         0.00000E+00
    0.12029E+01        -0.94363E+00         0.00000E+00
    0.10862E+01        -0.87603E+00         0.00000E+00
    0.97797E+00        -0.80740E+00         0.00000E+00
    0.87717E+00        -0.73762E+00         0.00000E+00
    0.78257E+00        -0.66665E+00         0.00000E+00
    0.69288E+00        -0.59457E+00         0.00000E+00
    0.60676E+00        -0.52146E+00         0.00000E+00
    0.52287E+00        -0.44751E+00         0.00000E+00
    0.43992E+00        -0.37291E+00         0.00000E+00
    0.35666E+00        -0.29790E+00         0.00000E+00
    0.27198E+00        -0.22277E+00         0.00000E+00
    0.18484E+00        -0.14783E+00         0.00000E+00
    0.94409E-01        -0.73437E-01         0.00000E+00
    0.00000E+00         0.00000E+00         0.00000E+00
    0.14846E+01        -0.12205E+01         0.00000E+00
    0.13440E+01        -0.11462E+01         0.00000E+00
    0.12148E+01        -0.10713E+01         0.00000E+00
    0.10959E+01        -0.99545E+00         0.00000E+00
    0.98641E+00        -0.91833E+00         0.00000E+00
    0.88487E+00        -0.83981E+00         0.00000E+00
    0.78991E+00        -0.75984E+00         0.00000E+00
    0.70006E+00        -0.67847E+00         0.00000E+00
    0.61386E+00        -0.59581E+00         0.00000E+00
    0.52985E+00        -0.51201E+00         0.00000E+00
    0.44662E+00        -0.42729E+00         0.00000E+00
    0.36286E+00        -0.34189E+00         0.00000E+00
    0.27733E+00        -0.25610E+00         0.00000E+00
    0.18895E+00        -0.17026E+00         0.00000E+00
    0.96757E-01        -0.84741E-01         0.00000E+00
    0.00000E+00         0.00000E+00         0.00000E+00
    0.14941E+01        -0.13695E+01         0.00000E+00
    0.13493E+01        -0.12867E+01         0.00000E+00
    0.12174E+01        -0.12032E+01         0.00000E+00
    0.10971E+01        -0.11186E+01         0.00000E+00
    0.98703E+00        -0.10326E+01         0.00000E+00
    0.88556E+00        -0.94487E+00         0.00000E+00
    0.79109E+00        -0.85550E+00         0.00000E+00
    0.70194E+00        -0.76448E+00         0.00000E+00
    0.61650E+00        -0.67193E+00         0.00000E+00
    0.53319E+00        -0.57800E+00         0.00000E+00
    0.45047E+00        -0.48290E+00         0.00000E+00
    0.36693E+00        -0.38686E+00         0.00000E+00
    0.28124E+00        -0.29018E+00         0.00000E+00
    0.19220E+00        -0.19320E+00         0.00000E+00
    0.98740E-01        -0.96317E-01         0.00000E+00
    0.00000E+00         0.00000E+00         0.00000E+00
    0.14923E+01        -0.15235E+01         0.00000E+00
    0.13438E+01        -0.14317E+01         0.00000E+00
    0.12099E+01        -0.13391E+01         0.00000E+00
    0.10890E+01        -0.12452E+01         0.00000E+00
    0.97920E+00        -0.11497E+01         0.00000E+00
    0.87872E+00        -0.10524E+01         0.00000E+00
    0.78565E+00        -0.95318E+00         0.00000E+00
    0.69812E+00        -0.85217E+00         0.00000E+00
    0.61433E+00        -0.74943E+00         0.00000E+00
    0.53257E+00        -0.64512E+00         0.00000E+00
    0.45119E+00        -0.53943E+00         0.00000E+00
    0.36865E+00        -0.43258E+00         0.00000E+00
    0.28351E+00        -0.32484E+00         0.00000E+00
    0.19445E+00        -0.21655E+00         0.00000E+00
    0.10028E+00        -0.10811E+00         0.00000E+00
    0.00000E+00         0.00000E+00         0.00000E+00
    0.14778E+01        -0.16820E+01         0.00000E+00
    0.13263E+01        -0.15805E+01         0.00000E+00
    0.11913E+01        -0.14782E+01         0.00000E+00
    0.10707E+01        -0.13745E+01         0.00000E+00
    0.96225E+00        -0.12690E+01         0.00000E+00
    0.86378E+00        -0.11616E+01         0.00000E+00
    0.77310E+00        -0.10523E+01         0.00000E+00
    0.68814E+00        -0.94095E+00         0.00000E+00
    0.60693E+00        -0.82778E+00         0.00000E+00
    0.52761E+00        -0.71291E+00         0.00000E+00
    0.44842E+00        -0.59649E+00         0.00000E+00
    0.36770E+00        -0.47872E+00         0.00000E+00
    0.28389E+00        -0.35985E+00         0.00000E+00
    0.19553E+00        -0.24016E+00         0.00000E+00
    0.10129E+00        -0.12005E+00         0.00000E+00
    0.00000E+00         0.00000E+00         0.00000E+00
    0.14491E+01        -0.18441E+01         0.00000E+00
    0.12955E+01        -0.17324E+01         0.00000E+00
    0.11606E+01        -0.16198E+01         0.00000E+00
    0.10414E+01        -0.15057E+01         0.00000E+00
    0.93550E+00        -0.13898E+01         0.00000E+00
    0.84014E+00        -0.12719E+01         0.00000E+00
    0.75290E+00        -0.11520E+01         0.00000E+00
    0.67151E+00        -0.10301E+01         0.00000E+00
    0.59383E+00        -0.90629E+00         0.00000E+00
    0.51787E+00        -0.78075E+00         0.00000E+00
    0.44177E+00        -0.65357E+00         0.00000E+00
    0.36374E+00        -0.52489E+00         0.00000E+00
    0.28210E+00        -0.39490E+00         0.00000E+00
    0.19524E+00        -0.26384E+00         0.00000E+00
    0.10166E+00        -0.13206E+00         0.00000E+00
    0.00000E+00         0.00000E+00         0.00000E+00
    0.14045E+01        -0.20089E+01         0.00000E+00
    0.12502E+01        -0.18863E+01         0.00000E+00
    0.11167E+01        -0.17628E+01         0.00000E+00
    0.10004E+01        -0.16377E+01         0.00000E+00
    0.89823E+00        -0.15108E+01         0.00000E+00
    0.80719E+00        -0.13820E+01         0.00000E+00
    0.72451E+00        -0.12512E+01         0.00000E+00
    0.64771E+00        -0.11185E+01         0.00000E+00
    0.57453E+00        -0.98407E+00         0.00000E+00
    0.50287E+00        -0.84789E+00         0.00000E+00
    0.43076E+00        -0.71005E+00         0.00000E+00
    0.35634E+00        -0.57061E+00         0.00000E+00
    0.27778E+00        -0.42966E+00         0.00000E+00
    0.19331E+00        -0.28737E+00         0.00000E+00
    0.10125E+00        -0.14401E+00         0.00000E+00
    0.00000E+00         0.00000E+00         0.00000E+00
    0.13423E+01        -0.21749E+01         0.00000E+00
    0.11890E+01        -0.20407E+01         0.00000E+00
    0.10585E+01        -0.19056E+01         0.00000E+00
    0.94670E+00        -0.17690E+01         0.00000E+00
    0.84977E+00        -0.16307E+01         0.00000E+00
    0.76432E+00        -0.14905E+01         0.00000E+00
    0.68735E+00        -0.13487E+01         0.00000E+00
    0.61618E+00        -0.12052E+01         0.00000E+00
    0.54845E+00        -0.10601E+01         0.00000E+00
    0.48201E+00        -0.91341E+00         0.00000E+00
    0.41484E+00        -0.76516E+00         0.00000E+00
    0.34498E+00        -0.61527E+00         0.00000E+00
    0.27049E+00        -0.46370E+00         0.00000E+00
    0.18943E+00        -0.31048E+00         0.00000E+00
    0.99879E-01        -0.15581E+00         0.00000E+00
    0.00000E+00         0.00000E+00         0.00000E+00
    0.12607E+01        -0.23402E+01         0.00000E+00
    0.11105E+01        -0.21938E+01         0.00000E+00
    0.98513E+00        -0.20465E+01         0.00000E+00
    0.87957E+00        -0.18978E+01         0.00000E+00
    0.78946E+00        -0.17475E+01         0.00000E+00
    0.71097E+00        -0.15958E+01         0.00000E+00
    0.64084E+00        -0.14428E+01         0.00000E+00
    0.57630E+00        -0.12885E+01         0.00000E+00
    0.51495E+00        -0.11330E+01         0.00000E+00
    0.45463E+00        -0.97621E+00         0.00000E+00
    0.39333E+00        -0.81801E+00         0.00000E+00
    0.32904E+00        -0.65819E+00         0.00000E+00
    0.25972E+00        -0.49655E+00         0.00000E+00
    0.18322E+00        -0.33292E+00         0.00000E+00
    0.97340E-01        -0.16731E+00         0.00000E+00
    0.00000E+00         0.00000E+00         0.00000E+00
    0.11579E+01        -0.25024E+01         0.00000E+00
    0.10134E+01        -0.23431E+01         0.00000E+00
    0.89554E+00        -0.21830E+01         0.00000E+00
    0.79834E+00        -0.20217E+01         0.00000E+00
    0.71677E+00        -0.18592E+01         0.00000E+00
    0.64660E+00        -0.16958E+01         0.00000E+00
    0.58442E+00        -0.15317E+01         0.00000E+00
    0.52745E+00        -0.13669E+01         0.00000E+00
    0.47332E+00        -0.12014E+01         0.00000E+00
    0.41997E+00        -0.10350E+01         0.00000E+00
    0.36543E+00        -0.86756E+00         0.00000E+00
    0.30773E+00        -0.69858E+00         0.00000E+00
    0.24477E+00        -0.52767E+00         0.00000E+00
    0.17420E+00        -0.35443E+00         0.00000E+00
    0.93354E-01        -0.17857E+00         0.00000E+00
    0.00000E+00         0.00000E+00         0.00000E+00
    0.10320E+01        -0.26587E+01         0.00000E+00
    0.89649E+00        -0.24859E+01         0.00000E+00
    0.78899E+00        -0.23123E+01         0.00000E+00
    0.70249E+00        -0.21380E+01         0.00000E+00
    0.63123E+00        -0.19631E+01         0.00000E+00
    0.57071E+00        -0.17881E+01         0.00000E+00
    0.51749E+00        -0.16132E+01         0.00000E+00
    0.46891E+00        -0.14384E+01         0.00000E+00
    0.42275E+00        -0.12636E+01         0.00000E+00
    0.37712E+00        -0.10885E+01         0.00000E+00
    0.33019E+00        -0.91265E+00         0.00000E+00
    0.28010E+00        -0.73550E+00         0.00000E+00
    0.22476E+00        -0.55638E+00         0.00000E+00
    0.16167E+00        -0.37464E+00         0.00000E+00
    0.87688E-01        -0.18973E+00         0.00000E+00
    0.00000E+00         0.00000E+00         0.00000E+00
    0.88133E+00        -0.28052E+01         0.00000E+00
    0.75872E+00        -0.26183E+01         0.00000E+00
    0.66499E+00        -0.24309E+01         0.00000E+00
    0.59173E+00        -0.22433E+01         0.00000E+00
    0.53253E+00        -0.20561E+01         0.00000E+00
    0.48285E+00        -0.18699E+01         0.00000E+00
    0.43944E+00        -0.16848E+01         0.00000E+00
    0.39991E+00        -0.15009E+01         0.00000E+00
    0.36233E+00        -0.13178E+01         0.00000E+00
    0.32505E+00        -0.11351E+01         0.00000E+00
    0.28650E+00        -0.95201E+00         0.00000E+00
    0.24500E+00        -0.76791E+00         0.00000E+00
    0.19856E+00        -0.58185E+00         0.00000E+00
    0.14469E+00        -0.39287E+00         0.00000E+00
    0.80068E-01        -0.20005E+00         0.00000E+00
    0.00000E+00         0.00000E+00         0.00000E+00
    0.70405E+00        -0.29375E+01         0.00000E+00
    0.59944E+00        -0.27358E+01         0.00000E+00
    0.52347E+00        -0.25342E+01         0.00000E+00
    0.46603E+00        -0.23334E+01         0.00000E+00
    0.42045E+00        -0.21346E+01         0.00000E+00
    0.38255E+00        -0.19381E+01         0.00000E+00
    0.34957E+00        -0.17442E+01         0.00000E+00
    0.31957E+00        -0.15524E+01         0.00000E+00
    0.29102E+00        -0.13623E+01         0.00000E+00
    0.26262E+00        -0.11732E+01         0.00000E+00
    0.23309E+00        -0.98435E+00         0.00000E+00
    0.20106E+00        -0.79469E+00         0.00000E+00
    0.16481E+00        -0.60312E+00         0.00000E+00
    0.12204E+00        -0.40831E+00         0.00000E+00
    0.69422E-01        -0.20883E+00         0.00000E+00
    0.00000E+00         0.00000E+00         0.00000E+00
    0.49849E+00        -0.30491E+01         0.00000E+00
    0.41866E+00        -0.28323E+01         0.00000E+00
    0.36491E+00        -0.26165E+01         0.00000E+00
    0.32557E+00        -0.24035E+01         0.00000E+00
    0.29472E+00        -0.21946E+01         0.00000E+00
    0.26920E+00        -0.19898E+01         0.00000E+00
    0.24705E+00        -0.17887E+01         0.00000E+00
    0.22690E+00        -0.15909E+01         0.00000E+00
    0.20770E+00        -0.13955E+01         0.00000E+00
    0.18854E+00        -0.12017E+01         0.00000E+00
    0.16855E+00        -0.10085E+01         0.00000E+00
    0.14673E+00        -0.81478E+00         0.00000E+00
    0.12182E+00        -0.61925E+00         0.00000E+00
    0.92035E-01        -0.42027E+00         0.00000E+00
    0.54338E-01        -0.21571E+00         0.00000E+00
    0.00000E+00         0.00000E+00         0.00000E+00
    0.26326E+00        -0.31310E+01         0.00000E+00
    0.21785E+00        -0.28989E+01         0.00000E+00
    0.19030E+00        -0.26706E+01         0.00000E+00
    0.17038E+00        -0.24484E+01         0.00000E+00
    0.15485E+00        -0.22325E+01         0.00000E+00
    0.14203E+00        -0.20220E+01         0.00000E+00
    0.13090E+00        -0.18164E+01         0.00000E+00
    0.12078E+00        -0.16147E+01         0.00000E+00
    0.11112E+00        -0.14159E+01         0.00000E+00
    0.10147E+00        -0.12192E+01         0.00000E+00
    0.91366E-01        -0.10234E+01         0.00000E+00
    0.80303E-01        -0.82725E+00         0.00000E+00
    0.67610E-01        -0.62938E+00         0.00000E+00
    0.52285E-01        -0.42795E+00         0.00000E+00
    0.32694E-01        -0.22045E+00         0.00000E+00
    0.00000E+00         0.00000E+00         0.00000E+00
    0.00000E+00        -0.31658E+01         0.00000E+00
    0.00000E+00        -0.29234E+01         0.00000E+00
    0.00000E+00        -0.26896E+01         0.00000E+00
    0.00000E+00        -0.24640E+01         0.00000E+00
    0.00000E+00        -0.22454E+01         0.00000E+00
    0.00000E+00        -0.20330E+01         0.00000E+00
    0.00000E+00        -0.18258E+01         0.00000E+00
    0.00000E+00        -0.16227E+01         0.00000E+00
    0.00000E+00        -0.14229E+01         0.00000E+00
    0.00000E+00        -0.12251E+01         0.00000E+00
    0.00000E+00        -0.10284E+01         0.00000E+00
    0.00000E+00        -0.83148E+00         0.00000E+00
    0.00000E+00        -0.63283E+00         0.00000E+00
    0.00000E+00        -0.43061E+00         0.00000E+00
    0.00000E+00        -0.22229E+00         0.00000E+00
    0.00000E+00         0.00000E+00         0.00000E+00
CELL_DATA        450
VECTORS vDarcy double 
    0.11334E-05         0.51855E-08         0.00000E+00
    0.11279E-05         0.12048E-07         0.00000E+00
    0.11260E-05         0.14327E-07         0.00000E+00
    0.11247E-05         0.15100E-07         0.00000E+00
    0.11237E-05         0.15113E-07         0.00000E+00
    0.11236E-05         0.14596E-07         0.00000E+00
    0.11239E-05         0.13814E-07         0.00000E+00
    0.11238E-05         0.12930E-07         0.00000E+00
    0.11237E-05         0.11985E-07         0.00000E+00
    0.11236E-05         0.10984E-07         0.00000E+00
    0.11235E-05         0.99107E-08         0.00000E+00
    0.11233E-05         0.87200E-08         0.00000E+00
    0.11231E-05         0.73093E-08         0.00000E+00
    0.11228E-05         0.54332E-08         0.00000E+00
    0.11209E-05         0.21674E-08         0.00000E+00
    0.10668E-05        -0.26666E-09         0.00000E+00
    0.10596E-05         0.23864E-09         0.00000E+00
    0.10572E-05         0.18622E-08         0.00000E+00
    0.10565E-05         0.36476E-08         0.00000E+00
    0.10559E-05         0.55310E-08         0.00000E+00
    0.10546E-05         0.71015E-08         0.00000E+00
    0.10535E-05         0.78891E-08         0.00000E+00
    0.10528E-05         0.79838E-08         0.00000E+00
    0.10523E-05         0.76867E-08         0.00000E+00
    0.10518E-05         0.71408E-08         0.00000E+00
    0.10514E-05         0.63935E-08         0.00000E+00
    0.10509E-05         0.54341E-08         0.00000E+00
    0.10502E-05         0.41968E-08         0.00000E+00
    0.10490E-05         0.25424E-08         0.00000E+00
    0.10469E-05         0.79412E-09         0.00000E+00
    0.99663E-06        -0.81658E-09         0.00000E+00
    0.99374E-06        -0.96986E-09         0.00000E+00
    0.99173E-06         0.52925E-09         0.00000E+00
    0.99036E-06         0.19285E-08         0.00000E+00
    0.98913E-06         0.28165E-08         0.00000E+00
    0.98772E-06         0.34268E-08         0.00000E+00
    0.98624E-06         0.39674E-08         0.00000E+00
    0.98501E-06         0.43052E-08         0.00000E+00
    0.98405E-06         0.43333E-08         0.00000E+00
    0.98323E-06         0.40949E-08         0.00000E+00
    0.98244E-06         0.36309E-08         0.00000E+00
    0.98160E-06         0.29571E-08         0.00000E+00
    0.98056E-06         0.20806E-08         0.00000E+00
    0.97917E-06         0.11078E-08         0.00000E+00
    0.97741E-06         0.31135E-09         0.00000E+00
    0.93299E-06        -0.12859E-09         0.00000E+00
    0.93131E-06        -0.13342E-09         0.00000E+00
    0.92967E-06         0.22760E-09         0.00000E+00
    0.92818E-06         0.68217E-09         0.00000E+00
    0.92670E-06         0.10599E-08         0.00000E+00
    0.92515E-06         0.13546E-08         0.00000E+00
    0.92361E-06         0.16187E-08         0.00000E+00
    0.92218E-06         0.18398E-08         0.00000E+00
    0.92093E-06         0.19376E-08         0.00000E+00
    0.91982E-06         0.18637E-08         0.00000E+00
    0.91877E-06         0.16216E-08         0.00000E+00
    0.91769E-06         0.12350E-08         0.00000E+00
    0.91650E-06         0.76070E-09         0.00000E+00
    0.91515E-06         0.31224E-09         0.00000E+00
    0.91370E-06         0.56372E-10         0.00000E+00
    0.87665E-06        -0.65776E-10         0.00000E+00
    0.87519E-06        -0.14868E-09         0.00000E+00
    0.87370E-06        -0.13964E-09         0.00000E+00
    0.87221E-06        -0.83434E-10         0.00000E+00
    0.87068E-06        -0.21799E-10         0.00000E+00
    0.86912E-06         0.52372E-10         0.00000E+00
    0.86756E-06         0.14999E-09         0.00000E+00
    0.86608E-06         0.25627E-09         0.00000E+00
    0.86471E-06         0.33067E-09         0.00000E+00
    0.86345E-06         0.33345E-09         0.00000E+00
    0.86226E-06         0.25132E-09         0.00000E+00
    0.86107E-06         0.10377E-09         0.00000E+00
    0.85985E-06        -0.57866E-10         0.00000E+00
    0.85860E-06        -0.15209E-09         0.00000E+00
    0.85738E-06        -0.85212E-10         0.00000E+00
    0.82865E-06        -0.10291E-09         0.00000E+00
    0.82724E-06        -0.29545E-09         0.00000E+00
    0.82579E-06        -0.46038E-09         0.00000E+00
    0.82432E-06        -0.59776E-09         0.00000E+00
    0.82281E-06        -0.70523E-09         0.00000E+00
    0.82129E-06        -0.77127E-09         0.00000E+00
    0.81978E-06        -0.78700E-09         0.00000E+00
    0.81832E-06        -0.76035E-09         0.00000E+00
    0.81695E-06        -0.71383E-09         0.00000E+00
    0.81565E-06        -0.67116E-09         0.00000E+00
    0.81442E-06        -0.64272E-09         0.00000E+00
    0.81322E-06        -0.61716E-09         0.00000E+00
    0.81204E-06        -0.56111E-09         0.00000E+00
    0.81091E-06        -0.42654E-09         0.00000E+00
    0.80987E-06        -0.16653E-09         0.00000E+00
    0.79009E-06        -0.14403E-09         0.00000E+00
    0.78870E-06        -0.42643E-09         0.00000E+00
    0.78727E-06        -0.69600E-09         0.00000E+00
    0.78584E-06        -0.94390E-09         0.00000E+00
    0.78439E-06        -0.11538E-08         0.00000E+00
    0.78295E-06        -0.13091E-08         0.00000E+00
    0.78153E-06        -0.13994E-08         0.00000E+00
    0.78015E-06        -0.14250E-08         0.00000E+00
    0.77884E-06        -0.13962E-08         0.00000E+00
    0.77759E-06        -0.13258E-08         0.00000E+00
    0.77640E-06        -0.12205E-08         0.00000E+00
    0.77526E-06        -0.10752E-08         0.00000E+00
    0.77417E-06        -0.87328E-09         0.00000E+00
    0.77315E-06        -0.59226E-09         0.00000E+00
    0.77225E-06        -0.21453E-09         0.00000E+00
    0.76179E-06        -0.17221E-09         0.00000E+00
    0.76040E-06        -0.51962E-09         0.00000E+00
    0.75901E-06        -0.86534E-09         0.00000E+00
    0.75762E-06        -0.11906E-08         0.00000E+00
    0.75626E-06        -0.14727E-08         0.00000E+00
    0.75492E-06        -0.16915E-08         0.00000E+00
    0.75362E-06        -0.18329E-08         0.00000E+00
    0.75237E-06        -0.18920E-08         0.00000E+00
    0.75117E-06        -0.18715E-08         0.00000E+00
    0.75003E-06        -0.17775E-08         0.00000E+00
    0.74895E-06        -0.16150E-08         0.00000E+00
    0.74791E-06        -0.13843E-08         0.00000E+00
    0.74693E-06        -0.10815E-08         0.00000E+00
    0.74602E-06        -0.70181E-09         0.00000E+00
    0.74522E-06        -0.24612E-09         0.00000E+00
    0.74416E-06        -0.19331E-09         0.00000E+00
    0.74277E-06        -0.59377E-09         0.00000E+00
    0.74141E-06        -0.10061E-08         0.00000E+00
    0.74009E-06        -0.13990E-08         0.00000E+00
    0.73883E-06        -0.17433E-08         0.00000E+00
    0.73763E-06        -0.20145E-08         0.00000E+00
    0.73648E-06        -0.21954E-08         0.00000E+00
    0.73539E-06        -0.22769E-08         0.00000E+00
    0.73435E-06        -0.22572E-08         0.00000E+00
    0.73337E-06        -0.21395E-08         0.00000E+00
    0.73242E-06        -0.19287E-08         0.00000E+00
    0.73152E-06        -0.16300E-08         0.00000E+00
    0.73067E-06        -0.12486E-08         0.00000E+00
    0.72987E-06        -0.79181E-09         0.00000E+00
    0.72915E-06        -0.27288E-09         0.00000E+00
    0.73726E-06        -0.21708E-09         0.00000E+00
    0.73585E-06        -0.67578E-09         0.00000E+00
    0.73452E-06        -0.11595E-08         0.00000E+00
    0.73329E-06        -0.16239E-08         0.00000E+00
    0.73215E-06        -0.20318E-08         0.00000E+00
    0.73111E-06        -0.23539E-08         0.00000E+00
    0.73014E-06        -0.25696E-08         0.00000E+00
    0.72924E-06        -0.26671E-08         0.00000E+00
    0.72840E-06        -0.26423E-08         0.00000E+00
    0.72760E-06        -0.24973E-08         0.00000E+00
    0.72683E-06        -0.22385E-08         0.00000E+00
    0.72609E-06        -0.18753E-08         0.00000E+00
    0.72537E-06        -0.14200E-08         0.00000E+00
    0.72467E-06        -0.88866E-09         0.00000E+00
    0.72402E-06        -0.30317E-09         0.00000E+00
    0.74079E-06        -0.25275E-09         0.00000E+00
    0.73934E-06        -0.79117E-09         0.00000E+00
    0.73805E-06        -0.13637E-08         0.00000E+00
    0.73692E-06        -0.19129E-08         0.00000E+00
    0.73594E-06        -0.23932E-08         0.00000E+00
    0.73508E-06        -0.27702E-08         0.00000E+00
    0.73432E-06        -0.30202E-08         0.00000E+00
    0.73364E-06        -0.31296E-08         0.00000E+00
    0.73301E-06        -0.30934E-08         0.00000E+00
    0.73243E-06        -0.29142E-08         0.00000E+00
    0.73186E-06        -0.26007E-08         0.00000E+00
    0.73129E-06        -0.21661E-08         0.00000E+00
    0.73072E-06        -0.16288E-08         0.00000E+00
    0.73013E-06        -0.10116E-08         0.00000E+00
    0.72954E-06        -0.34314E-09         0.00000E+00
    0.75419E-06        -0.30832E-09         0.00000E+00
    0.75270E-06        -0.96215E-09         0.00000E+00
    0.75145E-06        -0.16513E-08         0.00000E+00
    0.75044E-06        -0.23061E-08         0.00000E+00
    0.74962E-06        -0.28728E-08         0.00000E+00
    0.74898E-06        -0.33122E-08         0.00000E+00
    0.74845E-06        -0.35979E-08         0.00000E+00
    0.74802E-06        -0.37154E-08         0.00000E+00
    0.74765E-06        -0.36603E-08         0.00000E+00
    0.74730E-06        -0.34367E-08         0.00000E+00
    0.74695E-06        -0.30560E-08         0.00000E+00
    0.74658E-06        -0.25356E-08         0.00000E+00
    0.74616E-06        -0.18989E-08         0.00000E+00
    0.74569E-06        -0.11747E-08         0.00000E+00
    0.74515E-06        -0.39731E-09         0.00000E+00
    0.77668E-06        -0.39073E-09         0.00000E+00
    0.77514E-06        -0.12078E-08         0.00000E+00
    0.77395E-06        -0.20503E-08         0.00000E+00
    0.77307E-06        -0.28372E-08         0.00000E+00
    0.77246E-06        -0.35075E-08         0.00000E+00
    0.77205E-06        -0.40180E-08         0.00000E+00
    0.77180E-06        -0.43409E-08         0.00000E+00
    0.77165E-06        -0.44621E-08         0.00000E+00
    0.77156E-06        -0.43788E-08         0.00000E+00
    0.77147E-06        -0.40974E-08         0.00000E+00
    0.77136E-06        -0.36328E-08         0.00000E+00
    0.77120E-06        -0.30066E-08         0.00000E+00
    0.77095E-06        -0.22469E-08         0.00000E+00
    0.77059E-06        -0.13877E-08         0.00000E+00
    0.77011E-06        -0.46893E-09         0.00000E+00
    0.80730E-06        -0.50600E-09         0.00000E+00
    0.80572E-06        -0.15444E-08         0.00000E+00
    0.80461E-06        -0.25837E-08         0.00000E+00
    0.80390E-06        -0.35329E-08         0.00000E+00
    0.80353E-06        -0.43254E-08         0.00000E+00
    0.80340E-06        -0.49156E-08         0.00000E+00
    0.80345E-06        -0.52763E-08         0.00000E+00
    0.80361E-06        -0.53950E-08         0.00000E+00
    0.80382E-06        -0.52718E-08         0.00000E+00
    0.80403E-06        -0.49169E-08         0.00000E+00
    0.80419E-06        -0.43487E-08         0.00000E+00
    0.80425E-06        -0.35931E-08         0.00000E+00
    0.80418E-06        -0.26829E-08         0.00000E+00
    0.80394E-06        -0.16568E-08         0.00000E+00
    0.80353E-06        -0.56006E-09         0.00000E+00
    0.84499E-06        -0.65928E-09         0.00000E+00
    0.84340E-06        -0.19854E-08         0.00000E+00
    0.84241E-06        -0.32694E-08         0.00000E+00
    0.84191E-06        -0.44127E-08         0.00000E+00
    0.84181E-06        -0.53454E-08         0.00000E+00
    0.84200E-06        -0.60224E-08         0.00000E+00
    0.84240E-06        -0.64189E-08         0.00000E+00
    0.84291E-06        -0.65267E-08         0.00000E+00
    0.84345E-06        -0.63501E-08         0.00000E+00
    0.84398E-06        -0.59038E-08         0.00000E+00
    0.84442E-06        -0.52107E-08         0.00000E+00
    0.84472E-06        -0.43010E-08         0.00000E+00
    0.84485E-06        -0.32112E-08         0.00000E+00
    0.84476E-06        -0.19848E-08         0.00000E+00
    0.84441E-06        -0.67166E-09         0.00000E+00
    0.88862E-06        -0.85466E-09         0.00000E+00
    0.88705E-06        -0.25407E-08         0.00000E+00
    0.88623E-06        -0.41194E-08         0.00000E+00
    0.88600E-06        -0.54876E-08         0.00000E+00
    0.88623E-06        -0.65760E-08         0.00000E+00
    0.88679E-06        -0.73433E-08         0.00000E+00
    0.88757E-06        -0.77706E-08         0.00000E+00
    0.88846E-06        -0.78562E-08         0.00000E+00
    0.88938E-06        -0.76107E-08         0.00000E+00
    0.89024E-06        -0.70546E-08         0.00000E+00
    0.89099E-06        -0.62153E-08         0.00000E+00
    0.89156E-06        -0.51270E-08         0.00000E+00
    0.89190E-06        -0.38299E-08         0.00000E+00
    0.89196E-06        -0.23707E-08         0.00000E+00
    0.89170E-06        -0.80347E-09         0.00000E+00
    0.93698E-06        -0.10948E-08         0.00000E+00
    0.93552E-06        -0.32160E-08         0.00000E+00
    0.93494E-06        -0.51383E-08         0.00000E+00
    0.93505E-06        -0.67585E-08         0.00000E+00
    0.93567E-06        -0.80129E-08         0.00000E+00
    0.93665E-06        -0.88689E-08         0.00000E+00
    0.93786E-06        -0.93175E-08         0.00000E+00
    0.93916E-06        -0.93666E-08         0.00000E+00
    0.94047E-06        -0.90357E-08         0.00000E+00
    0.94171E-06        -0.83516E-08         0.00000E+00
    0.94278E-06        -0.73469E-08         0.00000E+00
    0.94364E-06        -0.60589E-08         0.00000E+00
    0.94421E-06        -0.45301E-08         0.00000E+00
    0.94445E-06        -0.28095E-08         0.00000E+00
    0.94429E-06        -0.95395E-09         0.00000E+00
    0.98886E-06        -0.13807E-08         0.00000E+00
    0.98761E-06        -0.40117E-08         0.00000E+00
    0.98737E-06        -0.63215E-08         0.00000E+00
    0.98790E-06        -0.82137E-08         0.00000E+00
    0.98899E-06        -0.96365E-08         0.00000E+00
    0.99045E-06        -0.10572E-07         0.00000E+00
    0.99212E-06        -0.11027E-07         0.00000E+00
    0.99388E-06        -0.11022E-07         0.00000E+00
    0.99561E-06        -0.10589E-07         0.00000E+00
    0.99723E-06        -0.97613E-08         0.00000E+00
    0.99866E-06        -0.85761E-08         0.00000E+00
    0.99982E-06        -0.70731E-08         0.00000E+00
    0.10006E-05        -0.52952E-08         0.00000E+00
    0.10011E-05        -0.32917E-08         0.00000E+00
    0.10010E-05        -0.11201E-08         0.00000E+00
    0.10430E-05        -0.17108E-08         0.00000E+00
    0.10421E-05        -0.49208E-08         0.00000E+00
    0.10423E-05        -0.76529E-08         0.00000E+00
    0.10434E-05        -0.98257E-08         0.00000E+00
    0.10450E-05        -0.11408E-07         0.00000E+00
    0.10470E-05        -0.12405E-07         0.00000E+00
    0.10492E-05        -0.12845E-07         0.00000E+00
    0.10515E-05        -0.12767E-07         0.00000E+00
    0.10536E-05        -0.12215E-07         0.00000E+00
    0.10557E-05        -0.11232E-07         0.00000E+00
    0.10574E-05        -0.98587E-08         0.00000E+00
    0.10589E-05        -0.81344E-08         0.00000E+00
    0.10600E-05        -0.61003E-08         0.00000E+00
    0.10607E-05        -0.38027E-08         0.00000E+00
    0.10608E-05        -0.12971E-08         0.00000E+00
    0.10982E-05        -0.20810E-08         0.00000E+00
    0.10978E-05        -0.59284E-08         0.00000E+00
    0.10987E-05        -0.91027E-08         0.00000E+00
    0.11004E-05        -0.11548E-07         0.00000E+00
    0.11027E-05        -0.13266E-07         0.00000E+00
    0.11053E-05        -0.14295E-07         0.00000E+00
    0.11080E-05        -0.14691E-07         0.00000E+00
    0.11107E-05        -0.14518E-07         0.00000E+00
    0.11134E-05        -0.13835E-07         0.00000E+00
    0.11158E-05        -0.12693E-07         0.00000E+00
    0.11179E-05        -0.11134E-07         0.00000E+00
    0.11198E-05        -0.91946E-08         0.00000E+00
    0.11212E-05        -0.69108E-08         0.00000E+00
    0.11221E-05        -0.43223E-08         0.00000E+00
    0.11224E-05        -0.14786E-08         0.00000E+00
    0.11533E-05        -0.24839E-08         0.00000E+00
    0.11536E-05        -0.70094E-08         0.00000E+00
    0.11552E-05        -0.10624E-07         0.00000E+00
    0.11577E-05        -0.13313E-07         0.00000E+00
    0.11607E-05        -0.15124E-07         0.00000E+00
    0.11640E-05        -0.16140E-07         0.00000E+00
    0.11673E-05        -0.16458E-07         0.00000E+00
    0.11705E-05        -0.16167E-07         0.00000E+00
    0.11736E-05        -0.15345E-07         0.00000E+00
    0.11764E-05        -0.14051E-07         0.00000E+00
    0.11790E-05        -0.12323E-07         0.00000E+00
    0.11811E-05        -0.10192E-07         0.00000E+00
    0.11829E-05        -0.76826E-08         0.00000E+00
    0.11841E-05        -0.48242E-08         0.00000E+00
    0.11846E-05        -0.16559E-08         0.00000E+00
    0.12069E-05        -0.29082E-08         0.00000E+00
    0.12082E-05        -0.81270E-08         0.00000E+00
    0.12109E-05        -0.12151E-07         0.00000E+00
    0.12143E-05        -0.15026E-07         0.00000E+00
    0.12181E-05        -0.16864E-07         0.00000E+00
    0.12221E-05        -0.17809E-07         0.00000E+00
    0.12260E-05        -0.18006E-07         0.00000E+00
    0.12297E-05        -0.17578E-07         0.00000E+00
    0.12332E-05        -0.16619E-07         0.00000E+00
    0.12364E-05        -0.15193E-07         0.00000E+00
    0.12393E-05        -0.13333E-07         0.00000E+00
    0.12418E-05        -0.11053E-07         0.00000E+00
    0.12439E-05        -0.83615E-08         0.00000E+00
    0.12454E-05        -0.52745E-08         0.00000E+00
    0.12463E-05        -0.18175E-08         0.00000E+00
    0.12579E-05        -0.33386E-08         0.00000E+00
    0.12605E-05        -0.92308E-08         0.00000E+00
    0.12644E-05        -0.13594E-07         0.00000E+00
    0.12690E-05        -0.16560E-07         0.00000E+00
    0.12737E-05        -0.18334E-07         0.00000E+00
    0.12784E-05        -0.19136E-07         0.00000E+00
    0.12829E-05        -0.19168E-07         0.00000E+00
    0.12871E-05        -0.18588E-07         0.00000E+00
    0.12909E-05        -0.17507E-07         0.00000E+00
    0.12945E-05        -0.15989E-07         0.00000E+00
    0.12977E-05        -0.14055E-07         0.00000E+00
    0.13006E-05        -0.11697E-07         0.00000E+00
    0.13030E-05        -0.88876E-08         0.00000E+00
    0.13049E-05        -0.56292E-08         0.00000E+00
    0.13061E-05        -0.19454E-08         0.00000E+00
    0.13050E-05        -0.37544E-08         0.00000E+00
    0.13094E-05        -0.10254E-07         0.00000E+00
    0.13149E-05        -0.14834E-07         0.00000E+00
    0.13207E-05        -0.17755E-07         0.00000E+00
    0.13264E-05        -0.19344E-07         0.00000E+00
    0.13319E-05        -0.19922E-07         0.00000E+00
    0.13369E-05        -0.19749E-07         0.00000E+00
    0.13414E-05        -0.19017E-07         0.00000E+00
    0.13456E-05        -0.17844E-07         0.00000E+00
    0.13494E-05        -0.16292E-07         0.00000E+00
    0.13529E-05        -0.14368E-07         0.00000E+00
    0.13561E-05        -0.12032E-07         0.00000E+00
    0.13590E-05        -0.92082E-08         0.00000E+00
    0.13613E-05        -0.58390E-08         0.00000E+00
    0.13629E-05        -0.20075E-08         0.00000E+00
    0.13473E-05        -0.41290E-08         0.00000E+00
    0.13539E-05        -0.11105E-07         0.00000E+00
    0.13612E-05        -0.15713E-07         0.00000E+00
    0.13685E-05        -0.18400E-07         0.00000E+00
    0.13752E-05        -0.19666E-07         0.00000E+00
    0.13813E-05        -0.19942E-07         0.00000E+00
    0.13867E-05        -0.19544E-07         0.00000E+00
    0.13916E-05        -0.18679E-07         0.00000E+00
    0.13960E-05        -0.17466E-07         0.00000E+00
    0.14000E-05        -0.15955E-07         0.00000E+00
    0.14037E-05        -0.14139E-07         0.00000E+00
    0.14073E-05        -0.11950E-07         0.00000E+00
    0.14106E-05        -0.92639E-08         0.00000E+00
    0.14135E-05        -0.58854E-08         0.00000E+00
    0.14154E-05        -0.19972E-08         0.00000E+00
    0.13836E-05        -0.44254E-08         0.00000E+00
    0.13930E-05        -0.11660E-07         0.00000E+00
    0.14025E-05        -0.16012E-07         0.00000E+00
    0.14113E-05        -0.18229E-07         0.00000E+00
    0.14191E-05        -0.19035E-07         0.00000E+00
    0.14257E-05        -0.18965E-07         0.00000E+00
    0.14314E-05        -0.18358E-07         0.00000E+00
    0.14364E-05        -0.17411E-07         0.00000E+00
    0.14409E-05        -0.16227E-07         0.00000E+00
    0.14450E-05        -0.14844E-07         0.00000E+00
    0.14489E-05        -0.13240E-07         0.00000E+00
    0.14528E-05        -0.11332E-07         0.00000E+00
    0.14566E-05        -0.89495E-08         0.00000E+00
    0.14603E-05        -0.57805E-08         0.00000E+00
    0.14623E-05        -0.19736E-08         0.00000E+00
    0.14131E-05        -0.45855E-08         0.00000E+00
    0.14260E-05        -0.11720E-07         0.00000E+00
    0.14381E-05        -0.15414E-07         0.00000E+00
    0.14484E-05        -0.16905E-07         0.00000E+00
    0.14569E-05        -0.17173E-07         0.00000E+00
    0.14640E-05        -0.16788E-07         0.00000E+00
    0.14698E-05        -0.16048E-07         0.00000E+00
    0.14749E-05        -0.15107E-07         0.00000E+00
    0.14794E-05        -0.14040E-07         0.00000E+00
    0.14835E-05        -0.12868E-07         0.00000E+00
    0.14875E-05        -0.11568E-07         0.00000E+00
    0.14915E-05        -0.10058E-07         0.00000E+00
    0.14958E-05        -0.81481E-08         0.00000E+00
    0.15005E-05        -0.54987E-08         0.00000E+00
    0.15029E-05        -0.19680E-08         0.00000E+00
    0.14351E-05        -0.45014E-08         0.00000E+00
    0.14525E-05        -0.10925E-07         0.00000E+00
    0.14672E-05        -0.13433E-07         0.00000E+00
    0.14788E-05        -0.14050E-07         0.00000E+00
    0.14878E-05        -0.13864E-07         0.00000E+00
    0.14950E-05        -0.13307E-07         0.00000E+00
    0.15009E-05        -0.12574E-07         0.00000E+00
    0.15059E-05        -0.11759E-07         0.00000E+00
    0.15103E-05        -0.10903E-07         0.00000E+00
    0.15144E-05        -0.10016E-07         0.00000E+00
    0.15183E-05        -0.90782E-08         0.00000E+00
    0.15225E-05        -0.80339E-08         0.00000E+00
    0.15271E-05        -0.67546E-08         0.00000E+00
    0.15326E-05        -0.49199E-08         0.00000E+00
    0.15362E-05        -0.19026E-08         0.00000E+00
    0.14494E-05        -0.38228E-08         0.00000E+00
    0.14724E-05        -0.84922E-08         0.00000E+00
    0.14893E-05        -0.94591E-08         0.00000E+00
    0.15015E-05        -0.94490E-08         0.00000E+00
    0.15107E-05        -0.90927E-08         0.00000E+00
    0.15179E-05        -0.85980E-08         0.00000E+00
    0.15238E-05        -0.80518E-08         0.00000E+00
    0.15287E-05        -0.74925E-08         0.00000E+00
    0.15329E-05        -0.69357E-08         0.00000E+00
    0.15369E-05        -0.63837E-08         0.00000E+00
    0.15408E-05        -0.58270E-08         0.00000E+00
    0.15450E-05        -0.52420E-08         0.00000E+00
    0.15498E-05        -0.45898E-08         0.00000E+00
    0.15558E-05        -0.37825E-08         0.00000E+00
    0.15613E-05        -0.16616E-08         0.00000E+00
    0.14571E-05        -0.16235E-08         0.00000E+00
    0.14856E-05        -0.33552E-08         0.00000E+00
    0.15031E-05        -0.34398E-08         0.00000E+00
    0.15154E-05        -0.33448E-08         0.00000E+00
    0.15246E-05        -0.31712E-08         0.00000E+00
    0.15318E-05        -0.29736E-08         0.00000E+00
    0.15376E-05        -0.27709E-08         0.00000E+00
    0.15424E-05        -0.25715E-08         0.00000E+00
    0.15466E-05        -0.23784E-08         0.00000E+00
    0.15505E-05        -0.21917E-08         0.00000E+00
    0.15544E-05        -0.20088E-08         0.00000E+00
    0.15585E-05        -0.18261E-08         0.00000E+00
    0.15633E-05        -0.16384E-08         0.00000E+00
    0.15691E-05        -0.15113E-08         0.00000E+00
    0.15771E-05        -0.74081E-09         0.00000E+00
POINT_DATA        496
VECTORS vDarcyNodal double 
    0.11292E-05         0.93816E-08         0.00000E+00
    0.11279E-05         0.15544E-07         0.00000E+00
    0.11262E-05         0.23571E-07         0.00000E+00
    0.11257E-05         0.25473E-07         0.00000E+00
    0.11254E-05         0.24253E-07         0.00000E+00
    0.11250E-05         0.21320E-07         0.00000E+00
    0.11245E-05         0.18439E-07         0.00000E+00
    0.11242E-05         0.16450E-07         0.00000E+00
    0.11240E-05         0.14997E-07         0.00000E+00
    0.11238E-05         0.13696E-07         0.00000E+00
    0.11236E-05         0.12447E-07         0.00000E+00
    0.11234E-05         0.11185E-07         0.00000E+00
    0.11232E-05         0.98236E-08         0.00000E+00
    0.11229E-05         0.82437E-08         0.00000E+00
    0.11223E-05         0.53021E-08         0.00000E+00
    0.11220E-05         0.32208E-08         0.00000E+00
    0.10974E-05         0.95707E-09         0.00000E+00
    0.10953E-05         0.16384E-08         0.00000E+00
    0.10925E-05         0.27332E-08         0.00000E+00
    0.10913E-05         0.38863E-08         0.00000E+00
    0.10906E-05         0.59030E-08         0.00000E+00
    0.10899E-05         0.83467E-08         0.00000E+00
    0.10893E-05         0.99399E-08         0.00000E+00
    0.10887E-05         0.10267E-07         0.00000E+00
    0.10883E-05         0.98943E-08         0.00000E+00
    0.10880E-05         0.92505E-08         0.00000E+00
    0.10877E-05         0.84281E-08         0.00000E+00
    0.10873E-05         0.74292E-08         0.00000E+00
    0.10869E-05         0.61926E-08         0.00000E+00
    0.10864E-05         0.44898E-08         0.00000E+00
    0.10853E-05         0.22944E-08         0.00000E+00
    0.10846E-05         0.11125E-08         0.00000E+00
    0.10314E-05        -0.14427E-08         0.00000E+00
    0.10290E-05        -0.16019E-08         0.00000E+00
    0.10255E-05        -0.55738E-09         0.00000E+00
    0.10238E-05         0.16844E-08         0.00000E+00
    0.10227E-05         0.33182E-08         0.00000E+00
    0.10216E-05         0.43100E-08         0.00000E+00
    0.10204E-05         0.50647E-08         0.00000E+00
    0.10194E-05         0.56167E-08         0.00000E+00
    0.10186E-05         0.57854E-08         0.00000E+00
    0.10179E-05         0.55852E-08         0.00000E+00
    0.10173E-05         0.51137E-08         0.00000E+00
    0.10167E-05         0.44053E-08         0.00000E+00
    0.10159E-05         0.34445E-08         0.00000E+00
    0.10149E-05         0.22543E-08         0.00000E+00
    0.10134E-05         0.10445E-08         0.00000E+00
    0.10124E-05         0.47654E-09         0.00000E+00
    0.96516E-06        -0.20501E-09         0.00000E+00
    0.96371E-06        -0.19712E-09         0.00000E+00
    0.96133E-06         0.11209E-09         0.00000E+00
    0.95975E-06         0.77758E-09         0.00000E+00
    0.95847E-06         0.14357E-08         0.00000E+00
    0.95710E-06         0.19438E-08         0.00000E+00
    0.95561E-06         0.23392E-08         0.00000E+00
    0.95423E-06         0.26641E-08         0.00000E+00
    0.95306E-06         0.28604E-08         0.00000E+00
    0.95205E-06         0.28495E-08         0.00000E+00
    0.95112E-06         0.26177E-08         0.00000E+00
    0.95020E-06         0.21875E-08         0.00000E+00
    0.94919E-06         0.15970E-08         0.00000E+00
    0.94797E-06         0.93666E-09         0.00000E+00
    0.94649E-06         0.37577E-09         0.00000E+00
    0.94568E-06         0.14659E-09         0.00000E+00
    0.90485E-06        -0.52718E-10         0.00000E+00
    0.90402E-06        -0.65369E-10         0.00000E+00
    0.90238E-06        -0.17385E-10         0.00000E+00
    0.90084E-06         0.13472E-09         0.00000E+00
    0.89936E-06         0.31080E-09         0.00000E+00
    0.89786E-06         0.47602E-09         0.00000E+00
    0.89632E-06         0.63974E-09         0.00000E+00
    0.89483E-06         0.79985E-09         0.00000E+00
    0.89347E-06         0.92211E-09         0.00000E+00
    0.89225E-06         0.95646E-09         0.00000E+00
    0.89112E-06         0.87148E-09         0.00000E+00
    0.89001E-06         0.67235E-09         0.00000E+00
    0.88886E-06         0.40110E-09         0.00000E+00
    0.88761E-06         0.13771E-09         0.00000E+00
    0.88629E-06        -0.65463E-11         0.00000E+00
    0.88561E-06        -0.33582E-10         0.00000E+00
    0.85264E-06        -0.78759E-10         0.00000E+00
    0.85191E-06        -0.14883E-09         0.00000E+00
    0.85044E-06        -0.27012E-09         0.00000E+00
    0.84896E-06        -0.35617E-09         0.00000E+00
    0.84746E-06        -0.41365E-09         0.00000E+00
    0.84594E-06        -0.44253E-09         0.00000E+00
    0.84441E-06        -0.43416E-09         0.00000E+00
    0.84292E-06        -0.39027E-09         0.00000E+00
    0.84151E-06        -0.33193E-09         0.00000E+00
    0.84020E-06        -0.28934E-09         0.00000E+00
    0.83897E-06        -0.28411E-09         0.00000E+00
    0.83778E-06        -0.31518E-09         0.00000E+00
    0.83660E-06        -0.35372E-09         0.00000E+00
    0.83541E-06        -0.34678E-09         0.00000E+00
    0.83424E-06        -0.23037E-09         0.00000E+00
    0.83367E-06        -0.13667E-09         0.00000E+00
    0.80935E-06        -0.12692E-09         0.00000E+00
    0.80865E-06        -0.24924E-09         0.00000E+00
    0.80722E-06        -0.48509E-09         0.00000E+00
    0.80578E-06        -0.70097E-09         0.00000E+00
    0.80431E-06        -0.88797E-09         0.00000E+00
    0.80284E-06        -0.10323E-08         0.00000E+00
    0.80137E-06        -0.11222E-08         0.00000E+00
    0.79993E-06        -0.11551E-08         0.00000E+00
    0.79856E-06        -0.11402E-08         0.00000E+00
    0.79726E-06        -0.10937E-08         0.00000E+00
    0.79603E-06        -0.10281E-08         0.00000E+00
    0.79485E-06        -0.94336E-09         0.00000E+00
    0.79371E-06        -0.82359E-09         0.00000E+00
    0.79260E-06        -0.64029E-09         0.00000E+00
    0.79157E-06        -0.36245E-09         0.00000E+00
    0.79108E-06        -0.19628E-09         0.00000E+00
    0.77593E-06        -0.16106E-09         0.00000E+00
    0.77523E-06        -0.32104E-09         0.00000E+00
    0.77382E-06        -0.63695E-09         0.00000E+00
    0.77242E-06        -0.93832E-09         0.00000E+00
    0.77101E-06        -0.12089E-08         0.00000E+00
    0.76961E-06        -0.14296E-08         0.00000E+00
    0.76824E-06        -0.15851E-08         0.00000E+00
    0.76691E-06        -0.16680E-08         0.00000E+00
    0.76563E-06        -0.16796E-08         0.00000E+00
    0.76441E-06        -0.16270E-08         0.00000E+00
    0.76326E-06        -0.15171E-08         0.00000E+00
    0.76215E-06        -0.13514E-08         0.00000E+00
    0.76109E-06        -0.11242E-08         0.00000E+00
    0.76009E-06        -0.82485E-09         0.00000E+00
    0.75918E-06        -0.44416E-09         0.00000E+00
    0.75875E-06        -0.23270E-09         0.00000E+00
    0.75296E-06        -0.18330E-09         0.00000E+00
    0.75227E-06        -0.37067E-09         0.00000E+00
    0.75088E-06        -0.74773E-09         0.00000E+00
    0.74951E-06        -0.11171E-08         0.00000E+00
    0.74819E-06        -0.14538E-08         0.00000E+00
    0.74690E-06        -0.17338E-08         0.00000E+00
    0.74565E-06        -0.19384E-08         0.00000E+00
    0.74446E-06        -0.20560E-08         0.00000E+00
    0.74332E-06        -0.20829E-08         0.00000E+00
    0.74224E-06        -0.20209E-08         0.00000E+00
    0.74121E-06        -0.18744E-08         0.00000E+00
    0.74022E-06        -0.16471E-08         0.00000E+00
    0.73928E-06        -0.13411E-08         0.00000E+00
    0.73839E-06        -0.95817E-09         0.00000E+00
    0.73758E-06        -0.50362E-09         0.00000E+00
    0.73720E-06        -0.25947E-09         0.00000E+00
    0.74070E-06        -0.20326E-09         0.00000E+00
    0.73999E-06        -0.41629E-09         0.00000E+00
    0.73862E-06        -0.85185E-09         0.00000E+00
    0.73731E-06        -0.12875E-08         0.00000E+00
    0.73608E-06        -0.16879E-08         0.00000E+00
    0.73492E-06        -0.20232E-08         0.00000E+00
    0.73383E-06        -0.22706E-08         0.00000E+00
    0.73281E-06        -0.24153E-08         0.00000E+00
    0.73185E-06        -0.24502E-08         0.00000E+00
    0.73094E-06        -0.23749E-08         0.00000E+00
    0.73007E-06        -0.21930E-08         0.00000E+00
    0.72923E-06        -0.19109E-08         0.00000E+00
    0.72843E-06        -0.15370E-08         0.00000E+00
    0.72766E-06        -0.10819E-08         0.00000E+00
    0.72694E-06        -0.56092E-09         0.00000E+00
    0.72660E-06        -0.28622E-09         0.00000E+00
    0.73901E-06        -0.23081E-09         0.00000E+00
    0.73829E-06        -0.47639E-09         0.00000E+00
    0.73692E-06        -0.98308E-09         0.00000E+00
    0.73567E-06        -0.14953E-08         0.00000E+00
    0.73456E-06        -0.19670E-08         0.00000E+00
    0.73355E-06        -0.23614E-08         0.00000E+00
    0.73265E-06        -0.26517E-08         0.00000E+00
    0.73183E-06        -0.28201E-08         0.00000E+00
    0.73108E-06        -0.28579E-08         0.00000E+00
    0.73037E-06        -0.27636E-08         0.00000E+00
    0.72969E-06        -0.25418E-08         0.00000E+00
    0.72903E-06        -0.22020E-08         0.00000E+00
    0.72839E-06        -0.17577E-08         0.00000E+00
    0.72774E-06        -0.12263E-08         0.00000E+00
    0.72711E-06        -0.63071E-09         0.00000E+00
    0.72680E-06        -0.32002E-09         0.00000E+00
    0.74746E-06        -0.27454E-09         0.00000E+00
    0.74673E-06        -0.56722E-09         0.00000E+00
    0.74536E-06        -0.11711E-08         0.00000E+00
    0.74419E-06        -0.17802E-08         0.00000E+00
    0.74321E-06        -0.23378E-08         0.00000E+00
    0.74239E-06        -0.28005E-08         0.00000E+00
    0.74170E-06        -0.31372E-08         0.00000E+00
    0.74111E-06        -0.33280E-08         0.00000E+00
    0.74059E-06        -0.33635E-08         0.00000E+00
    0.74011E-06        -0.32426E-08         0.00000E+00
    0.73965E-06        -0.29718E-08         0.00000E+00
    0.73919E-06        -0.25637E-08         0.00000E+00
    0.73871E-06        -0.20364E-08         0.00000E+00
    0.73820E-06        -0.14135E-08         0.00000E+00
    0.73765E-06        -0.72377E-09         0.00000E+00
    0.73737E-06        -0.36612E-09         0.00000E+00
    0.76539E-06        -0.34186E-09         0.00000E+00
    0.76464E-06        -0.70276E-09         0.00000E+00
    0.76327E-06        -0.14414E-08         0.00000E+00
    0.76219E-06        -0.21758E-08         0.00000E+00
    0.76137E-06        -0.28393E-08         0.00000E+00
    0.76076E-06        -0.33825E-08         0.00000E+00
    0.76031E-06        -0.37707E-08         0.00000E+00
    0.75998E-06        -0.39830E-08         0.00000E+00
    0.75973E-06        -0.40101E-08         0.00000E+00
    0.75951E-06        -0.38525E-08         0.00000E+00
    0.75930E-06        -0.35192E-08         0.00000E+00
    0.75905E-06        -0.30265E-08         0.00000E+00
    0.75875E-06        -0.23970E-08         0.00000E+00
    0.75838E-06        -0.16593E-08         0.00000E+00
    0.75792E-06        -0.84785E-09         0.00000E+00
    0.75767E-06        -0.42833E-09         0.00000E+00
    0.79193E-06        -0.43921E-09         0.00000E+00
    0.79115E-06        -0.89502E-09         0.00000E+00
    0.78980E-06        -0.18153E-08         0.00000E+00
    0.78884E-06        -0.27097E-08         0.00000E+00
    0.78821E-06        -0.35028E-08         0.00000E+00
    0.78784E-06        -0.41401E-08         0.00000E+00
    0.78767E-06        -0.45852E-08         0.00000E+00
    0.78763E-06        -0.48170E-08         0.00000E+00
    0.78767E-06        -0.48279E-08         0.00000E+00
    0.78774E-06        -0.46211E-08         0.00000E+00
    0.78779E-06        -0.42087E-08         0.00000E+00
    0.78778E-06        -0.36110E-08         0.00000E+00
    0.78768E-06        -0.28550E-08         0.00000E+00
    0.78746E-06        -0.19743E-08         0.00000E+00
    0.78709E-06        -0.10083E-08         0.00000E+00
    0.78686E-06        -0.50929E-09         0.00000E+00
    0.82607E-06        -0.57220E-09         0.00000E+00
    0.82528E-06        -0.11543E-08         0.00000E+00
    0.82397E-06        -0.23107E-08         0.00000E+00
    0.82316E-06        -0.34039E-08         0.00000E+00
    0.82275E-06        -0.43518E-08         0.00000E+00
    0.82266E-06        -0.50969E-08         0.00000E+00
    0.82280E-06        -0.56026E-08         0.00000E+00
    0.82309E-06        -0.58502E-08         0.00000E+00
    0.82346E-06        -0.58351E-08         0.00000E+00
    0.82385E-06        -0.55642E-08         0.00000E+00
    0.82419E-06        -0.50538E-08         0.00000E+00
    0.82443E-06        -0.43284E-08         0.00000E+00
    0.82455E-06        -0.34192E-08         0.00000E+00
    0.82448E-06        -0.23642E-08         0.00000E+00
    0.82421E-06        -0.12080E-08         0.00000E+00
    0.82402E-06        -0.61052E-09         0.00000E+00
    0.86670E-06        -0.74550E-09         0.00000E+00
    0.86592E-06        -0.14888E-08         0.00000E+00
    0.86470E-06        -0.29411E-08         0.00000E+00
    0.86408E-06        -0.42740E-08         0.00000E+00
    0.86395E-06        -0.54013E-08         0.00000E+00
    0.86419E-06        -0.62656E-08         0.00000E+00
    0.86468E-06        -0.68333E-08         0.00000E+00
    0.86534E-06        -0.70902E-08         0.00000E+00
    0.86607E-06        -0.70369E-08         0.00000E+00
    0.86679E-06        -0.66854E-08         0.00000E+00
    0.86744E-06        -0.60570E-08         0.00000E+00
    0.86797E-06        -0.51803E-08         0.00000E+00
    0.86831E-06        -0.40907E-08         0.00000E+00
    0.86843E-06        -0.28303E-08         0.00000E+00
    0.86827E-06        -0.14477E-08         0.00000E+00
    0.86812E-06        -0.73241E-09         0.00000E+00
    0.91267E-06        -0.96259E-09         0.00000E+00
    0.91193E-06        -0.19043E-08         0.00000E+00
    0.91085E-06        -0.37149E-08         0.00000E+00
    0.91049E-06        -0.53275E-08         0.00000E+00
    0.91070E-06        -0.66559E-08         0.00000E+00
    0.91132E-06        -0.76469E-08         0.00000E+00
    0.91221E-06        -0.82738E-08         0.00000E+00
    0.91327E-06        -0.85302E-08         0.00000E+00
    0.91439E-06        -0.84241E-08         0.00000E+00
    0.91548E-06        -0.79747E-08         0.00000E+00
    0.91647E-06        -0.72085E-08         0.00000E+00
    0.91729E-06        -0.61585E-08         0.00000E+00
    0.91789E-06        -0.48635E-08         0.00000E+00
    0.91820E-06        -0.33685E-08         0.00000E+00
    0.91817E-06        -0.17256E-08         0.00000E+00
    0.91807E-06        -0.87408E-09         0.00000E+00
    0.96277E-06        -0.12254E-08         0.00000E+00
    0.96211E-06        -0.24035E-08         0.00000E+00
    0.96126E-06        -0.46340E-08         0.00000E+00
    0.96124E-06        -0.65622E-08         0.00000E+00
    0.96186E-06        -0.81076E-08         0.00000E+00
    0.96292E-06        -0.92265E-08         0.00000E+00
    0.96427E-06        -0.99043E-08         0.00000E+00
    0.96577E-06        -0.10146E-07         0.00000E+00
    0.96731E-06        -0.99711E-08         0.00000E+00
    0.96879E-06        -0.94064E-08         0.00000E+00
    0.97014E-06        -0.84848E-08         0.00000E+00
    0.97128E-06        -0.72431E-08         0.00000E+00
    0.97214E-06        -0.57223E-08         0.00000E+00
    0.97267E-06        -0.39690E-08         0.00000E+00
    0.97280E-06        -0.20369E-08         0.00000E+00
    0.97275E-06        -0.10333E-08         0.00000E+00
    0.10158E-05        -0.15337E-08         0.00000E+00
    0.10153E-05        -0.29848E-08         0.00000E+00
    0.10147E-05        -0.56921E-08         0.00000E+00
    0.10152E-05        -0.79640E-08         0.00000E+00
    0.10163E-05        -0.97328E-08         0.00000E+00
    0.10179E-05        -0.10972E-07         0.00000E+00
    0.10197E-05        -0.11685E-07         0.00000E+00
    0.10217E-05        -0.11894E-07         0.00000E+00
    0.10237E-05        -0.11632E-07         0.00000E+00
    0.10256E-05        -0.10937E-07         0.00000E+00
    0.10273E-05        -0.98468E-08         0.00000E+00
    0.10288E-05        -0.84015E-08         0.00000E+00
    0.10299E-05        -0.66425E-08         0.00000E+00
    0.10307E-05        -0.46156E-08         0.00000E+00
    0.10310E-05        -0.23738E-08         0.00000E+00
    0.10310E-05        -0.12063E-08         0.00000E+00
    0.10704E-05        -0.18850E-08         0.00000E+00
    0.10701E-05        -0.36417E-08         0.00000E+00
    0.10701E-05        -0.68729E-08         0.00000E+00
    0.10711E-05        -0.95038E-08         0.00000E+00
    0.10728E-05        -0.11489E-07         0.00000E+00
    0.10750E-05        -0.12829E-07         0.00000E+00
    0.10774E-05        -0.13554E-07         0.00000E+00
    0.10799E-05        -0.13707E-07         0.00000E+00
    0.10823E-05        -0.13341E-07         0.00000E+00
    0.10847E-05        -0.12503E-07         0.00000E+00
    0.10868E-05        -0.11238E-07         0.00000E+00
    0.10886E-05        -0.95867E-08         0.00000E+00
    0.10900E-05        -0.75885E-08         0.00000E+00
    0.10911E-05        -0.52849E-08         0.00000E+00
    0.10916E-05        -0.27249E-08         0.00000E+00
    0.10917E-05        -0.13874E-08         0.00000E+00
    0.11255E-05        -0.22735E-08         0.00000E+00
    0.11256E-05        -0.43615E-08         0.00000E+00
    0.11262E-05        -0.81477E-08         0.00000E+00
    0.11279E-05        -0.11135E-07         0.00000E+00
    0.11304E-05        -0.13312E-07         0.00000E+00
    0.11332E-05        -0.14719E-07         0.00000E+00
    0.11362E-05        -0.15420E-07         0.00000E+00
    0.11392E-05        -0.15491E-07         0.00000E+00
    0.11421E-05        -0.15003E-07         0.00000E+00
    0.11448E-05        -0.14017E-07         0.00000E+00
    0.11473E-05        -0.12582E-07         0.00000E+00
    0.11495E-05        -0.10737E-07         0.00000E+00
    0.11513E-05        -0.85132E-08         0.00000E+00
    0.11526E-05        -0.59458E-08         0.00000E+00
    0.11534E-05        -0.30749E-08         0.00000E+00
    0.11536E-05        -0.15693E-08         0.00000E+00
    0.11798E-05        -0.26901E-08         0.00000E+00
    0.11803E-05        -0.51244E-08         0.00000E+00
    0.11819E-05        -0.94738E-08         0.00000E+00
    0.11845E-05        -0.12789E-07         0.00000E+00
    0.11877E-05        -0.15111E-07         0.00000E+00
    0.11913E-05        -0.16532E-07         0.00000E+00
    0.11949E-05        -0.17166E-07         0.00000E+00
    0.11984E-05        -0.17123E-07         0.00000E+00
    0.12018E-05        -0.16501E-07         0.00000E+00
    0.12050E-05        -0.15371E-07         0.00000E+00
    0.12078E-05        -0.13786E-07         0.00000E+00
    0.12104E-05        -0.11774E-07         0.00000E+00
    0.12125E-05        -0.93580E-08         0.00000E+00
    0.12141E-05        -0.65587E-08         0.00000E+00
    0.12152E-05        -0.34041E-08         0.00000E+00
    0.12156E-05        -0.17420E-08         0.00000E+00
    0.12321E-05        -0.31215E-08         0.00000E+00
    0.12332E-05        -0.59025E-08         0.00000E+00
    0.12359E-05        -0.10791E-07         0.00000E+00
    0.12396E-05        -0.14374E-07         0.00000E+00
    0.12438E-05        -0.16765E-07         0.00000E+00
    0.12481E-05        -0.18128E-07         0.00000E+00
    0.12524E-05        -0.18639E-07         0.00000E+00
    0.12565E-05        -0.18451E-07         0.00000E+00
    0.12603E-05        -0.17689E-07         0.00000E+00
    0.12638E-05        -0.16435E-07         0.00000E+00
    0.12670E-05        -0.14736E-07         0.00000E+00
    0.12699E-05        -0.12609E-07         0.00000E+00
    0.12724E-05        -0.10054E-07         0.00000E+00
    0.12743E-05        -0.70754E-08         0.00000E+00
    0.12757E-05        -0.36870E-08         0.00000E+00
    0.12763E-05        -0.18925E-08         0.00000E+00
    0.12812E-05        -0.35502E-08         0.00000E+00
    0.12830E-05        -0.66579E-08         0.00000E+00
    0.12872E-05        -0.12020E-07         0.00000E+00
    0.12923E-05        -0.15767E-07         0.00000E+00
    0.12975E-05        -0.18117E-07         0.00000E+00
    0.13027E-05        -0.19331E-07         0.00000E+00
    0.13076E-05        -0.19656E-07         0.00000E+00
    0.13121E-05        -0.19298E-07         0.00000E+00
    0.13163E-05        -0.18401E-07         0.00000E+00
    0.13201E-05        -0.17057E-07         0.00000E+00
    0.13236E-05        -0.15305E-07         0.00000E+00
    0.13268E-05        -0.13141E-07         0.00000E+00
    0.13297E-05        -0.10528E-07         0.00000E+00
    0.13321E-05        -0.74402E-08         0.00000E+00
    0.13339E-05        -0.38871E-08         0.00000E+00
    0.13346E-05        -0.19981E-08         0.00000E+00
    0.13260E-05        -0.39529E-08         0.00000E+00
    0.13288E-05        -0.73411E-08         0.00000E+00
    0.13348E-05        -0.13055E-07         0.00000E+00
    0.13414E-05        -0.16810E-07         0.00000E+00
    0.13478E-05        -0.18973E-07         0.00000E+00
    0.13538E-05        -0.19929E-07         0.00000E+00
    0.13593E-05        -0.20010E-07         0.00000E+00
    0.13642E-05        -0.19466E-07         0.00000E+00
    0.13686E-05        -0.18458E-07         0.00000E+00
    0.13727E-05        -0.17079E-07         0.00000E+00
    0.13765E-05        -0.15354E-07         0.00000E+00
    0.13800E-05        -0.13258E-07         0.00000E+00
    0.13832E-05        -0.10711E-07         0.00000E+00
    0.13861E-05        -0.76068E-08         0.00000E+00
    0.13883E-05        -0.39594E-08         0.00000E+00
    0.13891E-05        -0.20168E-08         0.00000E+00
    0.13653E-05        -0.42993E-08         0.00000E+00
    0.13694E-05        -0.78852E-08         0.00000E+00
    0.13777E-05        -0.13753E-07         0.00000E+00
    0.13860E-05        -0.17296E-07         0.00000E+00
    0.13937E-05        -0.19090E-07         0.00000E+00
    0.14004E-05        -0.19680E-07         0.00000E+00
    0.14064E-05        -0.19478E-07         0.00000E+00
    0.14116E-05        -0.18760E-07         0.00000E+00
    0.14162E-05        -0.17689E-07         0.00000E+00
    0.14204E-05        -0.16345E-07         0.00000E+00
    0.14244E-05        -0.14742E-07         0.00000E+00
    0.14281E-05        -0.12833E-07         0.00000E+00
    0.14317E-05        -0.10504E-07         0.00000E+00
    0.14352E-05        -0.75432E-08         0.00000E+00
    0.14379E-05        -0.39237E-08         0.00000E+00
    0.14388E-05        -0.19779E-08         0.00000E+00
    0.13983E-05        -0.45466E-08         0.00000E+00
    0.14040E-05        -0.81943E-08         0.00000E+00
    0.14151E-05        -0.13914E-07         0.00000E+00
    0.14253E-05        -0.16947E-07         0.00000E+00
    0.14341E-05        -0.18180E-07         0.00000E+00
    0.14415E-05        -0.18329E-07         0.00000E+00
    0.14478E-05        -0.17854E-07         0.00000E+00
    0.14532E-05        -0.17018E-07         0.00000E+00
    0.14579E-05        -0.15957E-07         0.00000E+00
    0.14621E-05        -0.14733E-07         0.00000E+00
    0.14661E-05        -0.13348E-07         0.00000E+00
    0.14701E-05        -0.11743E-07         0.00000E+00
    0.14740E-05        -0.97791E-08         0.00000E+00
    0.14782E-05        -0.71881E-08         0.00000E+00
    0.14814E-05        -0.38309E-08         0.00000E+00
    0.14826E-05        -0.19697E-08         0.00000E+00
    0.14241E-05        -0.46215E-08         0.00000E+00
    0.14319E-05        -0.81101E-08         0.00000E+00
    0.14463E-05        -0.13226E-07         0.00000E+00
    0.14584E-05        -0.15386E-07         0.00000E+00
    0.14681E-05        -0.15915E-07         0.00000E+00
    0.14760E-05        -0.15650E-07         0.00000E+00
    0.14825E-05        -0.14999E-07         0.00000E+00
    0.14879E-05        -0.14152E-07         0.00000E+00
    0.14926E-05        -0.13203E-07         0.00000E+00
    0.14968E-05        -0.12186E-07         0.00000E+00
    0.15008E-05        -0.11098E-07         0.00000E+00
    0.15048E-05        -0.98901E-08         0.00000E+00
    0.15091E-05        -0.84312E-08         0.00000E+00
    0.15138E-05        -0.64607E-08         0.00000E+00
    0.15179E-05        -0.36364E-08         0.00000E+00
    0.15195E-05        -0.19667E-08         0.00000E+00
    0.14426E-05        -0.43830E-08         0.00000E+00
    0.14528E-05        -0.73255E-08         0.00000E+00
    0.14707E-05        -0.11155E-07         0.00000E+00
    0.14844E-05        -0.12126E-07         0.00000E+00
    0.14948E-05        -0.12028E-07         0.00000E+00
    0.15029E-05        -0.11548E-07         0.00000E+00
    0.15094E-05        -0.10906E-07         0.00000E+00
    0.15148E-05        -0.10202E-07         0.00000E+00
    0.15194E-05        -0.94778E-08         0.00000E+00
    0.15236E-05        -0.87483E-08         0.00000E+00
    0.15275E-05        -0.80086E-08         0.00000E+00
    0.15315E-05        -0.72318E-08         0.00000E+00
    0.15359E-05        -0.63640E-08         0.00000E+00
    0.15411E-05        -0.52172E-08         0.00000E+00
    0.15463E-05        -0.31874E-08         0.00000E+00
    0.15486E-05        -0.18392E-08         0.00000E+00
    0.14544E-05        -0.32781E-08         0.00000E+00
    0.14669E-05        -0.50169E-08         0.00000E+00
    0.14878E-05        -0.68375E-08         0.00000E+00
    0.15024E-05        -0.68219E-08         0.00000E+00
    0.15130E-05        -0.65490E-08         0.00000E+00
    0.15212E-05        -0.61742E-08         0.00000E+00
    0.15277E-05        -0.57708E-08         0.00000E+00
    0.15330E-05        -0.53660E-08         0.00000E+00
    0.15376E-05        -0.49711E-08         0.00000E+00
    0.15417E-05        -0.45892E-08         0.00000E+00
    0.15456E-05        -0.42176E-08         0.00000E+00
    0.15496E-05        -0.38500E-08         0.00000E+00
    0.15540E-05        -0.34777E-08         0.00000E+00
    0.15593E-05        -0.31610E-08         0.00000E+00
    0.15655E-05        -0.22590E-08         0.00000E+00
    0.15688E-05        -0.14849E-08         0.00000E+00
    0.14588E-05         0.00000E+00         0.00000E+00
    0.14722E-05         0.00000E+00         0.00000E+00
    0.14944E-05        -0.43602E-20         0.00000E+00
    0.15092E-05         0.55684E-22         0.00000E+00
    0.15200E-05         0.44159E-20         0.00000E+00
    0.15281E-05         0.00000E+00         0.00000E+00
    0.15346E-05         0.00000E+00         0.00000E+00
    0.15399E-05        -0.42795E-20         0.00000E+00
    0.15444E-05        -0.42795E-20         0.00000E+00
    0.15485E-05         0.43286E-20         0.00000E+00
    0.15524E-05         0.43286E-20         0.00000E+00
    0.15564E-05        -0.43735E-20         0.00000E+00
    0.15608E-05        -0.85778E-21         0.00000E+00
    0.15661E-05         0.41085E-20         0.00000E+00
    0.15728E-05         0.88438E-21         0.00000E+00
    0.15764E-05         0.00000E+00         0.00000E+00
CELL_DATA        450
TENSORS stressef double 
    0.25397E+08         0.13794E+06         0.00000E+00
    0.13794E+06         0.82261E+07         0.00000E+00
    0.00000E+00         0.00000E+00         0.83622E+07
 
    0.25234E+08        -0.53775E+05         0.00000E+00
   -0.53775E+05         0.81450E+07         0.00000E+00
    0.00000E+00         0.00000E+00         0.72886E+07
 
    0.24811E+08        -0.11806E+06         0.00000E+00
   -0.11806E+06         0.78514E+07         0.00000E+00
    0.00000E+00         0.00000E+00         0.56306E+07
 
    0.24189E+08        -0.32475E+05         0.00000E+00
   -0.32475E+05         0.75646E+07         0.00000E+00
    0.00000E+00         0.00000E+00         0.35031E+07
 
    0.23458E+08        -0.10950E+06         0.00000E+00
   -0.10950E+06         0.73171E+07         0.00000E+00
    0.00000E+00         0.00000E+00         0.12662E+07
 
    0.21758E+08        -0.44486E+06         0.00000E+00
   -0.44486E+06         0.68148E+07         0.00000E+00
    0.00000E+00         0.00000E+00         0.00000E+00
 
    0.18809E+08        -0.38907E+06         0.00000E+00
   -0.38907E+06         0.61179E+07         0.00000E+00
    0.00000E+00         0.00000E+00         0.00000E+00
 
    0.16747E+08        -0.24420E+06         0.00000E+00
   -0.24420E+06         0.55691E+07         0.00000E+00
    0.00000E+00         0.00000E+00         0.00000E+00
 
    0.14938E+08        -0.13073E+06         0.00000E+00
   -0.13073E+06         0.52425E+07         0.00000E+00
    0.00000E+00         0.00000E+00         0.00000E+00
 
    0.13217E+08        -0.29777E+05         0.00000E+00
   -0.29777E+05         0.51166E+07         0.00000E+00
    0.00000E+00         0.00000E+00         0.00000E+00
 
    0.11487E+08         0.68927E+05         0.00000E+00
    0.68927E+05         0.51827E+07         0.00000E+00
    0.00000E+00         0.00000E+00         0.00000E+00
 
    0.96653E+07         0.17546E+06         0.00000E+00
    0.17546E+06         0.54492E+07         0.00000E+00
    0.00000E+00         0.00000E+00         0.00000E+00
 
    0.76473E+07         0.30483E+06         0.00000E+00
    0.30483E+06         0.59472E+07         0.00000E+00
    0.00000E+00         0.00000E+00         0.00000E+00
 
    0.52533E+07         0.48757E+06         0.00000E+00
    0.48757E+06         0.67536E+07         0.00000E+00
    0.00000E+00         0.00000E+00         0.00000E+00
 
    0.19665E+07         0.91127E+06         0.00000E+00
    0.91127E+06         0.81164E+07         0.00000E+00
    0.00000E+00         0.00000E+00         0.00000E+00
 
    0.23687E+08         0.16048E+06         0.00000E+00
    0.16048E+06         0.49466E+07         0.00000E+00
    0.00000E+00         0.00000E+00         0.25467E+07
 
    0.23451E+08         0.91531E+05         0.00000E+00
    0.91531E+05         0.50829E+07         0.00000E+00
    0.00000E+00         0.00000E+00         0.12950E+07
 
    0.23193E+08        -0.42364E+05         0.00000E+00
   -0.42364E+05         0.54782E+07         0.00000E+00
    0.00000E+00         0.00000E+00         0.35244E+06
 
    0.22419E+08        -0.16463E+06         0.00000E+00
   -0.16463E+06         0.57083E+07         0.00000E+00
    0.00000E+00         0.00000E+00         0.00000E+00
 
    0.21299E+08        -0.43909E+06         0.00000E+00
   -0.43909E+06         0.56100E+07         0.00000E+00
    0.00000E+00         0.00000E+00         0.00000E+00
 
    0.19519E+08        -0.91816E+06         0.00000E+00
   -0.91816E+06         0.53983E+07         0.00000E+00
    0.00000E+00         0.00000E+00         0.00000E+00
 
    0.17212E+08        -0.88247E+06         0.00000E+00
   -0.88247E+06         0.51802E+07         0.00000E+00
    0.00000E+00         0.00000E+00         0.00000E+00
 
    0.15136E+08        -0.60535E+06         0.00000E+00
   -0.60535E+06         0.49455E+07         0.00000E+00
    0.00000E+00         0.00000E+00         0.00000E+00
 
    0.13306E+08        -0.32177E+06         0.00000E+00
   -0.32177E+06         0.47836E+07         0.00000E+00
    0.00000E+00         0.00000E+00         0.00000E+00
 
    0.11572E+08        -0.46626E+05         0.00000E+00
   -0.46626E+05         0.47523E+07         0.00000E+00
    0.00000E+00         0.00000E+00         0.00000E+00
 
    0.98459E+07         0.23471E+06         0.00000E+00
    0.23471E+06         0.48761E+07         0.00000E+00
    0.00000E+00         0.00000E+00         0.00000E+00
 
    0.80485E+07         0.54523E+06         0.00000E+00
    0.54523E+06         0.51779E+07         0.00000E+00
    0.00000E+00         0.00000E+00         0.00000E+00
 
    0.60941E+07         0.92407E+06         0.00000E+00
    0.92407E+06         0.56928E+07         0.00000E+00
    0.00000E+00         0.00000E+00         0.00000E+00
 
    0.38589E+07         0.14620E+07         0.00000E+00
    0.14620E+07         0.64849E+07         0.00000E+00
    0.00000E+00         0.00000E+00         0.00000E+00
 
    0.13260E+07         0.24515E+07         0.00000E+00
    0.24515E+07         0.76164E+07         0.00000E+00
    0.00000E+00         0.00000E+00         0.00000E+00
 
    0.22322E+08        -0.29879E+05         0.00000E+00
   -0.29879E+05         0.40017E+07         0.00000E+00
    0.00000E+00         0.00000E+00         0.13333E+05
 
    0.21654E+08         0.13765E+06         0.00000E+00
    0.13765E+06         0.39937E+07         0.00000E+00
    0.00000E+00         0.00000E+00         0.00000E+00
 
    0.21220E+08         0.31792E+05         0.00000E+00
    0.31792E+05         0.39485E+07         0.00000E+00
    0.00000E+00         0.00000E+00         0.00000E+00
 
    0.20447E+08        -0.28870E+06         0.00000E+00
   -0.28870E+06         0.38620E+07         0.00000E+00
    0.00000E+00         0.00000E+00         0.00000E+00
 
    0.19233E+08        -0.61567E+06         0.00000E+00
   -0.61567E+06         0.37646E+07         0.00000E+00
    0.00000E+00         0.00000E+00         0.00000E+00
 
    0.17603E+08        -0.90710E+06         0.00000E+00
   -0.90710E+06         0.37758E+07         0.00000E+00
    0.00000E+00         0.00000E+00         0.00000E+00
 
    0.15668E+08        -0.93666E+06         0.00000E+00
   -0.93666E+06         0.38677E+07         0.00000E+00
    0.00000E+00         0.00000E+00         0.00000E+00
 
    0.13727E+08        -0.70138E+06         0.00000E+00
   -0.70138E+06         0.39245E+07         0.00000E+00
    0.00000E+00         0.00000E+00         0.00000E+00
 
    0.11915E+08        -0.35326E+06         0.00000E+00
   -0.35326E+06         0.39705E+07         0.00000E+00
    0.00000E+00         0.00000E+00         0.00000E+00
 
    0.10193E+08         0.37100E+05         0.00000E+00
    0.37100E+05         0.40748E+07         0.00000E+00
    0.00000E+00         0.00000E+00         0.00000E+00
 
    0.84930E+07         0.46517E+06         0.00000E+00
    0.46517E+06         0.42855E+07         0.00000E+00
    0.00000E+00         0.00000E+00         0.00000E+00
 
    0.67540E+07         0.95319E+06         0.00000E+00
    0.95319E+06         0.46379E+07         0.00000E+00
    0.00000E+00         0.00000E+00         0.00000E+00
 
    0.49210E+07         0.15506E+07         0.00000E+00
    0.15506E+07         0.51654E+07         0.00000E+00
    0.00000E+00         0.00000E+00         0.00000E+00
 
    0.29694E+07         0.23615E+07         0.00000E+00
    0.23615E+07         0.58945E+07         0.00000E+00
    0.00000E+00         0.00000E+00         0.00000E+00
 
    0.98224E+06         0.35443E+07         0.00000E+00
    0.35443E+07         0.67818E+07         0.00000E+00
    0.00000E+00         0.00000E+00         0.00000E+00
 
    0.20757E+08        -0.33647E+04         0.00000E+00
   -0.33647E+04         0.24860E+07         0.00000E+00
    0.00000E+00         0.00000E+00         0.00000E+00
 
    0.20084E+08         0.19038E+05         0.00000E+00
    0.19038E+05         0.24370E+07         0.00000E+00
    0.00000E+00         0.00000E+00         0.00000E+00
 
    0.19411E+08        -0.84341E+05         0.00000E+00
   -0.84341E+05         0.23224E+07         0.00000E+00
    0.00000E+00         0.00000E+00         0.00000E+00
 
    0.18543E+08        -0.33977E+06         0.00000E+00
   -0.33977E+06         0.22558E+07         0.00000E+00
    0.00000E+00         0.00000E+00         0.00000E+00
 
    0.17353E+08        -0.61182E+06         0.00000E+00
   -0.61182E+06         0.22759E+07         0.00000E+00
    0.00000E+00         0.00000E+00         0.00000E+00
 
    0.15865E+08        -0.78827E+06         0.00000E+00
   -0.78827E+06         0.23791E+07         0.00000E+00
    0.00000E+00         0.00000E+00         0.00000E+00
 
    0.14173E+08        -0.78645E+06         0.00000E+00
   -0.78645E+06         0.25509E+07         0.00000E+00
    0.00000E+00         0.00000E+00         0.00000E+00
 
    0.12416E+08        -0.58121E+06         0.00000E+00
   -0.58121E+06         0.27435E+07         0.00000E+00
    0.00000E+00         0.00000E+00         0.00000E+00
 
    0.10695E+08        -0.22281E+06         0.00000E+00
   -0.22281E+06         0.29363E+07         0.00000E+00
    0.00000E+00         0.00000E+00         0.00000E+00
 
    0.90279E+07         0.23300E+06         0.00000E+00
    0.23300E+06         0.31580E+07         0.00000E+00
    0.00000E+00         0.00000E+00         0.00000E+00
 
    0.73881E+07         0.76758E+06         0.00000E+00
    0.76758E+06         0.34493E+07         0.00000E+00
    0.00000E+00         0.00000E+00         0.00000E+00
 
    0.57409E+07         0.13948E+07         0.00000E+00
    0.13948E+07         0.38441E+07         0.00000E+00
    0.00000E+00         0.00000E+00         0.00000E+00
 
    0.40655E+07         0.21568E+07         0.00000E+00
    0.21568E+07         0.43650E+07         0.00000E+00
    0.00000E+00         0.00000E+00         0.00000E+00
 
    0.23797E+07         0.31231E+07         0.00000E+00
    0.31231E+07         0.50093E+07         0.00000E+00
    0.00000E+00         0.00000E+00         0.00000E+00
 
    0.76987E+06         0.43718E+07         0.00000E+00
    0.43718E+07         0.57275E+07         0.00000E+00
    0.00000E+00         0.00000E+00         0.00000E+00
 
    0.19244E+08        -0.49331E+04         0.00000E+00
   -0.49331E+04         0.95176E+06         0.00000E+00
    0.00000E+00         0.00000E+00         0.00000E+00
 
    0.18525E+08        -0.54278E+05         0.00000E+00
   -0.54278E+05         0.92199E+06         0.00000E+00
    0.00000E+00         0.00000E+00         0.00000E+00
 
    0.17735E+08        -0.16696E+06         0.00000E+00
   -0.16696E+06         0.87317E+06         0.00000E+00
    0.00000E+00         0.00000E+00         0.00000E+00
 
    0.16799E+08        -0.34482E+06         0.00000E+00
   -0.34482E+06         0.85563E+06         0.00000E+00
    0.00000E+00         0.00000E+00         0.00000E+00
 
    0.15651E+08        -0.52458E+06         0.00000E+00
   -0.52458E+06         0.91556E+06         0.00000E+00
    0.00000E+00         0.00000E+00         0.00000E+00
 
    0.14292E+08        -0.62010E+06         0.00000E+00
   -0.62010E+06         0.10589E+07         0.00000E+00
    0.00000E+00         0.00000E+00         0.00000E+00
 
    0.12779E+08        -0.57001E+06         0.00000E+00
   -0.57001E+06         0.12656E+07         0.00000E+00
    0.00000E+00         0.00000E+00         0.00000E+00
 
    0.11193E+08        -0.35267E+06         0.00000E+00
   -0.35267E+06         0.15092E+07         0.00000E+00
    0.00000E+00         0.00000E+00         0.00000E+00
 
    0.95999E+07         0.18207E+05         0.00000E+00
    0.18207E+05         0.17743E+07         0.00000E+00
    0.00000E+00         0.00000E+00         0.00000E+00
 
    0.80304E+07         0.51585E+06         0.00000E+00
    0.51585E+06         0.20677E+07         0.00000E+00
    0.00000E+00         0.00000E+00         0.00000E+00
 
    0.64850E+07         0.11250E+07         0.00000E+00
    0.11250E+07         0.24112E+07         0.00000E+00
    0.00000E+00         0.00000E+00         0.00000E+00
 
    0.49547E+07         0.18514E+07         0.00000E+00
    0.18514E+07         0.28270E+07         0.00000E+00
    0.00000E+00         0.00000E+00         0.00000E+00
 
    0.34416E+07         0.27207E+07         0.00000E+00
    0.27207E+07         0.33257E+07         0.00000E+00
    0.00000E+00         0.00000E+00         0.00000E+00
 
    0.19764E+07         0.37701E+07         0.00000E+00
    0.37701E+07         0.38961E+07         0.00000E+00
    0.00000E+00         0.00000E+00         0.00000E+00
 
    0.63096E+06         0.50323E+07         0.00000E+00
    0.50323E+07         0.44960E+07         0.00000E+00
    0.00000E+00         0.00000E+00         0.00000E+00
 
    0.17780E+08        -0.19463E+05         0.00000E+00
   -0.19463E+05        -0.47612E+06         0.00000E+00
    0.00000E+00         0.00000E+00         0.00000E+00
 
    0.17013E+08        -0.84805E+05         0.00000E+00
   -0.84805E+05        -0.49003E+06         0.00000E+00
    0.00000E+00         0.00000E+00         0.00000E+00
 
    0.16172E+08        -0.18707E+06         0.00000E+00
   -0.18707E+06        -0.49768E+06         0.00000E+00
    0.00000E+00         0.00000E+00         0.00000E+00
 
    0.15215E+08        -0.30936E+06         0.00000E+00
   -0.30936E+06        -0.47173E+06         0.00000E+00
    0.00000E+00         0.00000E+00         0.00000E+00
 
    0.14112E+08        -0.40967E+06         0.00000E+00
   -0.40967E+06        -0.38625E+06         0.00000E+00
    0.00000E+00         0.00000E+00         0.00000E+00
 
    0.12862E+08        -0.43232E+06         0.00000E+00
   -0.43232E+06        -0.23227E+06         0.00000E+00
    0.00000E+00         0.00000E+00         0.00000E+00
 
    0.11497E+08        -0.33113E+06         0.00000E+00
   -0.33113E+06        -0.18976E+05         0.00000E+00
    0.00000E+00         0.00000E+00         0.00000E+00
 
    0.10066E+08        -0.83117E+05         0.00000E+00
   -0.83117E+05         0.23760E+06         0.00000E+00
    0.00000E+00         0.00000E+00         0.00000E+00
 
    0.86133E+07         0.31270E+06         0.00000E+00
    0.31270E+06         0.52655E+06         0.00000E+00
    0.00000E+00         0.00000E+00         0.00000E+00
 
    0.71669E+07         0.84629E+06         0.00000E+00
    0.84629E+06         0.84790E+06         0.00000E+00
    0.00000E+00         0.00000E+00         0.00000E+00
 
    0.57401E+07         0.15094E+07         0.00000E+00
    0.15094E+07         0.12106E+07         0.00000E+00
    0.00000E+00         0.00000E+00         0.00000E+00
 
    0.43400E+07         0.23031E+07         0.00000E+00
    0.23031E+07         0.16248E+07         0.00000E+00
    0.00000E+00         0.00000E+00         0.00000E+00
 
    0.29808E+07         0.32383E+07         0.00000E+00
    0.32383E+07         0.20926E+07         0.00000E+00
    0.00000E+00         0.00000E+00         0.00000E+00
 
    0.16947E+07         0.43296E+07         0.00000E+00
    0.43296E+07         0.26011E+07         0.00000E+00
    0.00000E+00         0.00000E+00         0.00000E+00
 
    0.53769E+06         0.55831E+07         0.00000E+00
    0.55831E+07         0.31177E+07         0.00000E+00
    0.00000E+00         0.00000E+00         0.00000E+00
 
    0.16363E+08        -0.24612E+05         0.00000E+00
   -0.24612E+05        -0.18374E+07         0.00000E+00
    0.00000E+00         0.00000E+00         0.00000E+00
 
    0.15568E+08        -0.88603E+05         0.00000E+00
   -0.88603E+05        -0.18348E+07         0.00000E+00
    0.00000E+00         0.00000E+00         0.00000E+00
 
    0.14707E+08        -0.16910E+06         0.00000E+00
   -0.16910E+06        -0.18180E+07         0.00000E+00
    0.00000E+00         0.00000E+00         0.00000E+00
 
    0.13758E+08        -0.24599E+06         0.00000E+00
   -0.24599E+06        -0.17697E+07         0.00000E+00
    0.00000E+00         0.00000E+00         0.00000E+00
 
    0.12708E+08        -0.28507E+06         0.00000E+00
   -0.28507E+06        -0.16742E+07         0.00000E+00
    0.00000E+00         0.00000E+00         0.00000E+00
 
    0.11557E+08        -0.24628E+06         0.00000E+00
   -0.24628E+06        -0.15243E+07         0.00000E+00
    0.00000E+00         0.00000E+00         0.00000E+00
 
    0.10323E+08        -0.94717E+05         0.00000E+00
   -0.94717E+05        -0.13224E+07         0.00000E+00
    0.00000E+00         0.00000E+00         0.00000E+00
 
    0.90357E+07         0.19135E+06         0.00000E+00
    0.19135E+06        -0.10766E+07         0.00000E+00
    0.00000E+00         0.00000E+00         0.00000E+00
 
    0.77243E+07         0.61955E+06         0.00000E+00
    0.61955E+06        -0.79400E+06         0.00000E+00
    0.00000E+00         0.00000E+00         0.00000E+00
 
    0.64124E+07         0.11883E+07         0.00000E+00
    0.11883E+07        -0.47656E+06         0.00000E+00
    0.00000E+00         0.00000E+00         0.00000E+00
 
    0.51166E+07         0.18938E+07         0.00000E+00
    0.18938E+07        -0.12205E+06         0.00000E+00
    0.00000E+00         0.00000E+00         0.00000E+00
 
    0.38508E+07         0.27341E+07         0.00000E+00
    0.27341E+07         0.27210E+06         0.00000E+00
    0.00000E+00         0.00000E+00         0.00000E+00
 
    0.26336E+07         0.37103E+07         0.00000E+00
    0.37103E+07         0.70323E+06         0.00000E+00
    0.00000E+00         0.00000E+00         0.00000E+00
 
    0.14939E+07         0.48220E+07         0.00000E+00
    0.48220E+07         0.11590E+07         0.00000E+00
    0.00000E+00         0.00000E+00         0.00000E+00
 
    0.47396E+06         0.60604E+07         0.00000E+00
    0.60604E+07         0.16154E+07         0.00000E+00
    0.00000E+00         0.00000E+00         0.00000E+00
 
    0.14996E+08        -0.20907E+05         0.00000E+00
   -0.20907E+05        -0.31521E+07         0.00000E+00
    0.00000E+00         0.00000E+00         0.00000E+00
 
    0.14185E+08        -0.74786E+05         0.00000E+00
   -0.74786E+05        -0.31405E+07         0.00000E+00
    0.00000E+00         0.00000E+00         0.00000E+00
 
    0.13322E+08        -0.13317E+06         0.00000E+00
   -0.13317E+06        -0.31131E+07         0.00000E+00
    0.00000E+00         0.00000E+00         0.00000E+00
 
    0.12399E+08        -0.17317E+06         0.00000E+00
   -0.17317E+06        -0.30597E+07         0.00000E+00
    0.00000E+00         0.00000E+00         0.00000E+00
 
    0.11409E+08        -0.16466E+06         0.00000E+00
   -0.16466E+06        -0.29696E+07         0.00000E+00
    0.00000E+00         0.00000E+00         0.00000E+00
 
    0.10354E+08        -0.75552E+05         0.00000E+00
   -0.75552E+05        -0.28363E+07         0.00000E+00
    0.00000E+00         0.00000E+00         0.00000E+00
 
    0.92417E+07         0.12216E+06         0.00000E+00
    0.12216E+06        -0.26589E+07         0.00000E+00
    0.00000E+00         0.00000E+00         0.00000E+00
 
    0.80905E+07         0.44796E+06         0.00000E+00
    0.44796E+06        -0.24402E+07         0.00000E+00
    0.00000E+00         0.00000E+00         0.00000E+00
 
    0.69192E+07         0.91165E+06         0.00000E+00
    0.91165E+06        -0.21840E+07         0.00000E+00
    0.00000E+00         0.00000E+00         0.00000E+00
 
    0.57455E+07         0.15154E+07         0.00000E+00
    0.15154E+07        -0.18921E+07         0.00000E+00
    0.00000E+00         0.00000E+00         0.00000E+00
 
    0.45848E+07         0.22572E+07         0.00000E+00
    0.22572E+07        -0.15653E+07         0.00000E+00
    0.00000E+00         0.00000E+00         0.00000E+00
 
    0.34518E+07         0.31330E+07         0.00000E+00
    0.31330E+07        -0.12045E+07         0.00000E+00
    0.00000E+00         0.00000E+00         0.00000E+00
 
    0.23646E+07         0.41375E+07         0.00000E+00
    0.41375E+07        -0.81421E+06         0.00000E+00
    0.00000E+00         0.00000E+00         0.00000E+00
 
    0.13470E+07         0.52614E+07         0.00000E+00
    0.52614E+07        -0.40496E+06         0.00000E+00
    0.00000E+00         0.00000E+00         0.00000E+00
 
    0.42948E+06         0.64872E+07         0.00000E+00
    0.64872E+07         0.61974E+04         0.00000E+00
    0.00000E+00         0.00000E+00         0.00000E+00
 
    0.13670E+08        -0.13493E+05         0.00000E+00
   -0.13493E+05        -0.44382E+07         0.00000E+00
    0.00000E+00         0.00000E+00         0.00000E+00
 
    0.12848E+08        -0.54937E+05         0.00000E+00
   -0.54937E+05        -0.44259E+07         0.00000E+00
    0.00000E+00         0.00000E+00         0.00000E+00
 
    0.11995E+08        -0.94998E+05         0.00000E+00
   -0.94998E+05        -0.44009E+07         0.00000E+00
    0.00000E+00         0.00000E+00         0.00000E+00
 
    0.11109E+08        -0.10675E+06         0.00000E+00
   -0.10675E+06        -0.43568E+07         0.00000E+00
    0.00000E+00         0.00000E+00         0.00000E+00
 
    0.10187E+08        -0.61551E+05         0.00000E+00
   -0.61551E+05        -0.42854E+07         0.00000E+00
    0.00000E+00         0.00000E+00         0.00000E+00
 
    0.92272E+07         0.68413E+05         0.00000E+00
    0.68413E+05        -0.41803E+07         0.00000E+00
    0.00000E+00         0.00000E+00         0.00000E+00
 
    0.82335E+07         0.30690E+06         0.00000E+00
    0.30690E+06        -0.40382E+07         0.00000E+00
    0.00000E+00         0.00000E+00         0.00000E+00
 
    0.72145E+07         0.67113E+06         0.00000E+00
    0.67113E+06        -0.38587E+07         0.00000E+00
    0.00000E+00         0.00000E+00         0.00000E+00
 
    0.61813E+07         0.11709E+07         0.00000E+00
    0.11709E+07        -0.36426E+07         0.00000E+00
    0.00000E+00         0.00000E+00         0.00000E+00
 
    0.51459E+07         0.18095E+07         0.00000E+00
    0.18095E+07        -0.33909E+07         0.00000E+00
    0.00000E+00         0.00000E+00         0.00000E+00
 
    0.41199E+07         0.25851E+07         0.00000E+00
    0.25851E+07        -0.31048E+07         0.00000E+00
    0.00000E+00         0.00000E+00         0.00000E+00
 
    0.31159E+07         0.34919E+07         0.00000E+00
    0.34919E+07        -0.27862E+07         0.00000E+00
    0.00000E+00         0.00000E+00         0.00000E+00
 
    0.21484E+07         0.45207E+07         0.00000E+00
    0.45207E+07        -0.24396E+07         0.00000E+00
    0.00000E+00         0.00000E+00         0.00000E+00
 
    0.12352E+07         0.56568E+07         0.00000E+00
    0.56568E+07        -0.20728E+07         0.00000E+00
    0.00000E+00         0.00000E+00         0.00000E+00
 
    0.39733E+06         0.68783E+07         0.00000E+00
    0.68783E+07        -0.16975E+07         0.00000E+00
    0.00000E+00         0.00000E+00         0.00000E+00
 
    0.12371E+08        -0.74153E+04         0.00000E+00
   -0.74153E+04        -0.57128E+07         0.00000E+00
    0.00000E+00         0.00000E+00         0.00000E+00
 
    0.11536E+08        -0.40036E+05         0.00000E+00
   -0.40036E+05        -0.57072E+07         0.00000E+00
    0.00000E+00         0.00000E+00         0.00000E+00
 
    0.10701E+08        -0.67960E+05         0.00000E+00
   -0.67960E+05        -0.56957E+07         0.00000E+00
    0.00000E+00         0.00000E+00         0.00000E+00
 
    0.98613E+07        -0.59942E+05         0.00000E+00
   -0.59942E+05        -0.56731E+07         0.00000E+00
    0.00000E+00         0.00000E+00         0.00000E+00
 
    0.90133E+07         0.12712E+05         0.00000E+00
    0.12712E+05        -0.56319E+07         0.00000E+00
    0.00000E+00         0.00000E+00         0.00000E+00
 
    0.81523E+07         0.17553E+06         0.00000E+00
    0.17553E+06        -0.55649E+07         0.00000E+00
    0.00000E+00         0.00000E+00         0.00000E+00
 
    0.72767E+07         0.44949E+06         0.00000E+00
    0.44949E+06        -0.54673E+07         0.00000E+00
    0.00000E+00         0.00000E+00         0.00000E+00
 
    0.63885E+07         0.84978E+06         0.00000E+00
    0.84978E+06        -0.53360E+07         0.00000E+00
    0.00000E+00         0.00000E+00         0.00000E+00
 
    0.54923E+07         0.13853E+07         0.00000E+00
    0.13853E+07        -0.51697E+07         0.00000E+00
    0.00000E+00         0.00000E+00         0.00000E+00
 
    0.45941E+07         0.20589E+07         0.00000E+00
    0.20589E+07        -0.49680E+07         0.00000E+00
    0.00000E+00         0.00000E+00         0.00000E+00
 
    0.37012E+07         0.28681E+07         0.00000E+00
    0.28681E+07        -0.47310E+07         0.00000E+00
    0.00000E+00         0.00000E+00         0.00000E+00
 
    0.28219E+07         0.38059E+07         0.00000E+00
    0.38059E+07        -0.44604E+07         0.00000E+00
    0.00000E+00         0.00000E+00         0.00000E+00
 
    0.19660E+07         0.48603E+07         0.00000E+00
    0.48603E+07        -0.41592E+07         0.00000E+00
    0.00000E+00         0.00000E+00         0.00000E+00
 
    0.11453E+07         0.60140E+07         0.00000E+00
    0.60140E+07        -0.38325E+07         0.00000E+00
    0.00000E+00         0.00000E+00         0.00000E+00
 
    0.37268E+06         0.72426E+07         0.00000E+00
    0.72426E+07        -0.34873E+07         0.00000E+00
    0.00000E+00         0.00000E+00         0.00000E+00
 
    0.11072E+08        -0.65826E+04         0.00000E+00
   -0.65826E+04        -0.69935E+07         0.00000E+00
    0.00000E+00         0.00000E+00         0.00000E+00
 
    0.10226E+08        -0.39018E+05         0.00000E+00
   -0.39018E+05        -0.70001E+07         0.00000E+00
    0.00000E+00         0.00000E+00         0.00000E+00
 
    0.94136E+07        -0.62988E+05         0.00000E+00
   -0.62988E+05        -0.70109E+07         0.00000E+00
    0.00000E+00         0.00000E+00         0.00000E+00
 
    0.86285E+07        -0.43598E+05         0.00000E+00
   -0.43598E+05        -0.70196E+07         0.00000E+00
    0.00000E+00         0.00000E+00         0.00000E+00
 
    0.78616E+07         0.48425E+05         0.00000E+00
    0.48425E+05        -0.70177E+07         0.00000E+00
    0.00000E+00         0.00000E+00         0.00000E+00
 
    0.71040E+07         0.23732E+06         0.00000E+00
    0.23732E+06        -0.69973E+07         0.00000E+00
    0.00000E+00         0.00000E+00         0.00000E+00
 
    0.63490E+07         0.54205E+06         0.00000E+00
    0.54205E+06        -0.69515E+07         0.00000E+00
    0.00000E+00         0.00000E+00         0.00000E+00
 
    0.55926E+07         0.97597E+06         0.00000E+00
    0.97597E+06        -0.68754E+07         0.00000E+00
    0.00000E+00         0.00000E+00         0.00000E+00
 
    0.48334E+07         0.15466E+07         0.00000E+00
    0.15466E+07        -0.67656E+07         0.00000E+00
    0.00000E+00         0.00000E+00         0.00000E+00
 
    0.40720E+07         0.22559E+07         0.00000E+00
    0.22559E+07        -0.66201E+07         0.00000E+00
    0.00000E+00         0.00000E+00         0.00000E+00
 
    0.33106E+07         0.31004E+07         0.00000E+00
    0.31004E+07        -0.64377E+07         0.00000E+00
    0.00000E+00         0.00000E+00         0.00000E+00
 
    0.25527E+07         0.40719E+07         0.00000E+00
    0.40719E+07        -0.62185E+07         0.00000E+00
    0.00000E+00         0.00000E+00         0.00000E+00
 
    0.18031E+07         0.51568E+07         0.00000E+00
    0.51568E+07        -0.59638E+07         0.00000E+00
    0.00000E+00         0.00000E+00         0.00000E+00
 
    0.10676E+07         0.63362E+07         0.00000E+00
    0.63362E+07        -0.56759E+07         0.00000E+00
    0.00000E+00         0.00000E+00         0.00000E+00
 
    0.35204E+06         0.75853E+07         0.00000E+00
    0.75853E+07        -0.53578E+07         0.00000E+00
    0.00000E+00         0.00000E+00         0.00000E+00
 
    0.97452E+07        -0.13747E+05         0.00000E+00
   -0.13747E+05        -0.82974E+07         0.00000E+00
    0.00000E+00         0.00000E+00         0.00000E+00
 
    0.88893E+07        -0.58499E+05         0.00000E+00
   -0.58499E+05        -0.83203E+07         0.00000E+00
    0.00000E+00         0.00000E+00         0.00000E+00
 
    0.81071E+07        -0.88421E+05         0.00000E+00
   -0.88421E+05        -0.83598E+07         0.00000E+00
    0.00000E+00         0.00000E+00         0.00000E+00
 
    0.73847E+07        -0.66165E+05         0.00000E+00
   -0.66165E+05        -0.84070E+07         0.00000E+00
    0.00000E+00         0.00000E+00         0.00000E+00
 
    0.67068E+07         0.37942E+05         0.00000E+00
    0.37942E+05        -0.84516E+07         0.00000E+00
    0.00000E+00         0.00000E+00         0.00000E+00
 
    0.60590E+07         0.24713E+06         0.00000E+00
    0.24713E+06        -0.84840E+07         0.00000E+00
    0.00000E+00         0.00000E+00         0.00000E+00
 
    0.54290E+07         0.57869E+06         0.00000E+00
    0.57869E+06        -0.84955E+07         0.00000E+00
    0.00000E+00         0.00000E+00         0.00000E+00
 
    0.48073E+07         0.10442E+07         0.00000E+00
    0.10442E+07        -0.84794E+07         0.00000E+00
    0.00000E+00         0.00000E+00         0.00000E+00
 
    0.41867E+07         0.16498E+07         0.00000E+00
    0.16498E+07        -0.84306E+07         0.00000E+00
    0.00000E+00         0.00000E+00         0.00000E+00
 
    0.35627E+07         0.23960E+07         0.00000E+00
    0.23960E+07        -0.83451E+07         0.00000E+00
    0.00000E+00         0.00000E+00         0.00000E+00
 
    0.29324E+07         0.32785E+07         0.00000E+00
    0.32785E+07        -0.82203E+07         0.00000E+00
    0.00000E+00         0.00000E+00         0.00000E+00
 
    0.22943E+07         0.42880E+07         0.00000E+00
    0.42880E+07        -0.80547E+07         0.00000E+00
    0.00000E+00         0.00000E+00         0.00000E+00
 
    0.16483E+07         0.54102E+07         0.00000E+00
    0.54102E+07        -0.78473E+07         0.00000E+00
    0.00000E+00         0.00000E+00         0.00000E+00
 
    0.99446E+06         0.66254E+07         0.00000E+00
    0.66254E+07        -0.75977E+07         0.00000E+00
    0.00000E+00         0.00000E+00         0.00000E+00
 
    0.33282E+06         0.79087E+07         0.00000E+00
    0.79087E+07        -0.73057E+07         0.00000E+00
    0.00000E+00         0.00000E+00         0.00000E+00
 
    0.83560E+07        -0.30703E+05         0.00000E+00
   -0.30703E+05        -0.96413E+07         0.00000E+00
    0.00000E+00         0.00000E+00         0.00000E+00
 
    0.74971E+07        -0.10298E+06         0.00000E+00
   -0.10298E+06        -0.96829E+07         0.00000E+00
    0.00000E+00         0.00000E+00         0.00000E+00
 
    0.67545E+07        -0.15009E+06         0.00000E+00
   -0.15009E+06        -0.97554E+07         0.00000E+00
    0.00000E+00         0.00000E+00         0.00000E+00
 
    0.61048E+07        -0.13363E+06         0.00000E+00
   -0.13363E+06        -0.98460E+07         0.00000E+00
    0.00000E+00         0.00000E+00         0.00000E+00
 
    0.55254E+07        -0.24150E+05         0.00000E+00
   -0.24150E+05        -0.99420E+07         0.00000E+00
    0.00000E+00         0.00000E+00         0.00000E+00
 
    0.49955E+07         0.20039E+06         0.00000E+00
    0.20039E+06        -0.10031E+08         0.00000E+00
    0.00000E+00         0.00000E+00         0.00000E+00
 
    0.44968E+07         0.55560E+06         0.00000E+00
    0.55560E+06        -0.10104E+08         0.00000E+00
    0.00000E+00         0.00000E+00         0.00000E+00
 
    0.40142E+07         0.10513E+07         0.00000E+00
    0.10513E+07        -0.10150E+08         0.00000E+00
    0.00000E+00         0.00000E+00         0.00000E+00
 
    0.35354E+07         0.16919E+07         0.00000E+00
    0.16919E+07        -0.10165E+08         0.00000E+00
    0.00000E+00         0.00000E+00         0.00000E+00
 
    0.30508E+07         0.24768E+07         0.00000E+00
    0.24768E+07        -0.10141E+08         0.00000E+00
    0.00000E+00         0.00000E+00         0.00000E+00
 
    0.25527E+07         0.34008E+07         0.00000E+00
    0.34008E+07        -0.10076E+08         0.00000E+00
    0.00000E+00         0.00000E+00         0.00000E+00
 
    0.20350E+07         0.44535E+07         0.00000E+00
    0.44535E+07        -0.99645E+07         0.00000E+00
    0.00000E+00         0.00000E+00         0.00000E+00
 
    0.14924E+07         0.56204E+07         0.00000E+00
    0.56204E+07        -0.98049E+07         0.00000E+00
    0.00000E+00         0.00000E+00         0.00000E+00
 
    0.92015E+06         0.68818E+07         0.00000E+00
    0.68818E+07        -0.95939E+07         0.00000E+00
    0.00000E+00         0.00000E+00         0.00000E+00
 
    0.31299E+06         0.82132E+07         0.00000E+00
    0.82132E+07        -0.93283E+07         0.00000E+00
    0.00000E+00         0.00000E+00         0.00000E+00
 
    0.68698E+07        -0.58496E+05         0.00000E+00
   -0.58496E+05        -0.11041E+08         0.00000E+00
    0.00000E+00         0.00000E+00         0.00000E+00
 
    0.60199E+07        -0.17516E+06         0.00000E+00
   -0.17516E+06        -0.11102E+08         0.00000E+00
    0.00000E+00         0.00000E+00         0.00000E+00
 
    0.53296E+07        -0.25154E+06         0.00000E+00
   -0.25154E+06        -0.11210E+08         0.00000E+00
    0.00000E+00         0.00000E+00         0.00000E+00
 
    0.47653E+07        -0.24958E+06         0.00000E+00
   -0.24958E+06        -0.11347E+08         0.00000E+00
    0.00000E+00         0.00000E+00         0.00000E+00
 
    0.42958E+07        -0.14093E+06         0.00000E+00
   -0.14093E+06        -0.11497E+08         0.00000E+00
    0.00000E+00         0.00000E+00         0.00000E+00
 
    0.38934E+07         0.94738E+05         0.00000E+00
    0.94738E+05        -0.11645E+08         0.00000E+00
    0.00000E+00         0.00000E+00         0.00000E+00
 
    0.35338E+07         0.47107E+06         0.00000E+00
    0.47107E+06        -0.11779E+08         0.00000E+00
    0.00000E+00         0.00000E+00         0.00000E+00
 
    0.31965E+07         0.99595E+06         0.00000E+00
    0.99595E+06        -0.11890E+08         0.00000E+00
    0.00000E+00         0.00000E+00         0.00000E+00
 
    0.28641E+07         0.16721E+07         0.00000E+00
    0.16721E+07        -0.11968E+08         0.00000E+00
    0.00000E+00         0.00000E+00         0.00000E+00
 
    0.25225E+07         0.24978E+07         0.00000E+00
    0.24978E+07        -0.12006E+08         0.00000E+00
    0.00000E+00         0.00000E+00         0.00000E+00
 
    0.21595E+07         0.34666E+07         0.00000E+00
    0.34666E+07        -0.12000E+08         0.00000E+00
    0.00000E+00         0.00000E+00         0.00000E+00
 
    0.17645E+07         0.45680E+07         0.00000E+00
    0.45680E+07        -0.11944E+08         0.00000E+00
    0.00000E+00         0.00000E+00         0.00000E+00
 
    0.13277E+07         0.57872E+07         0.00000E+00
    0.57872E+07        -0.11833E+08         0.00000E+00
    0.00000E+00         0.00000E+00         0.00000E+00
 
    0.83985E+06         0.71049E+07         0.00000E+00
    0.71049E+07        -0.11661E+08         0.00000E+00
    0.00000E+00         0.00000E+00         0.00000E+00
 
    0.29096E+06         0.84974E+07         0.00000E+00
    0.84974E+07        -0.11424E+08         0.00000E+00
    0.00000E+00         0.00000E+00         0.00000E+00
 
    0.52511E+07        -0.97592E+05         0.00000E+00
   -0.97592E+05        -0.12510E+08         0.00000E+00
    0.00000E+00         0.00000E+00         0.00000E+00
 
    0.44282E+07        -0.27626E+06         0.00000E+00
   -0.27626E+06        -0.12593E+08         0.00000E+00
    0.00000E+00         0.00000E+00         0.00000E+00
 
    0.38073E+07        -0.39426E+06         0.00000E+00
   -0.39426E+06        -0.12737E+08         0.00000E+00
    0.00000E+00         0.00000E+00         0.00000E+00
 
    0.33440E+07        -0.41528E+06         0.00000E+00
   -0.41528E+06        -0.12921E+08         0.00000E+00
    0.00000E+00         0.00000E+00         0.00000E+00
 
    0.29982E+07        -0.31313E+06         0.00000E+00
   -0.31313E+06        -0.13124E+08         0.00000E+00
    0.00000E+00         0.00000E+00         0.00000E+00
 
    0.27349E+07        -0.69884E+05         0.00000E+00
   -0.69884E+05        -0.13331E+08         0.00000E+00
    0.00000E+00         0.00000E+00         0.00000E+00
 
    0.25238E+07         0.32565E+06         0.00000E+00
    0.32565E+06        -0.13526E+08         0.00000E+00
    0.00000E+00         0.00000E+00         0.00000E+00
 
    0.23390E+07         0.87912E+06         0.00000E+00
    0.87912E+06        -0.13699E+08         0.00000E+00
    0.00000E+00         0.00000E+00         0.00000E+00
 
    0.21590E+07         0.15915E+07         0.00000E+00
    0.15915E+07        -0.13839E+08         0.00000E+00
    0.00000E+00         0.00000E+00         0.00000E+00
 
    0.19653E+07         0.24597E+07         0.00000E+00
    0.24597E+07        -0.13938E+08         0.00000E+00
    0.00000E+00         0.00000E+00         0.00000E+00
 
    0.17417E+07         0.34766E+07         0.00000E+00
    0.34766E+07        -0.13990E+08         0.00000E+00
    0.00000E+00         0.00000E+00         0.00000E+00
 
    0.14738E+07         0.46316E+07         0.00000E+00
    0.46316E+07        -0.13988E+08         0.00000E+00
    0.00000E+00         0.00000E+00         0.00000E+00
 
    0.11476E+07         0.59100E+07         0.00000E+00
    0.59100E+07        -0.13926E+08         0.00000E+00
    0.00000E+00         0.00000E+00         0.00000E+00
 
    0.74943E+06         0.72933E+07         0.00000E+00
    0.72933E+07        -0.13795E+08         0.00000E+00
    0.00000E+00         0.00000E+00         0.00000E+00
 
    0.26534E+06         0.87586E+07         0.00000E+00
    0.87586E+07        -0.13588E+08         0.00000E+00
    0.00000E+00         0.00000E+00         0.00000E+00
 
    0.34658E+07        -0.14800E+06         0.00000E+00
   -0.14800E+06        -0.14063E+08         0.00000E+00
    0.00000E+00         0.00000E+00         0.00000E+00
 
    0.26940E+07        -0.40623E+06         0.00000E+00
   -0.40623E+06        -0.14166E+08         0.00000E+00
    0.00000E+00         0.00000E+00         0.00000E+00
 
    0.21642E+07        -0.57789E+06         0.00000E+00
   -0.57789E+06        -0.14346E+08         0.00000E+00
    0.00000E+00         0.00000E+00         0.00000E+00
 
    0.18209E+07        -0.62979E+06         0.00000E+00
   -0.62979E+06        -0.14575E+08         0.00000E+00
    0.00000E+00         0.00000E+00         0.00000E+00
 
    0.16149E+07        -0.53907E+06         0.00000E+00
   -0.53907E+06        -0.14831E+08         0.00000E+00
    0.00000E+00         0.00000E+00         0.00000E+00
 
    0.15039E+07        -0.29111E+06         0.00000E+00
   -0.29111E+06        -0.15093E+08         0.00000E+00
    0.00000E+00         0.00000E+00         0.00000E+00
 
    0.14519E+07         0.12218E+06         0.00000E+00
    0.12218E+06        -0.15346E+08         0.00000E+00
    0.00000E+00         0.00000E+00         0.00000E+00
 
    0.14283E+07         0.70383E+06         0.00000E+00
    0.70383E+06        -0.15577E+08         0.00000E+00
    0.00000E+00         0.00000E+00         0.00000E+00
 
    0.14076E+07         0.14528E+07         0.00000E+00
    0.14528E+07        -0.15775E+08         0.00000E+00
    0.00000E+00         0.00000E+00         0.00000E+00
 
    0.13678E+07         0.23648E+07         0.00000E+00
    0.23648E+07        -0.15932E+08         0.00000E+00
    0.00000E+00         0.00000E+00         0.00000E+00
 
    0.12895E+07         0.34323E+07         0.00000E+00
    0.34323E+07        -0.16041E+08         0.00000E+00
    0.00000E+00         0.00000E+00         0.00000E+00
 
    0.11546E+07         0.46447E+07         0.00000E+00
    0.46447E+07        -0.16092E+08         0.00000E+00
    0.00000E+00         0.00000E+00         0.00000E+00
 
    0.94567E+06         0.59880E+07         0.00000E+00
    0.59880E+07        -0.16079E+08         0.00000E+00
    0.00000E+00         0.00000E+00         0.00000E+00
 
    0.64513E+06         0.74447E+07         0.00000E+00
    0.74447E+07        -0.15991E+08         0.00000E+00
    0.00000E+00         0.00000E+00         0.00000E+00
 
    0.23486E+06         0.89931E+07         0.00000E+00
    0.89931E+07        -0.15818E+08         0.00000E+00
    0.00000E+00         0.00000E+00         0.00000E+00
 
    0.14813E+07        -0.20936E+06         0.00000E+00
   -0.20936E+06        -0.15711E+08         0.00000E+00
    0.00000E+00         0.00000E+00         0.00000E+00
 
    0.79101E+06        -0.56392E+06         0.00000E+00
   -0.56392E+06        -0.15834E+08         0.00000E+00
    0.00000E+00         0.00000E+00         0.00000E+00
 
    0.37890E+06        -0.80036E+06         0.00000E+00
   -0.80036E+06        -0.16047E+08         0.00000E+00
    0.00000E+00         0.00000E+00         0.00000E+00
 
    0.17811E+06        -0.89002E+06         0.00000E+00
   -0.89002E+06        -0.16319E+08         0.00000E+00
    0.00000E+00         0.00000E+00         0.00000E+00
 
    0.13056E+06        -0.81464E+06         0.00000E+00
   -0.81464E+06        -0.16622E+08         0.00000E+00
    0.00000E+00         0.00000E+00         0.00000E+00
 
    0.18680E+06        -0.56402E+06         0.00000E+00
   -0.56402E+06        -0.16934E+08         0.00000E+00
    0.00000E+00         0.00000E+00         0.00000E+00
 
    0.30547E+06        -0.13398E+06         0.00000E+00
   -0.13398E+06        -0.17239E+08         0.00000E+00
    0.00000E+00         0.00000E+00         0.00000E+00
 
    0.45222E+06         0.47540E+06         0.00000E+00
    0.47540E+06        -0.17522E+08         0.00000E+00
    0.00000E+00         0.00000E+00         0.00000E+00
 
    0.59837E+06         0.12609E+07         0.00000E+00
    0.12609E+07        -0.17773E+08         0.00000E+00
    0.00000E+00         0.00000E+00         0.00000E+00
 
    0.71935E+06         0.22171E+07         0.00000E+00
    0.22171E+07        -0.17983E+08         0.00000E+00
    0.00000E+00         0.00000E+00         0.00000E+00
 
    0.79313E+06         0.33361E+07         0.00000E+00
    0.33361E+07        -0.18143E+08         0.00000E+00
    0.00000E+00         0.00000E+00         0.00000E+00
 
    0.79891E+06         0.46081E+07         0.00000E+00
    0.46081E+07        -0.18247E+08         0.00000E+00
    0.00000E+00         0.00000E+00         0.00000E+00
 
    0.71601E+06         0.60201E+07         0.00000E+00
    0.60201E+07        -0.18283E+08         0.00000E+00
    0.00000E+00         0.00000E+00         0.00000E+00
 
    0.52317E+06         0.75561E+07         0.00000E+00
    0.75561E+07        -0.18240E+08         0.00000E+00
    0.00000E+00         0.00000E+00         0.00000E+00
 
    0.19828E+06         0.91961E+07         0.00000E+00
    0.91961E+07        -0.18106E+08         0.00000E+00
    0.00000E+00         0.00000E+00         0.00000E+00
 
   -0.73206E+06        -0.28097E+06         0.00000E+00
   -0.28097E+06        -0.17464E+08         0.00000E+00
    0.00000E+00         0.00000E+00         0.00000E+00
 
   -0.13041E+07        -0.74719E+06         0.00000E+00
   -0.74719E+06        -0.17605E+08         0.00000E+00
    0.00000E+00         0.00000E+00         0.00000E+00
 
   -0.15670E+07        -0.10579E+07         0.00000E+00
   -0.10579E+07        -0.17849E+08         0.00000E+00
    0.00000E+00         0.00000E+00         0.00000E+00
 
   -0.15991E+07        -0.11907E+07         0.00000E+00
   -0.11907E+07        -0.18158E+08         0.00000E+00
    0.00000E+00         0.00000E+00         0.00000E+00
 
   -0.14675E+07        -0.11332E+07         0.00000E+00
   -0.11332E+07        -0.18501E+08         0.00000E+00
    0.00000E+00         0.00000E+00         0.00000E+00
 
   -0.12280E+07        -0.88095E+06         0.00000E+00
   -0.88095E+06        -0.18856E+08         0.00000E+00
    0.00000E+00         0.00000E+00         0.00000E+00
 
   -0.92644E+06        -0.43473E+06         0.00000E+00
   -0.43473E+06        -0.19203E+08         0.00000E+00
    0.00000E+00         0.00000E+00         0.00000E+00
 
   -0.60008E+06         0.20168E+06         0.00000E+00
    0.20168E+06        -0.19529E+08         0.00000E+00
    0.00000E+00         0.00000E+00         0.00000E+00
 
   -0.27943E+06         0.10227E+07         0.00000E+00
    0.10227E+07        -0.19824E+08         0.00000E+00
    0.00000E+00         0.00000E+00         0.00000E+00
 
    0.94632E+04         0.20218E+07         0.00000E+00
    0.20218E+07        -0.20080E+08         0.00000E+00
    0.00000E+00         0.00000E+00         0.00000E+00
 
    0.24302E+06         0.31914E+07         0.00000E+00
    0.31914E+07        -0.20289E+08         0.00000E+00
    0.00000E+00         0.00000E+00         0.00000E+00
 
    0.39838E+06         0.45228E+07         0.00000E+00
    0.45228E+07        -0.20441E+08         0.00000E+00
    0.00000E+00         0.00000E+00         0.00000E+00
 
    0.45214E+06         0.60049E+07         0.00000E+00
    0.60049E+07        -0.20527E+08         0.00000E+00
    0.00000E+00         0.00000E+00         0.00000E+00
 
    0.37952E+06         0.76238E+07         0.00000E+00
    0.76238E+07        -0.20533E+08         0.00000E+00
    0.00000E+00         0.00000E+00         0.00000E+00
 
    0.15421E+06         0.93614E+07         0.00000E+00
    0.93614E+07        -0.20443E+08         0.00000E+00
    0.00000E+00         0.00000E+00         0.00000E+00
 
   -0.32009E+07        -0.36187E+06         0.00000E+00
   -0.36187E+06        -0.19332E+08         0.00000E+00
    0.00000E+00         0.00000E+00         0.00000E+00
 
   -0.36112E+07        -0.95290E+06         0.00000E+00
   -0.95290E+06        -0.19488E+08         0.00000E+00
    0.00000E+00         0.00000E+00         0.00000E+00
 
   -0.36884E+07        -0.13452E+07         0.00000E+00
   -0.13452E+07        -0.19757E+08         0.00000E+00
    0.00000E+00         0.00000E+00         0.00000E+00
 
   -0.35223E+07        -0.15241E+07         0.00000E+00
   -0.15241E+07        -0.20096E+08         0.00000E+00
    0.00000E+00         0.00000E+00         0.00000E+00
 
   -0.31888E+07        -0.14851E+07         0.00000E+00
   -0.14851E+07        -0.20471E+08         0.00000E+00
    0.00000E+00         0.00000E+00         0.00000E+00
 
   -0.27493E+07        -0.12312E+07         0.00000E+00
   -0.12312E+07        -0.20856E+08         0.00000E+00
    0.00000E+00         0.00000E+00         0.00000E+00
 
   -0.22531E+07        -0.76894E+06         0.00000E+00
   -0.76894E+06        -0.21233E+08         0.00000E+00
    0.00000E+00         0.00000E+00         0.00000E+00
 
   -0.17384E+07        -0.10674E+06         0.00000E+00
   -0.10674E+06        -0.21590E+08         0.00000E+00
    0.00000E+00         0.00000E+00         0.00000E+00
 
   -0.12363E+07         0.74734E+06         0.00000E+00
    0.74734E+06        -0.21918E+08         0.00000E+00
    0.00000E+00         0.00000E+00         0.00000E+00
 
   -0.77255E+06         0.17860E+07         0.00000E+00
    0.17860E+07        -0.22211E+08         0.00000E+00
    0.00000E+00         0.00000E+00         0.00000E+00
 
   -0.37119E+06         0.30025E+07         0.00000E+00
    0.30025E+07        -0.22462E+08         0.00000E+00
    0.00000E+00         0.00000E+00         0.00000E+00
 
   -0.56189E+05         0.43901E+07         0.00000E+00
    0.43901E+07        -0.22661E+08         0.00000E+00
    0.00000E+00         0.00000E+00         0.00000E+00
 
    0.14676E+06         0.59405E+07         0.00000E+00
    0.59405E+07        -0.22797E+08         0.00000E+00
    0.00000E+00         0.00000E+00         0.00000E+00
 
    0.20945E+06         0.76428E+07         0.00000E+00
    0.76428E+07        -0.22855E+08         0.00000E+00
    0.00000E+00         0.00000E+00         0.00000E+00
 
    0.10102E+06         0.94816E+07         0.00000E+00
    0.94816E+07        -0.22816E+08         0.00000E+00
    0.00000E+00         0.00000E+00         0.00000E+00
 
   -0.59478E+07        -0.45080E+06         0.00000E+00
   -0.45080E+06        -0.21320E+08         0.00000E+00
    0.00000E+00         0.00000E+00         0.00000E+00
 
   -0.61461E+07        -0.11770E+07         0.00000E+00
   -0.11770E+07        -0.21490E+08         0.00000E+00
    0.00000E+00         0.00000E+00         0.00000E+00
 
   -0.59958E+07        -0.16550E+07         0.00000E+00
   -0.16550E+07        -0.21778E+08         0.00000E+00
    0.00000E+00         0.00000E+00         0.00000E+00
 
   -0.55989E+07        -0.18800E+07         0.00000E+00
   -0.18800E+07        -0.22137E+08         0.00000E+00
    0.00000E+00         0.00000E+00         0.00000E+00
 
   -0.50395E+07        -0.18578E+07         0.00000E+00
   -0.18578E+07        -0.22530E+08         0.00000E+00
    0.00000E+00         0.00000E+00         0.00000E+00
 
   -0.43837E+07        -0.16004E+07         0.00000E+00
   -0.16004E+07        -0.22931E+08         0.00000E+00
    0.00000E+00         0.00000E+00         0.00000E+00
 
   -0.36820E+07        -0.11220E+07         0.00000E+00
   -0.11220E+07        -0.23322E+08         0.00000E+00
    0.00000E+00         0.00000E+00         0.00000E+00
 
   -0.29721E+07        -0.43612E+06         0.00000E+00
   -0.43612E+06        -0.23694E+08         0.00000E+00
    0.00000E+00         0.00000E+00         0.00000E+00
 
   -0.22829E+07         0.44656E+06         0.00000E+00
    0.44656E+06        -0.24041E+08         0.00000E+00
    0.00000E+00         0.00000E+00         0.00000E+00
 
   -0.16384E+07         0.15184E+07         0.00000E+00
    0.15184E+07        -0.24360E+08         0.00000E+00
    0.00000E+00         0.00000E+00         0.00000E+00
 
   -0.10612E+07         0.27745E+07         0.00000E+00
    0.27745E+07        -0.24644E+08         0.00000E+00
    0.00000E+00         0.00000E+00         0.00000E+00
 
   -0.57553E+06         0.42112E+07         0.00000E+00
    0.42112E+07        -0.24887E+08         0.00000E+00
    0.00000E+00         0.00000E+00         0.00000E+00
 
   -0.20883E+06         0.58243E+07         0.00000E+00
    0.58243E+07        -0.25074E+08         0.00000E+00
    0.00000E+00         0.00000E+00         0.00000E+00
 
    0.72361E+04         0.76068E+07         0.00000E+00
    0.76068E+07        -0.25190E+08         0.00000E+00
    0.00000E+00         0.00000E+00         0.00000E+00
 
    0.36689E+05         0.95475E+07         0.00000E+00
    0.95475E+07        -0.25211E+08         0.00000E+00
    0.00000E+00         0.00000E+00         0.00000E+00
 
   -0.89908E+07        -0.54623E+06         0.00000E+00
   -0.54623E+06        -0.23435E+08         0.00000E+00
    0.00000E+00         0.00000E+00         0.00000E+00
 
   -0.89194E+07        -0.14142E+07         0.00000E+00
   -0.14142E+07        -0.23614E+08         0.00000E+00
    0.00000E+00         0.00000E+00         0.00000E+00
 
   -0.84945E+07        -0.19778E+07         0.00000E+00
   -0.19778E+07        -0.23914E+08         0.00000E+00
    0.00000E+00         0.00000E+00         0.00000E+00
 
   -0.78313E+07        -0.22451E+07         0.00000E+00
   -0.22451E+07        -0.24281E+08         0.00000E+00
    0.00000E+00         0.00000E+00         0.00000E+00
 
   -0.70216E+07        -0.22348E+07         0.00000E+00
   -0.22348E+07        -0.24675E+08         0.00000E+00
    0.00000E+00         0.00000E+00         0.00000E+00
 
   -0.61345E+07        -0.19705E+07         0.00000E+00
   -0.19705E+07        -0.25071E+08         0.00000E+00
    0.00000E+00         0.00000E+00         0.00000E+00
 
   -0.52192E+07        -0.14756E+07         0.00000E+00
   -0.14756E+07        -0.25456E+08         0.00000E+00
    0.00000E+00         0.00000E+00         0.00000E+00
 
   -0.43100E+07        -0.76929E+06         0.00000E+00
   -0.76929E+06        -0.25823E+08         0.00000E+00
    0.00000E+00         0.00000E+00         0.00000E+00
 
   -0.34309E+07         0.13485E+06         0.00000E+00
    0.13485E+06        -0.26172E+08         0.00000E+00
    0.00000E+00         0.00000E+00         0.00000E+00
 
   -0.26015E+07         0.12296E+07         0.00000E+00
    0.12296E+07        -0.26502E+08         0.00000E+00
    0.00000E+00         0.00000E+00         0.00000E+00
 
   -0.18411E+07         0.25133E+07         0.00000E+00
    0.25133E+07        -0.26812E+08         0.00000E+00
    0.00000E+00         0.00000E+00         0.00000E+00
 
   -0.11727E+07         0.39870E+07         0.00000E+00
    0.39870E+07        -0.27094E+08         0.00000E+00
    0.00000E+00         0.00000E+00         0.00000E+00
 
   -0.62535E+06         0.56523E+07         0.00000E+00
    0.56523E+07        -0.27335E+08         0.00000E+00
    0.00000E+00         0.00000E+00         0.00000E+00
 
   -0.23438E+06         0.75079E+07         0.00000E+00
    0.75079E+07        -0.27514E+08         0.00000E+00
    0.00000E+00         0.00000E+00         0.00000E+00
 
   -0.41399E+05         0.95474E+07         0.00000E+00
    0.95474E+07        -0.27607E+08         0.00000E+00
    0.00000E+00         0.00000E+00         0.00000E+00
 
   -0.12343E+08        -0.64637E+06         0.00000E+00
   -0.64637E+06        -0.25680E+08         0.00000E+00
    0.00000E+00         0.00000E+00         0.00000E+00
 
   -0.11935E+08        -0.16580E+07         0.00000E+00
   -0.16580E+07        -0.25864E+08         0.00000E+00
    0.00000E+00         0.00000E+00         0.00000E+00
 
   -0.11183E+08        -0.23018E+07         0.00000E+00
   -0.23018E+07        -0.26165E+08         0.00000E+00
    0.00000E+00         0.00000E+00         0.00000E+00
 
   -0.10216E+08        -0.26023E+07         0.00000E+00
   -0.26023E+07        -0.26523E+08         0.00000E+00
    0.00000E+00         0.00000E+00         0.00000E+00
 
   -0.91328E+07        -0.25951E+07         0.00000E+00
   -0.25951E+07        -0.26897E+08         0.00000E+00
    0.00000E+00         0.00000E+00         0.00000E+00
 
   -0.80025E+07        -0.23185E+07         0.00000E+00
   -0.23185E+07        -0.27265E+08         0.00000E+00
    0.00000E+00         0.00000E+00         0.00000E+00
 
   -0.68698E+07        -0.18066E+07         0.00000E+00
   -0.18066E+07        -0.27617E+08         0.00000E+00
    0.00000E+00         0.00000E+00         0.00000E+00
 
   -0.57616E+07        -0.10853E+07         0.00000E+00
   -0.10853E+07        -0.27955E+08         0.00000E+00
    0.00000E+00         0.00000E+00         0.00000E+00
 
   -0.46938E+07        -0.17033E+06         0.00000E+00
   -0.17033E+06        -0.28284E+08         0.00000E+00
    0.00000E+00         0.00000E+00         0.00000E+00
 
   -0.36782E+07         0.93234E+06         0.00000E+00
    0.93234E+06        -0.28609E+08         0.00000E+00
    0.00000E+00         0.00000E+00         0.00000E+00
 
   -0.27282E+07         0.22254E+07         0.00000E+00
    0.22254E+07        -0.28933E+08         0.00000E+00
    0.00000E+00         0.00000E+00         0.00000E+00
 
   -0.18641E+07         0.37176E+07         0.00000E+00
    0.37176E+07        -0.29252E+08         0.00000E+00
    0.00000E+00         0.00000E+00         0.00000E+00
 
   -0.11162E+07         0.54190E+07         0.00000E+00
    0.54190E+07        -0.29550E+08         0.00000E+00
    0.00000E+00         0.00000E+00         0.00000E+00
 
   -0.52464E+06         0.73353E+07         0.00000E+00
    0.73353E+07        -0.29804E+08         0.00000E+00
    0.00000E+00         0.00000E+00         0.00000E+00
 
   -0.13669E+06         0.94666E+07         0.00000E+00
    0.94666E+07        -0.29982E+08         0.00000E+00
    0.00000E+00         0.00000E+00         0.00000E+00
 
   -0.16010E+08        -0.74912E+06         0.00000E+00
   -0.74912E+06        -0.28058E+08         0.00000E+00
    0.00000E+00         0.00000E+00         0.00000E+00
 
   -0.15190E+08        -0.19003E+07         0.00000E+00
   -0.19003E+07        -0.28241E+08         0.00000E+00
    0.00000E+00         0.00000E+00         0.00000E+00
 
   -0.14052E+08        -0.26115E+07         0.00000E+00
   -0.26115E+07        -0.28529E+08         0.00000E+00
    0.00000E+00         0.00000E+00         0.00000E+00
 
   -0.12743E+08        -0.29294E+07         0.00000E+00
   -0.29294E+07        -0.28857E+08         0.00000E+00
    0.00000E+00         0.00000E+00         0.00000E+00
 
   -0.11366E+08        -0.29121E+07         0.00000E+00
   -0.29121E+07        -0.29183E+08         0.00000E+00
    0.00000E+00         0.00000E+00         0.00000E+00
 
   -0.99855E+07        -0.26161E+07         0.00000E+00
   -0.26161E+07        -0.29491E+08         0.00000E+00
    0.00000E+00         0.00000E+00         0.00000E+00
 
   -0.86378E+07        -0.20878E+07         0.00000E+00
   -0.20878E+07        -0.29780E+08         0.00000E+00
    0.00000E+00         0.00000E+00         0.00000E+00
 
   -0.73371E+07        -0.13594E+07         0.00000E+00
   -0.13594E+07        -0.30060E+08         0.00000E+00
    0.00000E+00         0.00000E+00         0.00000E+00
 
   -0.60872E+07        -0.44856E+06         0.00000E+00
   -0.44856E+06        -0.30344E+08         0.00000E+00
    0.00000E+00         0.00000E+00         0.00000E+00
 
   -0.48885E+07         0.64124E+06         0.00000E+00
    0.64124E+06        -0.30645E+08         0.00000E+00
    0.00000E+00         0.00000E+00         0.00000E+00
 
   -0.37453E+07         0.19185E+07         0.00000E+00
    0.19185E+07        -0.30971E+08         0.00000E+00
    0.00000E+00         0.00000E+00         0.00000E+00
 
   -0.26715E+07         0.34015E+07         0.00000E+00
    0.34015E+07        -0.31321E+08         0.00000E+00
    0.00000E+00         0.00000E+00         0.00000E+00
 
   -0.16984E+07         0.51141E+07         0.00000E+00
    0.51141E+07        -0.31684E+08         0.00000E+00
    0.00000E+00         0.00000E+00         0.00000E+00
 
   -0.87497E+06         0.70742E+07         0.00000E+00
    0.70742E+07        -0.32028E+08         0.00000E+00
    0.00000E+00         0.00000E+00         0.00000E+00
 
   -0.25382E+06         0.92855E+07         0.00000E+00
    0.92855E+07        -0.32312E+08         0.00000E+00
    0.00000E+00         0.00000E+00         0.00000E+00
 
   -0.19991E+08        -0.85205E+06         0.00000E+00
   -0.85205E+06        -0.30568E+08         0.00000E+00
    0.00000E+00         0.00000E+00         0.00000E+00
 
   -0.18670E+08        -0.21307E+07         0.00000E+00
   -0.21307E+07        -0.30742E+08         0.00000E+00
    0.00000E+00         0.00000E+00         0.00000E+00
 
   -0.17082E+08        -0.28864E+07         0.00000E+00
   -0.28864E+07        -0.31000E+08         0.00000E+00
    0.00000E+00         0.00000E+00         0.00000E+00
 
   -0.15393E+08        -0.31976E+07         0.00000E+00
   -0.31976E+07        -0.31268E+08         0.00000E+00
    0.00000E+00         0.00000E+00         0.00000E+00
 
   -0.13707E+08        -0.31524E+07         0.00000E+00
   -0.31524E+07        -0.31511E+08         0.00000E+00
    0.00000E+00         0.00000E+00         0.00000E+00
 
   -0.12080E+08        -0.28292E+07         0.00000E+00
   -0.28292E+07        -0.31720E+08         0.00000E+00
    0.00000E+00         0.00000E+00         0.00000E+00
 
   -0.10528E+08        -0.22873E+07         0.00000E+00
   -0.22873E+07        -0.31910E+08         0.00000E+00
    0.00000E+00         0.00000E+00         0.00000E+00
 
   -0.90487E+07        -0.15640E+07         0.00000E+00
   -0.15640E+07        -0.32100E+08         0.00000E+00
    0.00000E+00         0.00000E+00         0.00000E+00
 
   -0.76295E+07        -0.67712E+06         0.00000E+00
   -0.67712E+06        -0.32312E+08         0.00000E+00
    0.00000E+00         0.00000E+00         0.00000E+00
 
   -0.62563E+07         0.37325E+06         0.00000E+00
    0.37325E+06        -0.32567E+08         0.00000E+00
    0.00000E+00         0.00000E+00         0.00000E+00
 
   -0.49204E+07         0.16022E+07         0.00000E+00
    0.16022E+07        -0.32880E+08         0.00000E+00
    0.00000E+00         0.00000E+00         0.00000E+00
 
   -0.36254E+07         0.30384E+07         0.00000E+00
    0.30384E+07        -0.33255E+08         0.00000E+00
    0.00000E+00         0.00000E+00         0.00000E+00
 
   -0.23971E+07         0.47226E+07         0.00000E+00
    0.47226E+07        -0.33687E+08         0.00000E+00
    0.00000E+00         0.00000E+00         0.00000E+00
 
   -0.13009E+07         0.66976E+07         0.00000E+00
    0.66976E+07        -0.34146E+08         0.00000E+00
    0.00000E+00         0.00000E+00         0.00000E+00
 
   -0.39865E+06         0.89717E+07         0.00000E+00
    0.89717E+07        -0.34589E+08         0.00000E+00
    0.00000E+00         0.00000E+00         0.00000E+00
 
   -0.24277E+08        -0.95223E+06         0.00000E+00
   -0.95223E+06        -0.33208E+08         0.00000E+00
    0.00000E+00         0.00000E+00         0.00000E+00
 
   -0.22348E+08        -0.23343E+07         0.00000E+00
   -0.23343E+07        -0.33363E+08         0.00000E+00
    0.00000E+00         0.00000E+00         0.00000E+00
 
   -0.20240E+08        -0.30978E+07         0.00000E+00
   -0.30978E+07        -0.33564E+08         0.00000E+00
    0.00000E+00         0.00000E+00         0.00000E+00
 
   -0.18139E+08        -0.33684E+07         0.00000E+00
   -0.33684E+07        -0.33732E+08         0.00000E+00
    0.00000E+00         0.00000E+00         0.00000E+00
 
   -0.16143E+08        -0.32743E+07         0.00000E+00
   -0.32743E+07        -0.33844E+08         0.00000E+00
    0.00000E+00         0.00000E+00         0.00000E+00
 
   -0.14281E+08        -0.29186E+07         0.00000E+00
   -0.29186E+07        -0.33910E+08         0.00000E+00
    0.00000E+00         0.00000E+00         0.00000E+00
 
   -0.12547E+08        -0.23708E+07         0.00000E+00
   -0.23708E+07        -0.33961E+08         0.00000E+00
    0.00000E+00         0.00000E+00         0.00000E+00
 
   -0.10911E+08        -0.16705E+07         0.00000E+00
   -0.16705E+07        -0.34028E+08         0.00000E+00
    0.00000E+00         0.00000E+00         0.00000E+00
 
   -0.93422E+07        -0.83281E+06         0.00000E+00
   -0.83281E+06        -0.34143E+08         0.00000E+00
    0.00000E+00         0.00000E+00         0.00000E+00
 
   -0.78088E+07         0.14639E+06         0.00000E+00
    0.14639E+06        -0.34330E+08         0.00000E+00
    0.00000E+00         0.00000E+00         0.00000E+00
 
   -0.62866E+07         0.12889E+07         0.00000E+00
    0.12889E+07        -0.34613E+08         0.00000E+00
    0.00000E+00         0.00000E+00         0.00000E+00
 
   -0.47644E+07         0.26337E+07         0.00000E+00
    0.26337E+07        -0.35003E+08         0.00000E+00
    0.00000E+00         0.00000E+00         0.00000E+00
 
   -0.32537E+07         0.42368E+07         0.00000E+00
    0.42368E+07        -0.35499E+08         0.00000E+00
    0.00000E+00         0.00000E+00         0.00000E+00
 
   -0.18188E+07         0.61730E+07         0.00000E+00
    0.61730E+07        -0.36077E+08         0.00000E+00
    0.00000E+00         0.00000E+00         0.00000E+00
 
   -0.71523E+06         0.84274E+07         0.00000E+00
    0.84274E+07        -0.36699E+08         0.00000E+00
    0.00000E+00         0.00000E+00        -0.15076E+06
 
   -0.28846E+08        -0.10458E+07         0.00000E+00
   -0.10458E+07        -0.35974E+08         0.00000E+00
    0.00000E+00         0.00000E+00         0.00000E+00
 
   -0.26177E+08        -0.24891E+07         0.00000E+00
   -0.24891E+07        -0.36093E+08         0.00000E+00
    0.00000E+00         0.00000E+00         0.00000E+00
 
   -0.23476E+08        -0.32034E+07         0.00000E+00
   -0.32034E+07        -0.36195E+08         0.00000E+00
    0.00000E+00         0.00000E+00         0.00000E+00
 
   -0.20946E+08        -0.33894E+07         0.00000E+00
   -0.33894E+07        -0.36204E+08         0.00000E+00
    0.00000E+00         0.00000E+00         0.00000E+00
 
   -0.18655E+08        -0.32272E+07         0.00000E+00
   -0.32272E+07        -0.36125E+08         0.00000E+00
    0.00000E+00         0.00000E+00         0.00000E+00
 
   -0.16591E+08        -0.28417E+07         0.00000E+00
   -0.28417E+07        -0.35999E+08         0.00000E+00
    0.00000E+00         0.00000E+00         0.00000E+00
 
   -0.14705E+08        -0.23052E+07         0.00000E+00
   -0.23052E+07        -0.35873E+08         0.00000E+00
    0.00000E+00         0.00000E+00         0.00000E+00
 
   -0.12942E+08        -0.16530E+07         0.00000E+00
   -0.16530E+07        -0.35790E+08         0.00000E+00
    0.00000E+00         0.00000E+00         0.00000E+00
 
   -0.11249E+08        -0.89525E+06         0.00000E+00
   -0.89525E+06        -0.35784E+08         0.00000E+00
    0.00000E+00         0.00000E+00         0.00000E+00
 
   -0.95753E+07        -0.22793E+05         0.00000E+00
   -0.22793E+05        -0.35887E+08         0.00000E+00
    0.00000E+00         0.00000E+00         0.00000E+00
 
   -0.78796E+07         0.99152E+06         0.00000E+00
    0.99152E+06        -0.36125E+08         0.00000E+00
    0.00000E+00         0.00000E+00         0.00000E+00
 
   -0.61303E+07         0.21957E+07         0.00000E+00
    0.21957E+07        -0.36517E+08         0.00000E+00
    0.00000E+00         0.00000E+00         0.00000E+00
 
   -0.43180E+07         0.36632E+07         0.00000E+00
    0.36632E+07        -0.37072E+08         0.00000E+00
    0.00000E+00         0.00000E+00         0.00000E+00
 
   -0.24605E+07         0.55025E+07         0.00000E+00
    0.55025E+07        -0.37774E+08         0.00000E+00
    0.00000E+00         0.00000E+00         0.00000E+00
 
   -0.12308E+07         0.76819E+07         0.00000E+00
    0.76819E+07        -0.38556E+08         0.00000E+00
    0.00000E+00         0.00000E+00        -0.48213E+06
 
   -0.33657E+08        -0.11267E+07         0.00000E+00
   -0.11267E+07        -0.38858E+08         0.00000E+00
    0.00000E+00         0.00000E+00         0.00000E+00
 
   -0.30081E+08        -0.25555E+07         0.00000E+00
   -0.25555E+07        -0.38908E+08         0.00000E+00
    0.00000E+00         0.00000E+00         0.00000E+00
 
   -0.26723E+08        -0.31352E+07         0.00000E+00
   -0.31352E+07        -0.38838E+08         0.00000E+00
    0.00000E+00         0.00000E+00         0.00000E+00
 
   -0.23778E+08        -0.31896E+07         0.00000E+00
   -0.31896E+07        -0.38603E+08         0.00000E+00
    0.00000E+00         0.00000E+00         0.00000E+00
 
   -0.21238E+08        -0.29552E+07         0.00000E+00
   -0.29552E+07        -0.38264E+08         0.00000E+00
    0.00000E+00         0.00000E+00         0.00000E+00
 
   -0.19018E+08        -0.25603E+07         0.00000E+00
   -0.25603E+07        -0.37899E+08         0.00000E+00
    0.00000E+00         0.00000E+00         0.00000E+00
 
   -0.17021E+08        -0.20653E+07         0.00000E+00
   -0.20653E+07        -0.37570E+08         0.00000E+00
    0.00000E+00         0.00000E+00         0.00000E+00
 
   -0.15164E+08        -0.14947E+07         0.00000E+00
   -0.14947E+07        -0.37319E+08         0.00000E+00
    0.00000E+00         0.00000E+00         0.00000E+00
 
   -0.13374E+08        -0.85151E+06         0.00000E+00
   -0.85151E+06        -0.37184E+08         0.00000E+00
    0.00000E+00         0.00000E+00         0.00000E+00
 
   -0.11585E+08        -0.12284E+06         0.00000E+00
   -0.12284E+06        -0.37193E+08         0.00000E+00
    0.00000E+00         0.00000E+00         0.00000E+00
 
   -0.97354E+07         0.72080E+06         0.00000E+00
    0.72080E+06        -0.37376E+08         0.00000E+00
    0.00000E+00         0.00000E+00         0.00000E+00
 
   -0.77694E+07         0.17312E+07         0.00000E+00
    0.17312E+07        -0.37763E+08         0.00000E+00
    0.00000E+00         0.00000E+00         0.00000E+00
 
   -0.56399E+07         0.29965E+07         0.00000E+00
    0.29965E+07        -0.38378E+08         0.00000E+00
    0.00000E+00         0.00000E+00         0.00000E+00
 
   -0.33294E+07         0.46509E+07         0.00000E+00
    0.46509E+07        -0.39231E+08         0.00000E+00
    0.00000E+00         0.00000E+00         0.00000E+00
 
   -0.17966E+07         0.67755E+07         0.00000E+00
    0.67755E+07        -0.40218E+08         0.00000E+00
    0.00000E+00         0.00000E+00        -0.76307E+06
 
   -0.38633E+08        -0.11814E+07         0.00000E+00
   -0.11814E+07        -0.41843E+08         0.00000E+00
    0.00000E+00         0.00000E+00         0.00000E+00
 
   -0.33933E+08        -0.24513E+07         0.00000E+00
   -0.24513E+07        -0.41751E+08         0.00000E+00
    0.00000E+00         0.00000E+00         0.00000E+00
 
   -0.29901E+08        -0.27806E+07         0.00000E+00
   -0.27806E+07        -0.41371E+08         0.00000E+00
    0.00000E+00         0.00000E+00         0.00000E+00
 
   -0.26619E+08        -0.26853E+07         0.00000E+00
   -0.26853E+07        -0.40778E+08         0.00000E+00
    0.00000E+00         0.00000E+00         0.00000E+00
 
   -0.23907E+08        -0.24120E+07         0.00000E+00
   -0.24120E+07        -0.40123E+08         0.00000E+00
    0.00000E+00         0.00000E+00         0.00000E+00
 
   -0.21586E+08        -0.20529E+07         0.00000E+00
   -0.20529E+07        -0.39499E+08         0.00000E+00
    0.00000E+00         0.00000E+00         0.00000E+00
 
   -0.19519E+08        -0.16433E+07         0.00000E+00
   -0.16433E+07        -0.38962E+08         0.00000E+00
    0.00000E+00         0.00000E+00         0.00000E+00
 
   -0.17600E+08        -0.11938E+07         0.00000E+00
   -0.11938E+07        -0.38549E+08         0.00000E+00
    0.00000E+00         0.00000E+00         0.00000E+00
 
   -0.15740E+08        -0.70111E+06         0.00000E+00
   -0.70111E+06        -0.38289E+08         0.00000E+00
    0.00000E+00         0.00000E+00         0.00000E+00
 
   -0.13862E+08        -0.15123E+06         0.00000E+00
   -0.15123E+06        -0.38208E+08         0.00000E+00
    0.00000E+00         0.00000E+00         0.00000E+00
 
   -0.11887E+08         0.48245E+06         0.00000E+00
    0.48245E+06        -0.38336E+08         0.00000E+00
    0.00000E+00         0.00000E+00         0.00000E+00
 
   -0.97320E+07         0.12464E+07         0.00000E+00
    0.12464E+07        -0.38709E+08         0.00000E+00
    0.00000E+00         0.00000E+00         0.00000E+00
 
   -0.72996E+07         0.22234E+07         0.00000E+00
    0.22234E+07        -0.39379E+08         0.00000E+00
    0.00000E+00         0.00000E+00         0.00000E+00
 
   -0.45088E+07         0.35742E+07         0.00000E+00
    0.35742E+07        -0.40405E+08         0.00000E+00
    0.00000E+00         0.00000E+00         0.00000E+00
 
   -0.23333E+07         0.56035E+07         0.00000E+00
    0.56035E+07        -0.41684E+08         0.00000E+00
    0.00000E+00         0.00000E+00        -0.87266E+06
 
   -0.43604E+08        -0.11615E+07         0.00000E+00
   -0.11615E+07        -0.44888E+08         0.00000E+00
    0.00000E+00         0.00000E+00         0.00000E+00
 
   -0.37542E+08        -0.19710E+07         0.00000E+00
   -0.19710E+07        -0.44416E+08         0.00000E+00
    0.00000E+00         0.00000E+00         0.00000E+00
 
   -0.32980E+08        -0.19896E+07         0.00000E+00
   -0.19896E+07        -0.43508E+08         0.00000E+00
    0.00000E+00         0.00000E+00         0.00000E+00
 
   -0.29506E+08        -0.18214E+07         0.00000E+00
   -0.18214E+07        -0.42491E+08         0.00000E+00
    0.00000E+00         0.00000E+00         0.00000E+00
 
   -0.26705E+08        -0.15906E+07         0.00000E+00
   -0.15906E+07        -0.41523E+08         0.00000E+00
    0.00000E+00         0.00000E+00         0.00000E+00
 
   -0.24333E+08        -0.13331E+07         0.00000E+00
   -0.13331E+07        -0.40667E+08         0.00000E+00
    0.00000E+00         0.00000E+00         0.00000E+00
 
   -0.22227E+08        -0.10594E+07         0.00000E+00
   -0.10594E+07        -0.39957E+08         0.00000E+00
    0.00000E+00         0.00000E+00         0.00000E+00
 
   -0.20270E+08        -0.77003E+06         0.00000E+00
   -0.77003E+06        -0.39414E+08         0.00000E+00
    0.00000E+00         0.00000E+00         0.00000E+00
 
   -0.18366E+08        -0.45964E+06         0.00000E+00
   -0.45964E+06        -0.39055E+08         0.00000E+00
    0.00000E+00         0.00000E+00         0.00000E+00
 
   -0.16426E+08        -0.11731E+06         0.00000E+00
   -0.11731E+06        -0.38902E+08         0.00000E+00
    0.00000E+00         0.00000E+00         0.00000E+00
 
   -0.14361E+08         0.27546E+06         0.00000E+00
    0.27546E+06        -0.38982E+08         0.00000E+00
    0.00000E+00         0.00000E+00         0.00000E+00
 
   -0.12063E+08         0.75042E+06         0.00000E+00
    0.75042E+06        -0.39340E+08         0.00000E+00
    0.00000E+00         0.00000E+00         0.00000E+00
 
   -0.93960E+07         0.13653E+07         0.00000E+00
    0.13653E+07        -0.40041E+08         0.00000E+00
    0.00000E+00         0.00000E+00         0.00000E+00
 
   -0.61395E+07         0.22429E+07         0.00000E+00
    0.22429E+07        -0.41206E+08         0.00000E+00
    0.00000E+00         0.00000E+00         0.00000E+00
 
   -0.28838E+07         0.39673E+07         0.00000E+00
    0.39673E+07        -0.42932E+08         0.00000E+00
    0.00000E+00         0.00000E+00        -0.77009E+06
 
   -0.48112E+08        -0.69750E+06         0.00000E+00
   -0.69750E+06        -0.47455E+08         0.00000E+00
    0.00000E+00         0.00000E+00         0.00000E+00
 
   -0.40815E+08        -0.79911E+06         0.00000E+00
   -0.79911E+06        -0.46208E+08         0.00000E+00
    0.00000E+00         0.00000E+00         0.00000E+00
 
   -0.36068E+08        -0.73185E+06         0.00000E+00
   -0.73185E+06        -0.44779E+08         0.00000E+00
    0.00000E+00         0.00000E+00         0.00000E+00
 
   -0.32523E+08        -0.64769E+06         0.00000E+00
   -0.64769E+06        -0.43452E+08         0.00000E+00
    0.00000E+00         0.00000E+00         0.00000E+00
 
   -0.29688E+08        -0.55602E+06         0.00000E+00
   -0.55602E+06        -0.42282E+08         0.00000E+00
    0.00000E+00         0.00000E+00         0.00000E+00
 
   -0.27293E+08        -0.46171E+06         0.00000E+00
   -0.46171E+06        -0.41287E+08         0.00000E+00
    0.00000E+00         0.00000E+00         0.00000E+00
 
   -0.25168E+08        -0.36519E+06         0.00000E+00
   -0.36519E+06        -0.40478E+08         0.00000E+00
    0.00000E+00         0.00000E+00         0.00000E+00
 
   -0.23189E+08        -0.26519E+06         0.00000E+00
   -0.26519E+06        -0.39861E+08         0.00000E+00
    0.00000E+00         0.00000E+00         0.00000E+00
 
   -0.21258E+08        -0.15917E+06         0.00000E+00
   -0.15917E+06        -0.39447E+08         0.00000E+00
    0.00000E+00         0.00000E+00         0.00000E+00
 
   -0.19283E+08        -0.42989E+05         0.00000E+00
   -0.42989E+05        -0.39253E+08         0.00000E+00
    0.00000E+00         0.00000E+00         0.00000E+00
 
   -0.17167E+08         0.89952E+05         0.00000E+00
    0.89952E+05        -0.39307E+08         0.00000E+00
    0.00000E+00         0.00000E+00         0.00000E+00
 
   -0.14791E+08         0.25073E+06         0.00000E+00
    0.25073E+06        -0.39652E+08         0.00000E+00
    0.00000E+00         0.00000E+00         0.00000E+00
 
   -0.11989E+08         0.46075E+06         0.00000E+00
    0.46075E+06        -0.40365E+08         0.00000E+00
    0.00000E+00         0.00000E+00         0.00000E+00
 
   -0.84979E+07         0.75470E+06         0.00000E+00
    0.75470E+06        -0.41581E+08         0.00000E+00
    0.00000E+00         0.00000E+00         0.00000E+00
 
   -0.37536E+07         0.15054E+07         0.00000E+00
    0.15054E+07        -0.43811E+08         0.00000E+00
    0.00000E+00         0.00000E+00        -0.51636E+06
 
TENSORS stresstot double 
   -0.42061E+08         0.13794E+06         0.00000E+00
    0.13794E+06        -0.59231E+08         0.00000E+00
    0.00000E+00         0.00000E+00        -0.59095E+08
 
   -0.42237E+08        -0.53775E+05         0.00000E+00
   -0.53775E+05        -0.59326E+08         0.00000E+00
    0.00000E+00         0.00000E+00        -0.60182E+08
 
   -0.42680E+08        -0.11806E+06         0.00000E+00
   -0.11806E+06        -0.59640E+08         0.00000E+00
    0.00000E+00         0.00000E+00        -0.61860E+08
 
   -0.43325E+08        -0.32475E+05         0.00000E+00
   -0.32475E+05        -0.59950E+08         0.00000E+00
    0.00000E+00         0.00000E+00        -0.64011E+08
 
   -0.44081E+08        -0.10950E+06         0.00000E+00
   -0.10950E+06        -0.60222E+08         0.00000E+00
    0.00000E+00         0.00000E+00        -0.66273E+08
 
   -0.45805E+08        -0.44486E+06         0.00000E+00
   -0.44486E+06        -0.60748E+08         0.00000E+00
    0.00000E+00         0.00000E+00        -0.67563E+08
 
   -0.48777E+08        -0.38907E+06         0.00000E+00
   -0.38907E+06        -0.61468E+08         0.00000E+00
    0.00000E+00         0.00000E+00        -0.67586E+08
 
   -0.50862E+08        -0.24420E+06         0.00000E+00
   -0.24420E+06        -0.62040E+08         0.00000E+00
    0.00000E+00         0.00000E+00        -0.67609E+08
 
   -0.52691E+08        -0.13073E+06         0.00000E+00
   -0.13073E+06        -0.62387E+08         0.00000E+00
    0.00000E+00         0.00000E+00        -0.67629E+08
 
   -0.54432E+08        -0.29777E+05         0.00000E+00
   -0.29777E+05        -0.62532E+08         0.00000E+00
    0.00000E+00         0.00000E+00        -0.67649E+08
 
   -0.56180E+08         0.68927E+05         0.00000E+00
    0.68927E+05        -0.62483E+08         0.00000E+00
    0.00000E+00         0.00000E+00        -0.67666E+08
 
   -0.58017E+08         0.17546E+06         0.00000E+00
    0.17546E+06        -0.62233E+08         0.00000E+00
    0.00000E+00         0.00000E+00        -0.67682E+08
 
   -0.60048E+08         0.30483E+06         0.00000E+00
    0.30483E+06        -0.61748E+08         0.00000E+00
    0.00000E+00         0.00000E+00        -0.67696E+08
 
   -0.62453E+08         0.48757E+06         0.00000E+00
    0.48757E+06        -0.60953E+08         0.00000E+00
    0.00000E+00         0.00000E+00        -0.67706E+08
 
   -0.65746E+08         0.91127E+06         0.00000E+00
    0.91127E+06        -0.59596E+08         0.00000E+00
    0.00000E+00         0.00000E+00        -0.67713E+08
 
   -0.42055E+08         0.16048E+06         0.00000E+00
    0.16048E+06        -0.60795E+08         0.00000E+00
    0.00000E+00         0.00000E+00        -0.63195E+08
 
   -0.42291E+08         0.91531E+05         0.00000E+00
    0.91531E+05        -0.60659E+08         0.00000E+00
    0.00000E+00         0.00000E+00        -0.64447E+08
 
   -0.42551E+08        -0.42364E+05         0.00000E+00
   -0.42364E+05        -0.60265E+08         0.00000E+00
    0.00000E+00         0.00000E+00        -0.65391E+08
 
   -0.43329E+08        -0.16463E+06         0.00000E+00
   -0.16463E+06        -0.60040E+08         0.00000E+00
    0.00000E+00         0.00000E+00        -0.65748E+08
 
   -0.44457E+08        -0.43909E+06         0.00000E+00
   -0.43909E+06        -0.60146E+08         0.00000E+00
    0.00000E+00         0.00000E+00        -0.65756E+08
 
   -0.46247E+08        -0.91816E+06         0.00000E+00
   -0.91816E+06        -0.60368E+08         0.00000E+00
    0.00000E+00         0.00000E+00        -0.65766E+08
 
   -0.48566E+08        -0.88247E+06         0.00000E+00
   -0.88247E+06        -0.60598E+08         0.00000E+00
    0.00000E+00         0.00000E+00        -0.65778E+08
 
   -0.50656E+08        -0.60535E+06         0.00000E+00
   -0.60535E+06        -0.60846E+08         0.00000E+00
    0.00000E+00         0.00000E+00        -0.65792E+08
 
   -0.52499E+08        -0.32177E+06         0.00000E+00
   -0.32177E+06        -0.61021E+08         0.00000E+00
    0.00000E+00         0.00000E+00        -0.65805E+08
 
   -0.54245E+08        -0.46626E+05         0.00000E+00
   -0.46626E+05        -0.61065E+08         0.00000E+00
    0.00000E+00         0.00000E+00        -0.65817E+08
 
   -0.55983E+08         0.23471E+06         0.00000E+00
    0.23471E+06        -0.60953E+08         0.00000E+00
    0.00000E+00         0.00000E+00        -0.65829E+08
 
   -0.57790E+08         0.54523E+06         0.00000E+00
    0.54523E+06        -0.60661E+08         0.00000E+00
    0.00000E+00         0.00000E+00        -0.65839E+08
 
   -0.59753E+08         0.92407E+06         0.00000E+00
    0.92407E+06        -0.60154E+08         0.00000E+00
    0.00000E+00         0.00000E+00        -0.65847E+08
 
   -0.61994E+08         0.14620E+07         0.00000E+00
    0.14620E+07        -0.59368E+08         0.00000E+00
    0.00000E+00         0.00000E+00        -0.65853E+08
 
   -0.64530E+08         0.24515E+07         0.00000E+00
    0.24515E+07        -0.58239E+08         0.00000E+00
    0.00000E+00         0.00000E+00        -0.65856E+08
 
   -0.41737E+08        -0.29879E+05         0.00000E+00
   -0.29879E+05        -0.60058E+08         0.00000E+00
    0.00000E+00         0.00000E+00        -0.64046E+08
 
   -0.42404E+08         0.13765E+06         0.00000E+00
    0.13765E+06        -0.60064E+08         0.00000E+00
    0.00000E+00         0.00000E+00        -0.64058E+08
 
   -0.42838E+08         0.31792E+05         0.00000E+00
    0.31792E+05        -0.60109E+08         0.00000E+00
    0.00000E+00         0.00000E+00        -0.64057E+08
 
   -0.43612E+08        -0.28870E+06         0.00000E+00
   -0.28870E+06        -0.60197E+08         0.00000E+00
    0.00000E+00         0.00000E+00        -0.64060E+08
 
   -0.44831E+08        -0.61567E+06         0.00000E+00
   -0.61567E+06        -0.60299E+08         0.00000E+00
    0.00000E+00         0.00000E+00        -0.64063E+08
 
   -0.46466E+08        -0.90710E+06         0.00000E+00
   -0.90710E+06        -0.60293E+08         0.00000E+00
    0.00000E+00         0.00000E+00        -0.64069E+08
 
   -0.48407E+08        -0.93666E+06         0.00000E+00
   -0.93666E+06        -0.60207E+08         0.00000E+00
    0.00000E+00         0.00000E+00        -0.64075E+08
 
   -0.50355E+08        -0.70138E+06         0.00000E+00
   -0.70138E+06        -0.60157E+08         0.00000E+00
    0.00000E+00         0.00000E+00        -0.64082E+08
 
   -0.52174E+08        -0.35326E+06         0.00000E+00
   -0.35326E+06        -0.60119E+08         0.00000E+00
    0.00000E+00         0.00000E+00        -0.64089E+08
 
   -0.53903E+08         0.37100E+05         0.00000E+00
    0.37100E+05        -0.60021E+08         0.00000E+00
    0.00000E+00         0.00000E+00        -0.64096E+08
 
   -0.55610E+08         0.46517E+06         0.00000E+00
    0.46517E+06        -0.59817E+08         0.00000E+00
    0.00000E+00         0.00000E+00        -0.64103E+08
 
   -0.57354E+08         0.95319E+06         0.00000E+00
    0.95319E+06        -0.59470E+08         0.00000E+00
    0.00000E+00         0.00000E+00        -0.64108E+08
 
   -0.59192E+08         0.15506E+07         0.00000E+00
    0.15506E+07        -0.58947E+08         0.00000E+00
    0.00000E+00         0.00000E+00        -0.64113E+08
 
   -0.61146E+08         0.23615E+07         0.00000E+00
    0.23615E+07        -0.58221E+08         0.00000E+00
    0.00000E+00         0.00000E+00        -0.64115E+08
 
   -0.63134E+08         0.35443E+07         0.00000E+00
    0.35443E+07        -0.57335E+08         0.00000E+00
    0.00000E+00         0.00000E+00        -0.64117E+08
 
   -0.41707E+08        -0.33647E+04         0.00000E+00
   -0.33647E+04        -0.59977E+08         0.00000E+00
    0.00000E+00         0.00000E+00        -0.62463E+08
 
   -0.42379E+08         0.19038E+05         0.00000E+00
    0.19038E+05        -0.60026E+08         0.00000E+00
    0.00000E+00         0.00000E+00        -0.62463E+08
 
   -0.43052E+08        -0.84341E+05         0.00000E+00
   -0.84341E+05        -0.60141E+08         0.00000E+00
    0.00000E+00         0.00000E+00        -0.62463E+08
 
   -0.43921E+08        -0.33977E+06         0.00000E+00
   -0.33977E+06        -0.60208E+08         0.00000E+00
    0.00000E+00         0.00000E+00        -0.62464E+08
 
   -0.45112E+08        -0.61182E+06         0.00000E+00
   -0.61182E+06        -0.60190E+08         0.00000E+00
    0.00000E+00         0.00000E+00        -0.62465E+08
 
   -0.46603E+08        -0.78827E+06         0.00000E+00
   -0.78827E+06        -0.60088E+08         0.00000E+00
    0.00000E+00         0.00000E+00        -0.62467E+08
 
   -0.48297E+08        -0.78645E+06         0.00000E+00
   -0.78645E+06        -0.59919E+08         0.00000E+00
    0.00000E+00         0.00000E+00        -0.62470E+08
 
   -0.50056E+08        -0.58121E+06         0.00000E+00
   -0.58121E+06        -0.59729E+08         0.00000E+00
    0.00000E+00         0.00000E+00        -0.62473E+08
 
   -0.51781E+08        -0.22281E+06         0.00000E+00
   -0.22281E+06        -0.59540E+08         0.00000E+00
    0.00000E+00         0.00000E+00        -0.62476E+08
 
   -0.53451E+08         0.23300E+06         0.00000E+00
    0.23300E+06        -0.59321E+08         0.00000E+00
    0.00000E+00         0.00000E+00        -0.62479E+08
 
   -0.55094E+08         0.76758E+06         0.00000E+00
    0.76758E+06        -0.59033E+08         0.00000E+00
    0.00000E+00         0.00000E+00        -0.62482E+08
 
   -0.56744E+08         0.13948E+07         0.00000E+00
    0.13948E+07        -0.58641E+08         0.00000E+00
    0.00000E+00         0.00000E+00        -0.62485E+08
 
   -0.58421E+08         0.21568E+07         0.00000E+00
    0.21568E+07        -0.58121E+08         0.00000E+00
    0.00000E+00         0.00000E+00        -0.62486E+08
 
   -0.60108E+08         0.31231E+07         0.00000E+00
    0.31231E+07        -0.57478E+08         0.00000E+00
    0.00000E+00         0.00000E+00        -0.62487E+08
 
   -0.61718E+08         0.43718E+07         0.00000E+00
    0.43718E+07        -0.56760E+08         0.00000E+00
    0.00000E+00         0.00000E+00        -0.62488E+08
 
   -0.41712E+08        -0.49331E+04         0.00000E+00
   -0.49331E+04        -0.60004E+08         0.00000E+00
    0.00000E+00         0.00000E+00        -0.60956E+08
 
   -0.42431E+08        -0.54278E+05         0.00000E+00
   -0.54278E+05        -0.60034E+08         0.00000E+00
    0.00000E+00         0.00000E+00        -0.60956E+08
 
   -0.43221E+08        -0.16696E+06         0.00000E+00
   -0.16696E+06        -0.60083E+08         0.00000E+00
    0.00000E+00         0.00000E+00        -0.60956E+08
 
   -0.44156E+08        -0.34482E+06         0.00000E+00
   -0.34482E+06        -0.60100E+08         0.00000E+00
    0.00000E+00         0.00000E+00        -0.60956E+08
 
   -0.45304E+08        -0.52458E+06         0.00000E+00
   -0.52458E+06        -0.60040E+08         0.00000E+00
    0.00000E+00         0.00000E+00        -0.60955E+08
 
   -0.46664E+08        -0.62010E+06         0.00000E+00
   -0.62010E+06        -0.59897E+08         0.00000E+00
    0.00000E+00         0.00000E+00        -0.60956E+08
 
   -0.48177E+08        -0.57001E+06         0.00000E+00
   -0.57001E+06        -0.59690E+08         0.00000E+00
    0.00000E+00         0.00000E+00        -0.60956E+08
 
   -0.49763E+08        -0.35267E+06         0.00000E+00
   -0.35267E+06        -0.59447E+08         0.00000E+00
    0.00000E+00         0.00000E+00        -0.60956E+08
 
   -0.51357E+08         0.18207E+05         0.00000E+00
    0.18207E+05        -0.59182E+08         0.00000E+00
    0.00000E+00         0.00000E+00        -0.60957E+08
 
   -0.52927E+08         0.51585E+06         0.00000E+00
    0.51585E+06        -0.58889E+08         0.00000E+00
    0.00000E+00         0.00000E+00        -0.60957E+08
 
   -0.54473E+08         0.11250E+07         0.00000E+00
    0.11250E+07        -0.58546E+08         0.00000E+00
    0.00000E+00         0.00000E+00        -0.60958E+08
 
   -0.56003E+08         0.18514E+07         0.00000E+00
    0.18514E+07        -0.58131E+08         0.00000E+00
    0.00000E+00         0.00000E+00        -0.60958E+08
 
   -0.57516E+08         0.27207E+07         0.00000E+00
    0.27207E+07        -0.57632E+08         0.00000E+00
    0.00000E+00         0.00000E+00        -0.60958E+08
 
   -0.58981E+08         0.37701E+07         0.00000E+00
    0.37701E+07        -0.57062E+08         0.00000E+00
    0.00000E+00         0.00000E+00        -0.60958E+08
 
   -0.60327E+08         0.50323E+07         0.00000E+00
    0.50323E+07        -0.56462E+08         0.00000E+00
    0.00000E+00         0.00000E+00        -0.60958E+08
 
   -0.41747E+08        -0.19463E+05         0.00000E+00
   -0.19463E+05        -0.60003E+08         0.00000E+00
    0.00000E+00         0.00000E+00        -0.59526E+08
 
   -0.42513E+08        -0.84805E+05         0.00000E+00
   -0.84805E+05        -0.60016E+08         0.00000E+00
    0.00000E+00         0.00000E+00        -0.59526E+08
 
   -0.43353E+08        -0.18707E+06         0.00000E+00
   -0.18707E+06        -0.60023E+08         0.00000E+00
    0.00000E+00         0.00000E+00        -0.59525E+08
 
   -0.44310E+08        -0.30936E+06         0.00000E+00
   -0.30936E+06        -0.59996E+08         0.00000E+00
    0.00000E+00         0.00000E+00        -0.59525E+08
 
   -0.45412E+08        -0.40967E+06         0.00000E+00
   -0.40967E+06        -0.59910E+08         0.00000E+00
    0.00000E+00         0.00000E+00        -0.59523E+08
 
   -0.46661E+08        -0.43232E+06         0.00000E+00
   -0.43232E+06        -0.59755E+08         0.00000E+00
    0.00000E+00         0.00000E+00        -0.59522E+08
 
   -0.48024E+08        -0.33113E+06         0.00000E+00
   -0.33113E+06        -0.59540E+08         0.00000E+00
    0.00000E+00         0.00000E+00        -0.59521E+08
 
   -0.49453E+08        -0.83117E+05         0.00000E+00
   -0.83117E+05        -0.59282E+08         0.00000E+00
    0.00000E+00         0.00000E+00        -0.59520E+08
 
   -0.50905E+08         0.31270E+06         0.00000E+00
    0.31270E+06        -0.58992E+08         0.00000E+00
    0.00000E+00         0.00000E+00        -0.59518E+08
 
   -0.52350E+08         0.84629E+06         0.00000E+00
    0.84629E+06        -0.58669E+08         0.00000E+00
    0.00000E+00         0.00000E+00        -0.59517E+08
 
   -0.53776E+08         0.15094E+07         0.00000E+00
    0.15094E+07        -0.58305E+08         0.00000E+00
    0.00000E+00         0.00000E+00        -0.59516E+08
 
   -0.55175E+08         0.23031E+07         0.00000E+00
    0.23031E+07        -0.57890E+08         0.00000E+00
    0.00000E+00         0.00000E+00        -0.59515E+08
 
   -0.56533E+08         0.32383E+07         0.00000E+00
    0.32383E+07        -0.57421E+08         0.00000E+00
    0.00000E+00         0.00000E+00        -0.59514E+08
 
   -0.57818E+08         0.43296E+07         0.00000E+00
    0.43296E+07        -0.56912E+08         0.00000E+00
    0.00000E+00         0.00000E+00        -0.59513E+08
 
   -0.58975E+08         0.55831E+07         0.00000E+00
    0.55831E+07        -0.56395E+08         0.00000E+00
    0.00000E+00         0.00000E+00        -0.59513E+08
 
   -0.41798E+08        -0.24612E+05         0.00000E+00
   -0.24612E+05        -0.59998E+08         0.00000E+00
    0.00000E+00         0.00000E+00        -0.58161E+08
 
   -0.42592E+08        -0.88603E+05         0.00000E+00
   -0.88603E+05        -0.59995E+08         0.00000E+00
    0.00000E+00         0.00000E+00        -0.58160E+08
 
   -0.43453E+08        -0.16910E+06         0.00000E+00
   -0.16910E+06        -0.59977E+08         0.00000E+00
    0.00000E+00         0.00000E+00        -0.58159E+08
 
   -0.44400E+08        -0.24599E+06         0.00000E+00
   -0.24599E+06        -0.59928E+08         0.00000E+00
    0.00000E+00         0.00000E+00        -0.58158E+08
 
   -0.45448E+08        -0.28507E+06         0.00000E+00
   -0.28507E+06        -0.59830E+08         0.00000E+00
    0.00000E+00         0.00000E+00        -0.58156E+08
 
   -0.46597E+08        -0.24628E+06         0.00000E+00
   -0.24628E+06        -0.59678E+08         0.00000E+00
    0.00000E+00         0.00000E+00        -0.58154E+08
 
   -0.47829E+08        -0.94717E+05         0.00000E+00
   -0.94717E+05        -0.59474E+08         0.00000E+00
    0.00000E+00         0.00000E+00        -0.58152E+08
 
   -0.49114E+08         0.19135E+06         0.00000E+00
    0.19135E+06        -0.59226E+08         0.00000E+00
    0.00000E+00         0.00000E+00        -0.58149E+08
 
   -0.50423E+08         0.61955E+06         0.00000E+00
    0.61955E+06        -0.58941E+08         0.00000E+00
    0.00000E+00         0.00000E+00        -0.58147E+08
 
   -0.51732E+08         0.11883E+07         0.00000E+00
    0.11883E+07        -0.58621E+08         0.00000E+00
    0.00000E+00         0.00000E+00        -0.58144E+08
 
   -0.53026E+08         0.18938E+07         0.00000E+00
    0.18938E+07        -0.58264E+08         0.00000E+00
    0.00000E+00         0.00000E+00        -0.58142E+08
 
   -0.54289E+08         0.27341E+07         0.00000E+00
    0.27341E+07        -0.57868E+08         0.00000E+00
    0.00000E+00         0.00000E+00        -0.58140E+08
 
   -0.55505E+08         0.37103E+07         0.00000E+00
    0.37103E+07        -0.57435E+08         0.00000E+00
    0.00000E+00         0.00000E+00        -0.58139E+08
 
   -0.56643E+08         0.48220E+07         0.00000E+00
    0.48220E+07        -0.56978E+08         0.00000E+00
    0.00000E+00         0.00000E+00        -0.58137E+08
 
   -0.57663E+08         0.60604E+07         0.00000E+00
    0.60604E+07        -0.56521E+08         0.00000E+00
    0.00000E+00         0.00000E+00        -0.58137E+08
 
   -0.41848E+08        -0.20907E+05         0.00000E+00
   -0.20907E+05        -0.59996E+08         0.00000E+00
    0.00000E+00         0.00000E+00        -0.56843E+08
 
   -0.42658E+08        -0.74786E+05         0.00000E+00
   -0.74786E+05        -0.59983E+08         0.00000E+00
    0.00000E+00         0.00000E+00        -0.56843E+08
 
   -0.43520E+08        -0.13317E+06         0.00000E+00
   -0.13317E+06        -0.59955E+08         0.00000E+00
    0.00000E+00         0.00000E+00        -0.56842E+08
 
   -0.44441E+08        -0.17317E+06         0.00000E+00
   -0.17317E+06        -0.59900E+08         0.00000E+00
    0.00000E+00         0.00000E+00        -0.56840E+08
 
   -0.45428E+08        -0.16466E+06         0.00000E+00
   -0.16466E+06        -0.59807E+08         0.00000E+00
    0.00000E+00         0.00000E+00        -0.56838E+08
 
   -0.46481E+08        -0.75552E+05         0.00000E+00
   -0.75552E+05        -0.59671E+08         0.00000E+00
    0.00000E+00         0.00000E+00        -0.56835E+08
 
   -0.47590E+08         0.12216E+06         0.00000E+00
    0.12216E+06        -0.59491E+08         0.00000E+00
    0.00000E+00         0.00000E+00        -0.56832E+08
 
   -0.48738E+08         0.44796E+06         0.00000E+00
    0.44796E+06        -0.59269E+08         0.00000E+00
    0.00000E+00         0.00000E+00        -0.56829E+08
 
   -0.49906E+08         0.91165E+06         0.00000E+00
    0.91165E+06        -0.59009E+08         0.00000E+00
    0.00000E+00         0.00000E+00        -0.56825E+08
 
   -0.51077E+08         0.15154E+07         0.00000E+00
    0.15154E+07        -0.58714E+08         0.00000E+00
    0.00000E+00         0.00000E+00        -0.56822E+08
 
   -0.52235E+08         0.22572E+07         0.00000E+00
    0.22572E+07        -0.58385E+08         0.00000E+00
    0.00000E+00         0.00000E+00        -0.56819E+08
 
   -0.53365E+08         0.31330E+07         0.00000E+00
    0.31330E+07        -0.58021E+08         0.00000E+00
    0.00000E+00         0.00000E+00        -0.56817E+08
 
   -0.54450E+08         0.41375E+07         0.00000E+00
    0.41375E+07        -0.57629E+08         0.00000E+00
    0.00000E+00         0.00000E+00        -0.56815E+08
 
   -0.55466E+08         0.52614E+07         0.00000E+00
    0.52614E+07        -0.57218E+08         0.00000E+00
    0.00000E+00         0.00000E+00        -0.56813E+08
 
   -0.56383E+08         0.64872E+07         0.00000E+00
    0.64872E+07        -0.56806E+08         0.00000E+00
    0.00000E+00         0.00000E+00        -0.56812E+08
 
   -0.41887E+08        -0.13493E+05         0.00000E+00
   -0.13493E+05        -0.59996E+08         0.00000E+00
    0.00000E+00         0.00000E+00        -0.55558E+08
 
   -0.42709E+08        -0.54937E+05         0.00000E+00
   -0.54937E+05        -0.59983E+08         0.00000E+00
    0.00000E+00         0.00000E+00        -0.55557E+08
 
   -0.43561E+08        -0.94998E+05         0.00000E+00
   -0.94998E+05        -0.59956E+08         0.00000E+00
    0.00000E+00         0.00000E+00        -0.55556E+08
 
   -0.44444E+08        -0.10675E+06         0.00000E+00
   -0.10675E+06        -0.59910E+08         0.00000E+00
    0.00000E+00         0.00000E+00        -0.55553E+08
 
   -0.45364E+08        -0.61551E+05         0.00000E+00
   -0.61551E+05        -0.59836E+08         0.00000E+00
    0.00000E+00         0.00000E+00        -0.55551E+08
 
   -0.46320E+08         0.68413E+05         0.00000E+00
    0.68413E+05        -0.59728E+08         0.00000E+00
    0.00000E+00         0.00000E+00        -0.55548E+08
 
   -0.47310E+08         0.30690E+06         0.00000E+00
    0.30690E+06        -0.59582E+08         0.00000E+00
    0.00000E+00         0.00000E+00        -0.55544E+08
 
   -0.48326E+08         0.67113E+06         0.00000E+00
    0.67113E+06        -0.59399E+08         0.00000E+00
    0.00000E+00         0.00000E+00        -0.55540E+08
 
   -0.49355E+08         0.11709E+07         0.00000E+00
    0.11709E+07        -0.59179E+08         0.00000E+00
    0.00000E+00         0.00000E+00        -0.55536E+08
 
   -0.50386E+08         0.18095E+07         0.00000E+00
    0.18095E+07        -0.58923E+08         0.00000E+00
    0.00000E+00         0.00000E+00        -0.55532E+08
 
   -0.51409E+08         0.25851E+07         0.00000E+00
    0.25851E+07        -0.58633E+08         0.00000E+00
    0.00000E+00         0.00000E+00        -0.55529E+08
 
   -0.52410E+08         0.34919E+07         0.00000E+00
    0.34919E+07        -0.58312E+08         0.00000E+00
    0.00000E+00         0.00000E+00        -0.55526E+08
 
   -0.53375E+08         0.45207E+07         0.00000E+00
    0.45207E+07        -0.57963E+08         0.00000E+00
    0.00000E+00         0.00000E+00        -0.55523E+08
 
   -0.54286E+08         0.56568E+07         0.00000E+00
    0.56568E+07        -0.57594E+08         0.00000E+00
    0.00000E+00         0.00000E+00        -0.55521E+08
 
   -0.55123E+08         0.68783E+07         0.00000E+00
    0.68783E+07        -0.57218E+08         0.00000E+00
    0.00000E+00         0.00000E+00        -0.55520E+08
 
   -0.41915E+08        -0.74153E+04         0.00000E+00
   -0.74153E+04        -0.59998E+08         0.00000E+00
    0.00000E+00         0.00000E+00        -0.54285E+08
 
   -0.42748E+08        -0.40036E+05         0.00000E+00
   -0.40036E+05        -0.59992E+08         0.00000E+00
    0.00000E+00         0.00000E+00        -0.54285E+08
 
   -0.43583E+08        -0.67960E+05         0.00000E+00
   -0.67960E+05        -0.59979E+08         0.00000E+00
    0.00000E+00         0.00000E+00        -0.54283E+08
 
   -0.44419E+08        -0.59942E+05         0.00000E+00
   -0.59942E+05        -0.59954E+08         0.00000E+00
    0.00000E+00         0.00000E+00        -0.54281E+08
 
   -0.45264E+08         0.12712E+05         0.00000E+00
    0.12712E+05        -0.59909E+08         0.00000E+00
    0.00000E+00         0.00000E+00        -0.54278E+08
 
   -0.46121E+08         0.17553E+06         0.00000E+00
    0.17553E+06        -0.59839E+08         0.00000E+00
    0.00000E+00         0.00000E+00        -0.54274E+08
 
   -0.46993E+08         0.44949E+06         0.00000E+00
    0.44949E+06        -0.59737E+08         0.00000E+00
    0.00000E+00         0.00000E+00        -0.54269E+08
 
   -0.47876E+08         0.84978E+06         0.00000E+00
    0.84978E+06        -0.59601E+08         0.00000E+00
    0.00000E+00         0.00000E+00        -0.54265E+08
 
   -0.48768E+08         0.13853E+07         0.00000E+00
    0.13853E+07        -0.59430E+08         0.00000E+00
    0.00000E+00         0.00000E+00        -0.54260E+08
 
   -0.49662E+08         0.20589E+07         0.00000E+00
    0.20589E+07        -0.59224E+08         0.00000E+00
    0.00000E+00         0.00000E+00        -0.54256E+08
 
   -0.50550E+08         0.28681E+07         0.00000E+00
    0.28681E+07        -0.58983E+08         0.00000E+00
    0.00000E+00         0.00000E+00        -0.54252E+08
 
   -0.51426E+08         0.38059E+07         0.00000E+00
    0.38059E+07        -0.58708E+08         0.00000E+00
    0.00000E+00         0.00000E+00        -0.54248E+08
 
   -0.52279E+08         0.48603E+07         0.00000E+00
    0.48603E+07        -0.58404E+08         0.00000E+00
    0.00000E+00         0.00000E+00        -0.54245E+08
 
   -0.53098E+08         0.60140E+07         0.00000E+00
    0.60140E+07        -0.58076E+08         0.00000E+00
    0.00000E+00         0.00000E+00        -0.54243E+08
 
   -0.53869E+08         0.72426E+07         0.00000E+00
    0.72426E+07        -0.57729E+08         0.00000E+00
    0.00000E+00         0.00000E+00        -0.54242E+08
 
   -0.41937E+08        -0.65826E+04         0.00000E+00
   -0.65826E+04        -0.60002E+08         0.00000E+00
    0.00000E+00         0.00000E+00        -0.53009E+08
 
   -0.42782E+08        -0.39018E+05         0.00000E+00
   -0.39018E+05        -0.60008E+08         0.00000E+00
    0.00000E+00         0.00000E+00        -0.53008E+08
 
   -0.43593E+08        -0.62988E+05         0.00000E+00
   -0.62988E+05        -0.60017E+08         0.00000E+00
    0.00000E+00         0.00000E+00        -0.53006E+08
 
   -0.44375E+08        -0.43598E+05         0.00000E+00
   -0.43598E+05        -0.60023E+08         0.00000E+00
    0.00000E+00         0.00000E+00        -0.53003E+08
 
   -0.45138E+08         0.48425E+05         0.00000E+00
    0.48425E+05        -0.60017E+08         0.00000E+00
    0.00000E+00         0.00000E+00        -0.52999E+08
 
   -0.45891E+08         0.23732E+06         0.00000E+00
    0.23732E+06        -0.59992E+08         0.00000E+00
    0.00000E+00         0.00000E+00        -0.52995E+08
 
   -0.46641E+08         0.54205E+06         0.00000E+00
    0.54205E+06        -0.59941E+08         0.00000E+00
    0.00000E+00         0.00000E+00        -0.52990E+08
 
   -0.47392E+08         0.97597E+06         0.00000E+00
    0.97597E+06        -0.59860E+08         0.00000E+00
    0.00000E+00         0.00000E+00        -0.52985E+08
 
   -0.48146E+08         0.15466E+07         0.00000E+00
    0.15466E+07        -0.59745E+08         0.00000E+00
    0.00000E+00         0.00000E+00        -0.52979E+08
 
   -0.48902E+08         0.22559E+07         0.00000E+00
    0.22559E+07        -0.59594E+08         0.00000E+00
    0.00000E+00         0.00000E+00        -0.52974E+08
 
   -0.49658E+08         0.31004E+07         0.00000E+00
    0.31004E+07        -0.59407E+08         0.00000E+00
    0.00000E+00         0.00000E+00        -0.52969E+08
 
   -0.50412E+08         0.40719E+07         0.00000E+00
    0.40719E+07        -0.59183E+08         0.00000E+00
    0.00000E+00         0.00000E+00        -0.52965E+08
 
   -0.51158E+08         0.51568E+07         0.00000E+00
    0.51568E+07        -0.58925E+08         0.00000E+00
    0.00000E+00         0.00000E+00        -0.52961E+08
 
   -0.51891E+08         0.63362E+07         0.00000E+00
    0.63362E+07        -0.58635E+08         0.00000E+00
    0.00000E+00         0.00000E+00        -0.52959E+08
 
   -0.52606E+08         0.75853E+07         0.00000E+00
    0.75853E+07        -0.58316E+08         0.00000E+00
    0.00000E+00         0.00000E+00        -0.52958E+08
 
   -0.41965E+08        -0.13747E+05         0.00000E+00
   -0.13747E+05        -0.60008E+08         0.00000E+00
    0.00000E+00         0.00000E+00        -0.51710E+08
 
   -0.42820E+08        -0.58499E+05         0.00000E+00
   -0.58499E+05        -0.60029E+08         0.00000E+00
    0.00000E+00         0.00000E+00        -0.51709E+08
 
   -0.43600E+08        -0.88421E+05         0.00000E+00
   -0.88421E+05        -0.60067E+08         0.00000E+00
    0.00000E+00         0.00000E+00        -0.51707E+08
 
   -0.44319E+08        -0.66165E+05         0.00000E+00
   -0.66165E+05        -0.60110E+08         0.00000E+00
    0.00000E+00         0.00000E+00        -0.51703E+08
 
   -0.44992E+08         0.37942E+05         0.00000E+00
    0.37942E+05        -0.60150E+08         0.00000E+00
    0.00000E+00         0.00000E+00        -0.51699E+08
 
   -0.45634E+08         0.24713E+06         0.00000E+00
    0.24713E+06        -0.60177E+08         0.00000E+00
    0.00000E+00         0.00000E+00        -0.51693E+08
 
   -0.46258E+08         0.57869E+06         0.00000E+00
    0.57869E+06        -0.60183E+08         0.00000E+00
    0.00000E+00         0.00000E+00        -0.51687E+08
 
   -0.46873E+08         0.10442E+07         0.00000E+00
    0.10442E+07        -0.60160E+08         0.00000E+00
    0.00000E+00         0.00000E+00        -0.51681E+08
 
   -0.47488E+08         0.16498E+07         0.00000E+00
    0.16498E+07        -0.60105E+08         0.00000E+00
    0.00000E+00         0.00000E+00        -0.51674E+08
 
   -0.48105E+08         0.23960E+07         0.00000E+00
    0.23960E+07        -0.60013E+08         0.00000E+00
    0.00000E+00         0.00000E+00        -0.51668E+08
 
   -0.48730E+08         0.32785E+07         0.00000E+00
    0.32785E+07        -0.59883E+08         0.00000E+00
    0.00000E+00         0.00000E+00        -0.51662E+08
 
   -0.49363E+08         0.42880E+07         0.00000E+00
    0.42880E+07        -0.59712E+08         0.00000E+00
    0.00000E+00         0.00000E+00        -0.51657E+08
 
   -0.50005E+08         0.54102E+07         0.00000E+00
    0.54102E+07        -0.59501E+08         0.00000E+00
    0.00000E+00         0.00000E+00        -0.51653E+08
 
   -0.50656E+08         0.66254E+07         0.00000E+00
    0.66254E+07        -0.59248E+08         0.00000E+00
    0.00000E+00         0.00000E+00        -0.51651E+08
 
   -0.51316E+08         0.79087E+07         0.00000E+00
    0.79087E+07        -0.58955E+08         0.00000E+00
    0.00000E+00         0.00000E+00        -0.51649E+08
 
   -0.42016E+08        -0.30703E+05         0.00000E+00
   -0.30703E+05        -0.60013E+08         0.00000E+00
    0.00000E+00         0.00000E+00        -0.50372E+08
 
   -0.42874E+08        -0.10298E+06         0.00000E+00
   -0.10298E+06        -0.60054E+08         0.00000E+00
    0.00000E+00         0.00000E+00        -0.50371E+08
 
   -0.43613E+08        -0.15009E+06         0.00000E+00
   -0.15009E+06        -0.60123E+08         0.00000E+00
    0.00000E+00         0.00000E+00        -0.50368E+08
 
   -0.44259E+08        -0.13363E+06         0.00000E+00
   -0.13363E+06        -0.60210E+08         0.00000E+00
    0.00000E+00         0.00000E+00        -0.50364E+08
 
   -0.44833E+08        -0.24150E+05         0.00000E+00
   -0.24150E+05        -0.60300E+08         0.00000E+00
    0.00000E+00         0.00000E+00        -0.50358E+08
 
   -0.45356E+08         0.20039E+06         0.00000E+00
    0.20039E+06        -0.60383E+08         0.00000E+00
    0.00000E+00         0.00000E+00        -0.50351E+08
 
   -0.45847E+08         0.55560E+06         0.00000E+00
    0.55560E+06        -0.60448E+08         0.00000E+00
    0.00000E+00         0.00000E+00        -0.50344E+08
 
   -0.46322E+08         0.10513E+07         0.00000E+00
    0.10513E+07        -0.60486E+08         0.00000E+00
    0.00000E+00         0.00000E+00        -0.50336E+08
 
   -0.46793E+08         0.16919E+07         0.00000E+00
    0.16919E+07        -0.60493E+08         0.00000E+00
    0.00000E+00         0.00000E+00        -0.50328E+08
 
   -0.47270E+08         0.24768E+07         0.00000E+00
    0.24768E+07        -0.60462E+08         0.00000E+00
    0.00000E+00         0.00000E+00        -0.50321E+08
 
   -0.47761E+08         0.34008E+07         0.00000E+00
    0.34008E+07        -0.60389E+08         0.00000E+00
    0.00000E+00         0.00000E+00        -0.50314E+08
 
   -0.48273E+08         0.44535E+07         0.00000E+00
    0.44535E+07        -0.60272E+08         0.00000E+00
    0.00000E+00         0.00000E+00        -0.50308E+08
 
   -0.48811E+08         0.56204E+07         0.00000E+00
    0.56204E+07        -0.60108E+08         0.00000E+00
    0.00000E+00         0.00000E+00        -0.50303E+08
 
   -0.49380E+08         0.68818E+07         0.00000E+00
    0.68818E+07        -0.59894E+08         0.00000E+00
    0.00000E+00         0.00000E+00        -0.50300E+08
 
   -0.49985E+08         0.82132E+07         0.00000E+00
    0.82132E+07        -0.59627E+08         0.00000E+00
    0.00000E+00         0.00000E+00        -0.50298E+08
 
   -0.42109E+08        -0.58496E+05         0.00000E+00
   -0.58496E+05        -0.60020E+08         0.00000E+00
    0.00000E+00         0.00000E+00        -0.48979E+08
 
   -0.42957E+08        -0.17516E+06         0.00000E+00
   -0.17516E+06        -0.60080E+08         0.00000E+00
    0.00000E+00         0.00000E+00        -0.48977E+08
 
   -0.43644E+08        -0.25154E+06         0.00000E+00
   -0.25154E+06        -0.60184E+08         0.00000E+00
    0.00000E+00         0.00000E+00        -0.48973E+08
 
   -0.44203E+08        -0.24958E+06         0.00000E+00
   -0.24958E+06        -0.60315E+08         0.00000E+00
    0.00000E+00         0.00000E+00        -0.48968E+08
 
   -0.44665E+08        -0.14093E+06         0.00000E+00
   -0.14093E+06        -0.60458E+08         0.00000E+00
    0.00000E+00         0.00000E+00        -0.48961E+08
 
   -0.45059E+08         0.94738E+05         0.00000E+00
    0.94738E+05        -0.60598E+08         0.00000E+00
    0.00000E+00         0.00000E+00        -0.48953E+08
 
   -0.45410E+08         0.47107E+06         0.00000E+00
    0.47107E+06        -0.60723E+08         0.00000E+00
    0.00000E+00         0.00000E+00        -0.48944E+08
 
   -0.45738E+08         0.99595E+06         0.00000E+00
    0.99595E+06        -0.60824E+08         0.00000E+00
    0.00000E+00         0.00000E+00        -0.48934E+08
 
   -0.46061E+08         0.16721E+07         0.00000E+00
    0.16721E+07        -0.60892E+08         0.00000E+00
    0.00000E+00         0.00000E+00        -0.48925E+08
 
   -0.46393E+08         0.24978E+07         0.00000E+00
    0.24978E+07        -0.60922E+08         0.00000E+00
    0.00000E+00         0.00000E+00        -0.48916E+08
 
   -0.46748E+08         0.34666E+07         0.00000E+00
    0.34666E+07        -0.60908E+08         0.00000E+00
    0.00000E+00         0.00000E+00        -0.48907E+08
 
   -0.47136E+08         0.45680E+07         0.00000E+00
    0.45680E+07        -0.60844E+08         0.00000E+00
    0.00000E+00         0.00000E+00        -0.48900E+08
 
   -0.47567E+08         0.57872E+07         0.00000E+00
    0.57872E+07        -0.60727E+08         0.00000E+00
    0.00000E+00         0.00000E+00        -0.48895E+08
 
   -0.48051E+08         0.71049E+07         0.00000E+00
    0.71049E+07        -0.60552E+08         0.00000E+00
    0.00000E+00         0.00000E+00        -0.48891E+08
 
   -0.48598E+08         0.84974E+07         0.00000E+00
    0.84974E+07        -0.60312E+08         0.00000E+00
    0.00000E+00         0.00000E+00        -0.48889E+08
 
   -0.42265E+08        -0.97592E+05         0.00000E+00
   -0.97592E+05        -0.60026E+08         0.00000E+00
    0.00000E+00         0.00000E+00        -0.47516E+08
 
   -0.43085E+08        -0.27626E+06         0.00000E+00
   -0.27626E+06        -0.60106E+08         0.00000E+00
    0.00000E+00         0.00000E+00        -0.47513E+08
 
   -0.43701E+08        -0.39426E+06         0.00000E+00
   -0.39426E+06        -0.60246E+08         0.00000E+00
    0.00000E+00         0.00000E+00        -0.47509E+08
 
   -0.44158E+08        -0.41528E+06         0.00000E+00
   -0.41528E+06        -0.60422E+08         0.00000E+00
    0.00000E+00         0.00000E+00        -0.47502E+08
 
   -0.44495E+08        -0.31313E+06         0.00000E+00
   -0.31313E+06        -0.60617E+08         0.00000E+00
    0.00000E+00         0.00000E+00        -0.47493E+08
 
   -0.44748E+08        -0.69884E+05         0.00000E+00
   -0.69884E+05        -0.60814E+08         0.00000E+00
    0.00000E+00         0.00000E+00        -0.47483E+08
 
   -0.44948E+08         0.32565E+06         0.00000E+00
    0.32565E+06        -0.60998E+08         0.00000E+00
    0.00000E+00         0.00000E+00        -0.47472E+08
 
   -0.45121E+08         0.87912E+06         0.00000E+00
    0.87912E+06        -0.61159E+08         0.00000E+00
    0.00000E+00         0.00000E+00        -0.47460E+08
 
   -0.45289E+08         0.15915E+07         0.00000E+00
    0.15915E+07        -0.61287E+08         0.00000E+00
    0.00000E+00         0.00000E+00        -0.47448E+08
 
   -0.45472E+08         0.24597E+07         0.00000E+00
    0.24597E+07        -0.61376E+08         0.00000E+00
    0.00000E+00         0.00000E+00        -0.47437E+08
 
   -0.45686E+08         0.34766E+07         0.00000E+00
    0.34766E+07        -0.61418E+08         0.00000E+00
    0.00000E+00         0.00000E+00        -0.47427E+08
 
   -0.45945E+08         0.46316E+07         0.00000E+00
    0.46316E+07        -0.61407E+08         0.00000E+00
    0.00000E+00         0.00000E+00        -0.47419E+08
 
   -0.46265E+08         0.59100E+07         0.00000E+00
    0.59100E+07        -0.61338E+08         0.00000E+00
    0.00000E+00         0.00000E+00        -0.47412E+08
 
   -0.46658E+08         0.72933E+07         0.00000E+00
    0.72933E+07        -0.61203E+08         0.00000E+00
    0.00000E+00         0.00000E+00        -0.47407E+08
 
   -0.47140E+08         0.87586E+07         0.00000E+00
    0.87586E+07        -0.60993E+08         0.00000E+00
    0.00000E+00         0.00000E+00        -0.47405E+08
 
   -0.42503E+08        -0.14800E+06         0.00000E+00
   -0.14800E+06        -0.60032E+08         0.00000E+00
    0.00000E+00         0.00000E+00        -0.45969E+08
 
   -0.43272E+08        -0.40623E+06         0.00000E+00
   -0.40623E+06        -0.60132E+08         0.00000E+00
    0.00000E+00         0.00000E+00        -0.45966E+08
 
   -0.43796E+08        -0.57789E+06         0.00000E+00
   -0.57789E+06        -0.60306E+08         0.00000E+00
    0.00000E+00         0.00000E+00        -0.45960E+08
 
   -0.44130E+08        -0.62979E+06         0.00000E+00
   -0.62979E+06        -0.60526E+08         0.00000E+00
    0.00000E+00         0.00000E+00        -0.45951E+08
 
   -0.44325E+08        -0.53907E+06         0.00000E+00
   -0.53907E+06        -0.60771E+08         0.00000E+00
    0.00000E+00         0.00000E+00        -0.45940E+08
 
   -0.44424E+08        -0.29111E+06         0.00000E+00
   -0.29111E+06        -0.61021E+08         0.00000E+00
    0.00000E+00         0.00000E+00        -0.45928E+08
 
   -0.44462E+08         0.12218E+06         0.00000E+00
    0.12218E+06        -0.61260E+08         0.00000E+00
    0.00000E+00         0.00000E+00        -0.45914E+08
 
   -0.44472E+08         0.70383E+06         0.00000E+00
    0.70383E+06        -0.61477E+08         0.00000E+00
    0.00000E+00         0.00000E+00        -0.45900E+08
 
   -0.44478E+08         0.14528E+07         0.00000E+00
    0.14528E+07        -0.61661E+08         0.00000E+00
    0.00000E+00         0.00000E+00        -0.45886E+08
 
   -0.44505E+08         0.23648E+07         0.00000E+00
    0.23648E+07        -0.61805E+08         0.00000E+00
    0.00000E+00         0.00000E+00        -0.45873E+08
 
   -0.44571E+08         0.34323E+07         0.00000E+00
    0.34323E+07        -0.61901E+08         0.00000E+00
    0.00000E+00         0.00000E+00        -0.45861E+08
 
   -0.44696E+08         0.46447E+07         0.00000E+00
    0.46447E+07        -0.61942E+08         0.00000E+00
    0.00000E+00         0.00000E+00        -0.45850E+08
 
   -0.44897E+08         0.59880E+07         0.00000E+00
    0.59880E+07        -0.61921E+08         0.00000E+00
    0.00000E+00         0.00000E+00        -0.45842E+08
 
   -0.45192E+08         0.74447E+07         0.00000E+00
    0.74447E+07        -0.61827E+08         0.00000E+00
    0.00000E+00         0.00000E+00        -0.45837E+08
 
   -0.45599E+08         0.89931E+07         0.00000E+00
    0.89931E+07        -0.61652E+08         0.00000E+00
    0.00000E+00         0.00000E+00        -0.45834E+08
 
   -0.42845E+08        -0.20936E+06         0.00000E+00
   -0.20936E+06        -0.60038E+08         0.00000E+00
    0.00000E+00         0.00000E+00        -0.44327E+08
 
   -0.43532E+08        -0.56392E+06         0.00000E+00
   -0.56392E+06        -0.60156E+08         0.00000E+00
    0.00000E+00         0.00000E+00        -0.44323E+08
 
   -0.43936E+08        -0.80036E+06         0.00000E+00
   -0.80036E+06        -0.60362E+08         0.00000E+00
    0.00000E+00         0.00000E+00        -0.44315E+08
 
   -0.44126E+08        -0.89002E+06         0.00000E+00
   -0.89002E+06        -0.60623E+08         0.00000E+00
    0.00000E+00         0.00000E+00        -0.44304E+08
 
   -0.44160E+08        -0.81464E+06         0.00000E+00
   -0.81464E+06        -0.60913E+08         0.00000E+00
    0.00000E+00         0.00000E+00        -0.44291E+08
 
   -0.44089E+08        -0.56402E+06         0.00000E+00
   -0.56402E+06        -0.61210E+08         0.00000E+00
    0.00000E+00         0.00000E+00        -0.44276E+08
 
   -0.43954E+08        -0.13398E+06         0.00000E+00
   -0.13398E+06        -0.61498E+08         0.00000E+00
    0.00000E+00         0.00000E+00        -0.44259E+08
 
   -0.43790E+08         0.47540E+06         0.00000E+00
    0.47540E+06        -0.61764E+08         0.00000E+00
    0.00000E+00         0.00000E+00        -0.44242E+08
 
   -0.43627E+08         0.12609E+07         0.00000E+00
    0.12609E+07        -0.61998E+08         0.00000E+00
    0.00000E+00         0.00000E+00        -0.44225E+08
 
   -0.43490E+08         0.22171E+07         0.00000E+00
    0.22171E+07        -0.62192E+08         0.00000E+00
    0.00000E+00         0.00000E+00        -0.44209E+08
 
   -0.43402E+08         0.33361E+07         0.00000E+00
    0.33361E+07        -0.62339E+08         0.00000E+00
    0.00000E+00         0.00000E+00        -0.44195E+08
 
   -0.43384E+08         0.46081E+07         0.00000E+00
    0.46081E+07        -0.62430E+08         0.00000E+00
    0.00000E+00         0.00000E+00        -0.44183E+08
 
   -0.43457E+08         0.60201E+07         0.00000E+00
    0.60201E+07        -0.62456E+08         0.00000E+00
    0.00000E+00         0.00000E+00        -0.44173E+08
 
   -0.43643E+08         0.75561E+07         0.00000E+00
    0.75561E+07        -0.62406E+08         0.00000E+00
    0.00000E+00         0.00000E+00        -0.44167E+08
 
   -0.43965E+08         0.91961E+07         0.00000E+00
    0.91961E+07        -0.62269E+08         0.00000E+00
    0.00000E+00         0.00000E+00        -0.44163E+08
 
   -0.43311E+08        -0.28097E+06         0.00000E+00
   -0.28097E+06        -0.60043E+08         0.00000E+00
    0.00000E+00         0.00000E+00        -0.42579E+08
 
   -0.43878E+08        -0.74719E+06         0.00000E+00
   -0.74719E+06        -0.60179E+08         0.00000E+00
    0.00000E+00         0.00000E+00        -0.42574E+08
 
   -0.44131E+08        -0.10579E+07         0.00000E+00
   -0.10579E+07        -0.60413E+08         0.00000E+00
    0.00000E+00         0.00000E+00        -0.42564E+08
 
   -0.44150E+08        -0.11907E+07         0.00000E+00
   -0.11907E+07        -0.60708E+08         0.00000E+00
    0.00000E+00         0.00000E+00        -0.42551E+08
 
   -0.44002E+08        -0.11332E+07         0.00000E+00
   -0.11332E+07        -0.61036E+08         0.00000E+00
    0.00000E+00         0.00000E+00        -0.42534E+08
 
   -0.43744E+08        -0.88095E+06         0.00000E+00
   -0.88095E+06        -0.61372E+08         0.00000E+00
    0.00000E+00         0.00000E+00        -0.42516E+08
 
   -0.43423E+08        -0.43473E+06         0.00000E+00
   -0.43473E+06        -0.61699E+08         0.00000E+00
    0.00000E+00         0.00000E+00        -0.42496E+08
 
   -0.43076E+08         0.20168E+06         0.00000E+00
    0.20168E+06        -0.62005E+08         0.00000E+00
    0.00000E+00         0.00000E+00        -0.42476E+08
 
   -0.42736E+08         0.10227E+07         0.00000E+00
    0.10227E+07        -0.62280E+08         0.00000E+00
    0.00000E+00         0.00000E+00        -0.42456E+08
 
   -0.42428E+08         0.20218E+07         0.00000E+00
    0.20218E+07        -0.62517E+08         0.00000E+00
    0.00000E+00         0.00000E+00        -0.42437E+08
 
   -0.42178E+08         0.31914E+07         0.00000E+00
    0.31914E+07        -0.62709E+08         0.00000E+00
    0.00000E+00         0.00000E+00        -0.42421E+08
 
   -0.42008E+08         0.45228E+07         0.00000E+00
    0.45228E+07        -0.62848E+08         0.00000E+00
    0.00000E+00         0.00000E+00        -0.42406E+08
 
   -0.41943E+08         0.60049E+07         0.00000E+00
    0.60049E+07        -0.62922E+08         0.00000E+00
    0.00000E+00         0.00000E+00        -0.42395E+08
 
   -0.42008E+08         0.76238E+07         0.00000E+00
    0.76238E+07        -0.62920E+08         0.00000E+00
    0.00000E+00         0.00000E+00        -0.42387E+08
 
   -0.42229E+08         0.93614E+07         0.00000E+00
    0.93614E+07        -0.62826E+08         0.00000E+00
    0.00000E+00         0.00000E+00        -0.42383E+08
 
   -0.43917E+08        -0.36187E+06         0.00000E+00
   -0.36187E+06        -0.60048E+08         0.00000E+00
    0.00000E+00         0.00000E+00        -0.40716E+08
 
   -0.44321E+08        -0.95290E+06         0.00000E+00
   -0.95290E+06        -0.60198E+08         0.00000E+00
    0.00000E+00         0.00000E+00        -0.40710E+08
 
   -0.44386E+08        -0.13452E+07         0.00000E+00
   -0.13452E+07        -0.60455E+08         0.00000E+00
    0.00000E+00         0.00000E+00        -0.40698E+08
 
   -0.44204E+08        -0.15241E+07         0.00000E+00
   -0.15241E+07        -0.60778E+08         0.00000E+00
    0.00000E+00         0.00000E+00        -0.40682E+08
 
   -0.43851E+08        -0.14851E+07         0.00000E+00
   -0.14851E+07        -0.61133E+08         0.00000E+00
    0.00000E+00         0.00000E+00        -0.40662E+08
 
   -0.43390E+08        -0.12312E+07         0.00000E+00
   -0.12312E+07        -0.61496E+08         0.00000E+00
    0.00000E+00         0.00000E+00        -0.40640E+08
 
   -0.42870E+08        -0.76894E+06         0.00000E+00
   -0.76894E+06        -0.61850E+08         0.00000E+00
    0.00000E+00         0.00000E+00        -0.40617E+08
 
   -0.42332E+08        -0.10674E+06         0.00000E+00
   -0.10674E+06        -0.62183E+08         0.00000E+00
    0.00000E+00         0.00000E+00        -0.40593E+08
 
   -0.41806E+08         0.74734E+06         0.00000E+00
    0.74734E+06        -0.62489E+08         0.00000E+00
    0.00000E+00         0.00000E+00        -0.40570E+08
 
   -0.41321E+08         0.17860E+07         0.00000E+00
    0.17860E+07        -0.62760E+08         0.00000E+00
    0.00000E+00         0.00000E+00        -0.40549E+08
 
   -0.40900E+08         0.30025E+07         0.00000E+00
    0.30025E+07        -0.62991E+08         0.00000E+00
    0.00000E+00         0.00000E+00        -0.40529E+08
 
   -0.40569E+08         0.43901E+07         0.00000E+00
    0.43901E+07        -0.63174E+08         0.00000E+00
    0.00000E+00         0.00000E+00        -0.40512E+08
 
   -0.40353E+08         0.59405E+07         0.00000E+00
    0.59405E+07        -0.63297E+08         0.00000E+00
    0.00000E+00         0.00000E+00        -0.40499E+08
 
   -0.40281E+08         0.76428E+07         0.00000E+00
    0.76428E+07        -0.63345E+08         0.00000E+00
    0.00000E+00         0.00000E+00        -0.40490E+08
 
   -0.40384E+08         0.94816E+07         0.00000E+00
    0.94816E+07        -0.63302E+08         0.00000E+00
    0.00000E+00         0.00000E+00        -0.40486E+08
 
   -0.44679E+08        -0.45080E+06         0.00000E+00
   -0.45080E+06        -0.60052E+08         0.00000E+00
    0.00000E+00         0.00000E+00        -0.38731E+08
 
   -0.44870E+08        -0.11770E+07         0.00000E+00
   -0.11770E+07        -0.60213E+08         0.00000E+00
    0.00000E+00         0.00000E+00        -0.38724E+08
 
   -0.44706E+08        -0.16550E+07         0.00000E+00
   -0.16550E+07        -0.60488E+08         0.00000E+00
    0.00000E+00         0.00000E+00        -0.38710E+08
 
   -0.44289E+08        -0.18800E+07         0.00000E+00
   -0.18800E+07        -0.60828E+08         0.00000E+00
    0.00000E+00         0.00000E+00        -0.38690E+08
 
   -0.43707E+08        -0.18578E+07         0.00000E+00
   -0.18578E+07        -0.61198E+08         0.00000E+00
    0.00000E+00         0.00000E+00        -0.38667E+08
 
   -0.43025E+08        -0.16004E+07         0.00000E+00
   -0.16004E+07        -0.61572E+08         0.00000E+00
    0.00000E+00         0.00000E+00        -0.38642E+08
 
   -0.42297E+08        -0.11220E+07         0.00000E+00
   -0.11220E+07        -0.61936E+08         0.00000E+00
    0.00000E+00         0.00000E+00        -0.38615E+08
 
   -0.41559E+08        -0.43612E+06         0.00000E+00
   -0.43612E+06        -0.62281E+08         0.00000E+00
    0.00000E+00         0.00000E+00        -0.38587E+08
 
   -0.40844E+08         0.44656E+06         0.00000E+00
    0.44656E+06        -0.62602E+08         0.00000E+00
    0.00000E+00         0.00000E+00        -0.38561E+08
 
   -0.40175E+08         0.15184E+07         0.00000E+00
    0.15184E+07        -0.62896E+08         0.00000E+00
    0.00000E+00         0.00000E+00        -0.38536E+08
 
   -0.39575E+08         0.27745E+07         0.00000E+00
    0.27745E+07        -0.63159E+08         0.00000E+00
    0.00000E+00         0.00000E+00        -0.38514E+08
 
   -0.39071E+08         0.42112E+07         0.00000E+00
    0.42112E+07        -0.63382E+08         0.00000E+00
    0.00000E+00         0.00000E+00        -0.38495E+08
 
   -0.38689E+08         0.58243E+07         0.00000E+00
    0.58243E+07        -0.63555E+08         0.00000E+00
    0.00000E+00         0.00000E+00        -0.38480E+08
 
   -0.38463E+08         0.76068E+07         0.00000E+00
    0.76068E+07        -0.63659E+08         0.00000E+00
    0.00000E+00         0.00000E+00        -0.38470E+08
 
   -0.38428E+08         0.95475E+07         0.00000E+00
    0.95475E+07        -0.63675E+08         0.00000E+00
    0.00000E+00         0.00000E+00        -0.38464E+08
 
   -0.45610E+08        -0.54623E+06         0.00000E+00
   -0.54623E+06        -0.60054E+08         0.00000E+00
    0.00000E+00         0.00000E+00        -0.36619E+08
 
   -0.45530E+08        -0.14142E+07         0.00000E+00
   -0.14142E+07        -0.60224E+08         0.00000E+00
    0.00000E+00         0.00000E+00        -0.36610E+08
 
   -0.45088E+08        -0.19778E+07         0.00000E+00
   -0.19778E+07        -0.60507E+08         0.00000E+00
    0.00000E+00         0.00000E+00        -0.36594E+08
 
   -0.44402E+08        -0.22451E+07         0.00000E+00
   -0.22451E+07        -0.60852E+08         0.00000E+00
    0.00000E+00         0.00000E+00        -0.36571E+08
 
   -0.43566E+08        -0.22348E+07         0.00000E+00
   -0.22348E+07        -0.61219E+08         0.00000E+00
    0.00000E+00         0.00000E+00        -0.36544E+08
 
   -0.42649E+08        -0.19705E+07         0.00000E+00
   -0.19705E+07        -0.61586E+08         0.00000E+00
    0.00000E+00         0.00000E+00        -0.36515E+08
 
   -0.41703E+08        -0.14756E+07         0.00000E+00
   -0.14756E+07        -0.61940E+08         0.00000E+00
    0.00000E+00         0.00000E+00        -0.36484E+08
 
   -0.40763E+08        -0.76929E+06         0.00000E+00
   -0.76929E+06        -0.62277E+08         0.00000E+00
    0.00000E+00         0.00000E+00        -0.36453E+08
 
   -0.39855E+08         0.13485E+06         0.00000E+00
    0.13485E+06        -0.62596E+08         0.00000E+00
    0.00000E+00         0.00000E+00        -0.36424E+08
 
   -0.38998E+08         0.12296E+07         0.00000E+00
    0.12296E+07        -0.62898E+08         0.00000E+00
    0.00000E+00         0.00000E+00        -0.36396E+08
 
   -0.38213E+08         0.25133E+07         0.00000E+00
    0.25133E+07        -0.63183E+08         0.00000E+00
    0.00000E+00         0.00000E+00        -0.36372E+08
 
   -0.37523E+08         0.39870E+07         0.00000E+00
    0.39870E+07        -0.63444E+08         0.00000E+00
    0.00000E+00         0.00000E+00        -0.36351E+08
 
   -0.36959E+08         0.56523E+07         0.00000E+00
    0.56523E+07        -0.63669E+08         0.00000E+00
    0.00000E+00         0.00000E+00        -0.36334E+08
 
   -0.36557E+08         0.75079E+07         0.00000E+00
    0.75079E+07        -0.63837E+08         0.00000E+00
    0.00000E+00         0.00000E+00        -0.36322E+08
 
   -0.36358E+08         0.95474E+07         0.00000E+00
    0.95474E+07        -0.63923E+08         0.00000E+00
    0.00000E+00         0.00000E+00        -0.36316E+08
 
   -0.46719E+08        -0.64637E+06         0.00000E+00
   -0.64637E+06        -0.60056E+08         0.00000E+00
    0.00000E+00         0.00000E+00        -0.34376E+08
 
   -0.46301E+08        -0.16580E+07         0.00000E+00
   -0.16580E+07        -0.60229E+08         0.00000E+00
    0.00000E+00         0.00000E+00        -0.34365E+08
 
   -0.45529E+08        -0.23018E+07         0.00000E+00
   -0.23018E+07        -0.60511E+08         0.00000E+00
    0.00000E+00         0.00000E+00        -0.34346E+08
 
   -0.44536E+08        -0.26023E+07         0.00000E+00
   -0.26023E+07        -0.60843E+08         0.00000E+00
    0.00000E+00         0.00000E+00        -0.34320E+08
 
   -0.43422E+08        -0.25951E+07         0.00000E+00
   -0.25951E+07        -0.61187E+08         0.00000E+00
    0.00000E+00         0.00000E+00        -0.34290E+08
 
   -0.42259E+08        -0.23185E+07         0.00000E+00
   -0.23185E+07        -0.61522E+08         0.00000E+00
    0.00000E+00         0.00000E+00        -0.34257E+08
 
   -0.41092E+08        -0.18066E+07         0.00000E+00
   -0.18066E+07        -0.61840E+08         0.00000E+00
    0.00000E+00         0.00000E+00        -0.34223E+08
 
   -0.39950E+08        -0.10853E+07         0.00000E+00
   -0.10853E+07        -0.62144E+08         0.00000E+00
    0.00000E+00         0.00000E+00        -0.34189E+08
 
   -0.38850E+08        -0.17033E+06         0.00000E+00
   -0.17033E+06        -0.62440E+08         0.00000E+00
    0.00000E+00         0.00000E+00        -0.34157E+08
 
   -0.37805E+08         0.93234E+06         0.00000E+00
    0.93234E+06        -0.62735E+08         0.00000E+00
    0.00000E+00         0.00000E+00        -0.34126E+08
 
   -0.36828E+08         0.22254E+07         0.00000E+00
    0.22254E+07        -0.63033E+08         0.00000E+00
    0.00000E+00         0.00000E+00        -0.34100E+08
 
   -0.35941E+08         0.37176E+07         0.00000E+00
    0.37176E+07        -0.63328E+08         0.00000E+00
    0.00000E+00         0.00000E+00        -0.34077E+08
 
   -0.35174E+08         0.54190E+07         0.00000E+00
    0.54190E+07        -0.63608E+08         0.00000E+00
    0.00000E+00         0.00000E+00        -0.34058E+08
 
   -0.34570E+08         0.73353E+07         0.00000E+00
    0.73353E+07        -0.63849E+08         0.00000E+00
    0.00000E+00         0.00000E+00        -0.34045E+08
 
   -0.34175E+08         0.94666E+07         0.00000E+00
    0.94666E+07        -0.64021E+08         0.00000E+00
    0.00000E+00         0.00000E+00        -0.34039E+08
 
   -0.48009E+08        -0.74912E+06         0.00000E+00
   -0.74912E+06        -0.60057E+08         0.00000E+00
    0.00000E+00         0.00000E+00        -0.31999E+08
 
   -0.47177E+08        -0.19003E+07         0.00000E+00
   -0.19003E+07        -0.60228E+08         0.00000E+00
    0.00000E+00         0.00000E+00        -0.31987E+08
 
   -0.46017E+08        -0.26115E+07         0.00000E+00
   -0.26115E+07        -0.60494E+08         0.00000E+00
    0.00000E+00         0.00000E+00        -0.31965E+08
 
   -0.44679E+08        -0.29294E+07         0.00000E+00
   -0.29294E+07        -0.60793E+08         0.00000E+00
    0.00000E+00         0.00000E+00        -0.31936E+08
 
   -0.43268E+08        -0.29121E+07         0.00000E+00
   -0.29121E+07        -0.61085E+08         0.00000E+00
    0.00000E+00         0.00000E+00        -0.31902E+08
 
   -0.41852E+08        -0.26161E+07         0.00000E+00
   -0.26161E+07        -0.61357E+08         0.00000E+00
    0.00000E+00         0.00000E+00        -0.31866E+08
 
   -0.40467E+08        -0.20878E+07         0.00000E+00
   -0.20878E+07        -0.61609E+08         0.00000E+00
    0.00000E+00         0.00000E+00        -0.31829E+08
 
   -0.39130E+08        -0.13594E+07         0.00000E+00
   -0.13594E+07        -0.61853E+08         0.00000E+00
    0.00000E+00         0.00000E+00        -0.31793E+08
 
   -0.37846E+08        -0.44856E+06         0.00000E+00
   -0.44856E+06        -0.62102E+08         0.00000E+00
    0.00000E+00         0.00000E+00        -0.31759E+08
 
   -0.36615E+08         0.64124E+06         0.00000E+00
    0.64124E+06        -0.62371E+08         0.00000E+00
    0.00000E+00         0.00000E+00        -0.31727E+08
 
   -0.35443E+08         0.19185E+07         0.00000E+00
    0.19185E+07        -0.62669E+08         0.00000E+00
    0.00000E+00         0.00000E+00        -0.31698E+08
 
   -0.34345E+08         0.34015E+07         0.00000E+00
    0.34015E+07        -0.62995E+08         0.00000E+00
    0.00000E+00         0.00000E+00        -0.31674E+08
 
   -0.33353E+08         0.51141E+07         0.00000E+00
    0.51141E+07        -0.63338E+08         0.00000E+00
    0.00000E+00         0.00000E+00        -0.31654E+08
 
   -0.32515E+08         0.70742E+07         0.00000E+00
    0.70742E+07        -0.63669E+08         0.00000E+00
    0.00000E+00         0.00000E+00        -0.31640E+08
 
   -0.31887E+08         0.92855E+07         0.00000E+00
    0.92855E+07        -0.63945E+08         0.00000E+00
    0.00000E+00         0.00000E+00        -0.31633E+08
 
   -0.49480E+08        -0.85205E+06         0.00000E+00
   -0.85205E+06        -0.60056E+08         0.00000E+00
    0.00000E+00         0.00000E+00        -0.29489E+08
 
   -0.48145E+08        -0.21307E+07         0.00000E+00
   -0.21307E+07        -0.60217E+08         0.00000E+00
    0.00000E+00         0.00000E+00        -0.29475E+08
 
   -0.46532E+08        -0.28864E+07         0.00000E+00
   -0.28864E+07        -0.60450E+08         0.00000E+00
    0.00000E+00         0.00000E+00        -0.29450E+08
 
   -0.44811E+08        -0.31976E+07         0.00000E+00
   -0.31976E+07        -0.60687E+08         0.00000E+00
    0.00000E+00         0.00000E+00        -0.29418E+08
 
   -0.43090E+08        -0.31524E+07         0.00000E+00
   -0.31524E+07        -0.60893E+08         0.00000E+00
    0.00000E+00         0.00000E+00        -0.29382E+08
 
   -0.41424E+08        -0.28292E+07         0.00000E+00
   -0.28292E+07        -0.61064E+08         0.00000E+00
    0.00000E+00         0.00000E+00        -0.29344E+08
 
   -0.39833E+08        -0.22873E+07         0.00000E+00
   -0.22873E+07        -0.61215E+08         0.00000E+00
    0.00000E+00         0.00000E+00        -0.29305E+08
 
   -0.38317E+08        -0.15640E+07         0.00000E+00
   -0.15640E+07        -0.61368E+08         0.00000E+00
    0.00000E+00         0.00000E+00        -0.29268E+08
 
   -0.36862E+08        -0.67712E+06         0.00000E+00
   -0.67712E+06        -0.61545E+08         0.00000E+00
    0.00000E+00         0.00000E+00        -0.29232E+08
 
   -0.35456E+08         0.37325E+06         0.00000E+00
    0.37325E+06        -0.61767E+08         0.00000E+00
    0.00000E+00         0.00000E+00        -0.29200E+08
 
   -0.34091E+08         0.16022E+07         0.00000E+00
    0.16022E+07        -0.62050E+08         0.00000E+00
    0.00000E+00         0.00000E+00        -0.29170E+08
 
   -0.32770E+08         0.30384E+07         0.00000E+00
    0.30384E+07        -0.62400E+08         0.00000E+00
    0.00000E+00         0.00000E+00        -0.29145E+08
 
   -0.31522E+08         0.47226E+07         0.00000E+00
    0.47226E+07        -0.62812E+08         0.00000E+00
    0.00000E+00         0.00000E+00        -0.29125E+08
 
   -0.30411E+08         0.66976E+07         0.00000E+00
    0.66976E+07        -0.63256E+08         0.00000E+00
    0.00000E+00         0.00000E+00        -0.29110E+08
 
   -0.29502E+08         0.89717E+07         0.00000E+00
    0.89717E+07        -0.63692E+08         0.00000E+00
    0.00000E+00         0.00000E+00        -0.29103E+08
 
   -0.51123E+08        -0.95223E+06         0.00000E+00
   -0.95223E+06        -0.60054E+08         0.00000E+00
    0.00000E+00         0.00000E+00        -0.26846E+08
 
   -0.49179E+08        -0.23343E+07         0.00000E+00
   -0.23343E+07        -0.60194E+08         0.00000E+00
    0.00000E+00         0.00000E+00        -0.26831E+08
 
   -0.47044E+08        -0.30978E+07         0.00000E+00
   -0.30978E+07        -0.60368E+08         0.00000E+00
    0.00000E+00         0.00000E+00        -0.26804E+08
 
   -0.44909E+08        -0.33684E+07         0.00000E+00
   -0.33684E+07        -0.60503E+08         0.00000E+00
    0.00000E+00         0.00000E+00        -0.26770E+08
 
   -0.42875E+08        -0.32743E+07         0.00000E+00
   -0.32743E+07        -0.60576E+08         0.00000E+00
    0.00000E+00         0.00000E+00        -0.26733E+08
 
   -0.40975E+08        -0.29186E+07         0.00000E+00
   -0.29186E+07        -0.60604E+08         0.00000E+00
    0.00000E+00         0.00000E+00        -0.26694E+08
 
   -0.39202E+08        -0.23708E+07         0.00000E+00
   -0.23708E+07        -0.60616E+08         0.00000E+00
    0.00000E+00         0.00000E+00        -0.26655E+08
 
   -0.37529E+08        -0.16705E+07         0.00000E+00
   -0.16705E+07        -0.60646E+08         0.00000E+00
    0.00000E+00         0.00000E+00        -0.26618E+08
 
   -0.35925E+08        -0.83281E+06         0.00000E+00
   -0.83281E+06        -0.60725E+08         0.00000E+00
    0.00000E+00         0.00000E+00        -0.26583E+08
 
   -0.34359E+08         0.14639E+06         0.00000E+00
    0.14639E+06        -0.60881E+08         0.00000E+00
    0.00000E+00         0.00000E+00        -0.26550E+08
 
   -0.32808E+08         0.12889E+07         0.00000E+00
    0.12889E+07        -0.61134E+08         0.00000E+00
    0.00000E+00         0.00000E+00        -0.26521E+08
 
   -0.31260E+08         0.26337E+07         0.00000E+00
    0.26337E+07        -0.61498E+08         0.00000E+00
    0.00000E+00         0.00000E+00        -0.26496E+08
 
   -0.29729E+08         0.42368E+07         0.00000E+00
    0.42368E+07        -0.61975E+08         0.00000E+00
    0.00000E+00         0.00000E+00        -0.26476E+08
 
   -0.28280E+08         0.61730E+07         0.00000E+00
    0.61730E+07        -0.62538E+08         0.00000E+00
    0.00000E+00         0.00000E+00        -0.26461E+08
 
   -0.27169E+08         0.84274E+07         0.00000E+00
    0.84274E+07        -0.63153E+08         0.00000E+00
    0.00000E+00         0.00000E+00        -0.26604E+08
 
   -0.52921E+08        -0.10458E+07         0.00000E+00
   -0.10458E+07        -0.60049E+08         0.00000E+00
    0.00000E+00         0.00000E+00        -0.24075E+08
 
   -0.50236E+08        -0.24891E+07         0.00000E+00
   -0.24891E+07        -0.60152E+08         0.00000E+00
    0.00000E+00         0.00000E+00        -0.24059E+08
 
   -0.47507E+08        -0.32034E+07         0.00000E+00
   -0.32034E+07        -0.60226E+08         0.00000E+00
    0.00000E+00         0.00000E+00        -0.24031E+08
 
   -0.44942E+08        -0.33894E+07         0.00000E+00
   -0.33894E+07        -0.60201E+08         0.00000E+00
    0.00000E+00         0.00000E+00        -0.23997E+08
 
   -0.42614E+08        -0.32272E+07         0.00000E+00
   -0.32272E+07        -0.60084E+08         0.00000E+00
    0.00000E+00         0.00000E+00        -0.23959E+08
 
   -0.40512E+08        -0.28417E+07         0.00000E+00
   -0.28417E+07        -0.59920E+08         0.00000E+00
    0.00000E+00         0.00000E+00        -0.23921E+08
 
   -0.38589E+08        -0.23052E+07         0.00000E+00
   -0.23052E+07        -0.59757E+08         0.00000E+00
    0.00000E+00         0.00000E+00        -0.23884E+08
 
   -0.36791E+08        -0.16530E+07         0.00000E+00
   -0.16530E+07        -0.59639E+08         0.00000E+00
    0.00000E+00         0.00000E+00        -0.23849E+08
 
   -0.35065E+08        -0.89525E+06         0.00000E+00
   -0.89525E+06        -0.59600E+08         0.00000E+00
    0.00000E+00         0.00000E+00        -0.23816E+08
 
   -0.33361E+08        -0.22793E+05         0.00000E+00
   -0.22793E+05        -0.59673E+08         0.00000E+00
    0.00000E+00         0.00000E+00        -0.23786E+08
 
   -0.31638E+08         0.99152E+06         0.00000E+00
    0.99152E+06        -0.59883E+08         0.00000E+00
    0.00000E+00         0.00000E+00        -0.23758E+08
 
   -0.29865E+08         0.21957E+07         0.00000E+00
    0.21957E+07        -0.60252E+08         0.00000E+00
    0.00000E+00         0.00000E+00        -0.23735E+08
 
   -0.28033E+08         0.36632E+07         0.00000E+00
    0.36632E+07        -0.60787E+08         0.00000E+00
    0.00000E+00         0.00000E+00        -0.23715E+08
 
   -0.26161E+08         0.55025E+07         0.00000E+00
    0.55025E+07        -0.61474E+08         0.00000E+00
    0.00000E+00         0.00000E+00        -0.23701E+08
 
   -0.24924E+08         0.76819E+07         0.00000E+00
    0.76819E+07        -0.62250E+08         0.00000E+00
    0.00000E+00         0.00000E+00        -0.24175E+08
 
   -0.54839E+08        -0.11267E+07         0.00000E+00
   -0.11267E+07        -0.60040E+08         0.00000E+00
    0.00000E+00         0.00000E+00        -0.21182E+08
 
   -0.51247E+08        -0.25555E+07         0.00000E+00
   -0.25555E+07        -0.60074E+08         0.00000E+00
    0.00000E+00         0.00000E+00        -0.21165E+08
 
   -0.47860E+08        -0.31352E+07         0.00000E+00
   -0.31352E+07        -0.59975E+08         0.00000E+00
    0.00000E+00         0.00000E+00        -0.21138E+08
 
   -0.44882E+08        -0.31896E+07         0.00000E+00
   -0.31896E+07        -0.59707E+08         0.00000E+00
    0.00000E+00         0.00000E+00        -0.21105E+08
 
   -0.42308E+08        -0.29552E+07         0.00000E+00
   -0.29552E+07        -0.59334E+08         0.00000E+00
    0.00000E+00         0.00000E+00        -0.21070E+08
 
   -0.40053E+08        -0.25603E+07         0.00000E+00
   -0.25603E+07        -0.58935E+08         0.00000E+00
    0.00000E+00         0.00000E+00        -0.21036E+08
 
   -0.38024E+08        -0.20653E+07         0.00000E+00
   -0.20653E+07        -0.58572E+08         0.00000E+00
    0.00000E+00         0.00000E+00        -0.21003E+08
 
   -0.36136E+08        -0.14947E+07         0.00000E+00
   -0.14947E+07        -0.58291E+08         0.00000E+00
    0.00000E+00         0.00000E+00        -0.20972E+08
 
   -0.34317E+08        -0.85151E+06         0.00000E+00
   -0.85151E+06        -0.58127E+08         0.00000E+00
    0.00000E+00         0.00000E+00        -0.20943E+08
 
   -0.32501E+08        -0.12284E+06         0.00000E+00
   -0.12284E+06        -0.58110E+08         0.00000E+00
    0.00000E+00         0.00000E+00        -0.20916E+08
 
   -0.30628E+08         0.72080E+06         0.00000E+00
    0.72080E+06        -0.58269E+08         0.00000E+00
    0.00000E+00         0.00000E+00        -0.20892E+08
 
   -0.28641E+08         0.17312E+07         0.00000E+00
    0.17312E+07        -0.58634E+08         0.00000E+00
    0.00000E+00         0.00000E+00        -0.20871E+08
 
   -0.26493E+08         0.29965E+07         0.00000E+00
    0.29965E+07        -0.59232E+08         0.00000E+00
    0.00000E+00         0.00000E+00        -0.20854E+08
 
   -0.24170E+08         0.46509E+07         0.00000E+00
    0.46509E+07        -0.60071E+08         0.00000E+00
    0.00000E+00         0.00000E+00        -0.20840E+08
 
   -0.22630E+08         0.67755E+07         0.00000E+00
    0.67755E+07        -0.61051E+08         0.00000E+00
    0.00000E+00         0.00000E+00        -0.21596E+08
 
   -0.56808E+08        -0.11814E+07         0.00000E+00
   -0.11814E+07        -0.60018E+08         0.00000E+00
    0.00000E+00         0.00000E+00        -0.18175E+08
 
   -0.52092E+08        -0.24513E+07         0.00000E+00
   -0.24513E+07        -0.59910E+08         0.00000E+00
    0.00000E+00         0.00000E+00        -0.18159E+08
 
   -0.48035E+08        -0.27806E+07         0.00000E+00
   -0.27806E+07        -0.59504E+08         0.00000E+00
    0.00000E+00         0.00000E+00        -0.18134E+08
 
   -0.44724E+08        -0.26853E+07         0.00000E+00
   -0.26853E+07        -0.58884E+08         0.00000E+00
    0.00000E+00         0.00000E+00        -0.18105E+08
 
   -0.41984E+08        -0.24120E+07         0.00000E+00
   -0.24120E+07        -0.58199E+08         0.00000E+00
    0.00000E+00         0.00000E+00        -0.18076E+08
 
   -0.39635E+08        -0.20529E+07         0.00000E+00
   -0.20529E+07        -0.57547E+08         0.00000E+00
    0.00000E+00         0.00000E+00        -0.18049E+08
 
   -0.37542E+08        -0.16433E+07         0.00000E+00
   -0.16433E+07        -0.56984E+08         0.00000E+00
    0.00000E+00         0.00000E+00        -0.18023E+08
 
   -0.35598E+08        -0.11938E+07         0.00000E+00
   -0.11938E+07        -0.56547E+08         0.00000E+00
    0.00000E+00         0.00000E+00        -0.17998E+08
 
   -0.33716E+08        -0.70111E+06         0.00000E+00
   -0.70111E+06        -0.56265E+08         0.00000E+00
    0.00000E+00         0.00000E+00        -0.17975E+08
 
   -0.31817E+08        -0.15123E+06         0.00000E+00
   -0.15123E+06        -0.56163E+08         0.00000E+00
    0.00000E+00         0.00000E+00        -0.17955E+08
 
   -0.29823E+08         0.48245E+06         0.00000E+00
    0.48245E+06        -0.56272E+08         0.00000E+00
    0.00000E+00         0.00000E+00        -0.17936E+08
 
   -0.27651E+08         0.12464E+07         0.00000E+00
    0.12464E+07        -0.56628E+08         0.00000E+00
    0.00000E+00         0.00000E+00        -0.17919E+08
 
   -0.25204E+08         0.22234E+07         0.00000E+00
    0.22234E+07        -0.57284E+08         0.00000E+00
    0.00000E+00         0.00000E+00        -0.17904E+08
 
   -0.22402E+08         0.35742E+07         0.00000E+00
    0.35742E+07        -0.58298E+08         0.00000E+00
    0.00000E+00         0.00000E+00        -0.17893E+08
 
   -0.20220E+08         0.56035E+07         0.00000E+00
    0.56035E+07        -0.59570E+08         0.00000E+00
    0.00000E+00         0.00000E+00        -0.18759E+08
 
   -0.58669E+08        -0.11615E+07         0.00000E+00
   -0.11615E+07        -0.59953E+08         0.00000E+00
    0.00000E+00         0.00000E+00        -0.15065E+08
 
   -0.52594E+08        -0.19710E+07         0.00000E+00
   -0.19710E+07        -0.59468E+08         0.00000E+00
    0.00000E+00         0.00000E+00        -0.15052E+08
 
   -0.48013E+08        -0.19896E+07         0.00000E+00
   -0.19896E+07        -0.58541E+08         0.00000E+00
    0.00000E+00         0.00000E+00        -0.15033E+08
 
   -0.44519E+08        -0.18214E+07         0.00000E+00
   -0.18214E+07        -0.57504E+08         0.00000E+00
    0.00000E+00         0.00000E+00        -0.15013E+08
 
   -0.41699E+08        -0.15906E+07         0.00000E+00
   -0.15906E+07        -0.56517E+08         0.00000E+00
    0.00000E+00         0.00000E+00        -0.14994E+08
 
   -0.39308E+08        -0.13331E+07         0.00000E+00
   -0.13331E+07        -0.55643E+08         0.00000E+00
    0.00000E+00         0.00000E+00        -0.14976E+08
 
   -0.37186E+08        -0.10594E+07         0.00000E+00
   -0.10594E+07        -0.54916E+08         0.00000E+00
    0.00000E+00         0.00000E+00        -0.14959E+08
 
   -0.35213E+08        -0.77003E+06         0.00000E+00
   -0.77003E+06        -0.54357E+08         0.00000E+00
    0.00000E+00         0.00000E+00        -0.14943E+08
 
   -0.33294E+08        -0.45964E+06         0.00000E+00
   -0.45964E+06        -0.53984E+08         0.00000E+00
    0.00000E+00         0.00000E+00        -0.14928E+08
 
   -0.31341E+08        -0.11731E+06         0.00000E+00
   -0.11731E+06        -0.53817E+08         0.00000E+00
    0.00000E+00         0.00000E+00        -0.14915E+08
 
   -0.29263E+08         0.27546E+06         0.00000E+00
    0.27546E+06        -0.53885E+08         0.00000E+00
    0.00000E+00         0.00000E+00        -0.14903E+08
 
   -0.26955E+08         0.75042E+06         0.00000E+00
    0.75042E+06        -0.54231E+08         0.00000E+00
    0.00000E+00         0.00000E+00        -0.14892E+08
 
   -0.24278E+08         0.13653E+07         0.00000E+00
    0.13653E+07        -0.54923E+08         0.00000E+00
    0.00000E+00         0.00000E+00        -0.14882E+08
 
   -0.21013E+08         0.22429E+07         0.00000E+00
    0.22429E+07        -0.56079E+08         0.00000E+00
    0.00000E+00         0.00000E+00        -0.14874E+08
 
   -0.17752E+08         0.39673E+07         0.00000E+00
    0.39673E+07        -0.57801E+08         0.00000E+00
    0.00000E+00         0.00000E+00        -0.15639E+08
 
   -0.59980E+08        -0.69750E+06         0.00000E+00
   -0.69750E+06        -0.59323E+08         0.00000E+00
    0.00000E+00         0.00000E+00        -0.11868E+08
 
   -0.52678E+08        -0.79911E+06         0.00000E+00
   -0.79911E+06        -0.58070E+08         0.00000E+00
    0.00000E+00         0.00000E+00        -0.11863E+08
 
   -0.47924E+08        -0.73185E+06         0.00000E+00
   -0.73185E+06        -0.56634E+08         0.00000E+00
    0.00000E+00         0.00000E+00        -0.11855E+08
 
   -0.44371E+08        -0.64769E+06         0.00000E+00
   -0.64769E+06        -0.55300E+08         0.00000E+00
    0.00000E+00         0.00000E+00        -0.11848E+08
 
   -0.41529E+08        -0.55602E+06         0.00000E+00
   -0.55602E+06        -0.54123E+08         0.00000E+00
    0.00000E+00         0.00000E+00        -0.11841E+08
 
   -0.39128E+08        -0.46171E+06         0.00000E+00
   -0.46171E+06        -0.53122E+08         0.00000E+00
    0.00000E+00         0.00000E+00        -0.11835E+08
 
   -0.36997E+08        -0.36519E+06         0.00000E+00
   -0.36519E+06        -0.52307E+08         0.00000E+00
    0.00000E+00         0.00000E+00        -0.11829E+08
 
   -0.35013E+08        -0.26519E+06         0.00000E+00
   -0.26519E+06        -0.51684E+08         0.00000E+00
    0.00000E+00         0.00000E+00        -0.11823E+08
 
   -0.33077E+08        -0.15917E+06         0.00000E+00
   -0.15917E+06        -0.51266E+08         0.00000E+00
    0.00000E+00         0.00000E+00        -0.11818E+08
 
   -0.31097E+08        -0.42989E+05         0.00000E+00
   -0.42989E+05        -0.51067E+08         0.00000E+00
    0.00000E+00         0.00000E+00        -0.11814E+08
 
   -0.28976E+08         0.89952E+05         0.00000E+00
    0.89952E+05        -0.51116E+08         0.00000E+00
    0.00000E+00         0.00000E+00        -0.11810E+08
 
   -0.26597E+08         0.25073E+06         0.00000E+00
    0.25073E+06        -0.51458E+08         0.00000E+00
    0.00000E+00         0.00000E+00        -0.11806E+08
 
   -0.23792E+08         0.46075E+06         0.00000E+00
    0.46075E+06        -0.52167E+08         0.00000E+00
    0.00000E+00         0.00000E+00        -0.11802E+08
 
   -0.20297E+08         0.75470E+06         0.00000E+00
    0.75470E+06        -0.53380E+08         0.00000E+00
    0.00000E+00         0.00000E+00        -0.11799E+08
 
   -0.15550E+08         0.15054E+07         0.00000E+00
    0.15054E+07        -0.55608E+08         0.00000E+00
    0.00000E+00         0.00000E+00        -0.12313E+08
 
SCALARS stresss double 
LOOKUP_TABLE default
  -53462404.5279620     
  -53914883.1727795     
  -54726689.0949386     
  -55762061.8690569     
  -56858270.9540360     
  -58038838.3233852     
  -59277281.5146908     
  -60169891.4212259     
  -60902539.5562333     
  -61537619.9838590     
  -62109773.1014364     
  -62643804.4903177     
  -63164050.4995428     
  -63704104.6334463     
  -64351897.2699074     
  -55348371.4065380     
  -55798826.8912898     
  -56068932.1261433     
  -56372320.9276182     
  -56786016.4541151     
  -57460129.0701012     
  -58314361.1178522     
  -59097795.1314789     
  -59775022.8056099     
  -60375717.1910500     
  -60921398.6638000     
  -61429951.6525682     
  -61917997.0140622     
  -62404768.1885441     
  -62874729.0251205     
  -55280307.5421317     
  -55508778.4350521     
  -55668063.4117083     
  -55956391.8193838     
  -56397666.3130308     
  -56942445.0567064     
  -57563060.6659665     
  -58198004.3907659     
  -58793797.6400442     
  -59340183.2670703     
  -59843276.9910339     
  -60311045.2020817     
  -60750541.4803823     
  -61160774.4388866     
  -61528596.5885168     
  -54715789.3373839     
  -54956028.5710116     
  -55218779.5674952     
  -55531102.6883940     
  -55922339.4570923     
  -56386126.9191774     
  -56895181.3511088     
  -57419568.2253785     
  -57932349.3069834     
  -58417318.1703936     
  -58869784.0519978     
  -59289706.8988877     
  -59676240.5847645     
  -60024326.6150097     
  -60321876.6212703     
  -54224098.9053550     
  -54473647.6915550     
  -54753101.1659499     
  -55070576.0096541     
  -55433131.8646409     
  -55838676.1133050     
  -56274285.0843659     
  -56722024.6376478     
  -57165118.6038811     
  -57591051.3438597     
  -57992182.9520853     
  -58363984.8347841     
  -58702155.9329492     
  -59000252.8902122     
  -59248564.0050067     
  -53758591.3438918     
  -54018406.5111086     
  -54300710.3686158     
  -54610180.9982359     
  -54948340.2121539     
  -55312420.0246220     
  -55694857.1124912     
  -56084983.7514894     
  -56471713.8533232     
  -56845540.1340377     
  -57199117.8248947     
  -57526670.4842639     
  -57822763.2197402     
  -58081126.9701686     
  -58294066.7461891     
  -53318799.7804445     
  -53582409.3052322     
  -53863053.7345158     
  -54161785.6087571     
  -54478273.8000281     
  -54809864.3458119     
  -55151475.0246171     
  -55496256.4832101     
  -55836740.9122989     
  -56165863.0537446     
  -56477429.1476540     
  -56765986.8141071     
  -57026339.9031472     
  -57253043.9477829     
  -57440178.5916499     
  -52895615.3194067     
  -53161369.4921676     
  -53438789.4693671     
  -53726874.1821221     
  -54024408.4328905     
  -54329152.7085448     
  -54637605.1035000     
  -54945236.4209743     
  -55246988.4153729     
  -55537778.9005034     
  -55812802.3077600     
  -56067564.3391790     
  -56297734.7530038     
  -56498979.3261476     
  -56666926.1030720     
  -52480272.1903174     
  -52749617.9360470     
  -53024317.6826446     
  -53302737.9328940     
  -53583587.4058115     
  -53865244.5795859     
  -54145468.6842100     
  -54421412.0224989     
  -54689816.2953044     
  -54947255.9587439     
  -55190320.3400733     
  -55415689.7332641     
  -55620131.8223557     
  -55800489.8025028     
  -55953740.0412320     
  -52066212.3990728     
  -52341604.3238506     
  -52614797.1795618     
  -52884617.4296253     
  -53150352.8919910     
  -53411259.7391172     
  -53666290.8289690     
  -53914017.8405660     
  -54152684.3237267     
  -54380317.0087223     
  -54594835.0281954     
  -54794127.1848597     
  -54976102.0350701     
  -55138740.4043432     
  -55280186.5258811     
  -51649322.9346399     
  -51932680.2587256     
  -52205215.7767223     
  -52466936.0153758     
  -52718205.7321033     
  -52959412.3726702     
  -53190749.4616728     
  -53412118.6944126     
  -53623123.8226672     
  -53823118.6297016     
  -54011275.1336764     
  -54186651.9210022     
  -54348259.6126081     
  -54495133.6859248     
  -54626429.6309318     
  -51227577.1129795     
  -51519372.7416641     
  -51790989.5983539     
  -52044056.8146381     
  -52280360.9618625     
  -52501630.6838919     
  -52709381.1299110     
  -52904829.4807684     
  -53088873.3133920     
  -53262113.6505818     
  -53424903.5508965     
  -53577408.5214641     
  -53719673.1115184     
  -53851694.9856567     
  -53973510.9298017     
  -50800597.4279742     
  -51099363.2542192     
  -51368224.7047194     
  -51610690.1137425     
  -51830191.5274806     
  -52029952.1821311     
  -52212883.9625776     
  -52381528.5002870     
  -52538041.8983359     
  -52684214.6532213     
  -52821515.3928424     
  -52951148.3426860     
  -53074117.9585817     
  -53191297.8025931     
  -53303502.9441283     
  -50369257.4209277     
  -50671340.7053268     
  -50933766.9982787     
  -51162066.5651612     
  -51361454.1366841     
  -51536748.4684525     
  -51692310.5868629     
  -51832012.7026861     
  -51959239.9850735     
  -52076920.4658702     
  -52187574.8575817     
  -52293377.5663340     
  -52396221.5824564     
  -52497782.0076775     
  -52599574.7874207     
  -49935344.4858115     
  -50234803.3467909     
  -50485130.1493935     
  -50693957.1105608     
  -50868362.6077588     
  -51014819.3844038     
  -51139162.1756958     
  -51246583.5032121     
  -51341658.6615733     
  -51428395.0115912     
  -51510297.2996908     
  -51590439.7157404     
  -51671536.0970277     
  -51756001.2573063     
  -51845998.2243150     
  -49501274.9756405     
  -49789842.3775824     
  -50020352.9721903     
  -50202593.7619721     
  -50345554.9550162     
  -50457389.5409958     
  -50545401.8282280     
  -50616069.9398141     
  -50675099.9409251     
  -50727503.7143082     
  -50777689.6579014     
  -50829554.6064910     
  -50886566.3806954     
  -50951828.1239899     
  -51028117.6181603     
  -49069847.7940686     
  -49336919.1871608     
  -49537813.8129034     
  -49684524.4379400     
  -49787985.9473123     
  -49858033.3849329     
  -49903406.7429652     
  -49931803.3188216     
  -49949969.8609090     
  -49963820.8099610     
  -49978566.4497254     
  -49998835.4110800     
  -50028778.2936717     
  -50072141.8992557     
  -50132305.5536857     
  -48644023.8323381     
  -48876638.1493656     
  -49036014.1462057     
  -49136419.6206048     
  -49190764.6312279     
  -49210547.6509328     
  -49205876.4767767     
  -49185559.3867275     
  -49157250.2771493     
  -49127624.4541337     
  -49102560.2936638     
  -49087305.1802189     
  -49086610.2428769     
  -49104822.5690569     
  -49145925.7743117     
  -48226721.0600250     
  -48409510.6569353     
  -48513332.2315232     
  -48554835.9074066     
  -48548945.2551573     
  -48508782.3388490     
  -48445710.7057568     
  -48369483.4051146     
  -48288466.2727336     
  -48209897.7113049     
  -48140145.8671092     
  -48084933.1183798     
  -48049509.9965567     
  -48038774.3325211     
  -48057326.0840618     
  -47820616.9571745     
  -47935700.0285037     
  -47967736.6466978     
  -47935929.0208195     
  -47857268.9154113     
  -47746433.3029291     
  -47615865.4011513     
  -47476012.2961708     
  -47335667.0463268     
  -47202354.0644587     
  -47082695.2934446     
  -46982707.2261507     
  -46908017.0389164     
  -46864002.7190429     
  -46855888.0170175     
  -47427950.2085760     
  -47454727.9099513     
  -47396435.2520283     
  -47275093.8285388     
  -47109840.8573452     
  -46916791.2237537     
  -46709192.0332118     
  -46497807.2229835     
  -46291441.3890047     
  -46097511.0133967     
  -45922579.1207087     
  -45772754.3242502     
  -45653898.4416430     
  -45571777.3994162     
  -45532171.1272684     
  -47050310.3790152     
  -46965106.3737427     
  -46795412.7026766     
  -46566488.1142761     
  -46299713.7590801     
  -46012433.9987219     
  -45718261.5135794     
  -45427709.9146945     
  -45148992.0859644     
  -44888852.7213212     
  -44653345.6426189     
  -44448467.9993660     
  -44280340.6337963     
  -44154888.3240579     
  -44078263.7325950     
  -46688393.9205499     
  -46463827.1713036     
  -46158770.3438214     
  -45802365.4761543     
  -45418330.8876147     
  -45024845.6893061     
  -44635176.3199739     
  -44258736.9173209     
  -43902292.5984270     
  -43571126.4280051     
  -43270108.6809976     
  -43004685.6504224     
  -42781724.0688269     
  -42608259.5696430     
  -42488544.0838538     
  -46341677.4073551     
  -45945571.3477722     
  -45477707.7939431     
  -44972094.9078619     
  -44454769.1857423     
  -43943954.6773197     
  -43451388.1865776     
  -42984130.4130147     
  -42546337.6641475     
  -42140791.9761714     
  -41770230.1307567     
  -41438622.7402382     
  -41152915.5209221     
  -40925938.6887697     
  -40765401.4530017     
  -46007895.7697933     
  -45401343.6282360     
  -44738841.3939433     
  -44060672.5042926     
  -43394732.2080341     
  -42757628.5265882     
  -42157578.9434556     
  -41597497.6208693     
  -41077477.4038284     
  -40596577.8594205     
  -40154220.1145226     
  -39751578.2740263     
  -39393153.4178506     
  -39092817.0493246     
  -38975149.5112883     
  -45682007.8366818     
  -44815874.1359214     
  -43921234.3723675     
  -43046469.4372016     
  -42219333.8358940     
  -41451293.3932325     
  -40743741.2426769     
  -40093092.4706435     
  -39493802.8553640     
  -38940008.1199088     
  -38426618.7384780     
  -37950433.8733989     
  -37511678.1927405     
  -37112056.0309520     
  -37116359.6519034     
  -45353917.6167743     
  -44161915.4758272     
  -42991004.7067635     
  -41897996.9424439     
  -40904123.0008967     
  -40008111.6860821     
  -39199680.4381719     
  -38466310.6448981     
  -37795534.0988907     
  -37175727.4535743     
  -36596423.8331755     
  -36048679.6318277     
  -35526308.5378141     
  -35027037.7183345     
  -35092273.6398014     
  -45000694.8013537     
  -43387083.0137894     
  -41890893.2379605     
  -40570980.8646757     
  -39419839.4531503     
  -38410327.3207975     
  -37516181.4002896     
  -36714447.5815837     
  -35985354.0200955     
  -35311463.1635843     
  -34676767.5332609     
  -34065997.9414737     
  -33464058.7719753     
  -32864116.1707484     
  -32849536.2145042     
  -44562609.8609794     
  -42371311.3170910     
  -40529008.3382815     
  -39012309.8380596     
  -37736416.2756984     
  -36642303.4706124     
  -35686905.3598230     
  -34837685.1801211     
  -34068636.2452342     
  -33357526.7393452     
  -32683723.8778899     
  -32026084.9096264     
  -31361166.5221519     
  -30655524.7238522     
  -30397234.8925681     
  -43723604.8432253     
  -40870298.5963016     
  -38804406.5442894     
  -37173084.1826115     
  -35831055.3778337     
  -34694917.2598890     
  -33710729.8557110     
  -32840133.8977303     
  -32053522.2794667     
  -31325957.1954050     
  -30634151.2950057     
  -29953497.3162112     
  -29253641.8795137     
  -28492118.2005668     
  -27823859.5843296     
SCALARS 2waySource double 
LOOKUP_TABLE default
  0.000000000000000E+000
  0.000000000000000E+000
  0.000000000000000E+000
  0.000000000000000E+000
  0.000000000000000E+000
  0.000000000000000E+000
  0.000000000000000E+000
  0.000000000000000E+000
  0.000000000000000E+000
  0.000000000000000E+000
  0.000000000000000E+000
  0.000000000000000E+000
  0.000000000000000E+000
  0.000000000000000E+000
  0.000000000000000E+000
  0.000000000000000E+000
  0.000000000000000E+000
  0.000000000000000E+000
  0.000000000000000E+000
  0.000000000000000E+000
  0.000000000000000E+000
  0.000000000000000E+000
  0.000000000000000E+000
  0.000000000000000E+000
  0.000000000000000E+000
  0.000000000000000E+000
  0.000000000000000E+000
  0.000000000000000E+000
  0.000000000000000E+000
  0.000000000000000E+000
  0.000000000000000E+000
  0.000000000000000E+000
  0.000000000000000E+000
  0.000000000000000E+000
  0.000000000000000E+000
  0.000000000000000E+000
  0.000000000000000E+000
  0.000000000000000E+000
  0.000000000000000E+000
  0.000000000000000E+000
  0.000000000000000E+000
  0.000000000000000E+000
  0.000000000000000E+000
  0.000000000000000E+000
  0.000000000000000E+000
  0.000000000000000E+000
  0.000000000000000E+000
  0.000000000000000E+000
  0.000000000000000E+000
  0.000000000000000E+000
  0.000000000000000E+000
  0.000000000000000E+000
  0.000000000000000E+000
  0.000000000000000E+000
  0.000000000000000E+000
  0.000000000000000E+000
  0.000000000000000E+000
  0.000000000000000E+000
  0.000000000000000E+000
  0.000000000000000E+000
  0.000000000000000E+000
  0.000000000000000E+000
  0.000000000000000E+000
  0.000000000000000E+000
  0.000000000000000E+000
  0.000000000000000E+000
  0.000000000000000E+000
  0.000000000000000E+000
  0.000000000000000E+000
  0.000000000000000E+000
  0.000000000000000E+000
  0.000000000000000E+000
  0.000000000000000E+000
  0.000000000000000E+000
  0.000000000000000E+000
  0.000000000000000E+000
  0.000000000000000E+000
  0.000000000000000E+000
  0.000000000000000E+000
  0.000000000000000E+000
  0.000000000000000E+000
  0.000000000000000E+000
  0.000000000000000E+000
  0.000000000000000E+000
  0.000000000000000E+000
  0.000000000000000E+000
  0.000000000000000E+000
  0.000000000000000E+000
  0.000000000000000E+000
  0.000000000000000E+000
  0.000000000000000E+000
  0.000000000000000E+000
  0.000000000000000E+000
  0.000000000000000E+000
  0.000000000000000E+000
  0.000000000000000E+000
  0.000000000000000E+000
  0.000000000000000E+000
  0.000000000000000E+000
  0.000000000000000E+000
  0.000000000000000E+000
  0.000000000000000E+000
  0.000000000000000E+000
  0.000000000000000E+000
  0.000000000000000E+000
  0.000000000000000E+000
  0.000000000000000E+000
  0.000000000000000E+000
  0.000000000000000E+000
  0.000000000000000E+000
  0.000000000000000E+000
  0.000000000000000E+000
  0.000000000000000E+000
  0.000000000000000E+000
  0.000000000000000E+000
  0.000000000000000E+000
  0.000000000000000E+000
  0.000000000000000E+000
  0.000000000000000E+000
  0.000000000000000E+000
  0.000000000000000E+000
  0.000000000000000E+000
  0.000000000000000E+000
  0.000000000000000E+000
  0.000000000000000E+000
  0.000000000000000E+000
  0.000000000000000E+000
  0.000000000000000E+000
  0.000000000000000E+000
  0.000000000000000E+000
  0.000000000000000E+000
  0.000000000000000E+000
  0.000000000000000E+000
  0.000000000000000E+000
  0.000000000000000E+000
  0.000000000000000E+000
  0.000000000000000E+000
  0.000000000000000E+000
  0.000000000000000E+000
  0.000000000000000E+000
  0.000000000000000E+000
  0.000000000000000E+000
  0.000000000000000E+000
  0.000000000000000E+000
  0.000000000000000E+000
  0.000000000000000E+000
  0.000000000000000E+000
  0.000000000000000E+000
  0.000000000000000E+000
  0.000000000000000E+000
  0.000000000000000E+000
  0.000000000000000E+000
  0.000000000000000E+000
  0.000000000000000E+000
  0.000000000000000E+000
  0.000000000000000E+000
  0.000000000000000E+000
  0.000000000000000E+000
  0.000000000000000E+000
  0.000000000000000E+000
  0.000000000000000E+000
  0.000000000000000E+000
  0.000000000000000E+000
  0.000000000000000E+000
  0.000000000000000E+000
  0.000000000000000E+000
  0.000000000000000E+000
  0.000000000000000E+000
  0.000000000000000E+000
  0.000000000000000E+000
  0.000000000000000E+000
  0.000000000000000E+000
  0.000000000000000E+000
  0.000000000000000E+000
  0.000000000000000E+000
  0.000000000000000E+000
  0.000000000000000E+000
  0.000000000000000E+000
  0.000000000000000E+000
  0.000000000000000E+000
  0.000000000000000E+000
  0.000000000000000E+000
  0.000000000000000E+000
  0.000000000000000E+000
  0.000000000000000E+000
  0.000000000000000E+000
  0.000000000000000E+000
  0.000000000000000E+000
  0.000000000000000E+000
  0.000000000000000E+000
  0.000000000000000E+000
  0.000000000000000E+000
  0.000000000000000E+000
  0.000000000000000E+000
  0.000000000000000E+000
  0.000000000000000E+000
  0.000000000000000E+000
  0.000000000000000E+000
  0.000000000000000E+000
  0.000000000000000E+000
  0.000000000000000E+000
  0.000000000000000E+000
  0.000000000000000E+000
  0.000000000000000E+000
  0.000000000000000E+000
  0.000000000000000E+000
  0.000000000000000E+000
  0.000000000000000E+000
  0.000000000000000E+000
  0.000000000000000E+000
  0.000000000000000E+000
  0.000000000000000E+000
  0.000000000000000E+000
  0.000000000000000E+000
  0.000000000000000E+000
  0.000000000000000E+000
  0.000000000000000E+000
  0.000000000000000E+000
  0.000000000000000E+000
  0.000000000000000E+000
  0.000000000000000E+000
  0.000000000000000E+000
  0.000000000000000E+000
  0.000000000000000E+000
  0.000000000000000E+000
  0.000000000000000E+000
  0.000000000000000E+000
  0.000000000000000E+000
  0.000000000000000E+000
  0.000000000000000E+000
  0.000000000000000E+000
  0.000000000000000E+000
  0.000000000000000E+000
  0.000000000000000E+000
  0.000000000000000E+000
  0.000000000000000E+000
  0.000000000000000E+000
  0.000000000000000E+000
  0.000000000000000E+000
  0.000000000000000E+000
  0.000000000000000E+000
  0.000000000000000E+000
  0.000000000000000E+000
  0.000000000000000E+000
  0.000000000000000E+000
  0.000000000000000E+000
  0.000000000000000E+000
  0.000000000000000E+000
  0.000000000000000E+000
  0.000000000000000E+000
  0.000000000000000E+000
  0.000000000000000E+000
  0.000000000000000E+000
  0.000000000000000E+000
  0.000000000000000E+000
  0.000000000000000E+000
  0.000000000000000E+000
  0.000000000000000E+000
  0.000000000000000E+000
  0.000000000000000E+000
  0.000000000000000E+000
  0.000000000000000E+000
  0.000000000000000E+000
  0.000000000000000E+000
  0.000000000000000E+000
  0.000000000000000E+000
  0.000000000000000E+000
  0.000000000000000E+000
  0.000000000000000E+000
  0.000000000000000E+000
  0.000000000000000E+000
  0.000000000000000E+000
  0.000000000000000E+000
  0.000000000000000E+000
  0.000000000000000E+000
  0.000000000000000E+000
  0.000000000000000E+000
  0.000000000000000E+000
  0.000000000000000E+000
  0.000000000000000E+000
  0.000000000000000E+000
  0.000000000000000E+000
  0.000000000000000E+000
  0.000000000000000E+000
  0.000000000000000E+000
  0.000000000000000E+000
  0.000000000000000E+000
  0.000000000000000E+000
  0.000000000000000E+000
  0.000000000000000E+000
  0.000000000000000E+000
  0.000000000000000E+000
  0.000000000000000E+000
  0.000000000000000E+000
  0.000000000000000E+000
  0.000000000000000E+000
  0.000000000000000E+000
  0.000000000000000E+000
  0.000000000000000E+000
  0.000000000000000E+000
  0.000000000000000E+000
  0.000000000000000E+000
  0.000000000000000E+000
  0.000000000000000E+000
  0.000000000000000E+000
  0.000000000000000E+000
  0.000000000000000E+000
  0.000000000000000E+000
  0.000000000000000E+000
  0.000000000000000E+000
  0.000000000000000E+000
  0.000000000000000E+000
  0.000000000000000E+000
  0.000000000000000E+000
  0.000000000000000E+000
  0.000000000000000E+000
  0.000000000000000E+000
  0.000000000000000E+000
  0.000000000000000E+000
  0.000000000000000E+000
  0.000000000000000E+000
  0.000000000000000E+000
  0.000000000000000E+000
  0.000000000000000E+000
  0.000000000000000E+000
  0.000000000000000E+000
  0.000000000000000E+000
  0.000000000000000E+000
  0.000000000000000E+000
  0.000000000000000E+000
  0.000000000000000E+000
  0.000000000000000E+000
  0.000000000000000E+000
  0.000000000000000E+000
  0.000000000000000E+000
  0.000000000000000E+000
  0.000000000000000E+000
  0.000000000000000E+000
  0.000000000000000E+000
  0.000000000000000E+000
  0.000000000000000E+000
  0.000000000000000E+000
  0.000000000000000E+000
  0.000000000000000E+000
  0.000000000000000E+000
  0.000000000000000E+000
  0.000000000000000E+000
  0.000000000000000E+000
  0.000000000000000E+000
  0.000000000000000E+000
  0.000000000000000E+000
  0.000000000000000E+000
  0.000000000000000E+000
  0.000000000000000E+000
  0.000000000000000E+000
  0.000000000000000E+000
  0.000000000000000E+000
  0.000000000000000E+000
  0.000000000000000E+000
  0.000000000000000E+000
  0.000000000000000E+000
  0.000000000000000E+000
  0.000000000000000E+000
  0.000000000000000E+000
  0.000000000000000E+000
  0.000000000000000E+000
  0.000000000000000E+000
  0.000000000000000E+000
  0.000000000000000E+000
  0.000000000000000E+000
  0.000000000000000E+000
  0.000000000000000E+000
  0.000000000000000E+000
  0.000000000000000E+000
  0.000000000000000E+000
  0.000000000000000E+000
  0.000000000000000E+000
  0.000000000000000E+000
  0.000000000000000E+000
  0.000000000000000E+000
  0.000000000000000E+000
  0.000000000000000E+000
  0.000000000000000E+000
  0.000000000000000E+000
  0.000000000000000E+000
  0.000000000000000E+000
  0.000000000000000E+000
  0.000000000000000E+000
  0.000000000000000E+000
  0.000000000000000E+000
  0.000000000000000E+000
  0.000000000000000E+000
  0.000000000000000E+000
  0.000000000000000E+000
  0.000000000000000E+000
  0.000000000000000E+000
  0.000000000000000E+000
  0.000000000000000E+000
  0.000000000000000E+000
  0.000000000000000E+000
  0.000000000000000E+000
  0.000000000000000E+000
  0.000000000000000E+000
  0.000000000000000E+000
  0.000000000000000E+000
  0.000000000000000E+000
  0.000000000000000E+000
  0.000000000000000E+000
  0.000000000000000E+000
  0.000000000000000E+000
  0.000000000000000E+000
  0.000000000000000E+000
  0.000000000000000E+000
  0.000000000000000E+000
  0.000000000000000E+000
  0.000000000000000E+000
  0.000000000000000E+000
  0.000000000000000E+000
  0.000000000000000E+000
  0.000000000000000E+000
  0.000000000000000E+000
  0.000000000000000E+000
  0.000000000000000E+000
  0.000000000000000E+000
  0.000000000000000E+000
  0.000000000000000E+000
  0.000000000000000E+000
  0.000000000000000E+000
  0.000000000000000E+000
  0.000000000000000E+000
  0.000000000000000E+000
  0.000000000000000E+000
  0.000000000000000E+000
  0.000000000000000E+000
  0.000000000000000E+000
  0.000000000000000E+000
  0.000000000000000E+000
  0.000000000000000E+000
  0.000000000000000E+000
  0.000000000000000E+000
  0.000000000000000E+000
  0.000000000000000E+000
  0.000000000000000E+000
  0.000000000000000E+000
  0.000000000000000E+000
  0.000000000000000E+000
  0.000000000000000E+000
  0.000000000000000E+000
  0.000000000000000E+000
  0.000000000000000E+000
SCALARS elementIsPlast double 
LOOKUP_TABLE default
   1.00000000000000     
   1.00000000000000     
   1.00000000000000     
   1.00000000000000     
   1.00000000000000     
  0.000000000000000E+000
  0.000000000000000E+000
  0.000000000000000E+000
  0.000000000000000E+000
  0.000000000000000E+000
  0.000000000000000E+000
  0.000000000000000E+000
  0.000000000000000E+000
  0.000000000000000E+000
  0.000000000000000E+000
   1.00000000000000     
   1.00000000000000     
   1.00000000000000     
  0.000000000000000E+000
  0.000000000000000E+000
  0.000000000000000E+000
  0.000000000000000E+000
  0.000000000000000E+000
  0.000000000000000E+000
  0.000000000000000E+000
  0.000000000000000E+000
  0.000000000000000E+000
  0.000000000000000E+000
  0.000000000000000E+000
  0.000000000000000E+000
   1.00000000000000     
  0.000000000000000E+000
  0.000000000000000E+000
  0.000000000000000E+000
  0.000000000000000E+000
  0.000000000000000E+000
  0.000000000000000E+000
  0.000000000000000E+000
  0.000000000000000E+000
  0.000000000000000E+000
  0.000000000000000E+000
  0.000000000000000E+000
  0.000000000000000E+000
  0.000000000000000E+000
  0.000000000000000E+000
  0.000000000000000E+000
  0.000000000000000E+000
  0.000000000000000E+000
  0.000000000000000E+000
  0.000000000000000E+000
  0.000000000000000E+000
  0.000000000000000E+000
  0.000000000000000E+000
  0.000000000000000E+000
  0.000000000000000E+000
  0.000000000000000E+000
  0.000000000000000E+000
  0.000000000000000E+000
  0.000000000000000E+000
  0.000000000000000E+000
  0.000000000000000E+000
  0.000000000000000E+000
  0.000000000000000E+000
  0.000000000000000E+000
  0.000000000000000E+000
  0.000000000000000E+000
  0.000000000000000E+000
  0.000000000000000E+000
  0.000000000000000E+000
  0.000000000000000E+000
  0.000000000000000E+000
  0.000000000000000E+000
  0.000000000000000E+000
  0.000000000000000E+000
  0.000000000000000E+000
  0.000000000000000E+000
  0.000000000000000E+000
  0.000000000000000E+000
  0.000000000000000E+000
  0.000000000000000E+000
  0.000000000000000E+000
  0.000000000000000E+000
  0.000000000000000E+000
  0.000000000000000E+000
  0.000000000000000E+000
  0.000000000000000E+000
  0.000000000000000E+000
  0.000000000000000E+000
  0.000000000000000E+000
  0.000000000000000E+000
  0.000000000000000E+000
  0.000000000000000E+000
  0.000000000000000E+000
  0.000000000000000E+000
  0.000000000000000E+000
  0.000000000000000E+000
  0.000000000000000E+000
  0.000000000000000E+000
  0.000000000000000E+000
  0.000000000000000E+000
  0.000000000000000E+000
  0.000000000000000E+000
  0.000000000000000E+000
  0.000000000000000E+000
  0.000000000000000E+000
  0.000000000000000E+000
  0.000000000000000E+000
  0.000000000000000E+000
  0.000000000000000E+000
  0.000000000000000E+000
  0.000000000000000E+000
  0.000000000000000E+000
  0.000000000000000E+000
  0.000000000000000E+000
  0.000000000000000E+000
  0.000000000000000E+000
  0.000000000000000E+000
  0.000000000000000E+000
  0.000000000000000E+000
  0.000000000000000E+000
  0.000000000000000E+000
  0.000000000000000E+000
  0.000000000000000E+000
  0.000000000000000E+000
  0.000000000000000E+000
  0.000000000000000E+000
  0.000000000000000E+000
  0.000000000000000E+000
  0.000000000000000E+000
  0.000000000000000E+000
  0.000000000000000E+000
  0.000000000000000E+000
  0.000000000000000E+000
  0.000000000000000E+000
  0.000000000000000E+000
  0.000000000000000E+000
  0.000000000000000E+000
  0.000000000000000E+000
  0.000000000000000E+000
  0.000000000000000E+000
  0.000000000000000E+000
  0.000000000000000E+000
  0.000000000000000E+000
  0.000000000000000E+000
  0.000000000000000E+000
  0.000000000000000E+000
  0.000000000000000E+000
  0.000000000000000E+000
  0.000000000000000E+000
  0.000000000000000E+000
  0.000000000000000E+000
  0.000000000000000E+000
  0.000000000000000E+000
  0.000000000000000E+000
  0.000000000000000E+000
  0.000000000000000E+000
  0.000000000000000E+000
  0.000000000000000E+000
  0.000000000000000E+000
  0.000000000000000E+000
  0.000000000000000E+000
  0.000000000000000E+000
  0.000000000000000E+000
  0.000000000000000E+000
  0.000000000000000E+000
  0.000000000000000E+000
  0.000000000000000E+000
  0.000000000000000E+000
  0.000000000000000E+000
  0.000000000000000E+000
  0.000000000000000E+000
  0.000000000000000E+000
  0.000000000000000E+000
  0.000000000000000E+000
  0.000000000000000E+000
  0.000000000000000E+000
  0.000000000000000E+000
  0.000000000000000E+000
  0.000000000000000E+000
  0.000000000000000E+000
  0.000000000000000E+000
  0.000000000000000E+000
  0.000000000000000E+000
  0.000000000000000E+000
  0.000000000000000E+000
  0.000000000000000E+000
  0.000000000000000E+000
  0.000000000000000E+000
  0.000000000000000E+000
  0.000000000000000E+000
  0.000000000000000E+000
  0.000000000000000E+000
  0.000000000000000E+000
  0.000000000000000E+000
  0.000000000000000E+000
  0.000000000000000E+000
  0.000000000000000E+000
  0.000000000000000E+000
  0.000000000000000E+000
  0.000000000000000E+000
  0.000000000000000E+000
  0.000000000000000E+000
  0.000000000000000E+000
  0.000000000000000E+000
  0.000000000000000E+000
  0.000000000000000E+000
  0.000000000000000E+000
  0.000000000000000E+000
  0.000000000000000E+000
  0.000000000000000E+000
  0.000000000000000E+000
  0.000000000000000E+000
  0.000000000000000E+000
  0.000000000000000E+000
  0.000000000000000E+000
  0.000000000000000E+000
  0.000000000000000E+000
  0.000000000000000E+000
  0.000000000000000E+000
  0.000000000000000E+000
  0.000000000000000E+000
  0.000000000000000E+000
  0.000000000000000E+000
  0.000000000000000E+000
  0.000000000000000E+000
  0.000000000000000E+000
  0.000000000000000E+000
  0.000000000000000E+000
  0.000000000000000E+000
  0.000000000000000E+000
  0.000000000000000E+000
  0.000000000000000E+000
  0.000000000000000E+000
  0.000000000000000E+000
  0.000000000000000E+000
  0.000000000000000E+000
  0.000000000000000E+000
  0.000000000000000E+000
  0.000000000000000E+000
  0.000000000000000E+000
  0.000000000000000E+000
  0.000000000000000E+000
  0.000000000000000E+000
  0.000000000000000E+000
  0.000000000000000E+000
  0.000000000000000E+000
  0.000000000000000E+000
  0.000000000000000E+000
  0.000000000000000E+000
  0.000000000000000E+000
  0.000000000000000E+000
  0.000000000000000E+000
  0.000000000000000E+000
  0.000000000000000E+000
  0.000000000000000E+000
  0.000000000000000E+000
  0.000000000000000E+000
  0.000000000000000E+000
  0.000000000000000E+000
  0.000000000000000E+000
  0.000000000000000E+000
  0.000000000000000E+000
  0.000000000000000E+000
  0.000000000000000E+000
  0.000000000000000E+000
  0.000000000000000E+000
  0.000000000000000E+000
  0.000000000000000E+000
  0.000000000000000E+000
  0.000000000000000E+000
  0.000000000000000E+000
  0.000000000000000E+000
  0.000000000000000E+000
  0.000000000000000E+000
  0.000000000000000E+000
  0.000000000000000E+000
  0.000000000000000E+000
  0.000000000000000E+000
  0.000000000000000E+000
  0.000000000000000E+000
  0.000000000000000E+000
  0.000000000000000E+000
  0.000000000000000E+000
  0.000000000000000E+000
  0.000000000000000E+000
  0.000000000000000E+000
  0.000000000000000E+000
  0.000000000000000E+000
  0.000000000000000E+000
  0.000000000000000E+000
  0.000000000000000E+000
  0.000000000000000E+000
  0.000000000000000E+000
  0.000000000000000E+000
  0.000000000000000E+000
  0.000000000000000E+000
  0.000000000000000E+000
  0.000000000000000E+000
  0.000000000000000E+000
  0.000000000000000E+000
  0.000000000000000E+000
  0.000000000000000E+000
  0.000000000000000E+000
  0.000000000000000E+000
  0.000000000000000E+000
  0.000000000000000E+000
  0.000000000000000E+000
  0.000000000000000E+000
  0.000000000000000E+000
  0.000000000000000E+000
  0.000000000000000E+000
  0.000000000000000E+000
  0.000000000000000E+000
  0.000000000000000E+000
  0.000000000000000E+000
  0.000000000000000E+000
  0.000000000000000E+000
  0.000000000000000E+000
  0.000000000000000E+000
  0.000000000000000E+000
  0.000000000000000E+000
  0.000000000000000E+000
  0.000000000000000E+000
  0.000000000000000E+000
  0.000000000000000E+000
  0.000000000000000E+000
  0.000000000000000E+000
  0.000000000000000E+000
  0.000000000000000E+000
  0.000000000000000E+000
  0.000000000000000E+000
  0.000000000000000E+000
  0.000000000000000E+000
  0.000000000000000E+000
  0.000000000000000E+000
  0.000000000000000E+000
  0.000000000000000E+000
  0.000000000000000E+000
  0.000000000000000E+000
  0.000000000000000E+000
  0.000000000000000E+000
  0.000000000000000E+000
  0.000000000000000E+000
  0.000000000000000E+000
  0.000000000000000E+000
  0.000000000000000E+000
  0.000000000000000E+000
  0.000000000000000E+000
  0.000000000000000E+000
  0.000000000000000E+000
  0.000000000000000E+000
  0.000000000000000E+000
  0.000000000000000E+000
  0.000000000000000E+000
  0.000000000000000E+000
  0.000000000000000E+000
  0.000000000000000E+000
  0.000000000000000E+000
  0.000000000000000E+000
  0.000000000000000E+000
  0.000000000000000E+000
  0.000000000000000E+000
  0.000000000000000E+000
  0.000000000000000E+000
  0.000000000000000E+000
  0.000000000000000E+000
  0.000000000000000E+000
  0.000000000000000E+000
  0.000000000000000E+000
  0.000000000000000E+000
  0.000000000000000E+000
  0.000000000000000E+000
  0.000000000000000E+000
  0.000000000000000E+000
   1.00000000000000     
  0.000000000000000E+000
  0.000000000000000E+000
  0.000000000000000E+000
  0.000000000000000E+000
  0.000000000000000E+000
  0.000000000000000E+000
  0.000000000000000E+000
  0.000000000000000E+000
  0.000000000000000E+000
  0.000000000000000E+000
  0.000000000000000E+000
  0.000000000000000E+000
  0.000000000000000E+000
  0.000000000000000E+000
   1.00000000000000     
  0.000000000000000E+000
  0.000000000000000E+000
  0.000000000000000E+000
  0.000000000000000E+000
  0.000000000000000E+000
  0.000000000000000E+000
  0.000000000000000E+000
  0.000000000000000E+000
  0.000000000000000E+000
  0.000000000000000E+000
  0.000000000000000E+000
  0.000000000000000E+000
  0.000000000000000E+000
  0.000000000000000E+000
   1.00000000000000     
  0.000000000000000E+000
  0.000000000000000E+000
  0.000000000000000E+000
  0.000000000000000E+000
  0.000000000000000E+000
  0.000000000000000E+000
  0.000000000000000E+000
  0.000000000000000E+000
  0.000000000000000E+000
  0.000000000000000E+000
  0.000000000000000E+000
  0.000000000000000E+000
  0.000000000000000E+000
  0.000000000000000E+000
   1.00000000000000     
  0.000000000000000E+000
  0.000000000000000E+000
  0.000000000000000E+000
  0.000000000000000E+000
  0.000000000000000E+000
  0.000000000000000E+000
  0.000000000000000E+000
  0.000000000000000E+000
  0.000000000000000E+000
  0.000000000000000E+000
  0.000000000000000E+000
  0.000000000000000E+000
  0.000000000000000E+000
  0.000000000000000E+000
   1.00000000000000     
  0.000000000000000E+000
  0.000000000000000E+000
  0.000000000000000E+000
  0.000000000000000E+000
  0.000000000000000E+000
  0.000000000000000E+000
  0.000000000000000E+000
  0.000000000000000E+000
  0.000000000000000E+000
  0.000000000000000E+000
  0.000000000000000E+000
  0.000000000000000E+000
  0.000000000000000E+000
  0.000000000000000E+000
   1.00000000000000     
SCALARS poroL double 
LOOKUP_TABLE default
  0.267240117021824     
  0.265315049549802     
  0.263044722465601     
  0.260713178636802     
  0.258630661915792     
  0.257143090862073     
  0.256231838725858     
  0.255579037225593     
  0.255045146628538     
  0.254583275573735     
  0.254167346773814     
  0.253778622568420     
  0.253398624342541     
  0.253001708698016     
  0.252520726584222     
  0.259457298536285     
  0.258208636191747     
  0.257442197464714     
  0.257031731653013     
  0.256727125274735     
  0.256229368849812     
  0.255598032132089     
  0.255020395061377     
  0.254522331421115     
  0.254081175649224     
  0.253680494378259     
  0.253306603118858     
  0.252946714952825     
  0.252585950233240     
  0.252235621193288     
  0.256592182353917     
  0.256411797646001     
  0.256292061558614     
  0.256077341771079     
  0.255749339938102     
  0.255344655793089     
  0.254883831372292     
  0.254412833330716     
  0.253971450346365     
  0.253567009912871     
  0.253194609374143     
  0.252847991636121     
  0.252521596970762     
  0.252215970503410     
  0.251941017693500     
  0.255810652434259     
  0.255630309750312     
  0.255433305508419     
  0.255199632566946     
  0.254907297817314     
  0.254560976276951     
  0.254181062301939     
  0.253789962928521     
  0.253407778144186     
  0.253046475639809     
  0.252709355630317     
  0.252396245952235     
  0.252107629246764     
  0.251847256365541     
  0.251624331944209     
  0.255049057118700     
  0.254861760936671     
  0.254651989606419     
  0.254413742997310     
  0.254141759709253     
  0.253837620947006     
  0.253511042814546     
  0.253175497024370     
  0.252843551622732     
  0.252524527642063     
  0.252224054640253     
  0.251945431888823     
  0.251691833092362     
  0.251468124419336     
  0.251281737243222     
  0.254325909246229     
  0.254130796215404     
  0.253918590030870     
  0.253685816103269     
  0.253431368606619     
  0.253157368085672     
  0.252869544942745     
  0.252575958976672     
  0.252284964744249     
  0.252003703309763     
  0.251737671967248     
  0.251491192347851     
  0.251268358861161     
  0.251073944532190     
  0.250913853934723     
  0.253631450372381     
  0.253433380611858     
  0.253222182585172     
  0.252997087398096     
  0.252758380010778     
  0.252508108746271     
  0.252250160921959     
  0.251989756269764     
  0.251732572097720     
  0.251483969528306     
  0.251248643998796     
  0.251030734215881     
  0.250834201087066     
  0.250663217550536     
  0.250522339889372     
  0.252960871154638     
  0.252761113132112     
  0.252552161009885     
  0.252334778008673     
  0.252109914514071     
  0.251879317027501     
  0.251645701411431     
  0.251412566845278     
  0.251183811598770     
  0.250963346879353     
  0.250754869838287     
  0.250561841274966     
  0.250387601794152     
  0.250235501090131     
  0.250108919834157     
  0.252308010271138     
  0.252105494728820     
  0.251898439147984     
  0.251688071425640     
  0.251475401897577     
  0.251261723629444     
  0.251048821718449     
  0.250838954262038     
  0.250634695160371     
  0.250438743728093     
  0.250253783607949     
  0.250082424242550     
  0.249927203286976     
  0.249790593818245     
  0.249674955663836     
  0.251664426638304     
  0.251457305119136     
  0.251251221157568     
  0.251047048837655     
  0.250845369303767     
  0.250646831036244     
  0.250452343147989     
  0.250263122641060     
  0.250080643901841     
  0.249906546101027     
  0.249742544380580     
  0.249590366958907     
  0.249451713487724     
  0.249328210984397     
  0.249221339000258     
  0.251019668251100     
  0.250806471045341     
  0.250600664894044     
  0.250402235105778     
  0.250210965761501     
  0.250026676804121     
  0.249849372496977     
  0.249679301452679     
  0.249516948896363     
  0.249362989963621     
  0.249218229638037     
  0.249083544128628     
  0.248959825241913     
  0.248847919240674     
  0.248748548346837     
  0.250361929580025     
  0.250142251311604     
  0.249936825017943     
  0.249744424906913     
  0.249563788617577     
  0.249393759236862     
  0.249233384122834     
  0.249081962077131     
  0.248939045210160     
  0.248804409225953     
  0.248678006398562     
  0.248559911180136     
  0.248450262132741     
  0.248349198658565     
  0.248256788857779     
  0.249678693931192     
  0.249453566771159     
  0.249249770966377     
  0.249064691217189     
  0.248895864120000     
  0.248741052971281     
  0.248598302751706     
  0.248465965109641     
  0.248342693308468     
  0.248227413275979     
  0.248119278939648     
  0.248017618917220     
  0.247921878929709     
  0.247831561656894     
  0.247746164337210     
  0.248957270214836     
  0.248729348417749     
  0.248529786936881     
  0.248354492605304     
  0.248199715090303     
  0.248062077208648     
  0.247938595090363     
  0.247826679291194     
  0.247724114985969     
  0.247629024319195     
  0.247539816427084     
  0.247455130938197     
  0.247373779742758     
  0.247294690426285     
  0.247216853687827     
  0.248185214426788     
  0.247958854502154     
  0.247767594627305     
  0.247605827419655     
  0.247468475788369     
  0.247350995889204     
  0.247249370955059     
  0.247160089478469     
  0.247080106513549     
  0.247006790933040     
  0.246937863817473     
  0.246871333869580     
  0.246805435342645     
  0.246738573046901     
  0.246669278004106     
  0.247350654544580     
  0.247131944445215     
  0.246954572669187     
  0.246811407023569     
  0.246696032240802     
  0.246602738079228     
  0.246526493272287     
  0.246462901461888     
  0.246408140022776     
  0.246358886359011     
  0.246312238305304     
  0.246265635787096     
  0.246216790364364     
  0.246163628337768     
  0.246104252042539     
  0.246442543863562     
  0.246239315209413     
  0.246082966693474     
  0.245964837825134     
  0.245877178920854     
  0.245813133656921     
  0.245766697008789     
  0.245732647539921     
  0.245706458445097     
  0.245684195554007     
  0.245662412137615     
  0.245638050008405     
  0.245608355046914     
  0.245570813773849     
  0.245523116706217     
  0.245450867064595     
  0.245272713449491     
  0.245146095571768     
  0.245060813428395     
  0.245007791787511     
  0.244979064739658     
  0.244967718535266     
  0.244967795112730     
  0.244974166157215     
  0.244982392046341     
  0.244988580956723     
  0.244989261328532     
  0.244981276945875     
  0.244961711541488     
  0.244927848942857     
  0.244366820085768     
  0.244225140059489     
  0.244138566528023     
  0.244095326397356     
  0.244085024610553     
  0.244098637663564     
  0.244128438355636     
  0.244167859489173     
  0.244211315014657     
  0.244254002999200     
  0.244291715042683     
  0.244320670667010     
  0.244337387126340     
  0.244338585994689     
  0.244321142804046     
  0.243182981194074     
  0.243091066033368     
  0.243056517891266     
  0.243065916351798     
  0.243107541705033     
  0.243171384183890     
  0.243249041227317     
  0.243333520583519     
  0.243418982175463     
  0.243500457744084     
  0.243573588642236     
  0.243634413866773     
  0.243679213501546     
  0.243704402225972     
  0.243706449298957     
  0.241893487807986     
  0.241866682680983     
  0.241897916408849     
  0.241971979922129     
  0.242075807084999     
  0.242198504329608     
  0.242331198260351     
  0.242466740857242     
  0.242599330518712     
  0.242724108010767     
  0.242836781909591     
  0.242933350820772     
  0.243009959320380     
  0.243062785584080     
  0.243087950671886     
  0.240494233258647     
  0.240550218870596     
  0.240662950361219     
  0.240815181403413     
  0.240992458795982     
  0.241183166806213     
  0.241378275052109     
  0.241570878699414     
  0.241755636397611     
  0.241928191250849     
  0.242084632287671     
  0.242221054812721     
  0.242333444354375     
  0.242417915797030     
  0.242470385089052     
  0.238983102756554     
  0.239142380028555     
  0.239354587083609     
  0.239600024806605     
  0.239862808006484     
  0.240130883959618     
  0.240395566117225     
  0.240650787405146     
  0.240892265976784     
  0.241116700925261     
  0.241321035280005     
  0.241501768539162     
  0.241654357893491     
  0.241774150377821     
  0.241858564387382     
  0.237360285863714     
  0.237647012723081     
  0.237979418219822     
  0.238334683548153     
  0.238695512647415     
  0.239049970289651     
  0.239390543252121     
  0.239712883015911     
  0.240014585353447     
  0.240294140533385     
  0.240550020560128     
  0.240779791950615     
  0.240978869769369     
  0.241138350318437     
  0.241253153395413     
  0.235628747728296     
  0.236072216588751     
  0.236549024997307     
  0.237032240497612     
  0.237503470073392     
  0.237952060013573     
  0.238373073173670     
  0.238765150357076     
  0.239128801062358     
  0.239465181025080     
  0.239775141557583     
  0.240058271396047     
  0.240311800386966     
  0.240526158081814     
  0.240650870233123     
  0.233795093637298     
  0.234432397961039     
  0.235082342089125     
  0.235712545114615     
  0.236304910148490     
  0.236852561482619     
  0.237355496696315     
  0.237817035467323     
  0.238241739093103     
  0.238634303269695     
  0.238998829701004     
  0.239338079963904     
  0.239652428525866     
  0.239941485415596     
  0.240065115008029     
  0.231871371004404     
  0.232752680576293     
  0.233609900524934     
  0.234404886328588     
  0.235124369849597     
  0.235770721270348     
  0.236352389382929     
  0.236879152801228     
  0.237360579835265     
  0.237805534523368     
  0.238222016505162     
  0.238616961890513     
  0.238995436244922     
  0.239359951938796     
  0.239511930112974     
  0.229881013836797     
  0.231078989643702     
  0.232182006805157     
  0.233150581062602     
  0.233992439315908     
  0.234728814733729     
  0.235379789231413     
  0.235962743149790     
  0.236492571836041     
  0.236982385453431     
  0.237444231500386     
  0.237889661480692     
  0.238330233407421     
  0.238771635611314     
  0.239009543489865     
  0.227877011355255     
  0.229510540060770     
  0.230877955712648     
  0.232000593430078     
  0.232943069371750     
  0.233749995450613     
  0.234453787792553     
  0.235078873800575     
  0.235644746625680     
  0.236168058665244     
  0.236664271681487     
  0.237149256844218     
  0.237640658507930     
  0.238163715257655     
  0.238554869531239     
  0.226108304957426     
  0.228244201084958     
  0.229788133415379     
  0.231006224571076     
  0.232007618575579     
  0.232854932515406     
  0.233588631580597     
  0.234237477065977     
  0.234823659442503     
  0.235365866525961     
  0.235881551561799     
  0.236389163369429     
  0.236911467672330     
  0.237480271197729     
  0.238113963771961     
