# vtk DataFile Version 3.0
vtk output
ASCII
DATASET UNSTRUCTURED_GRID
POINTS       496 double 
  0.00000000E+00  3.00000000E+02  0.00000000E+00
  0.00000000E+00  2.80000000E+02  0.00000000E+00
  0.00000000E+00  2.60000000E+02  0.00000000E+00
  0.00000000E+00  2.40000000E+02  0.00000000E+00
  0.00000000E+00  2.20000000E+02  0.00000000E+00
  0.00000000E+00  2.00000000E+02  0.00000000E+00
  0.00000000E+00  1.80000000E+02  0.00000000E+00
  0.00000000E+00  1.60000000E+02  0.00000000E+00
  0.00000000E+00  1.40000000E+02  0.00000000E+00
  0.00000000E+00  1.20000000E+02  0.00000000E+00
  0.00000000E+00  1.00000000E+02  0.00000000E+00
  0.00000000E+00  8.00000000E+01  0.00000000E+00
  0.00000000E+00  6.00000000E+01  0.00000000E+00
  0.00000000E+00  4.00000000E+01  0.00000000E+00
  0.00000000E+00  2.00000000E+01  0.00000000E+00
  0.00000000E+00  4.99600361E-14  0.00000000E+00
  2.00000000E+01  3.00000000E+02  0.00000000E+00
  2.00000000E+01  2.80000000E+02  0.00000000E+00
  2.00000000E+01  2.60000000E+02  0.00000000E+00
  2.00000000E+01  2.40000000E+02  0.00000000E+00
  2.00000000E+01  2.20000000E+02  0.00000000E+00
  2.00000000E+01  2.00000000E+02  0.00000000E+00
  2.00000000E+01  1.80000000E+02  0.00000000E+00
  2.00000000E+01  1.60000000E+02  0.00000000E+00
  2.00000000E+01  1.40000000E+02  0.00000000E+00
  2.00000000E+01  1.20000000E+02  0.00000000E+00
  2.00000000E+01  1.00000000E+02  0.00000000E+00
  2.00000000E+01  8.00000000E+01  0.00000000E+00
  2.00000000E+01  6.00000000E+01  0.00000000E+00
  2.00000000E+01  4.00000000E+01  0.00000000E+00
  2.00000000E+01  2.00000000E+01  0.00000000E+00
  2.00000000E+01  4.99600361E-14  0.00000000E+00
  4.00000000E+01  3.00000000E+02  0.00000000E+00
  4.00000000E+01  2.80000000E+02  0.00000000E+00
  4.00000000E+01  2.60000000E+02  0.00000000E+00
  4.00000000E+01  2.40000000E+02  0.00000000E+00
  4.00000000E+01  2.20000000E+02  0.00000000E+00
  4.00000000E+01  2.00000000E+02  0.00000000E+00
  4.00000000E+01  1.80000000E+02  0.00000000E+00
  4.00000000E+01  1.60000000E+02  0.00000000E+00
  4.00000000E+01  1.40000000E+02  0.00000000E+00
  4.00000000E+01  1.20000000E+02  0.00000000E+00
  4.00000000E+01  1.00000000E+02  0.00000000E+00
  4.00000000E+01  8.00000000E+01  0.00000000E+00
  4.00000000E+01  6.00000000E+01  0.00000000E+00
  4.00000000E+01  4.00000000E+01  0.00000000E+00
  4.00000000E+01  2.00000000E+01  0.00000000E+00
  4.00000000E+01  4.99600361E-14  0.00000000E+00
  6.00000000E+01  3.00000000E+02  0.00000000E+00
  6.00000000E+01  2.80000000E+02  0.00000000E+00
  6.00000000E+01  2.60000000E+02  0.00000000E+00
  6.00000000E+01  2.40000000E+02  0.00000000E+00
  6.00000000E+01  2.20000000E+02  0.00000000E+00
  6.00000000E+01  2.00000000E+02  0.00000000E+00
  6.00000000E+01  1.80000000E+02  0.00000000E+00
  6.00000000E+01  1.60000000E+02  0.00000000E+00
  6.00000000E+01  1.40000000E+02  0.00000000E+00
  6.00000000E+01  1.20000000E+02  0.00000000E+00
  6.00000000E+01  1.00000000E+02  0.00000000E+00
  6.00000000E+01  8.00000000E+01  0.00000000E+00
  6.00000000E+01  6.00000000E+01  0.00000000E+00
  6.00000000E+01  4.00000000E+01  0.00000000E+00
  6.00000000E+01  2.00000000E+01  0.00000000E+00
  6.00000000E+01  4.99600361E-14  0.00000000E+00
  8.00000000E+01  3.00000000E+02  0.00000000E+00
  8.00000000E+01  2.80000000E+02  0.00000000E+00
  8.00000000E+01  2.60000000E+02  0.00000000E+00
  8.00000000E+01  2.40000000E+02  0.00000000E+00
  8.00000000E+01  2.20000000E+02  0.00000000E+00
  8.00000000E+01  2.00000000E+02  0.00000000E+00
  8.00000000E+01  1.80000000E+02  0.00000000E+00
  8.00000000E+01  1.60000000E+02  0.00000000E+00
  8.00000000E+01  1.40000000E+02  0.00000000E+00
  8.00000000E+01  1.20000000E+02  0.00000000E+00
  8.00000000E+01  1.00000000E+02  0.00000000E+00
  8.00000000E+01  8.00000000E+01  0.00000000E+00
  8.00000000E+01  6.00000000E+01  0.00000000E+00
  8.00000000E+01  4.00000000E+01  0.00000000E+00
  8.00000000E+01  2.00000000E+01  0.00000000E+00
  8.00000000E+01  4.99600361E-14  0.00000000E+00
  1.00000000E+02  3.00000000E+02  0.00000000E+00
  1.00000000E+02  2.80000000E+02  0.00000000E+00
  1.00000000E+02  2.60000000E+02  0.00000000E+00
  1.00000000E+02  2.40000000E+02  0.00000000E+00
  1.00000000E+02  2.20000000E+02  0.00000000E+00
  1.00000000E+02  2.00000000E+02  0.00000000E+00
  1.00000000E+02  1.80000000E+02  0.00000000E+00
  1.00000000E+02  1.60000000E+02  0.00000000E+00
  1.00000000E+02  1.40000000E+02  0.00000000E+00
  1.00000000E+02  1.20000000E+02  0.00000000E+00
  1.00000000E+02  1.00000000E+02  0.00000000E+00
  1.00000000E+02  8.00000000E+01  0.00000000E+00
  1.00000000E+02  6.00000000E+01  0.00000000E+00
  1.00000000E+02  4.00000000E+01  0.00000000E+00
  1.00000000E+02  2.00000000E+01  0.00000000E+00
  1.00000000E+02  4.99600361E-14  0.00000000E+00
  1.20000000E+02  3.00000000E+02  0.00000000E+00
  1.20000000E+02  2.80000000E+02  0.00000000E+00
  1.20000000E+02  2.60000000E+02  0.00000000E+00
  1.20000000E+02  2.40000000E+02  0.00000000E+00
  1.20000000E+02  2.20000000E+02  0.00000000E+00
  1.20000000E+02  2.00000000E+02  0.00000000E+00
  1.20000000E+02  1.80000000E+02  0.00000000E+00
  1.20000000E+02  1.60000000E+02  0.00000000E+00
  1.20000000E+02  1.40000000E+02  0.00000000E+00
  1.20000000E+02  1.20000000E+02  0.00000000E+00
  1.20000000E+02  1.00000000E+02  0.00000000E+00
  1.20000000E+02  8.00000000E+01  0.00000000E+00
  1.20000000E+02  6.00000000E+01  0.00000000E+00
  1.20000000E+02  4.00000000E+01  0.00000000E+00
  1.20000000E+02  2.00000000E+01  0.00000000E+00
  1.20000000E+02  4.99600361E-14  0.00000000E+00
  1.40000000E+02  3.00000000E+02  0.00000000E+00
  1.40000000E+02  2.80000000E+02  0.00000000E+00
  1.40000000E+02  2.60000000E+02  0.00000000E+00
  1.40000000E+02  2.40000000E+02  0.00000000E+00
  1.40000000E+02  2.20000000E+02  0.00000000E+00
  1.40000000E+02  2.00000000E+02  0.00000000E+00
  1.40000000E+02  1.80000000E+02  0.00000000E+00
  1.40000000E+02  1.60000000E+02  0.00000000E+00
  1.40000000E+02  1.40000000E+02  0.00000000E+00
  1.40000000E+02  1.20000000E+02  0.00000000E+00
  1.40000000E+02  1.00000000E+02  0.00000000E+00
  1.40000000E+02  8.00000000E+01  0.00000000E+00
  1.40000000E+02  6.00000000E+01  0.00000000E+00
  1.40000000E+02  4.00000000E+01  0.00000000E+00
  1.40000000E+02  2.00000000E+01  0.00000000E+00
  1.40000000E+02  4.99600361E-14  0.00000000E+00
  1.60000000E+02  3.00000000E+02  0.00000000E+00
  1.60000000E+02  2.80000000E+02  0.00000000E+00
  1.60000000E+02  2.60000000E+02  0.00000000E+00
  1.60000000E+02  2.40000000E+02  0.00000000E+00
  1.60000000E+02  2.20000000E+02  0.00000000E+00
  1.60000000E+02  2.00000000E+02  0.00000000E+00
  1.60000000E+02  1.80000000E+02  0.00000000E+00
  1.60000000E+02  1.60000000E+02  0.00000000E+00
  1.60000000E+02  1.40000000E+02  0.00000000E+00
  1.60000000E+02  1.20000000E+02  0.00000000E+00
  1.60000000E+02  1.00000000E+02  0.00000000E+00
  1.60000000E+02  8.00000000E+01  0.00000000E+00
  1.60000000E+02  6.00000000E+01  0.00000000E+00
  1.60000000E+02  4.00000000E+01  0.00000000E+00
  1.60000000E+02  2.00000000E+01  0.00000000E+00
  1.60000000E+02  4.99600361E-14  0.00000000E+00
  1.80000000E+02  3.00000000E+02  0.00000000E+00
  1.80000000E+02  2.80000000E+02  0.00000000E+00
  1.80000000E+02  2.60000000E+02  0.00000000E+00
  1.80000000E+02  2.40000000E+02  0.00000000E+00
  1.80000000E+02  2.20000000E+02  0.00000000E+00
  1.80000000E+02  2.00000000E+02  0.00000000E+00
  1.80000000E+02  1.80000000E+02  0.00000000E+00
  1.80000000E+02  1.60000000E+02  0.00000000E+00
  1.80000000E+02  1.40000000E+02  0.00000000E+00
  1.80000000E+02  1.20000000E+02  0.00000000E+00
  1.80000000E+02  1.00000000E+02  0.00000000E+00
  1.80000000E+02  8.00000000E+01  0.00000000E+00
  1.80000000E+02  6.00000000E+01  0.00000000E+00
  1.80000000E+02  4.00000000E+01  0.00000000E+00
  1.80000000E+02  2.00000000E+01  0.00000000E+00
  1.80000000E+02  4.99600361E-14  0.00000000E+00
  2.00000000E+02  3.00000000E+02  0.00000000E+00
  2.00000000E+02  2.80000000E+02  0.00000000E+00
  2.00000000E+02  2.60000000E+02  0.00000000E+00
  2.00000000E+02  2.40000000E+02  0.00000000E+00
  2.00000000E+02  2.20000000E+02  0.00000000E+00
  2.00000000E+02  2.00000000E+02  0.00000000E+00
  2.00000000E+02  1.80000000E+02  0.00000000E+00
  2.00000000E+02  1.60000000E+02  0.00000000E+00
  2.00000000E+02  1.40000000E+02  0.00000000E+00
  2.00000000E+02  1.20000000E+02  0.00000000E+00
  2.00000000E+02  1.00000000E+02  0.00000000E+00
  2.00000000E+02  8.00000000E+01  0.00000000E+00
  2.00000000E+02  6.00000000E+01  0.00000000E+00
  2.00000000E+02  4.00000000E+01  0.00000000E+00
  2.00000000E+02  2.00000000E+01  0.00000000E+00
  2.00000000E+02  4.99600361E-14  0.00000000E+00
  2.20000000E+02  3.00000000E+02  0.00000000E+00
  2.20000000E+02  2.80000000E+02  0.00000000E+00
  2.20000000E+02  2.60000000E+02  0.00000000E+00
  2.20000000E+02  2.40000000E+02  0.00000000E+00
  2.20000000E+02  2.20000000E+02  0.00000000E+00
  2.20000000E+02  2.00000000E+02  0.00000000E+00
  2.20000000E+02  1.80000000E+02  0.00000000E+00
  2.20000000E+02  1.60000000E+02  0.00000000E+00
  2.20000000E+02  1.40000000E+02  0.00000000E+00
  2.20000000E+02  1.20000000E+02  0.00000000E+00
  2.20000000E+02  1.00000000E+02  0.00000000E+00
  2.20000000E+02  8.00000000E+01  0.00000000E+00
  2.20000000E+02  6.00000000E+01  0.00000000E+00
  2.20000000E+02  4.00000000E+01  0.00000000E+00
  2.20000000E+02  2.00000000E+01  0.00000000E+00
  2.20000000E+02  4.99600361E-14  0.00000000E+00
  2.40000000E+02  3.00000000E+02  0.00000000E+00
  2.40000000E+02  2.80000000E+02  0.00000000E+00
  2.40000000E+02  2.60000000E+02  0.00000000E+00
  2.40000000E+02  2.40000000E+02  0.00000000E+00
  2.40000000E+02  2.20000000E+02  0.00000000E+00
  2.40000000E+02  2.00000000E+02  0.00000000E+00
  2.40000000E+02  1.80000000E+02  0.00000000E+00
  2.40000000E+02  1.60000000E+02  0.00000000E+00
  2.40000000E+02  1.40000000E+02  0.00000000E+00
  2.40000000E+02  1.20000000E+02  0.00000000E+00
  2.40000000E+02  1.00000000E+02  0.00000000E+00
  2.40000000E+02  8.00000000E+01  0.00000000E+00
  2.40000000E+02  6.00000000E+01  0.00000000E+00
  2.40000000E+02  4.00000000E+01  0.00000000E+00
  2.40000000E+02  2.00000000E+01  0.00000000E+00
  2.40000000E+02  4.99600361E-14  0.00000000E+00
  2.60000000E+02  3.00000000E+02  0.00000000E+00
  2.60000000E+02  2.80000000E+02  0.00000000E+00
  2.60000000E+02  2.60000000E+02  0.00000000E+00
  2.60000000E+02  2.40000000E+02  0.00000000E+00
  2.60000000E+02  2.20000000E+02  0.00000000E+00
  2.60000000E+02  2.00000000E+02  0.00000000E+00
  2.60000000E+02  1.80000000E+02  0.00000000E+00
  2.60000000E+02  1.60000000E+02  0.00000000E+00
  2.60000000E+02  1.40000000E+02  0.00000000E+00
  2.60000000E+02  1.20000000E+02  0.00000000E+00
  2.60000000E+02  1.00000000E+02  0.00000000E+00
  2.60000000E+02  8.00000000E+01  0.00000000E+00
  2.60000000E+02  6.00000000E+01  0.00000000E+00
  2.60000000E+02  4.00000000E+01  0.00000000E+00
  2.60000000E+02  2.00000000E+01  0.00000000E+00
  2.60000000E+02  4.99600361E-14  0.00000000E+00
  2.80000000E+02  3.00000000E+02  0.00000000E+00
  2.80000000E+02  2.80000000E+02  0.00000000E+00
  2.80000000E+02  2.60000000E+02  0.00000000E+00
  2.80000000E+02  2.40000000E+02  0.00000000E+00
  2.80000000E+02  2.20000000E+02  0.00000000E+00
  2.80000000E+02  2.00000000E+02  0.00000000E+00
  2.80000000E+02  1.80000000E+02  0.00000000E+00
  2.80000000E+02  1.60000000E+02  0.00000000E+00
  2.80000000E+02  1.40000000E+02  0.00000000E+00
  2.80000000E+02  1.20000000E+02  0.00000000E+00
  2.80000000E+02  1.00000000E+02  0.00000000E+00
  2.80000000E+02  8.00000000E+01  0.00000000E+00
  2.80000000E+02  6.00000000E+01  0.00000000E+00
  2.80000000E+02  4.00000000E+01  0.00000000E+00
  2.80000000E+02  2.00000000E+01  0.00000000E+00
  2.80000000E+02  4.99600361E-14  0.00000000E+00
  3.00000000E+02  3.00000000E+02  0.00000000E+00
  3.00000000E+02  2.80000000E+02  0.00000000E+00
  3.00000000E+02  2.60000000E+02  0.00000000E+00
  3.00000000E+02  2.40000000E+02  0.00000000E+00
  3.00000000E+02  2.20000000E+02  0.00000000E+00
  3.00000000E+02  2.00000000E+02  0.00000000E+00
  3.00000000E+02  1.80000000E+02  0.00000000E+00
  3.00000000E+02  1.60000000E+02  0.00000000E+00
  3.00000000E+02  1.40000000E+02  0.00000000E+00
  3.00000000E+02  1.20000000E+02  0.00000000E+00
  3.00000000E+02  1.00000000E+02  0.00000000E+00
  3.00000000E+02  8.00000000E+01  0.00000000E+00
  3.00000000E+02  6.00000000E+01  0.00000000E+00
  3.00000000E+02  4.00000000E+01  0.00000000E+00
  3.00000000E+02  2.00000000E+01  0.00000000E+00
  3.00000000E+02  4.99600361E-14  0.00000000E+00
  3.20000000E+02  3.00000000E+02  0.00000000E+00
  3.20000000E+02  2.80000000E+02  0.00000000E+00
  3.20000000E+02  2.60000000E+02  0.00000000E+00
  3.20000000E+02  2.40000000E+02  0.00000000E+00
  3.20000000E+02  2.20000000E+02  0.00000000E+00
  3.20000000E+02  2.00000000E+02  0.00000000E+00
  3.20000000E+02  1.80000000E+02  0.00000000E+00
  3.20000000E+02  1.60000000E+02  0.00000000E+00
  3.20000000E+02  1.40000000E+02  0.00000000E+00
  3.20000000E+02  1.20000000E+02  0.00000000E+00
  3.20000000E+02  1.00000000E+02  0.00000000E+00
  3.20000000E+02  8.00000000E+01  0.00000000E+00
  3.20000000E+02  6.00000000E+01  0.00000000E+00
  3.20000000E+02  4.00000000E+01  0.00000000E+00
  3.20000000E+02  2.00000000E+01  0.00000000E+00
  3.20000000E+02  4.99600361E-14  0.00000000E+00
  3.40000000E+02  3.00000000E+02  0.00000000E+00
  3.40000000E+02  2.80000000E+02  0.00000000E+00
  3.40000000E+02  2.60000000E+02  0.00000000E+00
  3.40000000E+02  2.40000000E+02  0.00000000E+00
  3.40000000E+02  2.20000000E+02  0.00000000E+00
  3.40000000E+02  2.00000000E+02  0.00000000E+00
  3.40000000E+02  1.80000000E+02  0.00000000E+00
  3.40000000E+02  1.60000000E+02  0.00000000E+00
  3.40000000E+02  1.40000000E+02  0.00000000E+00
  3.40000000E+02  1.20000000E+02  0.00000000E+00
  3.40000000E+02  1.00000000E+02  0.00000000E+00
  3.40000000E+02  8.00000000E+01  0.00000000E+00
  3.40000000E+02  6.00000000E+01  0.00000000E+00
  3.40000000E+02  4.00000000E+01  0.00000000E+00
  3.40000000E+02  2.00000000E+01  0.00000000E+00
  3.40000000E+02  4.99600361E-14  0.00000000E+00
  3.60000000E+02  3.00000000E+02  0.00000000E+00
  3.60000000E+02  2.80000000E+02  0.00000000E+00
  3.60000000E+02  2.60000000E+02  0.00000000E+00
  3.60000000E+02  2.40000000E+02  0.00000000E+00
  3.60000000E+02  2.20000000E+02  0.00000000E+00
  3.60000000E+02  2.00000000E+02  0.00000000E+00
  3.60000000E+02  1.80000000E+02  0.00000000E+00
  3.60000000E+02  1.60000000E+02  0.00000000E+00
  3.60000000E+02  1.40000000E+02  0.00000000E+00
  3.60000000E+02  1.20000000E+02  0.00000000E+00
  3.60000000E+02  1.00000000E+02  0.00000000E+00
  3.60000000E+02  8.00000000E+01  0.00000000E+00
  3.60000000E+02  6.00000000E+01  0.00000000E+00
  3.60000000E+02  4.00000000E+01  0.00000000E+00
  3.60000000E+02  2.00000000E+01  0.00000000E+00
  3.60000000E+02  4.99600361E-14  0.00000000E+00
  3.80000000E+02  3.00000000E+02  0.00000000E+00
  3.80000000E+02  2.80000000E+02  0.00000000E+00
  3.80000000E+02  2.60000000E+02  0.00000000E+00
  3.80000000E+02  2.40000000E+02  0.00000000E+00
  3.80000000E+02  2.20000000E+02  0.00000000E+00
  3.80000000E+02  2.00000000E+02  0.00000000E+00
  3.80000000E+02  1.80000000E+02  0.00000000E+00
  3.80000000E+02  1.60000000E+02  0.00000000E+00
  3.80000000E+02  1.40000000E+02  0.00000000E+00
  3.80000000E+02  1.20000000E+02  0.00000000E+00
  3.80000000E+02  1.00000000E+02  0.00000000E+00
  3.80000000E+02  8.00000000E+01  0.00000000E+00
  3.80000000E+02  6.00000000E+01  0.00000000E+00
  3.80000000E+02  4.00000000E+01  0.00000000E+00
  3.80000000E+02  2.00000000E+01  0.00000000E+00
  3.80000000E+02  4.99600361E-14  0.00000000E+00
  4.00000000E+02  3.00000000E+02  0.00000000E+00
  4.00000000E+02  2.80000000E+02  0.00000000E+00
  4.00000000E+02  2.60000000E+02  0.00000000E+00
  4.00000000E+02  2.40000000E+02  0.00000000E+00
  4.00000000E+02  2.20000000E+02  0.00000000E+00
  4.00000000E+02  2.00000000E+02  0.00000000E+00
  4.00000000E+02  1.80000000E+02  0.00000000E+00
  4.00000000E+02  1.60000000E+02  0.00000000E+00
  4.00000000E+02  1.40000000E+02  0.00000000E+00
  4.00000000E+02  1.20000000E+02  0.00000000E+00
  4.00000000E+02  1.00000000E+02  0.00000000E+00
  4.00000000E+02  8.00000000E+01  0.00000000E+00
  4.00000000E+02  6.00000000E+01  0.00000000E+00
  4.00000000E+02  4.00000000E+01  0.00000000E+00
  4.00000000E+02  2.00000000E+01  0.00000000E+00
  4.00000000E+02  4.99600361E-14  0.00000000E+00
  4.20000000E+02  3.00000000E+02  0.00000000E+00
  4.20000000E+02  2.80000000E+02  0.00000000E+00
  4.20000000E+02  2.60000000E+02  0.00000000E+00
  4.20000000E+02  2.40000000E+02  0.00000000E+00
  4.20000000E+02  2.20000000E+02  0.00000000E+00
  4.20000000E+02  2.00000000E+02  0.00000000E+00
  4.20000000E+02  1.80000000E+02  0.00000000E+00
  4.20000000E+02  1.60000000E+02  0.00000000E+00
  4.20000000E+02  1.40000000E+02  0.00000000E+00
  4.20000000E+02  1.20000000E+02  0.00000000E+00
  4.20000000E+02  1.00000000E+02  0.00000000E+00
  4.20000000E+02  8.00000000E+01  0.00000000E+00
  4.20000000E+02  6.00000000E+01  0.00000000E+00
  4.20000000E+02  4.00000000E+01  0.00000000E+00
  4.20000000E+02  2.00000000E+01  0.00000000E+00
  4.20000000E+02  4.99600361E-14  0.00000000E+00
  4.40000000E+02  3.00000000E+02  0.00000000E+00
  4.40000000E+02  2.80000000E+02  0.00000000E+00
  4.40000000E+02  2.60000000E+02  0.00000000E+00
  4.40000000E+02  2.40000000E+02  0.00000000E+00
  4.40000000E+02  2.20000000E+02  0.00000000E+00
  4.40000000E+02  2.00000000E+02  0.00000000E+00
  4.40000000E+02  1.80000000E+02  0.00000000E+00
  4.40000000E+02  1.60000000E+02  0.00000000E+00
  4.40000000E+02  1.40000000E+02  0.00000000E+00
  4.40000000E+02  1.20000000E+02  0.00000000E+00
  4.40000000E+02  1.00000000E+02  0.00000000E+00
  4.40000000E+02  8.00000000E+01  0.00000000E+00
  4.40000000E+02  6.00000000E+01  0.00000000E+00
  4.40000000E+02  4.00000000E+01  0.00000000E+00
  4.40000000E+02  2.00000000E+01  0.00000000E+00
  4.40000000E+02  4.99600361E-14  0.00000000E+00
  4.60000000E+02  3.00000000E+02  0.00000000E+00
  4.60000000E+02  2.80000000E+02  0.00000000E+00
  4.60000000E+02  2.60000000E+02  0.00000000E+00
  4.60000000E+02  2.40000000E+02  0.00000000E+00
  4.60000000E+02  2.20000000E+02  0.00000000E+00
  4.60000000E+02  2.00000000E+02  0.00000000E+00
  4.60000000E+02  1.80000000E+02  0.00000000E+00
  4.60000000E+02  1.60000000E+02  0.00000000E+00
  4.60000000E+02  1.40000000E+02  0.00000000E+00
  4.60000000E+02  1.20000000E+02  0.00000000E+00
  4.60000000E+02  1.00000000E+02  0.00000000E+00
  4.60000000E+02  8.00000000E+01  0.00000000E+00
  4.60000000E+02  6.00000000E+01  0.00000000E+00
  4.60000000E+02  4.00000000E+01  0.00000000E+00
  4.60000000E+02  2.00000000E+01  0.00000000E+00
  4.60000000E+02  4.99600361E-14  0.00000000E+00
  4.80000000E+02  3.00000000E+02  0.00000000E+00
  4.80000000E+02  2.80000000E+02  0.00000000E+00
  4.80000000E+02  2.60000000E+02  0.00000000E+00
  4.80000000E+02  2.40000000E+02  0.00000000E+00
  4.80000000E+02  2.20000000E+02  0.00000000E+00
  4.80000000E+02  2.00000000E+02  0.00000000E+00
  4.80000000E+02  1.80000000E+02  0.00000000E+00
  4.80000000E+02  1.60000000E+02  0.00000000E+00
  4.80000000E+02  1.40000000E+02  0.00000000E+00
  4.80000000E+02  1.20000000E+02  0.00000000E+00
  4.80000000E+02  1.00000000E+02  0.00000000E+00
  4.80000000E+02  8.00000000E+01  0.00000000E+00
  4.80000000E+02  6.00000000E+01  0.00000000E+00
  4.80000000E+02  4.00000000E+01  0.00000000E+00
  4.80000000E+02  2.00000000E+01  0.00000000E+00
  4.80000000E+02  4.99600361E-14  0.00000000E+00
  5.00000000E+02  3.00000000E+02  0.00000000E+00
  5.00000000E+02  2.80000000E+02  0.00000000E+00
  5.00000000E+02  2.60000000E+02  0.00000000E+00
  5.00000000E+02  2.40000000E+02  0.00000000E+00
  5.00000000E+02  2.20000000E+02  0.00000000E+00
  5.00000000E+02  2.00000000E+02  0.00000000E+00
  5.00000000E+02  1.80000000E+02  0.00000000E+00
  5.00000000E+02  1.60000000E+02  0.00000000E+00
  5.00000000E+02  1.40000000E+02  0.00000000E+00
  5.00000000E+02  1.20000000E+02  0.00000000E+00
  5.00000000E+02  1.00000000E+02  0.00000000E+00
  5.00000000E+02  8.00000000E+01  0.00000000E+00
  5.00000000E+02  6.00000000E+01  0.00000000E+00
  5.00000000E+02  4.00000000E+01  0.00000000E+00
  5.00000000E+02  2.00000000E+01  0.00000000E+00
  5.00000000E+02  4.99600361E-14  0.00000000E+00
  5.20000000E+02  3.00000000E+02  0.00000000E+00
  5.20000000E+02  2.80000000E+02  0.00000000E+00
  5.20000000E+02  2.60000000E+02  0.00000000E+00
  5.20000000E+02  2.40000000E+02  0.00000000E+00
  5.20000000E+02  2.20000000E+02  0.00000000E+00
  5.20000000E+02  2.00000000E+02  0.00000000E+00
  5.20000000E+02  1.80000000E+02  0.00000000E+00
  5.20000000E+02  1.60000000E+02  0.00000000E+00
  5.20000000E+02  1.40000000E+02  0.00000000E+00
  5.20000000E+02  1.20000000E+02  0.00000000E+00
  5.20000000E+02  1.00000000E+02  0.00000000E+00
  5.20000000E+02  8.00000000E+01  0.00000000E+00
  5.20000000E+02  6.00000000E+01  0.00000000E+00
  5.20000000E+02  4.00000000E+01  0.00000000E+00
  5.20000000E+02  2.00000000E+01  0.00000000E+00
  5.20000000E+02  4.99600361E-14  0.00000000E+00
  5.40000000E+02  3.00000000E+02  0.00000000E+00
  5.40000000E+02  2.80000000E+02  0.00000000E+00
  5.40000000E+02  2.60000000E+02  0.00000000E+00
  5.40000000E+02  2.40000000E+02  0.00000000E+00
  5.40000000E+02  2.20000000E+02  0.00000000E+00
  5.40000000E+02  2.00000000E+02  0.00000000E+00
  5.40000000E+02  1.80000000E+02  0.00000000E+00
  5.40000000E+02  1.60000000E+02  0.00000000E+00
  5.40000000E+02  1.40000000E+02  0.00000000E+00
  5.40000000E+02  1.20000000E+02  0.00000000E+00
  5.40000000E+02  1.00000000E+02  0.00000000E+00
  5.40000000E+02  8.00000000E+01  0.00000000E+00
  5.40000000E+02  6.00000000E+01  0.00000000E+00
  5.40000000E+02  4.00000000E+01  0.00000000E+00
  5.40000000E+02  2.00000000E+01  0.00000000E+00
  5.40000000E+02  4.99600361E-14  0.00000000E+00
  5.60000000E+02  3.00000000E+02  0.00000000E+00
  5.60000000E+02  2.80000000E+02  0.00000000E+00
  5.60000000E+02  2.60000000E+02  0.00000000E+00
  5.60000000E+02  2.40000000E+02  0.00000000E+00
  5.60000000E+02  2.20000000E+02  0.00000000E+00
  5.60000000E+02  2.00000000E+02  0.00000000E+00
  5.60000000E+02  1.80000000E+02  0.00000000E+00
  5.60000000E+02  1.60000000E+02  0.00000000E+00
  5.60000000E+02  1.40000000E+02  0.00000000E+00
  5.60000000E+02  1.20000000E+02  0.00000000E+00
  5.60000000E+02  1.00000000E+02  0.00000000E+00
  5.60000000E+02  8.00000000E+01  0.00000000E+00
  5.60000000E+02  6.00000000E+01  0.00000000E+00
  5.60000000E+02  4.00000000E+01  0.00000000E+00
  5.60000000E+02  2.00000000E+01  0.00000000E+00
  5.60000000E+02  4.99600361E-14  0.00000000E+00
  5.80000000E+02  3.00000000E+02  0.00000000E+00
  5.80000000E+02  2.80000000E+02  0.00000000E+00
  5.80000000E+02  2.60000000E+02  0.00000000E+00
  5.80000000E+02  2.40000000E+02  0.00000000E+00
  5.80000000E+02  2.20000000E+02  0.00000000E+00
  5.80000000E+02  2.00000000E+02  0.00000000E+00
  5.80000000E+02  1.80000000E+02  0.00000000E+00
  5.80000000E+02  1.60000000E+02  0.00000000E+00
  5.80000000E+02  1.40000000E+02  0.00000000E+00
  5.80000000E+02  1.20000000E+02  0.00000000E+00
  5.80000000E+02  1.00000000E+02  0.00000000E+00
  5.80000000E+02  8.00000000E+01  0.00000000E+00
  5.80000000E+02  6.00000000E+01  0.00000000E+00
  5.80000000E+02  4.00000000E+01  0.00000000E+00
  5.80000000E+02  2.00000000E+01  0.00000000E+00
  5.80000000E+02  4.99600361E-14  0.00000000E+00
  6.00000000E+02  3.00000000E+02  0.00000000E+00
  6.00000000E+02  2.80000000E+02  0.00000000E+00
  6.00000000E+02  2.60000000E+02  0.00000000E+00
  6.00000000E+02  2.40000000E+02  0.00000000E+00
  6.00000000E+02  2.20000000E+02  0.00000000E+00
  6.00000000E+02  2.00000000E+02  0.00000000E+00
  6.00000000E+02  1.80000000E+02  0.00000000E+00
  6.00000000E+02  1.60000000E+02  0.00000000E+00
  6.00000000E+02  1.40000000E+02  0.00000000E+00
  6.00000000E+02  1.20000000E+02  0.00000000E+00
  6.00000000E+02  1.00000000E+02  0.00000000E+00
  6.00000000E+02  8.00000000E+01  0.00000000E+00
  6.00000000E+02  6.00000000E+01  0.00000000E+00
  6.00000000E+02  4.00000000E+01  0.00000000E+00
  6.00000000E+02  2.00000000E+01  0.00000000E+00
  6.00000000E+02  4.99600361E-14  0.00000000E+00
CELLS       450      2250
         4           0           1          17          16
         4           1           2          18          17
         4           2           3          19          18
         4           3           4          20          19
         4           4           5          21          20
         4           5           6          22          21
         4           6           7          23          22
         4           7           8          24          23
         4           8           9          25          24
         4           9          10          26          25
         4          10          11          27          26
         4          11          12          28          27
         4          12          13          29          28
         4          13          14          30          29
         4          14          15          31          30
         4          16          17          33          32
         4          17          18          34          33
         4          18          19          35          34
         4          19          20          36          35
         4          20          21          37          36
         4          21          22          38          37
         4          22          23          39          38
         4          23          24          40          39
         4          24          25          41          40
         4          25          26          42          41
         4          26          27          43          42
         4          27          28          44          43
         4          28          29          45          44
         4          29          30          46          45
         4          30          31          47          46
         4          32          33          49          48
         4          33          34          50          49
         4          34          35          51          50
         4          35          36          52          51
         4          36          37          53          52
         4          37          38          54          53
         4          38          39          55          54
         4          39          40          56          55
         4          40          41          57          56
         4          41          42          58          57
         4          42          43          59          58
         4          43          44          60          59
         4          44          45          61          60
         4          45          46          62          61
         4          46          47          63          62
         4          48          49          65          64
         4          49          50          66          65
         4          50          51          67          66
         4          51          52          68          67
         4          52          53          69          68
         4          53          54          70          69
         4          54          55          71          70
         4          55          56          72          71
         4          56          57          73          72
         4          57          58          74          73
         4          58          59          75          74
         4          59          60          76          75
         4          60          61          77          76
         4          61          62          78          77
         4          62          63          79          78
         4          64          65          81          80
         4          65          66          82          81
         4          66          67          83          82
         4          67          68          84          83
         4          68          69          85          84
         4          69          70          86          85
         4          70          71          87          86
         4          71          72          88          87
         4          72          73          89          88
         4          73          74          90          89
         4          74          75          91          90
         4          75          76          92          91
         4          76          77          93          92
         4          77          78          94          93
         4          78          79          95          94
         4          80          81          97          96
         4          81          82          98          97
         4          82          83          99          98
         4          83          84         100          99
         4          84          85         101         100
         4          85          86         102         101
         4          86          87         103         102
         4          87          88         104         103
         4          88          89         105         104
         4          89          90         106         105
         4          90          91         107         106
         4          91          92         108         107
         4          92          93         109         108
         4          93          94         110         109
         4          94          95         111         110
         4          96          97         113         112
         4          97          98         114         113
         4          98          99         115         114
         4          99         100         116         115
         4         100         101         117         116
         4         101         102         118         117
         4         102         103         119         118
         4         103         104         120         119
         4         104         105         121         120
         4         105         106         122         121
         4         106         107         123         122
         4         107         108         124         123
         4         108         109         125         124
         4         109         110         126         125
         4         110         111         127         126
         4         112         113         129         128
         4         113         114         130         129
         4         114         115         131         130
         4         115         116         132         131
         4         116         117         133         132
         4         117         118         134         133
         4         118         119         135         134
         4         119         120         136         135
         4         120         121         137         136
         4         121         122         138         137
         4         122         123         139         138
         4         123         124         140         139
         4         124         125         141         140
         4         125         126         142         141
         4         126         127         143         142
         4         128         129         145         144
         4         129         130         146         145
         4         130         131         147         146
         4         131         132         148         147
         4         132         133         149         148
         4         133         134         150         149
         4         134         135         151         150
         4         135         136         152         151
         4         136         137         153         152
         4         137         138         154         153
         4         138         139         155         154
         4         139         140         156         155
         4         140         141         157         156
         4         141         142         158         157
         4         142         143         159         158
         4         144         145         161         160
         4         145         146         162         161
         4         146         147         163         162
         4         147         148         164         163
         4         148         149         165         164
         4         149         150         166         165
         4         150         151         167         166
         4         151         152         168         167
         4         152         153         169         168
         4         153         154         170         169
         4         154         155         171         170
         4         155         156         172         171
         4         156         157         173         172
         4         157         158         174         173
         4         158         159         175         174
         4         160         161         177         176
         4         161         162         178         177
         4         162         163         179         178
         4         163         164         180         179
         4         164         165         181         180
         4         165         166         182         181
         4         166         167         183         182
         4         167         168         184         183
         4         168         169         185         184
         4         169         170         186         185
         4         170         171         187         186
         4         171         172         188         187
         4         172         173         189         188
         4         173         174         190         189
         4         174         175         191         190
         4         176         177         193         192
         4         177         178         194         193
         4         178         179         195         194
         4         179         180         196         195
         4         180         181         197         196
         4         181         182         198         197
         4         182         183         199         198
         4         183         184         200         199
         4         184         185         201         200
         4         185         186         202         201
         4         186         187         203         202
         4         187         188         204         203
         4         188         189         205         204
         4         189         190         206         205
         4         190         191         207         206
         4         192         193         209         208
         4         193         194         210         209
         4         194         195         211         210
         4         195         196         212         211
         4         196         197         213         212
         4         197         198         214         213
         4         198         199         215         214
         4         199         200         216         215
         4         200         201         217         216
         4         201         202         218         217
         4         202         203         219         218
         4         203         204         220         219
         4         204         205         221         220
         4         205         206         222         221
         4         206         207         223         222
         4         208         209         225         224
         4         209         210         226         225
         4         210         211         227         226
         4         211         212         228         227
         4         212         213         229         228
         4         213         214         230         229
         4         214         215         231         230
         4         215         216         232         231
         4         216         217         233         232
         4         217         218         234         233
         4         218         219         235         234
         4         219         220         236         235
         4         220         221         237         236
         4         221         222         238         237
         4         222         223         239         238
         4         224         225         241         240
         4         225         226         242         241
         4         226         227         243         242
         4         227         228         244         243
         4         228         229         245         244
         4         229         230         246         245
         4         230         231         247         246
         4         231         232         248         247
         4         232         233         249         248
         4         233         234         250         249
         4         234         235         251         250
         4         235         236         252         251
         4         236         237         253         252
         4         237         238         254         253
         4         238         239         255         254
         4         240         241         257         256
         4         241         242         258         257
         4         242         243         259         258
         4         243         244         260         259
         4         244         245         261         260
         4         245         246         262         261
         4         246         247         263         262
         4         247         248         264         263
         4         248         249         265         264
         4         249         250         266         265
         4         250         251         267         266
         4         251         252         268         267
         4         252         253         269         268
         4         253         254         270         269
         4         254         255         271         270
         4         256         257         273         272
         4         257         258         274         273
         4         258         259         275         274
         4         259         260         276         275
         4         260         261         277         276
         4         261         262         278         277
         4         262         263         279         278
         4         263         264         280         279
         4         264         265         281         280
         4         265         266         282         281
         4         266         267         283         282
         4         267         268         284         283
         4         268         269         285         284
         4         269         270         286         285
         4         270         271         287         286
         4         272         273         289         288
         4         273         274         290         289
         4         274         275         291         290
         4         275         276         292         291
         4         276         277         293         292
         4         277         278         294         293
         4         278         279         295         294
         4         279         280         296         295
         4         280         281         297         296
         4         281         282         298         297
         4         282         283         299         298
         4         283         284         300         299
         4         284         285         301         300
         4         285         286         302         301
         4         286         287         303         302
         4         288         289         305         304
         4         289         290         306         305
         4         290         291         307         306
         4         291         292         308         307
         4         292         293         309         308
         4         293         294         310         309
         4         294         295         311         310
         4         295         296         312         311
         4         296         297         313         312
         4         297         298         314         313
         4         298         299         315         314
         4         299         300         316         315
         4         300         301         317         316
         4         301         302         318         317
         4         302         303         319         318
         4         304         305         321         320
         4         305         306         322         321
         4         306         307         323         322
         4         307         308         324         323
         4         308         309         325         324
         4         309         310         326         325
         4         310         311         327         326
         4         311         312         328         327
         4         312         313         329         328
         4         313         314         330         329
         4         314         315         331         330
         4         315         316         332         331
         4         316         317         333         332
         4         317         318         334         333
         4         318         319         335         334
         4         320         321         337         336
         4         321         322         338         337
         4         322         323         339         338
         4         323         324         340         339
         4         324         325         341         340
         4         325         326         342         341
         4         326         327         343         342
         4         327         328         344         343
         4         328         329         345         344
         4         329         330         346         345
         4         330         331         347         346
         4         331         332         348         347
         4         332         333         349         348
         4         333         334         350         349
         4         334         335         351         350
         4         336         337         353         352
         4         337         338         354         353
         4         338         339         355         354
         4         339         340         356         355
         4         340         341         357         356
         4         341         342         358         357
         4         342         343         359         358
         4         343         344         360         359
         4         344         345         361         360
         4         345         346         362         361
         4         346         347         363         362
         4         347         348         364         363
         4         348         349         365         364
         4         349         350         366         365
         4         350         351         367         366
         4         352         353         369         368
         4         353         354         370         369
         4         354         355         371         370
         4         355         356         372         371
         4         356         357         373         372
         4         357         358         374         373
         4         358         359         375         374
         4         359         360         376         375
         4         360         361         377         376
         4         361         362         378         377
         4         362         363         379         378
         4         363         364         380         379
         4         364         365         381         380
         4         365         366         382         381
         4         366         367         383         382
         4         368         369         385         384
         4         369         370         386         385
         4         370         371         387         386
         4         371         372         388         387
         4         372         373         389         388
         4         373         374         390         389
         4         374         375         391         390
         4         375         376         392         391
         4         376         377         393         392
         4         377         378         394         393
         4         378         379         395         394
         4         379         380         396         395
         4         380         381         397         396
         4         381         382         398         397
         4         382         383         399         398
         4         384         385         401         400
         4         385         386         402         401
         4         386         387         403         402
         4         387         388         404         403
         4         388         389         405         404
         4         389         390         406         405
         4         390         391         407         406
         4         391         392         408         407
         4         392         393         409         408
         4         393         394         410         409
         4         394         395         411         410
         4         395         396         412         411
         4         396         397         413         412
         4         397         398         414         413
         4         398         399         415         414
         4         400         401         417         416
         4         401         402         418         417
         4         402         403         419         418
         4         403         404         420         419
         4         404         405         421         420
         4         405         406         422         421
         4         406         407         423         422
         4         407         408         424         423
         4         408         409         425         424
         4         409         410         426         425
         4         410         411         427         426
         4         411         412         428         427
         4         412         413         429         428
         4         413         414         430         429
         4         414         415         431         430
         4         416         417         433         432
         4         417         418         434         433
         4         418         419         435         434
         4         419         420         436         435
         4         420         421         437         436
         4         421         422         438         437
         4         422         423         439         438
         4         423         424         440         439
         4         424         425         441         440
         4         425         426         442         441
         4         426         427         443         442
         4         427         428         444         443
         4         428         429         445         444
         4         429         430         446         445
         4         430         431         447         446
         4         432         433         449         448
         4         433         434         450         449
         4         434         435         451         450
         4         435         436         452         451
         4         436         437         453         452
         4         437         438         454         453
         4         438         439         455         454
         4         439         440         456         455
         4         440         441         457         456
         4         441         442         458         457
         4         442         443         459         458
         4         443         444         460         459
         4         444         445         461         460
         4         445         446         462         461
         4         446         447         463         462
         4         448         449         465         464
         4         449         450         466         465
         4         450         451         467         466
         4         451         452         468         467
         4         452         453         469         468
         4         453         454         470         469
         4         454         455         471         470
         4         455         456         472         471
         4         456         457         473         472
         4         457         458         474         473
         4         458         459         475         474
         4         459         460         476         475
         4         460         461         477         476
         4         461         462         478         477
         4         462         463         479         478
         4         464         465         481         480
         4         465         466         482         481
         4         466         467         483         482
         4         467         468         484         483
         4         468         469         485         484
         4         469         470         486         485
         4         470         471         487         486
         4         471         472         488         487
         4         472         473         489         488
         4         473         474         490         489
         4         474         475         491         490
         4         475         476         492         491
         4         476         477         493         492
         4         477         478         494         493
         4         478         479         495         494
CELL_TYPES        450
9
9
9
9
9
9
9
9
9
9
9
9
9
9
9
9
9
9
9
9
9
9
9
9
9
9
9
9
9
9
9
9
9
9
9
9
9
9
9
9
9
9
9
9
9
9
9
9
9
9
9
9
9
9
9
9
9
9
9
9
9
9
9
9
9
9
9
9
9
9
9
9
9
9
9
9
9
9
9
9
9
9
9
9
9
9
9
9
9
9
9
9
9
9
9
9
9
9
9
9
9
9
9
9
9
9
9
9
9
9
9
9
9
9
9
9
9
9
9
9
9
9
9
9
9
9
9
9
9
9
9
9
9
9
9
9
9
9
9
9
9
9
9
9
9
9
9
9
9
9
9
9
9
9
9
9
9
9
9
9
9
9
9
9
9
9
9
9
9
9
9
9
9
9
9
9
9
9
9
9
9
9
9
9
9
9
9
9
9
9
9
9
9
9
9
9
9
9
9
9
9
9
9
9
9
9
9
9
9
9
9
9
9
9
9
9
9
9
9
9
9
9
9
9
9
9
9
9
9
9
9
9
9
9
9
9
9
9
9
9
9
9
9
9
9
9
9
9
9
9
9
9
9
9
9
9
9
9
9
9
9
9
9
9
9
9
9
9
9
9
9
9
9
9
9
9
9
9
9
9
9
9
9
9
9
9
9
9
9
9
9
9
9
9
9
9
9
9
9
9
9
9
9
9
9
9
9
9
9
9
9
9
9
9
9
9
9
9
9
9
9
9
9
9
9
9
9
9
9
9
9
9
9
9
9
9
9
9
9
9
9
9
9
9
9
9
9
9
9
9
9
9
9
9
9
9
9
9
9
9
9
9
9
9
9
9
9
9
9
9
9
9
9
9
9
9
9
9
9
9
9
9
9
9
9
9
9
9
9
9
9
9
9
9
9
9
9
9
9
9
9
9
9
9
9
9
9
9
9
9
9
9
9
9
9
9
9
9
9
9
9
9
9
9
9
9
9
9
9
9
9
9
9
9
9
9
9
9
9
9
9
9
9
9
9
9
9
9
9
9
POINT_DATA       496
SCALARS p double 
LOOKUP_TABLE default
   55743350.5745270     
   55767123.4368361     
   55834157.8650553     
   55937461.2999604     
   56069620.8533784     
   56223155.8248739     
   56390763.2352877     
   56565463.3491558     
   56740661.3339174     
   56910145.4208081     
   57068043.2006460     
   57208758.5628271     
   57326913.8272568     
   57417324.2741725     
   57475032.3659110     
   57495421.8614198     
   55734581.2942638     
   55758715.6163633     
   55826721.4694087     
   55931445.7552611     
   56065329.8958218     
   56220766.7821320     
   56390348.0883060     
   56567009.1421618     
   56744088.1241969     
   56915320.7458347     
   57074792.7080765     
   57216872.8817424     
   57336151.9295879     
   57427413.5234872     
   57485665.3101601     
   57506249.5931467     
   55708571.1153069     
   55733790.9551118     
   55804716.1259767     
   55913710.0816511     
   56052775.6018343     
   56213925.2860010     
   56389434.4357636     
   56571983.8857716     
   56754711.6125012     
   56931196.6854438     
   57095399.9032964     
   57241585.3844522     
   57364248.3722432     
   57458076.2903632     
   57517969.7812223     
   57539143.7437530     
   55665841.7558595     
   55692877.1369509     
   55768685.1471552     
   55884818.5510943     
   56032543.7863519     
   56203236.2767803     
   56388643.0972253     
   56581022.1465600     
   56773180.4162306     
   56958439.1353476     
   57130553.6648991     
   57283614.7248704     
   57411957.2108963     
   57510103.5434719     
   57572767.7335043     
   57594940.1901454     
   55607274.2662887     
   55636866.1285295     
   55719547.1220477     
   55845722.5443728     
   56005616.9583223     
   56189707.1050907     
   56388999.0594265     
   56595161.6991771     
   56800544.8468455     
   56998116.1297035     
   57181349.6439571     
   57344096.4631183     
   57480464.8390760     
   57584737.1151725     
   57651348.9631449     
   57674951.1875335     
   55534137.1805066     
   55567042.1406264     
   55658621.6219918     
   55797781.2388105     
   55973386.7722436     
   56174748.6858161     
   56391918.7424493     
   56615814.9776995     
   56838211.3941108     
   57051635.0393607     
   57249210.7138615     
   57424488.1613346     
   57571281.9633811     
   57683551.5709542     
   57755346.6531284     
   57780838.5305412     
   55448134.4829511     
   55485127.8645338     
   55587670.5127877     
   55742794.2749243     
   55937673.8539550     
   56160178.3194489     
   56399192.1999423     
   56644727.9272189     
   56887876.5808060     
   57120650.9448738     
   57335770.5629287     
   57526430.0782804     
   57686084.4508237     
   57808279.4242941     
   57886552.2981161     
   57914424.7335389     
   55351469.2643443     
   55393345.9966777     
   55508952.7723913     
   55683044.4978776     
   55900752.6090795     
   56148220.9118210     
   56412955.9166210     
   56683920.7827255     
   56951433.5729271     
   57206938.4418071     
   57442711.5701419     
   57651551.4912500     
   57826491.9991038     
   57960567.6734095     
   58046657.4116570     
   58077429.1978026     
   55246917.7557760     
   55294491.2461510     
   55425288.5650552     
   55621346.3934631     
   55865375.8253492     
   56141502.1563168     
   56435648.3461749     
   56735601.5035974     
   57030840.9521222     
   57312215.0712641     
   57571544.0219065     
   57801208.6088443     
   57993769.5289439     
   58141649.5865600     
   58236905.1606665     
   58271112.1839492     
   55137909.0708201     
   55192007.9908416     
   55340127.0852465     
   55561093.4573557     
   55834790.5378651     
   56143023.1750904     
   56469935.7881707     
   56802037.8165702     
   57127938.2717330     
   57437899.9466859     
   57723309.3761202     
   57976135.9816311     
   58188432.3726063     
   58351911.9160192     
   58457631.2738738     
   58495805.4963030     
   55028605.0859582     
   55090067.3144070     
   55257609.9152030     
   55506293.3770179     
   55812730.8804603     
   56156099.4110317     
   56518589.0180764     
   56885366.5967867     
   57244186.1210899     
   57584784.8484996     
   57898184.7375755     
   58175988.5664447     
   58409732.2705995     
   58590334.1317598     
   58707670.1841673     
   58750305.4055155     
   54923970.3594662     
   54993631.9780242     
   55182614.7398239     
   55461570.9744993     
   55803363.0789296     
   56184235.0630339     
   56584279.3821923     
   56987308.0447851     
   57380298.0893744     
   57752586.0308573     
   58094958.2074931     
   58398745.6852706     
   58654996.7401325     
   58853772.9705798     
   58983599.7538595     
   59031100.9093078     
   54829811.6943996     
   54908486.3956481     
   55120750.0719017     
   55432102.0528551     
   55811139.3360485     
   56230885.5131940     
   56669244.7584160     
   57108735.1354409     
   57535716.9842144     
   57939332.3257140     
   58310334.7431864     
   58639940.8157822     
   58918789.6765327     
   59136063.0741200     
   59278796.8363716     
   59331409.7994670     
   54752746.9012302     
   54841186.3210901     
   55078245.1640406     
   55423411.9788732     
   55840487.4629089     
   56299031.1892839     
   56774748.7144968     
   57249024.5485309     
   57707866.8923483     
   58140528.2418579     
   58538019.3427377     
   58891672.4993213     
   59191856.5100647     
   59426903.5908118     
   59582277.5698220     
   59639997.5404640     
   54700024.4627404     
   54798841.4564523     
   55061632.0197809     
   55440925.2478127     
   55895218.1232281     
   56390444.7598348     
   56900218.4916832     
   57405082.7101154     
   57891085.9175298     
   58348009.8618637     
   58767509.1487655     
   59141342.1340421     
   59459813.6145313     
   59710502.6064055     
   59877302.4836121     
   59939761.7169330     
   54679048.7952564     
   54788565.5785877     
   55077037.2482842     
   55489081.8405856     
   55977471.9109480     
   56504477.9183364     
   57041898.1609198     
   57569900.2118338     
   58075113.4973971     
   58548388.7524517     
   58982510.4338104     
   59370055.4117024     
   59701540.1178950     
   59963957.8195802     
   60139739.7005188     
   60206080.6246944     
   54696320.4177528     
   54816292.4055088     
   55128771.7451575     
   55569766.3541340     
   56085957.3998602     
   56636122.8593052     
   57190793.2513252     
   57730443.8984245     
   58242977.6842097     
   58720961.7780660     
   59158885.9556769     
   59550618.8632309     
   59887232.3895000     
   60155364.7531213     
   60336202.7541278     
   60404952.0637941     
   54755362.9279047     
   54884247.6249036     
   55216906.3486262     
   55679765.9422472     
   56213138.1865283     
   56773011.4217797     
   57329617.7289734     
   57864661.7694633     
   58368117.4649705     
   58834968.7312350     
   59262045.9655899     
   59645068.7299388     
   59976088.9160189     
   60241663.4537555     
   60422015.2762049     
   60490991.3190541     
   54850842.7865941     
   54987083.3804237     
   55333974.5726661     
   55806855.1247832     
   56340847.3460906     
   56890899.3957947     
   57428414.3654141     
   57937381.7313478     
   58410612.7747262     
   58846135.8011632     
   59243752.0451906     
   59601703.7334063     
   59913607.9861125     
   60166254.7647476     
   60339101.3513729     
   60405414.5225538     
   54966668.1795833     
   55110769.8844591     
   55460263.4825839     
   55923414.3784636     
   56433505.7559080     
   56947163.2038614     
   57438579.9679754     
   57894981.4231269     
   58312520.2532865     
   58692600.8578566     
   59038467.6280864     
   59351712.1988382     
   59628506.8776509     
   59856412.3900109     
   60013929.4054355     
   60074194.5579615     
   55087132.2498726     
   55225204.3947818     
   55553062.6513592     
   55975566.8404768     
   56428370.9637246     
   56872126.4946006     
   57285300.2076264     
   57658951.1476269     
   57992556.2780876     
   58290614.4722542     
   58559784.7797750     
   58805845.1401658     
   59029401.3996930     
   59220371.5706644     
   59355559.1453686     
   59406473.3710311     
   55135413.4048041     
   55252360.2802999     
   55526481.0869241     
   55868604.0001297     
   56223365.7474102     
   56558794.1928963     
   56858989.1103366     
   57118927.6034582     
   57340713.6133951     
   57530791.1263249     
   57698091.6379131     
   57852708.7610622     
   58002209.1312839     
   58143490.5924493     
   58252932.6160893     
   58292952.2301296     
   54968378.2976913     
   55052174.9613512     
   55235395.4495944     
   55451917.7321775     
   55664510.9170669     
   55852775.2021116     
   56007347.1465131     
   56126547.7674403     
   56213830.2718601     
   56275780.7384810     
   56321129.9694027     
   56361728.1673766     
   56413865.8306989     
   56485584.8766779     
   56563274.0554840     
   56598748.3096506     
   54387693.1118765     
   54414158.4516116     
   54461837.5306463     
   54506281.7951333     
   54536527.4216963     
   54545914.9514740     
   54531209.5425954     
   54492761.6369509     
   54433906.9888246     
   54359847.0112762     
   54276984.3885728     
   54194334.6351841     
   54131066.4078203     
   54112207.3257163     
   54134863.2406655     
   54159446.2290944     
   53083680.2355430     
   53029308.5637721     
   52901063.4178088     
   52738871.3128343     
   52562937.4250340     
   52379474.2615965     
   52189304.4631763     
   51993047.0584840     
   51792779.2587004     
   51591885.8462339     
   51394811.4068354     
   51209038.3813754     
   51058039.1344569     
   50956421.7388616     
   50891750.6152102     
   50868140.5858754     
   50636735.8526810     
   50487918.3422270     
   50169316.0573254     
   49798645.5859936     
   49425403.6276102     
   49064612.6595530     
   48718427.0972586     
   48386433.3139455     
   48069079.0391606     
   47768328.3939406     
   47488245.7457782     
   47237575.7991372     
   47034089.4588184     
   46876888.2179816     
   46747055.8097356     
   46678921.6806106     
   46556873.4600042     
   46325754.0417513     
   45854579.1511864     
   45327398.6959584     
   44811982.4829449     
   44326875.0766597     
   43874357.2451651     
   43453347.2486572     
   43063269.8398787     
   42705220.5555483     
   42382799.1769831     
   42103129.3253657     
   41873065.3270754     
   41691338.7317496     
   41533491.7379013     
   41446153.9254167     
   40400295.3392950     
   40140801.9659239     
   39623858.7704917     
   39051991.8313026     
   38495439.2430901     
   37974153.3106461     
   37492876.9027034     
   37051872.6079601     
   36650814.5757146     
   36290397.3136079     
   35973196.1489056     
   35703348.2466783     
   35483856.6615202     
   35313596.5116213     
   35174852.6402963     
   35096753.9836383     
   31972111.3252885     
   31775769.1814906     
   31371541.0818538     
   30898136.4748027     
   30423286.9610153     
   29973941.6288852     
   29559080.2830654     
   29181810.5224447     
   28842779.6268017     
   28542661.0999528     
   28283171.9226829     
   28066972.5346856     
   27896588.3891223     
   27771666.5169698     
   27693450.0849555     
   27656231.5798498     
   21530505.5628276     
   21489561.6572965     
   21318581.8351203     
   21063197.2539604     
   20782288.3810295     
   20511550.0786352     
   20261152.0436645     
   20034342.3292318     
   19832176.6705594     
   19655271.9206032     
   19504706.1161047     
   19382195.1084004     
   19289863.2763317     
   19231504.0379676     
   19220155.2017854     
   19232945.3629865     
   10000000.0000000     
   10000000.0000000     
   10000000.0000000     
   10000000.0000000     
   10000000.0000000     
   10000000.0000000     
   10000000.0000000     
   10000000.0000000     
   10000000.0000000     
   10000000.0000000     
   10000000.0000000     
   10000000.0000000     
   10000000.0000000     
  10000000.00000000     
   10000000.0000000     
   10000000.0000000     
VECTORS u double 
    0.00000E+00        -0.17230E+00         0.00000E+00
    0.00000E+00        -0.15114E+00         0.00000E+00
    0.00000E+00        -0.13047E+00         0.00000E+00
    0.00000E+00        -0.11071E+00         0.00000E+00
    0.00000E+00        -0.92208E-01         0.00000E+00
    0.00000E+00        -0.75246E-01         0.00000E+00
    0.00000E+00        -0.60014E-01         0.00000E+00
    0.00000E+00        -0.46634E-01         0.00000E+00
    0.00000E+00        -0.35156E-01         0.00000E+00
    0.00000E+00        -0.25566E-01         0.00000E+00
    0.00000E+00        -0.17791E-01         0.00000E+00
    0.00000E+00        -0.11701E-01         0.00000E+00
    0.00000E+00        -0.71185E-02         0.00000E+00
    0.00000E+00        -0.38195E-02         0.00000E+00
    0.00000E+00        -0.15433E-02         0.00000E+00
    0.00000E+00         0.00000E+00         0.00000E+00
    0.22715E-01        -0.17247E+00         0.00000E+00
    0.22141E-01        -0.15127E+00         0.00000E+00
    0.21158E-01        -0.13056E+00         0.00000E+00
    0.19836E-01        -0.11076E+00         0.00000E+00
    0.18245E-01        -0.92232E-01         0.00000E+00
    0.16456E-01        -0.75246E-01         0.00000E+00
    0.14537E-01        -0.59995E-01         0.00000E+00
    0.12551E-01        -0.46602E-01         0.00000E+00
    0.10556E-01        -0.35116E-01         0.00000E+00
    0.86072E-02        -0.25522E-01         0.00000E+00
    0.67502E-02        -0.17748E-01         0.00000E+00
    0.50264E-02        -0.11662E-01         0.00000E+00
    0.34694E-02        -0.70870E-02         0.00000E+00
    0.21046E-02        -0.37980E-02         0.00000E+00
    0.94732E-03        -0.15330E-02         0.00000E+00
    0.00000E+00         0.00000E+00         0.00000E+00
    0.45623E-01        -0.17300E+00         0.00000E+00
    0.44445E-01        -0.15167E+00         0.00000E+00
    0.42450E-01        -0.13084E+00         0.00000E+00
    0.39778E-01        -0.11094E+00         0.00000E+00
    0.36573E-01        -0.92321E-01         0.00000E+00
    0.32974E-01        -0.75263E-01         0.00000E+00
    0.29118E-01        -0.59956E-01         0.00000E+00
    0.25132E-01        -0.46523E-01         0.00000E+00
    0.21131E-01        -0.35010E-01         0.00000E+00
    0.17222E-01        -0.25404E-01         0.00000E+00
    0.13500E-01        -0.17629E-01         0.00000E+00
    0.10045E-01        -0.11554E-01         0.00000E+00
    0.69265E-02        -0.69988E-02         0.00000E+00
    0.41957E-02        -0.37374E-02         0.00000E+00
    0.18844E-02        -0.15038E-02         0.00000E+00
    0.00000E+00         0.00000E+00         0.00000E+00
    0.68920E-01        -0.17394E+00         0.00000E+00
    0.67076E-01        -0.15240E+00         0.00000E+00
    0.64010E-01        -0.13137E+00         0.00000E+00
    0.59936E-01        -0.11130E+00         0.00000E+00
    0.55068E-01        -0.92531E-01         0.00000E+00
    0.49620E-01        -0.75351E-01         0.00000E+00
    0.43793E-01        -0.59950E-01         0.00000E+00
    0.37777E-01        -0.46446E-01         0.00000E+00
    0.31745E-01        -0.34886E-01         0.00000E+00
    0.25857E-01        -0.25252E-01         0.00000E+00
    0.20252E-01        -0.17469E-01         0.00000E+00
    0.15053E-01        -0.11403E-01         0.00000E+00
    0.10363E-01        -0.68736E-02         0.00000E+00
    0.62626E-02        -0.36501E-02         0.00000E+00
    0.28030E-02        -0.14614E-02         0.00000E+00
    0.00000E+00         0.00000E+00         0.00000E+00
    0.92803E-01        -0.17537E+00         0.00000E+00
    0.90198E-01        -0.15354E+00         0.00000E+00
    0.85972E-01        -0.13224E+00         0.00000E+00
    0.80414E-01        -0.11192E+00         0.00000E+00
    0.73815E-01        -0.92951E-01         0.00000E+00
    0.66456E-01        -0.75601E-01         0.00000E+00
    0.58609E-01        -0.60064E-01         0.00000E+00
    0.50522E-01        -0.46456E-01         0.00000E+00
    0.42426E-01        -0.34820E-01         0.00000E+00
    0.34529E-01        -0.25136E-01         0.00000E+00
    0.27017E-01        -0.17325E-01         0.00000E+00
    0.20053E-01        -0.11257E-01         0.00000E+00
    0.13777E-01        -0.67447E-02         0.00000E+00
    0.83005E-02        -0.35572E-02         0.00000E+00
    0.36978E-02        -0.14155E-02         0.00000E+00
    0.00000E+00         0.00000E+00         0.00000E+00
    0.11747E+00        -0.17739E+00         0.00000E+00
    0.11397E+00        -0.15520E+00         0.00000E+00
    0.10847E+00        -0.13357E+00         0.00000E+00
    0.10132E+00        -0.11295E+00         0.00000E+00
    0.92897E-01        -0.93715E-01         0.00000E+00
    0.83552E-01        -0.76146E-01         0.00000E+00
    0.73620E-01        -0.60430E-01         0.00000E+00
    0.63412E-01        -0.46676E-01         0.00000E+00
    0.53209E-01        -0.34924E-01         0.00000E+00
    0.43267E-01        -0.25153E-01         0.00000E+00
    0.33817E-01        -0.17283E-01         0.00000E+00
    0.25062E-01        -0.11181E-01         0.00000E+00
    0.17179E-01        -0.66612E-02         0.00000E+00
    0.10313E-01        -0.34895E-02         0.00000E+00
    0.45685E-02        -0.13803E-02         0.00000E+00
    0.00000E+00         0.00000E+00         0.00000E+00
    0.14312E+00        -0.18016E+00         0.00000E+00
    0.13857E+00        -0.15755E+00         0.00000E+00
    0.13163E+00        -0.13552E+00         0.00000E+00
    0.12276E+00        -0.11454E+00         0.00000E+00
    0.11240E+00        -0.94999E-01         0.00000E+00
    0.10097E+00        -0.77163E-01         0.00000E+00
    0.88885E-01        -0.61218E-01         0.00000E+00
    0.76497E-01        -0.47269E-01         0.00000E+00
    0.64140E-01        -0.35352E-01         0.00000E+00
    0.52114E-01        -0.25441E-01         0.00000E+00
    0.40691E-01        -0.17456E-01         0.00000E+00
    0.30112E-01        -0.11266E-01         0.00000E+00
    0.20592E-01        -0.66892E-02         0.00000E+00
    0.12315E-01        -0.34890E-02         0.00000E+00
    0.54216E-02        -0.13752E-02         0.00000E+00
    0.00000E+00         0.00000E+00         0.00000E+00
    0.16995E+00        -0.18388E+00         0.00000E+00
    0.16414E+00        -0.16079E+00         0.00000E+00
    0.15558E+00        -0.13831E+00         0.00000E+00
    0.14483E+00        -0.11693E+00         0.00000E+00
    0.13240E+00        -0.97029E-01         0.00000E+00
    0.11879E+00        -0.78877E-01         0.00000E+00
    0.10447E+00        -0.62651E-01         0.00000E+00
    0.89838E-01        -0.48448E-01         0.00000E+00
    0.75279E-01        -0.36298E-01         0.00000E+00
    0.61130E-01        -0.26171E-01         0.00000E+00
    0.47695E-01        -0.17992E-01         0.00000E+00
    0.35254E-01        -0.11632E-01         0.00000E+00
    0.24060E-01        -0.69151E-02         0.00000E+00
    0.14337E-01        -0.36106E-02         0.00000E+00
    0.62724E-02        -0.14256E-02         0.00000E+00
    0.00000E+00         0.00000E+00         0.00000E+00
    0.19816E+00        -0.18877E+00         0.00000E+00
    0.19084E+00        -0.16518E+00         0.00000E+00
    0.18045E+00        -0.14221E+00         0.00000E+00
    0.16763E+00        -0.12039E+00         0.00000E+00
    0.15299E+00        -0.10009E+00         0.00000E+00
    0.13708E+00        -0.81569E-01         0.00000E+00
    0.12044E+00        -0.65004E-01         0.00000E+00
    0.10351E+00        -0.50476E-01         0.00000E+00
    0.86703E-01        -0.38005E-01         0.00000E+00
    0.70394E-01        -0.27562E-01         0.00000E+00
    0.54912E-01        -0.19074E-01         0.00000E+00
    0.40567E-01        -0.12424E-01         0.00000E+00
    0.27649E-01        -0.74477E-02         0.00000E+00
    0.16429E-01        -0.39236E-02         0.00000E+00
    0.71478E-02        -0.15638E-02         0.00000E+00
    0.00000E+00         0.00000E+00         0.00000E+00
    0.22796E+00        -0.19514E+00         0.00000E+00
    0.21883E+00        -0.17101E+00         0.00000E+00
    0.20635E+00        -0.14753E+00         0.00000E+00
    0.19125E+00        -0.12524E+00         0.00000E+00
    0.17423E+00        -0.10451E+00         0.00000E+00
    0.15591E+00        -0.85582E-01         0.00000E+00
    0.13687E+00        -0.68614E-01         0.00000E+00
    0.11759E+00        -0.53672E-01         0.00000E+00
    0.98509E-01        -0.40771E-01         0.00000E+00
    0.80012E-01        -0.29879E-01         0.00000E+00
    0.62451E-01        -0.20932E-01         0.00000E+00
    0.46158E-01        -0.13828E-01         0.00000E+00
    0.31456E-01        -0.84220E-02         0.00000E+00
    0.18665E-01        -0.45144E-02         0.00000E+00
    0.80885E-02        -0.18300E-02         0.00000E+00
    0.00000E+00         0.00000E+00         0.00000E+00
    0.25952E+00        -0.20332E+00         0.00000E+00
    0.24823E+00        -0.17865E+00         0.00000E+00
    0.23337E+00        -0.15466E+00         0.00000E+00
    0.21576E+00        -0.13189E+00         0.00000E+00
    0.19619E+00        -0.11070E+00         0.00000E+00
    0.17535E+00        -0.91325E-01         0.00000E+00
    0.15384E+00        -0.73882E-01         0.00000E+00
    0.13218E+00        -0.58424E-01         0.00000E+00
    0.11081E+00        -0.44954E-01         0.00000E+00
    0.90118E-01        -0.33443E-01         0.00000E+00
    0.70456E-01        -0.23838E-01         0.00000E+00
    0.52170E-01        -0.16062E-01         0.00000E+00
    0.35611E-01        -0.10001E-01         0.00000E+00
    0.21146E-01        -0.54880E-02         0.00000E+00
    0.91522E-02        -0.22736E-02         0.00000E+00
    0.00000E+00         0.00000E+00         0.00000E+00
    0.29304E+00        -0.21371E+00         0.00000E+00
    0.27919E+00        -0.18852E+00         0.00000E+00
    0.26159E+00        -0.16405E+00         0.00000E+00
    0.24122E+00        -0.14081E+00         0.00000E+00
    0.21892E+00        -0.11916E+00         0.00000E+00
    0.19545E+00        -0.99282E-01         0.00000E+00
    0.17144E+00        -0.81283E-01         0.00000E+00
    0.14739E+00        -0.65185E-01         0.00000E+00
    0.12375E+00        -0.50976E-01         0.00000E+00
    0.10088E+00        -0.38631E-01         0.00000E+00
    0.79108E-01        -0.28116E-01         0.00000E+00
    0.58787E-01        -0.19389E-01         0.00000E+00
    0.40282E-01        -0.12381E-01         0.00000E+00
    0.24006E-01        -0.69706E-02         0.00000E+00
    0.10416E-01        -0.29538E-02         0.00000E+00
    0.00000E+00         0.00000E+00         0.00000E+00
    0.32867E+00        -0.22679E+00         0.00000E+00
    0.31178E+00        -0.20114E+00         0.00000E+00
    0.29108E+00        -0.17622E+00         0.00000E+00
    0.26766E+00        -0.15255E+00         0.00000E+00
    0.24246E+00        -0.13042E+00         0.00000E+00
    0.21627E+00        -0.11002E+00         0.00000E+00
    0.18974E+00        -0.91370E-01         0.00000E+00
    0.16335E+00        -0.74481E-01         0.00000E+00
    0.13749E+00        -0.59325E-01         0.00000E+00
    0.11248E+00        -0.45880E-01         0.00000E+00
    0.88626E-01        -0.34143E-01         0.00000E+00
    0.66235E-01        -0.24115E-01         0.00000E+00
    0.45681E-01        -0.15788E-01         0.00000E+00
    0.27415E-01        -0.91101E-02         0.00000E+00
    0.11980E-01        -0.39409E-02         0.00000E+00
    0.00000E+00         0.00000E+00         0.00000E+00
    0.36655E+00        -0.24311E+00         0.00000E+00
    0.34608E+00        -0.21709E+00         0.00000E+00
    0.32186E+00        -0.19180E+00         0.00000E+00
    0.29509E+00        -0.16773E+00         0.00000E+00
    0.26682E+00        -0.14516E+00         0.00000E+00
    0.23785E+00        -0.12417E+00         0.00000E+00
    0.20882E+00        -0.10477E+00         0.00000E+00
    0.18017E+00        -0.86914E-01         0.00000E+00
    0.15220E+00        -0.70555E-01         0.00000E+00
    0.12516E+00        -0.55688E-01         0.00000E+00
    0.99268E-01        -0.42344E-01         0.00000E+00
    0.74785E-01        -0.30586E-01         0.00000E+00
    0.52063E-01        -0.20484E-01         0.00000E+00
    0.31582E-01        -0.12077E-01         0.00000E+00
    0.13969E-01        -0.53167E-02         0.00000E+00
    0.00000E+00         0.00000E+00         0.00000E+00
    0.40681E+00        -0.26332E+00         0.00000E+00
    0.38212E+00        -0.23704E+00         0.00000E+00
    0.35389E+00        -0.21148E+00         0.00000E+00
    0.32346E+00        -0.18711E+00         0.00000E+00
    0.29195E+00        -0.16410E+00         0.00000E+00
    0.26019E+00        -0.14249E+00         0.00000E+00
    0.22875E+00        -0.12220E+00         0.00000E+00
    0.19799E+00        -0.10315E+00         0.00000E+00
    0.16808E+00        -0.85283E-01         0.00000E+00
    0.13916E+00        -0.68604E-01         0.00000E+00
    0.11133E+00        -0.53193E-01         0.00000E+00
    0.84746E-01        -0.39188E-01         0.00000E+00
    0.59726E-01        -0.26761E-01         0.00000E+00
    0.36752E-01        -0.16065E-01         0.00000E+00
    0.16530E-01        -0.71740E-02         0.00000E+00
    0.00000E+00         0.00000E+00         0.00000E+00
    0.44951E+00        -0.28818E+00         0.00000E+00
    0.41987E+00        -0.26179E+00         0.00000E+00
    0.38708E+00        -0.23610E+00         0.00000E+00
    0.35266E+00        -0.21150E+00         0.00000E+00
    0.31778E+00        -0.18808E+00         0.00000E+00
    0.28326E+00        -0.16577E+00         0.00000E+00
    0.24957E+00        -0.14443E+00         0.00000E+00
    0.21692E+00        -0.12392E+00         0.00000E+00
    0.18534E+00        -0.10417E+00         0.00000E+00
    0.15476E+00        -0.85216E-01         0.00000E+00
    0.12512E+00        -0.67195E-01         0.00000E+00
    0.96463E-01        -0.50337E-01         0.00000E+00
    0.69004E-01        -0.34934E-01         0.00000E+00
    0.43206E-01        -0.21284E-01         0.00000E+00
    0.19837E-01        -0.96163E-02         0.00000E+00
    0.00000E+00         0.00000E+00         0.00000E+00
    0.49466E+00        -0.31858E+00         0.00000E+00
    0.45921E+00        -0.29227E+00         0.00000E+00
    0.42125E+00        -0.26660E+00         0.00000E+00
    0.38249E+00        -0.24185E+00         0.00000E+00
    0.34414E+00        -0.21802E+00         0.00000E+00
    0.30696E+00        -0.19491E+00         0.00000E+00
    0.27127E+00        -0.17228E+00         0.00000E+00
    0.23706E+00        -0.14997E+00         0.00000E+00
    0.20414E+00        -0.12790E+00         0.00000E+00
    0.17220E+00        -0.10613E+00         0.00000E+00
    0.14097E+00        -0.84869E-01         0.00000E+00
    0.11029E+00        -0.64460E-01         0.00000E+00
    0.80252E-01        -0.45334E-01         0.00000E+00
    0.51247E-01        -0.27958E-01         0.00000E+00
    0.24079E-01        -0.12756E-01         0.00000E+00
    0.00000E+00         0.00000E+00         0.00000E+00
    0.54216E+00        -0.35561E+00         0.00000E+00
    0.49990E+00        -0.32956E+00         0.00000E+00
    0.45611E+00        -0.30405E+00         0.00000E+00
    0.41265E+00        -0.27923E+00         0.00000E+00
    0.37079E+00        -0.25493E+00         0.00000E+00
    0.33113E+00        -0.23082E+00         0.00000E+00
    0.29378E+00        -0.20661E+00         0.00000E+00
    0.25844E+00        -0.18206E+00         0.00000E+00
    0.22462E+00        -0.15713E+00         0.00000E+00
    0.19171E+00        -0.13192E+00         0.00000E+00
    0.15917E+00        -0.10672E+00         0.00000E+00
    0.12657E+00        -0.81979E-01         0.00000E+00
    0.93819E-01        -0.58290E-01         0.00000E+00
    0.61183E-01        -0.36316E-01         0.00000E+00
    0.29454E-01        -0.16710E-01         0.00000E+00
    0.00000E+00         0.00000E+00         0.00000E+00
    0.59172E+00        -0.40054E+00         0.00000E+00
    0.54158E+00        -0.37489E+00         0.00000E+00
    0.49117E+00        -0.34966E+00         0.00000E+00
    0.44266E+00        -0.32479E+00         0.00000E+00
    0.39731E+00        -0.29987E+00         0.00000E+00
    0.35548E+00        -0.27446E+00         0.00000E+00
    0.31693E+00        -0.24820E+00         0.00000E+00
    0.28100E+00        -0.22087E+00         0.00000E+00
    0.24681E+00        -0.19245E+00         0.00000E+00
    0.21342E+00        -0.16310E+00         0.00000E+00
    0.17992E+00        -0.13319E+00         0.00000E+00
    0.14558E+00        -0.10328E+00         0.00000E+00
    0.11000E+00        -0.74115E-01         0.00000E+00
    0.73288E-01        -0.46585E-01         0.00000E+00
    0.36145E-01        -0.21601E-01         0.00000E+00
    0.00000E+00         0.00000E+00         0.00000E+00
    0.64333E+00        -0.45498E+00         0.00000E+00
    0.58367E+00        -0.42974E+00         0.00000E+00
    0.52564E+00        -0.40494E+00         0.00000E+00
    0.47181E+00        -0.37985E+00         0.00000E+00
    0.42314E+00        -0.35394E+00         0.00000E+00
    0.37958E+00        -0.32669E+00         0.00000E+00
    0.34040E+00        -0.29774E+00         0.00000E+00
    0.30450E+00        -0.26691E+00         0.00000E+00
    0.27058E+00        -0.23426E+00         0.00000E+00
    0.23727E+00        -0.20002E+00         0.00000E+00
    0.20327E+00        -0.16460E+00         0.00000E+00
    0.16744E+00        -0.12866E+00         0.00000E+00
    0.12900E+00        -0.93088E-01         0.00000E+00
    0.87762E-01        -0.58983E-01         0.00000E+00
    0.44291E-01        -0.27556E-01         0.00000E+00
    0.00000E+00         0.00000E+00         0.00000E+00
    0.69706E+00        -0.52113E+00         0.00000E+00
    0.62498E+00        -0.49640E+00         0.00000E+00
    0.55843E+00        -0.47158E+00         0.00000E+00
    0.49913E+00        -0.44574E+00         0.00000E+00
    0.44746E+00        -0.41812E+00         0.00000E+00
    0.40274E+00        -0.38818E+00         0.00000E+00
    0.36364E+00        -0.35563E+00         0.00000E+00
    0.32848E+00        -0.32042E+00         0.00000E+00
    0.29550E+00        -0.28269E+00         0.00000E+00
    0.26289E+00        -0.24276E+00         0.00000E+00
    0.22894E+00        -0.20109E+00         0.00000E+00
    0.19201E+00        -0.15834E+00         0.00000E+00
    0.15081E+00        -0.11546E+00         0.00000E+00
    0.10466E+00        -0.73742E-01         0.00000E+00
    0.53934E-01        -0.34728E-01         0.00000E+00
    0.00000E+00         0.00000E+00         0.00000E+00
    0.74877E+00        -0.60143E+00         0.00000E+00
    0.66375E+00        -0.57684E+00         0.00000E+00
    0.58796E+00        -0.55124E+00         0.00000E+00
    0.52324E+00        -0.52365E+00         0.00000E+00
    0.46912E+00        -0.49316E+00         0.00000E+00
    0.42400E+00        -0.45928E+00         0.00000E+00
    0.38576E+00        -0.42190E+00         0.00000E+00
    0.35208E+00        -0.38116E+00         0.00000E+00
    0.32071E+00        -0.33739E+00         0.00000E+00
    0.28945E+00        -0.29100E+00         0.00000E+00
    0.25617E+00        -0.24246E+00         0.00000E+00
    0.21874E+00        -0.19234E+00         0.00000E+00
    0.17510E+00        -0.14149E+00         0.00000E+00
    0.12383E+00        -0.91245E-01         0.00000E+00
    0.64933E-01        -0.43377E-01         0.00000E+00
    0.00000E+00         0.00000E+00         0.00000E+00
    0.79790E+00        -0.69874E+00         0.00000E+00
    0.69736E+00        -0.67301E+00         0.00000E+00
    0.61192E+00        -0.64542E+00         0.00000E+00
    0.54221E+00        -0.61447E+00         0.00000E+00
    0.48649E+00        -0.57931E+00         0.00000E+00
    0.44191E+00        -0.53973E+00         0.00000E+00
    0.40539E+00        -0.49592E+00         0.00000E+00
    0.37393E+00        -0.44831E+00         0.00000E+00
    0.34479E+00        -0.39743E+00         0.00000E+00
    0.31544E+00        -0.34382E+00         0.00000E+00
    0.28348E+00        -0.28797E+00         0.00000E+00
    0.24635E+00        -0.23034E+00         0.00000E+00
    0.20103E+00        -0.17144E+00         0.00000E+00
    0.14473E+00        -0.11232E+00         0.00000E+00
    0.76822E-01        -0.54727E-01         0.00000E+00
    0.00000E+00         0.00000E+00         0.00000E+00
    0.84024E+00        -0.81650E+00         0.00000E+00
    0.72212E+00        -0.78743E+00         0.00000E+00
    0.62703E+00        -0.75537E+00         0.00000E+00
    0.55337E+00        -0.71846E+00         0.00000E+00
    0.49729E+00        -0.67609E+00         0.00000E+00
    0.45439E+00        -0.62849E+00         0.00000E+00
    0.42048E+00        -0.57630E+00         0.00000E+00
    0.39192E+00        -0.52029E+00         0.00000E+00
    0.36555E+00        -0.46117E+00         0.00000E+00
    0.33859E+00        -0.39957E+00         0.00000E+00
    0.30847E+00        -0.33603E+00         0.00000E+00
    0.27253E+00        -0.27104E+00         0.00000E+00
    0.22697E+00        -0.20504E+00         0.00000E+00
    0.16712E+00        -0.13766E+00         0.00000E+00
    0.90706E-01        -0.68529E-01         0.00000E+00
    0.00000E+00         0.00000E+00         0.00000E+00
    0.86941E+00        -0.95801E+00         0.00000E+00
    0.73257E+00        -0.92185E+00         0.00000E+00
    0.62896E+00        -0.88142E+00         0.00000E+00
    0.55316E+00        -0.83476E+00         0.00000E+00
    0.49845E+00        -0.78178E+00         0.00000E+00
    0.45851E+00        -0.72336E+00         0.00000E+00
    0.42811E+00        -0.66064E+00         0.00000E+00
    0.40303E+00        -0.59466E+00         0.00000E+00
    0.37984E+00        -0.52624E+00         0.00000E+00
    0.35566E+00        -0.45598E+00         0.00000E+00
    0.32786E+00        -0.38431E+00         0.00000E+00
    0.29381E+00        -0.31164E+00         0.00000E+00
    0.25092E+00        -0.23826E+00         0.00000E+00
    0.19323E+00        -0.16174E+00         0.00000E+00
    0.11045E+00        -0.80327E-01         0.00000E+00
    0.00000E+00         0.00000E+00         0.00000E+00
    0.87595E+00        -0.11255E+01         0.00000E+00
    0.72131E+00        -0.10765E+01         0.00000E+00
    0.61207E+00        -0.10221E+01         0.00000E+00
    0.53706E+00        -0.96064E+00         0.00000E+00
    0.48588E+00        -0.89300E+00         0.00000E+00
    0.45031E+00        -0.82075E+00         0.00000E+00
    0.42421E+00        -0.74543E+00         0.00000E+00
    0.40304E+00        -0.66817E+00         0.00000E+00
    0.38335E+00        -0.58971E+00         0.00000E+00
    0.36230E+00        -0.51041E+00         0.00000E+00
    0.33737E+00        -0.43038E+00         0.00000E+00
    0.30610E+00        -0.34954E+00         0.00000E+00
    0.26655E+00        -0.26776E+00         0.00000E+00
    0.21465E+00        -0.18368E+00         0.00000E+00
    0.13157E+00        -0.92652E-01         0.00000E+00
    0.00000E+00         0.00000E+00         0.00000E+00
    0.84661E+00        -0.13182E+01         0.00000E+00
    0.67895E+00        -0.12483E+01         0.00000E+00
    0.56962E+00        -0.11727E+01         0.00000E+00
    0.49954E+00        -0.10906E+01         0.00000E+00
    0.45443E+00        -0.10042E+01         0.00000E+00
    0.42455E+00        -0.91544E+00         0.00000E+00
    0.40338E+00        -0.82601E+00         0.00000E+00
    0.38643E+00        -0.73682E+00         0.00000E+00
    0.37044E+00        -0.64821E+00         0.00000E+00
    0.35286E+00        -0.56013E+00         0.00000E+00
    0.33143E+00        -0.47218E+00         0.00000E+00
    0.30398E+00        -0.38374E+00         0.00000E+00
    0.26806E+00        -0.29404E+00         0.00000E+00
    0.22131E+00        -0.20258E+00         0.00000E+00
    0.14717E+00        -0.10458E+00         0.00000E+00
    0.00000E+00         0.00000E+00         0.00000E+00
    0.76447E+00        -0.15297E+01         0.00000E+00
    0.59490E+00        -0.14291E+01         0.00000E+00
    0.49422E+00        -0.13240E+01         0.00000E+00
    0.43429E+00        -0.12159E+01         0.00000E+00
    0.39783E+00        -0.11074E+01         0.00000E+00
    0.37479E+00        -0.10007E+01         0.00000E+00
    0.35897E+00        -0.89681E+00         0.00000E+00
    0.34637E+00        -0.79608E+00         0.00000E+00
    0.33424E+00        -0.69817E+00         0.00000E+00
    0.32046E+00        -0.60243E+00         0.00000E+00
    0.30317E+00        -0.50787E+00         0.00000E+00
    0.28046E+00        -0.41338E+00         0.00000E+00
    0.25013E+00        -0.31761E+00         0.00000E+00
    0.20849E+00        -0.21927E+00         0.00000E+00
    0.14687E+00        -0.11596E+00         0.00000E+00
    0.00000E+00         0.00000E+00         0.00000E+00
    0.61084E+00        -0.17434E+01         0.00000E+00
    0.45892E+00        -0.16025E+01         0.00000E+00
    0.37896E+00        -0.14617E+01         0.00000E+00
    0.33458E+00        -0.13239E+01         0.00000E+00
    0.30887E+00        -0.11926E+01         0.00000E+00
    0.29349E+00        -0.10686E+01         0.00000E+00
    0.28329E+00        -0.95179E+00         0.00000E+00
    0.27512E+00        -0.84135E+00         0.00000E+00
    0.26699E+00        -0.73614E+00         0.00000E+00
    0.25739E+00        -0.63479E+00         0.00000E+00
    0.24491E+00        -0.53574E+00         0.00000E+00
    0.22800E+00        -0.43727E+00         0.00000E+00
    0.20493E+00        -0.33762E+00         0.00000E+00
    0.17276E+00        -0.23454E+00         0.00000E+00
    0.12569E+00        -0.12468E+00         0.00000E+00
    0.00000E+00         0.00000E+00         0.00000E+00
    0.35978E+00        -0.19284E+01         0.00000E+00
    0.26172E+00        -0.17472E+01         0.00000E+00
    0.21758E+00        -0.15657E+01         0.00000E+00
    0.19336E+00        -0.13994E+01         0.00000E+00
    0.17976E+00        -0.12487E+01         0.00000E+00
    0.17265E+00        -0.11113E+01         0.00000E+00
    0.16827E+00        -0.98526E+00         0.00000E+00
    0.16470E+00        -0.86856E+00         0.00000E+00
    0.16085E+00        -0.75914E+00         0.00000E+00
    0.15591E+00        -0.65506E+00         0.00000E+00
    0.14900E+00        -0.55434E+00         0.00000E+00
    0.13903E+00        -0.45475E+00         0.00000E+00
    0.12476E+00        -0.35350E+00         0.00000E+00
    0.10633E+00        -0.24741E+00         0.00000E+00
    0.78742E-01        -0.13405E+00         0.00000E+00
    0.00000E+00         0.00000E+00         0.00000E+00
    0.00000E+00        -0.20434E+01         0.00000E+00
    0.00000E+00        -0.18117E+01         0.00000E+00
    0.00000E+00        -0.16073E+01         0.00000E+00
    0.00000E+00        -0.14280E+01         0.00000E+00
    0.00000E+00        -0.12686E+01         0.00000E+00
    0.00000E+00        -0.11257E+01         0.00000E+00
    0.00000E+00        -0.99637E+00         0.00000E+00
    0.00000E+00        -0.87758E+00         0.00000E+00
    0.00000E+00        -0.76691E+00         0.00000E+00
    0.00000E+00        -0.66222E+00         0.00000E+00
    0.00000E+00        -0.56141E+00         0.00000E+00
    0.00000E+00        -0.46201E+00         0.00000E+00
    0.00000E+00        -0.36044E+00         0.00000E+00
    0.00000E+00        -0.25303E+00         0.00000E+00
    0.00000E+00        -0.13983E+00         0.00000E+00
    0.00000E+00         0.00000E+00         0.00000E+00
CELL_DATA        450
VECTORS vDarcy double 
    0.34354E-10         0.95814E-10         0.00000E+00
    0.31688E-10         0.27008E-09         0.00000E+00
    0.26904E-10         0.41606E-09         0.00000E+00
    0.20613E-10         0.53209E-09         0.00000E+00
    0.13360E-10         0.61794E-09         0.00000E+00
    0.56084E-11         0.67438E-09         0.00000E+00
   -0.22613E-11         0.70272E-09         0.00000E+00
   -0.99452E-11         0.70455E-09         0.00000E+00
   -0.17204E-10         0.68143E-09         0.00000E+00
   -0.23850E-10         0.63474E-09         0.00000E+00
   -0.29728E-10         0.56559E-09         0.00000E+00
   -0.34705E-10         0.47487E-09         0.00000E+00
   -0.38655E-10         0.36334E-09         0.00000E+00
   -0.41444E-10         0.23192E-09         0.00000E+00
   -0.42921E-10         0.81948E-10         0.00000E+00
    0.10187E-09         0.98708E-10         0.00000E+00
    0.93860E-10         0.27786E-09         0.00000E+00
    0.79482E-10         0.42744E-09         0.00000E+00
    0.60580E-10         0.54590E-09         0.00000E+00
    0.38792E-10         0.63317E-09         0.00000E+00
    0.15510E-10         0.69018E-09         0.00000E+00
   -0.81222E-11         0.71842E-09         0.00000E+00
   -0.31196E-10         0.71961E-09         0.00000E+00
   -0.52999E-10         0.69544E-09         0.00000E+00
   -0.72966E-10         0.64735E-09         0.00000E+00
   -0.90639E-10         0.57653E-09         0.00000E+00
   -0.10562E-09         0.48388E-09         0.00000E+00
   -0.11752E-09         0.37018E-09         0.00000E+00
   -0.12593E-09         0.23629E-09         0.00000E+00
   -0.13040E-09         0.83516E-10         0.00000E+00
    0.16729E-09         0.10451E-09         0.00000E+00
    0.15389E-09         0.29347E-09         0.00000E+00
    0.12985E-09         0.45025E-09         0.00000E+00
    0.98247E-10         0.57358E-09         0.00000E+00
    0.61842E-10         0.66368E-09         0.00000E+00
    0.22961E-10         0.72183E-09         0.00000E+00
   -0.16494E-10         0.74986E-09         0.00000E+00
   -0.55014E-10         0.74977E-09         0.00000E+00
   -0.91423E-10         0.72349E-09         0.00000E+00
   -0.12479E-09         0.67264E-09         0.00000E+00
   -0.15437E-09         0.59849E-09         0.00000E+00
   -0.17948E-09         0.50201E-09         0.00000E+00
   -0.19947E-09         0.38395E-09         0.00000E+00
   -0.21365E-09         0.24512E-09         0.00000E+00
   -0.22119E-09         0.86693E-10         0.00000E+00
    0.22916E-09         0.11325E-09         0.00000E+00
    0.21030E-09         0.31698E-09         0.00000E+00
    0.17647E-09         0.48462E-09         0.00000E+00
    0.13205E-09         0.61524E-09         0.00000E+00
    0.80912E-10         0.70957E-09         0.00000E+00
    0.26346E-10         0.76940E-09         0.00000E+00
   -0.28991E-10         0.79708E-09         0.00000E+00
   -0.83008E-10         0.79508E-09         0.00000E+00
   -0.13408E-09         0.76566E-09         0.00000E+00
   -0.18095E-09         0.71070E-09         0.00000E+00
   -0.22256E-09         0.63162E-09         0.00000E+00
   -0.25798E-09         0.52942E-09         0.00000E+00
   -0.28628E-09         0.40484E-09         0.00000E+00
   -0.30643E-09         0.25855E-09         0.00000E+00
   -0.31718E-09         0.91549E-10         0.00000E+00
    0.28592E-09         0.12499E-09         0.00000E+00
    0.26150E-09         0.34852E-09         0.00000E+00
    0.21773E-09         0.53067E-09         0.00000E+00
    0.16034E-09         0.67100E-09         0.00000E+00
    0.94377E-10         0.77090E-09         0.00000E+00
    0.24077E-10         0.83292E-09         0.00000E+00
   -0.47146E-10         0.86012E-09         0.00000E+00
   -0.11664E-09         0.85556E-09         0.00000E+00
   -0.18237E-09         0.82199E-09         0.00000E+00
   -0.24276E-09         0.76162E-09         0.00000E+00
   -0.29651E-09         0.67605E-09         0.00000E+00
   -0.34242E-09         0.56632E-09         0.00000E+00
   -0.37926E-09         0.43308E-09         0.00000E+00
   -0.40562E-09         0.27681E-09         0.00000E+00
   -0.41977E-09         0.98188E-10         0.00000E+00
    0.33583E-09         0.13980E-09         0.00000E+00
    0.30573E-09         0.38824E-09         0.00000E+00
    0.25188E-09         0.58857E-09         0.00000E+00
    0.18140E-09         0.74097E-09         0.00000E+00
    0.10057E-09         0.84773E-09         0.00000E+00
    0.14594E-10         0.91237E-09         0.00000E+00
   -0.72373E-10         0.93886E-09         0.00000E+00
   -0.15716E-09         0.93109E-09         0.00000E+00
   -0.23736E-09         0.89240E-09         0.00000E+00
   -0.31115E-09         0.82539E-09         0.00000E+00
   -0.37700E-09         0.73187E-09         0.00000E+00
   -0.43349E-09         0.61290E-09         0.00000E+00
   -0.47906E-09         0.46893E-09         0.00000E+00
   -0.51187E-09         0.30014E-09         0.00000E+00
   -0.52958E-09         0.10673E-09         0.00000E+00
    0.37689E-09         0.15774E-09         0.00000E+00
    0.34100E-09         0.43630E-09         0.00000E+00
    0.27694E-09         0.65843E-09         0.00000E+00
    0.19334E-09         0.82518E-09         0.00000E+00
    0.97757E-10         0.93995E-09         0.00000E+00
   -0.36126E-11         0.10075E-08         0.00000E+00
   -0.10591E-09         0.10330E-08         0.00000E+00
   -0.20550E-09         0.10213E-08         0.00000E+00
   -0.29969E-09         0.97656E-09         0.00000E+00
   -0.38646E-09         0.90179E-09         0.00000E+00
   -0.46412E-09         0.79900E-09         0.00000E+00
   -0.53106E-09         0.66919E-09         0.00000E+00
   -0.58539E-09         0.51254E-09         0.00000E+00
   -0.62479E-09         0.32873E-09         0.00000E+00
   -0.64622E-09         0.11729E-09         0.00000E+00
    0.40681E-09         0.17890E-09         0.00000E+00
    0.36504E-09         0.49281E-09         0.00000E+00
    0.29072E-09         0.74030E-09         0.00000E+00
    0.19415E-09         0.92348E-09         0.00000E+00
    0.84191E-10         0.10472E-08         0.00000E+00
   -0.31947E-10         0.11178E-08         0.00000E+00
   -0.14875E-09         0.11418E-08         0.00000E+00
   -0.26218E-09         0.11255E-08         0.00000E+00
   -0.36937E-09         0.10738E-08         0.00000E+00
   -0.46822E-09         0.99020E-09         0.00000E+00
   -0.55698E-09         0.87701E-09         0.00000E+00
   -0.63387E-09         0.73500E-09         0.00000E+00
   -0.69672E-09         0.56391E-09         0.00000E+00
   -0.74266E-09         0.36269E-09         0.00000E+00
   -0.76786E-09         0.12996E-09         0.00000E+00
    0.42298E-09         0.20334E-09         0.00000E+00
    0.37529E-09         0.55783E-09         0.00000E+00
    0.29083E-09         0.83405E-09         0.00000E+00
    0.18168E-09         0.10355E-08         0.00000E+00
    0.58129E-10         0.11687E-08         0.00000E+00
   -0.71617E-10         0.12421E-08         0.00000E+00
   -0.20145E-09         0.12641E-08         0.00000E+00
   -0.32707E-09         0.12423E-08         0.00000E+00
   -0.44556E-09         0.11827E-08         0.00000E+00
   -0.55490E-09         0.10895E-08         0.00000E+00
   -0.65339E-09         0.96498E-09         0.00000E+00
   -0.73918E-09         0.80971E-09         0.00000E+00
   -0.80985E-09         0.62272E-09         0.00000E+00
   -0.86198E-09         0.40195E-09         0.00000E+00
   -0.89084E-09         0.14476E-09         0.00000E+00
    0.42249E-09         0.23112E-09         0.00000E+00
    0.36892E-09         0.63132E-09         0.00000E+00
    0.27463E-09         0.93930E-09         0.00000E+00
    0.15372E-09         0.11603E-08         0.00000E+00
    0.17967E-10         0.13032E-08         0.00000E+00
   -0.12346E-09         0.13788E-08         0.00000E+00
   -0.26396E-09         0.13978E-08         0.00000E+00
   -0.39915E-09         0.13694E-08         0.00000E+00
   -0.52627E-09         0.13011E-08         0.00000E+00
   -0.64352E-09         0.11976E-08         0.00000E+00
   -0.74946E-09         0.10613E-08         0.00000E+00
   -0.84230E-09         0.89208E-09         0.00000E+00
   -0.91944E-09         0.68816E-09         0.00000E+00
   -0.97692E-09         0.44611E-09         0.00000E+00
   -0.10091E-08         0.16162E-09         0.00000E+00
    0.40214E-09         0.26225E-09         0.00000E+00
    0.34286E-09         0.71305E-09         0.00000E+00
    0.23944E-09         0.10553E-08         0.00000E+00
    0.10818E-09         0.12965E-08         0.00000E+00
   -0.37536E-10         0.14485E-08         0.00000E+00
   -0.18765E-09         0.15251E-08         0.00000E+00
   -0.33526E-09         0.15396E-08         0.00000E+00
   -0.47611E-09         0.15036E-08         0.00000E+00
   -0.60783E-09         0.14258E-08         0.00000E+00
   -0.72915E-09         0.13115E-08         0.00000E+00
   -0.83906E-09         0.11632E-08         0.00000E+00
   -0.93604E-09         0.97999E-09         0.00000E+00
   -0.10174E-08         0.75876E-09         0.00000E+00
   -0.10787E-08         0.49433E-09         0.00000E+00
   -0.11135E-08         0.18027E-09         0.00000E+00
    0.35861E-09         0.29667E-09         0.00000E+00
    0.29402E-09         0.80249E-09         0.00000E+00
    0.18267E-09         0.11806E-08         0.00000E+00
    0.43385E-10         0.14417E-08         0.00000E+00
   -0.10885E-09         0.16012E-08         0.00000E+00
   -0.26323E-09         0.16768E-08         0.00000E+00
   -0.41278E-09         0.16850E-08         0.00000E+00
   -0.55369E-09         0.16399E-08         0.00000E+00
   -0.68433E-09         0.15518E-08         0.00000E+00
   -0.80425E-09         0.14267E-08         0.00000E+00
   -0.91314E-09         0.12668E-08         0.00000E+00
   -0.10100E-08         0.10702E-08         0.00000E+00
   -0.10922E-08         0.83210E-09         0.00000E+00
   -0.11550E-08         0.54512E-09         0.00000E+00
   -0.11910E-08         0.20023E-09         0.00000E+00
    0.28873E-09         0.33423E-09         0.00000E+00
    0.21961E-09         0.89865E-09         0.00000E+00
    0.10239E-09         0.13130E-08         0.00000E+00
   -0.41316E-10         0.15922E-08         0.00000E+00
   -0.19499E-09         0.17566E-08         0.00000E+00
   -0.34730E-09         0.18282E-08         0.00000E+00
   -0.49159E-09         0.18275E-08         0.00000E+00
   -0.62488E-09         0.17716E-08         0.00000E+00
   -0.74669E-09         0.16726E-08         0.00000E+00
   -0.85776E-09         0.15370E-08         0.00000E+00
   -0.95883E-09         0.13665E-08         0.00000E+00
   -0.10496E-08         0.11581E-08         0.00000E+00
   -0.11278E-08         0.90464E-09         0.00000E+00
   -0.11886E-08         0.59622E-09         0.00000E+00
   -0.12241E-08         0.22067E-09         0.00000E+00
    0.19013E-09         0.37451E-09         0.00000E+00
    0.11792E-09         0.99970E-09         0.00000E+00
   -0.18002E-11         0.14489E-08         0.00000E+00
   -0.14449E-09         0.17427E-08         0.00000E+00
   -0.29229E-09         0.19075E-08         0.00000E+00
   -0.43377E-09         0.19710E-08         0.00000E+00
   -0.56306E-09         0.19583E-08         0.00000E+00
   -0.67855E-09         0.18897E-08         0.00000E+00
   -0.78140E-09         0.17792E-08         0.00000E+00
   -0.87394E-09         0.16340E-08         0.00000E+00
   -0.95832E-09         0.14550E-08         0.00000E+00
   -0.10353E-08         0.12373E-08         0.00000E+00
   -0.11031E-08         0.97147E-09         0.00000E+00
   -0.11572E-08         0.64435E-09         0.00000E+00
   -0.11896E-08         0.24036E-09         0.00000E+00
    0.62503E-10         0.41667E-09         0.00000E+00
   -0.10259E-10         0.11025E-08         0.00000E+00
   -0.12712E-09         0.15827E-08         0.00000E+00
   -0.26082E-09         0.18854E-08         0.00000E+00
   -0.39257E-09         0.20445E-08         0.00000E+00
   -0.51143E-09         0.20944E-08         0.00000E+00
   -0.61299E-09         0.20657E-08         0.00000E+00
   -0.69769E-09         0.19824E-08         0.00000E+00
   -0.76881E-09         0.18604E-08         0.00000E+00
   -0.83076E-09         0.17072E-08         0.00000E+00
   -0.88743E-09         0.15228E-08         0.00000E+00
   -0.94088E-09         0.12999E-08         0.00000E+00
   -0.99036E-09         0.10262E-08         0.00000E+00
   -0.10318E-08         0.68516E-09         0.00000E+00
   -0.10575E-08         0.25760E-09         0.00000E+00
   -0.89997E-10         0.45898E-09         0.00000E+00
   -0.15892E-09         0.12019E-08         0.00000E+00
   -0.26484E-09         0.17061E-08         0.00000E+00
   -0.37834E-09         0.20092E-08         0.00000E+00
   -0.48026E-09         0.21543E-08         0.00000E+00
   -0.56108E-09         0.21842E-08         0.00000E+00
   -0.61888E-09         0.21353E-08         0.00000E+00
   -0.65682E-09         0.20355E-08         0.00000E+00
   -0.68087E-09         0.19025E-08         0.00000E+00
   -0.69790E-09         0.17441E-08         0.00000E+00
   -0.71388E-09         0.15586E-08         0.00000E+00
   -0.73251E-09         0.13362E-08         0.00000E+00
   -0.75420E-09         0.10611E-08         0.00000E+00
   -0.77574E-09         0.71324E-09         0.00000E+00
   -0.79067E-09         0.27018E-09         0.00000E+00
   -0.25400E-09         0.49771E-09         0.00000E+00
   -0.31218E-09         0.12903E-08         0.00000E+00
   -0.39627E-09         0.18077E-08         0.00000E+00
   -0.47436E-09         0.20991E-08         0.00000E+00
   -0.52814E-09         0.22201E-08         0.00000E+00
   -0.55143E-09         0.22226E-08         0.00000E+00
   -0.54608E-09         0.21494E-08         0.00000E+00
   -0.51872E-09         0.20320E-08         0.00000E+00
   -0.47829E-09         0.18897E-08         0.00000E+00
   -0.43433E-09         0.17300E-08         0.00000E+00
   -0.39522E-09         0.15495E-08         0.00000E+00
   -0.36661E-09         0.13353E-08         0.00000E+00
   -0.35031E-09         0.10674E-08         0.00000E+00
   -0.34422E-09         0.72238E-09         0.00000E+00
   -0.34370E-09         0.27545E-09         0.00000E+00
   -0.39663E-09         0.53025E-09         0.00000E+00
   -0.43981E-09         0.13591E-08         0.00000E+00
   -0.48831E-09         0.18715E-08         0.00000E+00
   -0.50960E-09         0.21347E-08         0.00000E+00
   -0.49119E-09         0.22199E-08         0.00000E+00
   -0.43337E-09         0.21882E-08         0.00000E+00
   -0.34303E-09         0.20880E-08         0.00000E+00
   -0.23043E-09         0.19534E-08         0.00000E+00
   -0.10732E-09         0.18047E-08         0.00000E+00
    0.14254E-10         0.16494E-08         0.00000E+00
    0.12332E-09         0.14819E-08         0.00000E+00
    0.21169E-09         0.12858E-08         0.00000E+00
    0.27578E-09         0.10364E-08         0.00000E+00
    0.31665E-09         0.70640E-09         0.00000E+00
    0.33698E-09         0.27058E-09         0.00000E+00
   -0.47902E-09         0.56068E-09         0.00000E+00
   -0.49995E-09         0.13928E-08         0.00000E+00
   -0.48570E-09         0.18721E-08         0.00000E+00
   -0.41844E-09         0.20882E-08         0.00000E+00
   -0.29784E-09         0.21274E-08         0.00000E+00
   -0.13286E-09         0.20579E-08         0.00000E+00
    0.64469E-10         0.19307E-08         0.00000E+00
    0.28099E-09         0.17815E-08         0.00000E+00
    0.50325E-09         0.16312E-08         0.00000E+00
    0.71764E-09         0.14870E-08         0.00000E+00
    0.91055E-09         0.13424E-08         0.00000E+00
    0.10702E-08         0.11774E-08         0.00000E+00
    0.11899E-08         0.96110E-09         0.00000E+00
    0.12700E-08         0.66073E-09         0.00000E+00
    0.13128E-08         0.25316E-09         0.00000E+00
   -0.46980E-09         0.56435E-09         0.00000E+00
   -0.41447E-09         0.13547E-08         0.00000E+00
   -0.28990E-09         0.17713E-08         0.00000E+00
   -0.94035E-10         0.19258E-08         0.00000E+00
    0.16034E-09         0.19148E-08         0.00000E+00
    0.45663E-09         0.18092E-08         0.00000E+00
    0.77862E-09         0.16601E-08         0.00000E+00
    0.11120E-08         0.15023E-08         0.00000E+00
    0.14439E-08         0.13563E-08         0.00000E+00
    0.17613E-08         0.12301E-08         0.00000E+00
    0.20491E-08         0.11186E-08         0.00000E+00
    0.22899E-08         0.10007E-08         0.00000E+00
    0.24703E-08         0.83775E-09         0.00000E+00
    0.25888E-08         0.58541E-09         0.00000E+00
    0.26522E-08         0.22236E-09         0.00000E+00
   -0.15087E-09         0.51004E-09         0.00000E+00
   -0.11486E-11         0.12040E-08         0.00000E+00
    0.26709E-09         0.15293E-08         0.00000E+00
    0.62394E-09         0.16151E-08         0.00000E+00
    0.10367E-08         0.15584E-08         0.00000E+00
    0.14793E-08         0.14267E-08         0.00000E+00
    0.19327E-08         0.12672E-08         0.00000E+00
    0.23837E-08         0.11108E-08         0.00000E+00
    0.28233E-08         0.97627E-09         0.00000E+00
    0.32430E-08         0.87294E-09         0.00000E+00
    0.36297E-08         0.80135E-09         0.00000E+00
    0.39607E-08         0.74611E-09         0.00000E+00
    0.42081E-08         0.66450E-09         0.00000E+00
    0.43590E-08         0.48926E-09         0.00000E+00
    0.44323E-08         0.18187E-09         0.00000E+00
    0.73444E-09         0.40149E-09         0.00000E+00
    0.98254E-09         0.91468E-09         0.00000E+00
    0.14155E-08         0.11173E-08         0.00000E+00
    0.19511E-08         0.11347E-08         0.00000E+00
    0.25297E-08         0.10474E-08         0.00000E+00
    0.31153E-08         0.90953E-09         0.00000E+00
    0.36880E-08         0.75828E-09         0.00000E+00
    0.42385E-08         0.61814E-09         0.00000E+00
    0.47638E-08         0.50406E-09         0.00000E+00
    0.52639E-08         0.42530E-09         0.00000E+00
    0.57359E-08         0.39043E-09         0.00000E+00
    0.61586E-08         0.40328E-09         0.00000E+00
    0.64925E-08         0.42600E-09         0.00000E+00
    0.66951E-08         0.37426E-09         0.00000E+00
    0.67677E-08         0.15099E-09         0.00000E+00
    0.24374E-08         0.22052E-09         0.00000E+00
    0.28231E-08         0.46180E-09         0.00000E+00
    0.34384E-08         0.52193E-09         0.00000E+00
    0.41472E-08         0.48568E-09         0.00000E+00
    0.48697E-08         0.39530E-09         0.00000E+00
    0.55660E-08         0.27973E-09         0.00000E+00
    0.62198E-08         0.16151E-09         0.00000E+00
    0.68274E-08         0.56856E-10         0.00000E+00
    0.73917E-08        -0.24219E-10         0.00000E+00
    0.79202E-08        -0.75027E-10         0.00000E+00
    0.84231E-08        -0.84103E-10         0.00000E+00
    0.89004E-08        -0.22261E-10         0.00000E+00
    0.93124E-08         0.10572E-09         0.00000E+00
    0.96036E-08         0.20069E-09         0.00000E+00
    0.97354E-08         0.12011E-09         0.00000E+00
    0.53777E-08        -0.55813E-10         0.00000E+00
    0.58912E-08        -0.16113E-09         0.00000E+00
    0.66564E-08        -0.23550E-09         0.00000E+00
    0.74820E-08        -0.29138E-09         0.00000E+00
    0.82801E-08        -0.34815E-09         0.00000E+00
    0.90167E-08        -0.40975E-09         0.00000E+00
    0.96832E-08        -0.46941E-09         0.00000E+00
    0.10282E-07        -0.51824E-09         0.00000E+00
    0.10818E-07        -0.54991E-09         0.00000E+00
    0.11300E-07        -0.55987E-09         0.00000E+00
    0.11735E-07        -0.53685E-09         0.00000E+00
    0.12117E-07        -0.42853E-09         0.00000E+00
    0.12458E-07        -0.24095E-09         0.00000E+00
    0.12798E-07        -0.84030E-10         0.00000E+00
    0.13069E-07         0.19459E-11         0.00000E+00
    0.99767E-08        -0.40638E-09         0.00000E+00
    0.10546E-07        -0.89369E-09         0.00000E+00
    0.11344E-07        -0.10657E-08         0.00000E+00
    0.12156E-07        -0.10984E-08         0.00000E+00
    0.12905E-07        -0.10885E-08         0.00000E+00
    0.13571E-07        -0.10727E-08         0.00000E+00
    0.14155E-07        -0.10565E-08         0.00000E+00
    0.14661E-07        -0.10352E-08         0.00000E+00
    0.15095E-07        -0.10033E-08         0.00000E+00
    0.15460E-07        -0.95431E-09         0.00000E+00
    0.15756E-07        -0.87289E-09         0.00000E+00
    0.15991E-07        -0.70897E-09         0.00000E+00
    0.16207E-07        -0.51764E-09         0.00000E+00
    0.16448E-07        -0.38901E-09         0.00000E+00
    0.16668E-07        -0.18349E-09         0.00000E+00
    0.16484E-07        -0.75987E-09         0.00000E+00
    0.16954E-07        -0.15796E-08         0.00000E+00
    0.17572E-07        -0.17957E-08         0.00000E+00
    0.18169E-07        -0.17773E-08         0.00000E+00
    0.18702E-07        -0.16918E-08         0.00000E+00
    0.19164E-07        -0.15974E-08         0.00000E+00
    0.19554E-07        -0.15060E-08         0.00000E+00
    0.19878E-07        -0.14149E-08         0.00000E+00
    0.20138E-07        -0.13176E-08         0.00000E+00
    0.20337E-07        -0.12050E-08         0.00000E+00
    0.20480E-07        -0.10607E-08         0.00000E+00
    0.20591E-07        -0.86710E-09         0.00000E+00
    0.20693E-07        -0.67786E-09         0.00000E+00
    0.20798E-07        -0.57536E-09         0.00000E+00
    0.20893E-07        -0.31094E-09         0.00000E+00
    0.24683E-07        -0.98123E-09         0.00000E+00
    0.24831E-07        -0.19762E-08         0.00000E+00
    0.25012E-07        -0.21981E-08         0.00000E+00
    0.25184E-07        -0.21439E-08         0.00000E+00
    0.25339E-07        -0.20128E-08         0.00000E+00
    0.25468E-07        -0.18676E-08         0.00000E+00
    0.25566E-07        -0.17240E-08         0.00000E+00
    0.25628E-07        -0.15823E-08         0.00000E+00
    0.25655E-07        -0.14369E-08         0.00000E+00
    0.25649E-07        -0.12792E-08         0.00000E+00
    0.25619E-07        -0.10990E-08         0.00000E+00
    0.25578E-07        -0.89911E-09         0.00000E+00
    0.25534E-07        -0.70397E-09         0.00000E+00
    0.25473E-07        -0.59318E-09         0.00000E+00
    0.25416E-07        -0.33087E-09         0.00000E+00
    0.33586E-07        -0.91167E-09         0.00000E+00
    0.33235E-07        -0.18423E-08         0.00000E+00
    0.32812E-07        -0.20905E-08         0.00000E+00
    0.32452E-07        -0.20628E-08         0.00000E+00
    0.32145E-07        -0.19413E-08         0.00000E+00
    0.31868E-07        -0.17923E-08         0.00000E+00
    0.31608E-07        -0.16365E-08         0.00000E+00
    0.31356E-07        -0.14802E-08         0.00000E+00
    0.31112E-07        -0.13211E-08         0.00000E+00
    0.30876E-07        -0.11534E-08         0.00000E+00
    0.30653E-07        -0.97209E-09         0.00000E+00
    0.30447E-07        -0.77975E-09         0.00000E+00
    0.30258E-07        -0.59036E-09         0.00000E+00
    0.30047E-07        -0.43392E-09         0.00000E+00
    0.29844E-07        -0.23063E-09         0.00000E+00
    0.41456E-07        -0.47457E-09         0.00000E+00
    0.40678E-07        -0.11504E-08         0.00000E+00
    0.39776E-07        -0.14576E-08         0.00000E+00
    0.38952E-07        -0.15115E-08         0.00000E+00
    0.38207E-07        -0.14402E-08         0.00000E+00
    0.37521E-07        -0.13305E-08         0.00000E+00
    0.36891E-07        -0.12082E-08         0.00000E+00
    0.36316E-07        -0.10824E-08         0.00000E+00
    0.35796E-07        -0.95405E-09         0.00000E+00
    0.35332E-07        -0.82011E-09         0.00000E+00
    0.34926E-07        -0.67742E-09         0.00000E+00
    0.34583E-07        -0.52543E-09         0.00000E+00
    0.34294E-07        -0.36656E-09         0.00000E+00
    0.34027E-07        -0.17913E-09         0.00000E+00
    0.33793E-07        -0.48857E-10         0.00000E+00
    0.46040E-07        -0.81888E-10         0.00000E+00
    0.45616E-07        -0.34196E-09         0.00000E+00
    0.44764E-07        -0.51077E-09         0.00000E+00
    0.43691E-07        -0.56182E-09         0.00000E+00
    0.42588E-07        -0.54148E-09         0.00000E+00
    0.41545E-07        -0.50080E-09         0.00000E+00
    0.40591E-07        -0.45362E-09         0.00000E+00
    0.39733E-07        -0.40433E-09         0.00000E+00
    0.38975E-07        -0.35381E-09         0.00000E+00
    0.38320E-07        -0.30113E-09         0.00000E+00
    0.37774E-07        -0.24502E-09         0.00000E+00
    0.37344E-07        -0.18466E-09         0.00000E+00
    0.37043E-07        -0.11672E-09         0.00000E+00
    0.36903E-07        -0.22698E-10         0.00000E+00
    0.36906E-07         0.25580E-10         0.00000E+00
POINT_DATA        496
VECTORS vDarcyNodal double 
    0.35077E-10         0.95091E-10         0.00000E+00
    0.33631E-10         0.18161E-09         0.00000E+00
    0.29746E-10         0.34068E-09         0.00000E+00
    0.24062E-10         0.47093E-09         0.00000E+00
    0.17164E-10         0.57139E-09         0.00000E+00
    0.95562E-11         0.64228E-09         0.00000E+00
    0.16606E-11         0.68462E-09         0.00000E+00
   -0.61832E-11         0.69980E-09         0.00000E+00
   -0.13707E-10         0.68936E-09         0.00000E+00
   -0.20701E-10         0.65476E-09         0.00000E+00
   -0.26998E-10         0.59723E-09         0.00000E+00
   -0.32457E-10         0.51774E-09         0.00000E+00
   -0.36952E-10         0.41713E-09         0.00000E+00
   -0.40357E-10         0.29624E-09         0.00000E+00
   -0.42532E-10         0.15620E-09         0.00000E+00
   -0.43311E-10         0.81558E-10         0.00000E+00
    0.69559E-10         0.96537E-10         0.00000E+00
    0.66665E-10         0.18428E-09         0.00000E+00
    0.58883E-10         0.34546E-09         0.00000E+00
    0.47502E-10         0.47722E-09         0.00000E+00
    0.33691E-10         0.57864E-09         0.00000E+00
    0.18461E-10         0.65004E-09         0.00000E+00
    0.26576E-11         0.69248E-09         0.00000E+00
   -0.13041E-10         0.70748E-09         0.00000E+00
   -0.28101E-10         0.69662E-09         0.00000E+00
   -0.42103E-10         0.66141E-09         0.00000E+00
   -0.54713E-10         0.60310E-09         0.00000E+00
   -0.65654E-10         0.52272E-09         0.00000E+00
   -0.74669E-10         0.42108E-09         0.00000E+00
   -0.81504E-10         0.29903E-09         0.00000E+00
   -0.85875E-10         0.15767E-09         0.00000E+00
   -0.87444E-10         0.82337E-10         0.00000E+00
    0.13748E-09         0.10088E-09         0.00000E+00
    0.13168E-09         0.19229E-09         0.00000E+00
    0.11607E-09         0.35984E-09         0.00000E+00
    0.93254E-10         0.49612E-09         0.00000E+00
    0.65572E-10         0.60043E-09         0.00000E+00
    0.35061E-10         0.67332E-09         0.00000E+00
    0.34100E-11         0.71612E-09         0.00000E+00
   -0.28026E-10         0.73055E-09         0.00000E+00
   -0.58185E-10         0.71843E-09         0.00000E+00
   -0.86237E-10         0.68138E-09         0.00000E+00
   -0.11152E-09         0.62078E-09         0.00000E+00
   -0.13348E-09         0.53770E-09         0.00000E+00
   -0.15161E-09         0.43298E-09         0.00000E+00
   -0.16538E-09         0.30744E-09         0.00000E+00
   -0.17420E-09         0.16213E-09         0.00000E+00
   -0.17738E-09         0.84696E-10         0.00000E+00
    0.20259E-09         0.10814E-09         0.00000E+00
    0.19385E-09         0.20569E-09         0.00000E+00
    0.17034E-09         0.38388E-09         0.00000E+00
    0.13598E-09         0.52772E-09         0.00000E+00
    0.94317E-10         0.63684E-09         0.00000E+00
    0.48436E-10         0.71220E-09         0.00000E+00
    0.87075E-12         0.75557E-09         0.00000E+00
   -0.46356E-10         0.76907E-09         0.00000E+00
   -0.91666E-10         0.75483E-09         0.00000E+00
   -0.13384E-09         0.71475E-09         0.00000E+00
   -0.17190E-09         0.65035E-09         0.00000E+00
   -0.20502E-09         0.56281E-09         0.00000E+00
   -0.23243E-09         0.45298E-09         0.00000E+00
   -0.25332E-09         0.32162E-09         0.00000E+00
   -0.26676E-09         0.16967E-09         0.00000E+00
   -0.27161E-09         0.88690E-10         0.00000E+00
    0.26341E-09         0.11837E-09         0.00000E+00
    0.25167E-09         0.22455E-09         0.00000E+00
    0.22013E-09         0.41771E-09         0.00000E+00
    0.17407E-09         0.57214E-09         0.00000E+00
    0.11831E-09         0.68797E-09         0.00000E+00
    0.56975E-10         0.76676E-09         0.00000E+00
   -0.65513E-11         0.81091E-09         0.00000E+00
   -0.69586E-10         0.82309E-09         0.00000E+00
   -0.13006E-09         0.80591E-09         0.00000E+00
   -0.18639E-09         0.76161E-09         0.00000E+00
   -0.23731E-09         0.69196E-09         0.00000E+00
   -0.28175E-09         0.59823E-09         0.00000E+00
   -0.31865E-09         0.48128E-09         0.00000E+00
   -0.34690E-09         0.34177E-09         0.00000E+00
   -0.36516E-09         0.18043E-09         0.00000E+00
   -0.37180E-09         0.94409E-10         0.00000E+00
    0.31828E-09         0.13162E-09         0.00000E+00
    0.30348E-09         0.24897E-09         0.00000E+00
    0.26375E-09         0.46148E-09         0.00000E+00
    0.20586E-09         0.62953E-09         0.00000E+00
    0.13589E-09         0.75393E-09         0.00000E+00
    0.59058E-10         0.83706E-09         0.00000E+00
   -0.20386E-10         0.88213E-09         0.00000E+00
   -0.99132E-10         0.89259E-09         0.00000E+00
   -0.17466E-09         0.87164E-09         0.00000E+00
   -0.24507E-09         0.82200E-09         0.00000E+00
   -0.30884E-09         0.74571E-09         0.00000E+00
   -0.36467E-09         0.64414E-09         0.00000E+00
   -0.41124E-09         0.51813E-09         0.00000E+00
   -0.44708E-09         0.36813E-09         0.00000E+00
   -0.47041E-09         0.19457E-09         0.00000E+00
   -0.47895E-09         0.10197E-09         0.00000E+00
    0.36534E-09         0.14797E-09         0.00000E+00
    0.34739E-09         0.27907E-09         0.00000E+00
    0.29934E-09         0.51533E-09         0.00000E+00
    0.22947E-09         0.70001E-09         0.00000E+00
    0.14527E-09         0.83477E-09         0.00000E+00
    0.53056E-10         0.92304E-09         0.00000E+00
   -0.42074E-10         0.96910E-09         0.00000E+00
   -0.13621E-09         0.97737E-09         0.00000E+00
   -0.22644E-09         0.95185E-09         0.00000E+00
   -0.31061E-09         0.89579E-09         0.00000E+00
   -0.38700E-09         0.81156E-09         0.00000E+00
   -0.45413E-09         0.70063E-09         0.00000E+00
   -0.51042E-09         0.56370E-09         0.00000E+00
   -0.55403E-09         0.40094E-09         0.00000E+00
   -0.58262E-09         0.21229E-09         0.00000E+00
   -0.59318E-09         0.11149E-09         0.00000E+00
    0.40243E-09         0.16751E-09         0.00000E+00
    0.38127E-09         0.31497E-09         0.00000E+00
    0.32476E-09         0.57940E-09         0.00000E+00
    0.24290E-09         0.78360E-09         0.00000E+00
    0.14460E-09         0.93035E-09         0.00000E+00
    0.37352E-10         0.10244E-08         0.00000E+00
   -0.72912E-10         0.10714E-08         0.00000E+00
   -0.18175E-09         0.10770E-08         0.00000E+00
   -0.28593E-09         0.10460E-08         0.00000E+00
   -0.38313E-09         0.98256E-09         0.00000E+00
   -0.47155E-09         0.88923E-09         0.00000E+00
   -0.54956E-09         0.76756E-09         0.00000E+00
   -0.61537E-09         0.61803E-09         0.00000E+00
   -0.66674E-09         0.44033E-09         0.00000E+00
   -0.70071E-09         0.23372E-09         0.00000E+00
   -0.71337E-09         0.12309E-09         0.00000E+00
    0.42712E-09         0.19029E-09         0.00000E+00
    0.40268E-09         0.35674E-09         0.00000E+00
    0.33765E-09         0.65371E-09         0.00000E+00
    0.24390E-09         0.88017E-09         0.00000E+00
    0.13192E-09         0.10403E-08         0.00000E+00
    0.10395E-10         0.11405E-08         0.00000E+00
   -0.11396E-09         0.11882E-08         0.00000E+00
   -0.23623E-09         0.11904E-08         0.00000E+00
   -0.35301E-09         0.11532E-08         0.00000E+00
   -0.46192E-09         0.10814E-08         0.00000E+00
   -0.56120E-09         0.97799E-09         0.00000E+00
   -0.64917E-09         0.84445E-09         0.00000E+00
   -0.72388E-09         0.68088E-09         0.00000E+00
   -0.78269E-09         0.48627E-09         0.00000E+00
   -0.82195E-09         0.25893E-09         0.00000E+00
   -0.83675E-09         0.13683E-09         0.00000E+00
    0.43663E-09         0.21640E-09         0.00000E+00
    0.40885E-09         0.40444E-09         0.00000E+00
    0.33536E-09         0.73817E-09         0.00000E+00
    0.23011E-09         0.98933E-09         0.00000E+00
    0.10529E-09         0.11639E-08         0.00000E+00
   -0.29195E-10         0.12703E-08         0.00000E+00
   -0.16588E-09         0.13180E-08         0.00000E+00
   -0.29953E-09         0.13160E-08         0.00000E+00
   -0.42669E-09         0.12717E-08         0.00000E+00
   -0.54514E-09         0.11907E-08         0.00000E+00
   -0.65328E-09         0.10765E-08         0.00000E+00
   -0.74956E-09         0.93025E-09         0.00000E+00
   -0.83193E-09         0.75155E-09         0.00000E+00
   -0.89737E-09         0.53840E-09         0.00000E+00
   -0.94153E-09         0.28779E-09         0.00000E+00
   -0.95839E-09         0.15270E-09         0.00000E+00
    0.42788E-09         0.24585E-09         0.00000E+00
    0.39675E-09         0.45801E-09         0.00000E+00
    0.31502E-09         0.83245E-09         0.00000E+00
    0.19904E-09         0.11102E-08         0.00000E+00
    0.62855E-10         0.12996E-08         0.00000E+00
   -0.82424E-10         0.14117E-08         0.00000E+00
   -0.22869E-09         0.14585E-08         0.00000E+00
   -0.37054E-09         0.14512E-08         0.00000E+00
   -0.50472E-09         0.13988E-08         0.00000E+00
   -0.62937E-09         0.13080E-08         0.00000E+00
   -0.74330E-09         0.11824E-08         0.00000E+00
   -0.84522E-09         0.10231E-08         0.00000E+00
   -0.93313E-09         0.82869E-09         0.00000E+00
   -0.10037E-08         0.59588E-09         0.00000E+00
   -0.10519E-08         0.31994E-09         0.00000E+00
   -0.10706E-08         0.17054E-09         0.00000E+00
    0.39759E-09         0.27865E-09         0.00000E+00
    0.36316E-09         0.51729E-09         0.00000E+00
    0.27372E-09         0.93588E-09         0.00000E+00
    0.14838E-09         0.12415E-08         0.00000E+00
    0.31831E-11         0.14453E-08         0.00000E+00
   -0.14957E-09         0.15618E-08         0.00000E+00
   -0.30131E-09         0.16061E-08         0.00000E+00
   -0.44674E-09         0.15920E-08         0.00000E+00
   -0.58306E-09         0.15306E-08         0.00000E+00
   -0.70909E-09         0.14293E-08         0.00000E+00
   -0.82430E-09         0.12923E-08         0.00000E+00
   -0.92790E-09         0.11201E-08         0.00000E+00
   -0.10181E-08         0.91005E-09         0.00000E+00
   -0.10915E-08         0.65721E-09         0.00000E+00
   -0.11423E-08         0.35466E-09         0.00000E+00
   -0.11622E-08         0.19000E-09         0.00000E+00
    0.34245E-09         0.31470E-09         0.00000E+00
    0.30489E-09         0.58188E-09         0.00000E+00
    0.20874E-09         0.10472E-08         0.00000E+00
    0.76318E-10         0.13808E-08         0.00000E+00
   -0.74249E-10         0.15976E-08         0.00000E+00
   -0.22959E-09         0.17162E-08         0.00000E+00
   -0.38094E-09         0.17557E-08         0.00000E+00
   -0.52343E-09         0.17329E-08         0.00000E+00
   -0.65514E-09         0.16612E-08         0.00000E+00
   -0.77588E-09         0.15492E-08         0.00000E+00
   -0.88612E-09         0.14012E-08         0.00000E+00
   -0.98585E-09         0.12169E-08         0.00000E+00
   -0.10737E-08         0.99224E-09         0.00000E+00
   -0.11463E-08         0.72001E-09         0.00000E+00
   -0.11974E-08         0.39069E-09         0.00000E+00
   -0.12178E-08         0.21045E-09         0.00000E+00
    0.25957E-09         0.35376E-09         0.00000E+00
    0.21929E-09         0.65100E-09         0.00000E+00
    0.11824E-09         0.11645E-08         0.00000E+00
   -0.17646E-10         0.15245E-08         0.00000E+00
   -0.16816E-09         0.17512E-08         0.00000E+00
   -0.31912E-09         0.18685E-08         0.00000E+00
   -0.46195E-09         0.19000E-08         0.00000E+00
   -0.59270E-09         0.18662E-08         0.00000E+00
   -0.71074E-09         0.17830E-08         0.00000E+00
   -0.81736E-09         0.16603E-08         0.00000E+00
   -0.91435E-09         0.15023E-08         0.00000E+00
   -0.10028E-08         0.13077E-08         0.00000E+00
   -0.10820E-08         0.10705E-08         0.00000E+00
   -0.11489E-08         0.78084E-09         0.00000E+00
   -0.11970E-08         0.42619E-09         0.00000E+00
   -0.12167E-08         0.23088E-09         0.00000E+00
    0.14740E-09         0.39527E-09         0.00000E+00
    0.10524E-09         0.72322E-09         0.00000E+00
    0.24158E-11         0.12842E-08         0.00000E+00
   -0.13134E-09         0.16672E-08         0.00000E+00
   -0.27397E-09         0.18990E-08         0.00000E+00
   -0.41089E-09         0.20100E-08         0.00000E+00
   -0.53430E-09         0.20293E-08         0.00000E+00
   -0.64175E-09         0.19817E-08         0.00000E+00
   -0.73449E-09         0.18859E-08         0.00000E+00
   -0.81572E-09         0.17528E-08         0.00000E+00
   -0.88898E-09         0.15867E-08         0.00000E+00
   -0.95677E-09         0.13846E-08         0.00000E+00
   -0.10194E-08         0.11383E-08         0.00000E+00
   -0.10741E-08         0.83498E-09         0.00000E+00
   -0.11149E-08         0.45852E-09         0.00000E+00
   -0.11322E-08         0.24984E-09         0.00000E+00
    0.74081E-11         0.43807E-09         0.00000E+00
   -0.34902E-10         0.79598E-09         0.00000E+00
   -0.13428E-09         0.14010E-08         0.00000E+00
   -0.25768E-09         0.18009E-08         0.00000E+00
   -0.38148E-09         0.20308E-08         0.00000E+00
   -0.49136E-09         0.21289E-08         0.00000E+00
   -0.58115E-09         0.21308E-08         0.00000E+00
   -0.65072E-09         0.20664E-08         0.00000E+00
   -0.70378E-09         0.19570E-08         0.00000E+00
   -0.74590E-09         0.18148E-08         0.00000E+00
   -0.78275E-09         0.16433E-08         0.00000E+00
   -0.81855E-09         0.14381E-08         0.00000E+00
   -0.85484E-09         0.11878E-08         0.00000E+00
   -0.88972E-09         0.87640E-09         0.00000E+00
   -0.91780E-09         0.48425E-09         0.00000E+00
   -0.93038E-09         0.26536E-09         0.00000E+00
   -0.15263E-09         0.47989E-09         0.00000E+00
   -0.19136E-09         0.86490E-09         0.00000E+00
   -0.27974E-09         0.15069E-08         0.00000E+00
   -0.38137E-09         0.19144E-08         0.00000E+00
   -0.47133E-09         0.21327E-08         0.00000E+00
   -0.53707E-09         0.22097E-08         0.00000E+00
   -0.57544E-09         0.21886E-08         0.00000E+00
   -0.58952E-09         0.21044E-08         0.00000E+00
   -0.58601E-09         0.19810E-08         0.00000E+00
   -0.57316E-09         0.18318E-08         0.00000E+00
   -0.55907E-09         0.16593E-08         0.00000E+00
   -0.55003E-09         0.14567E-08         0.00000E+00
   -0.54910E-09         0.12095E-08         0.00000E+00
   -0.55541E-09         0.89794E-09         0.00000E+00
   -0.56455E-09         0.49917E-09         0.00000E+00
   -0.56982E-09         0.27500E-09         0.00000E+00
   -0.30904E-09         0.51554E-09         0.00000E+00
   -0.34158E-09         0.92309E-09         0.00000E+00
   -0.41041E-09         0.15910E-08         0.00000E+00
   -0.47418E-09         0.19925E-08         0.00000E+00
   -0.50978E-09         0.21865E-08         0.00000E+00
   -0.50955E-09         0.22330E-08         0.00000E+00
   -0.47524E-09         0.21833E-08         0.00000E+00
   -0.41388E-09         0.20770E-08         0.00000E+00
   -0.33527E-09         0.19406E-08         0.00000E+00
   -0.25035E-09         0.17879E-08         0.00000E+00
   -0.16973E-09         0.16202E-08         0.00000E+00
   -0.10217E-09         0.14281E-08         0.00000E+00
   -0.52751E-10         0.11932E-08         0.00000E+00
   -0.21780E-10         0.89185E-09         0.00000E+00
   -0.57972E-11         0.49866E-09         0.00000E+00
   -0.92492E-12         0.27590E-09         0.00000E+00
   -0.42261E-09         0.54496E-09         0.00000E+00
   -0.45304E-09         0.96626E-09         0.00000E+00
   -0.48671E-09         0.16395E-08         0.00000E+00
   -0.48730E-09         0.20137E-08         0.00000E+00
   -0.44074E-09         0.21681E-08         0.00000E+00
   -0.34830E-09         0.21751E-08         0.00000E+00
   -0.21792E-09         0.20930E-08         0.00000E+00
   -0.60639E-10         0.19644E-08         0.00000E+00
    0.11119E-09         0.18175E-08         0.00000E+00
    0.28474E-09         0.16663E-08         0.00000E+00
    0.44716E-09         0.15111E-08         0.00000E+00
    0.58671E-09         0.13397E-08         0.00000E+00
    0.69516E-09         0.11291E-08         0.00000E+00
    0.77050E-09         0.85099E-09         0.00000E+00
    0.81617E-09         0.47832E-09         0.00000E+00
    0.83359E-09         0.26525E-09         0.00000E+00
   -0.47258E-09         0.57641E-09         0.00000E+00
   -0.47624E-09         0.98719E-09         0.00000E+00
   -0.43818E-09         0.16253E-08         0.00000E+00
   -0.33742E-09         0.19465E-08         0.00000E+00
   -0.17505E-09         0.20475E-08         0.00000E+00
    0.37546E-10         0.20101E-08         0.00000E+00
    0.28623E-09         0.18956E-08         0.00000E+00
    0.55686E-09         0.17479E-08         0.00000E+00
    0.83611E-09         0.15952E-08         0.00000E+00
    0.11110E-08         0.14519E-08         0.00000E+00
    0.13679E-08         0.13182E-08         0.00000E+00
    0.15917E-08         0.11801E-08         0.00000E+00
    0.17684E-08         0.10094E-08         0.00000E+00
    0.18918E-08         0.77085E-09         0.00000E+00
    0.19671E-08         0.43556E-09         0.00000E+00
    0.19979E-08         0.24106E-09         0.00000E+00
   -0.33749E-09         0.55229E-09         0.00000E+00
   -0.28318E-09         0.93186E-09         0.00000E+00
   -0.13244E-09         0.15007E-08         0.00000E+00
    0.10962E-09         0.17506E-08         0.00000E+00
    0.42028E-09         0.17931E-08         0.00000E+00
    0.77674E-09         0.17139E-08         0.00000E+00
    0.11592E-08         0.15736E-08         0.00000E+00
    0.15521E-08         0.14145E-08         0.00000E+00
    0.19436E-08         0.12633E-08         0.00000E+00
    0.23236E-08         0.11345E-08         0.00000E+00
    0.26808E-08         0.10305E-08         0.00000E+00
    0.29980E-08         0.93923E-09         0.00000E+00
    0.32526E-08         0.82905E-09         0.00000E+00
    0.34258E-08         0.65232E-09         0.00000E+00
    0.35220E-08         0.37220E-09         0.00000E+00
    0.35625E-08         0.20366E-09         0.00000E+00
    0.23751E-09         0.46779E-09         0.00000E+00
    0.34606E-09         0.78214E-09         0.00000E+00
    0.63533E-09         0.12325E-08         0.00000E+00
    0.10473E-08         0.13938E-08         0.00000E+00
    0.15277E-08         0.13804E-08         0.00000E+00
    0.20387E-08         0.12712E-08         0.00000E+00
    0.25559E-08         0.11203E-08         0.00000E+00
    0.30648E-08         0.96345E-09         0.00000E+00
    0.35575E-08         0.82373E-09         0.00000E+00
    0.40297E-08         0.71476E-09         0.00000E+00
    0.44773E-08         0.64384E-09         0.00000E+00
    0.48882E-08         0.60823E-09         0.00000E+00
    0.52311E-08         0.58156E-09         0.00000E+00
    0.54696E-08         0.50145E-09         0.00000E+00
    0.55846E-08         0.29892E-09         0.00000E+00
    0.56155E-08         0.16008E-09         0.00000E+00
    0.14954E-08         0.33519E-09         0.00000E+00
    0.16764E-08         0.53403E-09         0.00000E+00
    0.21293E-08         0.79949E-09         0.00000E+00
    0.27246E-08         0.85823E-09         0.00000E+00
    0.33737E-08         0.80171E-09         0.00000E+00
    0.40258E-08         0.68567E-09         0.00000E+00
    0.46556E-08         0.54755E-09         0.00000E+00
    0.52523E-08         0.41297E-09         0.00000E+00
    0.58136E-08         0.29847E-09         0.00000E+00
    0.63419E-08         0.21460E-09         0.00000E+00
    0.68422E-08         0.17189E-09         0.00000E+00
    0.73167E-08         0.18547E-09         0.00000E+00
    0.77423E-08         0.24771E-09         0.00000E+00
    0.80626E-08         0.29882E-09         0.00000E+00
    0.82361E-08         0.22633E-09         0.00000E+00
    0.82670E-08         0.14190E-09         0.00000E+00
    0.37694E-08         0.10586E-09         0.00000E+00
    0.40457E-08         0.14829E-09         0.00000E+00
    0.46687E-08         0.18425E-09         0.00000E+00
    0.54261E-08         0.14938E-09         0.00000E+00
    0.62031E-08         0.79266E-10         0.00000E+00
    0.69466E-08        -0.10636E-10         0.00000E+00
    0.76361E-08        -0.10631E-09         0.00000E+00
    0.82670E-08        -0.19461E-09         0.00000E+00
    0.88421E-08        -0.26583E-09         0.00000E+00
    0.93678E-08        -0.31385E-09         0.00000E+00
    0.98526E-08        -0.33102E-09         0.00000E+00
    0.10305E-07        -0.29184E-09         0.00000E+00
    0.10712E-07        -0.16425E-09         0.00000E+00
    0.11058E-07         0.75937E-11         0.00000E+00
    0.11343E-07         0.94478E-10         0.00000E+00
    0.11461E-07         0.98332E-10         0.00000E+00
    0.75019E-08        -0.21749E-09         0.00000E+00
    0.78525E-08        -0.36523E-09         0.00000E+00
    0.85850E-08        -0.58087E-09         0.00000E+00
    0.94153E-08        -0.67625E-09         0.00000E+00
    0.10222E-07        -0.71879E-09         0.00000E+00
    0.10963E-07        -0.74727E-09         0.00000E+00
    0.11626E-07        -0.77285E-09         0.00000E+00
    0.12213E-07        -0.79305E-09         0.00000E+00
    0.12730E-07        -0.80232E-09         0.00000E+00
    0.13183E-07        -0.79594E-09         0.00000E+00
    0.13577E-07        -0.76569E-09         0.00000E+00
    0.13914E-07        -0.67354E-09         0.00000E+00
    0.14194E-07        -0.50523E-09         0.00000E+00
    0.14471E-07        -0.33258E-09         0.00000E+00
    0.14776E-07        -0.17656E-09         0.00000E+00
    0.14961E-07        -0.94440E-10         0.00000E+00
    0.13054E-07        -0.59527E-09         0.00000E+00
    0.13407E-07        -0.93484E-09         0.00000E+00
    0.14093E-07        -0.13785E-08         0.00000E+00
    0.14823E-07        -0.14878E-08         0.00000E+00
    0.15502E-07        -0.14681E-08         0.00000E+00
    0.16105E-07        -0.14140E-08         0.00000E+00
    0.16630E-07        -0.13564E-08         0.00000E+00
    0.17079E-07        -0.12987E-08         0.00000E+00
    0.17459E-07        -0.12362E-08         0.00000E+00
    0.17773E-07        -0.11617E-08         0.00000E+00
    0.18024E-07        -0.10615E-08         0.00000E+00
    0.18212E-07        -0.90831E-09         0.00000E+00
    0.18370E-07        -0.72138E-09         0.00000E+00
    0.18530E-07        -0.57407E-09         0.00000E+00
    0.18717E-07        -0.39593E-09         0.00000E+00
    0.18844E-07        -0.27254E-09         0.00000E+00
    0.20473E-07        -0.92448E-09         0.00000E+00
    0.20694E-07        -0.14046E-08         0.00000E+00
    0.21091E-07        -0.19967E-08         0.00000E+00
    0.21493E-07        -0.20852E-08         0.00000E+00
    0.21860E-07        -0.20010E-08         0.00000E+00
    0.22181E-07        -0.18753E-08         0.00000E+00
    0.22451E-07        -0.17471E-08         0.00000E+00
    0.22669E-07        -0.16222E-08         0.00000E+00
    0.22837E-07        -0.14963E-08         0.00000E+00
    0.22956E-07        -0.13609E-08         0.00000E+00
    0.23030E-07        -0.12042E-08         0.00000E+00
    0.23068E-07        -0.10195E-08         0.00000E+00
    0.23100E-07        -0.82358E-09         0.00000E+00
    0.23127E-07        -0.67915E-09         0.00000E+00
    0.23144E-07        -0.49037E-09         0.00000E+00
    0.23164E-07        -0.34935E-09         0.00000E+00
    0.29170E-07        -0.10380E-08         0.00000E+00
    0.29100E-07        -0.15529E-08         0.00000E+00
    0.28966E-07        -0.21776E-08         0.00000E+00
    0.28859E-07        -0.22568E-08         0.00000E+00
    0.28777E-07        -0.21557E-08         0.00000E+00
    0.28706E-07        -0.20051E-08         0.00000E+00
    0.28631E-07        -0.18446E-08         0.00000E+00
    0.28543E-07        -0.16841E-08         0.00000E+00
    0.28441E-07        -0.15230E-08         0.00000E+00
    0.28325E-07        -0.13552E-08         0.00000E+00
    0.28199E-07        -0.11741E-08         0.00000E+00
    0.28072E-07        -0.97868E-09         0.00000E+00
    0.27953E-07        -0.77950E-09         0.00000E+00
    0.27839E-07        -0.61801E-09         0.00000E+00
    0.27680E-07        -0.43369E-09         0.00000E+00
    0.27580E-07        -0.31239E-09         0.00000E+00
    0.37740E-07        -0.78537E-09         0.00000E+00
    0.37302E-07        -0.12011E-08         0.00000E+00
    0.36611E-07        -0.17553E-08         0.00000E+00
    0.35978E-07        -0.18965E-08         0.00000E+00
    0.35426E-07        -0.18484E-08         0.00000E+00
    0.34925E-07        -0.17284E-08         0.00000E+00
    0.34463E-07        -0.15843E-08         0.00000E+00
    0.34035E-07        -0.14326E-08         0.00000E+00
    0.33637E-07        -0.12783E-08         0.00000E+00
    0.33270E-07        -0.11192E-08         0.00000E+00
    0.32937E-07        -0.95138E-09         0.00000E+00
    0.32642E-07        -0.77317E-09         0.00000E+00
    0.32388E-07        -0.59061E-09         0.00000E+00
    0.32164E-07        -0.40628E-09         0.00000E+00
    0.31909E-07        -0.23087E-09         0.00000E+00
    0.31728E-07        -0.14887E-09         0.00000E+00
    0.43944E-07        -0.16378E-09         0.00000E+00
    0.43552E-07        -0.42385E-09         0.00000E+00
    0.42743E-07        -0.85273E-09         0.00000E+00
    0.41796E-07        -0.10726E-08         0.00000E+00
    0.40847E-07        -0.11033E-08         0.00000E+00
    0.39948E-07        -0.10423E-08         0.00000E+00
    0.39118E-07        -0.95442E-09         0.00000E+00
    0.38364E-07        -0.85795E-09         0.00000E+00
    0.37686E-07        -0.75814E-09         0.00000E+00
    0.37085E-07        -0.65494E-09         0.00000E+00
    0.36566E-07        -0.54615E-09         0.00000E+00
    0.36134E-07        -0.42969E-09         0.00000E+00
    0.35793E-07        -0.30138E-09         0.00000E+00
    0.35543E-07        -0.13942E-09         0.00000E+00
    0.35387E-07         0.28827E-11         0.00000E+00
    0.35312E-07         0.51161E-10         0.00000E+00
    0.46122E-07         0.00000E+00         0.00000E+00
    0.45958E-07         0.00000E+00         0.00000E+00
    0.45274E-07        -0.12806E-21         0.00000E+00
    0.44253E-07         0.00000E+00         0.00000E+00
    0.43129E-07         0.12340E-21         0.00000E+00
    0.42046E-07         0.00000E+00         0.00000E+00
    0.41045E-07         0.00000E+00         0.00000E+00
    0.40137E-07        -0.11409E-21         0.00000E+00
    0.39329E-07        -0.11176E-21         0.00000E+00
    0.38621E-07         0.10943E-21         0.00000E+00
    0.38019E-07         0.10943E-21         0.00000E+00
    0.37529E-07        -0.10943E-21         0.00000E+00
    0.37159E-07        -0.23283E-23         0.00000E+00
    0.36926E-07         0.10710E-21         0.00000E+00
    0.36881E-07         0.46566E-23         0.00000E+00
    0.36932E-07         0.00000E+00         0.00000E+00
CELL_DATA        450
TENSORS stressef double 
    0.44856E+07         0.13595E+05         0.00000E+00
    0.13595E+05        -0.42362E+07         0.00000E+00
    0.00000E+00         0.00000E+00         0.00000E+00
 
    0.43299E+07         0.38199E+05         0.00000E+00
    0.38199E+05        -0.41386E+07         0.00000E+00
    0.00000E+00         0.00000E+00         0.00000E+00
 
    0.40994E+07         0.58960E+05         0.00000E+00
    0.58960E+05        -0.39557E+07         0.00000E+00
    0.00000E+00         0.00000E+00         0.00000E+00
 
    0.38080E+07         0.75653E+05         0.00000E+00
    0.75653E+05        -0.37025E+07         0.00000E+00
    0.00000E+00         0.00000E+00         0.00000E+00
 
    0.34700E+07         0.88258E+05         0.00000E+00
    0.88258E+05        -0.33949E+07         0.00000E+00
    0.00000E+00         0.00000E+00         0.00000E+00
 
    0.30992E+07         0.96907E+05         0.00000E+00
    0.96907E+05        -0.30482E+07         0.00000E+00
    0.00000E+00         0.00000E+00         0.00000E+00
 
    0.27087E+07         0.10183E+06         0.00000E+00
    0.10183E+06        -0.26774E+07         0.00000E+00
    0.00000E+00         0.00000E+00         0.00000E+00
 
    0.23107E+07         0.10330E+06         0.00000E+00
    0.10330E+06        -0.22964E+07         0.00000E+00
    0.00000E+00         0.00000E+00         0.00000E+00
 
    0.19164E+07         0.10165E+06         0.00000E+00
    0.10165E+06        -0.19183E+07         0.00000E+00
    0.00000E+00         0.00000E+00         0.00000E+00
 
    0.15357E+07         0.97199E+05         0.00000E+00
    0.97199E+05        -0.15550E+07         0.00000E+00
    0.00000E+00         0.00000E+00         0.00000E+00
 
    0.11777E+07         0.90307E+05         0.00000E+00
    0.90307E+05        -0.12175E+07         0.00000E+00
    0.00000E+00         0.00000E+00         0.00000E+00
 
    0.84957E+06         0.81376E+05         0.00000E+00
    0.81376E+05        -0.91580E+06         0.00000E+00
    0.00000E+00         0.00000E+00         0.00000E+00
 
    0.55740E+06         0.70888E+05         0.00000E+00
    0.70888E+05        -0.65880E+06         0.00000E+00
    0.00000E+00         0.00000E+00         0.00000E+00
 
    0.30519E+06         0.59457E+05         0.00000E+00
    0.59457E+05        -0.45411E+06         0.00000E+00
    0.00000E+00         0.00000E+00         0.00000E+00
 
    0.94732E+05         0.47883E+05         0.00000E+00
    0.47883E+05        -0.30764E+06         0.00000E+00
    0.00000E+00         0.00000E+00         0.00000E+00
 
    0.45213E+07         0.40753E+05         0.00000E+00
    0.40753E+05        -0.42532E+07         0.00000E+00
    0.00000E+00         0.00000E+00         0.00000E+00
 
    0.43596E+07         0.11441E+06         0.00000E+00
    0.11441E+06        -0.41546E+07         0.00000E+00
    0.00000E+00         0.00000E+00         0.00000E+00
 
    0.41235E+07         0.17650E+06         0.00000E+00
    0.17650E+06        -0.39698E+07         0.00000E+00
    0.00000E+00         0.00000E+00         0.00000E+00
 
    0.38271E+07         0.22638E+06         0.00000E+00
    0.22638E+06        -0.37145E+07         0.00000E+00
    0.00000E+00         0.00000E+00         0.00000E+00
 
    0.34847E+07         0.26403E+06         0.00000E+00
    0.26403E+06        -0.34045E+07         0.00000E+00
    0.00000E+00         0.00000E+00         0.00000E+00
 
    0.31100E+07         0.28985E+06         0.00000E+00
    0.28985E+06        -0.30556E+07         0.00000E+00
    0.00000E+00         0.00000E+00         0.00000E+00
 
    0.27163E+07         0.30454E+06         0.00000E+00
    0.30454E+06        -0.26827E+07         0.00000E+00
    0.00000E+00         0.00000E+00         0.00000E+00
 
    0.23156E+07         0.30896E+06         0.00000E+00
    0.30896E+06        -0.22998E+07         0.00000E+00
    0.00000E+00         0.00000E+00         0.00000E+00
 
    0.19190E+07         0.30406E+06         0.00000E+00
    0.30406E+06        -0.19199E+07         0.00000E+00
    0.00000E+00         0.00000E+00         0.00000E+00
 
    0.15365E+07         0.29081E+06         0.00000E+00
    0.29081E+06        -0.15550E+07         0.00000E+00
    0.00000E+00         0.00000E+00         0.00000E+00
 
    0.11768E+07         0.27027E+06         0.00000E+00
    0.27027E+06        -0.12160E+07         0.00000E+00
    0.00000E+00         0.00000E+00         0.00000E+00
 
    0.84759E+06         0.24360E+06         0.00000E+00
    0.24360E+06        -0.91304E+06         0.00000E+00
    0.00000E+00         0.00000E+00         0.00000E+00
 
    0.55482E+06         0.21221E+06         0.00000E+00
    0.21221E+06        -0.65504E+06         0.00000E+00
    0.00000E+00         0.00000E+00         0.00000E+00
 
    0.30282E+06         0.17791E+06         0.00000E+00
    0.17791E+06        -0.44985E+06         0.00000E+00
    0.00000E+00         0.00000E+00         0.00000E+00
 
    0.93712E+05         0.14305E+06         0.00000E+00
    0.14305E+06        -0.30369E+06         0.00000E+00
    0.00000E+00         0.00000E+00         0.00000E+00
 
    0.45928E+07         0.67758E+05         0.00000E+00
    0.67758E+05        -0.42870E+07         0.00000E+00
    0.00000E+00         0.00000E+00         0.00000E+00
 
    0.44191E+07         0.19000E+06         0.00000E+00
    0.19000E+06        -0.41862E+07         0.00000E+00
    0.00000E+00         0.00000E+00         0.00000E+00
 
    0.41717E+07         0.29284E+06         0.00000E+00
    0.29284E+06        -0.39979E+07         0.00000E+00
    0.00000E+00         0.00000E+00         0.00000E+00
 
    0.38653E+07         0.37532E+06         0.00000E+00
    0.37532E+06        -0.37383E+07         0.00000E+00
    0.00000E+00         0.00000E+00         0.00000E+00
 
    0.35141E+07         0.43748E+06         0.00000E+00
    0.43748E+06        -0.34239E+07         0.00000E+00
    0.00000E+00         0.00000E+00         0.00000E+00
 
    0.31319E+07         0.48007E+06         0.00000E+00
    0.48007E+06        -0.30707E+07         0.00000E+00
    0.00000E+00         0.00000E+00         0.00000E+00
 
    0.27319E+07         0.50431E+06         0.00000E+00
    0.50431E+06        -0.26938E+07         0.00000E+00
    0.00000E+00         0.00000E+00         0.00000E+00
 
    0.23259E+07         0.51167E+06         0.00000E+00
    0.51167E+06        -0.23072E+07         0.00000E+00
    0.00000E+00         0.00000E+00         0.00000E+00
 
    0.19249E+07         0.50370E+06         0.00000E+00
    0.50370E+06        -0.19239E+07         0.00000E+00
    0.00000E+00         0.00000E+00         0.00000E+00
 
    0.15386E+07         0.48199E+06         0.00000E+00
    0.48199E+06        -0.15559E+07         0.00000E+00
    0.00000E+00         0.00000E+00         0.00000E+00
 
    0.11760E+07         0.44821E+06         0.00000E+00
    0.44821E+06        -0.12140E+07         0.00000E+00
    0.00000E+00         0.00000E+00         0.00000E+00
 
    0.84441E+06         0.40420E+06         0.00000E+00
    0.40420E+06        -0.90850E+06         0.00000E+00
    0.00000E+00         0.00000E+00         0.00000E+00
 
    0.55035E+06         0.35219E+06         0.00000E+00
    0.35219E+06        -0.64849E+06         0.00000E+00
    0.00000E+00         0.00000E+00         0.00000E+00
 
    0.29856E+06         0.29503E+06         0.00000E+00
    0.29503E+06        -0.44223E+06         0.00000E+00
    0.00000E+00         0.00000E+00         0.00000E+00
 
    0.91859E+05         0.23649E+06         0.00000E+00
    0.23649E+06        -0.29653E+06         0.00000E+00
    0.00000E+00         0.00000E+00         0.00000E+00
 
    0.47004E+07         0.94456E+05         0.00000E+00
    0.94456E+05        -0.43367E+07         0.00000E+00
    0.00000E+00         0.00000E+00         0.00000E+00
 
    0.45084E+07         0.26444E+06         0.00000E+00
    0.26444E+06        -0.42328E+07         0.00000E+00
    0.00000E+00         0.00000E+00         0.00000E+00
 
    0.42441E+07         0.40701E+06         0.00000E+00
    0.40701E+06        -0.40394E+07         0.00000E+00
    0.00000E+00         0.00000E+00         0.00000E+00
 
    0.39226E+07         0.52104E+06         0.00000E+00
    0.52104E+06        -0.37737E+07         0.00000E+00
    0.00000E+00         0.00000E+00         0.00000E+00
 
    0.35584E+07         0.60678E+06         0.00000E+00
    0.60678E+06        -0.34530E+07         0.00000E+00
    0.00000E+00         0.00000E+00         0.00000E+00
 
    0.31653E+07         0.66546E+06         0.00000E+00
    0.66546E+06        -0.30937E+07         0.00000E+00
    0.00000E+00         0.00000E+00         0.00000E+00
 
    0.27562E+07         0.69889E+06         0.00000E+00
    0.69889E+06        -0.27113E+07         0.00000E+00
    0.00000E+00         0.00000E+00         0.00000E+00
 
    0.23426E+07         0.70917E+06         0.00000E+00
    0.70917E+06        -0.23196E+07         0.00000E+00
    0.00000E+00         0.00000E+00         0.00000E+00
 
    0.19353E+07         0.69845E+06         0.00000E+00
    0.69845E+06        -0.19317E+07         0.00000E+00
    0.00000E+00         0.00000E+00         0.00000E+00
 
    0.15437E+07         0.66889E+06         0.00000E+00
    0.66889E+06        -0.15594E+07         0.00000E+00
    0.00000E+00         0.00000E+00         0.00000E+00
 
    0.11766E+07         0.62264E+06         0.00000E+00
    0.62264E+06        -0.12134E+07         0.00000E+00
    0.00000E+00         0.00000E+00         0.00000E+00
 
    0.84150E+06         0.56205E+06         0.00000E+00
    0.56205E+06        -0.90416E+06         0.00000E+00
    0.00000E+00         0.00000E+00         0.00000E+00
 
    0.54523E+06         0.48996E+06         0.00000E+00
    0.48996E+06        -0.64110E+06         0.00000E+00
    0.00000E+00         0.00000E+00         0.00000E+00
 
    0.29327E+06         0.41006E+06         0.00000E+00
    0.41006E+06        -0.43304E+06         0.00000E+00
    0.00000E+00         0.00000E+00         0.00000E+00
 
    0.89482E+05         0.32734E+06         0.00000E+00
    0.32734E+06        -0.28769E+06         0.00000E+00
    0.00000E+00         0.00000E+00         0.00000E+00
 
    0.48441E+07         0.12064E+06         0.00000E+00
    0.12064E+06        -0.44013E+07         0.00000E+00
    0.00000E+00         0.00000E+00         0.00000E+00
 
    0.46272E+07         0.33702E+06         0.00000E+00
    0.33702E+06        -0.42935E+07         0.00000E+00
    0.00000E+00         0.00000E+00         0.00000E+00
 
    0.43403E+07         0.51775E+06         0.00000E+00
    0.51775E+06        -0.40936E+07         0.00000E+00
    0.00000E+00         0.00000E+00         0.00000E+00
 
    0.39989E+07         0.66175E+06         0.00000E+00
    0.66175E+06        -0.38203E+07         0.00000E+00
    0.00000E+00         0.00000E+00         0.00000E+00
 
    0.36178E+07         0.76970E+06         0.00000E+00
    0.76970E+06        -0.34919E+07         0.00000E+00
    0.00000E+00         0.00000E+00         0.00000E+00
 
    0.32107E+07         0.84344E+06         0.00000E+00
    0.84344E+06        -0.31253E+07         0.00000E+00
    0.00000E+00         0.00000E+00         0.00000E+00
 
    0.27901E+07         0.88551E+06         0.00000E+00
    0.88551E+06        -0.27363E+07         0.00000E+00
    0.00000E+00         0.00000E+00         0.00000E+00
 
    0.23672E+07         0.89871E+06         0.00000E+00
    0.89871E+06        -0.23388E+07         0.00000E+00
    0.00000E+00         0.00000E+00         0.00000E+00
 
    0.19521E+07         0.88579E+06         0.00000E+00
    0.88579E+06        -0.19455E+07         0.00000E+00
    0.00000E+00         0.00000E+00         0.00000E+00
 
    0.15539E+07         0.84933E+06         0.00000E+00
    0.84933E+06        -0.15680E+07         0.00000E+00
    0.00000E+00         0.00000E+00         0.00000E+00
 
    0.11810E+07         0.79184E+06         0.00000E+00
    0.79184E+06        -0.12171E+07         0.00000E+00
    0.00000E+00         0.00000E+00         0.00000E+00
 
    0.84109E+06         0.71592E+06         0.00000E+00
    0.71592E+06        -0.90313E+06         0.00000E+00
    0.00000E+00         0.00000E+00         0.00000E+00
 
    0.54139E+06         0.62473E+06         0.00000E+00
    0.62473E+06        -0.63592E+06         0.00000E+00
    0.00000E+00         0.00000E+00         0.00000E+00
 
    0.28829E+06         0.52249E+06         0.00000E+00
    0.52249E+06        -0.42509E+06         0.00000E+00
    0.00000E+00         0.00000E+00         0.00000E+00
 
    0.87070E+05         0.41508E+06         0.00000E+00
    0.41508E+06        -0.27958E+06         0.00000E+00
    0.00000E+00         0.00000E+00         0.00000E+00
 
    0.50242E+07         0.14602E+06         0.00000E+00
    0.14602E+06        -0.44794E+07         0.00000E+00
    0.00000E+00         0.00000E+00         0.00000E+00
 
    0.47755E+07         0.40682E+06         0.00000E+00
    0.40682E+06        -0.43670E+07         0.00000E+00
    0.00000E+00         0.00000E+00         0.00000E+00
 
    0.44600E+07         0.62347E+06         0.00000E+00
    0.62347E+06        -0.41595E+07         0.00000E+00
    0.00000E+00         0.00000E+00         0.00000E+00
 
    0.40940E+07         0.79521E+06         0.00000E+00
    0.79521E+06        -0.38776E+07         0.00000E+00
    0.00000E+00         0.00000E+00         0.00000E+00
 
    0.36924E+07         0.92341E+06         0.00000E+00
    0.92341E+06        -0.35405E+07         0.00000E+00
    0.00000E+00         0.00000E+00         0.00000E+00
 
    0.32688E+07         0.10108E+07         0.00000E+00
    0.10108E+07        -0.31661E+07         0.00000E+00
    0.00000E+00         0.00000E+00         0.00000E+00
 
    0.28350E+07         0.10608E+07         0.00000E+00
    0.10608E+07        -0.27703E+07         0.00000E+00
    0.00000E+00         0.00000E+00         0.00000E+00
 
    0.24016E+07         0.10769E+07         0.00000E+00
    0.10769E+07        -0.23669E+07         0.00000E+00
    0.00000E+00         0.00000E+00         0.00000E+00
 
    0.19778E+07         0.10626E+07         0.00000E+00
    0.10626E+07        -0.19682E+07         0.00000E+00
    0.00000E+00         0.00000E+00         0.00000E+00
 
    0.15721E+07         0.10207E+07         0.00000E+00
    0.10207E+07        -0.15855E+07         0.00000E+00
    0.00000E+00         0.00000E+00         0.00000E+00
 
    0.11923E+07         0.95376E+06         0.00000E+00
    0.95376E+06        -0.12292E+07         0.00000E+00
    0.00000E+00         0.00000E+00         0.00000E+00
 
    0.84626E+06         0.86446E+06         0.00000E+00
    0.86446E+06        -0.90967E+06         0.00000E+00
    0.00000E+00         0.00000E+00         0.00000E+00
 
    0.54149E+06         0.75582E+06         0.00000E+00
    0.75582E+06        -0.63718E+06         0.00000E+00
    0.00000E+00         0.00000E+00         0.00000E+00
 
    0.28549E+06         0.63214E+06         0.00000E+00
    0.63214E+06        -0.42230E+06         0.00000E+00
    0.00000E+00         0.00000E+00         0.00000E+00
 
    0.85305E+05         0.49976E+06         0.00000E+00
    0.49976E+06        -0.27555E+06         0.00000E+00
    0.00000E+00         0.00000E+00         0.00000E+00
 
    0.52403E+07         0.17023E+06         0.00000E+00
    0.17023E+06        -0.45691E+07         0.00000E+00
    0.00000E+00         0.00000E+00         0.00000E+00
 
    0.49524E+07         0.47265E+06         0.00000E+00
    0.47265E+06        -0.44515E+07         0.00000E+00
    0.00000E+00         0.00000E+00         0.00000E+00
 
    0.46026E+07         0.72210E+06         0.00000E+00
    0.72210E+06        -0.42358E+07         0.00000E+00
    0.00000E+00         0.00000E+00         0.00000E+00
 
    0.42075E+07         0.91854E+06         0.00000E+00
    0.91854E+06        -0.39446E+07         0.00000E+00
    0.00000E+00         0.00000E+00         0.00000E+00
 
    0.37824E+07         0.10644E+07         0.00000E+00
    0.10644E+07        -0.35989E+07         0.00000E+00
    0.00000E+00         0.00000E+00         0.00000E+00
 
    0.33402E+07         0.11634E+07         0.00000E+00
    0.11634E+07        -0.32171E+07         0.00000E+00
    0.00000E+00         0.00000E+00         0.00000E+00
 
    0.28923E+07         0.12204E+07         0.00000E+00
    0.12204E+07        -0.28152E+07         0.00000E+00
    0.00000E+00         0.00000E+00         0.00000E+00
 
    0.24480E+07         0.12396E+07         0.00000E+00
    0.12396E+07        -0.24068E+07         0.00000E+00
    0.00000E+00         0.00000E+00         0.00000E+00
 
    0.20154E+07         0.12249E+07         0.00000E+00
    0.12249E+07        -0.20037E+07         0.00000E+00
    0.00000E+00         0.00000E+00         0.00000E+00
 
    0.16019E+07         0.11796E+07         0.00000E+00
    0.11796E+07        -0.16165E+07         0.00000E+00
    0.00000E+00         0.00000E+00         0.00000E+00
 
    0.12146E+07         0.11060E+07         0.00000E+00
    0.11060E+07        -0.12550E+07         0.00000E+00
    0.00000E+00         0.00000E+00         0.00000E+00
 
    0.86099E+06         0.10062E+07         0.00000E+00
    0.10062E+07        -0.92938E+06         0.00000E+00
    0.00000E+00         0.00000E+00         0.00000E+00
 
    0.54897E+06         0.88266E+06         0.00000E+00
    0.88266E+06        -0.65046E+06         0.00000E+00
    0.00000E+00         0.00000E+00         0.00000E+00
 
    0.28729E+06         0.73927E+06         0.00000E+00
    0.73927E+06        -0.42988E+06         0.00000E+00
    0.00000E+00         0.00000E+00         0.00000E+00
 
    0.85081E+05         0.58218E+06         0.00000E+00
    0.58218E+06        -0.28008E+06         0.00000E+00
    0.00000E+00         0.00000E+00         0.00000E+00
 
    0.54919E+07         0.19277E+06         0.00000E+00
    0.19277E+06        -0.46679E+07         0.00000E+00
    0.00000E+00         0.00000E+00         0.00000E+00
 
    0.51572E+07         0.53297E+06         0.00000E+00
    0.53297E+06        -0.45447E+07         0.00000E+00
    0.00000E+00         0.00000E+00         0.00000E+00
 
    0.47668E+07         0.81105E+06         0.00000E+00
    0.81105E+06        -0.43206E+07         0.00000E+00
    0.00000E+00         0.00000E+00         0.00000E+00
 
    0.43385E+07         0.10281E+07         0.00000E+00
    0.10281E+07        -0.40204E+07         0.00000E+00
    0.00000E+00         0.00000E+00         0.00000E+00
 
    0.38873E+07         0.11881E+07         0.00000E+00
    0.11881E+07        -0.36668E+07         0.00000E+00
    0.00000E+00         0.00000E+00         0.00000E+00
 
    0.34258E+07         0.12964E+07         0.00000E+00
    0.12964E+07        -0.32791E+07         0.00000E+00
    0.00000E+00         0.00000E+00         0.00000E+00
 
    0.29638E+07         0.13590E+07         0.00000E+00
    0.13590E+07        -0.28732E+07         0.00000E+00
    0.00000E+00         0.00000E+00         0.00000E+00
 
    0.25094E+07         0.13814E+07         0.00000E+00
    0.13814E+07        -0.24622E+07         0.00000E+00
    0.00000E+00         0.00000E+00         0.00000E+00
 
    0.20689E+07         0.13681E+07         0.00000E+00
    0.13681E+07        -0.20569E+07         0.00000E+00
    0.00000E+00         0.00000E+00         0.00000E+00
 
    0.16481E+07         0.13221E+07         0.00000E+00
    0.13221E+07        -0.16668E+07         0.00000E+00
    0.00000E+00         0.00000E+00         0.00000E+00
 
    0.12529E+07         0.12455E+07         0.00000E+00
    0.12455E+07        -0.13010E+07         0.00000E+00
    0.00000E+00         0.00000E+00         0.00000E+00
 
    0.89019E+06         0.11393E+07         0.00000E+00
    0.11393E+07        -0.96933E+06         0.00000E+00
    0.00000E+00         0.00000E+00         0.00000E+00
 
    0.56816E+06         0.10049E+07         0.00000E+00
    0.10049E+07        -0.68286E+06         0.00000E+00
    0.00000E+00         0.00000E+00         0.00000E+00
 
    0.29676E+06         0.84472E+06         0.00000E+00
    0.84472E+06        -0.45448E+06         0.00000E+00
    0.00000E+00         0.00000E+00         0.00000E+00
 
    0.87536E+05         0.66410E+06         0.00000E+00
    0.66410E+06        -0.29894E+06         0.00000E+00
    0.00000E+00         0.00000E+00         0.00000E+00
 
    0.57782E+07         0.21303E+06         0.00000E+00
    0.21303E+06        -0.47728E+07         0.00000E+00
    0.00000E+00         0.00000E+00         0.00000E+00
 
    0.53881E+07         0.58587E+06         0.00000E+00
    0.58587E+06        -0.46440E+07         0.00000E+00
    0.00000E+00         0.00000E+00         0.00000E+00
 
    0.49512E+07         0.88710E+06         0.00000E+00
    0.88710E+06        -0.44117E+07         0.00000E+00
    0.00000E+00         0.00000E+00         0.00000E+00
 
    0.44857E+07         0.11195E+07         0.00000E+00
    0.11195E+07        -0.41036E+07         0.00000E+00
    0.00000E+00         0.00000E+00         0.00000E+00
 
    0.40068E+07         0.12891E+07         0.00000E+00
    0.12891E+07        -0.37441E+07         0.00000E+00
    0.00000E+00         0.00000E+00         0.00000E+00
 
    0.35259E+07         0.14034E+07         0.00000E+00
    0.14034E+07        -0.33533E+07         0.00000E+00
    0.00000E+00         0.00000E+00         0.00000E+00
 
    0.30513E+07         0.14701E+07         0.00000E+00
    0.14701E+07        -0.29470E+07         0.00000E+00
    0.00000E+00         0.00000E+00         0.00000E+00
 
    0.25887E+07         0.14960E+07         0.00000E+00
    0.14960E+07        -0.25372E+07         0.00000E+00
    0.00000E+00         0.00000E+00         0.00000E+00
 
    0.21424E+07         0.14861E+07         0.00000E+00
    0.14861E+07        -0.21334E+07         0.00000E+00
    0.00000E+00         0.00000E+00         0.00000E+00
 
    0.17158E+07         0.14434E+07         0.00000E+00
    0.14434E+07        -0.17435E+07         0.00000E+00
    0.00000E+00         0.00000E+00         0.00000E+00
 
    0.13130E+07         0.13689E+07         0.00000E+00
    0.13689E+07        -0.13754E+07         0.00000E+00
    0.00000E+00         0.00000E+00         0.00000E+00
 
    0.93979E+06         0.12621E+07         0.00000E+00
    0.12621E+07        -0.10382E+07         0.00000E+00
    0.00000E+00         0.00000E+00         0.00000E+00
 
    0.60431E+06         0.11223E+07         0.00000E+00
    0.11223E+07        -0.74317E+06         0.00000E+00
    0.00000E+00         0.00000E+00         0.00000E+00
 
    0.31766E+06         0.95003E+06         0.00000E+00
    0.95003E+06        -0.50442E+06         0.00000E+00
    0.00000E+00         0.00000E+00         0.00000E+00
 
    0.94070E+05         0.74850E+06         0.00000E+00
    0.74850E+06        -0.33938E+06         0.00000E+00
    0.00000E+00         0.00000E+00         0.00000E+00
 
    0.60972E+07         0.23029E+06         0.00000E+00
    0.23029E+06        -0.48800E+07         0.00000E+00
    0.00000E+00         0.00000E+00         0.00000E+00
 
    0.56428E+07         0.62905E+06         0.00000E+00
    0.62905E+06        -0.47458E+07         0.00000E+00
    0.00000E+00         0.00000E+00         0.00000E+00
 
    0.51530E+07         0.94631E+06         0.00000E+00
    0.94631E+06        -0.45062E+07         0.00000E+00
    0.00000E+00         0.00000E+00         0.00000E+00
 
    0.46470E+07         0.11873E+07         0.00000E+00
    0.11873E+07        -0.41923E+07         0.00000E+00
    0.00000E+00         0.00000E+00         0.00000E+00
 
    0.41396E+07         0.13608E+07         0.00000E+00
    0.13608E+07        -0.38304E+07         0.00000E+00
    0.00000E+00         0.00000E+00         0.00000E+00
 
    0.36407E+07         0.14770E+07         0.00000E+00
    0.14770E+07        -0.34412E+07         0.00000E+00
    0.00000E+00         0.00000E+00         0.00000E+00
 
    0.31564E+07         0.15459E+07         0.00000E+00
    0.15459E+07        -0.30399E+07         0.00000E+00
    0.00000E+00         0.00000E+00         0.00000E+00
 
    0.26895E+07         0.15757E+07         0.00000E+00
    0.15757E+07        -0.26371E+07         0.00000E+00
    0.00000E+00         0.00000E+00         0.00000E+00
 
    0.22409E+07         0.15722E+07         0.00000E+00
    0.15722E+07        -0.22403E+07         0.00000E+00
    0.00000E+00         0.00000E+00         0.00000E+00
 
    0.18112E+07         0.15377E+07         0.00000E+00
    0.15377E+07        -0.18552E+07         0.00000E+00
    0.00000E+00         0.00000E+00         0.00000E+00
 
    0.14018E+07         0.14720E+07         0.00000E+00
    0.14720E+07        -0.14881E+07         0.00000E+00
    0.00000E+00         0.00000E+00         0.00000E+00
 
    0.10167E+07         0.13723E+07         0.00000E+00
    0.13723E+07        -0.11466E+07         0.00000E+00
    0.00000E+00         0.00000E+00         0.00000E+00
 
    0.66360E+06         0.12352E+07         0.00000E+00
    0.12352E+07        -0.84208E+06         0.00000E+00
    0.00000E+00         0.00000E+00         0.00000E+00
 
    0.35448E+06         0.10577E+07         0.00000E+00
    0.10577E+07        -0.58988E+06         0.00000E+00
    0.00000E+00         0.00000E+00         0.00000E+00
 
    0.10637E+06         0.83985E+06         0.00000E+00
    0.83985E+06        -0.41036E+06         0.00000E+00
    0.00000E+00         0.00000E+00         0.00000E+00
 
    0.64464E+07         0.24365E+06         0.00000E+00
    0.24365E+06        -0.49851E+07         0.00000E+00
    0.00000E+00         0.00000E+00         0.00000E+00
 
    0.59178E+07         0.65974E+06         0.00000E+00
    0.65974E+06        -0.48460E+07         0.00000E+00
    0.00000E+00         0.00000E+00         0.00000E+00
 
    0.53687E+07         0.98396E+06         0.00000E+00
    0.98396E+06        -0.46008E+07         0.00000E+00
    0.00000E+00         0.00000E+00         0.00000E+00
 
    0.48194E+07         0.12249E+07         0.00000E+00
    0.12249E+07        -0.42844E+07         0.00000E+00
    0.00000E+00         0.00000E+00         0.00000E+00
 
    0.42838E+07         0.13951E+07         0.00000E+00
    0.13951E+07        -0.39252E+07         0.00000E+00
    0.00000E+00         0.00000E+00         0.00000E+00
 
    0.37700E+07         0.15082E+07         0.00000E+00
    0.15082E+07        -0.35443E+07         0.00000E+00
    0.00000E+00         0.00000E+00         0.00000E+00
 
    0.32808E+07         0.15769E+07         0.00000E+00
    0.15769E+07        -0.31556E+07         0.00000E+00
    0.00000E+00         0.00000E+00         0.00000E+00
 
    0.28151E+07         0.16114E+07         0.00000E+00
    0.16114E+07        -0.27679E+07         0.00000E+00
    0.00000E+00         0.00000E+00         0.00000E+00
 
    0.23697E+07         0.16179E+07         0.00000E+00
    0.16179E+07        -0.23856E+07         0.00000E+00
    0.00000E+00         0.00000E+00         0.00000E+00
 
    0.19410E+07         0.15982E+07         0.00000E+00
    0.15982E+07        -0.20119E+07         0.00000E+00
    0.00000E+00         0.00000E+00         0.00000E+00
 
    0.15269E+07         0.15501E+07         0.00000E+00
    0.15501E+07        -0.16503E+07         0.00000E+00
    0.00000E+00         0.00000E+00         0.00000E+00
 
    0.11288E+07         0.14678E+07         0.00000E+00
    0.14678E+07        -0.13069E+07         0.00000E+00
    0.00000E+00         0.00000E+00         0.00000E+00
 
    0.75314E+06         0.13440E+07         0.00000E+00
    0.13440E+07        -0.99233E+06         0.00000E+00
    0.00000E+00         0.00000E+00         0.00000E+00
 
    0.41242E+06         0.11711E+07         0.00000E+00
    0.11711E+07        -0.72312E+06         0.00000E+00
    0.00000E+00         0.00000E+00         0.00000E+00
 
    0.12640E+06         0.94441E+06         0.00000E+00
    0.94441E+06        -0.52274E+06         0.00000E+00
    0.00000E+00         0.00000E+00         0.00000E+00
 
    0.68221E+07         0.25212E+06         0.00000E+00
    0.25212E+06        -0.50826E+07         0.00000E+00
    0.00000E+00         0.00000E+00         0.00000E+00
 
    0.62083E+07         0.67467E+06         0.00000E+00
    0.67467E+06        -0.49396E+07         0.00000E+00
    0.00000E+00         0.00000E+00         0.00000E+00
 
    0.55934E+07         0.99448E+06         0.00000E+00
    0.99448E+06        -0.46915E+07         0.00000E+00
    0.00000E+00         0.00000E+00         0.00000E+00
 
    0.49985E+07         0.12247E+07         0.00000E+00
    0.12247E+07        -0.43776E+07         0.00000E+00
    0.00000E+00         0.00000E+00         0.00000E+00
 
    0.44365E+07         0.13827E+07         0.00000E+00
    0.13827E+07        -0.40282E+07         0.00000E+00
    0.00000E+00         0.00000E+00         0.00000E+00
 
    0.39126E+07         0.14866E+07         0.00000E+00
    0.14866E+07        -0.36645E+07         0.00000E+00
    0.00000E+00         0.00000E+00         0.00000E+00
 
    0.34255E+07         0.15525E+07         0.00000E+00
    0.15525E+07        -0.32988E+07         0.00000E+00
    0.00000E+00         0.00000E+00         0.00000E+00
 
    0.29689E+07         0.15928E+07         0.00000E+00
    0.15928E+07        -0.29366E+07         0.00000E+00
    0.00000E+00         0.00000E+00         0.00000E+00
 
    0.25341E+07         0.16141E+07         0.00000E+00
    0.16141E+07        -0.25789E+07         0.00000E+00
    0.00000E+00         0.00000E+00         0.00000E+00
 
    0.21123E+07         0.16174E+07         0.00000E+00
    0.16174E+07        -0.22252E+07         0.00000E+00
    0.00000E+00         0.00000E+00         0.00000E+00
 
    0.16966E+07         0.15980E+07         0.00000E+00
    0.15980E+07        -0.18755E+07         0.00000E+00
    0.00000E+00         0.00000E+00         0.00000E+00
 
    0.12847E+07         0.15463E+07         0.00000E+00
    0.15463E+07        -0.15335E+07         0.00000E+00
    0.00000E+00         0.00000E+00         0.00000E+00
 
    0.88078E+06         0.14498E+07         0.00000E+00
    0.14498E+07        -0.12088E+07         0.00000E+00
    0.00000E+00         0.00000E+00         0.00000E+00
 
    0.49732E+06         0.12949E+07         0.00000E+00
    0.12949E+07        -0.91859E+06         0.00000E+00
    0.00000E+00         0.00000E+00         0.00000E+00
 
    0.15641E+06         0.10705E+07         0.00000E+00
    0.10705E+07        -0.68947E+06         0.00000E+00
    0.00000E+00         0.00000E+00         0.00000E+00
 
    0.72190E+07         0.25453E+06         0.00000E+00
    0.25453E+06        -0.51666E+07         0.00000E+00
    0.00000E+00         0.00000E+00         0.00000E+00
 
    0.65078E+07         0.67002E+06         0.00000E+00
    0.67002E+06        -0.50211E+07         0.00000E+00
    0.00000E+00         0.00000E+00         0.00000E+00
 
    0.58202E+07         0.97129E+06         0.00000E+00
    0.97129E+06        -0.47740E+07         0.00000E+00
    0.00000E+00         0.00000E+00         0.00000E+00
 
    0.51782E+07         0.11777E+07         0.00000E+00
    0.11777E+07        -0.44694E+07         0.00000E+00
    0.00000E+00         0.00000E+00         0.00000E+00
 
    0.45931E+07         0.13129E+07         0.00000E+00
    0.13129E+07        -0.41395E+07         0.00000E+00
    0.00000E+00         0.00000E+00         0.00000E+00
 
    0.40662E+07         0.14004E+07         0.00000E+00
    0.14004E+07        -0.38047E+07         0.00000E+00
    0.00000E+00         0.00000E+00         0.00000E+00
 
    0.35906E+07         0.14606E+07         0.00000E+00
    0.14606E+07        -0.34748E+07         0.00000E+00
    0.00000E+00         0.00000E+00         0.00000E+00
 
    0.31534E+07         0.15081E+07         0.00000E+00
    0.15081E+07        -0.31515E+07         0.00000E+00
    0.00000E+00         0.00000E+00         0.00000E+00
 
    0.27391E+07         0.15503E+07         0.00000E+00
    0.15503E+07        -0.28311E+07         0.00000E+00
    0.00000E+00         0.00000E+00         0.00000E+00
 
    0.23320E+07         0.15869E+07         0.00000E+00
    0.15869E+07        -0.25082E+07         0.00000E+00
    0.00000E+00         0.00000E+00         0.00000E+00
 
    0.19191E+07         0.16100E+07         0.00000E+00
    0.16100E+07        -0.21786E+07         0.00000E+00
    0.00000E+00         0.00000E+00         0.00000E+00
 
    0.14931E+07         0.16054E+07         0.00000E+00
    0.16054E+07        -0.18428E+07         0.00000E+00
    0.00000E+00         0.00000E+00         0.00000E+00
 
    0.10548E+07         0.15542E+07         0.00000E+00
    0.15542E+07        -0.15085E+07         0.00000E+00
    0.00000E+00         0.00000E+00         0.00000E+00
 
    0.61546E+06         0.14352E+07         0.00000E+00
    0.14352E+07        -0.11930E+07         0.00000E+00
    0.00000E+00         0.00000E+00         0.00000E+00
 
    0.19883E+06         0.12287E+07         0.00000E+00
    0.12287E+07        -0.92576E+06         0.00000E+00
    0.00000E+00         0.00000E+00         0.00000E+00
 
    0.76298E+07         0.24953E+06         0.00000E+00
    0.24953E+06        -0.52303E+07         0.00000E+00
    0.00000E+00         0.00000E+00         0.00000E+00
 
    0.68071E+07         0.64127E+06         0.00000E+00
    0.64127E+06        -0.50845E+07         0.00000E+00
    0.00000E+00         0.00000E+00         0.00000E+00
 
    0.60396E+07         0.90672E+06         0.00000E+00
    0.90672E+06        -0.48441E+07         0.00000E+00
    0.00000E+00         0.00000E+00         0.00000E+00
 
    0.53500E+07         0.10736E+07         0.00000E+00
    0.10736E+07        -0.45579E+07         0.00000E+00
    0.00000E+00         0.00000E+00         0.00000E+00
 
    0.47472E+07         0.11733E+07         0.00000E+00
    0.11733E+07        -0.42598E+07         0.00000E+00
    0.00000E+00         0.00000E+00         0.00000E+00
 
    0.42269E+07         0.12364E+07         0.00000E+00
    0.12364E+07        -0.39688E+07         0.00000E+00
    0.00000E+00         0.00000E+00         0.00000E+00
 
    0.37749E+07         0.12879E+07         0.00000E+00
    0.12879E+07        -0.36909E+07         0.00000E+00
    0.00000E+00         0.00000E+00         0.00000E+00
 
    0.33703E+07         0.13452E+07         0.00000E+00
    0.13452E+07        -0.34226E+07         0.00000E+00
    0.00000E+00         0.00000E+00         0.00000E+00
 
    0.29887E+07         0.14159E+07         0.00000E+00
    0.14159E+07        -0.31545E+07         0.00000E+00
    0.00000E+00         0.00000E+00         0.00000E+00
 
    0.26061E+07         0.14982E+07         0.00000E+00
    0.14982E+07        -0.28756E+07         0.00000E+00
    0.00000E+00         0.00000E+00         0.00000E+00
 
    0.22020E+07         0.15806E+07         0.00000E+00
    0.15806E+07        -0.25763E+07         0.00000E+00
    0.00000E+00         0.00000E+00         0.00000E+00
 
    0.17624E+07         0.16432E+07         0.00000E+00
    0.16432E+07        -0.22529E+07         0.00000E+00
    0.00000E+00         0.00000E+00         0.00000E+00
 
    0.12833E+07         0.16596E+07         0.00000E+00
    0.16596E+07        -0.19103E+07         0.00000E+00
    0.00000E+00         0.00000E+00         0.00000E+00
 
    0.77315E+06         0.15995E+07         0.00000E+00
    0.15995E+07        -0.15652E+07         0.00000E+00
    0.00000E+00         0.00000E+00         0.00000E+00
 
    0.25614E+06         0.14321E+07         0.00000E+00
    0.14321E+07        -0.12491E+07         0.00000E+00
    0.00000E+00         0.00000E+00         0.00000E+00
 
    0.80446E+07         0.23546E+06         0.00000E+00
    0.23546E+06        -0.52666E+07         0.00000E+00
    0.00000E+00         0.00000E+00         0.00000E+00
 
    0.70939E+07         0.58299E+06         0.00000E+00
    0.58299E+06        -0.51241E+07         0.00000E+00
    0.00000E+00         0.00000E+00         0.00000E+00
 
    0.62389E+07         0.79189E+06         0.00000E+00
    0.79189E+06        -0.48981E+07         0.00000E+00
    0.00000E+00         0.00000E+00         0.00000E+00
 
    0.55026E+07         0.90070E+06         0.00000E+00
    0.90070E+06        -0.46426E+07         0.00000E+00
    0.00000E+00         0.00000E+00         0.00000E+00
 
    0.48895E+07         0.95090E+06         0.00000E+00
    0.95090E+06        -0.43921E+07         0.00000E+00
    0.00000E+00         0.00000E+00         0.00000E+00
 
    0.43881E+07         0.98085E+06         0.00000E+00
    0.98085E+06        -0.41630E+07         0.00000E+00
    0.00000E+00         0.00000E+00         0.00000E+00
 
    0.39750E+07         0.10211E+07         0.00000E+00
    0.10211E+07        -0.39561E+07         0.00000E+00
    0.00000E+00         0.00000E+00         0.00000E+00
 
    0.36186E+07         0.10916E+07         0.00000E+00
    0.10916E+07        -0.37615E+07         0.00000E+00
    0.00000E+00         0.00000E+00         0.00000E+00
 
    0.32845E+07         0.12002E+07         0.00000E+00
    0.12002E+07        -0.35632E+07         0.00000E+00
    0.00000E+00         0.00000E+00         0.00000E+00
 
    0.29386E+07         0.13430E+07         0.00000E+00
    0.13430E+07        -0.33433E+07         0.00000E+00
    0.00000E+00         0.00000E+00         0.00000E+00
 
    0.25510E+07         0.15043E+07         0.00000E+00
    0.15043E+07        -0.30863E+07         0.00000E+00
    0.00000E+00         0.00000E+00         0.00000E+00
 
    0.20995E+07         0.16579E+07         0.00000E+00
    0.16579E+07        -0.27830E+07         0.00000E+00
    0.00000E+00         0.00000E+00         0.00000E+00
 
    0.15732E+07         0.17690E+07         0.00000E+00
    0.17690E+07        -0.24346E+07         0.00000E+00
    0.00000E+00         0.00000E+00         0.00000E+00
 
    0.97611E+06         0.17965E+07         0.00000E+00
    0.17965E+07        -0.20559E+07         0.00000E+00
    0.00000E+00         0.00000E+00         0.00000E+00
 
    0.33069E+06         0.16962E+07         0.00000E+00
    0.16962E+07        -0.16790E+07         0.00000E+00
    0.00000E+00         0.00000E+00         0.00000E+00
 
    0.84486E+07         0.21006E+06         0.00000E+00
    0.21006E+06        -0.52694E+07         0.00000E+00
    0.00000E+00         0.00000E+00         0.00000E+00
 
    0.73510E+07         0.48854E+06         0.00000E+00
    0.48854E+06        -0.51357E+07         0.00000E+00
    0.00000E+00         0.00000E+00         0.00000E+00
 
    0.64010E+07         0.61665E+06         0.00000E+00
    0.61665E+06        -0.49349E+07         0.00000E+00
    0.00000E+00         0.00000E+00         0.00000E+00
 
    0.56201E+07         0.64640E+06         0.00000E+00
    0.64640E+06        -0.47256E+07         0.00000E+00
    0.00000E+00         0.00000E+00         0.00000E+00
 
    0.50069E+07         0.63144E+06         0.00000E+00
    0.63144E+06        -0.45423E+07         0.00000E+00
    0.00000E+00         0.00000E+00         0.00000E+00
 
    0.45401E+07         0.61973E+06         0.00000E+00
    0.61973E+06        -0.43966E+07         0.00000E+00
    0.00000E+00         0.00000E+00         0.00000E+00
 
    0.41837E+07         0.64733E+06         0.00000E+00
    0.64733E+06        -0.42823E+07         0.00000E+00
    0.00000E+00         0.00000E+00         0.00000E+00
 
    0.38941E+07         0.73618E+06         0.00000E+00
    0.73618E+06        -0.41820E+07         0.00000E+00
    0.00000E+00         0.00000E+00         0.00000E+00
 
    0.36245E+07         0.89391E+06         0.00000E+00
    0.89391E+06        -0.40723E+07         0.00000E+00
    0.00000E+00         0.00000E+00         0.00000E+00
 
    0.33294E+07         0.11141E+07         0.00000E+00
    0.11141E+07        -0.39280E+07         0.00000E+00
    0.00000E+00         0.00000E+00         0.00000E+00
 
    0.29680E+07         0.13767E+07         0.00000E+00
    0.13767E+07        -0.37267E+07         0.00000E+00
    0.00000E+00         0.00000E+00         0.00000E+00
 
    0.25078E+07         0.16489E+07         0.00000E+00
    0.16489E+07        -0.34530E+07         0.00000E+00
    0.00000E+00         0.00000E+00         0.00000E+00
 
    0.19290E+07         0.18864E+07         0.00000E+00
    0.18864E+07        -0.31026E+07         0.00000E+00
    0.00000E+00         0.00000E+00         0.00000E+00
 
    0.12284E+07         0.20362E+07         0.00000E+00
    0.20362E+07        -0.26870E+07         0.00000E+00
    0.00000E+00         0.00000E+00         0.00000E+00
 
    0.42424E+06         0.20388E+07         0.00000E+00
    0.20388E+07        -0.22372E+07         0.00000E+00
    0.00000E+00         0.00000E+00         0.00000E+00
 
    0.88197E+07         0.16968E+06         0.00000E+00
    0.16968E+06        -0.52352E+07         0.00000E+00
    0.00000E+00         0.00000E+00         0.00000E+00
 
    0.75550E+07         0.35008E+06         0.00000E+00
    0.35008E+06        -0.51190E+07         0.00000E+00
    0.00000E+00         0.00000E+00         0.00000E+00
 
    0.65020E+07         0.37022E+06         0.00000E+00
    0.37022E+06        -0.49564E+07         0.00000E+00
    0.00000E+00         0.00000E+00         0.00000E+00
 
    0.56804E+07         0.29666E+06         0.00000E+00
    0.29666E+06        -0.48134E+07         0.00000E+00
    0.00000E+00         0.00000E+00         0.00000E+00
 
    0.50812E+07         0.20055E+06         0.00000E+00
    0.20055E+06        -0.47218E+07         0.00000E+00
    0.00000E+00         0.00000E+00         0.00000E+00
 
    0.46680E+07         0.14039E+06         0.00000E+00
    0.14039E+06        -0.46842E+07         0.00000E+00
    0.00000E+00         0.00000E+00         0.00000E+00
 
    0.43891E+07         0.15634E+06         0.00000E+00
    0.15634E+06        -0.46856E+07         0.00000E+00
    0.00000E+00         0.00000E+00         0.00000E+00
 
    0.41862E+07         0.27098E+06         0.00000E+00
    0.27098E+06        -0.47004E+07         0.00000E+00
    0.00000E+00         0.00000E+00         0.00000E+00
 
    0.39996E+07         0.49074E+06         0.00000E+00
    0.49074E+06        -0.46979E+07         0.00000E+00
    0.00000E+00         0.00000E+00         0.00000E+00
 
    0.37713E+07         0.80676E+06         0.00000E+00
    0.80676E+06        -0.46460E+07         0.00000E+00
    0.00000E+00         0.00000E+00         0.00000E+00
 
    0.34481E+07         0.11950E+07         0.00000E+00
    0.11950E+07        -0.45149E+07         0.00000E+00
    0.00000E+00         0.00000E+00         0.00000E+00
 
    0.29849E+07         0.16161E+07         0.00000E+00
    0.16161E+07        -0.42816E+07         0.00000E+00
    0.00000E+00         0.00000E+00         0.00000E+00
 
    0.23502E+07         0.20163E+07         0.00000E+00
    0.20163E+07        -0.39349E+07         0.00000E+00
    0.00000E+00         0.00000E+00         0.00000E+00
 
    0.15310E+07         0.23292E+07         0.00000E+00
    0.23292E+07        -0.34809E+07         0.00000E+00
    0.00000E+00         0.00000E+00         0.00000E+00
 
    0.53747E+06         0.24789E+07         0.00000E+00
    0.24789E+07        -0.29465E+07         0.00000E+00
    0.00000E+00         0.00000E+00         0.00000E+00
 
    0.91237E+07         0.10709E+06         0.00000E+00
    0.10709E+06        -0.51696E+07         0.00000E+00
    0.00000E+00         0.00000E+00         0.00000E+00
 
    0.76740E+07         0.16282E+06         0.00000E+00
    0.16282E+06        -0.50747E+07         0.00000E+00
    0.00000E+00         0.00000E+00         0.00000E+00
 
    0.65062E+07         0.39302E+05         0.00000E+00
    0.39302E+05        -0.49688E+07         0.00000E+00
    0.00000E+00         0.00000E+00         0.00000E+00
 
    0.56528E+07        -0.16490E+06         0.00000E+00
   -0.16490E+06        -0.49217E+07         0.00000E+00
    0.00000E+00         0.00000E+00         0.00000E+00
 
    0.50875E+07        -0.35522E+06         0.00000E+00
   -0.35522E+06        -0.49515E+07         0.00000E+00
    0.00000E+00         0.00000E+00         0.00000E+00
 
    0.47505E+07        -0.46621E+06         0.00000E+00
   -0.46621E+06        -0.50483E+07         0.00000E+00
    0.00000E+00         0.00000E+00         0.00000E+00
 
    0.45710E+07        -0.45678E+06         0.00000E+00
   -0.45678E+06        -0.51872E+07         0.00000E+00
    0.00000E+00         0.00000E+00         0.00000E+00
 
    0.44752E+07        -0.30617E+06         0.00000E+00
   -0.30617E+06        -0.53352E+07         0.00000E+00
    0.00000E+00         0.00000E+00         0.00000E+00
 
    0.43904E+07        -0.10298E+05         0.00000E+00
   -0.10298E+05        -0.54559E+07         0.00000E+00
    0.00000E+00         0.00000E+00         0.00000E+00
 
    0.42464E+07         0.42006E+06         0.00000E+00
    0.42006E+06        -0.55115E+07         0.00000E+00
    0.00000E+00         0.00000E+00         0.00000E+00
 
    0.39760E+07         0.95848E+06         0.00000E+00
    0.95848E+06        -0.54652E+07         0.00000E+00
    0.00000E+00         0.00000E+00         0.00000E+00
 
    0.35191E+07         0.15605E+07         0.00000E+00
    0.15605E+07        -0.52850E+07         0.00000E+00
    0.00000E+00         0.00000E+00         0.00000E+00
 
    0.28291E+07         0.21629E+07         0.00000E+00
    0.21629E+07        -0.49504E+07         0.00000E+00
    0.00000E+00         0.00000E+00         0.00000E+00
 
    0.18796E+07         0.26856E+07         0.00000E+00
    0.26856E+07        -0.44591E+07         0.00000E+00
    0.00000E+00         0.00000E+00         0.00000E+00
 
    0.66907E+06         0.30354E+07         0.00000E+00
    0.30354E+07        -0.38311E+07         0.00000E+00
    0.00000E+00         0.00000E+00         0.00000E+00
 
    0.93147E+07         0.25486E+05         0.00000E+00
    0.25486E+05        -0.50667E+07         0.00000E+00
    0.00000E+00         0.00000E+00        -0.41521E+04
 
    0.76560E+07        -0.84421E+05         0.00000E+00
   -0.84421E+05        -0.50031E+07         0.00000E+00
    0.00000E+00         0.00000E+00         0.00000E+00
 
    0.63622E+07        -0.39970E+06         0.00000E+00
   -0.39970E+06        -0.49956E+07         0.00000E+00
    0.00000E+00         0.00000E+00         0.00000E+00
 
    0.54981E+07        -0.75540E+06         0.00000E+00
   -0.75540E+06        -0.50830E+07         0.00000E+00
    0.00000E+00         0.00000E+00         0.00000E+00
 
    0.49922E+07        -0.10452E+07         0.00000E+00
   -0.10452E+07        -0.52662E+07         0.00000E+00
    0.00000E+00         0.00000E+00         0.00000E+00
 
    0.47565E+07        -0.12017E+07         0.00000E+00
   -0.12017E+07        -0.55219E+07         0.00000E+00
    0.00000E+00         0.00000E+00         0.00000E+00
 
    0.46980E+07        -0.11876E+07         0.00000E+00
   -0.11876E+07        -0.58149E+07         0.00000E+00
    0.00000E+00         0.00000E+00         0.00000E+00
 
    0.47275E+07        -0.98758E+06         0.00000E+00
   -0.98758E+06        -0.61071E+07         0.00000E+00
    0.00000E+00         0.00000E+00         0.00000E+00
 
    0.47614E+07        -0.60164E+06         0.00000E+00
   -0.60164E+06        -0.63597E+07         0.00000E+00
    0.00000E+00         0.00000E+00         0.00000E+00
 
    0.47192E+07        -0.41230E+05         0.00000E+00
   -0.41230E+05        -0.65330E+07         0.00000E+00
    0.00000E+00         0.00000E+00         0.00000E+00
 
    0.45201E+07         0.66864E+06         0.00000E+00
    0.66864E+06        -0.65851E+07         0.00000E+00
    0.00000E+00         0.00000E+00         0.00000E+00
 
    0.40852E+07         0.14827E+07         0.00000E+00
    0.14827E+07        -0.64734E+07         0.00000E+00
    0.00000E+00         0.00000E+00         0.00000E+00
 
    0.33470E+07         0.23292E+07         0.00000E+00
    0.23292E+07        -0.61635E+07         0.00000E+00
    0.00000E+00         0.00000E+00         0.00000E+00
 
    0.22620E+07         0.31131E+07         0.00000E+00
    0.31131E+07        -0.56412E+07         0.00000E+00
    0.00000E+00         0.00000E+00         0.00000E+00
 
    0.81459E+06         0.37240E+07         0.00000E+00
    0.37240E+07        -0.49157E+07         0.00000E+00
    0.00000E+00         0.00000E+00         0.00000E+00
 
    0.93314E+07        -0.52407E+05         0.00000E+00
   -0.52407E+05        -0.49301E+07         0.00000E+00
    0.00000E+00         0.00000E+00        -0.10129E+05
 
    0.74100E+07        -0.43612E+06         0.00000E+00
   -0.43612E+06        -0.49625E+07         0.00000E+00
    0.00000E+00         0.00000E+00         0.00000E+00
 
    0.60110E+07        -0.96964E+06         0.00000E+00
   -0.96964E+06        -0.50932E+07         0.00000E+00
    0.00000E+00         0.00000E+00         0.00000E+00
 
    0.51642E+07        -0.14863E+07         0.00000E+00
   -0.14863E+07        -0.53526E+07         0.00000E+00
    0.00000E+00         0.00000E+00         0.00000E+00
 
    0.47491E+07        -0.18698E+07         0.00000E+00
   -0.18698E+07        -0.57188E+07         0.00000E+00
    0.00000E+00         0.00000E+00         0.00000E+00
 
    0.46408E+07        -0.20557E+07         0.00000E+00
   -0.20557E+07        -0.61506E+07         0.00000E+00
    0.00000E+00         0.00000E+00         0.00000E+00
 
    0.47219E+07        -0.20174E+07         0.00000E+00
   -0.20174E+07        -0.66036E+07         0.00000E+00
    0.00000E+00         0.00000E+00         0.00000E+00
 
    0.48894E+07        -0.17508E+07         0.00000E+00
   -0.17508E+07        -0.70378E+07         0.00000E+00
    0.00000E+00         0.00000E+00         0.00000E+00
 
    0.50534E+07        -0.12627E+07         0.00000E+00
   -0.12627E+07        -0.74178E+07         0.00000E+00
    0.00000E+00         0.00000E+00         0.00000E+00
 
    0.51288E+07        -0.56363E+06         0.00000E+00
   -0.56363E+06        -0.77087E+07         0.00000E+00
    0.00000E+00         0.00000E+00         0.00000E+00
 
    0.50243E+07         0.32930E+06         0.00000E+00
    0.32930E+06        -0.78688E+07         0.00000E+00
    0.00000E+00         0.00000E+00         0.00000E+00
 
    0.46381E+07         0.13795E+07         0.00000E+00
    0.13795E+07        -0.78452E+07         0.00000E+00
    0.00000E+00         0.00000E+00         0.00000E+00
 
    0.38703E+07         0.25127E+07         0.00000E+00
    0.25127E+07        -0.75825E+07         0.00000E+00
    0.00000E+00         0.00000E+00         0.00000E+00
 
    0.26541E+07         0.36133E+07         0.00000E+00
    0.36133E+07        -0.70441E+07         0.00000E+00
    0.00000E+00         0.00000E+00         0.00000E+00
 
    0.96433E+06         0.45526E+07         0.00000E+00
    0.45526E+07        -0.62284E+07         0.00000E+00
    0.00000E+00         0.00000E+00         0.00000E+00
 
    0.90481E+07        -0.18160E+06         0.00000E+00
   -0.18160E+06        -0.49315E+07         0.00000E+00
    0.00000E+00         0.00000E+00         0.00000E+00
 
    0.68301E+07        -0.88798E+06         0.00000E+00
   -0.88798E+06        -0.50420E+07         0.00000E+00
    0.00000E+00         0.00000E+00         0.00000E+00
 
    0.53648E+07        -0.16773E+07         0.00000E+00
   -0.16773E+07        -0.53438E+07         0.00000E+00
    0.00000E+00         0.00000E+00         0.00000E+00
 
    0.45774E+07        -0.23577E+07         0.00000E+00
   -0.23577E+07        -0.58107E+07         0.00000E+00
    0.00000E+00         0.00000E+00         0.00000E+00
 
    0.42919E+07        -0.28146E+07         0.00000E+00
   -0.28146E+07        -0.63816E+07         0.00000E+00
    0.00000E+00         0.00000E+00         0.00000E+00
 
    0.43378E+07        -0.30002E+07         0.00000E+00
   -0.30002E+07        -0.69933E+07         0.00000E+00
    0.00000E+00         0.00000E+00         0.00000E+00
 
    0.45719E+07        -0.29087E+07         0.00000E+00
   -0.29087E+07        -0.75948E+07         0.00000E+00
    0.00000E+00         0.00000E+00         0.00000E+00
 
    0.48814E+07        -0.25541E+07         0.00000E+00
   -0.25541E+07        -0.81497E+07         0.00000E+00
    0.00000E+00         0.00000E+00         0.00000E+00
 
    0.51769E+07        -0.19538E+07         0.00000E+00
   -0.19538E+07        -0.86322E+07         0.00000E+00
    0.00000E+00         0.00000E+00         0.00000E+00
 
    0.53789E+07        -0.11191E+07         0.00000E+00
   -0.11191E+07        -0.90210E+07         0.00000E+00
    0.00000E+00         0.00000E+00         0.00000E+00
 
    0.53960E+07        -0.51010E+05         0.00000E+00
   -0.51010E+05        -0.92868E+07         0.00000E+00
    0.00000E+00         0.00000E+00         0.00000E+00
 
    0.51018E+07         0.12405E+07         0.00000E+00
    0.12405E+07        -0.93728E+07         0.00000E+00
    0.00000E+00         0.00000E+00         0.00000E+00
 
    0.43462E+07         0.26939E+07         0.00000E+00
    0.26939E+07        -0.91968E+07         0.00000E+00
    0.00000E+00         0.00000E+00         0.00000E+00
 
    0.30169E+07         0.41734E+07         0.00000E+00
    0.41734E+07        -0.86881E+07         0.00000E+00
    0.00000E+00         0.00000E+00         0.00000E+00
 
    0.11000E+07         0.55109E+07         0.00000E+00
    0.55109E+07        -0.78105E+07         0.00000E+00
    0.00000E+00         0.00000E+00         0.00000E+00
 
    0.82738E+07        -0.39590E+06         0.00000E+00
   -0.39590E+06        -0.50320E+07         0.00000E+00
    0.00000E+00         0.00000E+00         0.00000E+00
 
    0.57565E+07        -0.14566E+07         0.00000E+00
   -0.14566E+07        -0.53192E+07         0.00000E+00
    0.00000E+00         0.00000E+00         0.00000E+00
 
    0.42922E+07        -0.25287E+07         0.00000E+00
   -0.25287E+07        -0.58548E+07         0.00000E+00
    0.00000E+00         0.00000E+00         0.00000E+00
 
    0.36335E+07        -0.33564E+07         0.00000E+00
   -0.33564E+07        -0.65644E+07         0.00000E+00
    0.00000E+00         0.00000E+00         0.00000E+00
 
    0.35273E+07        -0.38460E+07         0.00000E+00
   -0.38460E+07        -0.73461E+07         0.00000E+00
    0.00000E+00         0.00000E+00         0.00000E+00
 
    0.37535E+07        -0.39855E+07         0.00000E+00
   -0.39855E+07        -0.81192E+07         0.00000E+00
    0.00000E+00         0.00000E+00         0.00000E+00
 
    0.41472E+07        -0.38023E+07         0.00000E+00
   -0.38023E+07        -0.88340E+07         0.00000E+00
    0.00000E+00         0.00000E+00         0.00000E+00
 
    0.45926E+07        -0.33339E+07         0.00000E+00
   -0.33339E+07        -0.94648E+07         0.00000E+00
    0.00000E+00         0.00000E+00         0.00000E+00
 
    0.50080E+07        -0.26124E+07         0.00000E+00
   -0.26124E+07        -0.10001E+08         0.00000E+00
    0.00000E+00         0.00000E+00         0.00000E+00
 
    0.53309E+07        -0.16541E+07         0.00000E+00
   -0.16541E+07        -0.10439E+08         0.00000E+00
    0.00000E+00         0.00000E+00         0.00000E+00
 
    0.54920E+07        -0.44724E+06         0.00000E+00
   -0.44724E+06        -0.10775E+08         0.00000E+00
    0.00000E+00         0.00000E+00         0.00000E+00
 
    0.53545E+07         0.10506E+07         0.00000E+00
    0.10506E+07        -0.10975E+08         0.00000E+00
    0.00000E+00         0.00000E+00         0.00000E+00
 
    0.46838E+07         0.28278E+07         0.00000E+00
    0.28278E+07        -0.10937E+08         0.00000E+00
    0.00000E+00         0.00000E+00         0.00000E+00
 
    0.32791E+07         0.47192E+07         0.00000E+00
    0.47192E+07        -0.10546E+08         0.00000E+00
    0.00000E+00         0.00000E+00         0.00000E+00
 
    0.11888E+07         0.65203E+07         0.00000E+00
    0.65203E+07        -0.98104E+07         0.00000E+00
    0.00000E+00         0.00000E+00         0.00000E+00
 
    0.67097E+07        -0.67595E+06         0.00000E+00
   -0.67595E+06        -0.54798E+07         0.00000E+00
    0.00000E+00         0.00000E+00         0.00000E+00
 
    0.39872E+07        -0.21918E+07         0.00000E+00
   -0.21918E+07        -0.59659E+07         0.00000E+00
    0.00000E+00         0.00000E+00         0.00000E+00
 
    0.26268E+07        -0.35285E+07         0.00000E+00
   -0.35285E+07        -0.67865E+07         0.00000E+00
    0.00000E+00         0.00000E+00         0.00000E+00
 
    0.21959E+07        -0.44483E+07         0.00000E+00
   -0.44483E+07        -0.77522E+07         0.00000E+00
    0.00000E+00         0.00000E+00         0.00000E+00
 
    0.23281E+07        -0.49026E+07         0.00000E+00
   -0.49026E+07        -0.87181E+07         0.00000E+00
    0.00000E+00         0.00000E+00         0.00000E+00
 
    0.27575E+07        -0.49356E+07         0.00000E+00
   -0.49356E+07        -0.95997E+07         0.00000E+00
    0.00000E+00         0.00000E+00         0.00000E+00
 
    0.33091E+07        -0.46169E+07         0.00000E+00
   -0.46169E+07        -0.10362E+08         0.00000E+00
    0.00000E+00         0.00000E+00         0.00000E+00
 
    0.38753E+07        -0.40099E+07         0.00000E+00
   -0.40099E+07        -0.11000E+08         0.00000E+00
    0.00000E+00         0.00000E+00         0.00000E+00
 
    0.43909E+07        -0.31591E+07         0.00000E+00
   -0.31591E+07        -0.11522E+08         0.00000E+00
    0.00000E+00         0.00000E+00         0.00000E+00
 
    0.48137E+07        -0.20858E+07         0.00000E+00
   -0.20858E+07        -0.11939E+08         0.00000E+00
    0.00000E+00         0.00000E+00         0.00000E+00
 
    0.51171E+07        -0.78418E+06         0.00000E+00
   -0.78418E+06        -0.12262E+08         0.00000E+00
    0.00000E+00         0.00000E+00         0.00000E+00
 
    0.52125E+07         0.82866E+06         0.00000E+00
    0.82866E+06        -0.12491E+08         0.00000E+00
    0.00000E+00         0.00000E+00         0.00000E+00
 
    0.47806E+07         0.28463E+07         0.00000E+00
    0.28463E+07        -0.12615E+08         0.00000E+00
    0.00000E+00         0.00000E+00        -0.28089E+05
 
    0.33580E+07         0.51122E+07         0.00000E+00
    0.51122E+07        -0.12499E+08         0.00000E+00
    0.00000E+00         0.00000E+00        -0.16766E+06
 
    0.90194E+06         0.72335E+07         0.00000E+00
    0.72335E+07        -0.12035E+08         0.00000E+00
    0.00000E+00         0.00000E+00        -0.40281E+06
 
    0.39633E+07        -0.10482E+07         0.00000E+00
   -0.10482E+07        -0.65229E+07         0.00000E+00
    0.00000E+00         0.00000E+00         0.00000E+00
 
    0.12384E+07        -0.30883E+07         0.00000E+00
   -0.30883E+07        -0.72492E+07         0.00000E+00
    0.00000E+00         0.00000E+00         0.00000E+00
 
    0.17226E+06        -0.46450E+07         0.00000E+00
   -0.46450E+07        -0.83575E+07         0.00000E+00
    0.00000E+00         0.00000E+00         0.00000E+00
 
    0.95209E+05        -0.55600E+07         0.00000E+00
   -0.55600E+07        -0.95347E+07         0.00000E+00
    0.00000E+00         0.00000E+00         0.00000E+00
 
    0.52827E+06        -0.58866E+07         0.00000E+00
   -0.58866E+07        -0.10602E+08         0.00000E+00
    0.00000E+00         0.00000E+00         0.00000E+00
 
    0.11757E+07        -0.57457E+07         0.00000E+00
   -0.57457E+07        -0.11491E+08         0.00000E+00
    0.00000E+00         0.00000E+00         0.00000E+00
 
    0.18737E+07        -0.52535E+07         0.00000E+00
   -0.52535E+07        -0.12199E+08         0.00000E+00
    0.00000E+00         0.00000E+00         0.00000E+00
 
    0.25397E+07        -0.44945E+07         0.00000E+00
   -0.44945E+07        -0.12754E+08         0.00000E+00
    0.00000E+00         0.00000E+00         0.00000E+00
 
    0.31358E+07        -0.35174E+07         0.00000E+00
   -0.35174E+07        -0.13187E+08         0.00000E+00
    0.00000E+00         0.00000E+00         0.00000E+00
 
    0.36457E+07        -0.23380E+07         0.00000E+00
   -0.23380E+07        -0.13521E+08         0.00000E+00
    0.00000E+00         0.00000E+00         0.00000E+00
 
    0.40666E+07        -0.94487E+06         0.00000E+00
   -0.94487E+06        -0.13765E+08         0.00000E+00
    0.00000E+00         0.00000E+00         0.00000E+00
 
    0.45004E+07         0.72900E+06         0.00000E+00
    0.72900E+06        -0.13923E+08         0.00000E+00
    0.00000E+00         0.00000E+00        -0.12127E+05
 
    0.43425E+07         0.28360E+07         0.00000E+00
    0.28360E+07        -0.13946E+08         0.00000E+00
    0.00000E+00         0.00000E+00        -0.35749E+06
 
    0.28580E+07         0.52507E+07         0.00000E+00
    0.52507E+07        -0.13967E+08         0.00000E+00
    0.00000E+00         0.00000E+00        -0.10202E+07
 
    0.33752E+05         0.76424E+07         0.00000E+00
    0.76424E+07        -0.13779E+08         0.00000E+00
    0.00000E+00         0.00000E+00        -0.15392E+07
 
   -0.47281E+06        -0.15293E+07         0.00000E+00
   -0.15293E+07        -0.85164E+07         0.00000E+00
    0.00000E+00         0.00000E+00         0.00000E+00
 
   -0.28145E+07        -0.41195E+07         0.00000E+00
   -0.41195E+07        -0.94821E+07         0.00000E+00
    0.00000E+00         0.00000E+00         0.00000E+00
 
   -0.32982E+07        -0.57858E+07         0.00000E+00
   -0.57858E+07        -0.10809E+08         0.00000E+00
    0.00000E+00         0.00000E+00         0.00000E+00
 
   -0.28661E+07        -0.65600E+07         0.00000E+00
   -0.65600E+07        -0.12062E+08         0.00000E+00
    0.00000E+00         0.00000E+00         0.00000E+00
 
   -0.20769E+07        -0.66547E+07         0.00000E+00
   -0.66547E+07        -0.13066E+08         0.00000E+00
    0.00000E+00         0.00000E+00         0.00000E+00
 
   -0.12115E+07        -0.62836E+07         0.00000E+00
   -0.62836E+07        -0.13804E+08         0.00000E+00
    0.00000E+00         0.00000E+00         0.00000E+00
 
   -0.38956E+06        -0.56024E+07         0.00000E+00
   -0.56024E+07        -0.14323E+08         0.00000E+00
    0.00000E+00         0.00000E+00         0.00000E+00
 
    0.35213E+06        -0.47049E+07         0.00000E+00
   -0.47049E+07        -0.14688E+08         0.00000E+00
    0.00000E+00         0.00000E+00         0.00000E+00
 
    0.10145E+07        -0.36335E+07         0.00000E+00
   -0.36335E+07        -0.14957E+08         0.00000E+00
    0.00000E+00         0.00000E+00         0.00000E+00
 
    0.16145E+07        -0.23886E+07         0.00000E+00
   -0.23886E+07        -0.15170E+08         0.00000E+00
    0.00000E+00         0.00000E+00         0.00000E+00
 
    0.21805E+07        -0.93280E+06         0.00000E+00
   -0.93280E+06        -0.15350E+08         0.00000E+00
    0.00000E+00         0.00000E+00         0.00000E+00
 
    0.27934E+07         0.75251E+06         0.00000E+00
    0.75251E+06        -0.15516E+08         0.00000E+00
    0.00000E+00         0.00000E+00         0.00000E+00
 
    0.31440E+07         0.27598E+07         0.00000E+00
    0.27598E+07        -0.15658E+08         0.00000E+00
    0.00000E+00         0.00000E+00        -0.34588E+06
 
    0.18547E+07         0.53194E+07         0.00000E+00
    0.53194E+07        -0.15739E+08         0.00000E+00
    0.00000E+00         0.00000E+00        -0.14032E+07
 
   -0.12038E+07         0.82087E+07         0.00000E+00
    0.82087E+07        -0.15533E+08         0.00000E+00
    0.00000E+00         0.00000E+00        -0.25659E+07
 
   -0.71702E+07        -0.21140E+07         0.00000E+00
   -0.21140E+07        -0.11886E+08         0.00000E+00
    0.00000E+00         0.00000E+00         0.00000E+00
 
   -0.84820E+07        -0.51949E+07         0.00000E+00
   -0.51949E+07        -0.13003E+08         0.00000E+00
    0.00000E+00         0.00000E+00         0.00000E+00
 
   -0.79978E+07        -0.67770E+07         0.00000E+00
   -0.67770E+07        -0.14346E+08         0.00000E+00
    0.00000E+00         0.00000E+00         0.00000E+00
 
   -0.68971E+07        -0.72450E+07         0.00000E+00
   -0.72450E+07        -0.15411E+08         0.00000E+00
    0.00000E+00         0.00000E+00         0.00000E+00
 
   -0.57204E+07        -0.70207E+07         0.00000E+00
   -0.70207E+07        -0.16099E+08         0.00000E+00
    0.00000E+00         0.00000E+00         0.00000E+00
 
   -0.46576E+07        -0.63999E+07         0.00000E+00
   -0.63999E+07        -0.16475E+08         0.00000E+00
    0.00000E+00         0.00000E+00         0.00000E+00
 
   -0.37436E+07        -0.55554E+07         0.00000E+00
   -0.55554E+07        -0.16645E+08         0.00000E+00
    0.00000E+00         0.00000E+00         0.00000E+00
 
   -0.29517E+07        -0.45731E+07         0.00000E+00
   -0.45731E+07        -0.16707E+08         0.00000E+00
    0.00000E+00         0.00000E+00         0.00000E+00
 
   -0.22340E+07        -0.34792E+07         0.00000E+00
   -0.34792E+07        -0.16738E+08         0.00000E+00
    0.00000E+00         0.00000E+00         0.00000E+00
 
   -0.15373E+07        -0.22575E+07         0.00000E+00
   -0.22575E+07        -0.16797E+08         0.00000E+00
    0.00000E+00         0.00000E+00         0.00000E+00
 
   -0.80594E+06        -0.86491E+06         0.00000E+00
   -0.86491E+06        -0.16928E+08         0.00000E+00
    0.00000E+00         0.00000E+00         0.00000E+00
 
   -0.61251E+05         0.74893E+06         0.00000E+00
    0.74893E+06        -0.17148E+08         0.00000E+00
    0.00000E+00         0.00000E+00         0.00000E+00
 
    0.80838E+06         0.26714E+07         0.00000E+00
    0.26714E+07        -0.17547E+08         0.00000E+00
    0.00000E+00         0.00000E+00        -0.71264E+04
 
    0.33185E+06         0.53143E+07         0.00000E+00
    0.53143E+07        -0.17644E+08         0.00000E+00
    0.00000E+00         0.00000E+00        -0.12395E+07
 
   -0.27599E+07         0.87560E+07         0.00000E+00
    0.87560E+07        -0.17570E+08         0.00000E+00
    0.00000E+00         0.00000E+00        -0.33948E+07
 
   -0.16619E+08        -0.27529E+07         0.00000E+00
   -0.27529E+07        -0.17050E+08         0.00000E+00
    0.00000E+00         0.00000E+00         0.00000E+00
 
   -0.15945E+08        -0.61044E+07         0.00000E+00
   -0.61044E+07        -0.18067E+08         0.00000E+00
    0.00000E+00         0.00000E+00         0.00000E+00
 
   -0.14065E+08        -0.73301E+07         0.00000E+00
   -0.73301E+07        -0.19018E+08         0.00000E+00
    0.00000E+00         0.00000E+00         0.00000E+00
 
   -0.12186E+08        -0.73437E+07         0.00000E+00
   -0.73437E+07        -0.19497E+08         0.00000E+00
    0.00000E+00         0.00000E+00         0.00000E+00
 
   -0.10637E+08        -0.67756E+07         0.00000E+00
   -0.67756E+07        -0.19545E+08         0.00000E+00
    0.00000E+00         0.00000E+00         0.00000E+00
 
   -0.94182E+07        -0.59522E+07         0.00000E+00
   -0.59522E+07        -0.19328E+08         0.00000E+00
    0.00000E+00         0.00000E+00         0.00000E+00
 
   -0.84471E+07        -0.50255E+07         0.00000E+00
   -0.50255E+07        -0.18993E+08         0.00000E+00
    0.00000E+00         0.00000E+00         0.00000E+00
 
   -0.76262E+07        -0.40554E+07         0.00000E+00
   -0.40554E+07        -0.18651E+08         0.00000E+00
    0.00000E+00         0.00000E+00         0.00000E+00
 
   -0.68603E+07        -0.30453E+07         0.00000E+00
   -0.30453E+07        -0.18383E+08         0.00000E+00
    0.00000E+00         0.00000E+00         0.00000E+00
 
   -0.60659E+07        -0.19630E+07         0.00000E+00
   -0.19630E+07        -0.18250E+08         0.00000E+00
    0.00000E+00         0.00000E+00         0.00000E+00
 
   -0.51784E+07        -0.75852E+06         0.00000E+00
   -0.75852E+06        -0.18294E+08         0.00000E+00
    0.00000E+00         0.00000E+00         0.00000E+00
 
   -0.41461E+07         0.65228E+06         0.00000E+00
    0.65228E+06        -0.18546E+08         0.00000E+00
    0.00000E+00         0.00000E+00         0.00000E+00
 
   -0.30757E+07         0.24066E+07         0.00000E+00
    0.24066E+07        -0.18981E+08         0.00000E+00
    0.00000E+00         0.00000E+00         0.00000E+00
 
   -0.18430E+07         0.50865E+07         0.00000E+00
    0.50865E+07        -0.19680E+08         0.00000E+00
    0.00000E+00         0.00000E+00        -0.53944E+06
 
   -0.44780E+07         0.90176E+07         0.00000E+00
    0.90176E+07        -0.19896E+08         0.00000E+00
    0.00000E+00         0.00000E+00        -0.37677E+07
 
   -0.28962E+08        -0.32820E+07         0.00000E+00
   -0.32820E+07        -0.24151E+08         0.00000E+00
    0.00000E+00         0.00000E+00         0.00000E+00
 
   -0.25104E+08        -0.64665E+07         0.00000E+00
   -0.64665E+07        -0.24561E+08         0.00000E+00
    0.00000E+00         0.00000E+00        -0.15322E+06
 
   -0.21493E+08        -0.70267E+07         0.00000E+00
   -0.70267E+07        -0.24576E+08         0.00000E+00
    0.00000E+00         0.00000E+00        -0.10244E+06
 
   -0.18867E+08        -0.65515E+07         0.00000E+00
   -0.65515E+07        -0.23983E+08         0.00000E+00
    0.00000E+00         0.00000E+00         0.00000E+00
 
   -0.17025E+08        -0.57353E+07         0.00000E+00
   -0.57353E+07        -0.23067E+08         0.00000E+00
    0.00000E+00         0.00000E+00         0.00000E+00
 
   -0.15698E+08        -0.48447E+07         0.00000E+00
   -0.48447E+07        -0.22067E+08         0.00000E+00
    0.00000E+00         0.00000E+00         0.00000E+00
 
   -0.14694E+08        -0.39743E+07         0.00000E+00
   -0.39743E+07        -0.21118E+08         0.00000E+00
    0.00000E+00         0.00000E+00         0.00000E+00
 
   -0.13851E+08        -0.31490E+07         0.00000E+00
   -0.31490E+07        -0.20311E+08         0.00000E+00
    0.00000E+00         0.00000E+00         0.00000E+00
 
   -0.13032E+08        -0.23475E+07         0.00000E+00
   -0.23475E+07        -0.19710E+08         0.00000E+00
    0.00000E+00         0.00000E+00         0.00000E+00
 
   -0.12133E+08        -0.15223E+07         0.00000E+00
   -0.15223E+07        -0.19360E+08         0.00000E+00
    0.00000E+00         0.00000E+00         0.00000E+00
 
   -0.11072E+08        -0.60707E+06         0.00000E+00
   -0.60707E+06        -0.19296E+08         0.00000E+00
    0.00000E+00         0.00000E+00         0.00000E+00
 
   -0.97658E+07         0.47496E+06         0.00000E+00
    0.47496E+06        -0.19542E+08         0.00000E+00
    0.00000E+00         0.00000E+00         0.00000E+00
 
   -0.80932E+07         0.19268E+07         0.00000E+00
    0.19268E+07        -0.20142E+08         0.00000E+00
    0.00000E+00         0.00000E+00         0.00000E+00
 
   -0.56915E+07         0.42347E+07         0.00000E+00
    0.42347E+07        -0.21317E+08         0.00000E+00
    0.00000E+00         0.00000E+00         0.00000E+00
 
   -0.58344E+07         0.85863E+07         0.00000E+00
    0.85863E+07        -0.22249E+08         0.00000E+00
    0.00000E+00         0.00000E+00        -0.34986E+07
 
   -0.43543E+08        -0.33196E+07         0.00000E+00
   -0.33196E+07        -0.32443E+08         0.00000E+00
    0.00000E+00         0.00000E+00        -0.35213E+07
 
   -0.35482E+08        -0.55988E+07         0.00000E+00
   -0.55988E+07        -0.32104E+08         0.00000E+00
    0.00000E+00         0.00000E+00        -0.18480E+07
 
   -0.30168E+08        -0.53942E+07         0.00000E+00
   -0.53942E+07        -0.30322E+08         0.00000E+00
    0.00000E+00         0.00000E+00        -0.57626E+06
 
   -0.27033E+08        -0.46177E+07         0.00000E+00
   -0.46177E+07        -0.28208E+08         0.00000E+00
    0.00000E+00         0.00000E+00         0.00000E+00
 
   -0.24995E+08        -0.38155E+07         0.00000E+00
   -0.38155E+07        -0.26139E+08         0.00000E+00
    0.00000E+00         0.00000E+00         0.00000E+00
 
   -0.23585E+08        -0.30773E+07         0.00000E+00
   -0.30773E+07        -0.24283E+08         0.00000E+00
    0.00000E+00         0.00000E+00         0.00000E+00
 
   -0.22543E+08        -0.24469E+07         0.00000E+00
   -0.24469E+07        -0.22714E+08         0.00000E+00
    0.00000E+00         0.00000E+00         0.00000E+00
 
   -0.21655E+08        -0.19119E+07         0.00000E+00
   -0.19119E+07        -0.21463E+08         0.00000E+00
    0.00000E+00         0.00000E+00         0.00000E+00
 
   -0.20762E+08        -0.14360E+07         0.00000E+00
   -0.14360E+07        -0.20543E+08         0.00000E+00
    0.00000E+00         0.00000E+00         0.00000E+00
 
   -0.19740E+08        -0.97405E+06         0.00000E+00
   -0.97405E+06        -0.19976E+08         0.00000E+00
    0.00000E+00         0.00000E+00         0.00000E+00
 
   -0.18488E+08        -0.46025E+06         0.00000E+00
   -0.46025E+06        -0.19805E+08         0.00000E+00
    0.00000E+00         0.00000E+00         0.00000E+00
 
   -0.16914E+08         0.19899E+06         0.00000E+00
    0.19899E+06        -0.20091E+08         0.00000E+00
    0.00000E+00         0.00000E+00         0.00000E+00
 
   -0.14659E+08         0.10921E+07         0.00000E+00
    0.10921E+07        -0.20917E+08         0.00000E+00
    0.00000E+00         0.00000E+00         0.00000E+00
 
   -0.11337E+08         0.26203E+07         0.00000E+00
    0.26203E+07        -0.22323E+08         0.00000E+00
    0.00000E+00         0.00000E+00         0.00000E+00
 
   -0.66958E+07         0.72575E+07         0.00000E+00
    0.72575E+07        -0.24437E+08         0.00000E+00
    0.00000E+00         0.00000E+00        -0.27113E+07
 
   -0.58322E+08        -0.19739E+07         0.00000E+00
   -0.19739E+07        -0.43052E+08         0.00000E+00
    0.00000E+00         0.00000E+00        -0.85820E+07
 
   -0.46346E+08        -0.24821E+07         0.00000E+00
   -0.24821E+07        -0.38866E+08         0.00000E+00
    0.00000E+00         0.00000E+00        -0.42847E+07
 
   -0.40242E+08        -0.20726E+07         0.00000E+00
   -0.20726E+07        -0.34712E+08         0.00000E+00
    0.00000E+00         0.00000E+00        -0.22293E+07
 
   -0.36817E+08        -0.16636E+07         0.00000E+00
   -0.16636E+07        -0.31244E+08         0.00000E+00
    0.00000E+00         0.00000E+00        -0.99677E+06
 
   -0.34540E+08        -0.13051E+07         0.00000E+00
   -0.13051E+07        -0.28517E+08         0.00000E+00
    0.00000E+00         0.00000E+00        -0.10889E+07
 
   -0.32985E+08        -0.10009E+07         0.00000E+00
   -0.10009E+07        -0.26395E+08         0.00000E+00
    0.00000E+00         0.00000E+00        -0.15939E+07
 
   -0.31832E+08        -0.77293E+06         0.00000E+00
   -0.77293E+06        -0.24755E+08         0.00000E+00
    0.00000E+00         0.00000E+00        -0.20067E+07
 
   -0.30826E+08        -0.59820E+06         0.00000E+00
   -0.59820E+06        -0.23491E+08         0.00000E+00
    0.00000E+00         0.00000E+00        -0.22930E+07
 
   -0.29802E+08        -0.45616E+06         0.00000E+00
   -0.45616E+06        -0.22525E+08         0.00000E+00
    0.00000E+00         0.00000E+00        -0.24296E+07
 
   -0.28632E+08        -0.32944E+06         0.00000E+00
   -0.32944E+06        -0.21813E+08         0.00000E+00
    0.00000E+00         0.00000E+00        -0.23761E+07
 
   -0.27184E+08        -0.19172E+06         0.00000E+00
   -0.19172E+06        -0.21349E+08         0.00000E+00
    0.00000E+00         0.00000E+00        -0.20644E+07
 
   -0.25354E+08         0.12132E+05         0.00000E+00
    0.12132E+05        -0.21185E+08         0.00000E+00
    0.00000E+00         0.00000E+00        -0.13289E+07
 
   -0.22962E+08         0.29159E+06         0.00000E+00
    0.29159E+06        -0.21470E+08         0.00000E+00
    0.00000E+00         0.00000E+00        -0.20187E+06
 
   -0.18507E+08         0.80953E+06         0.00000E+00
    0.80953E+06        -0.22657E+08         0.00000E+00
    0.00000E+00         0.00000E+00         0.00000E+00
 
   -0.86237E+07         0.33167E+07         0.00000E+00
    0.33167E+07        -0.26619E+08         0.00000E+00
    0.00000E+00         0.00000E+00        -0.10163E+07
 
TENSORS stresstot double 
   -0.51265E+08         0.13595E+05         0.00000E+00
    0.13595E+05        -0.59987E+08         0.00000E+00
    0.00000E+00         0.00000E+00        -0.55751E+08
 
   -0.51467E+08         0.38199E+05         0.00000E+00
    0.38199E+05        -0.59935E+08         0.00000E+00
    0.00000E+00         0.00000E+00        -0.55797E+08
 
   -0.51783E+08         0.58960E+05         0.00000E+00
    0.58960E+05        -0.59838E+08         0.00000E+00
    0.00000E+00         0.00000E+00        -0.55882E+08
 
   -0.52193E+08         0.75653E+05         0.00000E+00
    0.75653E+05        -0.59703E+08         0.00000E+00
    0.00000E+00         0.00000E+00        -0.56001E+08
 
   -0.52675E+08         0.88258E+05         0.00000E+00
    0.88258E+05        -0.59540E+08         0.00000E+00
    0.00000E+00         0.00000E+00        -0.56145E+08
 
   -0.53207E+08         0.96907E+05         0.00000E+00
    0.96907E+05        -0.59354E+08         0.00000E+00
    0.00000E+00         0.00000E+00        -0.56306E+08
 
   -0.53770E+08         0.10183E+06         0.00000E+00
    0.10183E+06        -0.59156E+08         0.00000E+00
    0.00000E+00         0.00000E+00        -0.56478E+08
 
   -0.54344E+08         0.10330E+06         0.00000E+00
    0.10330E+06        -0.58951E+08         0.00000E+00
    0.00000E+00         0.00000E+00        -0.56654E+08
 
   -0.54911E+08         0.10165E+06         0.00000E+00
    0.10165E+06        -0.58746E+08         0.00000E+00
    0.00000E+00         0.00000E+00        -0.56828E+08
 
   -0.55456E+08         0.97199E+05         0.00000E+00
    0.97199E+05        -0.58547E+08         0.00000E+00
    0.00000E+00         0.00000E+00        -0.56992E+08
 
   -0.55964E+08         0.90307E+05         0.00000E+00
    0.90307E+05        -0.58360E+08         0.00000E+00
    0.00000E+00         0.00000E+00        -0.57142E+08
 
   -0.56423E+08         0.81376E+05         0.00000E+00
    0.81376E+05        -0.58188E+08         0.00000E+00
    0.00000E+00         0.00000E+00        -0.57272E+08
 
   -0.56820E+08         0.70888E+05         0.00000E+00
    0.70888E+05        -0.58036E+08         0.00000E+00
    0.00000E+00         0.00000E+00        -0.57377E+08
 
   -0.57146E+08         0.59457E+05         0.00000E+00
    0.59457E+05        -0.57905E+08         0.00000E+00
    0.00000E+00         0.00000E+00        -0.57451E+08
 
   -0.57396E+08         0.47883E+05         0.00000E+00
    0.47883E+05        -0.57798E+08         0.00000E+00
    0.00000E+00         0.00000E+00        -0.57491E+08
 
   -0.51213E+08         0.40753E+05         0.00000E+00
    0.40753E+05        -0.59987E+08         0.00000E+00
    0.00000E+00         0.00000E+00        -0.55734E+08
 
   -0.51421E+08         0.11441E+06         0.00000E+00
    0.11441E+06        -0.59936E+08         0.00000E+00
    0.00000E+00         0.00000E+00        -0.55781E+08
 
   -0.51746E+08         0.17650E+06         0.00000E+00
    0.17650E+06        -0.59839E+08         0.00000E+00
    0.00000E+00         0.00000E+00        -0.55869E+08
 
   -0.52164E+08         0.22638E+06         0.00000E+00
    0.22638E+06        -0.59705E+08         0.00000E+00
    0.00000E+00         0.00000E+00        -0.55991E+08
 
   -0.52654E+08         0.26403E+06         0.00000E+00
    0.26403E+06        -0.59543E+08         0.00000E+00
    0.00000E+00         0.00000E+00        -0.56138E+08
 
   -0.53194E+08         0.28985E+06         0.00000E+00
    0.28985E+06        -0.59359E+08         0.00000E+00
    0.00000E+00         0.00000E+00        -0.56304E+08
 
   -0.53763E+08         0.30454E+06         0.00000E+00
    0.30454E+06        -0.59162E+08         0.00000E+00
    0.00000E+00         0.00000E+00        -0.56480E+08
 
   -0.54344E+08         0.30896E+06         0.00000E+00
    0.30896E+06        -0.58959E+08         0.00000E+00
    0.00000E+00         0.00000E+00        -0.56659E+08
 
   -0.54917E+08         0.30406E+06         0.00000E+00
    0.30406E+06        -0.58756E+08         0.00000E+00
    0.00000E+00         0.00000E+00        -0.56836E+08
 
   -0.55468E+08         0.29081E+06         0.00000E+00
    0.29081E+06        -0.58559E+08         0.00000E+00
    0.00000E+00         0.00000E+00        -0.57004E+08
 
   -0.55980E+08         0.27027E+06         0.00000E+00
    0.27027E+06        -0.58373E+08         0.00000E+00
    0.00000E+00         0.00000E+00        -0.57157E+08
 
   -0.56442E+08         0.24360E+06         0.00000E+00
    0.24360E+06        -0.58203E+08         0.00000E+00
    0.00000E+00         0.00000E+00        -0.57290E+08
 
   -0.56842E+08         0.21221E+06         0.00000E+00
    0.21221E+06        -0.58052E+08         0.00000E+00
    0.00000E+00         0.00000E+00        -0.57396E+08
 
   -0.57169E+08         0.17791E+06         0.00000E+00
    0.17791E+06        -0.57922E+08         0.00000E+00
    0.00000E+00         0.00000E+00        -0.57472E+08
 
   -0.57419E+08         0.14305E+06         0.00000E+00
    0.14305E+06        -0.57816E+08         0.00000E+00
    0.00000E+00         0.00000E+00        -0.57512E+08
 
   -0.51107E+08         0.67758E+05         0.00000E+00
    0.67758E+05        -0.59987E+08         0.00000E+00
    0.00000E+00         0.00000E+00        -0.55700E+08
 
   -0.51331E+08         0.19000E+06         0.00000E+00
    0.19000E+06        -0.59936E+08         0.00000E+00
    0.00000E+00         0.00000E+00        -0.55750E+08
 
   -0.51671E+08         0.29284E+06         0.00000E+00
    0.29284E+06        -0.59841E+08         0.00000E+00
    0.00000E+00         0.00000E+00        -0.55843E+08
 
   -0.52106E+08         0.37532E+06         0.00000E+00
    0.37532E+06        -0.59709E+08         0.00000E+00
    0.00000E+00         0.00000E+00        -0.55971E+08
 
   -0.52612E+08         0.43748E+06         0.00000E+00
    0.43748E+06        -0.59550E+08         0.00000E+00
    0.00000E+00         0.00000E+00        -0.56126E+08
 
   -0.53167E+08         0.48007E+06         0.00000E+00
    0.48007E+06        -0.59370E+08         0.00000E+00
    0.00000E+00         0.00000E+00        -0.56299E+08
 
   -0.53751E+08         0.50431E+06         0.00000E+00
    0.50431E+06        -0.59177E+08         0.00000E+00
    0.00000E+00         0.00000E+00        -0.56483E+08
 
   -0.54344E+08         0.51167E+06         0.00000E+00
    0.51167E+06        -0.58977E+08         0.00000E+00
    0.00000E+00         0.00000E+00        -0.56670E+08
 
   -0.54930E+08         0.50370E+06         0.00000E+00
    0.50370E+06        -0.58778E+08         0.00000E+00
    0.00000E+00         0.00000E+00        -0.56854E+08
 
   -0.55490E+08         0.48199E+06         0.00000E+00
    0.48199E+06        -0.58585E+08         0.00000E+00
    0.00000E+00         0.00000E+00        -0.57029E+08
 
   -0.56012E+08         0.44821E+06         0.00000E+00
    0.44821E+06        -0.58402E+08         0.00000E+00
    0.00000E+00         0.00000E+00        -0.57188E+08
 
   -0.56481E+08         0.40420E+06         0.00000E+00
    0.40420E+06        -0.58234E+08         0.00000E+00
    0.00000E+00         0.00000E+00        -0.57325E+08
 
   -0.56886E+08         0.35219E+06         0.00000E+00
    0.35219E+06        -0.58085E+08         0.00000E+00
    0.00000E+00         0.00000E+00        -0.57436E+08
 
   -0.57216E+08         0.29503E+06         0.00000E+00
    0.29503E+06        -0.57957E+08         0.00000E+00
    0.00000E+00         0.00000E+00        -0.57515E+08
 
   -0.57464E+08         0.23649E+06         0.00000E+00
    0.23649E+06        -0.57853E+08         0.00000E+00
    0.00000E+00         0.00000E+00        -0.57556E+08
 
   -0.50950E+08         0.94456E+05         0.00000E+00
    0.94456E+05        -0.59987E+08         0.00000E+00
    0.00000E+00         0.00000E+00        -0.55651E+08
 
   -0.51196E+08         0.26444E+06         0.00000E+00
    0.26444E+06        -0.59937E+08         0.00000E+00
    0.00000E+00         0.00000E+00        -0.55704E+08
 
   -0.51561E+08         0.40701E+06         0.00000E+00
    0.40701E+06        -0.59844E+08         0.00000E+00
    0.00000E+00         0.00000E+00        -0.55805E+08
 
   -0.52020E+08         0.52104E+06         0.00000E+00
    0.52104E+06        -0.59716E+08         0.00000E+00
    0.00000E+00         0.00000E+00        -0.55942E+08
 
   -0.52549E+08         0.60678E+06         0.00000E+00
    0.60678E+06        -0.59561E+08         0.00000E+00
    0.00000E+00         0.00000E+00        -0.56108E+08
 
   -0.53127E+08         0.66546E+06         0.00000E+00
    0.66546E+06        -0.59386E+08         0.00000E+00
    0.00000E+00         0.00000E+00        -0.56293E+08
 
   -0.53732E+08         0.69889E+06         0.00000E+00
    0.69889E+06        -0.59200E+08         0.00000E+00
    0.00000E+00         0.00000E+00        -0.56488E+08
 
   -0.54345E+08         0.70917E+06         0.00000E+00
    0.70917E+06        -0.59007E+08         0.00000E+00
    0.00000E+00         0.00000E+00        -0.56687E+08
 
   -0.54947E+08         0.69845E+06         0.00000E+00
    0.69845E+06        -0.58814E+08         0.00000E+00
    0.00000E+00         0.00000E+00        -0.56883E+08
 
   -0.55523E+08         0.66889E+06         0.00000E+00
    0.66889E+06        -0.58626E+08         0.00000E+00
    0.00000E+00         0.00000E+00        -0.57067E+08
 
   -0.56058E+08         0.62264E+06         0.00000E+00
    0.62264E+06        -0.58448E+08         0.00000E+00
    0.00000E+00         0.00000E+00        -0.57235E+08
 
   -0.56539E+08         0.56205E+06         0.00000E+00
    0.56205E+06        -0.58284E+08         0.00000E+00
    0.00000E+00         0.00000E+00        -0.57380E+08
 
   -0.56952E+08         0.48996E+06         0.00000E+00
    0.48996E+06        -0.58138E+08         0.00000E+00
    0.00000E+00         0.00000E+00        -0.57497E+08
 
   -0.57286E+08         0.41006E+06         0.00000E+00
    0.41006E+06        -0.58013E+08         0.00000E+00
    0.00000E+00         0.00000E+00        -0.57580E+08
 
   -0.57534E+08         0.32734E+06         0.00000E+00
    0.32734E+06        -0.57911E+08         0.00000E+00
    0.00000E+00         0.00000E+00        -0.57624E+08
 
   -0.50742E+08         0.12064E+06         0.00000E+00
    0.12064E+06        -0.59988E+08         0.00000E+00
    0.00000E+00         0.00000E+00        -0.55586E+08
 
   -0.51018E+08         0.33702E+06         0.00000E+00
    0.33702E+06        -0.59939E+08         0.00000E+00
    0.00000E+00         0.00000E+00        -0.55646E+08
 
   -0.51415E+08         0.51775E+06         0.00000E+00
    0.51775E+06        -0.59849E+08         0.00000E+00
    0.00000E+00         0.00000E+00        -0.55755E+08
 
   -0.51907E+08         0.66175E+06         0.00000E+00
    0.66175E+06        -0.59726E+08         0.00000E+00
    0.00000E+00         0.00000E+00        -0.55906E+08
 
   -0.52468E+08         0.76970E+06         0.00000E+00
    0.76970E+06        -0.59578E+08         0.00000E+00
    0.00000E+00         0.00000E+00        -0.56086E+08
 
   -0.53076E+08         0.84344E+06         0.00000E+00
    0.84344E+06        -0.59412E+08         0.00000E+00
    0.00000E+00         0.00000E+00        -0.56286E+08
 
   -0.53708E+08         0.88551E+06         0.00000E+00
    0.88551E+06        -0.59234E+08         0.00000E+00
    0.00000E+00         0.00000E+00        -0.56498E+08
 
   -0.54345E+08         0.89871E+06         0.00000E+00
    0.89871E+06        -0.59051E+08         0.00000E+00
    0.00000E+00         0.00000E+00        -0.56712E+08
 
   -0.54970E+08         0.88579E+06         0.00000E+00
    0.88579E+06        -0.58868E+08         0.00000E+00
    0.00000E+00         0.00000E+00        -0.56922E+08
 
   -0.55566E+08         0.84933E+06         0.00000E+00
    0.84933E+06        -0.58688E+08         0.00000E+00
    0.00000E+00         0.00000E+00        -0.57120E+08
 
   -0.56119E+08         0.79184E+06         0.00000E+00
    0.79184E+06        -0.58517E+08         0.00000E+00
    0.00000E+00         0.00000E+00        -0.57300E+08
 
   -0.56614E+08         0.71592E+06         0.00000E+00
    0.71592E+06        -0.58358E+08         0.00000E+00
    0.00000E+00         0.00000E+00        -0.57455E+08
 
   -0.57039E+08         0.62473E+06         0.00000E+00
    0.62473E+06        -0.58216E+08         0.00000E+00
    0.00000E+00         0.00000E+00        -0.57580E+08
 
   -0.57380E+08         0.52249E+06         0.00000E+00
    0.52249E+06        -0.58094E+08         0.00000E+00
    0.00000E+00         0.00000E+00        -0.57669E+08
 
   -0.57629E+08         0.41508E+06         0.00000E+00
    0.41508E+06        -0.57995E+08         0.00000E+00
    0.00000E+00         0.00000E+00        -0.57716E+08
 
   -0.50484E+08         0.14602E+06         0.00000E+00
    0.14602E+06        -0.59988E+08         0.00000E+00
    0.00000E+00         0.00000E+00        -0.55509E+08
 
   -0.50799E+08         0.40682E+06         0.00000E+00
    0.40682E+06        -0.59942E+08         0.00000E+00
    0.00000E+00         0.00000E+00        -0.55575E+08
 
   -0.51237E+08         0.62347E+06         0.00000E+00
    0.62347E+06        -0.59856E+08         0.00000E+00
    0.00000E+00         0.00000E+00        -0.55697E+08
 
   -0.51769E+08         0.79521E+06         0.00000E+00
    0.79521E+06        -0.59740E+08         0.00000E+00
    0.00000E+00         0.00000E+00        -0.55863E+08
 
   -0.52369E+08         0.92341E+06         0.00000E+00
    0.92341E+06        -0.59602E+08         0.00000E+00
    0.00000E+00         0.00000E+00        -0.56061E+08
 
   -0.53013E+08         0.10108E+07         0.00000E+00
    0.10108E+07        -0.59448E+08         0.00000E+00
    0.00000E+00         0.00000E+00        -0.56282E+08
 
   -0.53678E+08         0.10608E+07         0.00000E+00
    0.10608E+07        -0.59283E+08         0.00000E+00
    0.00000E+00         0.00000E+00        -0.56513E+08
 
   -0.54345E+08         0.10769E+07         0.00000E+00
    0.10769E+07        -0.59114E+08         0.00000E+00
    0.00000E+00         0.00000E+00        -0.56747E+08
 
   -0.54997E+08         0.10626E+07         0.00000E+00
    0.10626E+07        -0.58943E+08         0.00000E+00
    0.00000E+00         0.00000E+00        -0.56975E+08
 
   -0.55617E+08         0.10207E+07         0.00000E+00
    0.10207E+07        -0.58775E+08         0.00000E+00
    0.00000E+00         0.00000E+00        -0.57189E+08
 
   -0.56192E+08         0.95376E+06         0.00000E+00
    0.95376E+06        -0.58613E+08         0.00000E+00
    0.00000E+00         0.00000E+00        -0.57384E+08
 
   -0.56706E+08         0.86446E+06         0.00000E+00
    0.86446E+06        -0.58462E+08         0.00000E+00
    0.00000E+00         0.00000E+00        -0.57552E+08
 
   -0.57146E+08         0.75582E+06         0.00000E+00
    0.75582E+06        -0.58324E+08         0.00000E+00
    0.00000E+00         0.00000E+00        -0.57687E+08
 
   -0.57498E+08         0.63214E+06         0.00000E+00
    0.63214E+06        -0.58206E+08         0.00000E+00
    0.00000E+00         0.00000E+00        -0.57783E+08
 
   -0.57749E+08         0.49976E+06         0.00000E+00
    0.49976E+06        -0.58110E+08         0.00000E+00
    0.00000E+00         0.00000E+00        -0.57834E+08
 
   -0.50179E+08         0.17023E+06         0.00000E+00
    0.17023E+06        -0.59989E+08         0.00000E+00
    0.00000E+00         0.00000E+00        -0.55420E+08
 
   -0.50541E+08         0.47265E+06         0.00000E+00
    0.47265E+06        -0.59945E+08         0.00000E+00
    0.00000E+00         0.00000E+00        -0.55494E+08
 
   -0.51028E+08         0.72210E+06         0.00000E+00
    0.72210E+06        -0.59866E+08         0.00000E+00
    0.00000E+00         0.00000E+00        -0.55631E+08
 
   -0.51609E+08         0.91854E+06         0.00000E+00
    0.91854E+06        -0.59761E+08         0.00000E+00
    0.00000E+00         0.00000E+00        -0.55816E+08
 
   -0.52254E+08         0.10644E+07         0.00000E+00
    0.10644E+07        -0.59636E+08         0.00000E+00
    0.00000E+00         0.00000E+00        -0.56037E+08
 
   -0.52940E+08         0.11634E+07         0.00000E+00
    0.11634E+07        -0.59497E+08         0.00000E+00
    0.00000E+00         0.00000E+00        -0.56280E+08
 
   -0.53643E+08         0.12204E+07         0.00000E+00
    0.12204E+07        -0.59350E+08         0.00000E+00
    0.00000E+00         0.00000E+00        -0.56535E+08
 
   -0.54344E+08         0.12396E+07         0.00000E+00
    0.12396E+07        -0.59199E+08         0.00000E+00
    0.00000E+00         0.00000E+00        -0.56792E+08
 
   -0.55026E+08         0.12249E+07         0.00000E+00
    0.12249E+07        -0.59045E+08         0.00000E+00
    0.00000E+00         0.00000E+00        -0.57042E+08
 
   -0.55675E+08         0.11796E+07         0.00000E+00
    0.11796E+07        -0.58893E+08         0.00000E+00
    0.00000E+00         0.00000E+00        -0.57277E+08
 
   -0.56274E+08         0.11060E+07         0.00000E+00
    0.11060E+07        -0.58744E+08         0.00000E+00
    0.00000E+00         0.00000E+00        -0.57489E+08
 
   -0.56812E+08         0.10062E+07         0.00000E+00
    0.10062E+07        -0.58602E+08         0.00000E+00
    0.00000E+00         0.00000E+00        -0.57673E+08
 
   -0.57271E+08         0.88266E+06         0.00000E+00
    0.88266E+06        -0.58471E+08         0.00000E+00
    0.00000E+00         0.00000E+00        -0.57820E+08
 
   -0.57638E+08         0.73927E+06         0.00000E+00
    0.73927E+06        -0.58355E+08         0.00000E+00
    0.00000E+00         0.00000E+00        -0.57926E+08
 
   -0.57896E+08         0.58218E+06         0.00000E+00
    0.58218E+06        -0.58261E+08         0.00000E+00
    0.00000E+00         0.00000E+00        -0.57981E+08
 
   -0.49830E+08         0.19277E+06         0.00000E+00
    0.19277E+06        -0.59990E+08         0.00000E+00
    0.00000E+00         0.00000E+00        -0.55322E+08
 
   -0.50248E+08         0.53297E+06         0.00000E+00
    0.53297E+06        -0.59950E+08         0.00000E+00
    0.00000E+00         0.00000E+00        -0.55406E+08
 
   -0.50793E+08         0.81105E+06         0.00000E+00
    0.81105E+06        -0.59880E+08         0.00000E+00
    0.00000E+00         0.00000E+00        -0.55560E+08
 
   -0.51429E+08         0.10281E+07         0.00000E+00
    0.10281E+07        -0.59788E+08         0.00000E+00
    0.00000E+00         0.00000E+00        -0.55768E+08
 
   -0.52127E+08         0.11881E+07         0.00000E+00
    0.11881E+07        -0.59681E+08         0.00000E+00
    0.00000E+00         0.00000E+00        -0.56014E+08
 
   -0.52859E+08         0.12964E+07         0.00000E+00
    0.12964E+07        -0.59564E+08         0.00000E+00
    0.00000E+00         0.00000E+00        -0.56285E+08
 
   -0.53603E+08         0.13590E+07         0.00000E+00
    0.13590E+07        -0.59440E+08         0.00000E+00
    0.00000E+00         0.00000E+00        -0.56567E+08
 
   -0.54341E+08         0.13814E+07         0.00000E+00
    0.13814E+07        -0.59313E+08         0.00000E+00
    0.00000E+00         0.00000E+00        -0.56850E+08
 
   -0.55057E+08         0.13681E+07         0.00000E+00
    0.13681E+07        -0.59182E+08         0.00000E+00
    0.00000E+00         0.00000E+00        -0.57125E+08
 
   -0.55735E+08         0.13221E+07         0.00000E+00
    0.13221E+07        -0.59050E+08         0.00000E+00
    0.00000E+00         0.00000E+00        -0.57383E+08
 
   -0.56364E+08         0.12455E+07         0.00000E+00
    0.12455E+07        -0.58918E+08         0.00000E+00
    0.00000E+00         0.00000E+00        -0.57617E+08
 
   -0.56928E+08         0.11393E+07         0.00000E+00
    0.11393E+07        -0.58788E+08         0.00000E+00
    0.00000E+00         0.00000E+00        -0.57818E+08
 
   -0.57412E+08         0.10049E+07         0.00000E+00
    0.10049E+07        -0.58663E+08         0.00000E+00
    0.00000E+00         0.00000E+00        -0.57981E+08
 
   -0.57800E+08         0.84472E+06         0.00000E+00
    0.84472E+06        -0.58551E+08         0.00000E+00
    0.00000E+00         0.00000E+00        -0.58096E+08
 
   -0.58070E+08         0.66410E+06         0.00000E+00
    0.66410E+06        -0.58457E+08         0.00000E+00
    0.00000E+00         0.00000E+00        -0.58158E+08
 
   -0.49440E+08         0.21303E+06         0.00000E+00
    0.21303E+06        -0.59991E+08         0.00000E+00
    0.00000E+00         0.00000E+00        -0.55218E+08
 
   -0.49925E+08         0.58587E+06         0.00000E+00
    0.58587E+06        -0.59957E+08         0.00000E+00
    0.00000E+00         0.00000E+00        -0.55313E+08
 
   -0.50536E+08         0.88710E+06         0.00000E+00
    0.88710E+06        -0.59899E+08         0.00000E+00
    0.00000E+00         0.00000E+00        -0.55487E+08
 
   -0.51235E+08         0.11195E+07         0.00000E+00
    0.11195E+07        -0.59824E+08         0.00000E+00
    0.00000E+00         0.00000E+00        -0.55721E+08
 
   -0.51989E+08         0.12891E+07         0.00000E+00
    0.12891E+07        -0.59740E+08         0.00000E+00
    0.00000E+00         0.00000E+00        -0.55996E+08
 
   -0.52772E+08         0.14034E+07         0.00000E+00
    0.14034E+07        -0.59651E+08         0.00000E+00
    0.00000E+00         0.00000E+00        -0.56298E+08
 
   -0.53560E+08         0.14701E+07         0.00000E+00
    0.14701E+07        -0.59558E+08         0.00000E+00
    0.00000E+00         0.00000E+00        -0.56611E+08
 
   -0.54335E+08         0.14960E+07         0.00000E+00
    0.14960E+07        -0.59461E+08         0.00000E+00
    0.00000E+00         0.00000E+00        -0.56924E+08
 
   -0.55085E+08         0.14861E+07         0.00000E+00
    0.14861E+07        -0.59361E+08         0.00000E+00
    0.00000E+00         0.00000E+00        -0.57227E+08
 
   -0.55795E+08         0.14434E+07         0.00000E+00
    0.14434E+07        -0.59255E+08         0.00000E+00
    0.00000E+00         0.00000E+00        -0.57511E+08
 
   -0.56455E+08         0.13689E+07         0.00000E+00
    0.13689E+07        -0.59143E+08         0.00000E+00
    0.00000E+00         0.00000E+00        -0.57768E+08
 
   -0.57050E+08         0.12621E+07         0.00000E+00
    0.12621E+07        -0.59028E+08         0.00000E+00
    0.00000E+00         0.00000E+00        -0.57990E+08
 
   -0.57565E+08         0.11223E+07         0.00000E+00
    0.11223E+07        -0.58912E+08         0.00000E+00
    0.00000E+00         0.00000E+00        -0.58169E+08
 
   -0.57979E+08         0.95003E+06         0.00000E+00
    0.95003E+06        -0.58801E+08         0.00000E+00
    0.00000E+00         0.00000E+00        -0.58297E+08
 
   -0.58271E+08         0.74850E+06         0.00000E+00
    0.74850E+06        -0.58705E+08         0.00000E+00
    0.00000E+00         0.00000E+00        -0.58365E+08
 
   -0.49015E+08         0.23029E+06         0.00000E+00
    0.23029E+06        -0.59992E+08         0.00000E+00
    0.00000E+00         0.00000E+00        -0.55112E+08
 
   -0.49577E+08         0.62905E+06         0.00000E+00
    0.62905E+06        -0.59966E+08         0.00000E+00
    0.00000E+00         0.00000E+00        -0.55220E+08
 
   -0.50263E+08         0.94631E+06         0.00000E+00
    0.94631E+06        -0.59922E+08         0.00000E+00
    0.00000E+00         0.00000E+00        -0.55416E+08
 
   -0.51032E+08         0.11873E+07         0.00000E+00
    0.11873E+07        -0.59871E+08         0.00000E+00
    0.00000E+00         0.00000E+00        -0.55679E+08
 
   -0.51847E+08         0.13608E+07         0.00000E+00
    0.13608E+07        -0.59817E+08         0.00000E+00
    0.00000E+00         0.00000E+00        -0.55987E+08
 
   -0.52681E+08         0.14770E+07         0.00000E+00
    0.14770E+07        -0.59763E+08         0.00000E+00
    0.00000E+00         0.00000E+00        -0.56322E+08
 
   -0.53513E+08         0.15459E+07         0.00000E+00
    0.15459E+07        -0.59709E+08         0.00000E+00
    0.00000E+00         0.00000E+00        -0.56669E+08
 
   -0.54325E+08         0.15757E+07         0.00000E+00
    0.15757E+07        -0.59652E+08         0.00000E+00
    0.00000E+00         0.00000E+00        -0.57015E+08
 
   -0.55108E+08         0.15722E+07         0.00000E+00
    0.15722E+07        -0.59589E+08         0.00000E+00
    0.00000E+00         0.00000E+00        -0.57349E+08
 
   -0.55850E+08         0.15377E+07         0.00000E+00
    0.15377E+07        -0.59516E+08         0.00000E+00
    0.00000E+00         0.00000E+00        -0.57661E+08
 
   -0.56542E+08         0.14720E+07         0.00000E+00
    0.14720E+07        -0.59431E+08         0.00000E+00
    0.00000E+00         0.00000E+00        -0.57943E+08
 
   -0.57171E+08         0.13723E+07         0.00000E+00
    0.13723E+07        -0.59334E+08         0.00000E+00
    0.00000E+00         0.00000E+00        -0.58188E+08
 
   -0.57722E+08         0.12352E+07         0.00000E+00
    0.12352E+07        -0.59227E+08         0.00000E+00
    0.00000E+00         0.00000E+00        -0.58385E+08
 
   -0.58172E+08         0.10577E+07         0.00000E+00
    0.10577E+07        -0.59117E+08         0.00000E+00
    0.00000E+00         0.00000E+00        -0.58527E+08
 
   -0.58496E+08         0.83985E+06         0.00000E+00
    0.83985E+06        -0.59013E+08         0.00000E+00
    0.00000E+00         0.00000E+00        -0.58603E+08
 
   -0.48563E+08         0.24365E+06         0.00000E+00
    0.24365E+06        -0.59994E+08         0.00000E+00
    0.00000E+00         0.00000E+00        -0.55009E+08
 
   -0.49213E+08         0.65974E+06         0.00000E+00
    0.65974E+06        -0.59977E+08         0.00000E+00
    0.00000E+00         0.00000E+00        -0.55131E+08
 
   -0.49983E+08         0.98396E+06         0.00000E+00
    0.98396E+06        -0.59953E+08         0.00000E+00
    0.00000E+00         0.00000E+00        -0.55352E+08
 
   -0.50827E+08         0.12249E+07         0.00000E+00
    0.12249E+07        -0.59930E+08         0.00000E+00
    0.00000E+00         0.00000E+00        -0.55646E+08
 
   -0.51705E+08         0.13951E+07         0.00000E+00
    0.13951E+07        -0.59914E+08         0.00000E+00
    0.00000E+00         0.00000E+00        -0.55989E+08
 
   -0.52591E+08         0.15082E+07         0.00000E+00
    0.15082E+07        -0.59905E+08         0.00000E+00
    0.00000E+00         0.00000E+00        -0.56361E+08
 
   -0.53463E+08         0.15769E+07         0.00000E+00
    0.15769E+07        -0.59900E+08         0.00000E+00
    0.00000E+00         0.00000E+00        -0.56744E+08
 
   -0.54309E+08         0.16114E+07         0.00000E+00
    0.16114E+07        -0.59892E+08         0.00000E+00
    0.00000E+00         0.00000E+00        -0.57124E+08
 
   -0.55121E+08         0.16179E+07         0.00000E+00
    0.16179E+07        -0.59876E+08         0.00000E+00
    0.00000E+00         0.00000E+00        -0.57490E+08
 
   -0.55892E+08         0.15982E+07         0.00000E+00
    0.15982E+07        -0.59845E+08         0.00000E+00
    0.00000E+00         0.00000E+00        -0.57833E+08
 
   -0.56615E+08         0.15501E+07         0.00000E+00
    0.15501E+07        -0.59792E+08         0.00000E+00
    0.00000E+00         0.00000E+00        -0.58142E+08
 
   -0.57281E+08         0.14678E+07         0.00000E+00
    0.14678E+07        -0.59717E+08         0.00000E+00
    0.00000E+00         0.00000E+00        -0.58410E+08
 
   -0.57874E+08         0.13440E+07         0.00000E+00
    0.13440E+07        -0.59620E+08         0.00000E+00
    0.00000E+00         0.00000E+00        -0.58627E+08
 
   -0.58371E+08         0.11711E+07         0.00000E+00
    0.11711E+07        -0.59507E+08         0.00000E+00
    0.00000E+00         0.00000E+00        -0.58784E+08
 
   -0.58742E+08         0.94441E+06         0.00000E+00
    0.94441E+06        -0.59391E+08         0.00000E+00
    0.00000E+00         0.00000E+00        -0.58868E+08
 
   -0.48092E+08         0.25212E+06         0.00000E+00
    0.25212E+06        -0.59997E+08         0.00000E+00
    0.00000E+00         0.00000E+00        -0.54914E+08
 
   -0.48843E+08         0.67467E+06         0.00000E+00
    0.67467E+06        -0.59991E+08         0.00000E+00
    0.00000E+00         0.00000E+00        -0.55051E+08
 
   -0.49706E+08         0.99448E+06         0.00000E+00
    0.99448E+06        -0.59991E+08         0.00000E+00
    0.00000E+00         0.00000E+00        -0.55299E+08
 
   -0.50629E+08         0.12247E+07         0.00000E+00
    0.12247E+07        -0.60005E+08         0.00000E+00
    0.00000E+00         0.00000E+00        -0.55627E+08
 
   -0.51571E+08         0.13827E+07         0.00000E+00
    0.13827E+07        -0.60036E+08         0.00000E+00
    0.00000E+00         0.00000E+00        -0.56007E+08
 
   -0.52505E+08         0.14866E+07         0.00000E+00
    0.14866E+07        -0.60082E+08         0.00000E+00
    0.00000E+00         0.00000E+00        -0.56417E+08
 
   -0.53412E+08         0.15525E+07         0.00000E+00
    0.15525E+07        -0.60136E+08         0.00000E+00
    0.00000E+00         0.00000E+00        -0.56837E+08
 
   -0.54284E+08         0.15928E+07         0.00000E+00
    0.15928E+07        -0.60190E+08         0.00000E+00
    0.00000E+00         0.00000E+00        -0.57253E+08
 
   -0.55118E+08         0.16141E+07         0.00000E+00
    0.16141E+07        -0.60231E+08         0.00000E+00
    0.00000E+00         0.00000E+00        -0.57652E+08
 
   -0.55912E+08         0.16174E+07         0.00000E+00
    0.16174E+07        -0.60250E+08         0.00000E+00
    0.00000E+00         0.00000E+00        -0.58024E+08
 
   -0.56664E+08         0.15980E+07         0.00000E+00
    0.15980E+07        -0.60236E+08         0.00000E+00
    0.00000E+00         0.00000E+00        -0.58361E+08
 
   -0.57368E+08         0.15463E+07         0.00000E+00
    0.15463E+07        -0.60187E+08         0.00000E+00
    0.00000E+00         0.00000E+00        -0.58653E+08
 
   -0.58010E+08         0.14498E+07         0.00000E+00
    0.14498E+07        -0.60100E+08         0.00000E+00
    0.00000E+00         0.00000E+00        -0.58891E+08
 
   -0.58566E+08         0.12949E+07         0.00000E+00
    0.12949E+07        -0.59982E+08         0.00000E+00
    0.00000E+00         0.00000E+00        -0.59063E+08
 
   -0.59000E+08         0.10705E+07         0.00000E+00
    0.10705E+07        -0.59846E+08         0.00000E+00
    0.00000E+00         0.00000E+00        -0.59156E+08
 
   -0.47614E+08         0.25453E+06         0.00000E+00
    0.25453E+06        -0.60000E+08         0.00000E+00
    0.00000E+00         0.00000E+00        -0.54833E+08
 
   -0.48479E+08         0.67002E+06         0.00000E+00
    0.67002E+06        -0.60008E+08         0.00000E+00
    0.00000E+00         0.00000E+00        -0.54987E+08
 
   -0.49443E+08         0.97129E+06         0.00000E+00
    0.97129E+06        -0.60038E+08         0.00000E+00
    0.00000E+00         0.00000E+00        -0.55264E+08
 
   -0.50449E+08         0.11777E+07         0.00000E+00
    0.11777E+07        -0.60096E+08         0.00000E+00
    0.00000E+00         0.00000E+00        -0.55627E+08
 
   -0.51452E+08         0.13129E+07         0.00000E+00
    0.13129E+07        -0.60185E+08         0.00000E+00
    0.00000E+00         0.00000E+00        -0.56045E+08
 
   -0.52427E+08         0.14004E+07         0.00000E+00
    0.14004E+07        -0.60298E+08         0.00000E+00
    0.00000E+00         0.00000E+00        -0.56493E+08
 
   -0.53360E+08         0.14606E+07         0.00000E+00
    0.14606E+07        -0.60425E+08         0.00000E+00
    0.00000E+00         0.00000E+00        -0.56950E+08
 
   -0.54247E+08         0.15081E+07         0.00000E+00
    0.15081E+07        -0.60552E+08         0.00000E+00
    0.00000E+00         0.00000E+00        -0.57400E+08
 
   -0.55092E+08         0.15503E+07         0.00000E+00
    0.15503E+07        -0.60662E+08         0.00000E+00
    0.00000E+00         0.00000E+00        -0.57831E+08
 
   -0.55900E+08         0.15869E+07         0.00000E+00
    0.15869E+07        -0.60740E+08         0.00000E+00
    0.00000E+00         0.00000E+00        -0.58232E+08
 
   -0.56676E+08         0.16100E+07         0.00000E+00
    0.16100E+07        -0.60774E+08         0.00000E+00
    0.00000E+00         0.00000E+00        -0.58595E+08
 
   -0.57417E+08         0.16054E+07         0.00000E+00
    0.16054E+07        -0.60753E+08         0.00000E+00
    0.00000E+00         0.00000E+00        -0.58911E+08
 
   -0.58114E+08         0.15542E+07         0.00000E+00
    0.15542E+07        -0.60677E+08         0.00000E+00
    0.00000E+00         0.00000E+00        -0.59168E+08
 
   -0.58741E+08         0.14352E+07         0.00000E+00
    0.14352E+07        -0.60549E+08         0.00000E+00
    0.00000E+00         0.00000E+00        -0.59356E+08
 
   -0.59259E+08         0.12287E+07         0.00000E+00
    0.12287E+07        -0.60384E+08         0.00000E+00
    0.00000E+00         0.00000E+00        -0.59458E+08
 
   -0.47143E+08         0.24953E+06         0.00000E+00
    0.24953E+06        -0.60003E+08         0.00000E+00
    0.00000E+00         0.00000E+00        -0.54773E+08
 
   -0.48138E+08         0.64127E+06         0.00000E+00
    0.64127E+06        -0.60029E+08         0.00000E+00
    0.00000E+00         0.00000E+00        -0.54945E+08
 
   -0.49211E+08         0.90672E+06         0.00000E+00
    0.90672E+06        -0.60095E+08         0.00000E+00
    0.00000E+00         0.00000E+00        -0.55251E+08
 
   -0.50300E+08         0.10736E+07         0.00000E+00
    0.10736E+07        -0.60208E+08         0.00000E+00
    0.00000E+00         0.00000E+00        -0.55650E+08
 
   -0.51359E+08         0.11733E+07         0.00000E+00
    0.11733E+07        -0.60366E+08         0.00000E+00
    0.00000E+00         0.00000E+00        -0.56106E+08
 
   -0.52364E+08         0.12364E+07         0.00000E+00
    0.12364E+07        -0.60560E+08         0.00000E+00
    0.00000E+00         0.00000E+00        -0.56591E+08
 
   -0.53307E+08         0.12879E+07         0.00000E+00
    0.12879E+07        -0.60773E+08         0.00000E+00
    0.00000E+00         0.00000E+00        -0.57082E+08
 
   -0.54193E+08         0.13452E+07         0.00000E+00
    0.13452E+07        -0.60986E+08         0.00000E+00
    0.00000E+00         0.00000E+00        -0.57563E+08
 
   -0.55033E+08         0.14159E+07         0.00000E+00
    0.14159E+07        -0.61176E+08         0.00000E+00
    0.00000E+00         0.00000E+00        -0.58022E+08
 
   -0.55842E+08         0.14982E+07         0.00000E+00
    0.14982E+07        -0.61324E+08         0.00000E+00
    0.00000E+00         0.00000E+00        -0.58449E+08
 
   -0.56633E+08         0.15806E+07         0.00000E+00
    0.15806E+07        -0.61411E+08         0.00000E+00
    0.00000E+00         0.00000E+00        -0.58835E+08
 
   -0.57409E+08         0.16432E+07         0.00000E+00
    0.16432E+07        -0.61424E+08         0.00000E+00
    0.00000E+00         0.00000E+00        -0.59171E+08
 
   -0.58164E+08         0.16596E+07         0.00000E+00
    0.16596E+07        -0.61358E+08         0.00000E+00
    0.00000E+00         0.00000E+00        -0.59447E+08
 
   -0.58876E+08         0.15995E+07         0.00000E+00
    0.15995E+07        -0.61214E+08         0.00000E+00
    0.00000E+00         0.00000E+00        -0.59649E+08
 
   -0.59504E+08         0.14321E+07         0.00000E+00
    0.14321E+07        -0.61009E+08         0.00000E+00
    0.00000E+00         0.00000E+00        -0.59760E+08
 
   -0.46697E+08         0.23546E+06         0.00000E+00
    0.23546E+06        -0.60008E+08         0.00000E+00
    0.00000E+00         0.00000E+00        -0.54742E+08
 
   -0.47838E+08         0.58299E+06         0.00000E+00
    0.58299E+06        -0.60056E+08         0.00000E+00
    0.00000E+00         0.00000E+00        -0.54932E+08
 
   -0.49028E+08         0.79189E+06         0.00000E+00
    0.79189E+06        -0.60165E+08         0.00000E+00
    0.00000E+00         0.00000E+00        -0.55267E+08
 
   -0.50198E+08         0.90070E+06         0.00000E+00
    0.90070E+06        -0.60343E+08         0.00000E+00
    0.00000E+00         0.00000E+00        -0.55701E+08
 
   -0.51302E+08         0.95090E+06         0.00000E+00
    0.95090E+06        -0.60584E+08         0.00000E+00
    0.00000E+00         0.00000E+00        -0.56192E+08
 
   -0.52321E+08         0.98085E+06         0.00000E+00
    0.98085E+06        -0.60872E+08         0.00000E+00
    0.00000E+00         0.00000E+00        -0.56709E+08
 
   -0.53254E+08         0.10211E+07         0.00000E+00
    0.10211E+07        -0.61185E+08         0.00000E+00
    0.00000E+00         0.00000E+00        -0.57229E+08
 
   -0.54117E+08         0.10916E+07         0.00000E+00
    0.10916E+07        -0.61497E+08         0.00000E+00
    0.00000E+00         0.00000E+00        -0.57735E+08
 
   -0.54931E+08         0.12002E+07         0.00000E+00
    0.12002E+07        -0.61779E+08         0.00000E+00
    0.00000E+00         0.00000E+00        -0.58216E+08
 
   -0.55723E+08         0.13430E+07         0.00000E+00
    0.13430E+07        -0.62005E+08         0.00000E+00
    0.00000E+00         0.00000E+00        -0.58662E+08
 
   -0.56514E+08         0.15043E+07         0.00000E+00
    0.15043E+07        -0.62152E+08         0.00000E+00
    0.00000E+00         0.00000E+00        -0.59065E+08
 
   -0.57319E+08         0.16579E+07         0.00000E+00
    0.16579E+07        -0.62201E+08         0.00000E+00
    0.00000E+00         0.00000E+00        -0.59418E+08
 
   -0.58136E+08         0.17690E+07         0.00000E+00
    0.17690E+07        -0.62144E+08         0.00000E+00
    0.00000E+00         0.00000E+00        -0.59709E+08
 
   -0.58947E+08         0.17965E+07         0.00000E+00
    0.17965E+07        -0.61979E+08         0.00000E+00
    0.00000E+00         0.00000E+00        -0.59923E+08
 
   -0.59710E+08         0.16962E+07         0.00000E+00
    0.16962E+07        -0.61720E+08         0.00000E+00
    0.00000E+00         0.00000E+00        -0.60041E+08
 
   -0.46296E+08         0.21006E+06         0.00000E+00
    0.21006E+06        -0.60014E+08         0.00000E+00
    0.00000E+00         0.00000E+00        -0.54745E+08
 
   -0.47602E+08         0.48854E+06         0.00000E+00
    0.48854E+06        -0.60088E+08         0.00000E+00
    0.00000E+00         0.00000E+00        -0.54953E+08
 
   -0.48915E+08         0.61665E+06         0.00000E+00
    0.61665E+06        -0.60251E+08         0.00000E+00
    0.00000E+00         0.00000E+00        -0.55316E+08
 
   -0.50160E+08         0.64640E+06         0.00000E+00
    0.64640E+06        -0.60506E+08         0.00000E+00
    0.00000E+00         0.00000E+00        -0.55781E+08
 
   -0.51294E+08         0.63144E+06         0.00000E+00
    0.63144E+06        -0.60843E+08         0.00000E+00
    0.00000E+00         0.00000E+00        -0.56301E+08
 
   -0.52303E+08         0.61973E+06         0.00000E+00
    0.61973E+06        -0.61240E+08         0.00000E+00
    0.00000E+00         0.00000E+00        -0.56843E+08
 
   -0.53200E+08         0.64733E+06         0.00000E+00
    0.64733E+06        -0.61666E+08         0.00000E+00
    0.00000E+00         0.00000E+00        -0.57383E+08
 
   -0.54011E+08         0.73618E+06         0.00000E+00
    0.73618E+06        -0.62087E+08         0.00000E+00
    0.00000E+00         0.00000E+00        -0.57905E+08
 
   -0.54772E+08         0.89391E+06         0.00000E+00
    0.89391E+06        -0.62469E+08         0.00000E+00
    0.00000E+00         0.00000E+00        -0.58397E+08
 
   -0.55523E+08         0.11141E+07         0.00000E+00
    0.11141E+07        -0.62781E+08         0.00000E+00
    0.00000E+00         0.00000E+00        -0.58853E+08
 
   -0.56298E+08         0.13767E+07         0.00000E+00
    0.13767E+07        -0.62992E+08         0.00000E+00
    0.00000E+00         0.00000E+00        -0.59266E+08
 
   -0.57120E+08         0.16489E+07         0.00000E+00
    0.16489E+07        -0.63080E+08         0.00000E+00
    0.00000E+00         0.00000E+00        -0.59627E+08
 
   -0.57998E+08         0.18864E+07         0.00000E+00
    0.18864E+07        -0.63030E+08         0.00000E+00
    0.00000E+00         0.00000E+00        -0.59927E+08
 
   -0.58920E+08         0.20362E+07         0.00000E+00
    0.20362E+07        -0.62836E+08         0.00000E+00
    0.00000E+00         0.00000E+00        -0.60149E+08
 
   -0.59848E+08         0.20388E+07         0.00000E+00
    0.20388E+07        -0.62509E+08         0.00000E+00
    0.00000E+00         0.00000E+00        -0.60272E+08
 
   -0.45968E+08         0.16968E+06         0.00000E+00
    0.16968E+06        -0.60023E+08         0.00000E+00
    0.00000E+00         0.00000E+00        -0.54788E+08
 
   -0.47457E+08         0.35008E+06         0.00000E+00
    0.35008E+06        -0.60131E+08         0.00000E+00
    0.00000E+00         0.00000E+00        -0.55012E+08
 
   -0.48897E+08         0.37022E+06         0.00000E+00
    0.37022E+06        -0.60355E+08         0.00000E+00
    0.00000E+00         0.00000E+00        -0.55399E+08
 
   -0.50207E+08         0.29666E+06         0.00000E+00
    0.29666E+06        -0.60701E+08         0.00000E+00
    0.00000E+00         0.00000E+00        -0.55887E+08
 
   -0.51346E+08         0.20055E+06         0.00000E+00
    0.20055E+06        -0.61149E+08         0.00000E+00
    0.00000E+00         0.00000E+00        -0.56427E+08
 
   -0.52314E+08         0.14039E+06         0.00000E+00
    0.14039E+06        -0.61667E+08         0.00000E+00
    0.00000E+00         0.00000E+00        -0.56982E+08
 
   -0.53140E+08         0.15634E+06         0.00000E+00
    0.15634E+06        -0.62214E+08         0.00000E+00
    0.00000E+00         0.00000E+00        -0.57529E+08
 
   -0.53865E+08         0.27098E+06         0.00000E+00
    0.27098E+06        -0.62752E+08         0.00000E+00
    0.00000E+00         0.00000E+00        -0.58052E+08
 
   -0.54542E+08         0.49074E+06         0.00000E+00
    0.49074E+06        -0.63240E+08         0.00000E+00
    0.00000E+00         0.00000E+00        -0.58542E+08
 
   -0.55223E+08         0.80676E+06         0.00000E+00
    0.80676E+06        -0.63640E+08         0.00000E+00
    0.00000E+00         0.00000E+00        -0.58994E+08
 
   -0.55956E+08         0.11950E+07         0.00000E+00
    0.11950E+07        -0.63919E+08         0.00000E+00
    0.00000E+00         0.00000E+00        -0.59404E+08
 
   -0.56780E+08         0.16161E+07         0.00000E+00
    0.16161E+07        -0.64046E+08         0.00000E+00
    0.00000E+00         0.00000E+00        -0.59765E+08
 
   -0.57715E+08         0.20163E+07         0.00000E+00
    0.20163E+07        -0.64000E+08         0.00000E+00
    0.00000E+00         0.00000E+00        -0.60065E+08
 
   -0.58758E+08         0.23292E+07         0.00000E+00
    0.23292E+07        -0.63770E+08         0.00000E+00
    0.00000E+00         0.00000E+00        -0.60289E+08
 
   -0.59876E+08         0.24789E+07         0.00000E+00
    0.24789E+07        -0.63360E+08         0.00000E+00
    0.00000E+00         0.00000E+00        -0.60414E+08
 
   -0.45746E+08         0.10709E+06         0.00000E+00
    0.10709E+06        -0.60039E+08         0.00000E+00
    0.00000E+00         0.00000E+00        -0.54869E+08
 
   -0.47432E+08         0.16282E+06         0.00000E+00
    0.16282E+06        -0.60180E+08         0.00000E+00
    0.00000E+00         0.00000E+00        -0.55106E+08
 
   -0.49003E+08         0.39302E+05         0.00000E+00
    0.39302E+05        -0.60478E+08         0.00000E+00
    0.00000E+00         0.00000E+00        -0.55509E+08
 
   -0.50357E+08        -0.16490E+06         0.00000E+00
   -0.16490E+06        -0.60932E+08         0.00000E+00
    0.00000E+00         0.00000E+00        -0.56010E+08
 
   -0.51467E+08        -0.35522E+06         0.00000E+00
   -0.35522E+06        -0.61506E+08         0.00000E+00
    0.00000E+00         0.00000E+00        -0.56554E+08
 
   -0.52355E+08        -0.46621E+06         0.00000E+00
   -0.46621E+06        -0.62154E+08         0.00000E+00
    0.00000E+00         0.00000E+00        -0.57105E+08
 
   -0.53069E+08        -0.45678E+06         0.00000E+00
   -0.45678E+06        -0.62827E+08         0.00000E+00
    0.00000E+00         0.00000E+00        -0.57640E+08
 
   -0.53670E+08        -0.30617E+06         0.00000E+00
   -0.30617E+06        -0.63480E+08         0.00000E+00
    0.00000E+00         0.00000E+00        -0.58145E+08
 
   -0.54225E+08        -0.10298E+05         0.00000E+00
   -0.10298E+05        -0.64071E+08         0.00000E+00
    0.00000E+00         0.00000E+00        -0.58615E+08
 
   -0.54800E+08         0.42006E+06         0.00000E+00
    0.42006E+06        -0.64558E+08         0.00000E+00
    0.00000E+00         0.00000E+00        -0.59047E+08
 
   -0.55462E+08         0.95848E+06         0.00000E+00
    0.95848E+06        -0.64903E+08         0.00000E+00
    0.00000E+00         0.00000E+00        -0.59438E+08
 
   -0.56265E+08         0.15605E+07         0.00000E+00
    0.15605E+07        -0.65069E+08         0.00000E+00
    0.00000E+00         0.00000E+00        -0.59784E+08
 
   -0.57245E+08         0.21629E+07         0.00000E+00
    0.21629E+07        -0.65025E+08         0.00000E+00
    0.00000E+00         0.00000E+00        -0.60074E+08
 
   -0.58413E+08         0.26856E+07         0.00000E+00
    0.26856E+07        -0.64751E+08         0.00000E+00
    0.00000E+00         0.00000E+00        -0.60292E+08
 
   -0.59745E+08         0.30354E+07         0.00000E+00
    0.30354E+07        -0.64245E+08         0.00000E+00
    0.00000E+00         0.00000E+00        -0.60414E+08
 
   -0.45664E+08         0.25486E+05         0.00000E+00
    0.25486E+05        -0.60046E+08         0.00000E+00
    0.00000E+00         0.00000E+00        -0.54983E+08
 
   -0.47567E+08        -0.84421E+05         0.00000E+00
   -0.84421E+05        -0.60226E+08         0.00000E+00
    0.00000E+00         0.00000E+00        -0.55223E+08
 
   -0.49269E+08        -0.39970E+06         0.00000E+00
   -0.39970E+06        -0.60627E+08         0.00000E+00
    0.00000E+00         0.00000E+00        -0.55631E+08
 
   -0.50628E+08        -0.75540E+06         0.00000E+00
   -0.75540E+06        -0.61209E+08         0.00000E+00
    0.00000E+00         0.00000E+00        -0.56126E+08
 
   -0.51661E+08        -0.10452E+07         0.00000E+00
   -0.10452E+07        -0.61919E+08         0.00000E+00
    0.00000E+00         0.00000E+00        -0.56653E+08
 
   -0.52420E+08        -0.12017E+07         0.00000E+00
   -0.12017E+07        -0.62698E+08         0.00000E+00
    0.00000E+00         0.00000E+00        -0.57176E+08
 
   -0.52977E+08        -0.11876E+07         0.00000E+00
   -0.11876E+07        -0.63490E+08         0.00000E+00
    0.00000E+00         0.00000E+00        -0.57675E+08
 
   -0.53411E+08        -0.98758E+06         0.00000E+00
   -0.98758E+06        -0.64246E+08         0.00000E+00
    0.00000E+00         0.00000E+00        -0.58139E+08
 
   -0.53804E+08        -0.60164E+06         0.00000E+00
   -0.60164E+06        -0.64925E+08         0.00000E+00
    0.00000E+00         0.00000E+00        -0.58565E+08
 
   -0.54236E+08        -0.41230E+05         0.00000E+00
   -0.41230E+05        -0.65488E+08         0.00000E+00
    0.00000E+00         0.00000E+00        -0.58955E+08
 
   -0.54789E+08         0.66864E+06         0.00000E+00
    0.66864E+06        -0.65894E+08         0.00000E+00
    0.00000E+00         0.00000E+00        -0.59309E+08
 
   -0.55539E+08         0.14827E+07         0.00000E+00
    0.14827E+07        -0.66097E+08         0.00000E+00
    0.00000E+00         0.00000E+00        -0.59624E+08
 
   -0.56544E+08         0.23292E+07         0.00000E+00
    0.23292E+07        -0.66055E+08         0.00000E+00
    0.00000E+00         0.00000E+00        -0.59891E+08
 
   -0.57832E+08         0.31131E+07         0.00000E+00
    0.31131E+07        -0.65735E+08         0.00000E+00
    0.00000E+00         0.00000E+00        -0.60094E+08
 
   -0.59394E+08         0.37240E+07         0.00000E+00
    0.37240E+07        -0.65124E+08         0.00000E+00
    0.00000E+00         0.00000E+00        -0.60208E+08
 
   -0.45766E+08        -0.52407E+05         0.00000E+00
   -0.52407E+05        -0.60027E+08         0.00000E+00
    0.00000E+00         0.00000E+00        -0.55108E+08
 
   -0.47927E+08        -0.43612E+06         0.00000E+00
   -0.43612E+06        -0.60300E+08         0.00000E+00
    0.00000E+00         0.00000E+00        -0.55337E+08
 
   -0.49717E+08        -0.96964E+06         0.00000E+00
   -0.96964E+06        -0.60821E+08         0.00000E+00
    0.00000E+00         0.00000E+00        -0.55728E+08
 
   -0.51026E+08        -0.14863E+07         0.00000E+00
   -0.14863E+07        -0.61543E+08         0.00000E+00
    0.00000E+00         0.00000E+00        -0.56190E+08
 
   -0.51921E+08        -0.18698E+07         0.00000E+00
   -0.18698E+07        -0.62389E+08         0.00000E+00
    0.00000E+00         0.00000E+00        -0.56670E+08
 
   -0.52495E+08        -0.20557E+07         0.00000E+00
   -0.20557E+07        -0.63286E+08         0.00000E+00
    0.00000E+00         0.00000E+00        -0.57136E+08
 
   -0.52848E+08        -0.20174E+07         0.00000E+00
   -0.20174E+07        -0.64173E+08         0.00000E+00
    0.00000E+00         0.00000E+00        -0.57569E+08
 
   -0.53075E+08        -0.17508E+07         0.00000E+00
   -0.17508E+07        -0.65003E+08         0.00000E+00
    0.00000E+00         0.00000E+00        -0.57965E+08
 
   -0.53269E+08        -0.12627E+07         0.00000E+00
   -0.12627E+07        -0.65740E+08         0.00000E+00
    0.00000E+00         0.00000E+00        -0.58322E+08
 
   -0.53517E+08        -0.56363E+06         0.00000E+00
   -0.56363E+06        -0.66354E+08         0.00000E+00
    0.00000E+00         0.00000E+00        -0.58645E+08
 
   -0.53915E+08         0.32930E+06         0.00000E+00
    0.32930E+06        -0.66808E+08         0.00000E+00
    0.00000E+00         0.00000E+00        -0.58939E+08
 
   -0.54566E+08         0.13795E+07         0.00000E+00
    0.13795E+07        -0.67049E+08         0.00000E+00
    0.00000E+00         0.00000E+00        -0.59204E+08
 
   -0.55563E+08         0.25127E+07         0.00000E+00
    0.25127E+07        -0.67016E+08         0.00000E+00
    0.00000E+00         0.00000E+00        -0.59434E+08
 
   -0.56957E+08         0.36133E+07         0.00000E+00
    0.36133E+07        -0.66656E+08         0.00000E+00
    0.00000E+00         0.00000E+00        -0.59612E+08
 
   -0.58748E+08         0.45526E+07         0.00000E+00
    0.45526E+07        -0.65941E+08         0.00000E+00
    0.00000E+00         0.00000E+00        -0.59713E+08
 
   -0.46127E+08        -0.18160E+06         0.00000E+00
   -0.18160E+06        -0.60107E+08         0.00000E+00
    0.00000E+00         0.00000E+00        -0.55175E+08
 
   -0.48559E+08        -0.88798E+06         0.00000E+00
   -0.88798E+06        -0.60431E+08         0.00000E+00
    0.00000E+00         0.00000E+00        -0.55389E+08
 
   -0.50366E+08        -0.16773E+07         0.00000E+00
   -0.16773E+07        -0.61075E+08         0.00000E+00
    0.00000E+00         0.00000E+00        -0.55731E+08
 
   -0.51547E+08        -0.23577E+07         0.00000E+00
   -0.23577E+07        -0.61935E+08         0.00000E+00
    0.00000E+00         0.00000E+00        -0.56124E+08
 
   -0.52229E+08        -0.28146E+07         0.00000E+00
   -0.28146E+07        -0.62902E+08         0.00000E+00
    0.00000E+00         0.00000E+00        -0.56521E+08
 
   -0.52556E+08        -0.30002E+07         0.00000E+00
   -0.30002E+07        -0.63887E+08         0.00000E+00
    0.00000E+00         0.00000E+00        -0.56894E+08
 
   -0.52659E+08        -0.29087E+07         0.00000E+00
   -0.29087E+07        -0.64825E+08         0.00000E+00
    0.00000E+00         0.00000E+00        -0.57231E+08
 
   -0.52646E+08        -0.25541E+07         0.00000E+00
   -0.25541E+07        -0.65677E+08         0.00000E+00
    0.00000E+00         0.00000E+00        -0.57528E+08
 
   -0.52612E+08        -0.19538E+07         0.00000E+00
   -0.19538E+07        -0.66421E+08         0.00000E+00
    0.00000E+00         0.00000E+00        -0.57789E+08
 
   -0.52641E+08        -0.11191E+07         0.00000E+00
   -0.11191E+07        -0.67041E+08         0.00000E+00
    0.00000E+00         0.00000E+00        -0.58020E+08
 
   -0.52833E+08        -0.51010E+05         0.00000E+00
   -0.51010E+05        -0.67516E+08         0.00000E+00
    0.00000E+00         0.00000E+00        -0.58229E+08
 
   -0.53321E+08         0.12405E+07         0.00000E+00
    0.12405E+07        -0.67795E+08         0.00000E+00
    0.00000E+00         0.00000E+00        -0.58423E+08
 
   -0.54253E+08         0.26939E+07         0.00000E+00
    0.26939E+07        -0.67796E+08         0.00000E+00
    0.00000E+00         0.00000E+00        -0.58599E+08
 
   -0.55726E+08         0.41734E+07         0.00000E+00
    0.41734E+07        -0.67431E+08         0.00000E+00
    0.00000E+00         0.00000E+00        -0.58743E+08
 
   -0.57727E+08         0.55109E+07         0.00000E+00
    0.55109E+07        -0.66638E+08         0.00000E+00
    0.00000E+00         0.00000E+00        -0.58827E+08
 
   -0.46828E+08        -0.39590E+06         0.00000E+00
   -0.39590E+06        -0.60134E+08         0.00000E+00
    0.00000E+00         0.00000E+00        -0.55102E+08
 
   -0.49510E+08        -0.14566E+07         0.00000E+00
   -0.14566E+07        -0.60586E+08         0.00000E+00
    0.00000E+00         0.00000E+00        -0.55267E+08
 
   -0.51228E+08        -0.25287E+07         0.00000E+00
   -0.25287E+07        -0.61375E+08         0.00000E+00
    0.00000E+00         0.00000E+00        -0.55521E+08
 
   -0.52169E+08        -0.33564E+07         0.00000E+00
   -0.33564E+07        -0.62367E+08         0.00000E+00
    0.00000E+00         0.00000E+00        -0.55802E+08
 
   -0.52548E+08        -0.38460E+07         0.00000E+00
   -0.38460E+07        -0.63421E+08         0.00000E+00
    0.00000E+00         0.00000E+00        -0.56075E+08
 
   -0.52566E+08        -0.39855E+07         0.00000E+00
   -0.39855E+07        -0.64439E+08         0.00000E+00
    0.00000E+00         0.00000E+00        -0.56319E+08
 
   -0.52381E+08        -0.38023E+07         0.00000E+00
   -0.38023E+07        -0.65362E+08         0.00000E+00
    0.00000E+00         0.00000E+00        -0.56528E+08
 
   -0.52107E+08        -0.33339E+07         0.00000E+00
   -0.33339E+07        -0.66165E+08         0.00000E+00
    0.00000E+00         0.00000E+00        -0.56700E+08
 
   -0.51832E+08        -0.26124E+07         0.00000E+00
   -0.26124E+07        -0.66841E+08         0.00000E+00
    0.00000E+00         0.00000E+00        -0.56840E+08
 
   -0.51626E+08        -0.16541E+07         0.00000E+00
   -0.16541E+07        -0.67395E+08         0.00000E+00
    0.00000E+00         0.00000E+00        -0.56956E+08
 
   -0.51566E+08        -0.44724E+06         0.00000E+00
   -0.44724E+06        -0.67833E+08         0.00000E+00
    0.00000E+00         0.00000E+00        -0.57058E+08
 
   -0.51803E+08         0.10506E+07         0.00000E+00
    0.10506E+07        -0.68133E+08         0.00000E+00
    0.00000E+00         0.00000E+00        -0.57158E+08
 
   -0.52578E+08         0.28278E+07         0.00000E+00
    0.28278E+07        -0.68198E+08         0.00000E+00
    0.00000E+00         0.00000E+00        -0.57261E+08
 
   -0.54082E+08         0.47192E+07         0.00000E+00
    0.47192E+07        -0.67907E+08         0.00000E+00
    0.00000E+00         0.00000E+00        -0.57361E+08
 
   -0.56238E+08         0.65203E+07         0.00000E+00
    0.65203E+07        -0.67237E+08         0.00000E+00
    0.00000E+00         0.00000E+00        -0.57427E+08
 
   -0.47996E+08        -0.67595E+06         0.00000E+00
   -0.67595E+06        -0.60185E+08         0.00000E+00
    0.00000E+00         0.00000E+00        -0.54706E+08
 
   -0.50804E+08        -0.21918E+07         0.00000E+00
   -0.21918E+07        -0.60757E+08         0.00000E+00
    0.00000E+00         0.00000E+00        -0.54791E+08
 
   -0.52287E+08        -0.35285E+07         0.00000E+00
   -0.35285E+07        -0.61700E+08         0.00000E+00
    0.00000E+00         0.00000E+00        -0.54914E+08
 
   -0.52844E+08        -0.44483E+07         0.00000E+00
   -0.44483E+07        -0.62792E+08         0.00000E+00
    0.00000E+00         0.00000E+00        -0.55040E+08
 
   -0.52822E+08        -0.49026E+07         0.00000E+00
   -0.49026E+07        -0.63868E+08         0.00000E+00
    0.00000E+00         0.00000E+00        -0.55150E+08
 
   -0.52477E+08        -0.49356E+07         0.00000E+00
   -0.49356E+07        -0.64834E+08         0.00000E+00
    0.00000E+00         0.00000E+00        -0.55234E+08
 
   -0.51980E+08        -0.46169E+07         0.00000E+00
   -0.46169E+07        -0.65651E+08         0.00000E+00
    0.00000E+00         0.00000E+00        -0.55289E+08
 
   -0.51441E+08        -0.40099E+07         0.00000E+00
   -0.40099E+07        -0.66317E+08         0.00000E+00
    0.00000E+00         0.00000E+00        -0.55317E+08
 
   -0.50930E+08        -0.31591E+07         0.00000E+00
   -0.31591E+07        -0.66843E+08         0.00000E+00
    0.00000E+00         0.00000E+00        -0.55321E+08
 
   -0.50495E+08        -0.20858E+07         0.00000E+00
   -0.20858E+07        -0.67247E+08         0.00000E+00
    0.00000E+00         0.00000E+00        -0.55308E+08
 
   -0.50171E+08        -0.78418E+06         0.00000E+00
   -0.78418E+06        -0.67550E+08         0.00000E+00
    0.00000E+00         0.00000E+00        -0.55289E+08
 
   -0.50063E+08         0.82866E+06         0.00000E+00
    0.82866E+06        -0.67766E+08         0.00000E+00
    0.00000E+00         0.00000E+00        -0.55275E+08
 
   -0.50505E+08         0.28463E+07         0.00000E+00
    0.28463E+07        -0.67900E+08         0.00000E+00
    0.00000E+00         0.00000E+00        -0.55314E+08
 
   -0.51966E+08         0.51122E+07         0.00000E+00
    0.51122E+07        -0.67823E+08         0.00000E+00
    0.00000E+00         0.00000E+00        -0.55492E+08
 
   -0.54462E+08         0.72335E+07         0.00000E+00
    0.72335E+07        -0.67399E+08         0.00000E+00
    0.00000E+00         0.00000E+00        -0.55767E+08
 
   -0.49765E+08        -0.10482E+07         0.00000E+00
   -0.10482E+07        -0.60252E+08         0.00000E+00
    0.00000E+00         0.00000E+00        -0.53729E+08
 
   -0.52463E+08        -0.30883E+07         0.00000E+00
   -0.30883E+07        -0.60951E+08         0.00000E+00
    0.00000E+00         0.00000E+00        -0.53702E+08
 
   -0.53480E+08        -0.46450E+07         0.00000E+00
   -0.46450E+07        -0.62009E+08         0.00000E+00
    0.00000E+00         0.00000E+00        -0.53652E+08
 
   -0.53491E+08        -0.55600E+07         0.00000E+00
   -0.55600E+07        -0.63121E+08         0.00000E+00
    0.00000E+00         0.00000E+00        -0.53586E+08
 
   -0.52978E+08        -0.58866E+07         0.00000E+00
   -0.58866E+07        -0.64108E+08         0.00000E+00
    0.00000E+00         0.00000E+00        -0.53506E+08
 
   -0.52236E+08        -0.57457E+07         0.00000E+00
   -0.57457E+07        -0.64902E+08         0.00000E+00
    0.00000E+00         0.00000E+00        -0.53411E+08
 
   -0.51428E+08        -0.52535E+07         0.00000E+00
   -0.52535E+07        -0.65501E+08         0.00000E+00
    0.00000E+00         0.00000E+00        -0.53302E+08
 
   -0.50638E+08        -0.44945E+07         0.00000E+00
   -0.44945E+07        -0.65932E+08         0.00000E+00
    0.00000E+00         0.00000E+00        -0.53178E+08
 
   -0.49909E+08        -0.35174E+07         0.00000E+00
   -0.35174E+07        -0.66231E+08         0.00000E+00
    0.00000E+00         0.00000E+00        -0.53045E+08
 
   -0.49260E+08        -0.23380E+07         0.00000E+00
   -0.23380E+07        -0.66427E+08         0.00000E+00
    0.00000E+00         0.00000E+00        -0.52906E+08
 
   -0.48702E+08        -0.94487E+06         0.00000E+00
   -0.94487E+06        -0.66534E+08         0.00000E+00
    0.00000E+00         0.00000E+00        -0.52769E+08
 
   -0.48148E+08         0.72900E+06         0.00000E+00
    0.72900E+06        -0.66571E+08         0.00000E+00
    0.00000E+00         0.00000E+00        -0.52660E+08
 
   -0.48222E+08         0.28360E+07         0.00000E+00
    0.28360E+07        -0.66510E+08         0.00000E+00
    0.00000E+00         0.00000E+00        -0.52922E+08
 
   -0.49666E+08         0.52507E+07         0.00000E+00
    0.52507E+07        -0.66491E+08         0.00000E+00
    0.00000E+00         0.00000E+00        -0.53544E+08
 
   -0.52480E+08         0.76424E+07         0.00000E+00
    0.76424E+07        -0.66293E+08         0.00000E+00
    0.00000E+00         0.00000E+00        -0.54053E+08
 
   -0.52282E+08        -0.15293E+07         0.00000E+00
   -0.15293E+07        -0.60326E+08         0.00000E+00
    0.00000E+00         0.00000E+00        -0.51809E+08
 
   -0.54461E+08        -0.41195E+07         0.00000E+00
   -0.41195E+07        -0.61129E+08         0.00000E+00
    0.00000E+00         0.00000E+00        -0.51647E+08
 
   -0.54700E+08        -0.57858E+07         0.00000E+00
   -0.57858E+07        -0.62211E+08         0.00000E+00
    0.00000E+00         0.00000E+00        -0.51402E+08
 
   -0.53998E+08        -0.65600E+07         0.00000E+00
   -0.65600E+07        -0.63193E+08         0.00000E+00
    0.00000E+00         0.00000E+00        -0.51131E+08
 
   -0.52935E+08        -0.66547E+07         0.00000E+00
   -0.66547E+07        -0.63924E+08         0.00000E+00
    0.00000E+00         0.00000E+00        -0.50858E+08
 
   -0.51800E+08        -0.62836E+07         0.00000E+00
   -0.62836E+07        -0.64392E+08         0.00000E+00
    0.00000E+00         0.00000E+00        -0.50588E+08
 
   -0.50711E+08        -0.56024E+07         0.00000E+00
   -0.56024E+07        -0.64645E+08         0.00000E+00
    0.00000E+00         0.00000E+00        -0.50322E+08
 
   -0.49708E+08        -0.47049E+07         0.00000E+00
   -0.47049E+07        -0.64749E+08         0.00000E+00
    0.00000E+00         0.00000E+00        -0.50060E+08
 
   -0.48791E+08        -0.36335E+07         0.00000E+00
   -0.36335E+07        -0.64762E+08         0.00000E+00
    0.00000E+00         0.00000E+00        -0.49806E+08
 
   -0.47946E+08        -0.23886E+07         0.00000E+00
   -0.23886E+07        -0.64731E+08         0.00000E+00
    0.00000E+00         0.00000E+00        -0.49561E+08
 
   -0.47152E+08        -0.93280E+06         0.00000E+00
   -0.93280E+06        -0.64683E+08         0.00000E+00
    0.00000E+00         0.00000E+00        -0.49332E+08
 
   -0.46341E+08         0.75251E+06         0.00000E+00
    0.75251E+06        -0.64651E+08         0.00000E+00
    0.00000E+00         0.00000E+00        -0.49135E+08
 
   -0.45837E+08         0.27598E+07         0.00000E+00
    0.27598E+07        -0.64640E+08         0.00000E+00
    0.00000E+00         0.00000E+00        -0.49327E+08
 
   -0.47013E+08         0.53194E+07         0.00000E+00
    0.53194E+07        -0.64607E+08         0.00000E+00
    0.00000E+00         0.00000E+00        -0.50271E+08
 
   -0.50000E+08         0.82087E+07         0.00000E+00
    0.82087E+07        -0.64330E+08         0.00000E+00
    0.00000E+00         0.00000E+00        -0.51362E+08
 
   -0.55672E+08        -0.21140E+07         0.00000E+00
   -0.21140E+07        -0.60388E+08         0.00000E+00
    0.00000E+00         0.00000E+00        -0.48502E+08
 
   -0.56691E+08        -0.51949E+07         0.00000E+00
   -0.51949E+07        -0.61213E+08         0.00000E+00
    0.00000E+00         0.00000E+00        -0.48209E+08
 
   -0.55785E+08        -0.67770E+07         0.00000E+00
   -0.67770E+07        -0.62133E+08         0.00000E+00
    0.00000E+00         0.00000E+00        -0.47787E+08
 
   -0.54238E+08        -0.72450E+07         0.00000E+00
   -0.72450E+07        -0.62752E+08         0.00000E+00
    0.00000E+00         0.00000E+00        -0.47341E+08
 
   -0.52628E+08        -0.70207E+07         0.00000E+00
   -0.70207E+07        -0.63006E+08         0.00000E+00
    0.00000E+00         0.00000E+00        -0.46907E+08
 
   -0.51154E+08        -0.63999E+07         0.00000E+00
   -0.63999E+07        -0.62971E+08         0.00000E+00
    0.00000E+00         0.00000E+00        -0.46496E+08
 
   -0.49852E+08        -0.55554E+07         0.00000E+00
   -0.55554E+07        -0.62753E+08         0.00000E+00
    0.00000E+00         0.00000E+00        -0.46108E+08
 
   -0.48695E+08        -0.45731E+07         0.00000E+00
   -0.45731E+07        -0.62450E+08         0.00000E+00
    0.00000E+00         0.00000E+00        -0.45743E+08
 
   -0.47635E+08        -0.34792E+07         0.00000E+00
   -0.34792E+07        -0.62140E+08         0.00000E+00
    0.00000E+00         0.00000E+00        -0.45401E+08
 
   -0.46623E+08        -0.22575E+07         0.00000E+00
   -0.22575E+07        -0.61883E+08         0.00000E+00
    0.00000E+00         0.00000E+00        -0.45086E+08
 
   -0.45609E+08        -0.86491E+06         0.00000E+00
   -0.86491E+06        -0.61731E+08         0.00000E+00
    0.00000E+00         0.00000E+00        -0.44803E+08
 
   -0.44623E+08         0.74893E+06         0.00000E+00
    0.74893E+06        -0.61710E+08         0.00000E+00
    0.00000E+00         0.00000E+00        -0.44562E+08
 
   -0.43560E+08         0.26714E+07         0.00000E+00
    0.26714E+07        -0.61916E+08         0.00000E+00
    0.00000E+00         0.00000E+00        -0.44376E+08
 
   -0.43880E+08         0.53143E+07         0.00000E+00
    0.53143E+07        -0.61856E+08         0.00000E+00
    0.00000E+00         0.00000E+00        -0.45452E+08
 
   -0.46861E+08         0.87560E+07         0.00000E+00
    0.87560E+07        -0.61671E+08         0.00000E+00
    0.00000E+00         0.00000E+00        -0.47496E+08
 
   -0.59975E+08        -0.27529E+07         0.00000E+00
   -0.27529E+07        -0.60406E+08         0.00000E+00
    0.00000E+00         0.00000E+00        -0.43356E+08
 
   -0.58931E+08        -0.61044E+07         0.00000E+00
   -0.61044E+07        -0.61053E+08         0.00000E+00
    0.00000E+00         0.00000E+00        -0.42986E+08
 
   -0.56530E+08        -0.73301E+07         0.00000E+00
   -0.73301E+07        -0.61482E+08         0.00000E+00
    0.00000E+00         0.00000E+00        -0.42464E+08
 
   -0.54108E+08        -0.73437E+07         0.00000E+00
   -0.73437E+07        -0.61419E+08         0.00000E+00
    0.00000E+00         0.00000E+00        -0.41922E+08
 
   -0.52040E+08        -0.67756E+07         0.00000E+00
   -0.67756E+07        -0.60947E+08         0.00000E+00
    0.00000E+00         0.00000E+00        -0.41402E+08
 
   -0.50335E+08        -0.59522E+07         0.00000E+00
   -0.59522E+07        -0.60245E+08         0.00000E+00
    0.00000E+00         0.00000E+00        -0.40917E+08
 
   -0.48915E+08        -0.50255E+07         0.00000E+00
   -0.50255E+07        -0.59461E+08         0.00000E+00
    0.00000E+00         0.00000E+00        -0.40468E+08
 
   -0.47681E+08        -0.40554E+07         0.00000E+00
   -0.40554E+07        -0.58706E+08         0.00000E+00
    0.00000E+00         0.00000E+00        -0.40055E+08
 
   -0.46538E+08        -0.30453E+07         0.00000E+00
   -0.30453E+07        -0.58060E+08         0.00000E+00
    0.00000E+00         0.00000E+00        -0.39677E+08
 
   -0.45404E+08        -0.19630E+07         0.00000E+00
   -0.19630E+07        -0.57588E+08         0.00000E+00
    0.00000E+00         0.00000E+00        -0.39338E+08
 
   -0.44219E+08        -0.75852E+06         0.00000E+00
   -0.75852E+06        -0.57334E+08         0.00000E+00
    0.00000E+00         0.00000E+00        -0.39041E+08
 
   -0.42937E+08         0.65228E+06         0.00000E+00
    0.65228E+06        -0.57337E+08         0.00000E+00
    0.00000E+00         0.00000E+00        -0.38791E+08
 
   -0.41666E+08         0.24066E+07         0.00000E+00
    0.24066E+07        -0.57571E+08         0.00000E+00
    0.00000E+00         0.00000E+00        -0.38590E+08
 
   -0.40271E+08         0.50865E+07         0.00000E+00
    0.50865E+07        -0.58108E+08         0.00000E+00
    0.00000E+00         0.00000E+00        -0.38968E+08
 
   -0.42791E+08         0.90176E+07         0.00000E+00
    0.90176E+07        -0.58209E+08         0.00000E+00
    0.00000E+00         0.00000E+00        -0.42081E+08
 
   -0.65034E+08        -0.32820E+07         0.00000E+00
   -0.32820E+07        -0.60223E+08         0.00000E+00
    0.00000E+00         0.00000E+00        -0.36072E+08
 
   -0.60832E+08        -0.64665E+07         0.00000E+00
   -0.64665E+07        -0.60289E+08         0.00000E+00
    0.00000E+00         0.00000E+00        -0.35881E+08
 
   -0.56729E+08        -0.70267E+07         0.00000E+00
   -0.70267E+07        -0.59812E+08         0.00000E+00
    0.00000E+00         0.00000E+00        -0.35339E+08
 
   -0.53584E+08        -0.65515E+07         0.00000E+00
   -0.65515E+07        -0.58701E+08         0.00000E+00
    0.00000E+00         0.00000E+00        -0.34717E+08
 
   -0.51242E+08        -0.57353E+07         0.00000E+00
   -0.57353E+07        -0.57284E+08         0.00000E+00
    0.00000E+00         0.00000E+00        -0.34217E+08
 
   -0.49448E+08        -0.48447E+07         0.00000E+00
   -0.48447E+07        -0.55817E+08         0.00000E+00
    0.00000E+00         0.00000E+00        -0.33750E+08
 
   -0.48015E+08        -0.39743E+07         0.00000E+00
   -0.39743E+07        -0.54439E+08         0.00000E+00
    0.00000E+00         0.00000E+00        -0.33321E+08
 
   -0.46782E+08        -0.31490E+07         0.00000E+00
   -0.31490E+07        -0.53243E+08         0.00000E+00
    0.00000E+00         0.00000E+00        -0.32932E+08
 
   -0.45614E+08        -0.23475E+07         0.00000E+00
   -0.23475E+07        -0.52292E+08         0.00000E+00
    0.00000E+00         0.00000E+00        -0.32582E+08
 
   -0.44405E+08        -0.15223E+07         0.00000E+00
   -0.15223E+07        -0.51633E+08         0.00000E+00
    0.00000E+00         0.00000E+00        -0.32272E+08
 
   -0.43078E+08        -0.60707E+06         0.00000E+00
   -0.60707E+06        -0.51303E+08         0.00000E+00
    0.00000E+00         0.00000E+00        -0.32007E+08
 
   -0.41554E+08         0.47496E+06         0.00000E+00
    0.47496E+06        -0.51329E+08         0.00000E+00
    0.00000E+00         0.00000E+00        -0.31788E+08
 
   -0.39710E+08         0.19268E+07         0.00000E+00
    0.19268E+07        -0.51759E+08         0.00000E+00
    0.00000E+00         0.00000E+00        -0.31616E+08
 
   -0.37180E+08         0.42347E+07         0.00000E+00
    0.42347E+07        -0.52806E+08         0.00000E+00
    0.00000E+00         0.00000E+00        -0.31488E+08
 
   -0.37240E+08         0.85863E+07         0.00000E+00
    0.85863E+07        -0.53655E+08         0.00000E+00
    0.00000E+00         0.00000E+00        -0.34904E+08
 
   -0.70235E+08        -0.33196E+07         0.00000E+00
   -0.33196E+07        -0.59135E+08         0.00000E+00
    0.00000E+00         0.00000E+00        -0.30213E+08
 
   -0.61970E+08        -0.55988E+07         0.00000E+00
   -0.55988E+07        -0.58593E+08         0.00000E+00
    0.00000E+00         0.00000E+00        -0.28337E+08
 
   -0.56331E+08        -0.53942E+07         0.00000E+00
   -0.53942E+07        -0.56485E+08         0.00000E+00
    0.00000E+00         0.00000E+00        -0.26739E+08
 
   -0.52825E+08        -0.46177E+07         0.00000E+00
   -0.46177E+07        -0.53999E+08         0.00000E+00
    0.00000E+00         0.00000E+00        -0.25792E+08
 
   -0.50418E+08        -0.38155E+07         0.00000E+00
   -0.38155E+07        -0.51561E+08         0.00000E+00
    0.00000E+00         0.00000E+00        -0.25423E+08
 
   -0.48661E+08        -0.30773E+07         0.00000E+00
   -0.30773E+07        -0.49359E+08         0.00000E+00
    0.00000E+00         0.00000E+00        -0.25076E+08
 
   -0.47302E+08        -0.24469E+07         0.00000E+00
   -0.24469E+07        -0.47473E+08         0.00000E+00
    0.00000E+00         0.00000E+00        -0.24759E+08
 
   -0.46128E+08        -0.19119E+07         0.00000E+00
   -0.19119E+07        -0.45936E+08         0.00000E+00
    0.00000E+00         0.00000E+00        -0.24473E+08
 
   -0.44980E+08        -0.14360E+07         0.00000E+00
   -0.14360E+07        -0.44762E+08         0.00000E+00
    0.00000E+00         0.00000E+00        -0.24218E+08
 
   -0.43736E+08        -0.97405E+06         0.00000E+00
   -0.97405E+06        -0.43973E+08         0.00000E+00
    0.00000E+00         0.00000E+00        -0.23996E+08
 
   -0.42297E+08        -0.46025E+06         0.00000E+00
   -0.46025E+06        -0.43614E+08         0.00000E+00
    0.00000E+00         0.00000E+00        -0.23809E+08
 
   -0.40573E+08         0.19899E+06         0.00000E+00
    0.19899E+06        -0.43750E+08         0.00000E+00
    0.00000E+00         0.00000E+00        -0.23659E+08
 
   -0.38207E+08         0.10921E+07         0.00000E+00
    0.10921E+07        -0.44464E+08         0.00000E+00
    0.00000E+00         0.00000E+00        -0.23547E+08
 
   -0.34816E+08         0.26203E+07         0.00000E+00
    0.26203E+07        -0.45802E+08         0.00000E+00
    0.00000E+00         0.00000E+00        -0.23479E+08
 
   -0.30146E+08         0.72575E+07         0.00000E+00
    0.72575E+07        -0.47888E+08         0.00000E+00
    0.00000E+00         0.00000E+00        -0.26162E+08
 
   -0.74077E+08        -0.19739E+07         0.00000E+00
   -0.19739E+07        -0.58807E+08         0.00000E+00
    0.00000E+00         0.00000E+00        -0.24337E+08
 
   -0.62048E+08        -0.24821E+07         0.00000E+00
   -0.24821E+07        -0.54568E+08         0.00000E+00
    0.00000E+00         0.00000E+00        -0.19987E+08
 
   -0.55838E+08        -0.20726E+07         0.00000E+00
   -0.20726E+07        -0.50307E+08         0.00000E+00
    0.00000E+00         0.00000E+00        -0.17825E+08
 
   -0.52278E+08        -0.16636E+07         0.00000E+00
   -0.16636E+07        -0.46705E+08         0.00000E+00
    0.00000E+00         0.00000E+00        -0.16458E+08
 
   -0.49863E+08        -0.13051E+07         0.00000E+00
   -0.13051E+07        -0.43841E+08         0.00000E+00
    0.00000E+00         0.00000E+00        -0.16412E+08
 
   -0.48178E+08        -0.10009E+07         0.00000E+00
   -0.10009E+07        -0.41588E+08         0.00000E+00
    0.00000E+00         0.00000E+00        -0.16787E+08
 
   -0.46906E+08        -0.77293E+06         0.00000E+00
   -0.77293E+06        -0.39829E+08         0.00000E+00
    0.00000E+00         0.00000E+00        -0.17081E+08
 
   -0.45792E+08        -0.59820E+06         0.00000E+00
   -0.59820E+06        -0.38457E+08         0.00000E+00
    0.00000E+00         0.00000E+00        -0.17260E+08
 
   -0.44674E+08        -0.45616E+06         0.00000E+00
   -0.45616E+06        -0.37397E+08         0.00000E+00
    0.00000E+00         0.00000E+00        -0.17301E+08
 
   -0.43422E+08        -0.32944E+06         0.00000E+00
   -0.32944E+06        -0.36603E+08         0.00000E+00
    0.00000E+00         0.00000E+00        -0.17166E+08
 
   -0.41906E+08        -0.19172E+06         0.00000E+00
   -0.19172E+06        -0.36070E+08         0.00000E+00
    0.00000E+00         0.00000E+00        -0.16786E+08
 
   -0.40022E+08         0.12132E+05         0.00000E+00
    0.12132E+05        -0.35853E+08         0.00000E+00
    0.00000E+00         0.00000E+00        -0.15997E+08
 
   -0.37593E+08         0.29159E+06         0.00000E+00
    0.29159E+06        -0.36100E+08         0.00000E+00
    0.00000E+00         0.00000E+00        -0.14832E+08
 
   -0.33120E+08         0.80953E+06         0.00000E+00
    0.80953E+06        -0.37269E+08         0.00000E+00
    0.00000E+00         0.00000E+00        -0.14613E+08
 
   -0.23237E+08         0.33167E+07         0.00000E+00
    0.33167E+07        -0.41232E+08         0.00000E+00
    0.00000E+00         0.00000E+00        -0.15630E+08
 
SCALARS stresss double 
LOOKUP_TABLE default
  -55667804.1422941     
  -55732914.5315090     
  -55834546.2680142     
  -55965798.4843750     
  -56119660.4484990     
  -56289246.5148404     
  -56467952.4927563     
  -56649544.9121339     
  -56828197.6417834     
  -56998492.0907976     
  -57155397.8639625     
  -57294251.5610284     
  -57410752.7192139     
  -57500996.4576255     
  -57561560.4626344     
  -55644567.6105196     
  -55712634.6252189     
  -55817924.0562861     
  -55953284.7995537     
  -56111492.1567345     
  -56285480.7403358     
  -56468499.4670188     
  -56654196.7436047     
  -56836651.0861536     
  -57010364.3550799     
  -57170235.3018408     
  -57311531.6517966     
  -57429879.9312470     
  -57521292.6222182     
  -57582247.9581067     
  -55598320.4843378     
  -55672368.4484125     
  -55785021.9695602     
  -55928640.4490963     
  -56095572.0547385     
  -56278393.0390432     
  -56470060.4582535     
  -56663989.2004257     
  -56854070.2618909     
  -57034649.5671353     
  -57200486.7517971     
  -57346713.2617696     
  -57468809.5195962     
  -57562620.6752245     
  -57624428.0626119     
  -55529479.1153456     
  -55612638.0533115     
  -55736455.7818606     
  -55892558.9711210     
  -56072656.4615584     
  -56268789.4550076     
  -56473482.1569060     
  -56679806.2406121     
  -56881379.7079903     
  -57072322.8490886     
  -57247193.4901735     
  -57400922.7235036     
  -57528771.7986542     
  -57626330.2584141     
  -57689572.6164039     
  -55438721.2169743     
  -55534270.6804842     
  -55673184.0691445     
  -55846107.1490403     
  -56043895.8197324     
  -56257882.2771920     
  -56480023.1656745     
  -56702946.4304079     
  -56919922.4548172     
  -57124787.1525129     
  -57311843.1848636     
  -57475763.1853496     
  -57611517.1670845     
  -57714344.8805906     
  -57779791.2262852     
  -55327038.0863461     
  -55438448.5061140     
  -55596552.3880768     
  -55790759.2611709     
  -56010856.0530441     
  -56247295.4838174     
  -56491341.0292437     
  -56735089.8670929     
  -56971406.1630052     
  -57193799.0727617     
  -57396277.0466361     
  -57573206.0274227     
  -57719195.8556903     
  -57829036.8139580     
  -57897705.6589490     
  -55195808.9182974     
  -55326777.0650598     
  -55508353.4380114     
  -55728444.4790538     
  -55975548.2225709     
  -56239072.1447552     
  -56509473.6828465     
  -56778251.1796482     
  -57037826.6153468     
  -57281363.3302881     
  -57502557.4352171     
  -57695435.4168502     
  -57854185.1943005     
  -57973044.2851285     
  -58046266.2534336     
  -55046890.8560349     
  -55201370.7025712     
  -55410902.9234100     
  -55661606.6520597     
  -55940465.1691950     
  -56235681.4373487     
  -56536811.6877195     
  -56834713.5571276     
  -57121362.0386234     
  -57389587.8921446     
  -57632786.3388145     
  -57844634.8604472     
  -58018851.2094090     
  -58149017.6365033     
  -58228494.9204055     
  -54882721.3868867     
  -55064952.7554463     
  -55307129.9604139     
  -55593275.0794662     
  -55908622.5700919     
  -56240021.1252014     
  -56576055.3369882     
  -56906936.1139842     
  -57224228.8530165     
  -57520488.6707961     
  -57788861.9996571     
  -58022701.2385561     
  -58215228.3534829     
  -58359276.3384567     
  -58447134.9747475     
  -54706429.7172843     
  -54920968.9831678     
  -55200680.6986994     
  -55527143.7634627     
  -55883599.8370082     
  -56255408.5388789     
  -56630147.3568449     
  -56997423.2605264     
  -57348485.7543251     
  -57675729.1548942     
  -57972157.5386494     
  -58230868.5637209     
  -58444597.7063237     
  -58605355.0154923     
  -58704183.6735179     
  -54521953.4011156     
  -54773712.7756171     
  -55096032.7925241     
  -55467653.9890070     
  -55869572.2010462     
  -56285548.0193476     
  -56702166.3327871     
  -57108539.0896989     
  -57495767.6824032     
  -57856275.5366712     
  -58183101.3240432     
  -58469220.1907586     
  -58706940.8187538     
  -58887413.3650499     
  -59000279.4694381     
  -54334155.7203293     
  -54628459.3657742     
  -54998614.8408552     
  -55420069.0340442     
  -55871317.4302351     
  -56334453.8554551     
  -56795156.8269323     
  -57242241.0169245     
  -57666923.3638139     
  -58061941.3130171     
  -58420633.7093719     
  -58736064.5094137     
  -59000243.7456088     
  -59203482.6255024     
  -59333913.2424365     
  -54148938.0629280     
  -54491602.5640373     
  -54914916.4177173     
  -55390517.7729170     
  -55894166.5194165     
  -56406293.1765776     
  -56911857.9496057     
  -57399693.9042670     
  -57861518.9240968     
  -58290786.4554107     
  -58681508.4873612     
  -59027145.5073241     
  -59319624.4231777     
  -59548521.1405398     
  -59700432.4015436     
  -53973340.7444871     
  -54370777.5059915     
  -54852556.8243697     
  -55385961.2563728     
  -55943845.1336564     
  -56505091.1003638     
  -57054271.6595178     
  -57580707.6345076     
  -58077154.9639316     
  -58538324.8335603     
  -58959400.0080195     
  -59334656.4432184     
  -59656257.4448320     
  -59913255.2901671     
  -60090810.8720263     
  -53815620.6861185     
  -54274933.8536786     
  -54820239.7147334     
  -55414001.4154388     
  -56026118.5488002     
  -56634211.0340889     
  -57222983.8246999     
  -57782917.0007404     
  -58308525.8617604     
  -58796480.1706004     
  -59243768.7823778     
  -59646022.8272251     
  -59996074.8997976     
  -60282792.2456278     
  -60490170.0043737     
  -53685326.6060447     
  -54214232.7684016     
  -54827462.6914250     
  -55482387.6903076     
  -56146125.2473880     
  -56795482.6851816     
  -57416112.4562289     
  -58000594.7674478     
  -58546130.9053161     
  -59052217.8606389     
  -59518430.7176004     
  -59942420.2795929     
  -60318231.8765681     
  -60635011.4642592     
  -60876060.9690073     
  -53593217.7088406     
  -54199554.8514835     
  -54883581.2763252     
  -55598159.8898916     
  -56307245.4677706     
  -56987777.8155418     
  -57627712.7767829     
  -58222963.9662884     
  -58774536.3259537     
  -59285774.9487237     
  -59759769.8430311     
  -60196993.0831388     
  -60593340.0618486     
  -60938778.7449929     
  -61216567.7023029     
  -53551345.2086983     
  -54239090.9248752     
  -54996893.4872792     
  -55766460.4355004     
  -56509134.9257888     
  -57204753.3155792     
  -57845426.6386737     
  -58431873.4492087     
  -58970107.7014329     
  -59468429.7140948     
  -59934540.2384377     
  -60372729.2518373     
  -60781490.0876752     
  -61152084.4284942     
  -61468383.0484108     
  -53564234.6644268     
  -54338735.9504805     
  -55175582.8505403     
  -55987795.3134972     
  -56744439.6898027     
  -57431392.9097393     
  -58047165.9579078     
  -58598750.5622311     
  -59098222.9468418     
  -59559850.6324559     
  -59997221.8523100     
  -60419927.9101698     
  -60830036.0130922     
  -61220322.4580287     
  -61575187.0948642     
  -53633718.9666400     
  -54521497.2926293     
  -55422147.6288981     
  -56253019.4727409     
  -56993533.9142895     
  -57639054.1737149     
  -58196695.9634437     
  -58680877.3511495     
  -59110187.9702737     
  -59505335.8233765     
  -59887115.5950303     
  -60272923.7461862     
  -60671053.4389548     
  -61074883.1286749     
  -61467226.3520798     
  -53802827.4138218     
  -54793219.7649580     
  -55723904.3912353     
  -56535054.7504004     
  -57217210.7775355     
  -57778971.2072877     
  -58238186.9782442     
  -58617206.6424801     
  -58940432.5733864     
  -59233858.2472144     
  -59526026.7912245     
  -59846209.8507967     
  -60215762.2022260     
  -60633500.2677772     
  -61063841.4674092     
  -54021505.4952489     
  -55120832.5537914     
  -56041461.9235069     
  -56779060.2691248     
  -57347777.2530807     
  -57774725.6611988     
  -58090211.6858697     
  -58324072.2251738     
  -58504560.7668606     
  -58659051.6314330     
  -58819270.5316226     
  -59031293.9049569     
  -59345664.6316897     
  -59783564.4492893     
  -60300843.6852044     
  -54295635.6311527     
  -55450463.0049330     
  -56300432.9490755     
  -56891910.3580983     
  -57279947.2085325     
  -57515056.8303926     
  -57640426.5588466     
  -57691641.4696891     
  -57697840.3079583     
  -57683455.3210705     
  -57670005.8568349     
  -57701289.3597030     
  -57906413.4385455     
  -58426804.0156014     
  -59209401.4649367     
  -54581920.0215765     
  -55705204.7142554     
  -56380417.9726028     
  -56732661.8093266     
  -56863996.3168272     
  -56849771.5004261     
  -56743476.4694439     
  -56582923.6449502     
  -56394887.1472329     
  -56197707.9448069     
  -56001556.1666275     
  -55793068.8248495     
  -55884621.6485840     
  -56566943.4328101     
  -57608411.7311734     
  -54805817.9852571     
  -55745769.1344320     
  -56104377.2312381     
  -56107470.4497107     
  -55905815.1473773     
  -55593155.2075621     
  -55226137.7129037     
  -54839121.2242215     
  -54452906.3828518     
  -54079301.2715766     
  -53722399.7878159     
  -53375610.7167566     
  -53268068.7198463     
  -53963775.3279172     
  -55230774.8681549     
  -54853956.8306489     
  -55371197.4382275     
  -55235310.4694219     
  -54776789.7621704     
  -54180194.4224267     
  -53540210.0136969     
  -52904364.0636023     
  -52295944.7404758     
  -51725626.6887196     
  -51197685.0272407     
  -50714404.4392961     
  -50298309.4645484     
  -49950686.5252891     
  -50396021.0077224     
  -52009616.4335104     
  -54578938.9558870     
  -54323694.7545264     
  -53492242.1611259     
  -52482753.1639230     
  -51462922.3264423     
  -50499265.7596973     
  -49614927.2415537     
  -48813820.8417734     
  -48091866.3126574     
  -47443146.4296484     
  -46864694.5665479     
  -46354860.8926436     
  -45942639.1241941     
  -45782442.3621490     
  -47693528.4002320     
  -53776436.3894155     
  -52333982.7162356     
  -50626661.6054222     
  -49000587.6244060     
  -47580900.8881434     
  -46338365.4501377     
  -45258676.5318292     
  -44319094.6114186     
  -43495774.6561185     
  -42770104.6425089     
  -42129340.6246557     
  -41556880.9805163     
  -41028327.6849340     
  -40491316.7458401     
  -41932770.4545253     
  -53194290.1749315     
  -49633565.3934337     
  -46518504.0951144     
  -44205395.4094568     
  -42467272.1819988     
  -41032302.7853271     
  -39844858.0550707     
  -38845688.8232557     
  -37986709.6559849     
  -37235196.7105061     
  -36573587.0085453     
  -35993829.6048177     
  -35406030.7449363     
  -34699225.6721975     
  -34732193.7341007     
  -52407018.9214047     
  -45534387.7513642     
  -41323280.7858525     
  -38480384.3698114     
  -36705488.1336687     
  -35517739.9234235     
  -34605216.0235735     
  -33836333.0673973     
  -33123961.4288642     
  -32397119.8485594     
  -31587435.2409956     
  -30623757.7924015     
  -29508273.3910299     
  -28334243.7490587     
  -26699614.1953626     
SCALARS 2waySource double 
LOOKUP_TABLE default
 -1.377665547274399E-002
 -1.354905762437191E-002
 -1.319886559930776E-002
 -1.274295869232006E-002
 -1.220061199603873E-002
 -1.159319916970445E-002
 -1.094352670096053E-002
 -1.027506077547411E-002
 -9.611225671869939E-003
 -8.974805241314891E-003
 -8.387356070731940E-003
 -7.868495747173774E-003
 -7.434997721412782E-003
 -7.099818186205749E-003
 -6.871427974301231E-003
 -1.381706581374305E-002
 -1.358116180198513E-002
 -1.322219131238287E-002
 -1.275661513269133E-002
 -1.220356309812787E-002
 -1.158446741534471E-002
 -1.092232434114236E-002
 -1.024084950875271E-002
 -9.563726864538208E-003
 -8.913995063510306E-003
 -8.313482044742936E-003
 -7.782146466415823E-003
 -7.337246082595411E-003
 -6.992437102302480E-003
 -6.757144175634672E-003
 -1.389620341483711E-002
 -1.364390271195280E-002
 -1.326786272690726E-002
 -1.278382841116572E-002
 -1.221064313675042E-002
 -1.156981473192614E-002
 -1.088464970646010E-002
 -1.017927520670553E-002
 -9.477796619845210E-003
 -8.803658421552219E-003
 -8.179122388318487E-003
 -7.624712554071351E-003
 -7.158525923112891E-003
 -6.795474597798534E-003
 -6.546740789494220E-003
 -1.401046989010181E-002
 -1.373368511160780E-002
 -1.333239399385254E-002
 -1.282135928034259E-002
 -1.221899145552133E-002
 -1.154687749666248E-002
 -1.082873876169786E-002
 -1.008925628656865E-002
 -9.353092949781091E-003
 -8.644216768136953E-003
 -7.985443678677082E-003
 -7.398034850001473E-003
 -6.901217281151150E-003
 -6.511640047468149E-003
 -6.242968374854888E-003
 -1.415445612273351E-002
 -1.384500615761410E-002
 -1.341044062500198E-002
 -1.286424216129344E-002
 -1.222422998952390E-002
 -1.151205834096837E-002
 -1.075194546660621E-002
 -9.969237274787608E-003
 -9.189248620047160E-003
 -8.436535841671356E-003
 -7.734523280464958E-003
 -7.105299039409822E-003
 -6.569409988802002E-003
 -6.145602169086110E-003
 -5.850610686633000E-003
 -1.432099724860583E-002
 -1.397048043463350E-002
 -1.349478209759455E-002
 -1.290575981269596E-002
 -1.222046338996502E-002
 -1.146057942981684E-002
 -1.065087039973849E-002
 -9.817410046496049E-003
 -8.986198296064091E-003
 -8.182368962977891E-003
 -7.429916216158197E-003
 -6.751729477955256E-003
 -6.169720496519627E-003
 -5.704912166313427E-003
 -5.377479834810787E-003
 -1.450121479540340E-002
 -1.410087234078372E-002
 -1.357632352146176E-002
 -1.293744733168870E-002
 -1.220032764583997E-002
 -1.138661180596402E-002
 -1.052159772253491E-002
 -9.632077358690861E-003
 -8.744682164438243E-003
 -7.885011093393377E-003
 -7.077467719484726E-003
 -6.345564631795834E-003
 -5.712426874852065E-003
 -5.201281252824866E-003
 -4.835800138239557E-003
 -1.468452762775023E-002
 -1.422507245080590E-002
 -1.364405899414490E-002
 -1.294908822459788E-002
 -1.215506859902333E-002
 -1.128347587625332E-002
 -1.036004349687286E-002
 -9.412163959986376E-003
 -8.466928726695825E-003
 -7.550160414298970E-003
 -6.686361052198951E-003
 -5.899297919472129E-003
 -5.212904141551651E-003
 -4.652198551054558E-003
 -4.243972947725556E-003
 -1.485865734615031E-002
 -1.433002327819184E-002
 -1.368499825178640E-002
 -1.292872019263327E-002
 -1.207468912404529E-002
 -1.114396834025507E-002
 -1.016247873179592E-002
 -9.157937843860549E-003
 -8.157570982296960E-003
 -7.187027998017773E-003
 -6.270425009457542E-003
 -5.431192862717558E-003
 -4.693356908637654E-003
 -4.082880112732385E-003
 -3.628713615983730E-003
 -1.500965614271939E-002
 -1.440062677787234E-002
 -1.368410551432142E-002
 -1.286272899000560E-002
 -1.194827282316840E-002
 -1.096094278296253E-002
 -9.926359801869820E-003
 -8.872066430061776E-003
 -7.824902156505251E-003
 -6.809775472398821E-003
 -5.849750621195480E-003
 -4.967091445715266E-003
 -4.184841762403692E-003
 -3.528523729084582E-003
 -3.027531112819619E-003
 -1.512197909890927E-002
 -1.441967730494018E-002
 -1.362434675127106E-002
 -1.273618407363884E-002
 -1.176468109383145E-002
 -1.072836045469078E-002
 -9.651679832029879E-003
 -8.561200056423711E-003
 -7.482628516956630E-003
 -6.439393524875415E-003
 -5.452679243974426E-003
 -4.542526106482031E-003
 -3.729543272610655E-003
 -3.036800033252324E-003
 -2.491469274224870E-003
 -1.517863048632105E-002
 -1.436789991297779E-002
 -1.348702604362334E-002
 -1.253369016390059E-002
 -1.151394885477137E-002
 -1.044314511508857E-002
 -9.343151446754468E-003
 -8.238349818007140E-003
 -7.152328439407899E-003
 -6.106161255298872E-003
 -5.118224660655958E-003
 -4.205117584330275E-003
 -3.383210905898985E-003
 -2.670429741069810E-003
 -2.087934142022921E-003
 -1.516144431466452E-002
 -1.422426418802676E-002
 -1.325276534719068E-002
 -1.224123117581664E-002
 -1.118989127480901E-002
 -1.010831865132847E-002
 -9.013635957315237E-003
 -7.926399132251533E-003
 -6.866871359920982E-003
 -5.852841846974511E-003
 -4.898975158520786E-003
 -4.017187918299941E-003
 -3.217571987114995E-003
 -2.509568053672924E-003
 -1.903278502682614E-003
 -1.505157774582270E-002
 -1.396695492325907E-002
 -1.290379927337608E-002
 -1.184982559644632E-002
 -1.079465299282539E-002
 -9.738026990757414E-003
 -8.689303964794082E-003
 -7.663128593654057E-003
 -6.675061185467551E-003
 -5.738751264081072E-003
 -4.864470857196422E-003
 -4.058427120530969E-003
 -3.322394466112858E-003
 -2.653522284881529E-003
 -2.044579332236207E-003
 -1.483038300867993E-002
 -1.357567861576832E-002
 -1.242902754139025E-002
 -1.136220976108758E-002
 -1.034611166015468E-002
 -9.365030712872841E-003
 -8.416986227410096E-003
 -7.508085505057708E-003
 -6.647685273244561E-003
 -5.844734127368977E-003
 -5.104933795520941E-003
 -4.428301926984027E-003
 -3.806665061427289E-003
 -3.221042931221480E-003
 -2.639693584862414E-003
 -1.447965549391666E-002
 -1.303790691456980E-002
 -1.183421338669881E-002
 -1.080445650686056E-002
 -9.888353491507844E-003
 -9.050976055192976E-003
 -8.274015826679691E-003
 -7.551364196910578E-003
 -6.884850429990610E-003
 -6.278803173848565E-003
 -5.734986485664996E-003
 -5.247665343651253E-003
 -4.798055341330471E-003
 -4.348026196063665E-003
 -3.834164148558628E-003
 -1.398296381562777E-002
 -1.236323073360891E-002
 -1.116651552849134E-002
 -1.023932359734132E-002
 -9.504251241885628E-003
 -8.899786638890909E-003
 -8.380308602532641E-003
 -7.923636025239451E-003
 -7.523744470811103E-003
 -7.181571961878859E-003
 -6.896567646795649E-003
 -6.658687517557159E-003
 -6.439506334715151E-003
 -6.180902059776190E-003
 -5.782803833382519E-003
 -1.330963021534699E-002
 -1.167888464378056E-002
 -1.052463687280803E-002
 -9.772080945399584E-003
 -9.332744834798564E-003
 -9.073704061598126E-003
 -8.911085219971870E-003
 -8.805094855892068E-003
 -8.744363496983806E-003
 -8.729418316829008E-003
 -8.759434183875033E-003
 -8.821989119345102E-003
 -8.881339872919735E-003
 -8.863389127660114E-003
 -8.632560505003092E-003
 -1.261358061147748E-002
 -1.118533401026037E-002
 -9.992128932012827E-003
 -9.576594347601162E-003
 -9.591233912813538E-003
 -9.809367290237425E-003
 -1.010536823080793E-002
 -1.042786165261581E-002
 -1.076780170915053E-002
 -1.113072692911517E-002
 -1.151683269310120E-002
 -1.190915246551854E-002
 -1.226841822039292E-002
 -1.251279218213669E-002
 -1.249148970201099E-002
 -1.222835044853496E-002
 -1.059397662108271E-002
 -9.754308380297146E-003
 -9.938455626493406E-003
 -1.059878675008372E-002
 -1.142366943870782E-002
 -1.226010325585023E-002
 -1.306165824366261E-002
 -1.383697784292193E-002
 -1.460598143020303E-002
 -1.536930435755333E-002
 -1.609443911181385E-002
 -1.671925319383890E-002
 -1.718781785558812E-002
 -1.736942678660047E-002
 -1.167450422148075E-002
 -1.018864737143622E-002
 -1.022174610811219E-002
 -1.129290855269218E-002
 -1.277192660269044E-002
 -1.428964269645743E-002
 -1.569326501815481E-002
 -1.696776448200859E-002
 -1.816378042033266E-002
 -1.933438145876213E-002
 -2.048189028284548E-002
 -2.153298302057968E-002
 -2.235535701776834E-002
 -2.280852787126444E-002
 -2.307796192273414E-002
 -1.199897083174702E-002
 -1.079842091857662E-002
 -1.200243219645012E-002
 -1.417579785802709E-002
 -1.655603653591672E-002
 -1.875275594302295E-002
 -2.065411885705478E-002
 -2.230636635647264E-002
 -2.382607303565605E-002
 -2.533679692969704E-002
 -2.687976615280765E-002
 -2.830755767954451E-002
 -2.929921600259027E-002
 -2.955345053864150E-002
 -2.859413274302474E-002
 -1.307645856170788E-002
 -1.312338072299028E-002
 -1.571899266514962E-002
 -1.906108676904676E-002
 -2.224955229208793E-002
 -2.495625466475398E-002
 -2.715864649301623E-002
 -2.898583343414120E-002
 -3.062665665687129E-002
 -3.228393439451527E-002
 -3.416408187190489E-002
 -3.627165727966010E-002
 -3.695867842988756E-002
 -3.423261829068910E-002
 -3.094187673005855E-002
 -1.537611003736855E-002
 -1.757460733289611E-002
 -2.175448304344919E-002
 -2.604015284415130E-002
 -2.969463769340508E-002
 -3.255930033378662E-002
 -3.474274833801354E-002
 -3.645515129792437E-002
 -3.793090517551030E-002
 -3.940530795307619E-002
 -4.114683081215081E-002
 -4.356162349041707E-002
 -4.135368906076940E-002
 -3.822120042248238E-002
 -3.858859388756238E-002
 -1.910409958878272E-002
 -2.422587513522813E-002
 -2.971674608376686E-002
 -3.434398567938389E-002
 -3.786157320871647E-002
 -4.039256435300351E-002
 -4.217792599781096E-002
 -4.347285687564151E-002
 -4.450644943059857E-002
 -4.547067477499612E-002
 -4.651604858592522E-002
 -4.780058011129363E-002
 -4.522756333786922E-002
 -4.272513828896970E-002
 -4.339027627069092E-002
 -2.380953196912087E-002
 -3.194345646342572E-002
 -3.783202065870831E-002
 -4.184595996944528E-002
 -4.450360727976459E-002
 -4.621879921970348E-002
 -4.730068299460152E-002
 -4.797837547770892E-002
 -4.842081704338021E-002
 -4.874050121542430E-002
 -4.898286833925462E-002
 -4.897418281971551E-002
 -4.855721743986725E-002
 -4.423546286512813E-002
 -4.479144536717904E-002
 -2.780203380758450E-002
 -3.775374156168509E-002
 -4.256324811011773E-002
 -4.497292316355680E-002
 -4.623270276940190E-002
 -4.690701664295674E-002
 -4.722898732994014E-002
 -4.730923737731037E-002
 -4.722509210439832E-002
 -4.701284593951256E-002
 -4.665613235429707E-002
 -4.611668347014079E-002
 -4.557678801691459E-002
 -4.231552089210148E-002
 -4.211335410246669E-002
 -2.888193505793794E-002
 -3.529232808568186E-002
 -3.793942006031477E-002
 -3.947365979676574E-002
 -3.939491574067508E-002
 -3.934047348757901E-002
 -3.921502139310601E-002
 -3.900461342398218E-002
 -3.869520282265583E-002
 -3.826572735315235E-002
 -3.767903128076951E-002
 -3.691292960253158E-002
 -3.590704867638839E-002
 -3.499211444517830E-002
 -3.123575153779584E-002
 -1.871352067770062E-002
 -2.152323065939687E-002
 -2.001932617068383E-002
 -2.210700662076802E-002
 -2.191541883467431E-002
 -2.195300474548129E-002
 -2.205895131123217E-002
 -2.211411272770450E-002
 -2.207085211500256E-002
 -2.188593878870590E-002
 -2.151382048563556E-002
 -2.090139219800494E-002
 -2.003516462354990E-002
 -1.912328590417506E-002
 -1.320574133838012E-002
 -7.599525841927463E-003
  5.172999251390509E-003
  7.972621173895324E-003
  7.134182235651355E-003
  5.084758342693329E-003
  3.778294797445782E-003
  2.624975555604349E-003
  1.644949829310117E-003
  8.620510403416029E-004
  2.982151957777960E-004
 -1.577354468157346E-005
 -3.096012528715957E-005
  3.527219816705819E-004
  1.348030579794780E-003
  6.989660381548525E-003
SCALARS elementIsPlast double 
LOOKUP_TABLE default
  0.000000000000000E+000
  0.000000000000000E+000
  0.000000000000000E+000
  0.000000000000000E+000
  0.000000000000000E+000
  0.000000000000000E+000
  0.000000000000000E+000
  0.000000000000000E+000
  0.000000000000000E+000
  0.000000000000000E+000
  0.000000000000000E+000
  0.000000000000000E+000
  0.000000000000000E+000
  0.000000000000000E+000
  0.000000000000000E+000
  0.000000000000000E+000
  0.000000000000000E+000
  0.000000000000000E+000
  0.000000000000000E+000
  0.000000000000000E+000
  0.000000000000000E+000
  0.000000000000000E+000
  0.000000000000000E+000
  0.000000000000000E+000
  0.000000000000000E+000
  0.000000000000000E+000
  0.000000000000000E+000
  0.000000000000000E+000
  0.000000000000000E+000
  0.000000000000000E+000
  0.000000000000000E+000
  0.000000000000000E+000
  0.000000000000000E+000
  0.000000000000000E+000
  0.000000000000000E+000
  0.000000000000000E+000
  0.000000000000000E+000
  0.000000000000000E+000
  0.000000000000000E+000
  0.000000000000000E+000
  0.000000000000000E+000
  0.000000000000000E+000
  0.000000000000000E+000
  0.000000000000000E+000
  0.000000000000000E+000
  0.000000000000000E+000
  0.000000000000000E+000
  0.000000000000000E+000
  0.000000000000000E+000
  0.000000000000000E+000
  0.000000000000000E+000
  0.000000000000000E+000
  0.000000000000000E+000
  0.000000000000000E+000
  0.000000000000000E+000
  0.000000000000000E+000
  0.000000000000000E+000
  0.000000000000000E+000
  0.000000000000000E+000
  0.000000000000000E+000
  0.000000000000000E+000
  0.000000000000000E+000
  0.000000000000000E+000
  0.000000000000000E+000
  0.000000000000000E+000
  0.000000000000000E+000
  0.000000000000000E+000
  0.000000000000000E+000
  0.000000000000000E+000
  0.000000000000000E+000
  0.000000000000000E+000
  0.000000000000000E+000
  0.000000000000000E+000
  0.000000000000000E+000
  0.000000000000000E+000
  0.000000000000000E+000
  0.000000000000000E+000
  0.000000000000000E+000
  0.000000000000000E+000
  0.000000000000000E+000
  0.000000000000000E+000
  0.000000000000000E+000
  0.000000000000000E+000
  0.000000000000000E+000
  0.000000000000000E+000
  0.000000000000000E+000
  0.000000000000000E+000
  0.000000000000000E+000
  0.000000000000000E+000
  0.000000000000000E+000
  0.000000000000000E+000
  0.000000000000000E+000
  0.000000000000000E+000
  0.000000000000000E+000
  0.000000000000000E+000
  0.000000000000000E+000
  0.000000000000000E+000
  0.000000000000000E+000
  0.000000000000000E+000
  0.000000000000000E+000
  0.000000000000000E+000
  0.000000000000000E+000
  0.000000000000000E+000
  0.000000000000000E+000
  0.000000000000000E+000
  0.000000000000000E+000
  0.000000000000000E+000
  0.000000000000000E+000
  0.000000000000000E+000
  0.000000000000000E+000
  0.000000000000000E+000
  0.000000000000000E+000
  0.000000000000000E+000
  0.000000000000000E+000
  0.000000000000000E+000
  0.000000000000000E+000
  0.000000000000000E+000
  0.000000000000000E+000
  0.000000000000000E+000
  0.000000000000000E+000
  0.000000000000000E+000
  0.000000000000000E+000
  0.000000000000000E+000
  0.000000000000000E+000
  0.000000000000000E+000
  0.000000000000000E+000
  0.000000000000000E+000
  0.000000000000000E+000
  0.000000000000000E+000
  0.000000000000000E+000
  0.000000000000000E+000
  0.000000000000000E+000
  0.000000000000000E+000
  0.000000000000000E+000
  0.000000000000000E+000
  0.000000000000000E+000
  0.000000000000000E+000
  0.000000000000000E+000
  0.000000000000000E+000
  0.000000000000000E+000
  0.000000000000000E+000
  0.000000000000000E+000
  0.000000000000000E+000
  0.000000000000000E+000
  0.000000000000000E+000
  0.000000000000000E+000
  0.000000000000000E+000
  0.000000000000000E+000
  0.000000000000000E+000
  0.000000000000000E+000
  0.000000000000000E+000
  0.000000000000000E+000
  0.000000000000000E+000
  0.000000000000000E+000
  0.000000000000000E+000
  0.000000000000000E+000
  0.000000000000000E+000
  0.000000000000000E+000
  0.000000000000000E+000
  0.000000000000000E+000
  0.000000000000000E+000
  0.000000000000000E+000
  0.000000000000000E+000
  0.000000000000000E+000
  0.000000000000000E+000
  0.000000000000000E+000
  0.000000000000000E+000
  0.000000000000000E+000
  0.000000000000000E+000
  0.000000000000000E+000
  0.000000000000000E+000
  0.000000000000000E+000
  0.000000000000000E+000
  0.000000000000000E+000
  0.000000000000000E+000
  0.000000000000000E+000
  0.000000000000000E+000
  0.000000000000000E+000
  0.000000000000000E+000
  0.000000000000000E+000
  0.000000000000000E+000
  0.000000000000000E+000
  0.000000000000000E+000
  0.000000000000000E+000
  0.000000000000000E+000
  0.000000000000000E+000
  0.000000000000000E+000
  0.000000000000000E+000
  0.000000000000000E+000
  0.000000000000000E+000
  0.000000000000000E+000
  0.000000000000000E+000
  0.000000000000000E+000
  0.000000000000000E+000
  0.000000000000000E+000
  0.000000000000000E+000
  0.000000000000000E+000
  0.000000000000000E+000
  0.000000000000000E+000
  0.000000000000000E+000
  0.000000000000000E+000
  0.000000000000000E+000
  0.000000000000000E+000
  0.000000000000000E+000
  0.000000000000000E+000
  0.000000000000000E+000
  0.000000000000000E+000
  0.000000000000000E+000
  0.000000000000000E+000
  0.000000000000000E+000
  0.000000000000000E+000
  0.000000000000000E+000
  0.000000000000000E+000
  0.000000000000000E+000
  0.000000000000000E+000
  0.000000000000000E+000
  0.000000000000000E+000
  0.000000000000000E+000
  0.000000000000000E+000
  0.000000000000000E+000
  0.000000000000000E+000
  0.000000000000000E+000
  0.000000000000000E+000
  0.000000000000000E+000
  0.000000000000000E+000
  0.000000000000000E+000
  0.000000000000000E+000
  0.000000000000000E+000
  0.000000000000000E+000
  0.000000000000000E+000
  0.000000000000000E+000
  0.000000000000000E+000
  0.000000000000000E+000
  0.000000000000000E+000
  0.000000000000000E+000
  0.000000000000000E+000
  0.000000000000000E+000
  0.000000000000000E+000
  0.000000000000000E+000
  0.000000000000000E+000
  0.000000000000000E+000
  0.000000000000000E+000
  0.000000000000000E+000
  0.000000000000000E+000
  0.000000000000000E+000
  0.000000000000000E+000
  0.000000000000000E+000
  0.000000000000000E+000
  0.000000000000000E+000
  0.000000000000000E+000
  0.000000000000000E+000
  0.000000000000000E+000
  0.000000000000000E+000
  0.000000000000000E+000
  0.000000000000000E+000
  0.000000000000000E+000
  0.000000000000000E+000
  0.000000000000000E+000
  0.000000000000000E+000
  0.000000000000000E+000
  0.000000000000000E+000
  0.000000000000000E+000
  0.000000000000000E+000
  0.000000000000000E+000
  0.000000000000000E+000
  0.000000000000000E+000
  0.000000000000000E+000
  0.000000000000000E+000
  0.000000000000000E+000
  0.000000000000000E+000
   1.00000000000000     
  0.000000000000000E+000
  0.000000000000000E+000
  0.000000000000000E+000
  0.000000000000000E+000
  0.000000000000000E+000
  0.000000000000000E+000
  0.000000000000000E+000
  0.000000000000000E+000
  0.000000000000000E+000
  0.000000000000000E+000
  0.000000000000000E+000
  0.000000000000000E+000
  0.000000000000000E+000
  0.000000000000000E+000
   1.00000000000000     
  0.000000000000000E+000
  0.000000000000000E+000
  0.000000000000000E+000
  0.000000000000000E+000
  0.000000000000000E+000
  0.000000000000000E+000
  0.000000000000000E+000
  0.000000000000000E+000
  0.000000000000000E+000
  0.000000000000000E+000
  0.000000000000000E+000
  0.000000000000000E+000
  0.000000000000000E+000
  0.000000000000000E+000
  0.000000000000000E+000
  0.000000000000000E+000
  0.000000000000000E+000
  0.000000000000000E+000
  0.000000000000000E+000
  0.000000000000000E+000
  0.000000000000000E+000
  0.000000000000000E+000
  0.000000000000000E+000
  0.000000000000000E+000
  0.000000000000000E+000
  0.000000000000000E+000
  0.000000000000000E+000
  0.000000000000000E+000
  0.000000000000000E+000
  0.000000000000000E+000
  0.000000000000000E+000
  0.000000000000000E+000
  0.000000000000000E+000
  0.000000000000000E+000
  0.000000000000000E+000
  0.000000000000000E+000
  0.000000000000000E+000
  0.000000000000000E+000
  0.000000000000000E+000
  0.000000000000000E+000
  0.000000000000000E+000
  0.000000000000000E+000
  0.000000000000000E+000
  0.000000000000000E+000
  0.000000000000000E+000
  0.000000000000000E+000
  0.000000000000000E+000
  0.000000000000000E+000
  0.000000000000000E+000
  0.000000000000000E+000
  0.000000000000000E+000
  0.000000000000000E+000
  0.000000000000000E+000
  0.000000000000000E+000
  0.000000000000000E+000
  0.000000000000000E+000
   1.00000000000000     
   1.00000000000000     
   1.00000000000000     
  0.000000000000000E+000
  0.000000000000000E+000
  0.000000000000000E+000
  0.000000000000000E+000
  0.000000000000000E+000
  0.000000000000000E+000
  0.000000000000000E+000
  0.000000000000000E+000
  0.000000000000000E+000
  0.000000000000000E+000
  0.000000000000000E+000
   1.00000000000000     
   1.00000000000000     
   1.00000000000000     
   1.00000000000000     
  0.000000000000000E+000
  0.000000000000000E+000
  0.000000000000000E+000
  0.000000000000000E+000
  0.000000000000000E+000
  0.000000000000000E+000
  0.000000000000000E+000
  0.000000000000000E+000
  0.000000000000000E+000
  0.000000000000000E+000
  0.000000000000000E+000
  0.000000000000000E+000
   1.00000000000000     
   1.00000000000000     
   1.00000000000000     
  0.000000000000000E+000
  0.000000000000000E+000
  0.000000000000000E+000
  0.000000000000000E+000
  0.000000000000000E+000
  0.000000000000000E+000
  0.000000000000000E+000
  0.000000000000000E+000
  0.000000000000000E+000
  0.000000000000000E+000
  0.000000000000000E+000
  0.000000000000000E+000
   1.00000000000000     
   1.00000000000000     
   1.00000000000000     
  0.000000000000000E+000
  0.000000000000000E+000
  0.000000000000000E+000
  0.000000000000000E+000
  0.000000000000000E+000
  0.000000000000000E+000
  0.000000000000000E+000
  0.000000000000000E+000
  0.000000000000000E+000
  0.000000000000000E+000
  0.000000000000000E+000
  0.000000000000000E+000
  0.000000000000000E+000
   1.00000000000000     
   1.00000000000000     
  0.000000000000000E+000
   1.00000000000000     
   1.00000000000000     
  0.000000000000000E+000
  0.000000000000000E+000
  0.000000000000000E+000
  0.000000000000000E+000
  0.000000000000000E+000
  0.000000000000000E+000
  0.000000000000000E+000
  0.000000000000000E+000
  0.000000000000000E+000
  0.000000000000000E+000
  0.000000000000000E+000
   1.00000000000000     
   1.00000000000000     
   1.00000000000000     
   1.00000000000000     
  0.000000000000000E+000
  0.000000000000000E+000
  0.000000000000000E+000
  0.000000000000000E+000
  0.000000000000000E+000
  0.000000000000000E+000
  0.000000000000000E+000
  0.000000000000000E+000
  0.000000000000000E+000
  0.000000000000000E+000
  0.000000000000000E+000
   1.00000000000000     
   1.00000000000000     
   1.00000000000000     
   1.00000000000000     
   1.00000000000000     
  0.000000000000000E+000
  0.000000000000000E+000
  0.000000000000000E+000
  0.000000000000000E+000
  0.000000000000000E+000
  0.000000000000000E+000
  0.000000000000000E+000
  0.000000000000000E+000
  0.000000000000000E+000
  0.000000000000000E+000
   1.00000000000000     
