# vtk DataFile Version 3.0
vtk output
ASCII
DATASET UNSTRUCTURED_GRID
POINTS       496 double 
  0.00000000E+00  3.00000000E+02  0.00000000E+00
  0.00000000E+00  2.80000000E+02  0.00000000E+00
  0.00000000E+00  2.60000000E+02  0.00000000E+00
  0.00000000E+00  2.40000000E+02  0.00000000E+00
  0.00000000E+00  2.20000000E+02  0.00000000E+00
  0.00000000E+00  2.00000000E+02  0.00000000E+00
  0.00000000E+00  1.80000000E+02  0.00000000E+00
  0.00000000E+00  1.60000000E+02  0.00000000E+00
  0.00000000E+00  1.40000000E+02  0.00000000E+00
  0.00000000E+00  1.20000000E+02  0.00000000E+00
  0.00000000E+00  1.00000000E+02  0.00000000E+00
  0.00000000E+00  8.00000000E+01  0.00000000E+00
  0.00000000E+00  6.00000000E+01  0.00000000E+00
  0.00000000E+00  4.00000000E+01  0.00000000E+00
  0.00000000E+00  2.00000000E+01  0.00000000E+00
  0.00000000E+00  4.99600361E-14  0.00000000E+00
  2.00000000E+01  3.00000000E+02  0.00000000E+00
  2.00000000E+01  2.80000000E+02  0.00000000E+00
  2.00000000E+01  2.60000000E+02  0.00000000E+00
  2.00000000E+01  2.40000000E+02  0.00000000E+00
  2.00000000E+01  2.20000000E+02  0.00000000E+00
  2.00000000E+01  2.00000000E+02  0.00000000E+00
  2.00000000E+01  1.80000000E+02  0.00000000E+00
  2.00000000E+01  1.60000000E+02  0.00000000E+00
  2.00000000E+01  1.40000000E+02  0.00000000E+00
  2.00000000E+01  1.20000000E+02  0.00000000E+00
  2.00000000E+01  1.00000000E+02  0.00000000E+00
  2.00000000E+01  8.00000000E+01  0.00000000E+00
  2.00000000E+01  6.00000000E+01  0.00000000E+00
  2.00000000E+01  4.00000000E+01  0.00000000E+00
  2.00000000E+01  2.00000000E+01  0.00000000E+00
  2.00000000E+01  4.99600361E-14  0.00000000E+00
  4.00000000E+01  3.00000000E+02  0.00000000E+00
  4.00000000E+01  2.80000000E+02  0.00000000E+00
  4.00000000E+01  2.60000000E+02  0.00000000E+00
  4.00000000E+01  2.40000000E+02  0.00000000E+00
  4.00000000E+01  2.20000000E+02  0.00000000E+00
  4.00000000E+01  2.00000000E+02  0.00000000E+00
  4.00000000E+01  1.80000000E+02  0.00000000E+00
  4.00000000E+01  1.60000000E+02  0.00000000E+00
  4.00000000E+01  1.40000000E+02  0.00000000E+00
  4.00000000E+01  1.20000000E+02  0.00000000E+00
  4.00000000E+01  1.00000000E+02  0.00000000E+00
  4.00000000E+01  8.00000000E+01  0.00000000E+00
  4.00000000E+01  6.00000000E+01  0.00000000E+00
  4.00000000E+01  4.00000000E+01  0.00000000E+00
  4.00000000E+01  2.00000000E+01  0.00000000E+00
  4.00000000E+01  4.99600361E-14  0.00000000E+00
  6.00000000E+01  3.00000000E+02  0.00000000E+00
  6.00000000E+01  2.80000000E+02  0.00000000E+00
  6.00000000E+01  2.60000000E+02  0.00000000E+00
  6.00000000E+01  2.40000000E+02  0.00000000E+00
  6.00000000E+01  2.20000000E+02  0.00000000E+00
  6.00000000E+01  2.00000000E+02  0.00000000E+00
  6.00000000E+01  1.80000000E+02  0.00000000E+00
  6.00000000E+01  1.60000000E+02  0.00000000E+00
  6.00000000E+01  1.40000000E+02  0.00000000E+00
  6.00000000E+01  1.20000000E+02  0.00000000E+00
  6.00000000E+01  1.00000000E+02  0.00000000E+00
  6.00000000E+01  8.00000000E+01  0.00000000E+00
  6.00000000E+01  6.00000000E+01  0.00000000E+00
  6.00000000E+01  4.00000000E+01  0.00000000E+00
  6.00000000E+01  2.00000000E+01  0.00000000E+00
  6.00000000E+01  4.99600361E-14  0.00000000E+00
  8.00000000E+01  3.00000000E+02  0.00000000E+00
  8.00000000E+01  2.80000000E+02  0.00000000E+00
  8.00000000E+01  2.60000000E+02  0.00000000E+00
  8.00000000E+01  2.40000000E+02  0.00000000E+00
  8.00000000E+01  2.20000000E+02  0.00000000E+00
  8.00000000E+01  2.00000000E+02  0.00000000E+00
  8.00000000E+01  1.80000000E+02  0.00000000E+00
  8.00000000E+01  1.60000000E+02  0.00000000E+00
  8.00000000E+01  1.40000000E+02  0.00000000E+00
  8.00000000E+01  1.20000000E+02  0.00000000E+00
  8.00000000E+01  1.00000000E+02  0.00000000E+00
  8.00000000E+01  8.00000000E+01  0.00000000E+00
  8.00000000E+01  6.00000000E+01  0.00000000E+00
  8.00000000E+01  4.00000000E+01  0.00000000E+00
  8.00000000E+01  2.00000000E+01  0.00000000E+00
  8.00000000E+01  4.99600361E-14  0.00000000E+00
  1.00000000E+02  3.00000000E+02  0.00000000E+00
  1.00000000E+02  2.80000000E+02  0.00000000E+00
  1.00000000E+02  2.60000000E+02  0.00000000E+00
  1.00000000E+02  2.40000000E+02  0.00000000E+00
  1.00000000E+02  2.20000000E+02  0.00000000E+00
  1.00000000E+02  2.00000000E+02  0.00000000E+00
  1.00000000E+02  1.80000000E+02  0.00000000E+00
  1.00000000E+02  1.60000000E+02  0.00000000E+00
  1.00000000E+02  1.40000000E+02  0.00000000E+00
  1.00000000E+02  1.20000000E+02  0.00000000E+00
  1.00000000E+02  1.00000000E+02  0.00000000E+00
  1.00000000E+02  8.00000000E+01  0.00000000E+00
  1.00000000E+02  6.00000000E+01  0.00000000E+00
  1.00000000E+02  4.00000000E+01  0.00000000E+00
  1.00000000E+02  2.00000000E+01  0.00000000E+00
  1.00000000E+02  4.99600361E-14  0.00000000E+00
  1.20000000E+02  3.00000000E+02  0.00000000E+00
  1.20000000E+02  2.80000000E+02  0.00000000E+00
  1.20000000E+02  2.60000000E+02  0.00000000E+00
  1.20000000E+02  2.40000000E+02  0.00000000E+00
  1.20000000E+02  2.20000000E+02  0.00000000E+00
  1.20000000E+02  2.00000000E+02  0.00000000E+00
  1.20000000E+02  1.80000000E+02  0.00000000E+00
  1.20000000E+02  1.60000000E+02  0.00000000E+00
  1.20000000E+02  1.40000000E+02  0.00000000E+00
  1.20000000E+02  1.20000000E+02  0.00000000E+00
  1.20000000E+02  1.00000000E+02  0.00000000E+00
  1.20000000E+02  8.00000000E+01  0.00000000E+00
  1.20000000E+02  6.00000000E+01  0.00000000E+00
  1.20000000E+02  4.00000000E+01  0.00000000E+00
  1.20000000E+02  2.00000000E+01  0.00000000E+00
  1.20000000E+02  4.99600361E-14  0.00000000E+00
  1.40000000E+02  3.00000000E+02  0.00000000E+00
  1.40000000E+02  2.80000000E+02  0.00000000E+00
  1.40000000E+02  2.60000000E+02  0.00000000E+00
  1.40000000E+02  2.40000000E+02  0.00000000E+00
  1.40000000E+02  2.20000000E+02  0.00000000E+00
  1.40000000E+02  2.00000000E+02  0.00000000E+00
  1.40000000E+02  1.80000000E+02  0.00000000E+00
  1.40000000E+02  1.60000000E+02  0.00000000E+00
  1.40000000E+02  1.40000000E+02  0.00000000E+00
  1.40000000E+02  1.20000000E+02  0.00000000E+00
  1.40000000E+02  1.00000000E+02  0.00000000E+00
  1.40000000E+02  8.00000000E+01  0.00000000E+00
  1.40000000E+02  6.00000000E+01  0.00000000E+00
  1.40000000E+02  4.00000000E+01  0.00000000E+00
  1.40000000E+02  2.00000000E+01  0.00000000E+00
  1.40000000E+02  4.99600361E-14  0.00000000E+00
  1.60000000E+02  3.00000000E+02  0.00000000E+00
  1.60000000E+02  2.80000000E+02  0.00000000E+00
  1.60000000E+02  2.60000000E+02  0.00000000E+00
  1.60000000E+02  2.40000000E+02  0.00000000E+00
  1.60000000E+02  2.20000000E+02  0.00000000E+00
  1.60000000E+02  2.00000000E+02  0.00000000E+00
  1.60000000E+02  1.80000000E+02  0.00000000E+00
  1.60000000E+02  1.60000000E+02  0.00000000E+00
  1.60000000E+02  1.40000000E+02  0.00000000E+00
  1.60000000E+02  1.20000000E+02  0.00000000E+00
  1.60000000E+02  1.00000000E+02  0.00000000E+00
  1.60000000E+02  8.00000000E+01  0.00000000E+00
  1.60000000E+02  6.00000000E+01  0.00000000E+00
  1.60000000E+02  4.00000000E+01  0.00000000E+00
  1.60000000E+02  2.00000000E+01  0.00000000E+00
  1.60000000E+02  4.99600361E-14  0.00000000E+00
  1.80000000E+02  3.00000000E+02  0.00000000E+00
  1.80000000E+02  2.80000000E+02  0.00000000E+00
  1.80000000E+02  2.60000000E+02  0.00000000E+00
  1.80000000E+02  2.40000000E+02  0.00000000E+00
  1.80000000E+02  2.20000000E+02  0.00000000E+00
  1.80000000E+02  2.00000000E+02  0.00000000E+00
  1.80000000E+02  1.80000000E+02  0.00000000E+00
  1.80000000E+02  1.60000000E+02  0.00000000E+00
  1.80000000E+02  1.40000000E+02  0.00000000E+00
  1.80000000E+02  1.20000000E+02  0.00000000E+00
  1.80000000E+02  1.00000000E+02  0.00000000E+00
  1.80000000E+02  8.00000000E+01  0.00000000E+00
  1.80000000E+02  6.00000000E+01  0.00000000E+00
  1.80000000E+02  4.00000000E+01  0.00000000E+00
  1.80000000E+02  2.00000000E+01  0.00000000E+00
  1.80000000E+02  4.99600361E-14  0.00000000E+00
  2.00000000E+02  3.00000000E+02  0.00000000E+00
  2.00000000E+02  2.80000000E+02  0.00000000E+00
  2.00000000E+02  2.60000000E+02  0.00000000E+00
  2.00000000E+02  2.40000000E+02  0.00000000E+00
  2.00000000E+02  2.20000000E+02  0.00000000E+00
  2.00000000E+02  2.00000000E+02  0.00000000E+00
  2.00000000E+02  1.80000000E+02  0.00000000E+00
  2.00000000E+02  1.60000000E+02  0.00000000E+00
  2.00000000E+02  1.40000000E+02  0.00000000E+00
  2.00000000E+02  1.20000000E+02  0.00000000E+00
  2.00000000E+02  1.00000000E+02  0.00000000E+00
  2.00000000E+02  8.00000000E+01  0.00000000E+00
  2.00000000E+02  6.00000000E+01  0.00000000E+00
  2.00000000E+02  4.00000000E+01  0.00000000E+00
  2.00000000E+02  2.00000000E+01  0.00000000E+00
  2.00000000E+02  4.99600361E-14  0.00000000E+00
  2.20000000E+02  3.00000000E+02  0.00000000E+00
  2.20000000E+02  2.80000000E+02  0.00000000E+00
  2.20000000E+02  2.60000000E+02  0.00000000E+00
  2.20000000E+02  2.40000000E+02  0.00000000E+00
  2.20000000E+02  2.20000000E+02  0.00000000E+00
  2.20000000E+02  2.00000000E+02  0.00000000E+00
  2.20000000E+02  1.80000000E+02  0.00000000E+00
  2.20000000E+02  1.60000000E+02  0.00000000E+00
  2.20000000E+02  1.40000000E+02  0.00000000E+00
  2.20000000E+02  1.20000000E+02  0.00000000E+00
  2.20000000E+02  1.00000000E+02  0.00000000E+00
  2.20000000E+02  8.00000000E+01  0.00000000E+00
  2.20000000E+02  6.00000000E+01  0.00000000E+00
  2.20000000E+02  4.00000000E+01  0.00000000E+00
  2.20000000E+02  2.00000000E+01  0.00000000E+00
  2.20000000E+02  4.99600361E-14  0.00000000E+00
  2.40000000E+02  3.00000000E+02  0.00000000E+00
  2.40000000E+02  2.80000000E+02  0.00000000E+00
  2.40000000E+02  2.60000000E+02  0.00000000E+00
  2.40000000E+02  2.40000000E+02  0.00000000E+00
  2.40000000E+02  2.20000000E+02  0.00000000E+00
  2.40000000E+02  2.00000000E+02  0.00000000E+00
  2.40000000E+02  1.80000000E+02  0.00000000E+00
  2.40000000E+02  1.60000000E+02  0.00000000E+00
  2.40000000E+02  1.40000000E+02  0.00000000E+00
  2.40000000E+02  1.20000000E+02  0.00000000E+00
  2.40000000E+02  1.00000000E+02  0.00000000E+00
  2.40000000E+02  8.00000000E+01  0.00000000E+00
  2.40000000E+02  6.00000000E+01  0.00000000E+00
  2.40000000E+02  4.00000000E+01  0.00000000E+00
  2.40000000E+02  2.00000000E+01  0.00000000E+00
  2.40000000E+02  4.99600361E-14  0.00000000E+00
  2.60000000E+02  3.00000000E+02  0.00000000E+00
  2.60000000E+02  2.80000000E+02  0.00000000E+00
  2.60000000E+02  2.60000000E+02  0.00000000E+00
  2.60000000E+02  2.40000000E+02  0.00000000E+00
  2.60000000E+02  2.20000000E+02  0.00000000E+00
  2.60000000E+02  2.00000000E+02  0.00000000E+00
  2.60000000E+02  1.80000000E+02  0.00000000E+00
  2.60000000E+02  1.60000000E+02  0.00000000E+00
  2.60000000E+02  1.40000000E+02  0.00000000E+00
  2.60000000E+02  1.20000000E+02  0.00000000E+00
  2.60000000E+02  1.00000000E+02  0.00000000E+00
  2.60000000E+02  8.00000000E+01  0.00000000E+00
  2.60000000E+02  6.00000000E+01  0.00000000E+00
  2.60000000E+02  4.00000000E+01  0.00000000E+00
  2.60000000E+02  2.00000000E+01  0.00000000E+00
  2.60000000E+02  4.99600361E-14  0.00000000E+00
  2.80000000E+02  3.00000000E+02  0.00000000E+00
  2.80000000E+02  2.80000000E+02  0.00000000E+00
  2.80000000E+02  2.60000000E+02  0.00000000E+00
  2.80000000E+02  2.40000000E+02  0.00000000E+00
  2.80000000E+02  2.20000000E+02  0.00000000E+00
  2.80000000E+02  2.00000000E+02  0.00000000E+00
  2.80000000E+02  1.80000000E+02  0.00000000E+00
  2.80000000E+02  1.60000000E+02  0.00000000E+00
  2.80000000E+02  1.40000000E+02  0.00000000E+00
  2.80000000E+02  1.20000000E+02  0.00000000E+00
  2.80000000E+02  1.00000000E+02  0.00000000E+00
  2.80000000E+02  8.00000000E+01  0.00000000E+00
  2.80000000E+02  6.00000000E+01  0.00000000E+00
  2.80000000E+02  4.00000000E+01  0.00000000E+00
  2.80000000E+02  2.00000000E+01  0.00000000E+00
  2.80000000E+02  4.99600361E-14  0.00000000E+00
  3.00000000E+02  3.00000000E+02  0.00000000E+00
  3.00000000E+02  2.80000000E+02  0.00000000E+00
  3.00000000E+02  2.60000000E+02  0.00000000E+00
  3.00000000E+02  2.40000000E+02  0.00000000E+00
  3.00000000E+02  2.20000000E+02  0.00000000E+00
  3.00000000E+02  2.00000000E+02  0.00000000E+00
  3.00000000E+02  1.80000000E+02  0.00000000E+00
  3.00000000E+02  1.60000000E+02  0.00000000E+00
  3.00000000E+02  1.40000000E+02  0.00000000E+00
  3.00000000E+02  1.20000000E+02  0.00000000E+00
  3.00000000E+02  1.00000000E+02  0.00000000E+00
  3.00000000E+02  8.00000000E+01  0.00000000E+00
  3.00000000E+02  6.00000000E+01  0.00000000E+00
  3.00000000E+02  4.00000000E+01  0.00000000E+00
  3.00000000E+02  2.00000000E+01  0.00000000E+00
  3.00000000E+02  4.99600361E-14  0.00000000E+00
  3.20000000E+02  3.00000000E+02  0.00000000E+00
  3.20000000E+02  2.80000000E+02  0.00000000E+00
  3.20000000E+02  2.60000000E+02  0.00000000E+00
  3.20000000E+02  2.40000000E+02  0.00000000E+00
  3.20000000E+02  2.20000000E+02  0.00000000E+00
  3.20000000E+02  2.00000000E+02  0.00000000E+00
  3.20000000E+02  1.80000000E+02  0.00000000E+00
  3.20000000E+02  1.60000000E+02  0.00000000E+00
  3.20000000E+02  1.40000000E+02  0.00000000E+00
  3.20000000E+02  1.20000000E+02  0.00000000E+00
  3.20000000E+02  1.00000000E+02  0.00000000E+00
  3.20000000E+02  8.00000000E+01  0.00000000E+00
  3.20000000E+02  6.00000000E+01  0.00000000E+00
  3.20000000E+02  4.00000000E+01  0.00000000E+00
  3.20000000E+02  2.00000000E+01  0.00000000E+00
  3.20000000E+02  4.99600361E-14  0.00000000E+00
  3.40000000E+02  3.00000000E+02  0.00000000E+00
  3.40000000E+02  2.80000000E+02  0.00000000E+00
  3.40000000E+02  2.60000000E+02  0.00000000E+00
  3.40000000E+02  2.40000000E+02  0.00000000E+00
  3.40000000E+02  2.20000000E+02  0.00000000E+00
  3.40000000E+02  2.00000000E+02  0.00000000E+00
  3.40000000E+02  1.80000000E+02  0.00000000E+00
  3.40000000E+02  1.60000000E+02  0.00000000E+00
  3.40000000E+02  1.40000000E+02  0.00000000E+00
  3.40000000E+02  1.20000000E+02  0.00000000E+00
  3.40000000E+02  1.00000000E+02  0.00000000E+00
  3.40000000E+02  8.00000000E+01  0.00000000E+00
  3.40000000E+02  6.00000000E+01  0.00000000E+00
  3.40000000E+02  4.00000000E+01  0.00000000E+00
  3.40000000E+02  2.00000000E+01  0.00000000E+00
  3.40000000E+02  4.99600361E-14  0.00000000E+00
  3.60000000E+02  3.00000000E+02  0.00000000E+00
  3.60000000E+02  2.80000000E+02  0.00000000E+00
  3.60000000E+02  2.60000000E+02  0.00000000E+00
  3.60000000E+02  2.40000000E+02  0.00000000E+00
  3.60000000E+02  2.20000000E+02  0.00000000E+00
  3.60000000E+02  2.00000000E+02  0.00000000E+00
  3.60000000E+02  1.80000000E+02  0.00000000E+00
  3.60000000E+02  1.60000000E+02  0.00000000E+00
  3.60000000E+02  1.40000000E+02  0.00000000E+00
  3.60000000E+02  1.20000000E+02  0.00000000E+00
  3.60000000E+02  1.00000000E+02  0.00000000E+00
  3.60000000E+02  8.00000000E+01  0.00000000E+00
  3.60000000E+02  6.00000000E+01  0.00000000E+00
  3.60000000E+02  4.00000000E+01  0.00000000E+00
  3.60000000E+02  2.00000000E+01  0.00000000E+00
  3.60000000E+02  4.99600361E-14  0.00000000E+00
  3.80000000E+02  3.00000000E+02  0.00000000E+00
  3.80000000E+02  2.80000000E+02  0.00000000E+00
  3.80000000E+02  2.60000000E+02  0.00000000E+00
  3.80000000E+02  2.40000000E+02  0.00000000E+00
  3.80000000E+02  2.20000000E+02  0.00000000E+00
  3.80000000E+02  2.00000000E+02  0.00000000E+00
  3.80000000E+02  1.80000000E+02  0.00000000E+00
  3.80000000E+02  1.60000000E+02  0.00000000E+00
  3.80000000E+02  1.40000000E+02  0.00000000E+00
  3.80000000E+02  1.20000000E+02  0.00000000E+00
  3.80000000E+02  1.00000000E+02  0.00000000E+00
  3.80000000E+02  8.00000000E+01  0.00000000E+00
  3.80000000E+02  6.00000000E+01  0.00000000E+00
  3.80000000E+02  4.00000000E+01  0.00000000E+00
  3.80000000E+02  2.00000000E+01  0.00000000E+00
  3.80000000E+02  4.99600361E-14  0.00000000E+00
  4.00000000E+02  3.00000000E+02  0.00000000E+00
  4.00000000E+02  2.80000000E+02  0.00000000E+00
  4.00000000E+02  2.60000000E+02  0.00000000E+00
  4.00000000E+02  2.40000000E+02  0.00000000E+00
  4.00000000E+02  2.20000000E+02  0.00000000E+00
  4.00000000E+02  2.00000000E+02  0.00000000E+00
  4.00000000E+02  1.80000000E+02  0.00000000E+00
  4.00000000E+02  1.60000000E+02  0.00000000E+00
  4.00000000E+02  1.40000000E+02  0.00000000E+00
  4.00000000E+02  1.20000000E+02  0.00000000E+00
  4.00000000E+02  1.00000000E+02  0.00000000E+00
  4.00000000E+02  8.00000000E+01  0.00000000E+00
  4.00000000E+02  6.00000000E+01  0.00000000E+00
  4.00000000E+02  4.00000000E+01  0.00000000E+00
  4.00000000E+02  2.00000000E+01  0.00000000E+00
  4.00000000E+02  4.99600361E-14  0.00000000E+00
  4.20000000E+02  3.00000000E+02  0.00000000E+00
  4.20000000E+02  2.80000000E+02  0.00000000E+00
  4.20000000E+02  2.60000000E+02  0.00000000E+00
  4.20000000E+02  2.40000000E+02  0.00000000E+00
  4.20000000E+02  2.20000000E+02  0.00000000E+00
  4.20000000E+02  2.00000000E+02  0.00000000E+00
  4.20000000E+02  1.80000000E+02  0.00000000E+00
  4.20000000E+02  1.60000000E+02  0.00000000E+00
  4.20000000E+02  1.40000000E+02  0.00000000E+00
  4.20000000E+02  1.20000000E+02  0.00000000E+00
  4.20000000E+02  1.00000000E+02  0.00000000E+00
  4.20000000E+02  8.00000000E+01  0.00000000E+00
  4.20000000E+02  6.00000000E+01  0.00000000E+00
  4.20000000E+02  4.00000000E+01  0.00000000E+00
  4.20000000E+02  2.00000000E+01  0.00000000E+00
  4.20000000E+02  4.99600361E-14  0.00000000E+00
  4.40000000E+02  3.00000000E+02  0.00000000E+00
  4.40000000E+02  2.80000000E+02  0.00000000E+00
  4.40000000E+02  2.60000000E+02  0.00000000E+00
  4.40000000E+02  2.40000000E+02  0.00000000E+00
  4.40000000E+02  2.20000000E+02  0.00000000E+00
  4.40000000E+02  2.00000000E+02  0.00000000E+00
  4.40000000E+02  1.80000000E+02  0.00000000E+00
  4.40000000E+02  1.60000000E+02  0.00000000E+00
  4.40000000E+02  1.40000000E+02  0.00000000E+00
  4.40000000E+02  1.20000000E+02  0.00000000E+00
  4.40000000E+02  1.00000000E+02  0.00000000E+00
  4.40000000E+02  8.00000000E+01  0.00000000E+00
  4.40000000E+02  6.00000000E+01  0.00000000E+00
  4.40000000E+02  4.00000000E+01  0.00000000E+00
  4.40000000E+02  2.00000000E+01  0.00000000E+00
  4.40000000E+02  4.99600361E-14  0.00000000E+00
  4.60000000E+02  3.00000000E+02  0.00000000E+00
  4.60000000E+02  2.80000000E+02  0.00000000E+00
  4.60000000E+02  2.60000000E+02  0.00000000E+00
  4.60000000E+02  2.40000000E+02  0.00000000E+00
  4.60000000E+02  2.20000000E+02  0.00000000E+00
  4.60000000E+02  2.00000000E+02  0.00000000E+00
  4.60000000E+02  1.80000000E+02  0.00000000E+00
  4.60000000E+02  1.60000000E+02  0.00000000E+00
  4.60000000E+02  1.40000000E+02  0.00000000E+00
  4.60000000E+02  1.20000000E+02  0.00000000E+00
  4.60000000E+02  1.00000000E+02  0.00000000E+00
  4.60000000E+02  8.00000000E+01  0.00000000E+00
  4.60000000E+02  6.00000000E+01  0.00000000E+00
  4.60000000E+02  4.00000000E+01  0.00000000E+00
  4.60000000E+02  2.00000000E+01  0.00000000E+00
  4.60000000E+02  4.99600361E-14  0.00000000E+00
  4.80000000E+02  3.00000000E+02  0.00000000E+00
  4.80000000E+02  2.80000000E+02  0.00000000E+00
  4.80000000E+02  2.60000000E+02  0.00000000E+00
  4.80000000E+02  2.40000000E+02  0.00000000E+00
  4.80000000E+02  2.20000000E+02  0.00000000E+00
  4.80000000E+02  2.00000000E+02  0.00000000E+00
  4.80000000E+02  1.80000000E+02  0.00000000E+00
  4.80000000E+02  1.60000000E+02  0.00000000E+00
  4.80000000E+02  1.40000000E+02  0.00000000E+00
  4.80000000E+02  1.20000000E+02  0.00000000E+00
  4.80000000E+02  1.00000000E+02  0.00000000E+00
  4.80000000E+02  8.00000000E+01  0.00000000E+00
  4.80000000E+02  6.00000000E+01  0.00000000E+00
  4.80000000E+02  4.00000000E+01  0.00000000E+00
  4.80000000E+02  2.00000000E+01  0.00000000E+00
  4.80000000E+02  4.99600361E-14  0.00000000E+00
  5.00000000E+02  3.00000000E+02  0.00000000E+00
  5.00000000E+02  2.80000000E+02  0.00000000E+00
  5.00000000E+02  2.60000000E+02  0.00000000E+00
  5.00000000E+02  2.40000000E+02  0.00000000E+00
  5.00000000E+02  2.20000000E+02  0.00000000E+00
  5.00000000E+02  2.00000000E+02  0.00000000E+00
  5.00000000E+02  1.80000000E+02  0.00000000E+00
  5.00000000E+02  1.60000000E+02  0.00000000E+00
  5.00000000E+02  1.40000000E+02  0.00000000E+00
  5.00000000E+02  1.20000000E+02  0.00000000E+00
  5.00000000E+02  1.00000000E+02  0.00000000E+00
  5.00000000E+02  8.00000000E+01  0.00000000E+00
  5.00000000E+02  6.00000000E+01  0.00000000E+00
  5.00000000E+02  4.00000000E+01  0.00000000E+00
  5.00000000E+02  2.00000000E+01  0.00000000E+00
  5.00000000E+02  4.99600361E-14  0.00000000E+00
  5.20000000E+02  3.00000000E+02  0.00000000E+00
  5.20000000E+02  2.80000000E+02  0.00000000E+00
  5.20000000E+02  2.60000000E+02  0.00000000E+00
  5.20000000E+02  2.40000000E+02  0.00000000E+00
  5.20000000E+02  2.20000000E+02  0.00000000E+00
  5.20000000E+02  2.00000000E+02  0.00000000E+00
  5.20000000E+02  1.80000000E+02  0.00000000E+00
  5.20000000E+02  1.60000000E+02  0.00000000E+00
  5.20000000E+02  1.40000000E+02  0.00000000E+00
  5.20000000E+02  1.20000000E+02  0.00000000E+00
  5.20000000E+02  1.00000000E+02  0.00000000E+00
  5.20000000E+02  8.00000000E+01  0.00000000E+00
  5.20000000E+02  6.00000000E+01  0.00000000E+00
  5.20000000E+02  4.00000000E+01  0.00000000E+00
  5.20000000E+02  2.00000000E+01  0.00000000E+00
  5.20000000E+02  4.99600361E-14  0.00000000E+00
  5.40000000E+02  3.00000000E+02  0.00000000E+00
  5.40000000E+02  2.80000000E+02  0.00000000E+00
  5.40000000E+02  2.60000000E+02  0.00000000E+00
  5.40000000E+02  2.40000000E+02  0.00000000E+00
  5.40000000E+02  2.20000000E+02  0.00000000E+00
  5.40000000E+02  2.00000000E+02  0.00000000E+00
  5.40000000E+02  1.80000000E+02  0.00000000E+00
  5.40000000E+02  1.60000000E+02  0.00000000E+00
  5.40000000E+02  1.40000000E+02  0.00000000E+00
  5.40000000E+02  1.20000000E+02  0.00000000E+00
  5.40000000E+02  1.00000000E+02  0.00000000E+00
  5.40000000E+02  8.00000000E+01  0.00000000E+00
  5.40000000E+02  6.00000000E+01  0.00000000E+00
  5.40000000E+02  4.00000000E+01  0.00000000E+00
  5.40000000E+02  2.00000000E+01  0.00000000E+00
  5.40000000E+02  4.99600361E-14  0.00000000E+00
  5.60000000E+02  3.00000000E+02  0.00000000E+00
  5.60000000E+02  2.80000000E+02  0.00000000E+00
  5.60000000E+02  2.60000000E+02  0.00000000E+00
  5.60000000E+02  2.40000000E+02  0.00000000E+00
  5.60000000E+02  2.20000000E+02  0.00000000E+00
  5.60000000E+02  2.00000000E+02  0.00000000E+00
  5.60000000E+02  1.80000000E+02  0.00000000E+00
  5.60000000E+02  1.60000000E+02  0.00000000E+00
  5.60000000E+02  1.40000000E+02  0.00000000E+00
  5.60000000E+02  1.20000000E+02  0.00000000E+00
  5.60000000E+02  1.00000000E+02  0.00000000E+00
  5.60000000E+02  8.00000000E+01  0.00000000E+00
  5.60000000E+02  6.00000000E+01  0.00000000E+00
  5.60000000E+02  4.00000000E+01  0.00000000E+00
  5.60000000E+02  2.00000000E+01  0.00000000E+00
  5.60000000E+02  4.99600361E-14  0.00000000E+00
  5.80000000E+02  3.00000000E+02  0.00000000E+00
  5.80000000E+02  2.80000000E+02  0.00000000E+00
  5.80000000E+02  2.60000000E+02  0.00000000E+00
  5.80000000E+02  2.40000000E+02  0.00000000E+00
  5.80000000E+02  2.20000000E+02  0.00000000E+00
  5.80000000E+02  2.00000000E+02  0.00000000E+00
  5.80000000E+02  1.80000000E+02  0.00000000E+00
  5.80000000E+02  1.60000000E+02  0.00000000E+00
  5.80000000E+02  1.40000000E+02  0.00000000E+00
  5.80000000E+02  1.20000000E+02  0.00000000E+00
  5.80000000E+02  1.00000000E+02  0.00000000E+00
  5.80000000E+02  8.00000000E+01  0.00000000E+00
  5.80000000E+02  6.00000000E+01  0.00000000E+00
  5.80000000E+02  4.00000000E+01  0.00000000E+00
  5.80000000E+02  2.00000000E+01  0.00000000E+00
  5.80000000E+02  4.99600361E-14  0.00000000E+00
  6.00000000E+02  3.00000000E+02  0.00000000E+00
  6.00000000E+02  2.80000000E+02  0.00000000E+00
  6.00000000E+02  2.60000000E+02  0.00000000E+00
  6.00000000E+02  2.40000000E+02  0.00000000E+00
  6.00000000E+02  2.20000000E+02  0.00000000E+00
  6.00000000E+02  2.00000000E+02  0.00000000E+00
  6.00000000E+02  1.80000000E+02  0.00000000E+00
  6.00000000E+02  1.60000000E+02  0.00000000E+00
  6.00000000E+02  1.40000000E+02  0.00000000E+00
  6.00000000E+02  1.20000000E+02  0.00000000E+00
  6.00000000E+02  1.00000000E+02  0.00000000E+00
  6.00000000E+02  8.00000000E+01  0.00000000E+00
  6.00000000E+02  6.00000000E+01  0.00000000E+00
  6.00000000E+02  4.00000000E+01  0.00000000E+00
  6.00000000E+02  2.00000000E+01  0.00000000E+00
  6.00000000E+02  4.99600361E-14  0.00000000E+00
CELLS       450      2250
         4           0           1          17          16
         4           1           2          18          17
         4           2           3          19          18
         4           3           4          20          19
         4           4           5          21          20
         4           5           6          22          21
         4           6           7          23          22
         4           7           8          24          23
         4           8           9          25          24
         4           9          10          26          25
         4          10          11          27          26
         4          11          12          28          27
         4          12          13          29          28
         4          13          14          30          29
         4          14          15          31          30
         4          16          17          33          32
         4          17          18          34          33
         4          18          19          35          34
         4          19          20          36          35
         4          20          21          37          36
         4          21          22          38          37
         4          22          23          39          38
         4          23          24          40          39
         4          24          25          41          40
         4          25          26          42          41
         4          26          27          43          42
         4          27          28          44          43
         4          28          29          45          44
         4          29          30          46          45
         4          30          31          47          46
         4          32          33          49          48
         4          33          34          50          49
         4          34          35          51          50
         4          35          36          52          51
         4          36          37          53          52
         4          37          38          54          53
         4          38          39          55          54
         4          39          40          56          55
         4          40          41          57          56
         4          41          42          58          57
         4          42          43          59          58
         4          43          44          60          59
         4          44          45          61          60
         4          45          46          62          61
         4          46          47          63          62
         4          48          49          65          64
         4          49          50          66          65
         4          50          51          67          66
         4          51          52          68          67
         4          52          53          69          68
         4          53          54          70          69
         4          54          55          71          70
         4          55          56          72          71
         4          56          57          73          72
         4          57          58          74          73
         4          58          59          75          74
         4          59          60          76          75
         4          60          61          77          76
         4          61          62          78          77
         4          62          63          79          78
         4          64          65          81          80
         4          65          66          82          81
         4          66          67          83          82
         4          67          68          84          83
         4          68          69          85          84
         4          69          70          86          85
         4          70          71          87          86
         4          71          72          88          87
         4          72          73          89          88
         4          73          74          90          89
         4          74          75          91          90
         4          75          76          92          91
         4          76          77          93          92
         4          77          78          94          93
         4          78          79          95          94
         4          80          81          97          96
         4          81          82          98          97
         4          82          83          99          98
         4          83          84         100          99
         4          84          85         101         100
         4          85          86         102         101
         4          86          87         103         102
         4          87          88         104         103
         4          88          89         105         104
         4          89          90         106         105
         4          90          91         107         106
         4          91          92         108         107
         4          92          93         109         108
         4          93          94         110         109
         4          94          95         111         110
         4          96          97         113         112
         4          97          98         114         113
         4          98          99         115         114
         4          99         100         116         115
         4         100         101         117         116
         4         101         102         118         117
         4         102         103         119         118
         4         103         104         120         119
         4         104         105         121         120
         4         105         106         122         121
         4         106         107         123         122
         4         107         108         124         123
         4         108         109         125         124
         4         109         110         126         125
         4         110         111         127         126
         4         112         113         129         128
         4         113         114         130         129
         4         114         115         131         130
         4         115         116         132         131
         4         116         117         133         132
         4         117         118         134         133
         4         118         119         135         134
         4         119         120         136         135
         4         120         121         137         136
         4         121         122         138         137
         4         122         123         139         138
         4         123         124         140         139
         4         124         125         141         140
         4         125         126         142         141
         4         126         127         143         142
         4         128         129         145         144
         4         129         130         146         145
         4         130         131         147         146
         4         131         132         148         147
         4         132         133         149         148
         4         133         134         150         149
         4         134         135         151         150
         4         135         136         152         151
         4         136         137         153         152
         4         137         138         154         153
         4         138         139         155         154
         4         139         140         156         155
         4         140         141         157         156
         4         141         142         158         157
         4         142         143         159         158
         4         144         145         161         160
         4         145         146         162         161
         4         146         147         163         162
         4         147         148         164         163
         4         148         149         165         164
         4         149         150         166         165
         4         150         151         167         166
         4         151         152         168         167
         4         152         153         169         168
         4         153         154         170         169
         4         154         155         171         170
         4         155         156         172         171
         4         156         157         173         172
         4         157         158         174         173
         4         158         159         175         174
         4         160         161         177         176
         4         161         162         178         177
         4         162         163         179         178
         4         163         164         180         179
         4         164         165         181         180
         4         165         166         182         181
         4         166         167         183         182
         4         167         168         184         183
         4         168         169         185         184
         4         169         170         186         185
         4         170         171         187         186
         4         171         172         188         187
         4         172         173         189         188
         4         173         174         190         189
         4         174         175         191         190
         4         176         177         193         192
         4         177         178         194         193
         4         178         179         195         194
         4         179         180         196         195
         4         180         181         197         196
         4         181         182         198         197
         4         182         183         199         198
         4         183         184         200         199
         4         184         185         201         200
         4         185         186         202         201
         4         186         187         203         202
         4         187         188         204         203
         4         188         189         205         204
         4         189         190         206         205
         4         190         191         207         206
         4         192         193         209         208
         4         193         194         210         209
         4         194         195         211         210
         4         195         196         212         211
         4         196         197         213         212
         4         197         198         214         213
         4         198         199         215         214
         4         199         200         216         215
         4         200         201         217         216
         4         201         202         218         217
         4         202         203         219         218
         4         203         204         220         219
         4         204         205         221         220
         4         205         206         222         221
         4         206         207         223         222
         4         208         209         225         224
         4         209         210         226         225
         4         210         211         227         226
         4         211         212         228         227
         4         212         213         229         228
         4         213         214         230         229
         4         214         215         231         230
         4         215         216         232         231
         4         216         217         233         232
         4         217         218         234         233
         4         218         219         235         234
         4         219         220         236         235
         4         220         221         237         236
         4         221         222         238         237
         4         222         223         239         238
         4         224         225         241         240
         4         225         226         242         241
         4         226         227         243         242
         4         227         228         244         243
         4         228         229         245         244
         4         229         230         246         245
         4         230         231         247         246
         4         231         232         248         247
         4         232         233         249         248
         4         233         234         250         249
         4         234         235         251         250
         4         235         236         252         251
         4         236         237         253         252
         4         237         238         254         253
         4         238         239         255         254
         4         240         241         257         256
         4         241         242         258         257
         4         242         243         259         258
         4         243         244         260         259
         4         244         245         261         260
         4         245         246         262         261
         4         246         247         263         262
         4         247         248         264         263
         4         248         249         265         264
         4         249         250         266         265
         4         250         251         267         266
         4         251         252         268         267
         4         252         253         269         268
         4         253         254         270         269
         4         254         255         271         270
         4         256         257         273         272
         4         257         258         274         273
         4         258         259         275         274
         4         259         260         276         275
         4         260         261         277         276
         4         261         262         278         277
         4         262         263         279         278
         4         263         264         280         279
         4         264         265         281         280
         4         265         266         282         281
         4         266         267         283         282
         4         267         268         284         283
         4         268         269         285         284
         4         269         270         286         285
         4         270         271         287         286
         4         272         273         289         288
         4         273         274         290         289
         4         274         275         291         290
         4         275         276         292         291
         4         276         277         293         292
         4         277         278         294         293
         4         278         279         295         294
         4         279         280         296         295
         4         280         281         297         296
         4         281         282         298         297
         4         282         283         299         298
         4         283         284         300         299
         4         284         285         301         300
         4         285         286         302         301
         4         286         287         303         302
         4         288         289         305         304
         4         289         290         306         305
         4         290         291         307         306
         4         291         292         308         307
         4         292         293         309         308
         4         293         294         310         309
         4         294         295         311         310
         4         295         296         312         311
         4         296         297         313         312
         4         297         298         314         313
         4         298         299         315         314
         4         299         300         316         315
         4         300         301         317         316
         4         301         302         318         317
         4         302         303         319         318
         4         304         305         321         320
         4         305         306         322         321
         4         306         307         323         322
         4         307         308         324         323
         4         308         309         325         324
         4         309         310         326         325
         4         310         311         327         326
         4         311         312         328         327
         4         312         313         329         328
         4         313         314         330         329
         4         314         315         331         330
         4         315         316         332         331
         4         316         317         333         332
         4         317         318         334         333
         4         318         319         335         334
         4         320         321         337         336
         4         321         322         338         337
         4         322         323         339         338
         4         323         324         340         339
         4         324         325         341         340
         4         325         326         342         341
         4         326         327         343         342
         4         327         328         344         343
         4         328         329         345         344
         4         329         330         346         345
         4         330         331         347         346
         4         331         332         348         347
         4         332         333         349         348
         4         333         334         350         349
         4         334         335         351         350
         4         336         337         353         352
         4         337         338         354         353
         4         338         339         355         354
         4         339         340         356         355
         4         340         341         357         356
         4         341         342         358         357
         4         342         343         359         358
         4         343         344         360         359
         4         344         345         361         360
         4         345         346         362         361
         4         346         347         363         362
         4         347         348         364         363
         4         348         349         365         364
         4         349         350         366         365
         4         350         351         367         366
         4         352         353         369         368
         4         353         354         370         369
         4         354         355         371         370
         4         355         356         372         371
         4         356         357         373         372
         4         357         358         374         373
         4         358         359         375         374
         4         359         360         376         375
         4         360         361         377         376
         4         361         362         378         377
         4         362         363         379         378
         4         363         364         380         379
         4         364         365         381         380
         4         365         366         382         381
         4         366         367         383         382
         4         368         369         385         384
         4         369         370         386         385
         4         370         371         387         386
         4         371         372         388         387
         4         372         373         389         388
         4         373         374         390         389
         4         374         375         391         390
         4         375         376         392         391
         4         376         377         393         392
         4         377         378         394         393
         4         378         379         395         394
         4         379         380         396         395
         4         380         381         397         396
         4         381         382         398         397
         4         382         383         399         398
         4         384         385         401         400
         4         385         386         402         401
         4         386         387         403         402
         4         387         388         404         403
         4         388         389         405         404
         4         389         390         406         405
         4         390         391         407         406
         4         391         392         408         407
         4         392         393         409         408
         4         393         394         410         409
         4         394         395         411         410
         4         395         396         412         411
         4         396         397         413         412
         4         397         398         414         413
         4         398         399         415         414
         4         400         401         417         416
         4         401         402         418         417
         4         402         403         419         418
         4         403         404         420         419
         4         404         405         421         420
         4         405         406         422         421
         4         406         407         423         422
         4         407         408         424         423
         4         408         409         425         424
         4         409         410         426         425
         4         410         411         427         426
         4         411         412         428         427
         4         412         413         429         428
         4         413         414         430         429
         4         414         415         431         430
         4         416         417         433         432
         4         417         418         434         433
         4         418         419         435         434
         4         419         420         436         435
         4         420         421         437         436
         4         421         422         438         437
         4         422         423         439         438
         4         423         424         440         439
         4         424         425         441         440
         4         425         426         442         441
         4         426         427         443         442
         4         427         428         444         443
         4         428         429         445         444
         4         429         430         446         445
         4         430         431         447         446
         4         432         433         449         448
         4         433         434         450         449
         4         434         435         451         450
         4         435         436         452         451
         4         436         437         453         452
         4         437         438         454         453
         4         438         439         455         454
         4         439         440         456         455
         4         440         441         457         456
         4         441         442         458         457
         4         442         443         459         458
         4         443         444         460         459
         4         444         445         461         460
         4         445         446         462         461
         4         446         447         463         462
         4         448         449         465         464
         4         449         450         466         465
         4         450         451         467         466
         4         451         452         468         467
         4         452         453         469         468
         4         453         454         470         469
         4         454         455         471         470
         4         455         456         472         471
         4         456         457         473         472
         4         457         458         474         473
         4         458         459         475         474
         4         459         460         476         475
         4         460         461         477         476
         4         461         462         478         477
         4         462         463         479         478
         4         464         465         481         480
         4         465         466         482         481
         4         466         467         483         482
         4         467         468         484         483
         4         468         469         485         484
         4         469         470         486         485
         4         470         471         487         486
         4         471         472         488         487
         4         472         473         489         488
         4         473         474         490         489
         4         474         475         491         490
         4         475         476         492         491
         4         476         477         493         492
         4         477         478         494         493
         4         478         479         495         494
CELL_TYPES        450
9
9
9
9
9
9
9
9
9
9
9
9
9
9
9
9
9
9
9
9
9
9
9
9
9
9
9
9
9
9
9
9
9
9
9
9
9
9
9
9
9
9
9
9
9
9
9
9
9
9
9
9
9
9
9
9
9
9
9
9
9
9
9
9
9
9
9
9
9
9
9
9
9
9
9
9
9
9
9
9
9
9
9
9
9
9
9
9
9
9
9
9
9
9
9
9
9
9
9
9
9
9
9
9
9
9
9
9
9
9
9
9
9
9
9
9
9
9
9
9
9
9
9
9
9
9
9
9
9
9
9
9
9
9
9
9
9
9
9
9
9
9
9
9
9
9
9
9
9
9
9
9
9
9
9
9
9
9
9
9
9
9
9
9
9
9
9
9
9
9
9
9
9
9
9
9
9
9
9
9
9
9
9
9
9
9
9
9
9
9
9
9
9
9
9
9
9
9
9
9
9
9
9
9
9
9
9
9
9
9
9
9
9
9
9
9
9
9
9
9
9
9
9
9
9
9
9
9
9
9
9
9
9
9
9
9
9
9
9
9
9
9
9
9
9
9
9
9
9
9
9
9
9
9
9
9
9
9
9
9
9
9
9
9
9
9
9
9
9
9
9
9
9
9
9
9
9
9
9
9
9
9
9
9
9
9
9
9
9
9
9
9
9
9
9
9
9
9
9
9
9
9
9
9
9
9
9
9
9
9
9
9
9
9
9
9
9
9
9
9
9
9
9
9
9
9
9
9
9
9
9
9
9
9
9
9
9
9
9
9
9
9
9
9
9
9
9
9
9
9
9
9
9
9
9
9
9
9
9
9
9
9
9
9
9
9
9
9
9
9
9
9
9
9
9
9
9
9
9
9
9
9
9
9
9
9
9
9
9
9
9
9
9
9
9
9
9
9
9
9
9
9
9
9
9
9
9
9
9
9
9
9
9
9
9
9
9
9
9
9
9
9
9
9
9
9
9
9
9
9
9
9
9
9
9
9
9
9
9
9
9
9
9
9
9
9
9
9
9
9
POINT_DATA       496
SCALARS p double 
LOOKUP_TABLE default
   48095155.4612322     
   48105060.1369834     
   48132031.4930966     
   48172256.1245381     
   48222329.9136137     
   48279204.7379309     
   48340140.5657521     
   48402662.5237556     
   48464522.4558728     
   48523664.4620092     
   48578193.9085750     
   48626349.4359949     
   48666477.5495149     
   48697009.4669000     
   48716440.0085697     
   48723308.4510268     
   48072767.2212272     
   48082607.6448376     
   48109403.0550095     
   48149363.5623522     
   48199106.8240212     
   48255604.7273181     
   48316135.5385214     
   48378241.0818007     
   48439688.4484698     
   48498435.7084636     
   48552601.1003126     
   48600435.2102612     
   48640295.7133184     
   48670624.3372198     
   48689925.8231603     
   48696748.7934878     
   48005310.0322612     
   48014957.6456166     
   48041225.2166004     
   48080393.5758571     
   48129145.7947874     
   48184513.8120206     
   48243830.7574729     
   48304688.4785676     
   48364899.7137595     
   48422464.3345200     
   48475539.0851549     
   48522410.2875486     
   48561469.0430311     
   48591188.5544766     
   48610103.3073050     
   48616789.9873769     
   47891907.1771746     
   47901233.2888323     
   47926621.1994716     
   47964470.1735310     
   48011572.5961961     
   48065060.5575393     
   48122358.5177753     
   48181141.4584292     
   48239297.8730153     
   48294896.9340050     
   48346159.1873930     
   48391430.1694524     
   48429156.4102611     
   48457863.3838696     
   48476135.0847893     
   48482595.0544404     
   47731099.8259735     
   47739975.6157231     
   47764132.4179484     
   47800136.4607431     
   47844933.7465378     
   47895796.6869565     
   47950277.3484854     
   48006166.5752075     
   48061458.2145207     
   48114317.6647069     
   48163053.9865708     
   48206094.8724553     
   48241963.8426841     
   48269259.1406310     
   48286633.9228357     
   48292777.4903413     
   47520850.8151183     
   47529147.4772277     
   47551722.7730957     
   47585359.4990475     
   47627202.0819292     
   47674703.4654389     
   47725579.2772278     
   47777768.3662118     
   47829398.7721840     
   47878758.1951133     
   47924268.0663523     
   47964460.3853038     
   47997956.5704841     
   48023447.6821615     
   48039675.5050287     
   48045414.1352415     
   47258550.3992777     
   47266139.4771655     
   47286785.1162347     
   47317537.5536441     
   47355784.9905491     
   47399201.0666449     
   47445700.4199046     
   47493401.2054782     
   47540593.4351810     
   47585712.0194614     
   47627313.4432828     
   47664055.0818128     
   47694676.2579312     
   47717980.2598723     
   47732816.6745824     
   47738063.5535246     
   46941024.4326143     
   46947778.3955374     
   46966150.3321527     
   46993510.1734859     
   47027535.7494188     
   47066161.3519525     
   47107535.3179279     
   47149985.2489642     
   47191989.4905769     
   47232153.5318144     
   47269190.0553732     
   47301901.4596240     
   47329163.7833715     
   47349911.0893066     
   47363119.5042876     
   47367790.2785835     
   46564545.5646667     
   46570338.6750639     
   46586099.6210458     
   46609571.6781282     
   46638768.5318229     
   46671924.6227434     
   46707455.5727952     
   46743927.0083356     
   46780030.1200885     
   46814562.3636356     
   46846411.7985436     
   46874543.6783208     
   46897988.0295069     
   46915827.0927544     
   46927181.6435440     
   46931195.3723012     
   46124848.1666758     
   46129557.6857128     
   46142380.6919907     
   46161488.7616207     
   46185277.7913189     
   46212321.0437713     
   46241333.4632835     
   46271145.2207611     
   46300682.4962641     
   46328953.6055058     
   46355038.7068154     
   46378081.4703953     
   46397281.2395086     
   46411884.3576989     
   46421173.4795347     
   46424453.8348727     
   45617147.8438678     
   45620655.6232711     
   45630228.7259402     
   45644523.0732314     
   45662362.8806429     
   45682697.5880272     
   45704571.3793724     
   45727102.8238353     
   45749472.2550002     
   45770914.6533838     
   45790715.9795122     
   45808211.0943643     
   45822781.5807197     
   45833851.9337741     
   45840882.7251187     
   45843359.4751177     
   45036166.5473840     
   45038361.0587955     
   45044393.1329288     
   45053459.8076525     
   45064858.9402985     
   45077951.5291001     
   45092138.0763215     
   45106846.0026141     
   45121525.2636514     
   45135649.5442144     
   45148720.6647287     
   45160274.0883233     
   45169883.6325916     
   45177163.6556937     
   45181767.1050762     
   45183377.9089162     
   44376164.4904368     
   44376943.3503982     
   44379171.3309037     
   44382643.5478066     
   44387175.3054687     
   44392571.7173359     
   44398612.9512264     
   44405051.4560570     
   44411617.7603497     
   44418031.7752625     
   44424016.9109713     
   44429314.6602971     
   44433697.5733867     
   44436978.7229937     
   44439015.8474696     
   44439708.3861757     
   43630980.3167686     
   43630253.3773625     
   43628451.0324261     
   43626022.8707771     
   43623342.9486216     
   43620689.1357201     
   43618239.7838114     
   43616083.2398165     
   43614236.1133841     
   43612666.7354153     
   43611320.7941334     
   43610146.6124104     
   43609117.8727086     
   43608251.7798636     
   43607620.6878015     
   43607355.1443274     
   42794081.2927573     
   42791774.3863625     
   42785762.8674652     
   42777205.5771882     
   42767072.8211002     
   42756138.5581152     
   42744991.6754722     
   42734060.7878732     
   42723647.6407810     
   42713965.0113974     
   42705175.8076706     
   42697430.7292165     
   42690902.2923119     
   42685813.2068571     
   42682457.0467951     
   42681208.9349498     
   41858625.7339254     
   41854685.1870554     
   41844345.6312293     
   41829526.8692573     
   41811827.4075236     
   41792533.5466107     
   41772649.2780492     
   41752940.0015426     
   41733984.1372403     
   41716227.9595160     
   41700040.1580908     
   41685763.5519353     
   41673761.9397614     
   41664460.2439540     
   41658375.9306869     
   41656139.2523407     
   40817540.4804191     
   40811938.5477402     
   40797227.0717645     
   40776133.4237659     
   40750908.3943747     
   40723357.5477726     
   40694894.8365207     
   40666609.6205326     
   40639339.9696016     
   40613747.0394645     
   40590387.0171117     
   40569778.3893132     
   40552462.9871375     
   40539059.3901609     
   40530306.9050883     
   40527097.5879524     
   39663617.0679675     
   39656358.4844969     
   39637323.9823747     
   39610087.1334830     
   39577564.1145729     
   39542074.4986998     
   39505425.0808534     
   39469005.4468893     
   39433886.8036812     
   39400918.4660228     
   39370818.8187520     
   39344259.2546632     
   39321940.4335398     
   39304660.2437091     
   39293372.1862992     
   39289231.7196527     
   38389631.3851949     
   38380761.2924603     
   38357566.5143820     
   38324493.3831540     
   38285121.3986514     
   38242263.1430080     
   38198086.5794258     
   38154245.3510992     
   38112007.1785615     
   38072374.7084848     
   38036196.5162984     
   38004268.1321659     
   37977423.9242149     
   37956620.5317953     
   37943011.4537688     
   37938010.5973772     
   36988493.1771767     
   36978106.7453463     
   36951053.1713010     
   36912660.1492482     
   36867147.6663516     
   36817780.1713185     
   36767037.7674207     
   36716788.2922649     
   36668449.1882078     
   36623134.2002272     
   36581784.3819966     
   36545285.5224827     
   36514575.1067368     
   36490741.5033797     
   36475116.3944362     
   36469358.7897745     
   35453433.9004777     
   35441688.0351030     
   35411245.0032692     
   35368296.0293248     
   35317650.5271090     
   35262958.2788337     
   35206942.3898583     
   35151620.7226655     
   35098504.3680772     
   35048770.2377326     
   35003410.3875424     
   34963363.5571486     
   34929635.2736950     
   34903412.1015577     
   34886173.2342374     
   34879798.7055179     
   33778244.3668472     
   33765371.9357525     
   33732210.2308395     
   33685757.5567987     
   33631323.7517159     
   33572846.1149595     
   33513199.3512511     
   33454473.5306905     
   33398210.3710015     
   33345599.3634932     
   33297641.4055082     
   33255290.0795888     
   33219581.0893989     
   33191759.3800717     
   33173410.6014967     
   33166597.9160530     
   31957577.6364436     
   31943904.6318423     
   31908934.0477997     
   31860358.8056866     
   31803850.0053296     
   31743497.5409770     
   31682213.5694296     
   31622071.7855016     
   31564578.9415170     
   31510888.4626875     
   31461971.4443943     
   31418761.0106394     
   31382285.0235449     
   31353801.4670299     
   31334949.0244110     
   31327917.9386188     
   29987338.2074930     
   29973304.0645844     
   29937712.8345541     
   29888759.1083690     
   29832271.6450778     
   29772316.9173082     
   29711710.7331522     
   29652417.4778727     
   29595847.7605143     
   29543078.3130118     
   29495020.0771615     
   29452557.2954418     
   29416675.7809398     
   29388597.9074034     
   29369947.2146173     
   29362959.8669394     
   27865186.5241702     
   27851367.1758685     
   27816657.5186942     
   27769446.9931325     
   27715439.9479007     
   27658463.9892110     
   27601094.7620402     
   27545101.4842798     
   27491751.5845122     
   27442019.3277331     
   27396737.6081154     
   27356722.7702746     
   27322892.7793384     
   27296390.0819010     
   27278738.6854691     
   27272101.5393587     
   25591199.6609890     
   25578331.3064780     
   25546337.0854122     
   25503338.2694948     
   25454547.7497149     
   25403313.8379491     
   25351838.5351867     
   25301634.2717047     
   25253803.5838089     
   25209212.8558074     
   25168613.0874686     
   25132742.4821560     
   25102431.7036992     
   25078718.2084436     
   25062949.8708855     
   25057018.8505238     
   23168749.0969271     
   23157745.6095220     
   23130598.6601385     
   23094498.9961258     
   23053734.8816573     
   23010950.0649343     
   22967883.3796232     
   22925774.8654022     
   22885572.9510141     
   22848049.4639058     
   22813881.0291228     
   22783722.3164962     
   22758296.0991635     
   22738513.2666625     
   22725553.3565156     
   22720785.7337982     
   20605689.7903259     
   20597638.3688504     
   20577600.5002041     
   20550975.6739070     
   20520720.4516098     
   20488633.6359158     
   20455998.1925302     
   20423826.3132159     
   20392942.3089094     
   20364038.6510750     
   20337723.3910202     
   20314567.6799874     
   20295161.0867982     
   20280239.7159844     
   20270910.4830064     
   20267810.5396745     
   17916075.8682997     
   17912122.9109857     
   17901056.0148099     
   17885649.1657261     
   17867322.9656155     
   17847123.3169251     
   17826024.0712410     
   17804859.8506469     
   17784332.2424617     
   17765034.4875061     
   17747483.9684051     
   17732154.5897855     
   17719513.8585651     
   17710057.8860917     
   17704755.1650112     
   17703494.1528308     
   15122772.3453364     
   15123792.6992373     
   15121581.0920337     
   15116730.3310064     
   15109512.7662819     
   15100681.6395360     
   15090930.0425630     
   15080841.0871000     
   15070891.4473431     
   15061476.4773164     
   15052937.6053878     
   15045588.5068012     
   15039739.2356504     
   15035751.0858998     
   15033948.9344932     
   15034380.9860192     
   12266666.6666667     
   12266666.6666667     
   12266666.6666667     
   12266666.6666667     
   12266666.6666667     
   12266666.6666667     
   12266666.6666667     
   12266666.6666667     
   12266666.6666667     
   12266666.6666667     
   12266666.6666667     
   12266666.6666667     
   12266666.6666667     
   12266666.6666667     
   12266666.6666667     
   12266666.6666667     
VECTORS u double 
    0.00000E+00        -0.81279E+00         0.00000E+00
    0.00000E+00        -0.75331E+00         0.00000E+00
    0.00000E+00        -0.69403E+00         0.00000E+00
    0.00000E+00        -0.63511E+00         0.00000E+00
    0.00000E+00        -0.57668E+00         0.00000E+00
    0.00000E+00        -0.51885E+00         0.00000E+00
    0.00000E+00        -0.46174E+00         0.00000E+00
    0.00000E+00        -0.40543E+00         0.00000E+00
    0.00000E+00        -0.35005E+00         0.00000E+00
    0.00000E+00        -0.29572E+00         0.00000E+00
    0.00000E+00        -0.24256E+00         0.00000E+00
    0.00000E+00        -0.19072E+00         0.00000E+00
    0.00000E+00        -0.14037E+00         0.00000E+00
    0.00000E+00        -0.91680E-01         0.00000E+00
    0.00000E+00        -0.44825E-01         0.00000E+00
    0.00000E+00         0.00000E+00         0.00000E+00
    0.68490E-01        -0.81534E+00         0.00000E+00
    0.63386E-01        -0.75575E+00         0.00000E+00
    0.58322E-01        -0.69635E+00         0.00000E+00
    0.53343E-01        -0.63731E+00         0.00000E+00
    0.48476E-01        -0.57875E+00         0.00000E+00
    0.43733E-01        -0.52078E+00         0.00000E+00
    0.39114E-01        -0.46352E+00         0.00000E+00
    0.34608E-01        -0.40705E+00         0.00000E+00
    0.30198E-01        -0.35150E+00         0.00000E+00
    0.25861E-01        -0.29698E+00         0.00000E+00
    0.21574E-01        -0.24363E+00         0.00000E+00
    0.17309E-01        -0.19160E+00         0.00000E+00
    0.13042E-01        -0.14104E+00         0.00000E+00
    0.87481E-02        -0.92127E-01         0.00000E+00
    0.44065E-02        -0.45051E-01         0.00000E+00
    0.00000E+00         0.00000E+00         0.00000E+00
    0.13688E+00        -0.82301E+00         0.00000E+00
    0.12664E+00        -0.76308E+00         0.00000E+00
    0.11649E+00        -0.70333E+00         0.00000E+00
    0.10652E+00        -0.64392E+00         0.00000E+00
    0.96790E-01        -0.58497E+00         0.00000E+00
    0.87311E-01        -0.52659E+00         0.00000E+00
    0.78084E-01        -0.46887E+00         0.00000E+00
    0.69088E-01        -0.41192E+00         0.00000E+00
    0.60286E-01        -0.35586E+00         0.00000E+00
    0.51633E-01        -0.30079E+00         0.00000E+00
    0.43077E-01        -0.24686E+00         0.00000E+00
    0.34567E-01        -0.19422E+00         0.00000E+00
    0.26049E-01        -0.14303E+00         0.00000E+00
    0.17476E-01        -0.93470E-01         0.00000E+00
    0.88042E-02        -0.45728E-01         0.00000E+00
    0.00000E+00         0.00000E+00         0.00000E+00
    0.20505E+00        -0.83586E+00         0.00000E+00
    0.18961E+00        -0.77536E+00         0.00000E+00
    0.17435E+00        -0.71502E+00         0.00000E+00
    0.15938E+00        -0.65500E+00         0.00000E+00
    0.14478E+00        -0.59539E+00         0.00000E+00
    0.13058E+00        -0.53630E+00         0.00000E+00
    0.11677E+00        -0.47783E+00         0.00000E+00
    0.10331E+00        -0.42007E+00         0.00000E+00
    0.90154E-01        -0.36314E+00         0.00000E+00
    0.77223E-01        -0.30716E+00         0.00000E+00
    0.64439E-01        -0.25226E+00         0.00000E+00
    0.51719E-01        -0.19861E+00         0.00000E+00
    0.38985E-01        -0.14636E+00         0.00000E+00
    0.26162E-01        -0.95716E-01         0.00000E+00
    0.13184E-01        -0.46860E-01         0.00000E+00
    0.00000E+00         0.00000E+00         0.00000E+00
    0.27289E+00        -0.85398E+00         0.00000E+00
    0.25216E+00        -0.79267E+00         0.00000E+00
    0.23172E+00        -0.73150E+00         0.00000E+00
    0.21172E+00        -0.67060E+00         0.00000E+00
    0.19226E+00        -0.61006E+00         0.00000E+00
    0.17336E+00        -0.54998E+00         0.00000E+00
    0.15500E+00        -0.49045E+00         0.00000E+00
    0.13714E+00        -0.43155E+00         0.00000E+00
    0.11969E+00        -0.37340E+00         0.00000E+00
    0.10254E+00        -0.31612E+00         0.00000E+00
    0.85584E-01        -0.25986E+00         0.00000E+00
    0.68713E-01        -0.20478E+00         0.00000E+00
    0.51814E-01        -0.15105E+00         0.00000E+00
    0.34785E-01        -0.98876E-01         0.00000E+00
    0.17538E-01        -0.48452E-01         0.00000E+00
    0.00000E+00         0.00000E+00         0.00000E+00
    0.34023E+00        -0.87750E+00         0.00000E+00
    0.31409E+00        -0.81513E+00         0.00000E+00
    0.28841E+00        -0.75288E+00         0.00000E+00
    0.26336E+00        -0.69083E+00         0.00000E+00
    0.23904E+00        -0.62909E+00         0.00000E+00
    0.21548E+00        -0.56771E+00         0.00000E+00
    0.19264E+00        -0.50679E+00         0.00000E+00
    0.17044E+00        -0.44640E+00         0.00000E+00
    0.14876E+00        -0.38667E+00         0.00000E+00
    0.12747E+00        -0.32772E+00         0.00000E+00
    0.10643E+00        -0.26970E+00         0.00000E+00
    0.85489E-01        -0.21277E+00         0.00000E+00
    0.64496E-01        -0.15712E+00         0.00000E+00
    0.43323E-01        -0.10296E+00         0.00000E+00
    0.21856E-01        -0.50511E-01         0.00000E+00
    0.00000E+00         0.00000E+00         0.00000E+00
    0.40688E+00        -0.90659E+00         0.00000E+00
    0.37520E+00        -0.84289E+00         0.00000E+00
    0.34420E+00        -0.77928E+00         0.00000E+00
    0.31407E+00        -0.71582E+00         0.00000E+00
    0.28492E+00        -0.65257E+00         0.00000E+00
    0.25674E+00        -0.58958E+00         0.00000E+00
    0.22949E+00        -0.52694E+00         0.00000E+00
    0.20304E+00        -0.46472E+00         0.00000E+00
    0.17725E+00        -0.40303E+00         0.00000E+00
    0.15193E+00        -0.34201E+00         0.00000E+00
    0.12691E+00        -0.28181E+00         0.00000E+00
    0.10199E+00        -0.22260E+00         0.00000E+00
    0.76992E-01        -0.16459E+00         0.00000E+00
    0.51752E-01        -0.10799E+00         0.00000E+00
    0.26127E-01        -0.53046E-01         0.00000E+00
    0.00000E+00         0.00000E+00         0.00000E+00
    0.47262E+00        -0.94142E+00         0.00000E+00
    0.43524E+00        -0.87612E+00         0.00000E+00
    0.39883E+00        -0.81087E+00         0.00000E+00
    0.36361E+00        -0.74569E+00         0.00000E+00
    0.32965E+00        -0.68062E+00         0.00000E+00
    0.29693E+00        -0.61570E+00         0.00000E+00
    0.26537E+00        -0.55099E+00         0.00000E+00
    0.23479E+00        -0.48657E+00         0.00000E+00
    0.20500E+00        -0.42254E+00         0.00000E+00
    0.17579E+00        -0.35905E+00         0.00000E+00
    0.14692E+00        -0.29624E+00         0.00000E+00
    0.11815E+00        -0.23432E+00         0.00000E+00
    0.89257E-01        -0.17349E+00         0.00000E+00
    0.60047E-01        -0.11398E+00         0.00000E+00
    0.30342E-01        -0.56066E-01         0.00000E+00
    0.00000E+00         0.00000E+00         0.00000E+00
    0.53716E+00        -0.98220E+00         0.00000E+00
    0.49391E+00        -0.91501E+00         0.00000E+00
    0.45203E+00        -0.84781E+00         0.00000E+00
    0.41170E+00        -0.78060E+00         0.00000E+00
    0.37298E+00        -0.71339E+00         0.00000E+00
    0.33582E+00        -0.64619E+00         0.00000E+00
    0.30006E+00        -0.57905E+00         0.00000E+00
    0.26549E+00        -0.51204E+00         0.00000E+00
    0.23188E+00        -0.44527E+00         0.00000E+00
    0.19893E+00        -0.37889E+00         0.00000E+00
    0.16636E+00        -0.31305E+00         0.00000E+00
    0.13389E+00        -0.24795E+00         0.00000E+00
    0.10124E+00        -0.18384E+00         0.00000E+00
    0.68180E-01        -0.12096E+00         0.00000E+00
    0.34488E-01        -0.59579E-01         0.00000E+00
    0.00000E+00         0.00000E+00         0.00000E+00
    0.60015E+00        -0.10291E+01         0.00000E+00
    0.55087E+00        -0.95974E+00         0.00000E+00
    0.50344E+00        -0.89028E+00         0.00000E+00
    0.45802E+00        -0.82071E+00         0.00000E+00
    0.41462E+00        -0.75100E+00         0.00000E+00
    0.37312E+00        -0.68115E+00         0.00000E+00
    0.33333E+00        -0.61120E+00         0.00000E+00
    0.29496E+00        -0.54122E+00         0.00000E+00
    0.25770E+00        -0.47130E+00         0.00000E+00
    0.22122E+00        -0.40159E+00         0.00000E+00
    0.18514E+00        -0.33227E+00         0.00000E+00
    0.14915E+00        -0.26355E+00         0.00000E+00
    0.11290E+00        -0.19568E+00         0.00000E+00
    0.76122E-01        -0.12893E+00         0.00000E+00
    0.38554E-01        -0.63595E-01         0.00000E+00
    0.00000E+00         0.00000E+00         0.00000E+00
    0.66118E+00        -0.10825E+01         0.00000E+00
    0.60570E+00        -0.10105E+01         0.00000E+00
    0.55267E+00        -0.93845E+00         0.00000E+00
    0.50220E+00        -0.86616E+00         0.00000E+00
    0.45422E+00        -0.79359E+00         0.00000E+00
    0.40855E+00        -0.72071E+00         0.00000E+00
    0.36492E+00        -0.64755E+00         0.00000E+00
    0.32297E+00        -0.57417E+00         0.00000E+00
    0.28230E+00        -0.50067E+00         0.00000E+00
    0.24250E+00        -0.42719E+00         0.00000E+00
    0.20315E+00        -0.35394E+00         0.00000E+00
    0.16383E+00        -0.28112E+00         0.00000E+00
    0.12418E+00        -0.20901E+00         0.00000E+00
    0.83841E-01        -0.13791E+00         0.00000E+00
    0.42525E-01        -0.68120E-01         0.00000E+00
    0.00000E+00         0.00000E+00         0.00000E+00
    0.71975E+00        -0.11424E+01         0.00000E+00
    0.65794E+00        -0.10676E+01         0.00000E+00
    0.59929E+00        -0.99248E+00         0.00000E+00
    0.54384E+00        -0.91709E+00         0.00000E+00
    0.49143E+00        -0.84126E+00         0.00000E+00
    0.44179E+00        -0.76496E+00         0.00000E+00
    0.39455E+00        -0.68817E+00         0.00000E+00
    0.34927E+00        -0.61096E+00         0.00000E+00
    0.30546E+00        -0.53344E+00         0.00000E+00
    0.26262E+00        -0.45574E+00         0.00000E+00
    0.22024E+00        -0.37808E+00         0.00000E+00
    0.17786E+00        -0.30070E+00         0.00000E+00
    0.13501E+00        -0.22387E+00         0.00000E+00
    0.91299E-01        -0.14791E+00         0.00000E+00
    0.46387E-01        -0.73159E-01         0.00000E+00
    0.00000E+00         0.00000E+00         0.00000E+00
    0.77528E+00        -0.12092E+01         0.00000E+00
    0.70704E+00        -0.11310E+01         0.00000E+00
    0.64279E+00        -0.10525E+01         0.00000E+00
    0.58247E+00        -0.97362E+00         0.00000E+00
    0.52582E+00        -0.89412E+00         0.00000E+00
    0.47246E+00        -0.81395E+00         0.00000E+00
    0.42191E+00        -0.73310E+00         0.00000E+00
    0.37360E+00        -0.65162E+00         0.00000E+00
    0.32696E+00        -0.56962E+00         0.00000E+00
    0.28139E+00        -0.48724E+00         0.00000E+00
    0.23630E+00        -0.40471E+00         0.00000E+00
    0.19112E+00        -0.32228E+00         0.00000E+00
    0.14532E+00        -0.24024E+00         0.00000E+00
    0.98457E-01        -0.15892E+00         0.00000E+00
    0.50121E-01        -0.78712E-01         0.00000E+00
    0.00000E+00         0.00000E+00         0.00000E+00
    0.82711E+00        -0.12829E+01         0.00000E+00
    0.75237E+00        -0.12009E+01         0.00000E+00
    0.68259E+00        -0.11187E+01         0.00000E+00
    0.61758E+00        -0.10358E+01         0.00000E+00
    0.55695E+00        -0.95219E+00         0.00000E+00
    0.50017E+00        -0.86772E+00         0.00000E+00
    0.44664E+00        -0.78235E+00         0.00000E+00
    0.39568E+00        -0.69614E+00         0.00000E+00
    0.34658E+00        -0.60920E+00         0.00000E+00
    0.29863E+00        -0.52168E+00         0.00000E+00
    0.25116E+00        -0.43380E+00         0.00000E+00
    0.20350E+00        -0.34584E+00         0.00000E+00
    0.15505E+00        -0.25811E+00         0.00000E+00
    0.10527E+00        -0.17095E+00         0.00000E+00
    0.53709E-01        -0.84775E-01         0.00000E+00
    0.00000E+00         0.00000E+00         0.00000E+00
    0.87446E+00        -0.13637E+01         0.00000E+00
    0.79322E+00        -0.12775E+01         0.00000E+00
    0.71805E+00        -0.11910E+01         0.00000E+00
    0.64860E+00        -0.11037E+01         0.00000E+00
    0.58431E+00        -0.10155E+01         0.00000E+00
    0.52449E+00        -0.92623E+00         0.00000E+00
    0.46839E+00        -0.83588E+00         0.00000E+00
    0.41518E+00        -0.74447E+00         0.00000E+00
    0.36404E+00        -0.65212E+00         0.00000E+00
    0.31413E+00        -0.55898E+00         0.00000E+00
    0.26466E+00        -0.46530E+00         0.00000E+00
    0.21488E+00        -0.37135E+00         0.00000E+00
    0.16409E+00        -0.27744E+00         0.00000E+00
    0.11168E+00        -0.18397E+00         0.00000E+00
    0.57126E-01        -0.91336E-01         0.00000E+00
    0.00000E+00         0.00000E+00         0.00000E+00
    0.91646E+00        -0.14516E+01         0.00000E+00
    0.82880E+00        -0.13607E+01         0.00000E+00
    0.74847E+00        -0.12694E+01         0.00000E+00
    0.67490E+00        -0.11772E+01         0.00000E+00
    0.60735E+00        -0.10839E+01         0.00000E+00
    0.54494E+00        -0.98940E+00         0.00000E+00
    0.48674E+00        -0.89357E+00         0.00000E+00
    0.43177E+00        -0.79649E+00         0.00000E+00
    0.37905E+00        -0.69826E+00         0.00000E+00
    0.32763E+00        -0.59905E+00         0.00000E+00
    0.27661E+00        -0.49911E+00         0.00000E+00
    0.22511E+00        -0.39871E+00         0.00000E+00
    0.17235E+00        -0.29819E+00         0.00000E+00
    0.11763E+00        -0.19793E+00         0.00000E+00
    0.60345E-01        -0.98376E-01         0.00000E+00
    0.00000E+00         0.00000E+00         0.00000E+00
    0.95213E+00        -0.15466E+01         0.00000E+00
    0.85823E+00        -0.14505E+01         0.00000E+00
    0.77306E+00        -0.13539E+01         0.00000E+00
    0.69581E+00        -0.12562E+01         0.00000E+00
    0.62549E+00        -0.11573E+01         0.00000E+00
    0.56102E+00        -0.10570E+01         0.00000E+00
    0.50126E+00        -0.95524E+00         0.00000E+00
    0.44506E+00        -0.85200E+00         0.00000E+00
    0.39131E+00        -0.74743E+00         0.00000E+00
    0.33890E+00        -0.64171E+00         0.00000E+00
    0.28680E+00        -0.53507E+00         0.00000E+00
    0.23404E+00        -0.42780E+00         0.00000E+00
    0.17972E+00        -0.32024E+00         0.00000E+00
    0.12305E+00        -0.21278E+00         0.00000E+00
    0.63332E-01        -0.10587E+00         0.00000E+00
    0.00000E+00         0.00000E+00         0.00000E+00
    0.98035E+00        -0.16485E+01         0.00000E+00
    0.88053E+00        -0.15466E+01         0.00000E+00
    0.79098E+00        -0.14441E+01         0.00000E+00
    0.71058E+00        -0.13405E+01         0.00000E+00
    0.63809E+00        -0.12355E+01         0.00000E+00
    0.57217E+00        -0.11288E+01         0.00000E+00
    0.51148E+00        -0.10206E+01         0.00000E+00
    0.45467E+00        -0.91071E+00         0.00000E+00
    0.40047E+00        -0.79936E+00         0.00000E+00
    0.34763E+00        -0.68671E+00         0.00000E+00
    0.29499E+00        -0.57298E+00         0.00000E+00
    0.24147E+00        -0.45845E+00         0.00000E+00
    0.18605E+00        -0.34347E+00         0.00000E+00
    0.12784E+00        -0.22843E+00         0.00000E+00
    0.66046E-01        -0.11377E+00         0.00000E+00
    0.00000E+00         0.00000E+00         0.00000E+00
    0.99992E+00        -0.17570E+01         0.00000E+00
    0.89465E+00        -0.16487E+01         0.00000E+00
    0.80131E+00        -0.15398E+01         0.00000E+00
    0.71845E+00        -0.14296E+01         0.00000E+00
    0.64449E+00        -0.13178E+01         0.00000E+00
    0.57784E+00        -0.12044E+01         0.00000E+00
    0.51691E+00        -0.10892E+01         0.00000E+00
    0.46017E+00        -0.97221E+00         0.00000E+00
    0.40616E+00        -0.85367E+00         0.00000E+00
    0.35351E+00        -0.73371E+00         0.00000E+00
    0.30092E+00        -0.61254E+00         0.00000E+00
    0.24719E+00        -0.49044E+00         0.00000E+00
    0.19119E+00        -0.36772E+00         0.00000E+00
    0.13191E+00        -0.24477E+00         0.00000E+00
    0.68436E-01        -0.12202E+00         0.00000E+00
    0.00000E+00         0.00000E+00         0.00000E+00
    0.10095E+01        -0.18717E+01         0.00000E+00
    0.89945E+00        -0.17564E+01         0.00000E+00
    0.80309E+00        -0.16403E+01         0.00000E+00
    0.71857E+00        -0.15229E+01         0.00000E+00
    0.64399E+00        -0.14039E+01         0.00000E+00
    0.57742E+00        -0.12831E+01         0.00000E+00
    0.51703E+00        -0.11604E+01         0.00000E+00
    0.46110E+00        -0.10360E+01         0.00000E+00
    0.40799E+00        -0.90986E+00         0.00000E+00
    0.35619E+00        -0.78227E+00         0.00000E+00
    0.30429E+00        -0.65338E+00         0.00000E+00
    0.25095E+00        -0.52345E+00         0.00000E+00
    0.19494E+00        -0.39276E+00         0.00000E+00
    0.13512E+00        -0.26166E+00         0.00000E+00
    0.70435E-01        -0.13057E+00         0.00000E+00
    0.00000E+00         0.00000E+00         0.00000E+00
    0.10077E+01        -0.19918E+01         0.00000E+00
    0.89372E+00        -0.18688E+01         0.00000E+00
    0.79530E+00        -0.17450E+01         0.00000E+00
    0.71012E+00        -0.16198E+01         0.00000E+00
    0.63587E+00        -0.14929E+01         0.00000E+00
    0.57029E+00        -0.13642E+01         0.00000E+00
    0.51131E+00        -0.12336E+01         0.00000E+00
    0.45697E+00        -0.11013E+01         0.00000E+00
    0.40550E+00        -0.96730E+00         0.00000E+00
    0.35526E+00        -0.83184E+00         0.00000E+00
    0.30472E+00        -0.69505E+00         0.00000E+00
    0.25243E+00        -0.55713E+00         0.00000E+00
    0.19705E+00        -0.41832E+00         0.00000E+00
    0.13729E+00        -0.27892E+00         0.00000E+00
    0.71960E-01        -0.13932E+00         0.00000E+00
    0.00000E+00         0.00000E+00         0.00000E+00
    0.99297E+00        -0.21164E+01         0.00000E+00
    0.87618E+00        -0.19850E+01         0.00000E+00
    0.77690E+00        -0.18528E+01         0.00000E+00
    0.69224E+00        -0.17191E+01         0.00000E+00
    0.61942E+00        -0.15838E+01         0.00000E+00
    0.55586E+00        -0.14467E+01         0.00000E+00
    0.49918E+00        -0.13078E+01         0.00000E+00
    0.44727E+00        -0.11673E+01         0.00000E+00
    0.39821E+00        -0.10252E+01         0.00000E+00
    0.35026E+00        -0.88173E+00         0.00000E+00
    0.30179E+00        -0.73695E+00         0.00000E+00
    0.25128E+00        -0.59101E+00         0.00000E+00
    0.19723E+00        -0.44407E+00         0.00000E+00
    0.13822E+00        -0.29635E+00         0.00000E+00
    0.72903E-01        -0.14817E+00         0.00000E+00
    0.00000E+00         0.00000E+00         0.00000E+00
    0.96365E+00        -0.22443E+01         0.00000E+00
    0.84552E+00        -0.21038E+01         0.00000E+00
    0.74684E+00        -0.19624E+01         0.00000E+00
    0.66407E+00        -0.18197E+01         0.00000E+00
    0.59394E+00        -0.16753E+01         0.00000E+00
    0.53348E+00        -0.15293E+01         0.00000E+00
    0.48008E+00        -0.13818E+01         0.00000E+00
    0.43146E+00        -0.12329E+01         0.00000E+00
    0.38559E+00        -0.10826E+01         0.00000E+00
    0.34067E+00        -0.93112E+00         0.00000E+00
    0.29502E+00        -0.77843E+00         0.00000E+00
    0.24702E+00        -0.62458E+00         0.00000E+00
    0.19509E+00        -0.46963E+00         0.00000E+00
    0.13765E+00        -0.31370E+00         0.00000E+00
    0.73120E-01        -0.15703E+00         0.00000E+00
    0.00000E+00         0.00000E+00         0.00000E+00
    0.91808E+00        -0.23739E+01         0.00000E+00
    0.80042E+00        -0.22235E+01         0.00000E+00
    0.70409E+00        -0.20723E+01         0.00000E+00
    0.62483E+00        -0.19198E+01         0.00000E+00
    0.55877E+00        -0.17659E+01         0.00000E+00
    0.50259E+00        -0.16107E+01         0.00000E+00
    0.45344E+00        -0.14543E+01         0.00000E+00
    0.40893E+00        -0.12968E+01         0.00000E+00
    0.36702E+00        -0.11384E+01         0.00000E+00
    0.32587E+00        -0.97905E+00         0.00000E+00
    0.28379E+00        -0.81867E+00         0.00000E+00
    0.23912E+00        -0.65719E+00         0.00000E+00
    0.19017E+00        -0.49454E+00         0.00000E+00
    0.13521E+00        -0.33069E+00         0.00000E+00
    0.72427E-01        -0.16574E+00         0.00000E+00
    0.00000E+00         0.00000E+00         0.00000E+00
    0.85448E+00        -0.25031E+01         0.00000E+00
    0.73957E+00        -0.23422E+01         0.00000E+00
    0.64772E+00        -0.21804E+01         0.00000E+00
    0.57379E+00        -0.20176E+01         0.00000E+00
    0.51331E+00        -0.18537E+01         0.00000E+00
    0.46260E+00        -0.16889E+01         0.00000E+00
    0.41866E+00        -0.15235E+01         0.00000E+00
    0.37907E+00        -0.13577E+01         0.00000E+00
    0.34183E+00        -0.11913E+01         0.00000E+00
    0.30515E+00        -0.10244E+01         0.00000E+00
    0.26738E+00        -0.85678E+00         0.00000E+00
    0.22687E+00        -0.68817E+00         0.00000E+00
    0.18187E+00        -0.51832E+00         0.00000E+00
    0.13047E+00        -0.34702E+00         0.00000E+00
    0.70579E-01        -0.17419E+00         0.00000E+00
    0.00000E+00         0.00000E+00         0.00000E+00
    0.77107E+00        -0.26295E+01         0.00000E+00
    0.66174E+00        -0.24572E+01         0.00000E+00
    0.57692E+00        -0.22842E+01         0.00000E+00
    0.51039E+00        -0.21105E+01         0.00000E+00
    0.45707E+00        -0.19362E+01         0.00000E+00
    0.41298E+00        -0.17619E+01         0.00000E+00
    0.37513E+00        -0.15877E+01         0.00000E+00
    0.34118E+00        -0.14137E+01         0.00000E+00
    0.30923E+00        -0.12399E+01         0.00000E+00
    0.27766E+00        -0.10660E+01         0.00000E+00
    0.24492E+00        -0.89176E+00         0.00000E+00
    0.20943E+00        -0.71672E+00         0.00000E+00
    0.16941E+00        -0.54040E+00         0.00000E+00
    0.12282E+00        -0.36234E+00         0.00000E+00
    0.67246E-01        -0.18221E+00         0.00000E+00
    0.00000E+00         0.00000E+00         0.00000E+00
    0.66606E+00        -0.27497E+01         0.00000E+00
    0.56586E+00        -0.25653E+01         0.00000E+00
    0.49109E+00        -0.23805E+01         0.00000E+00
    0.43424E+00        -0.21954E+01         0.00000E+00
    0.38963E+00        -0.20108E+01         0.00000E+00
    0.35323E+00        -0.18271E+01         0.00000E+00
    0.32221E+00        -0.16445E+01         0.00000E+00
    0.29447E+00        -0.14631E+01         0.00000E+00
    0.26835E+00        -0.12825E+01         0.00000E+00
    0.24243E+00        -0.11025E+01         0.00000E+00
    0.21537E+00        -0.92253E+00         0.00000E+00
    0.18573E+00        -0.74200E+00         0.00000E+00
    0.15182E+00        -0.56017E+00         0.00000E+00
    0.11149E+00        -0.37629E+00         0.00000E+00
    0.61979E-01        -0.18967E+00         0.00000E+00
    0.00000E+00         0.00000E+00         0.00000E+00
    0.53769E+00        -0.28595E+01         0.00000E+00
    0.45121E+00        -0.26624E+01         0.00000E+00
    0.39005E+00        -0.24652E+01         0.00000E+00
    0.34518E+00        -0.22689E+01         0.00000E+00
    0.31067E+00        -0.20743E+01         0.00000E+00
    0.28280E+00        -0.18820E+01         0.00000E+00
    0.25916E+00        -0.16920E+01         0.00000E+00
    0.23805E+00        -0.15040E+01         0.00000E+00
    0.21815E+00        -0.13177E+01         0.00000E+00
    0.19833E+00        -0.11326E+01         0.00000E+00
    0.17751E+00        -0.94801E+00         0.00000E+00
    0.15450E+00        -0.76309E+00         0.00000E+00
    0.12781E+00        -0.57694E+00         0.00000E+00
    0.95390E-01        -0.38845E+00         0.00000E+00
    0.54169E-01        -0.19651E+00         0.00000E+00
    0.00000E+00         0.00000E+00         0.00000E+00
    0.38432E+00        -0.29534E+01         0.00000E+00
    0.31764E+00        -0.27429E+01         0.00000E+00
    0.27410E+00        -0.25334E+01         0.00000E+00
    0.24325E+00        -0.23265E+01         0.00000E+00
    0.21984E+00        -0.21232E+01         0.00000E+00
    0.20104E+00        -0.19237E+01         0.00000E+00
    0.18514E+00        -0.17277E+01         0.00000E+00
    0.17094E+00        -0.15347E+01         0.00000E+00
    0.15752E+00        -0.13441E+01         0.00000E+00
    0.14413E+00        -0.11552E+01         0.00000E+00
    0.12998E+00        -0.96714E+00         0.00000E+00
    0.11424E+00        -0.77907E+00         0.00000E+00
    0.95793E-01        -0.58988E+00         0.00000E+00
    0.72979E-01        -0.39822E+00         0.00000E+00
    0.42836E-01        -0.20233E+00         0.00000E+00
    0.00000E+00         0.00000E+00         0.00000E+00
    0.20460E+00        -0.30230E+01         0.00000E+00
    0.16637E+00        -0.27990E+01         0.00000E+00
    0.14400E+00        -0.25785E+01         0.00000E+00
    0.12836E+00        -0.23636E+01         0.00000E+00
    0.11657E+00        -0.21542E+01         0.00000E+00
    0.10712E+00        -0.19499E+01         0.00000E+00
    0.99131E-01        -0.17501E+01         0.00000E+00
    0.91988E-01        -0.15538E+01         0.00000E+00
    0.85233E-01        -0.13604E+01         0.00000E+00
    0.78471E-01        -0.11691E+01         0.00000E+00
    0.71313E-01        -0.97902E+00         0.00000E+00
    0.63314E-01        -0.78907E+00         0.00000E+00
    0.53879E-01        -0.59813E+00         0.00000E+00
    0.42064E-01        -0.40471E+00         0.00000E+00
    0.26141E-01        -0.20666E+00         0.00000E+00
    0.00000E+00         0.00000E+00         0.00000E+00
    0.00000E+00        -0.30529E+01         0.00000E+00
    0.00000E+00        -0.28198E+01         0.00000E+00
    0.00000E+00        -0.25945E+01         0.00000E+00
    0.00000E+00        -0.23765E+01         0.00000E+00
    0.00000E+00        -0.21649E+01         0.00000E+00
    0.00000E+00        -0.19589E+01         0.00000E+00
    0.00000E+00        -0.17576E+01         0.00000E+00
    0.00000E+00        -0.15603E+01         0.00000E+00
    0.00000E+00        -0.13660E+01         0.00000E+00
    0.00000E+00        -0.11739E+01         0.00000E+00
    0.00000E+00        -0.98304E+00         0.00000E+00
    0.00000E+00        -0.79248E+00         0.00000E+00
    0.00000E+00        -0.60098E+00         0.00000E+00
    0.00000E+00        -0.40701E+00         0.00000E+00
    0.00000E+00        -0.20839E+00         0.00000E+00
    0.00000E+00         0.00000E+00         0.00000E+00
CELL_DATA        450
VECTORS vDarcy double 
    0.12850E-07         0.56584E-08         0.00000E+00
    0.12889E-07         0.15373E-07         0.00000E+00
    0.12987E-07         0.22876E-07         0.00000E+00
    0.13129E-07         0.28418E-07         0.00000E+00
    0.13304E-07         0.32213E-07         0.00000E+00
    0.13501E-07         0.34448E-07         0.00000E+00
    0.13709E-07         0.35282E-07         0.00000E+00
    0.13921E-07         0.34850E-07         0.00000E+00
    0.14127E-07         0.33266E-07         0.00000E+00
    0.14320E-07         0.30626E-07         0.00000E+00
    0.14492E-07         0.27008E-07         0.00000E+00
    0.14639E-07         0.22477E-07         0.00000E+00
    0.14753E-07         0.17080E-07         0.00000E+00
    0.14829E-07         0.10857E-07         0.00000E+00
    0.14861E-07         0.38337E-08         0.00000E+00
    0.38712E-07         0.55839E-08         0.00000E+00
    0.38829E-07         0.15169E-07         0.00000E+00
    0.39120E-07         0.22571E-07         0.00000E+00
    0.39545E-07         0.28036E-07         0.00000E+00
    0.40069E-07         0.31778E-07         0.00000E+00
    0.40659E-07         0.33982E-07         0.00000E+00
    0.41283E-07         0.34803E-07         0.00000E+00
    0.41916E-07         0.34376E-07         0.00000E+00
    0.42532E-07         0.32814E-07         0.00000E+00
    0.43109E-07         0.30210E-07         0.00000E+00
    0.43627E-07         0.26641E-07         0.00000E+00
    0.44065E-07         0.22171E-07         0.00000E+00
    0.44406E-07         0.16849E-07         0.00000E+00
    0.44633E-07         0.10710E-07         0.00000E+00
    0.44730E-07         0.37819E-08         0.00000E+00
    0.65057E-07         0.54347E-08         0.00000E+00
    0.65248E-07         0.14761E-07         0.00000E+00
    0.65730E-07         0.21960E-07         0.00000E+00
    0.66436E-07         0.27273E-07         0.00000E+00
    0.67305E-07         0.30910E-07         0.00000E+00
    0.68283E-07         0.33051E-07         0.00000E+00
    0.69320E-07         0.33848E-07         0.00000E+00
    0.70370E-07         0.33432E-07         0.00000E+00
    0.71392E-07         0.31911E-07         0.00000E+00
    0.72350E-07         0.29379E-07         0.00000E+00
    0.73208E-07         0.25909E-07         0.00000E+00
    0.73935E-07         0.21562E-07         0.00000E+00
    0.74501E-07         0.16386E-07         0.00000E+00
    0.74878E-07         0.10417E-07         0.00000E+00
    0.75038E-07         0.36787E-08         0.00000E+00
    0.92204E-07         0.52110E-08         0.00000E+00
    0.92464E-07         0.14150E-07         0.00000E+00
    0.93132E-07         0.21045E-07         0.00000E+00
    0.94113E-07         0.26132E-07         0.00000E+00
    0.95321E-07         0.29612E-07         0.00000E+00
    0.96681E-07         0.31660E-07         0.00000E+00
    0.98123E-07         0.32421E-07         0.00000E+00
    0.99583E-07         0.32021E-07         0.00000E+00
    0.10100E-06         0.30564E-07         0.00000E+00
    0.10234E-06         0.28138E-07         0.00000E+00
    0.10353E-06         0.24815E-07         0.00000E+00
    0.10454E-06         0.20653E-07         0.00000E+00
    0.10533E-06         0.15696E-07         0.00000E+00
    0.10585E-06         0.99792E-08         0.00000E+00
    0.10607E-06         0.35244E-08         0.00000E+00
    0.12047E-06         0.49129E-08         0.00000E+00
    0.12079E-06         0.13337E-07         0.00000E+00
    0.12163E-06         0.19829E-07         0.00000E+00
    0.12288E-06         0.24616E-07         0.00000E+00
    0.12442E-06         0.27890E-07         0.00000E+00
    0.12615E-06         0.29815E-07         0.00000E+00
    0.12799E-06         0.30530E-07         0.00000E+00
    0.12985E-06         0.30152E-07         0.00000E+00
    0.13166E-06         0.28780E-07         0.00000E+00
    0.13335E-06         0.26496E-07         0.00000E+00
    0.13487E-06         0.23367E-07         0.00000E+00
    0.13616E-06         0.19448E-07         0.00000E+00
    0.13716E-06         0.14782E-07         0.00000E+00
    0.13783E-06         0.93987E-08         0.00000E+00
    0.13811E-06         0.33198E-08         0.00000E+00
    0.15015E-06         0.45406E-08         0.00000E+00
    0.15052E-06         0.12323E-07         0.00000E+00
    0.15154E-06         0.18315E-07         0.00000E+00
    0.15304E-06         0.22730E-07         0.00000E+00
    0.15490E-06         0.25750E-07         0.00000E+00
    0.15699E-06         0.27525E-07         0.00000E+00
    0.15921E-06         0.28185E-07         0.00000E+00
    0.16145E-06         0.27836E-07         0.00000E+00
    0.16363E-06         0.26570E-07         0.00000E+00
    0.16568E-06         0.24462E-07         0.00000E+00
    0.16751E-06         0.21574E-07         0.00000E+00
    0.16907E-06         0.17957E-07         0.00000E+00
    0.17028E-06         0.13649E-07         0.00000E+00
    0.17108E-06         0.86791E-08         0.00000E+00
    0.17142E-06         0.30659E-08         0.00000E+00
    0.18154E-06         0.40949E-08         0.00000E+00
    0.18196E-06         0.11111E-07         0.00000E+00
    0.18313E-06         0.16508E-07         0.00000E+00
    0.18488E-06         0.20485E-07         0.00000E+00
    0.18704E-06         0.23204E-07         0.00000E+00
    0.18947E-06         0.24805E-07         0.00000E+00
    0.19205E-06         0.25401E-07         0.00000E+00
    0.19466E-06         0.25090E-07         0.00000E+00
    0.19720E-06         0.23951E-07         0.00000E+00
    0.19957E-06         0.22052E-07         0.00000E+00
    0.20170E-06         0.19449E-07         0.00000E+00
    0.20351E-06         0.16189E-07         0.00000E+00
    0.20492E-06         0.12305E-07         0.00000E+00
    0.20585E-06         0.78249E-08         0.00000E+00
    0.20624E-06         0.27642E-08         0.00000E+00
    0.21494E-06         0.35771E-08         0.00000E+00
    0.21538E-06         0.97051E-08         0.00000E+00
    0.21669E-06         0.14417E-07         0.00000E+00
    0.21866E-06         0.17891E-07         0.00000E+00
    0.22110E-06         0.20269E-07         0.00000E+00
    0.22385E-06         0.21673E-07         0.00000E+00
    0.22676E-06         0.22200E-07         0.00000E+00
    0.22972E-06         0.21934E-07         0.00000E+00
    0.23259E-06         0.20943E-07         0.00000E+00
    0.23527E-06         0.19286E-07         0.00000E+00
    0.23768E-06         0.17011E-07         0.00000E+00
    0.23972E-06         0.14159E-07         0.00000E+00
    0.24131E-06         0.10761E-07         0.00000E+00
    0.24237E-06         0.68426E-08         0.00000E+00
    0.24281E-06         0.24167E-08         0.00000E+00
    0.25058E-06         0.29890E-08         0.00000E+00
    0.25104E-06         0.81126E-08         0.00000E+00
    0.25247E-06         0.12054E-07         0.00000E+00
    0.25464E-06         0.14965E-07         0.00000E+00
    0.25733E-06         0.16966E-07         0.00000E+00
    0.26037E-06         0.18154E-07         0.00000E+00
    0.26360E-06         0.18609E-07         0.00000E+00
    0.26686E-06         0.18397E-07         0.00000E+00
    0.27003E-06         0.17575E-07         0.00000E+00
    0.27300E-06         0.16189E-07         0.00000E+00
    0.27566E-06         0.14281E-07         0.00000E+00
    0.27791E-06         0.11885E-07         0.00000E+00
    0.27967E-06         0.90311E-08         0.00000E+00
    0.28083E-06         0.57403E-08         0.00000E+00
    0.28131E-06         0.20261E-08         0.00000E+00
    0.28872E-06         0.23337E-08         0.00000E+00
    0.28917E-06         0.63427E-08         0.00000E+00
    0.29070E-06         0.94352E-08         0.00000E+00
    0.29304E-06         0.11731E-07         0.00000E+00
    0.29596E-06         0.13322E-07         0.00000E+00
    0.29926E-06         0.14280E-07         0.00000E+00
    0.30275E-06         0.14662E-07         0.00000E+00
    0.30629E-06         0.14516E-07         0.00000E+00
    0.30972E-06         0.13881E-07         0.00000E+00
    0.31294E-06         0.12794E-07         0.00000E+00
    0.31582E-06         0.11288E-07         0.00000E+00
    0.31826E-06         0.93918E-08         0.00000E+00
    0.32016E-06         0.71318E-08         0.00000E+00
    0.32142E-06         0.45286E-08         0.00000E+00
    0.32194E-06         0.15959E-08         0.00000E+00
    0.32956E-06         0.16155E-08         0.00000E+00
    0.32997E-06         0.44082E-08         0.00000E+00
    0.33158E-06         0.65817E-08         0.00000E+00
    0.33406E-06         0.82180E-08         0.00000E+00
    0.33717E-06         0.93747E-08         0.00000E+00
    0.34069E-06         0.10093E-07         0.00000E+00
    0.34441E-06         0.10404E-07         0.00000E+00
    0.34817E-06         0.10334E-07         0.00000E+00
    0.35182E-06         0.99059E-08         0.00000E+00
    0.35525E-06         0.91428E-08         0.00000E+00
    0.35831E-06         0.80689E-08         0.00000E+00
    0.36091E-06         0.67086E-08         0.00000E+00
    0.36293E-06         0.50855E-08         0.00000E+00
    0.36427E-06         0.32208E-08         0.00000E+00
    0.36481E-06         0.11305E-08         0.00000E+00
    0.37326E-06         0.83989E-09         0.00000E+00
    0.37363E-06         0.23263E-08         0.00000E+00
    0.37528E-06         0.35220E-08         0.00000E+00
    0.37787E-06         0.44641E-08         0.00000E+00
    0.38113E-06         0.51697E-08         0.00000E+00
    0.38480E-06         0.56449E-08         0.00000E+00
    0.38870E-06         0.58909E-08         0.00000E+00
    0.39264E-06         0.59091E-08         0.00000E+00
    0.39646E-06         0.57041E-08         0.00000E+00
    0.40004E-06         0.52854E-08         0.00000E+00
    0.40325E-06         0.46681E-08         0.00000E+00
    0.40596E-06         0.38717E-08         0.00000E+00
    0.40808E-06         0.29192E-08         0.00000E+00
    0.40947E-06         0.18336E-08         0.00000E+00
    0.41004E-06         0.63539E-09         0.00000E+00
    0.41996E-06         0.14616E-10         0.00000E+00
    0.42026E-06         0.11946E-09         0.00000E+00
    0.42192E-06         0.29224E-09         0.00000E+00
    0.42458E-06         0.51712E-09         0.00000E+00
    0.42793E-06         0.76424E-09         0.00000E+00
    0.43172E-06         0.99900E-09         0.00000E+00
    0.43574E-06         0.11889E-08         0.00000E+00
    0.43979E-06         0.13083E-08         0.00000E+00
    0.44372E-06         0.13412E-08         0.00000E+00
    0.44740E-06         0.12828E-08         0.00000E+00
    0.45069E-06         0.11389E-08         0.00000E+00
    0.45348E-06         0.92537E-09         0.00000E+00
    0.45566E-06         0.66560E-09         0.00000E+00
    0.45709E-06         0.38713E-09         0.00000E+00
    0.45766E-06         0.11746E-09         0.00000E+00
    0.46973E-06        -0.85061E-09         0.00000E+00
    0.46995E-06        -0.21843E-08         0.00000E+00
    0.47159E-06        -0.30627E-08         0.00000E+00
    0.47427E-06        -0.35638E-08         0.00000E+00
    0.47766E-06        -0.37717E-08         0.00000E+00
    0.48150E-06        -0.37672E-08         0.00000E+00
    0.48556E-06        -0.36204E-08         0.00000E+00
    0.48966E-06        -0.33867E-08         0.00000E+00
    0.49363E-06        -0.31042E-08         0.00000E+00
    0.49735E-06        -0.27929E-08         0.00000E+00
    0.50067E-06        -0.24552E-08         0.00000E+00
    0.50349E-06        -0.20782E-08         0.00000E+00
    0.50569E-06        -0.16361E-08         0.00000E+00
    0.50713E-06        -0.10944E-08         0.00000E+00
    0.50770E-06        -0.41510E-09         0.00000E+00
    0.52258E-06        -0.17435E-08         0.00000E+00
    0.52269E-06        -0.45497E-08         0.00000E+00
    0.52429E-06        -0.64876E-08         0.00000E+00
    0.52694E-06        -0.77070E-08         0.00000E+00
    0.53032E-06        -0.83542E-08         0.00000E+00
    0.53414E-06        -0.85616E-08         0.00000E+00
    0.53817E-06        -0.84413E-08         0.00000E+00
    0.54224E-06        -0.80805E-08         0.00000E+00
    0.54618E-06        -0.75407E-08         0.00000E+00
    0.54986E-06        -0.68570E-08         0.00000E+00
    0.55315E-06        -0.60399E-08         0.00000E+00
    0.55594E-06        -0.50777E-08         0.00000E+00
    0.55811E-06        -0.39400E-08         0.00000E+00
    0.55954E-06        -0.25825E-08         0.00000E+00
    0.56009E-06        -0.95249E-09         0.00000E+00
    0.57845E-06        -0.26489E-08         0.00000E+00
    0.57845E-06        -0.69339E-08         0.00000E+00
    0.57997E-06        -0.99157E-08         0.00000E+00
    0.58255E-06        -0.11827E-07         0.00000E+00
    0.58584E-06        -0.12884E-07         0.00000E+00
    0.58957E-06        -0.13277E-07         0.00000E+00
    0.59350E-06        -0.13162E-07         0.00000E+00
    0.59745E-06        -0.12663E-07         0.00000E+00
    0.60127E-06        -0.11863E-07         0.00000E+00
    0.60484E-06        -0.10813E-07         0.00000E+00
    0.60803E-06        -0.95304E-08         0.00000E+00
    0.61074E-06        -0.80030E-08         0.00000E+00
    0.61284E-06        -0.61934E-08         0.00000E+00
    0.61423E-06        -0.40441E-08         0.00000E+00
    0.61475E-06        -0.14833E-08         0.00000E+00
    0.63719E-06        -0.35482E-08         0.00000E+00
    0.63709E-06        -0.92849E-08         0.00000E+00
    0.63849E-06        -0.13267E-07         0.00000E+00
    0.64095E-06        -0.15822E-07         0.00000E+00
    0.64410E-06        -0.17245E-07         0.00000E+00
    0.64766E-06        -0.17788E-07         0.00000E+00
    0.65140E-06        -0.17657E-07         0.00000E+00
    0.65515E-06        -0.17009E-07         0.00000E+00
    0.65877E-06        -0.15953E-07         0.00000E+00
    0.66214E-06        -0.14553E-07         0.00000E+00
    0.66516E-06        -0.12832E-07         0.00000E+00
    0.66772E-06        -0.10775E-07         0.00000E+00
    0.66971E-06        -0.83367E-08         0.00000E+00
    0.67102E-06        -0.54414E-08         0.00000E+00
    0.67150E-06        -0.19943E-08         0.00000E+00
    0.69856E-06        -0.44191E-08         0.00000E+00
    0.69836E-06        -0.11541E-07         0.00000E+00
    0.69965E-06        -0.16448E-07         0.00000E+00
    0.70194E-06        -0.19575E-07         0.00000E+00
    0.70488E-06        -0.21304E-07         0.00000E+00
    0.70818E-06        -0.21955E-07         0.00000E+00
    0.71164E-06        -0.21783E-07         0.00000E+00
    0.71510E-06        -0.20981E-07         0.00000E+00
    0.71844E-06        -0.19680E-07         0.00000E+00
    0.72154E-06        -0.17957E-07         0.00000E+00
    0.72431E-06        -0.15839E-07         0.00000E+00
    0.72666E-06        -0.13308E-07         0.00000E+00
    0.72849E-06        -0.10304E-07         0.00000E+00
    0.72969E-06        -0.67326E-08         0.00000E+00
    0.73012E-06        -0.24705E-08         0.00000E+00
    0.76219E-06        -0.52347E-08         0.00000E+00
    0.76194E-06        -0.13629E-07         0.00000E+00
    0.76310E-06        -0.19350E-07         0.00000E+00
    0.76520E-06        -0.22953E-07         0.00000E+00
    0.76786E-06        -0.24914E-07         0.00000E+00
    0.77084E-06        -0.25623E-07         0.00000E+00
    0.77394E-06        -0.25386E-07         0.00000E+00
    0.77702E-06        -0.24429E-07         0.00000E+00
    0.77998E-06        -0.22904E-07         0.00000E+00
    0.78272E-06        -0.20899E-07         0.00000E+00
    0.78518E-06        -0.18442E-07         0.00000E+00
    0.78726E-06        -0.15508E-07         0.00000E+00
    0.78889E-06        -0.12024E-07         0.00000E+00
    0.78996E-06        -0.78717E-08         0.00000E+00
    0.79033E-06        -0.28955E-08         0.00000E+00
    0.82760E-06        -0.59635E-08         0.00000E+00
    0.82736E-06        -0.15464E-07         0.00000E+00
    0.82841E-06        -0.21849E-07         0.00000E+00
    0.83027E-06        -0.25805E-07         0.00000E+00
    0.83261E-06        -0.27910E-07         0.00000E+00
    0.83520E-06        -0.28625E-07         0.00000E+00
    0.83786E-06        -0.28303E-07         0.00000E+00
    0.84048E-06        -0.27199E-07         0.00000E+00
    0.84299E-06        -0.25483E-07         0.00000E+00
    0.84532E-06        -0.23249E-07         0.00000E+00
    0.84739E-06        -0.20525E-07         0.00000E+00
    0.84916E-06        -0.17279E-07         0.00000E+00
    0.85054E-06        -0.13421E-07         0.00000E+00
    0.85146E-06        -0.88098E-08         0.00000E+00
    0.85177E-06        -0.32512E-08         0.00000E+00
    0.89415E-06        -0.65679E-08         0.00000E+00
    0.89402E-06        -0.16947E-07         0.00000E+00
    0.89499E-06        -0.23802E-07         0.00000E+00
    0.89662E-06        -0.27967E-07         0.00000E+00
    0.89860E-06        -0.30119E-07         0.00000E+00
    0.90073E-06        -0.30788E-07         0.00000E+00
    0.90289E-06        -0.30367E-07         0.00000E+00
    0.90500E-06        -0.29136E-07         0.00000E+00
    0.90700E-06        -0.27274E-07         0.00000E+00
    0.90885E-06        -0.24879E-07         0.00000E+00
    0.91050E-06        -0.21976E-07         0.00000E+00
    0.91191E-06        -0.18525E-07         0.00000E+00
    0.91302E-06        -0.14421E-07         0.00000E+00
    0.91377E-06        -0.94962E-08         0.00000E+00
    0.91404E-06        -0.35183E-08         0.00000E+00
    0.96103E-06        -0.70044E-08         0.00000E+00
    0.96114E-06        -0.17967E-07         0.00000E+00
    0.96211E-06        -0.25058E-07         0.00000E+00
    0.96352E-06        -0.29263E-07         0.00000E+00
    0.96512E-06        -0.31362E-07         0.00000E+00
    0.96678E-06        -0.31941E-07         0.00000E+00
    0.96841E-06        -0.31422E-07         0.00000E+00
    0.96997E-06        -0.30098E-07         0.00000E+00
    0.97142E-06        -0.28150E-07         0.00000E+00
    0.97276E-06        -0.25675E-07         0.00000E+00
    0.97396E-06        -0.22693E-07         0.00000E+00
    0.97499E-06        -0.19157E-07         0.00000E+00
    0.97583E-06        -0.14950E-07         0.00000E+00
    0.97641E-06        -0.98802E-08         0.00000E+00
    0.97666E-06        -0.36769E-08         0.00000E+00
    0.10273E-05        -0.72224E-08         0.00000E+00
    0.10278E-05        -0.18398E-07         0.00000E+00
    0.10289E-05        -0.25450E-07         0.00000E+00
    0.10301E-05        -0.29519E-07         0.00000E+00
    0.10314E-05        -0.31471E-07         0.00000E+00
    0.10326E-05        -0.31930E-07         0.00000E+00
    0.10337E-05        -0.31332E-07         0.00000E+00
    0.10347E-05        -0.29966E-07         0.00000E+00
    0.10356E-05        -0.28006E-07         0.00000E+00
    0.10364E-05        -0.25543E-07         0.00000E+00
    0.10372E-05        -0.22592E-07         0.00000E+00
    0.10378E-05        -0.19099E-07         0.00000E+00
    0.10384E-05        -0.14942E-07         0.00000E+00
    0.10388E-05        -0.99130E-08         0.00000E+00
    0.10391E-05        -0.37066E-08         0.00000E+00
    0.10916E-05        -0.71640E-08         0.00000E+00
    0.10928E-05        -0.18107E-07         0.00000E+00
    0.10942E-05        -0.24814E-07         0.00000E+00
    0.10953E-05        -0.28571E-07         0.00000E+00
    0.10963E-05        -0.30301E-07         0.00000E+00
    0.10971E-05        -0.30639E-07         0.00000E+00
    0.10977E-05        -0.30004E-07         0.00000E+00
    0.10983E-05        -0.28665E-07         0.00000E+00
    0.10987E-05        -0.26781E-07         0.00000E+00
    0.10991E-05        -0.24429E-07         0.00000E+00
    0.10994E-05        -0.21620E-07         0.00000E+00
    0.10998E-05        -0.18299E-07         0.00000E+00
    0.11001E-05        -0.14344E-07         0.00000E+00
    0.11005E-05        -0.95496E-08         0.00000E+00
    0.11008E-05        -0.35863E-08         0.00000E+00
    0.11526E-05        -0.67646E-08         0.00000E+00
    0.11548E-05        -0.16955E-07         0.00000E+00
    0.11567E-05        -0.23001E-07         0.00000E+00
    0.11580E-05        -0.26296E-07         0.00000E+00
    0.11589E-05        -0.27769E-07         0.00000E+00
    0.11594E-05        -0.28016E-07         0.00000E+00
    0.11597E-05        -0.27412E-07         0.00000E+00
    0.11598E-05        -0.26186E-07         0.00000E+00
    0.11599E-05        -0.24470E-07         0.00000E+00
    0.11599E-05        -0.22330E-07         0.00000E+00
    0.11600E-05        -0.19771E-07         0.00000E+00
    0.11601E-05        -0.16742E-07         0.00000E+00
    0.11603E-05        -0.13129E-07         0.00000E+00
    0.11607E-05        -0.87493E-08         0.00000E+00
    0.11612E-05        -0.32937E-08         0.00000E+00
    0.12083E-05        -0.59560E-08         0.00000E+00
    0.12122E-05        -0.14823E-07         0.00000E+00
    0.12149E-05        -0.19918E-07         0.00000E+00
    0.12167E-05        -0.22655E-07         0.00000E+00
    0.12178E-05        -0.23886E-07         0.00000E+00
    0.12183E-05        -0.24114E-07         0.00000E+00
    0.12184E-05        -0.23630E-07         0.00000E+00
    0.12183E-05        -0.22607E-07         0.00000E+00
    0.12182E-05        -0.21150E-07         0.00000E+00
    0.12180E-05        -0.19311E-07         0.00000E+00
    0.12179E-05        -0.17096E-07         0.00000E+00
    0.12180E-05        -0.14465E-07         0.00000E+00
    0.12183E-05        -0.11312E-07         0.00000E+00
    0.12188E-05        -0.74853E-08         0.00000E+00
    0.12196E-05        -0.27918E-08         0.00000E+00
    0.12568E-05        -0.46745E-08         0.00000E+00
    0.12629E-05        -0.11654E-07         0.00000E+00
    0.12672E-05        -0.15595E-07         0.00000E+00
    0.12699E-05        -0.17766E-07         0.00000E+00
    0.12715E-05        -0.18832E-07         0.00000E+00
    0.12724E-05        -0.19133E-07         0.00000E+00
    0.12727E-05        -0.18855E-07         0.00000E+00
    0.12727E-05        -0.18113E-07         0.00000E+00
    0.12725E-05        -0.16985E-07         0.00000E+00
    0.12724E-05        -0.15515E-07         0.00000E+00
    0.12723E-05        -0.13717E-07         0.00000E+00
    0.12725E-05        -0.11567E-07         0.00000E+00
    0.12731E-05        -0.89776E-08         0.00000E+00
    0.12741E-05        -0.57802E-08         0.00000E+00
    0.12754E-05        -0.20446E-08         0.00000E+00
    0.12953E-05        -0.28929E-08         0.00000E+00
    0.13049E-05        -0.75694E-08         0.00000E+00
    0.13116E-05        -0.10320E-07         0.00000E+00
    0.13160E-05        -0.12021E-07         0.00000E+00
    0.13188E-05        -0.13023E-07         0.00000E+00
    0.13205E-05        -0.13460E-07         0.00000E+00
    0.13213E-05        -0.13426E-07         0.00000E+00
    0.13217E-05        -0.12999E-07         0.00000E+00
    0.13219E-05        -0.12235E-07         0.00000E+00
    0.13219E-05        -0.11175E-07         0.00000E+00
    0.13222E-05        -0.98373E-08         0.00000E+00
    0.13228E-05        -0.82185E-08         0.00000E+00
    0.13239E-05        -0.62718E-08         0.00000E+00
    0.13257E-05        -0.37766E-08         0.00000E+00
    0.13280E-05        -0.11288E-08         0.00000E+00
    0.13208E-05        -0.69396E-09         0.00000E+00
    0.13360E-05        -0.31861E-08         0.00000E+00
    0.13466E-05        -0.49165E-08         0.00000E+00
    0.13537E-05        -0.62565E-08         0.00000E+00
    0.13584E-05        -0.71644E-08         0.00000E+00
    0.13614E-05        -0.76621E-08         0.00000E+00
    0.13632E-05        -0.78043E-08         0.00000E+00
    0.13643E-05        -0.76469E-08         0.00000E+00
    0.13650E-05        -0.72350E-08         0.00000E+00
    0.13656E-05        -0.65998E-08         0.00000E+00
    0.13663E-05        -0.57583E-08         0.00000E+00
    0.13676E-05        -0.47120E-08         0.00000E+00
    0.13695E-05        -0.34389E-08         0.00000E+00
    0.13728E-05        -0.18248E-08         0.00000E+00
    0.13769E-05        -0.21374E-09         0.00000E+00
    0.13302E-05         0.23757E-09         0.00000E+00
    0.13549E-05        -0.52459E-09         0.00000E+00
    0.13710E-05        -0.11657E-08         0.00000E+00
    0.13820E-05        -0.17521E-08         0.00000E+00
    0.13893E-05        -0.21613E-08         0.00000E+00
    0.13941E-05        -0.24027E-08         0.00000E+00
    0.13972E-05        -0.25001E-08         0.00000E+00
    0.13992E-05        -0.24779E-08         0.00000E+00
    0.14007E-05        -0.23552E-08         0.00000E+00
    0.14019E-05        -0.21449E-08         0.00000E+00
    0.14034E-05        -0.18532E-08         0.00000E+00
    0.14055E-05        -0.14807E-08         0.00000E+00
    0.14087E-05        -0.10137E-08         0.00000E+00
    0.14137E-05        -0.46018E-09         0.00000E+00
    0.14217E-05         0.11098E-09         0.00000E+00
POINT_DATA        496
VECTORS vDarcyNodal double 
    0.12832E-07         0.56769E-08         0.00000E+00
    0.12854E-07         0.10550E-07         0.00000E+00
    0.12926E-07         0.19187E-07         0.00000E+00
    0.13048E-07         0.25732E-07         0.00000E+00
    0.13210E-07         0.30416E-07         0.00000E+00
    0.13399E-07         0.33441E-07         0.00000E+00
    0.13604E-07         0.34981E-07         0.00000E+00
    0.13816E-07         0.35183E-07         0.00000E+00
    0.14026E-07         0.34172E-07         0.00000E+00
    0.14228E-07         0.32053E-07         0.00000E+00
    0.14412E-07         0.28914E-07         0.00000E+00
    0.14573E-07         0.24825E-07         0.00000E+00
    0.14705E-07         0.19845E-07         0.00000E+00
    0.14801E-07         0.14015E-07         0.00000E+00
    0.14856E-07         0.73699E-08         0.00000E+00
    0.14874E-07         0.38464E-08         0.00000E+00
    0.25744E-07         0.56396E-08         0.00000E+00
    0.25788E-07         0.10480E-07         0.00000E+00
    0.25931E-07         0.19060E-07         0.00000E+00
    0.26176E-07         0.25560E-07         0.00000E+00
    0.26499E-07         0.30212E-07         0.00000E+00
    0.26875E-07         0.33216E-07         0.00000E+00
    0.27285E-07         0.34745E-07         0.00000E+00
    0.27709E-07         0.34945E-07         0.00000E+00
    0.28129E-07         0.33940E-07         0.00000E+00
    0.28531E-07         0.31836E-07         0.00000E+00
    0.28899E-07         0.28718E-07         0.00000E+00
    0.29221E-07         0.24657E-07         0.00000E+00
    0.29484E-07         0.19710E-07         0.00000E+00
    0.29676E-07         0.13921E-07         0.00000E+00
    0.29786E-07         0.73202E-08         0.00000E+00
    0.29821E-07         0.38205E-08         0.00000E+00
    0.51811E-07         0.55277E-08         0.00000E+00
    0.51898E-07         0.10272E-07         0.00000E+00
    0.52182E-07         0.18678E-07         0.00000E+00
    0.52670E-07         0.25044E-07         0.00000E+00
    0.53313E-07         0.29599E-07         0.00000E+00
    0.54064E-07         0.32541E-07         0.00000E+00
    0.54880E-07         0.34036E-07         0.00000E+00
    0.55725E-07         0.34231E-07         0.00000E+00
    0.56563E-07         0.33246E-07         0.00000E+00
    0.57364E-07         0.31184E-07         0.00000E+00
    0.58098E-07         0.28130E-07         0.00000E+00
    0.58739E-07         0.24153E-07         0.00000E+00
    0.59263E-07         0.19308E-07         0.00000E+00
    0.59646E-07         0.13637E-07         0.00000E+00
    0.59866E-07         0.71713E-08         0.00000E+00
    0.59935E-07         0.37430E-08         0.00000E+00
    0.78520E-07         0.53413E-08         0.00000E+00
    0.78648E-07         0.99236E-08         0.00000E+00
    0.79069E-07         0.18042E-07         0.00000E+00
    0.79797E-07         0.24186E-07         0.00000E+00
    0.80755E-07         0.28581E-07         0.00000E+00
    0.81875E-07         0.31418E-07         0.00000E+00
    0.83093E-07         0.32859E-07         0.00000E+00
    0.84353E-07         0.33045E-07         0.00000E+00
    0.85603E-07         0.32094E-07         0.00000E+00
    0.86797E-07         0.30103E-07         0.00000E+00
    0.87892E-07         0.27154E-07         0.00000E+00
    0.88849E-07         0.23316E-07         0.00000E+00
    0.89630E-07         0.18639E-07         0.00000E+00
    0.90201E-07         0.13165E-07         0.00000E+00
    0.90529E-07         0.69239E-08         0.00000E+00
    0.90631E-07         0.36141E-08         0.00000E+00
    0.10619E-06         0.50803E-08         0.00000E+00
    0.10635E-06         0.94369E-08         0.00000E+00
    0.10691E-06         0.17152E-07         0.00000E+00
    0.10787E-06         0.22989E-07         0.00000E+00
    0.10913E-06         0.27160E-07         0.00000E+00
    0.11061E-06         0.29852E-07         0.00000E+00
    0.11223E-06         0.31219E-07         0.00000E+00
    0.11389E-06         0.31394E-07         0.00000E+00
    0.11554E-06         0.30489E-07         0.00000E+00
    0.11712E-06         0.28597E-07         0.00000E+00
    0.11857E-06         0.25796E-07         0.00000E+00
    0.11984E-06         0.22150E-07         0.00000E+00
    0.12087E-06         0.17708E-07         0.00000E+00
    0.12162E-06         0.12509E-07         0.00000E+00
    0.12206E-06         0.65791E-08         0.00000E+00
    0.12219E-06         0.34345E-08         0.00000E+00
    0.13512E-06         0.47450E-08         0.00000E+00
    0.13532E-06         0.88122E-08         0.00000E+00
    0.13600E-06         0.16012E-07         0.00000E+00
    0.13718E-06         0.21454E-07         0.00000E+00
    0.13875E-06         0.25342E-07         0.00000E+00
    0.14058E-06         0.27850E-07         0.00000E+00
    0.14257E-06         0.29123E-07         0.00000E+00
    0.14463E-06         0.29285E-07         0.00000E+00
    0.14667E-06         0.28441E-07         0.00000E+00
    0.14863E-06         0.26676E-07         0.00000E+00
    0.15041E-06         0.24064E-07         0.00000E+00
    0.15198E-06         0.20663E-07         0.00000E+00
    0.15325E-06         0.16520E-07         0.00000E+00
    0.15419E-06         0.11671E-07         0.00000E+00
    0.15472E-06         0.61389E-08         0.00000E+00
    0.15489E-06         0.32049E-08         0.00000E+00
    0.16563E-06         0.43358E-08         0.00000E+00
    0.16586E-06         0.80506E-08         0.00000E+00
    0.16664E-06         0.14624E-07         0.00000E+00
    0.16804E-06         0.19589E-07         0.00000E+00
    0.16989E-06         0.23136E-07         0.00000E+00
    0.17206E-06         0.25423E-07         0.00000E+00
    0.17441E-06         0.26585E-07         0.00000E+00
    0.17685E-06         0.26734E-07         0.00000E+00
    0.17927E-06         0.25964E-07         0.00000E+00
    0.18157E-06         0.24354E-07         0.00000E+00
    0.18369E-06         0.21970E-07         0.00000E+00
    0.18554E-06         0.18866E-07         0.00000E+00
    0.18705E-06         0.15084E-07         0.00000E+00
    0.18815E-06         0.10656E-07         0.00000E+00
    0.18878E-06         0.56057E-08         0.00000E+00
    0.18898E-06         0.29267E-08         0.00000E+00
    0.19798E-06         0.38537E-08         0.00000E+00
    0.19824E-06         0.71546E-08         0.00000E+00
    0.19912E-06         0.12994E-07         0.00000E+00
    0.20072E-06         0.17402E-07         0.00000E+00
    0.20283E-06         0.20552E-07         0.00000E+00
    0.20531E-06         0.22585E-07         0.00000E+00
    0.20802E-06         0.23620E-07         0.00000E+00
    0.21081E-06         0.23756E-07         0.00000E+00
    0.21357E-06         0.23076E-07         0.00000E+00
    0.21622E-06         0.21648E-07         0.00000E+00
    0.21864E-06         0.19530E-07         0.00000E+00
    0.22076E-06         0.16771E-07         0.00000E+00
    0.22249E-06         0.13409E-07         0.00000E+00
    0.22375E-06         0.94733E-08         0.00000E+00
    0.22447E-06         0.49832E-08         0.00000E+00
    0.22469E-06         0.26016E-08         0.00000E+00
    0.23247E-06         0.33003E-08         0.00000E+00
    0.23274E-06         0.61274E-08         0.00000E+00
    0.23370E-06         0.11128E-07         0.00000E+00
    0.23547E-06         0.14905E-07         0.00000E+00
    0.23784E-06         0.17607E-07         0.00000E+00
    0.24061E-06         0.19357E-07         0.00000E+00
    0.24363E-06         0.20253E-07         0.00000E+00
    0.24675E-06         0.20378E-07         0.00000E+00
    0.24984E-06         0.19801E-07         0.00000E+00
    0.25279E-06         0.18581E-07         0.00000E+00
    0.25549E-06         0.16766E-07         0.00000E+00
    0.25786E-06         0.14398E-07         0.00000E+00
    0.25979E-06         0.11511E-07         0.00000E+00
    0.26120E-06         0.81307E-08         0.00000E+00
    0.26201E-06         0.42761E-08         0.00000E+00
    0.26225E-06         0.22318E-08         0.00000E+00
    0.26933E-06         0.26778E-08         0.00000E+00
    0.26960E-06         0.49744E-08         0.00000E+00
    0.27063E-06         0.90389E-08         0.00000E+00
    0.27256E-06         0.12115E-07         0.00000E+00
    0.27514E-06         0.14324E-07         0.00000E+00
    0.27818E-06         0.15764E-07         0.00000E+00
    0.28148E-06         0.16511E-07         0.00000E+00
    0.28489E-06         0.16630E-07         0.00000E+00
    0.28827E-06         0.16172E-07         0.00000E+00
    0.29150E-06         0.15184E-07         0.00000E+00
    0.29445E-06         0.13704E-07         0.00000E+00
    0.29704E-06         0.11769E-07         0.00000E+00
    0.29915E-06         0.94062E-08         0.00000E+00
    0.30069E-06         0.66411E-08         0.00000E+00
    0.30157E-06         0.34905E-08         0.00000E+00
    0.30184E-06         0.18205E-08         0.00000E+00
    0.30878E-06         0.19900E-08         0.00000E+00
    0.30905E-06         0.37027E-08         0.00000E+00
    0.31013E-06         0.67402E-08         0.00000E+00
    0.31218E-06         0.90532E-08         0.00000E+00
    0.31495E-06         0.10731E-07         0.00000E+00
    0.31821E-06         0.11841E-07         0.00000E+00
    0.32176E-06         0.12434E-07         0.00000E+00
    0.32542E-06         0.12551E-07         0.00000E+00
    0.32905E-06         0.12227E-07         0.00000E+00
    0.33251E-06         0.11494E-07         0.00000E+00
    0.33569E-06         0.10380E-07         0.00000E+00
    0.33846E-06         0.89130E-08         0.00000E+00
    0.34072E-06         0.71189E-08         0.00000E+00
    0.34238E-06         0.50203E-08         0.00000E+00
    0.34332E-06         0.26344E-08         0.00000E+00
    0.34361E-06         0.13715E-08         0.00000E+00
    0.35102E-06         0.12416E-08         0.00000E+00
    0.35128E-06         0.23222E-08         0.00000E+00
    0.35237E-06         0.42520E-08         0.00000E+00
    0.35452E-06         0.57496E-08         0.00000E+00
    0.35745E-06         0.68654E-08         0.00000E+00
    0.36089E-06         0.76312E-08         0.00000E+00
    0.36463E-06         0.80682E-08         0.00000E+00
    0.36850E-06         0.81919E-08         0.00000E+00
    0.37233E-06         0.80169E-08         0.00000E+00
    0.37598E-06         0.75587E-08         0.00000E+00
    0.37932E-06         0.68353E-08         0.00000E+00
    0.38225E-06         0.58674E-08         0.00000E+00
    0.38464E-06         0.46774E-08         0.00000E+00
    0.38638E-06         0.32876E-08         0.00000E+00
    0.38737E-06         0.17177E-08         0.00000E+00
    0.38767E-06         0.88983E-09         0.00000E+00
    0.39620E-06         0.43925E-09         0.00000E+00
    0.39644E-06         0.84602E-09         0.00000E+00
    0.39752E-06         0.16000E-08         0.00000E+00
    0.39973E-06         0.22413E-08         0.00000E+00
    0.40276E-06         0.27740E-08         0.00000E+00
    0.40634E-06         0.31894E-08         0.00000E+00
    0.41023E-06         0.34737E-08         0.00000E+00
    0.41424E-06         0.36140E-08         0.00000E+00
    0.41821E-06         0.36019E-08         0.00000E+00
    0.42200E-06         0.34360E-08         0.00000E+00
    0.42546E-06         0.31228E-08         0.00000E+00
    0.42849E-06         0.26763E-08         0.00000E+00
    0.43097E-06         0.21166E-08         0.00000E+00
    0.43278E-06         0.14673E-08         0.00000E+00
    0.43380E-06         0.75247E-09         0.00000E+00
    0.43411E-06         0.38154E-09         0.00000E+00
    0.44441E-06        -0.40845E-09         0.00000E+00
    0.44462E-06        -0.70906E-09         0.00000E+00
    0.44567E-06        -0.11832E-08         0.00000E+00
    0.44791E-06        -0.14252E-08         0.00000E+00
    0.45100E-06        -0.14850E-08         0.00000E+00
    0.45465E-06        -0.14180E-08         0.00000E+00
    0.45862E-06        -0.12776E-08         0.00000E+00
    0.46272E-06        -0.11088E-08         0.00000E+00
    0.46676E-06        -0.94489E-09         0.00000E+00
    0.47062E-06        -0.80525E-09         0.00000E+00
    0.47415E-06        -0.69528E-09         0.00000E+00
    0.47723E-06        -0.60711E-09         0.00000E+00
    0.47976E-06        -0.52167E-09         0.00000E+00
    0.48160E-06        -0.41181E-09         0.00000E+00
    0.48263E-06        -0.24643E-09         0.00000E+00
    0.48295E-06        -0.14587E-09         0.00000E+00
    0.49571E-06        -0.12906E-08         0.00000E+00
    0.49587E-06        -0.23219E-08         0.00000E+00
    0.49686E-06        -0.40569E-08         0.00000E+00
    0.49909E-06        -0.51925E-08         0.00000E+00
    0.50219E-06        -0.58406E-08         0.00000E+00
    0.50585E-06        -0.61105E-08         0.00000E+00
    0.50984E-06        -0.60996E-08         0.00000E+00
    0.51394E-06        -0.58884E-08         0.00000E+00
    0.51799E-06        -0.55369E-08         0.00000E+00
    0.52185E-06        -0.50836E-08         0.00000E+00
    0.52538E-06        -0.45456E-08         0.00000E+00
    0.52846E-06        -0.39202E-08         0.00000E+00
    0.53098E-06        -0.31878E-08         0.00000E+00
    0.53282E-06        -0.23154E-08         0.00000E+00
    0.53385E-06        -0.12614E-08         0.00000E+00
    0.53416E-06        -0.68342E-09         0.00000E+00
    0.55006E-06        -0.21936E-08         0.00000E+00
    0.55017E-06        -0.39662E-08         0.00000E+00
    0.55109E-06        -0.69716E-08         0.00000E+00
    0.55326E-06        -0.89910E-08         0.00000E+00
    0.55631E-06        -0.10208E-07         0.00000E+00
    0.55992E-06        -0.10793E-07         0.00000E+00
    0.56384E-06        -0.10891E-07         0.00000E+00
    0.56787E-06        -0.10622E-07         0.00000E+00
    0.57185E-06        -0.10074E-07         0.00000E+00
    0.57563E-06        -0.93046E-08         0.00000E+00
    0.57909E-06        -0.83430E-08         0.00000E+00
    0.58211E-06        -0.71904E-08         0.00000E+00
    0.58458E-06        -0.58245E-08         0.00000E+00
    0.58638E-06        -0.42034E-08         0.00000E+00
    0.58739E-06        -0.22717E-08         0.00000E+00
    0.58769E-06        -0.12205E-08         0.00000E+00
    0.60736E-06        -0.31006E-08         0.00000E+00
    0.60743E-06        -0.56102E-08         0.00000E+00
    0.60825E-06        -0.98671E-08         0.00000E+00
    0.61033E-06        -0.12738E-07         0.00000E+00
    0.61327E-06        -0.14488E-07         0.00000E+00
    0.61675E-06        -0.15353E-07         0.00000E+00
    0.62053E-06        -0.15534E-07         0.00000E+00
    0.62441E-06        -0.15190E-07         0.00000E+00
    0.62822E-06        -0.14440E-07         0.00000E+00
    0.63184E-06        -0.13361E-07         0.00000E+00
    0.63515E-06        -0.11991E-07         0.00000E+00
    0.63805E-06        -0.10335E-07         0.00000E+00
    0.64041E-06        -0.83661E-08         0.00000E+00
    0.64214E-06        -0.60300E-08         0.00000E+00
    0.64310E-06        -0.32535E-08         0.00000E+00
    0.64338E-06        -0.17449E-08         0.00000E+00
    0.66742E-06        -0.39914E-08         0.00000E+00
    0.66744E-06        -0.72153E-08         0.00000E+00
    0.66816E-06        -0.12672E-07         0.00000E+00
    0.67011E-06        -0.16336E-07         0.00000E+00
    0.67289E-06        -0.18562E-07         0.00000E+00
    0.67618E-06        -0.19663E-07         0.00000E+00
    0.67973E-06        -0.19895E-07         0.00000E+00
    0.68336E-06        -0.19461E-07         0.00000E+00
    0.68693E-06        -0.18508E-07         0.00000E+00
    0.69030E-06        -0.17133E-07         0.00000E+00
    0.69339E-06        -0.15383E-07         0.00000E+00
    0.69608E-06        -0.13263E-07         0.00000E+00
    0.69829E-06        -0.10740E-07         0.00000E+00
    0.69990E-06        -0.77439E-08         0.00000E+00
    0.70079E-06        -0.41799E-08         0.00000E+00
    0.70105E-06        -0.22424E-08         0.00000E+00
    0.72995E-06        -0.48416E-08         0.00000E+00
    0.72993E-06        -0.87359E-08         0.00000E+00
    0.73055E-06        -0.15303E-07         0.00000E+00
    0.73235E-06        -0.19671E-07         0.00000E+00
    0.73491E-06        -0.22299E-07         0.00000E+00
    0.73793E-06        -0.23578E-07         0.00000E+00
    0.74117E-06        -0.23826E-07         0.00000E+00
    0.74447E-06        -0.23287E-07         0.00000E+00
    0.74769E-06        -0.22138E-07         0.00000E+00
    0.75074E-06        -0.20492E-07         0.00000E+00
    0.75352E-06        -0.18403E-07         0.00000E+00
    0.75596E-06        -0.15875E-07         0.00000E+00
    0.75795E-06        -0.12866E-07         0.00000E+00
    0.75941E-06        -0.92884E-08         0.00000E+00
    0.76021E-06        -0.50210E-08         0.00000E+00
    0.76044E-06        -0.26974E-08         0.00000E+00
    0.79450E-06        -0.56220E-08         0.00000E+00
    0.79448E-06        -0.10118E-07         0.00000E+00
    0.79503E-06        -0.17661E-07         0.00000E+00
    0.79665E-06        -0.22614E-07         0.00000E+00
    0.79895E-06        -0.25549E-07         0.00000E+00
    0.80163E-06        -0.26940E-07         0.00000E+00
    0.80448E-06        -0.27166E-07         0.00000E+00
    0.80736E-06        -0.26513E-07         0.00000E+00
    0.81017E-06        -0.25182E-07         0.00000E+00
    0.81281E-06        -0.23300E-07         0.00000E+00
    0.81522E-06        -0.20928E-07         0.00000E+00
    0.81733E-06        -0.18066E-07         0.00000E+00
    0.81906E-06        -0.14660E-07         0.00000E+00
    0.82033E-06        -0.10603E-07         0.00000E+00
    0.82103E-06        -0.57442E-08         0.00000E+00
    0.82124E-06        -0.30925E-08         0.00000E+00
    0.86054E-06        -0.62986E-08         0.00000E+00
    0.86054E-06        -0.11299E-07         0.00000E+00
    0.86106E-06        -0.19635E-07         0.00000E+00
    0.86252E-06        -0.25021E-07         0.00000E+00
    0.86451E-06        -0.28148E-07         0.00000E+00
    0.86680E-06        -0.29577E-07         0.00000E+00
    0.86920E-06        -0.29746E-07         0.00000E+00
    0.87160E-06        -0.28975E-07         0.00000E+00
    0.87391E-06        -0.27488E-07         0.00000E+00
    0.87609E-06        -0.25421E-07         0.00000E+00
    0.87806E-06        -0.22837E-07         0.00000E+00
    0.87980E-06        -0.19730E-07         0.00000E+00
    0.88123E-06        -0.16035E-07         0.00000E+00
    0.88228E-06        -0.11625E-07         0.00000E+00
    0.88287E-06        -0.63151E-08         0.00000E+00
    0.88305E-06        -0.34089E-08         0.00000E+00
    0.92734E-06        -0.68308E-08         0.00000E+00
    0.92741E-06        -0.12206E-07         0.00000E+00
    0.92799E-06        -0.21099E-07         0.00000E+00
    0.92929E-06        -0.26731E-07         0.00000E+00
    0.93098E-06        -0.29921E-07         0.00000E+00
    0.93283E-06        -0.31314E-07         0.00000E+00
    0.93473E-06        -0.31396E-07         0.00000E+00
    0.93660E-06        -0.30517E-07         0.00000E+00
    0.93838E-06        -0.28913E-07         0.00000E+00
    0.94003E-06        -0.26724E-07         0.00000E+00
    0.94154E-06        -0.24012E-07         0.00000E+00
    0.94287E-06        -0.20766E-07         0.00000E+00
    0.94397E-06        -0.16907E-07         0.00000E+00
    0.94480E-06        -0.12290E-07         0.00000E+00
    0.94528E-06        -0.66982E-08         0.00000E+00
    0.94544E-06        -0.36271E-08         0.00000E+00
    0.99399E-06        -0.71720E-08         0.00000E+00
    0.99423E-06        -0.12756E-07         0.00000E+00
    0.99497E-06        -0.21912E-07         0.00000E+00
    0.99618E-06        -0.27576E-07         0.00000E+00
    0.99757E-06        -0.30692E-07         0.00000E+00
    0.99899E-06        -0.31978E-07         0.00000E+00
    0.10004E-05        -0.31958E-07         0.00000E+00
    0.10017E-05        -0.30996E-07         0.00000E+00
    0.10029E-05        -0.29329E-07         0.00000E+00
    0.10040E-05        -0.27096E-07         0.00000E+00
    0.10051E-05        -0.24352E-07         0.00000E+00
    0.10060E-05        -0.21082E-07         0.00000E+00
    0.10068E-05        -0.17198E-07         0.00000E+00
    0.10074E-05        -0.12539E-07         0.00000E+00
    0.10078E-05        -0.68583E-08         0.00000E+00
    0.10079E-05        -0.37265E-08         0.00000E+00
    0.10594E-05        -0.72679E-08         0.00000E+00
    0.10599E-05        -0.12857E-07         0.00000E+00
    0.10610E-05        -0.21926E-07         0.00000E+00
    0.10622E-05        -0.27384E-07         0.00000E+00
    0.10633E-05        -0.30291E-07         0.00000E+00
    0.10644E-05        -0.31418E-07         0.00000E+00
    0.10653E-05        -0.31301E-07         0.00000E+00
    0.10661E-05        -0.30300E-07         0.00000E+00
    0.10668E-05        -0.28641E-07         0.00000E+00
    0.10674E-05        -0.26453E-07         0.00000E+00
    0.10680E-05        -0.23782E-07         0.00000E+00
    0.10685E-05        -0.20609E-07         0.00000E+00
    0.10690E-05        -0.16843E-07         0.00000E+00
    0.10694E-05        -0.12316E-07         0.00000E+00
    0.10698E-05        -0.67614E-08         0.00000E+00
    0.10699E-05        -0.36868E-08         0.00000E+00
    0.11222E-05        -0.70572E-08         0.00000E+00
    0.11231E-05        -0.12410E-07         0.00000E+00
    0.11248E-05        -0.20991E-07         0.00000E+00
    0.11262E-05        -0.26000E-07         0.00000E+00
    0.11272E-05        -0.28583E-07         0.00000E+00
    0.11280E-05        -0.29526E-07         0.00000E+00
    0.11285E-05        -0.29346E-07         0.00000E+00
    0.11289E-05        -0.28373E-07         0.00000E+00
    0.11291E-05        -0.26808E-07         0.00000E+00
    0.11293E-05        -0.24760E-07         0.00000E+00
    0.11295E-05        -0.22270E-07         0.00000E+00
    0.11297E-05        -0.19313E-07         0.00000E+00
    0.11300E-05        -0.15802E-07         0.00000E+00
    0.11303E-05        -0.11579E-07         0.00000E+00
    0.11307E-05        -0.63755E-08         0.00000E+00
    0.11309E-05        -0.34865E-08         0.00000E+00
    0.11808E-05        -0.64725E-08         0.00000E+00
    0.11823E-05        -0.11312E-07         0.00000E+00
    0.11849E-05        -0.18971E-07         0.00000E+00
    0.11867E-05        -0.23308E-07         0.00000E+00
    0.11879E-05        -0.25494E-07         0.00000E+00
    0.11886E-05        -0.26271E-07         0.00000E+00
    0.11889E-05        -0.26094E-07         0.00000E+00
    0.11890E-05        -0.25236E-07         0.00000E+00
    0.11890E-05        -0.23858E-07         0.00000E+00
    0.11889E-05        -0.22048E-07         0.00000E+00
    0.11889E-05        -0.19838E-07         0.00000E+00
    0.11889E-05        -0.17206E-07         0.00000E+00
    0.11891E-05        -0.14073E-07         0.00000E+00
    0.11894E-05        -0.10302E-07         0.00000E+00
    0.11899E-05        -0.56693E-08         0.00000E+00
    0.11901E-05        -0.31020E-08         0.00000E+00
    0.12332E-05        -0.54447E-08         0.00000E+00
    0.12355E-05        -0.94769E-08         0.00000E+00
    0.12396E-05        -0.15788E-07         0.00000E+00
    0.12423E-05        -0.19288E-07         0.00000E+00
    0.12440E-05        -0.21070E-07         0.00000E+00
    0.12450E-05        -0.21750E-07         0.00000E+00
    0.12454E-05        -0.21668E-07         0.00000E+00
    0.12454E-05        -0.21018E-07         0.00000E+00
    0.12453E-05        -0.19914E-07         0.00000E+00
    0.12452E-05        -0.18425E-07         0.00000E+00
    0.12451E-05        -0.16579E-07         0.00000E+00
    0.12451E-05        -0.14363E-07         0.00000E+00
    0.12453E-05        -0.11711E-07         0.00000E+00
    0.12459E-05        -0.85001E-08         0.00000E+00
    0.12467E-05        -0.46104E-08         0.00000E+00
    0.12471E-05        -0.24831E-08         0.00000E+00
    0.12769E-05        -0.39154E-08         0.00000E+00
    0.12805E-05        -0.68704E-08         0.00000E+00
    0.12869E-05        -0.11491E-07         0.00000E+00
    0.12913E-05        -0.14106E-07         0.00000E+00
    0.12941E-05        -0.15559E-07         0.00000E+00
    0.12958E-05        -0.16243E-07         0.00000E+00
    0.12966E-05        -0.16344E-07         0.00000E+00
    0.12970E-05        -0.15972E-07         0.00000E+00
    0.12971E-05        -0.15203E-07         0.00000E+00
    0.12971E-05        -0.14091E-07         0.00000E+00
    0.12971E-05        -0.12665E-07         0.00000E+00
    0.12973E-05        -0.10930E-07         0.00000E+00
    0.12979E-05        -0.88414E-08         0.00000E+00
    0.12990E-05        -0.62631E-08         0.00000E+00
    0.13005E-05        -0.32176E-08         0.00000E+00
    0.13012E-05        -0.16080E-08         0.00000E+00
    0.13092E-05        -0.18880E-08         0.00000E+00
    0.13148E-05        -0.36183E-08         0.00000E+00
    0.13250E-05        -0.64353E-08         0.00000E+00
    0.13321E-05        -0.82727E-08         0.00000E+00
    0.13368E-05        -0.95197E-08         0.00000E+00
    0.13398E-05        -0.10271E-07         0.00000E+00
    0.13416E-05        -0.10569E-07         0.00000E+00
    0.13426E-05        -0.10477E-07         0.00000E+00
    0.13431E-05        -0.10051E-07         0.00000E+00
    0.13435E-05        -0.93359E-08         0.00000E+00
    0.13439E-05        -0.83607E-08         0.00000E+00
    0.13446E-05        -0.71369E-08         0.00000E+00
    0.13458E-05        -0.56573E-08         0.00000E+00
    0.13478E-05        -0.37911E-08         0.00000E+00
    0.13506E-05        -0.16911E-08         0.00000E+00
    0.13520E-05        -0.65154E-09         0.00000E+00
    0.13260E-05         0.47902E-09         0.00000E+00
    0.13359E-05        -0.28812E-09         0.00000E+00
    0.13524E-05        -0.16991E-08         0.00000E+00
    0.13635E-05        -0.29315E-08         0.00000E+00
    0.13710E-05        -0.39303E-08         0.00000E+00
    0.13759E-05        -0.45826E-08         0.00000E+00
    0.13790E-05        -0.49220E-08         0.00000E+00
    0.13810E-05        -0.49969E-08         0.00000E+00
    0.13822E-05        -0.48510E-08         0.00000E+00
    0.13832E-05        -0.45163E-08         0.00000E+00
    0.13842E-05        -0.40121E-08         0.00000E+00
    0.13855E-05        -0.33453E-08         0.00000E+00
    0.13876E-05        -0.25026E-08         0.00000E+00
    0.13909E-05        -0.14785E-08         0.00000E+00
    0.13960E-05        -0.35033E-09         0.00000E+00
    0.13991E-05         0.22238E-09         0.00000E+00
    0.13300E-05         0.00000E+00         0.00000E+00
    0.13429E-05         0.00000E+00         0.00000E+00
    0.13633E-05        -0.39168E-20         0.00000E+00
    0.13768E-05         0.39666E-22         0.00000E+00
    0.13859E-05         0.39565E-20         0.00000E+00
    0.13918E-05         0.00000E+00         0.00000E+00
    0.13957E-05         0.00000E+00         0.00000E+00
    0.13982E-05        -0.40590E-20         0.00000E+00
    0.13999E-05        -0.40590E-20         0.00000E+00
    0.14012E-05         0.40939E-20         0.00000E+00
    0.14025E-05         0.40939E-20         0.00000E+00
    0.14043E-05        -0.41259E-20         0.00000E+00
    0.14069E-05         0.16802E-22         0.00000E+00
    0.14109E-05         0.41427E-20         0.00000E+00
    0.14174E-05         0.00000E+00         0.00000E+00
    0.14218E-05         0.00000E+00         0.00000E+00
CELL_DATA        450
TENSORS stressef double 
    0.13188E+08         0.58145E+04         0.00000E+00
    0.58145E+04        -0.11907E+08         0.00000E+00
    0.00000E+00         0.00000E+00         0.00000E+00
 
    0.12171E+08         0.15257E+05         0.00000E+00
    0.15257E+05        -0.11868E+08         0.00000E+00
    0.00000E+00         0.00000E+00         0.00000E+00
 
    0.11166E+08         0.22892E+05         0.00000E+00
    0.22892E+05        -0.11797E+08         0.00000E+00
    0.00000E+00         0.00000E+00         0.00000E+00
 
    0.10182E+08         0.29865E+05         0.00000E+00
    0.29865E+05        -0.11699E+08         0.00000E+00
    0.00000E+00         0.00000E+00         0.00000E+00
 
    0.92209E+07         0.37113E+05         0.00000E+00
    0.37113E+05        -0.11579E+08         0.00000E+00
    0.00000E+00         0.00000E+00         0.00000E+00
 
    0.82847E+07         0.45376E+05         0.00000E+00
    0.45376E+05        -0.11438E+08         0.00000E+00
    0.00000E+00         0.00000E+00         0.00000E+00
 
    0.73721E+07         0.55210E+05         0.00000E+00
    0.55210E+05        -0.11277E+08         0.00000E+00
    0.00000E+00         0.00000E+00         0.00000E+00
 
    0.64805E+07         0.67002E+05         0.00000E+00
    0.67002E+05        -0.11093E+08         0.00000E+00
    0.00000E+00         0.00000E+00         0.00000E+00
 
    0.56059E+07         0.80989E+05         0.00000E+00
    0.80989E+05        -0.10885E+08         0.00000E+00
    0.00000E+00         0.00000E+00         0.00000E+00
 
    0.47435E+07         0.97270E+05         0.00000E+00
    0.97270E+05        -0.10651E+08         0.00000E+00
    0.00000E+00         0.00000E+00         0.00000E+00
 
    0.38883E+07         0.11583E+06         0.00000E+00
    0.11583E+06        -0.10387E+08         0.00000E+00
    0.00000E+00         0.00000E+00         0.00000E+00
 
    0.30352E+07         0.13653E+06         0.00000E+00
    0.13653E+06        -0.10091E+08         0.00000E+00
    0.00000E+00         0.00000E+00         0.00000E+00
 
    0.21790E+07         0.15917E+06         0.00000E+00
    0.15917E+06        -0.97604E+07         0.00000E+00
    0.00000E+00         0.00000E+00         0.00000E+00
 
    0.13155E+07         0.18347E+06         0.00000E+00
    0.18347E+06        -0.93931E+07         0.00000E+00
    0.00000E+00         0.00000E+00         0.00000E+00
 
    0.44065E+06         0.20906E+06         0.00000E+00
    0.20906E+06        -0.89876E+07         0.00000E+00
    0.00000E+00         0.00000E+00         0.00000E+00
 
    0.13164E+08         0.17167E+05         0.00000E+00
    0.17167E+05        -0.11952E+08         0.00000E+00
    0.00000E+00         0.00000E+00         0.00000E+00
 
    0.12142E+08         0.45015E+05         0.00000E+00
    0.45015E+05        -0.11914E+08         0.00000E+00
    0.00000E+00         0.00000E+00         0.00000E+00
 
    0.11135E+08         0.67538E+05         0.00000E+00
    0.67538E+05        -0.11845E+08         0.00000E+00
    0.00000E+00         0.00000E+00         0.00000E+00
 
    0.10150E+08         0.88170E+05         0.00000E+00
    0.88170E+05        -0.11751E+08         0.00000E+00
    0.00000E+00         0.00000E+00         0.00000E+00
 
    0.91892E+07         0.10971E+06         0.00000E+00
    0.10971E+06        -0.11635E+08         0.00000E+00
    0.00000E+00         0.00000E+00         0.00000E+00
 
    0.82549E+07         0.13438E+06         0.00000E+00
    0.13438E+06        -0.11498E+08         0.00000E+00
    0.00000E+00         0.00000E+00         0.00000E+00
 
    0.73451E+07         0.16384E+06         0.00000E+00
    0.16384E+06        -0.11341E+08         0.00000E+00
    0.00000E+00         0.00000E+00         0.00000E+00
 
    0.64569E+07         0.19923E+06         0.00000E+00
    0.19923E+06        -0.11162E+08         0.00000E+00
    0.00000E+00         0.00000E+00         0.00000E+00
 
    0.55860E+07         0.24126E+06         0.00000E+00
    0.24126E+06        -0.10958E+08         0.00000E+00
    0.00000E+00         0.00000E+00         0.00000E+00
 
    0.47275E+07         0.29022E+06         0.00000E+00
    0.29022E+06        -0.10728E+08         0.00000E+00
    0.00000E+00         0.00000E+00         0.00000E+00
 
    0.38761E+07         0.34605E+06         0.00000E+00
    0.34605E+06        -0.10468E+08         0.00000E+00
    0.00000E+00         0.00000E+00         0.00000E+00
 
    0.30264E+07         0.40836E+06         0.00000E+00
    0.40836E+06        -0.10175E+08         0.00000E+00
    0.00000E+00         0.00000E+00         0.00000E+00
 
    0.21734E+07         0.47651E+06         0.00000E+00
    0.47651E+06        -0.98471E+07         0.00000E+00
    0.00000E+00         0.00000E+00         0.00000E+00
 
    0.13125E+07         0.54964E+06         0.00000E+00
    0.54964E+06        -0.94819E+07         0.00000E+00
    0.00000E+00         0.00000E+00         0.00000E+00
 
    0.43978E+06         0.62669E+06         0.00000E+00
    0.62669E+06        -0.90778E+07         0.00000E+00
    0.00000E+00         0.00000E+00         0.00000E+00
 
    0.13115E+08         0.27690E+05         0.00000E+00
    0.27690E+05        -0.12044E+08         0.00000E+00
    0.00000E+00         0.00000E+00         0.00000E+00
 
    0.12083E+08         0.72508E+05         0.00000E+00
    0.72508E+05        -0.12008E+08         0.00000E+00
    0.00000E+00         0.00000E+00         0.00000E+00
 
    0.11071E+08         0.10878E+06         0.00000E+00
    0.10878E+06        -0.11944E+08         0.00000E+00
    0.00000E+00         0.00000E+00         0.00000E+00
 
    0.10084E+08         0.14221E+06         0.00000E+00
    0.14221E+06        -0.11856E+08         0.00000E+00
    0.00000E+00         0.00000E+00         0.00000E+00
 
    0.91249E+07         0.17745E+06         0.00000E+00
    0.17745E+06        -0.11747E+08         0.00000E+00
    0.00000E+00         0.00000E+00         0.00000E+00
 
    0.81945E+07         0.21816E+06         0.00000E+00
    0.21816E+06        -0.11619E+08         0.00000E+00
    0.00000E+00         0.00000E+00         0.00000E+00
 
    0.72904E+07         0.26709E+06         0.00000E+00
    0.26709E+06        -0.11470E+08         0.00000E+00
    0.00000E+00         0.00000E+00         0.00000E+00
 
    0.64091E+07         0.32613E+06         0.00000E+00
    0.32613E+06        -0.11300E+08         0.00000E+00
    0.00000E+00         0.00000E+00         0.00000E+00
 
    0.55458E+07         0.39641E+06         0.00000E+00
    0.39641E+06        -0.11105E+08         0.00000E+00
    0.00000E+00         0.00000E+00         0.00000E+00
 
    0.46951E+07         0.47841E+06         0.00000E+00
    0.47841E+06        -0.10882E+08         0.00000E+00
    0.00000E+00         0.00000E+00         0.00000E+00
 
    0.38514E+07         0.57199E+06         0.00000E+00
    0.57199E+06        -0.10630E+08         0.00000E+00
    0.00000E+00         0.00000E+00         0.00000E+00
 
    0.30089E+07         0.67650E+06         0.00000E+00
    0.67650E+06        -0.10343E+08         0.00000E+00
    0.00000E+00         0.00000E+00         0.00000E+00
 
    0.21622E+07         0.79084E+06         0.00000E+00
    0.79084E+06        -0.10021E+08         0.00000E+00
    0.00000E+00         0.00000E+00         0.00000E+00
 
    0.13066E+07         0.91354E+06         0.00000E+00
    0.91354E+06        -0.96599E+07         0.00000E+00
    0.00000E+00         0.00000E+00         0.00000E+00
 
    0.43802E+06         0.10428E+07         0.00000E+00
    0.10428E+07        -0.92587E+07         0.00000E+00
    0.00000E+00         0.00000E+00         0.00000E+00
 
    0.13038E+08         0.36828E+05         0.00000E+00
    0.36828E+05        -0.12182E+08         0.00000E+00
    0.00000E+00         0.00000E+00         0.00000E+00
 
    0.11991E+08         0.96222E+05         0.00000E+00
    0.96222E+05        -0.12150E+08         0.00000E+00
    0.00000E+00         0.00000E+00         0.00000E+00
 
    0.10971E+08         0.14434E+06         0.00000E+00
    0.14434E+06        -0.12093E+08         0.00000E+00
    0.00000E+00         0.00000E+00         0.00000E+00
 
    0.99823E+07         0.18913E+06         0.00000E+00
    0.18913E+06        -0.12014E+08         0.00000E+00
    0.00000E+00         0.00000E+00         0.00000E+00
 
    0.90262E+07         0.23708E+06         0.00000E+00
    0.23708E+06        -0.11917E+08         0.00000E+00
    0.00000E+00         0.00000E+00         0.00000E+00
 
    0.81021E+07         0.29325E+06         0.00000E+00
    0.29325E+06        -0.11801E+08         0.00000E+00
    0.00000E+00         0.00000E+00         0.00000E+00
 
    0.72069E+07         0.36142E+06         0.00000E+00
    0.36142E+06        -0.11665E+08         0.00000E+00
    0.00000E+00         0.00000E+00         0.00000E+00
 
    0.63363E+07         0.44418E+06         0.00000E+00
    0.44418E+06        -0.11508E+08         0.00000E+00
    0.00000E+00         0.00000E+00         0.00000E+00
 
    0.54846E+07         0.54308E+06         0.00000E+00
    0.54308E+06        -0.11326E+08         0.00000E+00
    0.00000E+00         0.00000E+00         0.00000E+00
 
    0.46459E+07         0.65870E+06         0.00000E+00
    0.65870E+06        -0.11116E+08         0.00000E+00
    0.00000E+00         0.00000E+00         0.00000E+00
 
    0.38138E+07         0.79083E+06         0.00000E+00
    0.79083E+06        -0.10874E+08         0.00000E+00
    0.00000E+00         0.00000E+00         0.00000E+00
 
    0.29822E+07         0.93850E+06         0.00000E+00
    0.93850E+06        -0.10597E+08         0.00000E+00
    0.00000E+00         0.00000E+00         0.00000E+00
 
    0.21452E+07         0.11001E+07         0.00000E+00
    0.11001E+07        -0.10283E+08         0.00000E+00
    0.00000E+00         0.00000E+00         0.00000E+00
 
    0.12977E+07         0.12736E+07         0.00000E+00
    0.12736E+07        -0.99280E+07         0.00000E+00
    0.00000E+00         0.00000E+00         0.00000E+00
 
    0.43536E+06         0.14565E+07         0.00000E+00
    0.14565E+07        -0.95311E+07         0.00000E+00
    0.00000E+00         0.00000E+00         0.00000E+00
 
    0.12927E+08         0.44024E+05         0.00000E+00
    0.44024E+05        -0.12369E+08         0.00000E+00
    0.00000E+00         0.00000E+00         0.00000E+00
 
    0.11862E+08         0.11465E+06         0.00000E+00
    0.11465E+06        -0.12342E+08         0.00000E+00
    0.00000E+00         0.00000E+00         0.00000E+00
 
    0.10833E+08         0.17196E+06         0.00000E+00
    0.17196E+06        -0.12294E+08         0.00000E+00
    0.00000E+00         0.00000E+00         0.00000E+00
 
    0.98421E+07         0.22614E+06         0.00000E+00
    0.22614E+06        -0.12228E+08         0.00000E+00
    0.00000E+00         0.00000E+00         0.00000E+00
 
    0.88905E+07         0.28542E+06         0.00000E+00
    0.28542E+06        -0.12146E+08         0.00000E+00
    0.00000E+00         0.00000E+00         0.00000E+00
 
    0.79754E+07         0.35623E+06         0.00000E+00
    0.35623E+06        -0.12046E+08         0.00000E+00
    0.00000E+00         0.00000E+00         0.00000E+00
 
    0.70927E+07         0.44331E+06         0.00000E+00
    0.44331E+06        -0.11928E+08         0.00000E+00
    0.00000E+00         0.00000E+00         0.00000E+00
 
    0.62369E+07         0.54991E+06         0.00000E+00
    0.54991E+06        -0.11788E+08         0.00000E+00
    0.00000E+00         0.00000E+00         0.00000E+00
 
    0.54012E+07         0.67791E+06         0.00000E+00
    0.67791E+06        -0.11623E+08         0.00000E+00
    0.00000E+00         0.00000E+00         0.00000E+00
 
    0.45789E+07         0.82799E+06         0.00000E+00
    0.82799E+06        -0.11428E+08         0.00000E+00
    0.00000E+00         0.00000E+00         0.00000E+00
 
    0.37627E+07         0.99977E+06         0.00000E+00
    0.99977E+06        -0.11201E+08         0.00000E+00
    0.00000E+00         0.00000E+00         0.00000E+00
 
    0.29459E+07         0.11919E+07         0.00000E+00
    0.11919E+07        -0.10938E+08         0.00000E+00
    0.00000E+00         0.00000E+00         0.00000E+00
 
    0.21220E+07         0.14024E+07         0.00000E+00
    0.14024E+07        -0.10634E+08         0.00000E+00
    0.00000E+00         0.00000E+00         0.00000E+00
 
    0.12855E+07         0.16284E+07         0.00000E+00
    0.16284E+07        -0.10287E+08         0.00000E+00
    0.00000E+00         0.00000E+00         0.00000E+00
 
    0.43175E+06         0.18667E+07         0.00000E+00
    0.18667E+07        -0.98963E+07         0.00000E+00
    0.00000E+00         0.00000E+00         0.00000E+00
 
    0.12777E+08         0.48718E+05         0.00000E+00
    0.48718E+05        -0.12607E+08         0.00000E+00
    0.00000E+00         0.00000E+00         0.00000E+00
 
    0.11690E+08         0.12627E+06         0.00000E+00
    0.12627E+06        -0.12587E+08         0.00000E+00
    0.00000E+00         0.00000E+00         0.00000E+00
 
    0.10650E+08         0.18940E+06         0.00000E+00
    0.18940E+06        -0.12550E+08         0.00000E+00
    0.00000E+00         0.00000E+00         0.00000E+00
 
    0.96590E+07         0.25044E+06         0.00000E+00
    0.25044E+06        -0.12500E+08         0.00000E+00
    0.00000E+00         0.00000E+00         0.00000E+00
 
    0.87141E+07         0.31931E+06         0.00000E+00
    0.31931E+06        -0.12436E+08         0.00000E+00
    0.00000E+00         0.00000E+00         0.00000E+00
 
    0.78115E+07         0.40373E+06         0.00000E+00
    0.40373E+06        -0.12357E+08         0.00000E+00
    0.00000E+00         0.00000E+00         0.00000E+00
 
    0.69455E+07         0.50933E+06         0.00000E+00
    0.50933E+06        -0.12260E+08         0.00000E+00
    0.00000E+00         0.00000E+00         0.00000E+00
 
    0.61090E+07         0.63992E+06         0.00000E+00
    0.63992E+06        -0.12141E+08         0.00000E+00
    0.00000E+00         0.00000E+00         0.00000E+00
 
    0.52942E+07         0.79766E+06         0.00000E+00
    0.79766E+06        -0.11997E+08         0.00000E+00
    0.00000E+00         0.00000E+00         0.00000E+00
 
    0.44930E+07         0.98323E+06         0.00000E+00
    0.98323E+06        -0.11823E+08         0.00000E+00
    0.00000E+00         0.00000E+00         0.00000E+00
 
    0.36973E+07         0.11961E+07         0.00000E+00
    0.11961E+07        -0.11614E+08         0.00000E+00
    0.00000E+00         0.00000E+00         0.00000E+00
 
    0.28995E+07         0.14344E+07         0.00000E+00
    0.14344E+07        -0.11366E+08         0.00000E+00
    0.00000E+00         0.00000E+00         0.00000E+00
 
    0.20925E+07         0.16957E+07         0.00000E+00
    0.16957E+07        -0.11076E+08         0.00000E+00
    0.00000E+00         0.00000E+00         0.00000E+00
 
    0.12700E+07         0.19764E+07         0.00000E+00
    0.19764E+07        -0.10740E+08         0.00000E+00
    0.00000E+00         0.00000E+00         0.00000E+00
 
    0.42714E+06         0.22724E+07         0.00000E+00
    0.22724E+07        -0.10356E+08         0.00000E+00
    0.00000E+00         0.00000E+00         0.00000E+00
 
    0.12578E+08         0.50351E+05         0.00000E+00
    0.50351E+05        -0.12899E+08         0.00000E+00
    0.00000E+00         0.00000E+00         0.00000E+00
 
    0.11468E+08         0.12960E+06         0.00000E+00
    0.12960E+06        -0.12886E+08         0.00000E+00
    0.00000E+00         0.00000E+00         0.00000E+00
 
    0.10418E+08         0.19444E+06         0.00000E+00
    0.19444E+06        -0.12864E+08         0.00000E+00
    0.00000E+00         0.00000E+00         0.00000E+00
 
    0.94277E+07         0.25928E+06         0.00000E+00
    0.25928E+06        -0.12832E+08         0.00000E+00
    0.00000E+00         0.00000E+00         0.00000E+00
 
    0.84927E+07         0.33568E+06         0.00000E+00
    0.33568E+06        -0.12790E+08         0.00000E+00
    0.00000E+00         0.00000E+00         0.00000E+00
 
    0.76069E+07         0.43249E+06         0.00000E+00
    0.43249E+06        -0.12736E+08         0.00000E+00
    0.00000E+00         0.00000E+00         0.00000E+00
 
    0.67623E+07         0.55616E+06         0.00000E+00
    0.55616E+06        -0.12664E+08         0.00000E+00
    0.00000E+00         0.00000E+00         0.00000E+00
 
    0.59504E+07         0.71094E+06         0.00000E+00
    0.71094E+06        -0.12571E+08         0.00000E+00
    0.00000E+00         0.00000E+00         0.00000E+00
 
    0.51617E+07         0.89918E+06         0.00000E+00
    0.89918E+06        -0.12452E+08         0.00000E+00
    0.00000E+00         0.00000E+00         0.00000E+00
 
    0.43868E+07         0.11215E+07         0.00000E+00
    0.11215E+07        -0.12301E+08         0.00000E+00
    0.00000E+00         0.00000E+00         0.00000E+00
 
    0.36166E+07         0.13770E+07         0.00000E+00
    0.13770E+07        -0.12113E+08         0.00000E+00
    0.00000E+00         0.00000E+00         0.00000E+00
 
    0.28423E+07         0.16636E+07         0.00000E+00
    0.16636E+07        -0.11884E+08         0.00000E+00
    0.00000E+00         0.00000E+00         0.00000E+00
 
    0.20560E+07         0.19780E+07         0.00000E+00
    0.19780E+07        -0.11610E+08         0.00000E+00
    0.00000E+00         0.00000E+00         0.00000E+00
 
    0.12510E+07         0.23159E+07         0.00000E+00
    0.23159E+07        -0.11287E+08         0.00000E+00
    0.00000E+00         0.00000E+00         0.00000E+00
 
    0.42147E+06         0.26724E+07         0.00000E+00
    0.26724E+07        -0.10911E+08         0.00000E+00
    0.00000E+00         0.00000E+00         0.00000E+00
 
    0.12321E+08         0.48365E+05         0.00000E+00
    0.48365E+05        -0.13249E+08         0.00000E+00
    0.00000E+00         0.00000E+00         0.00000E+00
 
    0.11186E+08         0.12314E+06         0.00000E+00
    0.12314E+06        -0.13245E+08         0.00000E+00
    0.00000E+00         0.00000E+00         0.00000E+00
 
    0.10128E+08         0.18489E+06         0.00000E+00
    0.18489E+06        -0.13238E+08         0.00000E+00
    0.00000E+00         0.00000E+00         0.00000E+00
 
    0.91421E+07         0.25003E+06         0.00000E+00
    0.25003E+06        -0.13228E+08         0.00000E+00
    0.00000E+00         0.00000E+00         0.00000E+00
 
    0.82213E+07         0.33156E+06         0.00000E+00
    0.33156E+06        -0.13212E+08         0.00000E+00
    0.00000E+00         0.00000E+00         0.00000E+00
 
    0.73572E+07         0.43938E+06         0.00000E+00
    0.43938E+06        -0.13185E+08         0.00000E+00
    0.00000E+00         0.00000E+00         0.00000E+00
 
    0.65397E+07         0.58060E+06         0.00000E+00
    0.58060E+06        -0.13143E+08         0.00000E+00
    0.00000E+00         0.00000E+00         0.00000E+00
 
    0.57582E+07         0.75983E+06         0.00000E+00
    0.75983E+06        -0.13079E+08         0.00000E+00
    0.00000E+00         0.00000E+00         0.00000E+00
 
    0.50015E+07         0.97946E+06         0.00000E+00
    0.97946E+06        -0.12988E+08         0.00000E+00
    0.00000E+00         0.00000E+00         0.00000E+00
 
    0.42587E+07         0.12400E+07         0.00000E+00
    0.12400E+07        -0.12864E+08         0.00000E+00
    0.00000E+00         0.00000E+00         0.00000E+00
 
    0.35192E+07         0.15401E+07         0.00000E+00
    0.15401E+07        -0.12702E+08         0.00000E+00
    0.00000E+00         0.00000E+00         0.00000E+00
 
    0.27733E+07         0.18773E+07         0.00000E+00
    0.18773E+07        -0.12495E+08         0.00000E+00
    0.00000E+00         0.00000E+00         0.00000E+00
 
    0.20121E+07         0.22474E+07         0.00000E+00
    0.22474E+07        -0.12239E+08         0.00000E+00
    0.00000E+00         0.00000E+00         0.00000E+00
 
    0.12280E+07         0.26456E+07         0.00000E+00
    0.26456E+07        -0.11930E+08         0.00000E+00
    0.00000E+00         0.00000E+00         0.00000E+00
 
    0.41465E+06         0.30658E+07         0.00000E+00
    0.30658E+07        -0.11564E+08         0.00000E+00
    0.00000E+00         0.00000E+00         0.00000E+00
 
    0.11995E+08         0.42205E+05         0.00000E+00
    0.42205E+05        -0.13660E+08         0.00000E+00
    0.00000E+00         0.00000E+00         0.00000E+00
 
    0.10837E+08         0.10545E+06         0.00000E+00
    0.10545E+06        -0.13666E+08         0.00000E+00
    0.00000E+00         0.00000E+00         0.00000E+00
 
    0.97726E+07         0.15867E+06         0.00000E+00
    0.15867E+06        -0.13678E+08         0.00000E+00
    0.00000E+00         0.00000E+00         0.00000E+00
 
    0.87950E+07         0.22012E+06         0.00000E+00
    0.22012E+06        -0.13692E+08         0.00000E+00
    0.00000E+00         0.00000E+00         0.00000E+00
 
    0.78938E+07         0.30412E+06         0.00000E+00
    0.30412E+06        -0.13705E+08         0.00000E+00
    0.00000E+00         0.00000E+00         0.00000E+00
 
    0.70576E+07         0.42145E+06         0.00000E+00
    0.42145E+06        -0.13709E+08         0.00000E+00
    0.00000E+00         0.00000E+00         0.00000E+00
 
    0.62737E+07         0.57969E+06         0.00000E+00
    0.57969E+06        -0.13699E+08         0.00000E+00
    0.00000E+00         0.00000E+00         0.00000E+00
 
    0.55292E+07         0.78366E+06         0.00000E+00
    0.78366E+06        -0.13669E+08         0.00000E+00
    0.00000E+00         0.00000E+00         0.00000E+00
 
    0.48111E+07         0.10357E+07         0.00000E+00
    0.10357E+07        -0.13610E+08         0.00000E+00
    0.00000E+00         0.00000E+00         0.00000E+00
 
    0.41066E+07         0.13360E+07         0.00000E+00
    0.13360E+07        -0.13516E+08         0.00000E+00
    0.00000E+00         0.00000E+00         0.00000E+00
 
    0.34039E+07         0.16829E+07         0.00000E+00
    0.16829E+07        -0.13381E+08         0.00000E+00
    0.00000E+00         0.00000E+00         0.00000E+00
 
    0.26917E+07         0.20732E+07         0.00000E+00
    0.20732E+07        -0.13199E+08         0.00000E+00
    0.00000E+00         0.00000E+00         0.00000E+00
 
    0.19602E+07         0.25021E+07         0.00000E+00
    0.25021E+07        -0.12963E+08         0.00000E+00
    0.00000E+00         0.00000E+00         0.00000E+00
 
    0.12008E+07         0.29638E+07         0.00000E+00
    0.29638E+07        -0.12671E+08         0.00000E+00
    0.00000E+00         0.00000E+00         0.00000E+00
 
    0.40658E+06         0.34513E+07         0.00000E+00
    0.34513E+07        -0.12317E+08         0.00000E+00
    0.00000E+00         0.00000E+00         0.00000E+00
 
    0.11586E+08         0.31332E+05         0.00000E+00
    0.31332E+05        -0.14137E+08         0.00000E+00
    0.00000E+00         0.00000E+00         0.00000E+00
 
    0.10407E+08         0.75123E+05         0.00000E+00
    0.75123E+05        -0.14154E+08         0.00000E+00
    0.00000E+00         0.00000E+00         0.00000E+00
 
    0.93419E+07         0.11377E+06         0.00000E+00
    0.11377E+06        -0.14186E+08         0.00000E+00
    0.00000E+00         0.00000E+00         0.00000E+00
 
    0.83786E+07         0.16717E+06         0.00000E+00
    0.16717E+06        -0.14228E+08         0.00000E+00
    0.00000E+00         0.00000E+00         0.00000E+00
 
    0.75037E+07         0.25077E+06         0.00000E+00
    0.25077E+06        -0.14272E+08         0.00000E+00
    0.00000E+00         0.00000E+00         0.00000E+00
 
    0.67026E+07         0.37599E+06         0.00000E+00
    0.37599E+06        -0.14311E+08         0.00000E+00
    0.00000E+00         0.00000E+00         0.00000E+00
 
    0.59598E+07         0.55073E+06         0.00000E+00
    0.55073E+06        -0.14337E+08         0.00000E+00
    0.00000E+00         0.00000E+00         0.00000E+00
 
    0.52599E+07         0.77980E+06         0.00000E+00
    0.77980E+06        -0.14342E+08         0.00000E+00
    0.00000E+00         0.00000E+00         0.00000E+00
 
    0.45876E+07         0.10653E+07         0.00000E+00
    0.10653E+07        -0.14318E+08         0.00000E+00
    0.00000E+00         0.00000E+00         0.00000E+00
 
    0.39284E+07         0.14072E+07         0.00000E+00
    0.14072E+07        -0.14258E+08         0.00000E+00
    0.00000E+00         0.00000E+00         0.00000E+00
 
    0.32687E+07         0.18031E+07         0.00000E+00
    0.18031E+07        -0.14153E+08         0.00000E+00
    0.00000E+00         0.00000E+00         0.00000E+00
 
    0.25961E+07         0.22493E+07         0.00000E+00
    0.22493E+07        -0.13998E+08         0.00000E+00
    0.00000E+00         0.00000E+00         0.00000E+00
 
    0.18994E+07         0.27401E+07         0.00000E+00
    0.27401E+07        -0.13786E+08         0.00000E+00
    0.00000E+00         0.00000E+00         0.00000E+00
 
    0.11690E+07         0.32689E+07         0.00000E+00
    0.32689E+07        -0.13512E+08         0.00000E+00
    0.00000E+00         0.00000E+00         0.00000E+00
 
    0.39714E+06         0.38277E+07         0.00000E+00
    0.38277E+07        -0.13172E+08         0.00000E+00
    0.00000E+00         0.00000E+00         0.00000E+00
 
    0.11081E+08         0.15222E+05         0.00000E+00
    0.15222E+05        -0.14685E+08         0.00000E+00
    0.00000E+00         0.00000E+00         0.00000E+00
 
    0.98859E+07         0.30836E+05         0.00000E+00
    0.30836E+05        -0.14715E+08         0.00000E+00
    0.00000E+00         0.00000E+00         0.00000E+00
 
    0.88257E+07         0.48336E+05         0.00000E+00
    0.48336E+05        -0.14769E+08         0.00000E+00
    0.00000E+00         0.00000E+00         0.00000E+00
 
    0.78842E+07         0.89030E+05         0.00000E+00
    0.89030E+05        -0.14840E+08         0.00000E+00
    0.00000E+00         0.00000E+00         0.00000E+00
 
    0.70439E+07         0.16920E+06         0.00000E+00
    0.16920E+06        -0.14918E+08         0.00000E+00
    0.00000E+00         0.00000E+00         0.00000E+00
 
    0.62865E+07         0.30066E+06         0.00000E+00
    0.30066E+06        -0.14994E+08         0.00000E+00
    0.00000E+00         0.00000E+00         0.00000E+00
 
    0.55933E+07         0.49138E+06         0.00000E+00
    0.49138E+06        -0.15059E+08         0.00000E+00
    0.00000E+00         0.00000E+00         0.00000E+00
 
    0.49463E+07         0.74597E+06         0.00000E+00
    0.74597E+06        -0.15103E+08         0.00000E+00
    0.00000E+00         0.00000E+00         0.00000E+00
 
    0.43279E+07         0.10662E+07         0.00000E+00
    0.10662E+07        -0.15117E+08         0.00000E+00
    0.00000E+00         0.00000E+00         0.00000E+00
 
    0.37215E+07         0.14514E+07         0.00000E+00
    0.14514E+07        -0.15092E+08         0.00000E+00
    0.00000E+00         0.00000E+00         0.00000E+00
 
    0.31120E+07         0.18987E+07         0.00000E+00
    0.18987E+07        -0.15020E+08         0.00000E+00
    0.00000E+00         0.00000E+00         0.00000E+00
 
    0.24852E+07         0.24036E+07         0.00000E+00
    0.24036E+07        -0.14894E+08         0.00000E+00
    0.00000E+00         0.00000E+00         0.00000E+00
 
    0.18288E+07         0.29598E+07         0.00000E+00
    0.29598E+07        -0.14707E+08         0.00000E+00
    0.00000E+00         0.00000E+00         0.00000E+00
 
    0.11320E+07         0.35595E+07         0.00000E+00
    0.35595E+07        -0.14453E+08         0.00000E+00
    0.00000E+00         0.00000E+00         0.00000E+00
 
    0.38616E+06         0.41937E+07         0.00000E+00
    0.41937E+07        -0.14128E+08         0.00000E+00
    0.00000E+00         0.00000E+00         0.00000E+00
 
    0.10463E+08        -0.66134E+04         0.00000E+00
   -0.66134E+04        -0.15309E+08         0.00000E+00
    0.00000E+00         0.00000E+00         0.00000E+00
 
    0.92592E+07        -0.28620E+05         0.00000E+00
   -0.28620E+05        -0.15352E+08         0.00000E+00
    0.00000E+00         0.00000E+00         0.00000E+00
 
    0.82126E+07        -0.39271E+05         0.00000E+00
   -0.39271E+05        -0.15430E+08         0.00000E+00
    0.00000E+00         0.00000E+00         0.00000E+00
 
    0.73025E+07        -0.16169E+05         0.00000E+00
   -0.16169E+05        -0.15533E+08         0.00000E+00
    0.00000E+00         0.00000E+00         0.00000E+00
 
    0.65067E+07         0.57472E+05         0.00000E+00
    0.57472E+05        -0.15647E+08         0.00000E+00
    0.00000E+00         0.00000E+00         0.00000E+00
 
    0.58028E+07         0.19355E+06         0.00000E+00
    0.19355E+06        -0.15763E+08         0.00000E+00
    0.00000E+00         0.00000E+00         0.00000E+00
 
    0.51690E+07         0.39979E+06         0.00000E+00
    0.39979E+06        -0.15869E+08         0.00000E+00
    0.00000E+00         0.00000E+00         0.00000E+00
 
    0.45842E+07         0.68037E+06         0.00000E+00
    0.68037E+06        -0.15953E+08         0.00000E+00
    0.00000E+00         0.00000E+00         0.00000E+00
 
    0.40284E+07         0.10365E+07         0.00000E+00
    0.10365E+07        -0.16007E+08         0.00000E+00
    0.00000E+00         0.00000E+00         0.00000E+00
 
    0.34832E+07         0.14669E+07         0.00000E+00
    0.14669E+07        -0.16019E+08         0.00000E+00
    0.00000E+00         0.00000E+00         0.00000E+00
 
    0.29313E+07         0.19680E+07         0.00000E+00
    0.19680E+07        -0.15982E+08         0.00000E+00
    0.00000E+00         0.00000E+00         0.00000E+00
 
    0.23573E+07         0.25345E+07         0.00000E+00
    0.25345E+07        -0.15887E+08         0.00000E+00
    0.00000E+00         0.00000E+00         0.00000E+00
 
    0.17472E+07         0.31593E+07         0.00000E+00
    0.31593E+07        -0.15727E+08         0.00000E+00
    0.00000E+00         0.00000E+00         0.00000E+00
 
    0.10892E+07         0.38338E+07         0.00000E+00
    0.38338E+07        -0.15496E+08         0.00000E+00
    0.00000E+00         0.00000E+00         0.00000E+00
 
    0.37344E+06         0.45478E+07         0.00000E+00
    0.45478E+07        -0.15187E+08         0.00000E+00
    0.00000E+00         0.00000E+00         0.00000E+00
 
    0.97158E+07        -0.34622E+05         0.00000E+00
   -0.34622E+05        -0.16016E+08         0.00000E+00
    0.00000E+00         0.00000E+00         0.00000E+00
 
    0.85127E+07        -0.10430E+06         0.00000E+00
   -0.10430E+06        -0.16073E+08         0.00000E+00
    0.00000E+00         0.00000E+00         0.00000E+00
 
    0.74910E+07        -0.15041E+06         0.00000E+00
   -0.15041E+06        -0.16177E+08         0.00000E+00
    0.00000E+00         0.00000E+00         0.00000E+00
 
    0.66238E+07        -0.14988E+06         0.00000E+00
   -0.14988E+06        -0.16312E+08         0.00000E+00
    0.00000E+00         0.00000E+00         0.00000E+00
 
    0.58840E+07        -0.85820E+05         0.00000E+00
   -0.85820E+05        -0.16465E+08         0.00000E+00
    0.00000E+00         0.00000E+00         0.00000E+00
 
    0.52450E+07         0.53341E+05         0.00000E+00
    0.53341E+05        -0.16621E+08         0.00000E+00
    0.00000E+00         0.00000E+00         0.00000E+00
 
    0.46814E+07         0.27474E+06         0.00000E+00
    0.27474E+06        -0.16769E+08         0.00000E+00
    0.00000E+00         0.00000E+00         0.00000E+00
 
    0.41690E+07         0.58182E+06         0.00000E+00
    0.58182E+06        -0.16895E+08         0.00000E+00
    0.00000E+00         0.00000E+00         0.00000E+00
 
    0.36855E+07         0.97505E+06         0.00000E+00
    0.97505E+06        -0.16989E+08         0.00000E+00
    0.00000E+00         0.00000E+00         0.00000E+00
 
    0.32102E+07         0.14523E+07         0.00000E+00
    0.14523E+07        -0.17040E+08         0.00000E+00
    0.00000E+00         0.00000E+00         0.00000E+00
 
    0.27242E+07         0.20095E+07         0.00000E+00
    0.20095E+07        -0.17040E+08         0.00000E+00
    0.00000E+00         0.00000E+00         0.00000E+00
 
    0.22104E+07         0.26404E+07         0.00000E+00
    0.26404E+07        -0.16978E+08         0.00000E+00
    0.00000E+00         0.00000E+00         0.00000E+00
 
    0.16534E+07         0.33371E+07         0.00000E+00
    0.33371E+07        -0.16847E+08         0.00000E+00
    0.00000E+00         0.00000E+00         0.00000E+00
 
    0.10399E+07         0.40902E+07         0.00000E+00
    0.40902E+07        -0.16639E+08         0.00000E+00
    0.00000E+00         0.00000E+00         0.00000E+00
 
    0.35873E+06         0.48884E+07         0.00000E+00
    0.48884E+07        -0.16349E+08         0.00000E+00
    0.00000E+00         0.00000E+00         0.00000E+00
 
    0.88204E+07        -0.69187E+05         0.00000E+00
   -0.69187E+05        -0.16811E+08         0.00000E+00
    0.00000E+00         0.00000E+00         0.00000E+00
 
    0.76314E+07        -0.19706E+06         0.00000E+00
   -0.19706E+06        -0.16884E+08         0.00000E+00
    0.00000E+00         0.00000E+00         0.00000E+00
 
    0.66483E+07        -0.28609E+06         0.00000E+00
   -0.28609E+06        -0.17013E+08         0.00000E+00
    0.00000E+00         0.00000E+00         0.00000E+00
 
    0.58380E+07        -0.31303E+06         0.00000E+00
   -0.31303E+06        -0.17182E+08         0.00000E+00
    0.00000E+00         0.00000E+00         0.00000E+00
 
    0.51677E+07        -0.26144E+06         0.00000E+00
   -0.26144E+06        -0.17374E+08         0.00000E+00
    0.00000E+00         0.00000E+00         0.00000E+00
 
    0.46064E+07        -0.12055E+06         0.00000E+00
   -0.12055E+06        -0.17572E+08         0.00000E+00
    0.00000E+00         0.00000E+00         0.00000E+00
 
    0.41248E+07         0.11577E+06         0.00000E+00
    0.11577E+06        -0.17762E+08         0.00000E+00
    0.00000E+00         0.00000E+00         0.00000E+00
 
    0.36959E+07         0.44992E+06         0.00000E+00
    0.44992E+06        -0.17930E+08         0.00000E+00
    0.00000E+00         0.00000E+00         0.00000E+00
 
    0.32949E+07         0.88134E+06         0.00000E+00
    0.88134E+06        -0.18065E+08         0.00000E+00
    0.00000E+00         0.00000E+00         0.00000E+00
 
    0.28990E+07         0.14071E+07         0.00000E+00
    0.14071E+07        -0.18156E+08         0.00000E+00
    0.00000E+00         0.00000E+00         0.00000E+00
 
    0.24877E+07         0.20222E+07         0.00000E+00
    0.20222E+07        -0.18192E+08         0.00000E+00
    0.00000E+00         0.00000E+00         0.00000E+00
 
    0.20422E+07         0.27199E+07         0.00000E+00
    0.27199E+07        -0.18164E+08         0.00000E+00
    0.00000E+00         0.00000E+00         0.00000E+00
 
    0.15455E+07         0.34916E+07         0.00000E+00
    0.34916E+07        -0.18063E+08         0.00000E+00
    0.00000E+00         0.00000E+00         0.00000E+00
 
    0.98291E+06         0.43269E+07         0.00000E+00
    0.43269E+07        -0.17881E+08         0.00000E+00
    0.00000E+00         0.00000E+00         0.00000E+00
 
    0.34169E+06         0.52137E+07         0.00000E+00
    0.52137E+07        -0.17611E+08         0.00000E+00
    0.00000E+00         0.00000E+00         0.00000E+00
 
    0.77581E+07        -0.11061E+06         0.00000E+00
   -0.11061E+06        -0.17702E+08         0.00000E+00
    0.00000E+00         0.00000E+00         0.00000E+00
 
    0.65998E+07        -0.30747E+06         0.00000E+00
   -0.30747E+06        -0.17790E+08         0.00000E+00
    0.00000E+00         0.00000E+00         0.00000E+00
 
    0.56721E+07        -0.44680E+06         0.00000E+00
   -0.44680E+06        -0.17946E+08         0.00000E+00
    0.00000E+00         0.00000E+00         0.00000E+00
 
    0.49348E+07        -0.50587E+06         0.00000E+00
   -0.50587E+06        -0.18149E+08         0.00000E+00
    0.00000E+00         0.00000E+00         0.00000E+00
 
    0.43494E+07        -0.46929E+06         0.00000E+00
   -0.46929E+06        -0.18379E+08         0.00000E+00
    0.00000E+00         0.00000E+00         0.00000E+00
 
    0.38800E+07        -0.32772E+06         0.00000E+00
   -0.32772E+06        -0.18618E+08         0.00000E+00
    0.00000E+00         0.00000E+00         0.00000E+00
 
    0.34934E+07        -0.76541E+05         0.00000E+00
   -0.76541E+05        -0.18849E+08         0.00000E+00
    0.00000E+00         0.00000E+00         0.00000E+00
 
    0.31598E+07         0.28521E+06         0.00000E+00
    0.28521E+06        -0.19059E+08         0.00000E+00
    0.00000E+00         0.00000E+00         0.00000E+00
 
    0.28521E+07         0.75576E+06         0.00000E+00
    0.75576E+06        -0.19234E+08         0.00000E+00
    0.00000E+00         0.00000E+00         0.00000E+00
 
    0.25456E+07         0.13312E+07         0.00000E+00
    0.13312E+07        -0.19363E+08         0.00000E+00
    0.00000E+00         0.00000E+00         0.00000E+00
 
    0.22183E+07         0.20058E+07         0.00000E+00
    0.20058E+07        -0.19436E+08         0.00000E+00
    0.00000E+00         0.00000E+00         0.00000E+00
 
    0.18497E+07         0.27721E+07         0.00000E+00
    0.27721E+07        -0.19442E+08         0.00000E+00
    0.00000E+00         0.00000E+00         0.00000E+00
 
    0.14215E+07         0.36212E+07         0.00000E+00
    0.36212E+07        -0.19373E+08         0.00000E+00
    0.00000E+00         0.00000E+00         0.00000E+00
 
    0.91701E+06         0.45420E+07         0.00000E+00
    0.45420E+07        -0.19219E+08         0.00000E+00
    0.00000E+00         0.00000E+00         0.00000E+00
 
    0.32189E+06         0.55215E+07         0.00000E+00
    0.55215E+07        -0.18971E+08         0.00000E+00
    0.00000E+00         0.00000E+00         0.00000E+00
 
    0.65088E+07        -0.15909E+06         0.00000E+00
   -0.15909E+06        -0.18695E+08         0.00000E+00
    0.00000E+00         0.00000E+00         0.00000E+00
 
    0.54019E+07        -0.43575E+06         0.00000E+00
   -0.43575E+06        -0.18798E+08         0.00000E+00
    0.00000E+00         0.00000E+00         0.00000E+00
 
    0.45498E+07        -0.63247E+06         0.00000E+00
   -0.63247E+06        -0.18981E+08         0.00000E+00
    0.00000E+00         0.00000E+00         0.00000E+00
 
    0.39045E+07        -0.72779E+06         0.00000E+00
   -0.72779E+06        -0.19218E+08         0.00000E+00
    0.00000E+00         0.00000E+00         0.00000E+00
 
    0.34213E+07        -0.70822E+06         0.00000E+00
   -0.70822E+06        -0.19485E+08         0.00000E+00
    0.00000E+00         0.00000E+00         0.00000E+00
 
    0.30592E+07        -0.56657E+06         0.00000E+00
   -0.56657E+06        -0.19762E+08         0.00000E+00
    0.00000E+00         0.00000E+00         0.00000E+00
 
    0.27815E+07        -0.30037E+06         0.00000E+00
   -0.30037E+06        -0.20032E+08         0.00000E+00
    0.00000E+00         0.00000E+00         0.00000E+00
 
    0.25554E+07         0.89486E+05         0.00000E+00
    0.89486E+05        -0.20280E+08         0.00000E+00
    0.00000E+00         0.00000E+00         0.00000E+00
 
    0.23521E+07         0.59974E+06         0.00000E+00
    0.59974E+06        -0.20493E+08         0.00000E+00
    0.00000E+00         0.00000E+00         0.00000E+00
 
    0.21454E+07         0.12254E+07         0.00000E+00
    0.12254E+07        -0.20659E+08         0.00000E+00
    0.00000E+00         0.00000E+00         0.00000E+00
 
    0.19117E+07         0.19602E+07         0.00000E+00
    0.19602E+07        -0.20767E+08         0.00000E+00
    0.00000E+00         0.00000E+00         0.00000E+00
 
    0.16294E+07         0.27963E+07         0.00000E+00
    0.27963E+07        -0.20808E+08         0.00000E+00
    0.00000E+00         0.00000E+00         0.00000E+00
 
    0.12785E+07         0.37245E+07         0.00000E+00
    0.37245E+07        -0.20771E+08         0.00000E+00
    0.00000E+00         0.00000E+00         0.00000E+00
 
    0.84045E+06         0.47334E+07         0.00000E+00
    0.47334E+07        -0.20647E+08         0.00000E+00
    0.00000E+00         0.00000E+00         0.00000E+00
 
    0.29873E+06         0.58093E+07         0.00000E+00
    0.58093E+07        -0.20424E+08         0.00000E+00
    0.00000E+00         0.00000E+00         0.00000E+00
 
    0.50526E+07        -0.21470E+06         0.00000E+00
   -0.21470E+06        -0.19797E+08         0.00000E+00
    0.00000E+00         0.00000E+00         0.00000E+00
 
    0.40221E+07        -0.58172E+06         0.00000E+00
   -0.58172E+06        -0.19916E+08         0.00000E+00
    0.00000E+00         0.00000E+00         0.00000E+00
 
    0.32693E+07        -0.84223E+06         0.00000E+00
   -0.84223E+06        -0.20124E+08         0.00000E+00
    0.00000E+00         0.00000E+00         0.00000E+00
 
    0.27377E+07        -0.97710E+06         0.00000E+00
   -0.97710E+06        -0.20392E+08         0.00000E+00
    0.00000E+00         0.00000E+00         0.00000E+00
 
    0.23758E+07        -0.97573E+06         0.00000E+00
   -0.97573E+06        -0.20693E+08         0.00000E+00
    0.00000E+00         0.00000E+00         0.00000E+00
 
    0.21377E+07        -0.83401E+06         0.00000E+00
   -0.83401E+06        -0.21006E+08         0.00000E+00
    0.00000E+00         0.00000E+00         0.00000E+00
 
    0.19831E+07        -0.55233E+06         0.00000E+00
   -0.55233E+06        -0.21310E+08         0.00000E+00
    0.00000E+00         0.00000E+00         0.00000E+00
 
    0.18772E+07        -0.13399E+06         0.00000E+00
   -0.13399E+06        -0.21592E+08         0.00000E+00
    0.00000E+00         0.00000E+00         0.00000E+00
 
    0.17894E+07         0.41603E+06         0.00000E+00
    0.41603E+06        -0.21838E+08         0.00000E+00
    0.00000E+00         0.00000E+00         0.00000E+00
 
    0.16928E+07         0.10917E+07         0.00000E+00
    0.10917E+07        -0.22037E+08         0.00000E+00
    0.00000E+00         0.00000E+00         0.00000E+00
 
    0.15629E+07         0.18863E+07         0.00000E+00
    0.18863E+07        -0.22179E+08         0.00000E+00
    0.00000E+00         0.00000E+00         0.00000E+00
 
    0.13769E+07         0.27920E+07         0.00000E+00
    0.27920E+07        -0.22254E+08         0.00000E+00
    0.00000E+00         0.00000E+00         0.00000E+00
 
    0.11131E+07         0.37997E+07         0.00000E+00
    0.37997E+07        -0.22251E+08         0.00000E+00
    0.00000E+00         0.00000E+00         0.00000E+00
 
    0.75098E+06         0.48984E+07         0.00000E+00
    0.48984E+07        -0.22158E+08         0.00000E+00
    0.00000E+00         0.00000E+00         0.00000E+00
 
    0.27143E+06         0.60739E+07         0.00000E+00
    0.60739E+07        -0.21963E+08         0.00000E+00
    0.00000E+00         0.00000E+00         0.00000E+00
 
    0.33695E+07        -0.27734E+06         0.00000E+00
   -0.27734E+06        -0.21016E+08         0.00000E+00
    0.00000E+00         0.00000E+00         0.00000E+00
 
    0.24453E+07        -0.74462E+06         0.00000E+00
   -0.74462E+06        -0.21149E+08         0.00000E+00
    0.00000E+00         0.00000E+00         0.00000E+00
 
    0.18194E+07        -0.10743E+07         0.00000E+00
   -0.10743E+07        -0.21381E+08         0.00000E+00
    0.00000E+00         0.00000E+00         0.00000E+00
 
    0.14260E+07        -0.12507E+07         0.00000E+00
   -0.12507E+07        -0.21677E+08         0.00000E+00
    0.00000E+00         0.00000E+00         0.00000E+00
 
    0.12063E+07        -0.12676E+07         0.00000E+00
   -0.12676E+07        -0.22007E+08         0.00000E+00
    0.00000E+00         0.00000E+00         0.00000E+00
 
    0.11096E+07        -0.11250E+07         0.00000E+00
   -0.11250E+07        -0.22348E+08         0.00000E+00
    0.00000E+00         0.00000E+00         0.00000E+00
 
    0.10927E+07        -0.82711E+06         0.00000E+00
   -0.82711E+06        -0.22680E+08         0.00000E+00
    0.00000E+00         0.00000E+00         0.00000E+00
 
    0.11192E+07        -0.38012E+06         0.00000E+00
   -0.38012E+06        -0.22989E+08         0.00000E+00
    0.00000E+00         0.00000E+00         0.00000E+00
 
    0.11578E+07         0.20896E+06         0.00000E+00
    0.20896E+06        -0.23262E+08         0.00000E+00
    0.00000E+00         0.00000E+00         0.00000E+00
 
    0.11816E+07         0.93315E+06         0.00000E+00
    0.93315E+06        -0.23490E+08         0.00000E+00
    0.00000E+00         0.00000E+00         0.00000E+00
 
    0.11655E+07         0.17856E+07         0.00000E+00
    0.17856E+07        -0.23662E+08         0.00000E+00
    0.00000E+00         0.00000E+00         0.00000E+00
 
    0.10863E+07         0.27590E+07         0.00000E+00
    0.27590E+07        -0.23769E+08         0.00000E+00
    0.00000E+00         0.00000E+00         0.00000E+00
 
    0.92058E+06         0.38453E+07         0.00000E+00
    0.38453E+07        -0.23800E+08         0.00000E+00
    0.00000E+00         0.00000E+00         0.00000E+00
 
    0.64560E+06         0.50339E+07         0.00000E+00
    0.50339E+07        -0.23741E+08         0.00000E+00
    0.00000E+00         0.00000E+00         0.00000E+00
 
    0.23897E+06         0.63113E+07         0.00000E+00
    0.63113E+07        -0.23579E+08         0.00000E+00
    0.00000E+00         0.00000E+00         0.00000E+00
 
    0.14400E+07        -0.34672E+06         0.00000E+00
   -0.34672E+06        -0.22357E+08         0.00000E+00
    0.00000E+00         0.00000E+00         0.00000E+00
 
    0.65781E+06        -0.92304E+06         0.00000E+00
   -0.92304E+06        -0.22504E+08         0.00000E+00
    0.00000E+00         0.00000E+00         0.00000E+00
 
    0.19072E+06        -0.13256E+07         0.00000E+00
   -0.13256E+07        -0.22757E+08         0.00000E+00
    0.00000E+00         0.00000E+00         0.00000E+00
 
   -0.37351E+05        -0.15439E+07         0.00000E+00
   -0.15439E+07        -0.23076E+08         0.00000E+00
    0.00000E+00         0.00000E+00         0.00000E+00
 
   -0.92412E+05        -0.15776E+07         0.00000E+00
   -0.15776E+07        -0.23428E+08         0.00000E+00
    0.00000E+00         0.00000E+00         0.00000E+00
 
   -0.29832E+05        -0.14323E+07         0.00000E+00
   -0.14323E+07        -0.23789E+08         0.00000E+00
    0.00000E+00         0.00000E+00         0.00000E+00
 
    0.10501E+06        -0.11170E+07         0.00000E+00
   -0.11170E+07        -0.24139E+08         0.00000E+00
    0.00000E+00         0.00000E+00         0.00000E+00
 
    0.27519E+06        -0.64165E+06         0.00000E+00
   -0.64165E+06        -0.24464E+08         0.00000E+00
    0.00000E+00         0.00000E+00         0.00000E+00
 
    0.45021E+06        -0.15324E+05         0.00000E+00
   -0.15324E+05        -0.24756E+08         0.00000E+00
    0.00000E+00         0.00000E+00         0.00000E+00
 
    0.60379E+06         0.75419E+06         0.00000E+00
    0.75419E+06        -0.25005E+08         0.00000E+00
    0.00000E+00         0.00000E+00         0.00000E+00
 
    0.71174E+06         0.16604E+07         0.00000E+00
    0.16604E+07        -0.25203E+08         0.00000E+00
    0.00000E+00         0.00000E+00         0.00000E+00
 
    0.75031E+06         0.26976E+07         0.00000E+00
    0.26976E+07        -0.25341E+08         0.00000E+00
    0.00000E+00         0.00000E+00         0.00000E+00
 
    0.69505E+06         0.38590E+07         0.00000E+00
    0.38590E+07        -0.25406E+08         0.00000E+00
    0.00000E+00         0.00000E+00         0.00000E+00
 
    0.52036E+06         0.51361E+07         0.00000E+00
    0.51361E+07        -0.25384E+08         0.00000E+00
    0.00000E+00         0.00000E+00         0.00000E+00
 
    0.19995E+06         0.65163E+07         0.00000E+00
    0.65163E+07        -0.25259E+08         0.00000E+00
    0.00000E+00         0.00000E+00         0.00000E+00
 
   -0.75397E+06        -0.42234E+06         0.00000E+00
   -0.42234E+06        -0.23830E+08         0.00000E+00
    0.00000E+00         0.00000E+00         0.00000E+00
 
   -0.13523E+07        -0.11148E+07         0.00000E+00
   -0.11148E+07        -0.23987E+08         0.00000E+00
    0.00000E+00         0.00000E+00         0.00000E+00
 
   -0.16241E+07        -0.15916E+07         0.00000E+00
   -0.15916E+07        -0.24256E+08         0.00000E+00
    0.00000E+00         0.00000E+00         0.00000E+00
 
   -0.16567E+07        -0.18498E+07         0.00000E+00
   -0.18498E+07        -0.24591E+08         0.00000E+00
    0.00000E+00         0.00000E+00         0.00000E+00
 
   -0.15238E+07        -0.18967E+07         0.00000E+00
   -0.18967E+07        -0.24955E+08         0.00000E+00
    0.00000E+00         0.00000E+00         0.00000E+00
 
   -0.12845E+07        -0.17456E+07         0.00000E+00
   -0.17456E+07        -0.25323E+08         0.00000E+00
    0.00000E+00         0.00000E+00         0.00000E+00
 
   -0.98513E+06        -0.14116E+07         0.00000E+00
   -0.14116E+07        -0.25677E+08         0.00000E+00
    0.00000E+00         0.00000E+00         0.00000E+00
 
   -0.66151E+06        -0.90872E+06         0.00000E+00
   -0.90872E+06        -0.26008E+08         0.00000E+00
    0.00000E+00         0.00000E+00         0.00000E+00
 
   -0.34185E+06        -0.24854E+06         0.00000E+00
   -0.24854E+06        -0.26306E+08         0.00000E+00
    0.00000E+00         0.00000E+00         0.00000E+00
 
   -0.50058E+05         0.56080E+06         0.00000E+00
    0.56080E+06        -0.26568E+08         0.00000E+00
    0.00000E+00         0.00000E+00         0.00000E+00
 
    0.19148E+06         0.15141E+07         0.00000E+00
    0.15141E+07        -0.26785E+08         0.00000E+00
    0.00000E+00         0.00000E+00         0.00000E+00
 
    0.35958E+06         0.26077E+07         0.00000E+00
    0.26077E+07        -0.26950E+08         0.00000E+00
    0.00000E+00         0.00000E+00         0.00000E+00
 
    0.42863E+06         0.38382E+07         0.00000E+00
    0.38382E+07        -0.27050E+08         0.00000E+00
    0.00000E+00         0.00000E+00         0.00000E+00
 
    0.37002E+06         0.51998E+07         0.00000E+00
    0.51998E+07        -0.27070E+08         0.00000E+00
    0.00000E+00         0.00000E+00         0.00000E+00
 
    0.15252E+06         0.66823E+07         0.00000E+00
    0.66823E+07        -0.26988E+08         0.00000E+00
    0.00000E+00         0.00000E+00         0.00000E+00
 
   -0.32285E+07        -0.50344E+06         0.00000E+00
   -0.50344E+06        -0.25438E+08         0.00000E+00
    0.00000E+00         0.00000E+00         0.00000E+00
 
   -0.35939E+07        -0.13167E+07         0.00000E+00
   -0.13167E+07        -0.25604E+08         0.00000E+00
    0.00000E+00         0.00000E+00         0.00000E+00
 
   -0.36288E+07        -0.18661E+07         0.00000E+00
   -0.18661E+07        -0.25883E+08         0.00000E+00
    0.00000E+00         0.00000E+00         0.00000E+00
 
   -0.34334E+07        -0.21588E+07         0.00000E+00
   -0.21588E+07        -0.26222E+08         0.00000E+00
    0.00000E+00         0.00000E+00         0.00000E+00
 
   -0.30887E+07        -0.22129E+07         0.00000E+00
   -0.22129E+07        -0.26584E+08         0.00000E+00
    0.00000E+00         0.00000E+00         0.00000E+00
 
   -0.26566E+07        -0.20513E+07         0.00000E+00
   -0.20513E+07        -0.26943E+08         0.00000E+00
    0.00000E+00         0.00000E+00         0.00000E+00
 
   -0.21824E+07        -0.16968E+07         0.00000E+00
   -0.16968E+07        -0.27286E+08         0.00000E+00
    0.00000E+00         0.00000E+00         0.00000E+00
 
   -0.16984E+07        -0.11685E+07         0.00000E+00
   -0.11685E+07        -0.27604E+08         0.00000E+00
    0.00000E+00         0.00000E+00         0.00000E+00
 
   -0.12284E+07        -0.48004E+06         0.00000E+00
   -0.48004E+06        -0.27895E+08         0.00000E+00
    0.00000E+00         0.00000E+00         0.00000E+00
 
   -0.79188E+06         0.36060E+06         0.00000E+00
    0.36060E+06        -0.28157E+08         0.00000E+00
    0.00000E+00         0.00000E+00         0.00000E+00
 
   -0.40793E+06         0.13504E+07         0.00000E+00
    0.13504E+07        -0.28386E+08         0.00000E+00
    0.00000E+00         0.00000E+00         0.00000E+00
 
   -0.98166E+05         0.24896E+07         0.00000E+00
    0.24896E+07        -0.28575E+08         0.00000E+00
    0.00000E+00         0.00000E+00         0.00000E+00
 
    0.11106E+06         0.37792E+07         0.00000E+00
    0.37792E+07        -0.28712E+08         0.00000E+00
    0.00000E+00         0.00000E+00         0.00000E+00
 
    0.18765E+06         0.52183E+07         0.00000E+00
    0.52183E+07        -0.28778E+08         0.00000E+00
    0.00000E+00         0.00000E+00         0.00000E+00
 
    0.94206E+05         0.68003E+07         0.00000E+00
    0.68003E+07        -0.28749E+08         0.00000E+00
    0.00000E+00         0.00000E+00         0.00000E+00
 
   -0.59968E+07        -0.58895E+06         0.00000E+00
   -0.58895E+06        -0.27188E+08         0.00000E+00
    0.00000E+00         0.00000E+00         0.00000E+00
 
   -0.60717E+07        -0.15242E+07         0.00000E+00
   -0.15242E+07        -0.27360E+08         0.00000E+00
    0.00000E+00         0.00000E+00         0.00000E+00
 
   -0.58227E+07        -0.21400E+07         0.00000E+00
   -0.21400E+07        -0.27639E+08         0.00000E+00
    0.00000E+00         0.00000E+00         0.00000E+00
 
   -0.53644E+07        -0.24576E+07         0.00000E+00
   -0.24576E+07        -0.27969E+08         0.00000E+00
    0.00000E+00         0.00000E+00         0.00000E+00
 
   -0.47850E+07        -0.25096E+07         0.00000E+00
   -0.25096E+07        -0.28310E+08         0.00000E+00
    0.00000E+00         0.00000E+00         0.00000E+00
 
   -0.41469E+07        -0.23315E+07         0.00000E+00
   -0.23315E+07        -0.28639E+08         0.00000E+00
    0.00000E+00         0.00000E+00         0.00000E+00
 
   -0.34913E+07        -0.19551E+07         0.00000E+00
   -0.19551E+07        -0.28947E+08         0.00000E+00
    0.00000E+00         0.00000E+00         0.00000E+00
 
   -0.28441E+07        -0.14050E+07         0.00000E+00
   -0.14050E+07        -0.29232E+08         0.00000E+00
    0.00000E+00         0.00000E+00         0.00000E+00
 
   -0.22216E+07        -0.69668E+06         0.00000E+00
   -0.69668E+06        -0.29498E+08         0.00000E+00
    0.00000E+00         0.00000E+00         0.00000E+00
 
   -0.16365E+07         0.16283E+06         0.00000E+00
    0.16283E+06        -0.29747E+08         0.00000E+00
    0.00000E+00         0.00000E+00         0.00000E+00
 
   -0.11027E+07         0.11741E+07         0.00000E+00
    0.11741E+07        -0.29979E+08         0.00000E+00
    0.00000E+00         0.00000E+00         0.00000E+00
 
   -0.63870E+06         0.23429E+07         0.00000E+00
    0.23429E+07        -0.30189E+08         0.00000E+00
    0.00000E+00         0.00000E+00         0.00000E+00
 
   -0.27111E+06         0.36770E+07         0.00000E+00
    0.36770E+07        -0.30365E+08         0.00000E+00
    0.00000E+00         0.00000E+00         0.00000E+00
 
   -0.35918E+05         0.51824E+07         0.00000E+00
    0.51824E+07        -0.30485E+08         0.00000E+00
    0.00000E+00         0.00000E+00         0.00000E+00
 
    0.21736E+05         0.68585E+07         0.00000E+00
    0.68585E+07        -0.30520E+08         0.00000E+00
    0.00000E+00         0.00000E+00         0.00000E+00
 
   -0.90680E+07        -0.67748E+06         0.00000E+00
   -0.67748E+06        -0.29085E+08         0.00000E+00
    0.00000E+00         0.00000E+00         0.00000E+00
 
   -0.87844E+07        -0.17312E+07         0.00000E+00
   -0.17312E+07        -0.29257E+08         0.00000E+00
    0.00000E+00         0.00000E+00         0.00000E+00
 
   -0.81985E+07        -0.24012E+07         0.00000E+00
   -0.24012E+07        -0.29525E+08         0.00000E+00
    0.00000E+00         0.00000E+00         0.00000E+00
 
   -0.74414E+07        -0.27286E+07         0.00000E+00
   -0.27286E+07        -0.29826E+08         0.00000E+00
    0.00000E+00         0.00000E+00         0.00000E+00
 
   -0.66069E+07        -0.27656E+07         0.00000E+00
   -0.27656E+07        -0.30121E+08         0.00000E+00
    0.00000E+00         0.00000E+00         0.00000E+00
 
   -0.57544E+07        -0.25634E+07         0.00000E+00
   -0.25634E+07        -0.30393E+08         0.00000E+00
    0.00000E+00         0.00000E+00         0.00000E+00
 
   -0.49167E+07        -0.21645E+07         0.00000E+00
   -0.21645E+07        -0.30640E+08         0.00000E+00
    0.00000E+00         0.00000E+00         0.00000E+00
 
   -0.41088E+07        -0.15987E+07         0.00000E+00
   -0.15987E+07        -0.30868E+08         0.00000E+00
    0.00000E+00         0.00000E+00         0.00000E+00
 
   -0.33365E+07        -0.88293E+06         0.00000E+00
   -0.88293E+06        -0.31087E+08         0.00000E+00
    0.00000E+00         0.00000E+00         0.00000E+00
 
   -0.26026E+07        -0.21725E+05         0.00000E+00
   -0.21725E+05        -0.31307E+08         0.00000E+00
    0.00000E+00         0.00000E+00         0.00000E+00
 
   -0.19133E+07         0.99047E+06         0.00000E+00
    0.99047E+06        -0.31532E+08         0.00000E+00
    0.00000E+00         0.00000E+00         0.00000E+00
 
   -0.12823E+07         0.21669E+07         0.00000E+00
    0.21669E+07        -0.31760E+08         0.00000E+00
    0.00000E+00         0.00000E+00         0.00000E+00
 
   -0.73547E+06         0.35248E+07         0.00000E+00
    0.35248E+07        -0.31978E+08         0.00000E+00
    0.00000E+00         0.00000E+00         0.00000E+00
 
   -0.31285E+06         0.50801E+07         0.00000E+00
    0.50801E+07        -0.32162E+08         0.00000E+00
    0.00000E+00         0.00000E+00         0.00000E+00
 
   -0.69287E+05         0.68414E+07         0.00000E+00
    0.68414E+07        -0.32277E+08         0.00000E+00
    0.00000E+00         0.00000E+00         0.00000E+00
 
   -0.12445E+08        -0.76715E+06         0.00000E+00
   -0.76715E+06        -0.31132E+08         0.00000E+00
    0.00000E+00         0.00000E+00         0.00000E+00
 
   -0.11722E+08        -0.19290E+07         0.00000E+00
   -0.19290E+07        -0.31295E+08         0.00000E+00
    0.00000E+00         0.00000E+00         0.00000E+00
 
   -0.10740E+08        -0.26326E+07         0.00000E+00
   -0.26326E+07        -0.31535E+08         0.00000E+00
    0.00000E+00         0.00000E+00         0.00000E+00
 
   -0.96492E+07        -0.29475E+07         0.00000E+00
   -0.29475E+07        -0.31781E+08         0.00000E+00
    0.00000E+00         0.00000E+00         0.00000E+00
 
   -0.85449E+07        -0.29527E+07         0.00000E+00
   -0.29527E+07        -0.31998E+08         0.00000E+00
    0.00000E+00         0.00000E+00         0.00000E+00
 
   -0.74773E+07        -0.27187E+07         0.00000E+00
   -0.27187E+07        -0.32179E+08         0.00000E+00
    0.00000E+00         0.00000E+00         0.00000E+00
 
   -0.64643E+07        -0.22990E+07         0.00000E+00
   -0.22990E+07        -0.32333E+08         0.00000E+00
    0.00000E+00         0.00000E+00         0.00000E+00
 
   -0.55053E+07        -0.17277E+07         0.00000E+00
   -0.17277E+07        -0.32477E+08         0.00000E+00
    0.00000E+00         0.00000E+00         0.00000E+00
 
   -0.45914E+07        -0.10214E+07         0.00000E+00
   -0.10214E+07        -0.32627E+08         0.00000E+00
    0.00000E+00         0.00000E+00         0.00000E+00
 
   -0.37129E+07        -0.18110E+06         0.00000E+00
   -0.18110E+06        -0.32801E+08         0.00000E+00
    0.00000E+00         0.00000E+00         0.00000E+00
 
   -0.28654E+07         0.80504E+06         0.00000E+00
    0.80504E+06        -0.33008E+08         0.00000E+00
    0.00000E+00         0.00000E+00         0.00000E+00
 
   -0.20551E+07         0.19599E+07         0.00000E+00
    0.19599E+07        -0.33250E+08         0.00000E+00
    0.00000E+00         0.00000E+00         0.00000E+00
 
   -0.13051E+07         0.33132E+07         0.00000E+00
    0.33132E+07        -0.33515E+08         0.00000E+00
    0.00000E+00         0.00000E+00         0.00000E+00
 
   -0.65945E+06         0.48952E+07         0.00000E+00
    0.48952E+07        -0.33778E+08         0.00000E+00
    0.00000E+00         0.00000E+00         0.00000E+00
 
   -0.18483E+06         0.67281E+07         0.00000E+00
    0.67281E+07        -0.33993E+08         0.00000E+00
    0.00000E+00         0.00000E+00         0.00000E+00
 
   -0.16124E+08        -0.85549E+06         0.00000E+00
   -0.85549E+06        -0.33328E+08         0.00000E+00
    0.00000E+00         0.00000E+00         0.00000E+00
 
   -0.14864E+08        -0.21051E+07         0.00000E+00
   -0.21051E+07        -0.33474E+08         0.00000E+00
    0.00000E+00         0.00000E+00         0.00000E+00
 
   -0.13421E+08        -0.28093E+07         0.00000E+00
   -0.28093E+07        -0.33660E+08         0.00000E+00
    0.00000E+00         0.00000E+00         0.00000E+00
 
   -0.11965E+08        -0.30810E+07         0.00000E+00
   -0.30810E+07        -0.33814E+08         0.00000E+00
    0.00000E+00         0.00000E+00         0.00000E+00
 
   -0.10586E+08        -0.30352E+07         0.00000E+00
   -0.30352E+07        -0.33911E+08         0.00000E+00
    0.00000E+00         0.00000E+00         0.00000E+00
 
   -0.93140E+07        -0.27641E+07         0.00000E+00
   -0.27641E+07        -0.33960E+08         0.00000E+00
    0.00000E+00         0.00000E+00         0.00000E+00
 
   -0.81423E+07        -0.23301E+07         0.00000E+00
   -0.23301E+07        -0.33986E+08         0.00000E+00
    0.00000E+00         0.00000E+00         0.00000E+00
 
   -0.70492E+07        -0.17687E+07         0.00000E+00
   -0.17687E+07        -0.34016E+08         0.00000E+00
    0.00000E+00         0.00000E+00         0.00000E+00
 
   -0.60083E+07        -0.10940E+07         0.00000E+00
   -0.10940E+07        -0.34076E+08         0.00000E+00
    0.00000E+00         0.00000E+00         0.00000E+00
 
   -0.49947E+07        -0.30270E+06         0.00000E+00
   -0.30270E+06        -0.34187E+08         0.00000E+00
    0.00000E+00         0.00000E+00         0.00000E+00
 
   -0.39904E+07         0.62389E+06         0.00000E+00
    0.62389E+06        -0.34364E+08         0.00000E+00
    0.00000E+00         0.00000E+00         0.00000E+00
 
   -0.29902E+07         0.17193E+07         0.00000E+00
    0.17193E+07        -0.34617E+08         0.00000E+00
    0.00000E+00         0.00000E+00         0.00000E+00
 
   -0.20104E+07         0.30298E+07         0.00000E+00
    0.30298E+07        -0.34937E+08         0.00000E+00
    0.00000E+00         0.00000E+00         0.00000E+00
 
   -0.10979E+07         0.46059E+07         0.00000E+00
    0.46059E+07        -0.35296E+08         0.00000E+00
    0.00000E+00         0.00000E+00         0.00000E+00
 
   -0.33323E+06         0.64901E+07         0.00000E+00
    0.64901E+07        -0.35640E+08         0.00000E+00
    0.00000E+00         0.00000E+00         0.00000E+00
 
   -0.20088E+08        -0.93887E+06         0.00000E+00
   -0.93887E+06        -0.35671E+08         0.00000E+00
    0.00000E+00         0.00000E+00         0.00000E+00
 
   -0.18169E+08        -0.22392E+07         0.00000E+00
   -0.22392E+07        -0.35782E+08         0.00000E+00
    0.00000E+00         0.00000E+00         0.00000E+00
 
   -0.16198E+08        -0.28934E+07         0.00000E+00
   -0.28934E+07        -0.35876E+08         0.00000E+00
    0.00000E+00         0.00000E+00         0.00000E+00
 
   -0.14359E+08        -0.30829E+07         0.00000E+00
   -0.30829E+07        -0.35884E+08         0.00000E+00
    0.00000E+00         0.00000E+00         0.00000E+00
 
   -0.12719E+08        -0.29689E+07         0.00000E+00
   -0.29689E+07        -0.35807E+08         0.00000E+00
    0.00000E+00         0.00000E+00         0.00000E+00
 
   -0.11267E+08        -0.26628E+07         0.00000E+00
   -0.26628E+07        -0.35680E+08         0.00000E+00
    0.00000E+00         0.00000E+00         0.00000E+00
 
   -0.99632E+07        -0.22293E+07         0.00000E+00
   -0.22293E+07        -0.35545E+08         0.00000E+00
    0.00000E+00         0.00000E+00         0.00000E+00
 
   -0.87600E+07        -0.17001E+07         0.00000E+00
   -0.17001E+07        -0.35437E+08         0.00000E+00
    0.00000E+00         0.00000E+00         0.00000E+00
 
   -0.76121E+07        -0.10844E+07         0.00000E+00
   -0.10844E+07        -0.35387E+08         0.00000E+00
    0.00000E+00         0.00000E+00         0.00000E+00
 
   -0.64785E+07        -0.37441E+06         0.00000E+00
   -0.37441E+06        -0.35420E+08         0.00000E+00
    0.00000E+00         0.00000E+00         0.00000E+00
 
   -0.53252E+07         0.45411E+06         0.00000E+00
    0.45411E+06        -0.35557E+08         0.00000E+00
    0.00000E+00         0.00000E+00         0.00000E+00
 
   -0.41296E+07         0.14439E+07         0.00000E+00
    0.14439E+07        -0.35814E+08         0.00000E+00
    0.00000E+00         0.00000E+00         0.00000E+00
 
   -0.28926E+07         0.26596E+07         0.00000E+00
    0.26596E+07        -0.36194E+08         0.00000E+00
    0.00000E+00         0.00000E+00         0.00000E+00
 
   -0.16597E+07         0.41833E+07         0.00000E+00
    0.41833E+07        -0.36674E+08         0.00000E+00
    0.00000E+00         0.00000E+00         0.00000E+00
 
   -0.52678E+06         0.60881E+07         0.00000E+00
    0.60881E+07        -0.37189E+08         0.00000E+00
    0.00000E+00         0.00000E+00         0.00000E+00
 
   -0.24302E+08        -0.10113E+07         0.00000E+00
   -0.10113E+07        -0.38155E+08         0.00000E+00
    0.00000E+00         0.00000E+00         0.00000E+00
 
   -0.21570E+08        -0.22954E+07         0.00000E+00
   -0.22954E+07        -0.38200E+08         0.00000E+00
    0.00000E+00         0.00000E+00         0.00000E+00
 
   -0.19010E+08        -0.28243E+07         0.00000E+00
   -0.28243E+07        -0.38134E+08         0.00000E+00
    0.00000E+00         0.00000E+00         0.00000E+00
 
   -0.16801E+08        -0.28902E+07         0.00000E+00
   -0.28902E+07        -0.37918E+08         0.00000E+00
    0.00000E+00         0.00000E+00         0.00000E+00
 
   -0.14939E+08        -0.27044E+07         0.00000E+00
   -0.27044E+07        -0.37605E+08         0.00000E+00
    0.00000E+00         0.00000E+00         0.00000E+00
 
   -0.13347E+08        -0.23813E+07         0.00000E+00
   -0.23813E+07        -0.37261E+08         0.00000E+00
    0.00000E+00         0.00000E+00         0.00000E+00
 
   -0.11946E+08        -0.19750E+07         0.00000E+00
   -0.19750E+07        -0.36941E+08         0.00000E+00
    0.00000E+00         0.00000E+00         0.00000E+00
 
   -0.10660E+08        -0.15075E+07         0.00000E+00
   -0.15075E+07        -0.36682E+08         0.00000E+00
    0.00000E+00         0.00000E+00         0.00000E+00
 
   -0.94291E+07        -0.98173E+06         0.00000E+00
   -0.98173E+06        -0.36512E+08         0.00000E+00
    0.00000E+00         0.00000E+00         0.00000E+00
 
   -0.81957E+07        -0.38654E+06         0.00000E+00
   -0.38654E+06        -0.36459E+08         0.00000E+00
    0.00000E+00         0.00000E+00         0.00000E+00
 
   -0.69092E+07         0.30421E+06         0.00000E+00
    0.30421E+06        -0.36546E+08         0.00000E+00
    0.00000E+00         0.00000E+00         0.00000E+00
 
   -0.55238E+07         0.11370E+07         0.00000E+00
    0.11370E+07        -0.36798E+08         0.00000E+00
    0.00000E+00         0.00000E+00         0.00000E+00
 
   -0.40107E+07         0.21909E+07         0.00000E+00
    0.21909E+07        -0.37236E+08         0.00000E+00
    0.00000E+00         0.00000E+00         0.00000E+00
 
   -0.23910E+07         0.35870E+07         0.00000E+00
    0.35870E+07        -0.37856E+08         0.00000E+00
    0.00000E+00         0.00000E+00         0.00000E+00
 
   -0.80709E+06         0.54586E+07         0.00000E+00
    0.54586E+07        -0.38594E+08         0.00000E+00
    0.00000E+00         0.00000E+00        -0.26569E+05
 
   -0.28693E+08        -0.10598E+07         0.00000E+00
   -0.10598E+07        -0.40759E+08         0.00000E+00
    0.00000E+00         0.00000E+00         0.00000E+00
 
   -0.24951E+08        -0.21992E+07         0.00000E+00
   -0.21992E+07        -0.40671E+08         0.00000E+00
    0.00000E+00         0.00000E+00         0.00000E+00
 
   -0.21788E+08        -0.25010E+07         0.00000E+00
   -0.25010E+07        -0.40322E+08         0.00000E+00
    0.00000E+00         0.00000E+00         0.00000E+00
 
   -0.19276E+08        -0.24279E+07         0.00000E+00
   -0.24279E+07        -0.39782E+08         0.00000E+00
    0.00000E+00         0.00000E+00         0.00000E+00
 
   -0.17259E+08        -0.22002E+07         0.00000E+00
   -0.22002E+07        -0.39182E+08         0.00000E+00
    0.00000E+00         0.00000E+00         0.00000E+00
 
   -0.15578E+08        -0.19003E+07         0.00000E+00
   -0.19003E+07        -0.38603E+08         0.00000E+00
    0.00000E+00         0.00000E+00         0.00000E+00
 
   -0.14114E+08        -0.15601E+07         0.00000E+00
   -0.15601E+07        -0.38095E+08         0.00000E+00
    0.00000E+00         0.00000E+00         0.00000E+00
 
   -0.12775E+08        -0.11891E+07         0.00000E+00
   -0.11891E+07        -0.37688E+08         0.00000E+00
    0.00000E+00         0.00000E+00         0.00000E+00
 
   -0.11484E+08        -0.78476E+06         0.00000E+00
   -0.78476E+06        -0.37405E+08         0.00000E+00
    0.00000E+00         0.00000E+00         0.00000E+00
 
   -0.10174E+08        -0.33526E+06         0.00000E+00
   -0.33526E+06        -0.37267E+08         0.00000E+00
    0.00000E+00         0.00000E+00         0.00000E+00
 
   -0.87786E+07         0.18268E+06         0.00000E+00
    0.18268E+06        -0.37299E+08         0.00000E+00
    0.00000E+00         0.00000E+00         0.00000E+00
 
   -0.72272E+07         0.81065E+06         0.00000E+00
    0.81065E+06        -0.37534E+08         0.00000E+00
    0.00000E+00         0.00000E+00         0.00000E+00
 
   -0.54428E+07         0.16261E+07         0.00000E+00
    0.16261E+07        -0.38015E+08         0.00000E+00
    0.00000E+00         0.00000E+00         0.00000E+00
 
   -0.33744E+07         0.27890E+07         0.00000E+00
    0.27890E+07        -0.38784E+08         0.00000E+00
    0.00000E+00         0.00000E+00         0.00000E+00
 
   -0.12362E+07         0.45352E+07         0.00000E+00
    0.45352E+07        -0.39788E+08         0.00000E+00
    0.00000E+00         0.00000E+00        -0.10530E+06
 
   -0.33100E+08        -0.10395E+07         0.00000E+00
   -0.10395E+07        -0.43438E+08         0.00000E+00
    0.00000E+00         0.00000E+00         0.00000E+00
 
   -0.28138E+08        -0.17667E+07         0.00000E+00
   -0.17667E+07        -0.43005E+08         0.00000E+00
    0.00000E+00         0.00000E+00         0.00000E+00
 
   -0.24499E+08        -0.17891E+07         0.00000E+00
   -0.17891E+07        -0.42182E+08         0.00000E+00
    0.00000E+00         0.00000E+00         0.00000E+00
 
   -0.21816E+08        -0.16459E+07         0.00000E+00
   -0.16459E+07        -0.41260E+08         0.00000E+00
    0.00000E+00         0.00000E+00         0.00000E+00
 
   -0.19719E+08        -0.14491E+07         0.00000E+00
   -0.14491E+07        -0.40377E+08         0.00000E+00
    0.00000E+00         0.00000E+00         0.00000E+00
 
   -0.17993E+08        -0.12310E+07         0.00000E+00
   -0.12310E+07        -0.39590E+08         0.00000E+00
    0.00000E+00         0.00000E+00         0.00000E+00
 
   -0.16496E+08        -0.10016E+07         0.00000E+00
   -0.10016E+07        -0.38925E+08         0.00000E+00
    0.00000E+00         0.00000E+00         0.00000E+00
 
   -0.15124E+08        -0.76152E+06         0.00000E+00
   -0.76152E+06        -0.38398E+08         0.00000E+00
    0.00000E+00         0.00000E+00         0.00000E+00
 
   -0.13795E+08        -0.50626E+06         0.00000E+00
   -0.50626E+06        -0.38024E+08         0.00000E+00
    0.00000E+00         0.00000E+00         0.00000E+00
 
   -0.12432E+08        -0.22667E+06         0.00000E+00
   -0.22667E+06        -0.37817E+08         0.00000E+00
    0.00000E+00         0.00000E+00         0.00000E+00
 
   -0.10960E+08         0.93131E+05         0.00000E+00
    0.93131E+05        -0.37801E+08         0.00000E+00
    0.00000E+00         0.00000E+00         0.00000E+00
 
   -0.92840E+07         0.48146E+06         0.00000E+00
    0.48146E+06        -0.38012E+08         0.00000E+00
    0.00000E+00         0.00000E+00         0.00000E+00
 
   -0.72829E+07         0.99403E+06         0.00000E+00
    0.99403E+06        -0.38508E+08         0.00000E+00
    0.00000E+00         0.00000E+00         0.00000E+00
 
   -0.47610E+07         0.17620E+07         0.00000E+00
    0.17620E+07        -0.39395E+08         0.00000E+00
    0.00000E+00         0.00000E+00         0.00000E+00
 
   -0.18036E+07         0.32100E+07         0.00000E+00
    0.32100E+07        -0.40773E+08         0.00000E+00
    0.00000E+00         0.00000E+00        -0.13887E+06
 
   -0.37097E+08        -0.62160E+06         0.00000E+00
   -0.62160E+06        -0.45702E+08         0.00000E+00
    0.00000E+00         0.00000E+00         0.00000E+00
 
   -0.31037E+08        -0.71678E+06         0.00000E+00
   -0.71678E+06        -0.44581E+08         0.00000E+00
    0.00000E+00         0.00000E+00         0.00000E+00
 
   -0.27236E+08        -0.65906E+06         0.00000E+00
   -0.65906E+06        -0.43293E+08         0.00000E+00
    0.00000E+00         0.00000E+00         0.00000E+00
 
   -0.24493E+08        -0.58592E+06         0.00000E+00
   -0.58592E+06        -0.42092E+08         0.00000E+00
    0.00000E+00         0.00000E+00         0.00000E+00
 
   -0.22369E+08        -0.50674E+06         0.00000E+00
   -0.50674E+06        -0.41028E+08         0.00000E+00
    0.00000E+00         0.00000E+00         0.00000E+00
 
   -0.20625E+08        -0.42620E+06         0.00000E+00
   -0.42620E+06        -0.40116E+08         0.00000E+00
    0.00000E+00         0.00000E+00         0.00000E+00
 
   -0.19112E+08        -0.34481E+06         0.00000E+00
   -0.34481E+06        -0.39360E+08         0.00000E+00
    0.00000E+00         0.00000E+00         0.00000E+00
 
   -0.17722E+08        -0.26153E+06         0.00000E+00
   -0.26153E+06        -0.38766E+08         0.00000E+00
    0.00000E+00         0.00000E+00         0.00000E+00
 
   -0.16370E+08        -0.17423E+06         0.00000E+00
   -0.17423E+06        -0.38341E+08         0.00000E+00
    0.00000E+00         0.00000E+00         0.00000E+00
 
   -0.14978E+08        -0.79445E+05         0.00000E+00
   -0.79445E+05        -0.38095E+08         0.00000E+00
    0.00000E+00         0.00000E+00         0.00000E+00
 
   -0.13463E+08         0.28437E+05         0.00000E+00
    0.28437E+05        -0.38051E+08         0.00000E+00
    0.00000E+00         0.00000E+00         0.00000E+00
 
   -0.11719E+08         0.15930E+06         0.00000E+00
    0.15930E+06        -0.38243E+08         0.00000E+00
    0.00000E+00         0.00000E+00         0.00000E+00
 
   -0.95943E+07         0.33368E+06         0.00000E+00
    0.33368E+06        -0.38739E+08         0.00000E+00
    0.00000E+00         0.00000E+00         0.00000E+00
 
   -0.68205E+07         0.59445E+06         0.00000E+00
    0.59445E+06        -0.39667E+08         0.00000E+00
    0.00000E+00         0.00000E+00         0.00000E+00
 
   -0.27021E+07         0.12147E+07         0.00000E+00
    0.12147E+07        -0.41421E+08         0.00000E+00
    0.00000E+00         0.00000E+00        -0.92773E+05
 
TENSORS stresstot double 
   -0.34901E+08         0.58145E+04         0.00000E+00
    0.58145E+04        -0.59996E+08         0.00000E+00
    0.00000E+00         0.00000E+00        -0.48089E+08
 
   -0.35937E+08         0.15257E+05         0.00000E+00
    0.15257E+05        -0.59975E+08         0.00000E+00
    0.00000E+00         0.00000E+00        -0.48107E+08
 
   -0.36974E+08         0.22892E+05         0.00000E+00
    0.22892E+05        -0.59937E+08         0.00000E+00
    0.00000E+00         0.00000E+00        -0.48141E+08
 
   -0.38004E+08         0.29865E+05         0.00000E+00
    0.29865E+05        -0.59885E+08         0.00000E+00
    0.00000E+00         0.00000E+00        -0.48186E+08
 
   -0.39018E+08         0.37113E+05         0.00000E+00
    0.37113E+05        -0.59818E+08         0.00000E+00
    0.00000E+00         0.00000E+00        -0.48239E+08
 
   -0.40013E+08         0.45376E+05         0.00000E+00
    0.45376E+05        -0.59736E+08         0.00000E+00
    0.00000E+00         0.00000E+00        -0.48298E+08
 
   -0.40987E+08         0.55210E+05         0.00000E+00
    0.55210E+05        -0.59636E+08         0.00000E+00
    0.00000E+00         0.00000E+00        -0.48359E+08
 
   -0.41941E+08         0.67002E+05         0.00000E+00
    0.67002E+05        -0.59514E+08         0.00000E+00
    0.00000E+00         0.00000E+00        -0.48421E+08
 
   -0.42876E+08         0.80989E+05         0.00000E+00
    0.80989E+05        -0.59367E+08         0.00000E+00
    0.00000E+00         0.00000E+00        -0.48482E+08
 
   -0.43795E+08         0.97270E+05         0.00000E+00
    0.97270E+05        -0.59189E+08         0.00000E+00
    0.00000E+00         0.00000E+00        -0.48538E+08
 
   -0.44701E+08         0.11583E+06         0.00000E+00
    0.11583E+06        -0.58976E+08         0.00000E+00
    0.00000E+00         0.00000E+00        -0.48589E+08
 
   -0.45598E+08         0.13653E+06         0.00000E+00
    0.13653E+06        -0.58724E+08         0.00000E+00
    0.00000E+00         0.00000E+00        -0.48633E+08
 
   -0.46490E+08         0.15917E+06         0.00000E+00
    0.15917E+06        -0.58429E+08         0.00000E+00
    0.00000E+00         0.00000E+00        -0.48669E+08
 
   -0.47378E+08         0.18347E+06         0.00000E+00
    0.18347E+06        -0.58087E+08         0.00000E+00
    0.00000E+00         0.00000E+00        -0.48693E+08
 
   -0.48266E+08         0.20906E+06         0.00000E+00
    0.20906E+06        -0.57694E+08         0.00000E+00
    0.00000E+00         0.00000E+00        -0.48707E+08
 
   -0.34880E+08         0.17167E+05         0.00000E+00
    0.17167E+05        -0.59996E+08         0.00000E+00
    0.00000E+00         0.00000E+00        -0.48044E+08
 
   -0.35920E+08         0.45015E+05         0.00000E+00
    0.45015E+05        -0.59976E+08         0.00000E+00
    0.00000E+00         0.00000E+00        -0.48062E+08
 
   -0.36960E+08         0.67538E+05         0.00000E+00
    0.67538E+05        -0.59940E+08         0.00000E+00
    0.00000E+00         0.00000E+00        -0.48095E+08
 
   -0.37990E+08         0.88170E+05         0.00000E+00
    0.88170E+05        -0.59891E+08         0.00000E+00
    0.00000E+00         0.00000E+00        -0.48140E+08
 
   -0.39003E+08         0.10971E+06         0.00000E+00
    0.10971E+06        -0.59827E+08         0.00000E+00
    0.00000E+00         0.00000E+00        -0.48192E+08
 
   -0.39995E+08         0.13438E+06         0.00000E+00
    0.13438E+06        -0.59748E+08         0.00000E+00
    0.00000E+00         0.00000E+00        -0.48250E+08
 
   -0.40966E+08         0.16384E+06         0.00000E+00
    0.16384E+06        -0.59652E+08         0.00000E+00
    0.00000E+00         0.00000E+00        -0.48311E+08
 
   -0.41915E+08         0.19923E+06         0.00000E+00
    0.19923E+06        -0.59534E+08         0.00000E+00
    0.00000E+00         0.00000E+00        -0.48372E+08
 
   -0.42845E+08         0.24126E+06         0.00000E+00
    0.24126E+06        -0.59390E+08         0.00000E+00
    0.00000E+00         0.00000E+00        -0.48431E+08
 
   -0.43760E+08         0.29022E+06         0.00000E+00
    0.29022E+06        -0.59215E+08         0.00000E+00
    0.00000E+00         0.00000E+00        -0.48487E+08
 
   -0.44662E+08         0.34605E+06         0.00000E+00
    0.34605E+06        -0.59005E+08         0.00000E+00
    0.00000E+00         0.00000E+00        -0.48538E+08
 
   -0.45555E+08         0.40836E+06         0.00000E+00
    0.40836E+06        -0.58756E+08         0.00000E+00
    0.00000E+00         0.00000E+00        -0.48581E+08
 
   -0.46442E+08         0.47651E+06         0.00000E+00
    0.47651E+06        -0.58463E+08         0.00000E+00
    0.00000E+00         0.00000E+00        -0.48616E+08
 
   -0.47328E+08         0.54964E+06         0.00000E+00
    0.54964E+06        -0.58122E+08         0.00000E+00
    0.00000E+00         0.00000E+00        -0.48640E+08
 
   -0.48214E+08         0.62669E+06         0.00000E+00
    0.62669E+06        -0.57731E+08         0.00000E+00
    0.00000E+00         0.00000E+00        -0.48653E+08
 
   -0.34838E+08         0.27690E+05         0.00000E+00
    0.27690E+05        -0.59997E+08         0.00000E+00
    0.00000E+00         0.00000E+00        -0.47953E+08
 
   -0.35888E+08         0.72508E+05         0.00000E+00
    0.72508E+05        -0.59979E+08         0.00000E+00
    0.00000E+00         0.00000E+00        -0.47971E+08
 
   -0.36932E+08         0.10878E+06         0.00000E+00
    0.10878E+06        -0.59947E+08         0.00000E+00
    0.00000E+00         0.00000E+00        -0.48003E+08
 
   -0.37963E+08         0.14221E+06         0.00000E+00
    0.14221E+06        -0.59902E+08         0.00000E+00
    0.00000E+00         0.00000E+00        -0.48046E+08
 
   -0.38973E+08         0.17745E+06         0.00000E+00
    0.17745E+06        -0.59845E+08         0.00000E+00
    0.00000E+00         0.00000E+00        -0.48098E+08
 
   -0.39959E+08         0.21816E+06         0.00000E+00
    0.21816E+06        -0.59773E+08         0.00000E+00
    0.00000E+00         0.00000E+00        -0.48154E+08
 
   -0.40923E+08         0.26709E+06         0.00000E+00
    0.26709E+06        -0.59683E+08         0.00000E+00
    0.00000E+00         0.00000E+00        -0.48213E+08
 
   -0.41863E+08         0.32613E+06         0.00000E+00
    0.32613E+06        -0.59572E+08         0.00000E+00
    0.00000E+00         0.00000E+00        -0.48273E+08
 
   -0.42785E+08         0.39641E+06         0.00000E+00
    0.39641E+06        -0.59435E+08         0.00000E+00
    0.00000E+00         0.00000E+00        -0.48330E+08
 
   -0.43690E+08         0.47841E+06         0.00000E+00
    0.47841E+06        -0.59267E+08         0.00000E+00
    0.00000E+00         0.00000E+00        -0.48385E+08
 
   -0.44583E+08         0.57199E+06         0.00000E+00
    0.57199E+06        -0.59064E+08         0.00000E+00
    0.00000E+00         0.00000E+00        -0.48434E+08
 
   -0.45467E+08         0.67650E+06         0.00000E+00
    0.67650E+06        -0.58820E+08         0.00000E+00
    0.00000E+00         0.00000E+00        -0.48476E+08
 
   -0.46348E+08         0.79084E+06         0.00000E+00
    0.79084E+06        -0.58531E+08         0.00000E+00
    0.00000E+00         0.00000E+00        -0.48510E+08
 
   -0.47227E+08         0.91354E+06         0.00000E+00
    0.91354E+06        -0.58194E+08         0.00000E+00
    0.00000E+00         0.00000E+00        -0.48534E+08
 
   -0.48108E+08         0.10428E+07         0.00000E+00
    0.10428E+07        -0.57805E+08         0.00000E+00
    0.00000E+00         0.00000E+00        -0.48546E+08
 
   -0.34778E+08         0.36828E+05         0.00000E+00
    0.36828E+05        -0.59998E+08         0.00000E+00
    0.00000E+00         0.00000E+00        -0.47816E+08
 
   -0.35842E+08         0.96222E+05         0.00000E+00
    0.96222E+05        -0.59983E+08         0.00000E+00
    0.00000E+00         0.00000E+00        -0.47833E+08
 
   -0.36893E+08         0.14434E+06         0.00000E+00
    0.14434E+06        -0.59957E+08         0.00000E+00
    0.00000E+00         0.00000E+00        -0.47864E+08
 
   -0.37923E+08         0.18913E+06         0.00000E+00
    0.18913E+06        -0.59920E+08         0.00000E+00
    0.00000E+00         0.00000E+00        -0.47905E+08
 
   -0.38928E+08         0.23708E+06         0.00000E+00
    0.23708E+06        -0.59871E+08         0.00000E+00
    0.00000E+00         0.00000E+00        -0.47954E+08
 
   -0.39906E+08         0.29325E+06         0.00000E+00
    0.29325E+06        -0.59809E+08         0.00000E+00
    0.00000E+00         0.00000E+00        -0.48008E+08
 
   -0.40858E+08         0.36142E+06         0.00000E+00
    0.36142E+06        -0.59730E+08         0.00000E+00
    0.00000E+00         0.00000E+00        -0.48065E+08
 
   -0.41786E+08         0.44418E+06         0.00000E+00
    0.44418E+06        -0.59630E+08         0.00000E+00
    0.00000E+00         0.00000E+00        -0.48122E+08
 
   -0.42693E+08         0.54308E+06         0.00000E+00
    0.54308E+06        -0.59503E+08         0.00000E+00
    0.00000E+00         0.00000E+00        -0.48177E+08
 
   -0.43584E+08         0.65870E+06         0.00000E+00
    0.65870E+06        -0.59345E+08         0.00000E+00
    0.00000E+00         0.00000E+00        -0.48230E+08
 
   -0.44463E+08         0.79083E+06         0.00000E+00
    0.79083E+06        -0.59150E+08         0.00000E+00
    0.00000E+00         0.00000E+00        -0.48277E+08
 
   -0.45335E+08         0.93850E+06         0.00000E+00
    0.93850E+06        -0.58914E+08         0.00000E+00
    0.00000E+00         0.00000E+00        -0.48317E+08
 
   -0.46204E+08         0.11001E+07         0.00000E+00
    0.11001E+07        -0.58632E+08         0.00000E+00
    0.00000E+00         0.00000E+00        -0.48350E+08
 
   -0.47075E+08         0.12736E+07         0.00000E+00
    0.12736E+07        -0.58301E+08         0.00000E+00
    0.00000E+00         0.00000E+00        -0.48372E+08
 
   -0.47949E+08         0.14565E+07         0.00000E+00
    0.14565E+07        -0.57916E+08         0.00000E+00
    0.00000E+00         0.00000E+00        -0.48385E+08
 
   -0.34703E+08         0.44024E+05         0.00000E+00
    0.44024E+05        -0.59999E+08         0.00000E+00
    0.00000E+00         0.00000E+00        -0.47630E+08
 
   -0.35784E+08         0.11465E+06         0.00000E+00
    0.11465E+06        -0.59989E+08         0.00000E+00
    0.00000E+00         0.00000E+00        -0.47646E+08
 
   -0.36843E+08         0.17196E+06         0.00000E+00
    0.17196E+06        -0.59970E+08         0.00000E+00
    0.00000E+00         0.00000E+00        -0.47675E+08
 
   -0.37872E+08         0.22614E+06         0.00000E+00
    0.22614E+06        -0.59943E+08         0.00000E+00
    0.00000E+00         0.00000E+00        -0.47714E+08
 
   -0.38870E+08         0.28542E+06         0.00000E+00
    0.28542E+06        -0.59906E+08         0.00000E+00
    0.00000E+00         0.00000E+00        -0.47761E+08
 
   -0.39836E+08         0.35623E+06         0.00000E+00
    0.35623E+06        -0.59858E+08         0.00000E+00
    0.00000E+00         0.00000E+00        -0.47812E+08
 
   -0.40772E+08         0.44331E+06         0.00000E+00
    0.44331E+06        -0.59793E+08         0.00000E+00
    0.00000E+00         0.00000E+00        -0.47865E+08
 
   -0.41682E+08         0.54991E+06         0.00000E+00
    0.54991E+06        -0.59707E+08         0.00000E+00
    0.00000E+00         0.00000E+00        -0.47919E+08
 
   -0.42570E+08         0.67791E+06         0.00000E+00
    0.67791E+06        -0.59594E+08         0.00000E+00
    0.00000E+00         0.00000E+00        -0.47971E+08
 
   -0.43441E+08         0.82799E+06         0.00000E+00
    0.82799E+06        -0.59448E+08         0.00000E+00
    0.00000E+00         0.00000E+00        -0.48020E+08
 
   -0.44302E+08         0.99977E+06         0.00000E+00
    0.99977E+06        -0.59266E+08         0.00000E+00
    0.00000E+00         0.00000E+00        -0.48064E+08
 
   -0.45157E+08         0.11919E+07         0.00000E+00
    0.11919E+07        -0.59040E+08         0.00000E+00
    0.00000E+00         0.00000E+00        -0.48103E+08
 
   -0.46011E+08         0.14024E+07         0.00000E+00
    0.14024E+07        -0.58767E+08         0.00000E+00
    0.00000E+00         0.00000E+00        -0.48133E+08
 
   -0.46869E+08         0.16284E+07         0.00000E+00
    0.16284E+07        -0.58442E+08         0.00000E+00
    0.00000E+00         0.00000E+00        -0.48155E+08
 
   -0.47734E+08         0.18667E+07         0.00000E+00
    0.18667E+07        -0.58062E+08         0.00000E+00
    0.00000E+00         0.00000E+00        -0.48166E+08
 
   -0.34617E+08         0.48718E+05         0.00000E+00
    0.48718E+05        -0.60001E+08         0.00000E+00
    0.00000E+00         0.00000E+00        -0.47394E+08
 
   -0.35718E+08         0.12627E+06         0.00000E+00
    0.12627E+06        -0.59995E+08         0.00000E+00
    0.00000E+00         0.00000E+00        -0.47408E+08
 
   -0.36785E+08         0.18940E+06         0.00000E+00
    0.18940E+06        -0.59986E+08         0.00000E+00
    0.00000E+00         0.00000E+00        -0.47435E+08
 
   -0.37812E+08         0.25044E+06         0.00000E+00
    0.25044E+06        -0.59971E+08         0.00000E+00
    0.00000E+00         0.00000E+00        -0.47471E+08
 
   -0.38800E+08         0.31931E+06         0.00000E+00
    0.31931E+06        -0.59950E+08         0.00000E+00
    0.00000E+00         0.00000E+00        -0.47514E+08
 
   -0.39750E+08         0.40373E+06         0.00000E+00
    0.40373E+06        -0.59918E+08         0.00000E+00
    0.00000E+00         0.00000E+00        -0.47561E+08
 
   -0.40665E+08         0.50933E+06         0.00000E+00
    0.50933E+06        -0.59871E+08         0.00000E+00
    0.00000E+00         0.00000E+00        -0.47611E+08
 
   -0.41551E+08         0.63992E+06         0.00000E+00
    0.63992E+06        -0.59802E+08         0.00000E+00
    0.00000E+00         0.00000E+00        -0.47660E+08
 
   -0.42414E+08         0.79766E+06         0.00000E+00
    0.79766E+06        -0.59706E+08         0.00000E+00
    0.00000E+00         0.00000E+00        -0.47709E+08
 
   -0.43261E+08         0.98323E+06         0.00000E+00
    0.98323E+06        -0.59577E+08         0.00000E+00
    0.00000E+00         0.00000E+00        -0.47754E+08
 
   -0.44098E+08         0.11961E+07         0.00000E+00
    0.11961E+07        -0.59409E+08         0.00000E+00
    0.00000E+00         0.00000E+00        -0.47795E+08
 
   -0.44931E+08         0.14344E+07         0.00000E+00
    0.14344E+07        -0.59196E+08         0.00000E+00
    0.00000E+00         0.00000E+00        -0.47830E+08
 
   -0.45766E+08         0.16957E+07         0.00000E+00
    0.16957E+07        -0.58934E+08         0.00000E+00
    0.00000E+00         0.00000E+00        -0.47859E+08
 
   -0.46608E+08         0.19764E+07         0.00000E+00
    0.19764E+07        -0.58618E+08         0.00000E+00
    0.00000E+00         0.00000E+00        -0.47878E+08
 
   -0.47462E+08         0.22724E+07         0.00000E+00
    0.22724E+07        -0.58245E+08         0.00000E+00
    0.00000E+00         0.00000E+00        -0.47889E+08
 
   -0.34526E+08         0.50351E+05         0.00000E+00
    0.50351E+05        -0.60002E+08         0.00000E+00
    0.00000E+00         0.00000E+00        -0.47103E+08
 
   -0.35649E+08         0.12960E+06         0.00000E+00
    0.12960E+06        -0.60003E+08         0.00000E+00
    0.00000E+00         0.00000E+00        -0.47117E+08
 
   -0.36723E+08         0.19444E+06         0.00000E+00
    0.19444E+06        -0.60005E+08         0.00000E+00
    0.00000E+00         0.00000E+00        -0.47141E+08
 
   -0.37746E+08         0.25928E+06         0.00000E+00
    0.25928E+06        -0.60006E+08         0.00000E+00
    0.00000E+00         0.00000E+00        -0.47174E+08
 
   -0.38719E+08         0.33568E+06         0.00000E+00
    0.33568E+06        -0.60003E+08         0.00000E+00
    0.00000E+00         0.00000E+00        -0.47212E+08
 
   -0.39648E+08         0.43249E+06         0.00000E+00
    0.43249E+06        -0.59990E+08         0.00000E+00
    0.00000E+00         0.00000E+00        -0.47255E+08
 
   -0.40537E+08         0.55616E+06         0.00000E+00
    0.55616E+06        -0.59963E+08         0.00000E+00
    0.00000E+00         0.00000E+00        -0.47299E+08
 
   -0.41394E+08         0.71094E+06         0.00000E+00
    0.71094E+06        -0.59915E+08         0.00000E+00
    0.00000E+00         0.00000E+00        -0.47344E+08
 
   -0.42226E+08         0.89918E+06         0.00000E+00
    0.89918E+06        -0.59839E+08         0.00000E+00
    0.00000E+00         0.00000E+00        -0.47388E+08
 
   -0.43042E+08         0.11215E+07         0.00000E+00
    0.11215E+07        -0.59729E+08         0.00000E+00
    0.00000E+00         0.00000E+00        -0.47429E+08
 
   -0.43849E+08         0.13770E+07         0.00000E+00
    0.13770E+07        -0.59579E+08         0.00000E+00
    0.00000E+00         0.00000E+00        -0.47466E+08
 
   -0.44655E+08         0.16636E+07         0.00000E+00
    0.16636E+07        -0.59382E+08         0.00000E+00
    0.00000E+00         0.00000E+00        -0.47497E+08
 
   -0.45467E+08         0.19780E+07         0.00000E+00
    0.19780E+07        -0.59133E+08         0.00000E+00
    0.00000E+00         0.00000E+00        -0.47523E+08
 
   -0.46290E+08         0.23159E+07         0.00000E+00
    0.23159E+07        -0.58827E+08         0.00000E+00
    0.00000E+00         0.00000E+00        -0.47541E+08
 
   -0.47129E+08         0.26724E+07         0.00000E+00
    0.26724E+07        -0.58462E+08         0.00000E+00
    0.00000E+00         0.00000E+00        -0.47550E+08
 
   -0.34435E+08         0.48365E+05         0.00000E+00
    0.48365E+05        -0.60005E+08         0.00000E+00
    0.00000E+00         0.00000E+00        -0.46756E+08
 
   -0.35581E+08         0.12314E+06         0.00000E+00
    0.12314E+06        -0.60013E+08         0.00000E+00
    0.00000E+00         0.00000E+00        -0.46768E+08
 
   -0.36661E+08         0.18489E+06         0.00000E+00
    0.18489E+06        -0.60027E+08         0.00000E+00
    0.00000E+00         0.00000E+00        -0.46789E+08
 
   -0.37675E+08         0.25003E+06         0.00000E+00
    0.25003E+06        -0.60046E+08         0.00000E+00
    0.00000E+00         0.00000E+00        -0.46817E+08
 
   -0.38630E+08         0.33156E+06         0.00000E+00
    0.33156E+06        -0.60063E+08         0.00000E+00
    0.00000E+00         0.00000E+00        -0.46851E+08
 
   -0.39531E+08         0.43938E+06         0.00000E+00
    0.43938E+06        -0.60073E+08         0.00000E+00
    0.00000E+00         0.00000E+00        -0.46888E+08
 
   -0.40388E+08         0.58060E+06         0.00000E+00
    0.58060E+06        -0.60070E+08         0.00000E+00
    0.00000E+00         0.00000E+00        -0.46927E+08
 
   -0.41208E+08         0.75983E+06         0.00000E+00
    0.75983E+06        -0.60046E+08         0.00000E+00
    0.00000E+00         0.00000E+00        -0.46966E+08
 
   -0.42003E+08         0.97946E+06         0.00000E+00
    0.97946E+06        -0.59993E+08         0.00000E+00
    0.00000E+00         0.00000E+00        -0.47005E+08
 
   -0.42782E+08         0.12400E+07         0.00000E+00
    0.12400E+07        -0.59905E+08         0.00000E+00
    0.00000E+00         0.00000E+00        -0.47041E+08
 
   -0.43554E+08         0.15401E+07         0.00000E+00
    0.15401E+07        -0.59775E+08         0.00000E+00
    0.00000E+00         0.00000E+00        -0.47073E+08
 
   -0.44328E+08         0.18773E+07         0.00000E+00
    0.18773E+07        -0.59595E+08         0.00000E+00
    0.00000E+00         0.00000E+00        -0.47101E+08
 
   -0.45111E+08         0.22474E+07         0.00000E+00
    0.22474E+07        -0.59362E+08         0.00000E+00
    0.00000E+00         0.00000E+00        -0.47123E+08
 
   -0.45911E+08         0.26456E+07         0.00000E+00
    0.26456E+07        -0.59069E+08         0.00000E+00
    0.00000E+00         0.00000E+00        -0.47139E+08
 
   -0.46733E+08         0.30658E+07         0.00000E+00
    0.30658E+07        -0.58712E+08         0.00000E+00
    0.00000E+00         0.00000E+00        -0.47147E+08
 
   -0.34353E+08         0.42205E+05         0.00000E+00
    0.42205E+05        -0.60007E+08         0.00000E+00
    0.00000E+00         0.00000E+00        -0.46347E+08
 
   -0.35520E+08         0.10545E+06         0.00000E+00
    0.10545E+06        -0.60023E+08         0.00000E+00
    0.00000E+00         0.00000E+00        -0.46357E+08
 
   -0.36602E+08         0.15867E+06         0.00000E+00
    0.15867E+06        -0.60053E+08         0.00000E+00
    0.00000E+00         0.00000E+00        -0.46375E+08
 
   -0.37604E+08         0.22012E+06         0.00000E+00
    0.22012E+06        -0.60091E+08         0.00000E+00
    0.00000E+00         0.00000E+00        -0.46399E+08
 
   -0.38533E+08         0.30412E+06         0.00000E+00
    0.30412E+06        -0.60132E+08         0.00000E+00
    0.00000E+00         0.00000E+00        -0.46427E+08
 
   -0.39401E+08         0.42145E+06         0.00000E+00
    0.42145E+06        -0.60167E+08         0.00000E+00
    0.00000E+00         0.00000E+00        -0.46458E+08
 
   -0.40217E+08         0.57969E+06         0.00000E+00
    0.57969E+06        -0.60190E+08         0.00000E+00
    0.00000E+00         0.00000E+00        -0.46491E+08
 
   -0.40995E+08         0.78366E+06         0.00000E+00
    0.78366E+06        -0.60193E+08         0.00000E+00
    0.00000E+00         0.00000E+00        -0.46524E+08
 
   -0.41745E+08         0.10357E+07         0.00000E+00
    0.10357E+07        -0.60166E+08         0.00000E+00
    0.00000E+00         0.00000E+00        -0.46556E+08
 
   -0.42480E+08         0.13360E+07         0.00000E+00
    0.13360E+07        -0.60102E+08         0.00000E+00
    0.00000E+00         0.00000E+00        -0.46586E+08
 
   -0.43210E+08         0.16829E+07         0.00000E+00
    0.16829E+07        -0.59994E+08         0.00000E+00
    0.00000E+00         0.00000E+00        -0.46614E+08
 
   -0.43945E+08         0.20732E+07         0.00000E+00
    0.20732E+07        -0.59835E+08         0.00000E+00
    0.00000E+00         0.00000E+00        -0.46637E+08
 
   -0.44696E+08         0.25021E+07         0.00000E+00
    0.25021E+07        -0.59619E+08         0.00000E+00
    0.00000E+00         0.00000E+00        -0.46656E+08
 
   -0.45468E+08         0.29638E+07         0.00000E+00
    0.29638E+07        -0.59340E+08         0.00000E+00
    0.00000E+00         0.00000E+00        -0.46669E+08
 
   -0.46269E+08         0.34513E+07         0.00000E+00
    0.34513E+07        -0.58993E+08         0.00000E+00
    0.00000E+00         0.00000E+00        -0.46676E+08
 
   -0.34287E+08         0.31332E+05         0.00000E+00
    0.31332E+05        -0.60010E+08         0.00000E+00
    0.00000E+00         0.00000E+00        -0.45873E+08
 
   -0.35473E+08         0.75123E+05         0.00000E+00
    0.75123E+05        -0.60035E+08         0.00000E+00
    0.00000E+00         0.00000E+00        -0.45881E+08
 
   -0.36553E+08         0.11377E+06         0.00000E+00
    0.11377E+06        -0.60081E+08         0.00000E+00
    0.00000E+00         0.00000E+00        -0.45895E+08
 
   -0.37535E+08         0.16717E+06         0.00000E+00
    0.16717E+06        -0.60141E+08         0.00000E+00
    0.00000E+00         0.00000E+00        -0.45913E+08
 
   -0.38432E+08         0.25077E+06         0.00000E+00
    0.25077E+06        -0.60207E+08         0.00000E+00
    0.00000E+00         0.00000E+00        -0.45936E+08
 
   -0.39258E+08         0.37599E+06         0.00000E+00
    0.37599E+06        -0.60271E+08         0.00000E+00
    0.00000E+00         0.00000E+00        -0.45960E+08
 
   -0.40026E+08         0.55073E+06         0.00000E+00
    0.55073E+06        -0.60323E+08         0.00000E+00
    0.00000E+00         0.00000E+00        -0.45986E+08
 
   -0.40752E+08         0.77980E+06         0.00000E+00
    0.77980E+06        -0.60354E+08         0.00000E+00
    0.00000E+00         0.00000E+00        -0.46012E+08
 
   -0.41450E+08         0.10653E+07         0.00000E+00
    0.10653E+07        -0.60356E+08         0.00000E+00
    0.00000E+00         0.00000E+00        -0.46038E+08
 
   -0.42133E+08         0.14072E+07         0.00000E+00
    0.14072E+07        -0.60319E+08         0.00000E+00
    0.00000E+00         0.00000E+00        -0.46061E+08
 
   -0.42814E+08         0.18031E+07         0.00000E+00
    0.18031E+07        -0.60236E+08         0.00000E+00
    0.00000E+00         0.00000E+00        -0.46083E+08
 
   -0.43505E+08         0.22493E+07         0.00000E+00
    0.22493E+07        -0.60099E+08         0.00000E+00
    0.00000E+00         0.00000E+00        -0.46102E+08
 
   -0.44217E+08         0.27401E+07         0.00000E+00
    0.27401E+07        -0.59902E+08         0.00000E+00
    0.00000E+00         0.00000E+00        -0.46116E+08
 
   -0.44958E+08         0.32689E+07         0.00000E+00
    0.32689E+07        -0.59639E+08         0.00000E+00
    0.00000E+00         0.00000E+00        -0.46127E+08
 
   -0.45735E+08         0.38277E+07         0.00000E+00
    0.38277E+07        -0.59304E+08         0.00000E+00
    0.00000E+00         0.00000E+00        -0.46132E+08
 
   -0.34247E+08         0.15222E+05         0.00000E+00
    0.15222E+05        -0.60013E+08         0.00000E+00
    0.00000E+00         0.00000E+00        -0.45328E+08
 
   -0.35447E+08         0.30836E+05         0.00000E+00
    0.30836E+05        -0.60048E+08         0.00000E+00
    0.00000E+00         0.00000E+00        -0.45333E+08
 
   -0.36517E+08         0.48336E+05         0.00000E+00
    0.48336E+05        -0.60112E+08         0.00000E+00
    0.00000E+00         0.00000E+00        -0.45343E+08
 
   -0.37472E+08         0.89030E+05         0.00000E+00
    0.89030E+05        -0.60196E+08         0.00000E+00
    0.00000E+00         0.00000E+00        -0.45356E+08
 
   -0.38328E+08         0.16920E+06         0.00000E+00
    0.16920E+06        -0.60290E+08         0.00000E+00
    0.00000E+00         0.00000E+00        -0.45372E+08
 
   -0.39103E+08         0.30066E+06         0.00000E+00
    0.30066E+06        -0.60384E+08         0.00000E+00
    0.00000E+00         0.00000E+00        -0.45389E+08
 
   -0.39814E+08         0.49138E+06         0.00000E+00
    0.49138E+06        -0.60467E+08         0.00000E+00
    0.00000E+00         0.00000E+00        -0.45408E+08
 
   -0.40480E+08         0.74597E+06         0.00000E+00
    0.74597E+06        -0.60529E+08         0.00000E+00
    0.00000E+00         0.00000E+00        -0.45426E+08
 
   -0.41117E+08         0.10662E+07         0.00000E+00
    0.10662E+07        -0.60561E+08         0.00000E+00
    0.00000E+00         0.00000E+00        -0.45444E+08
 
   -0.41740E+08         0.14514E+07         0.00000E+00
    0.14514E+07        -0.60553E+08         0.00000E+00
    0.00000E+00         0.00000E+00        -0.45462E+08
 
   -0.42365E+08         0.18987E+07         0.00000E+00
    0.18987E+07        -0.60497E+08         0.00000E+00
    0.00000E+00         0.00000E+00        -0.45477E+08
 
   -0.43005E+08         0.24036E+07         0.00000E+00
    0.24036E+07        -0.60384E+08         0.00000E+00
    0.00000E+00         0.00000E+00        -0.45490E+08
 
   -0.43672E+08         0.29598E+07         0.00000E+00
    0.29598E+07        -0.60208E+08         0.00000E+00
    0.00000E+00         0.00000E+00        -0.45501E+08
 
   -0.44376E+08         0.35595E+07         0.00000E+00
    0.35595E+07        -0.59962E+08         0.00000E+00
    0.00000E+00         0.00000E+00        -0.45508E+08
 
   -0.45126E+08         0.41937E+07         0.00000E+00
    0.41937E+07        -0.59640E+08         0.00000E+00
    0.00000E+00         0.00000E+00        -0.45512E+08
 
   -0.34244E+08        -0.66134E+04         0.00000E+00
   -0.66134E+04        -0.60016E+08         0.00000E+00
    0.00000E+00         0.00000E+00        -0.44707E+08
 
   -0.35451E+08        -0.28620E+05         0.00000E+00
   -0.28620E+05        -0.60062E+08         0.00000E+00
    0.00000E+00         0.00000E+00        -0.44710E+08
 
   -0.36502E+08        -0.39271E+05         0.00000E+00
   -0.39271E+05        -0.60145E+08         0.00000E+00
    0.00000E+00         0.00000E+00        -0.44715E+08
 
   -0.37420E+08        -0.16169E+05         0.00000E+00
   -0.16169E+05        -0.60255E+08         0.00000E+00
    0.00000E+00         0.00000E+00        -0.44722E+08
 
   -0.38224E+08         0.57472E+05         0.00000E+00
    0.57472E+05        -0.60378E+08         0.00000E+00
    0.00000E+00         0.00000E+00        -0.44731E+08
 
   -0.38938E+08         0.19355E+06         0.00000E+00
    0.19355E+06        -0.60503E+08         0.00000E+00
    0.00000E+00         0.00000E+00        -0.44740E+08
 
   -0.39582E+08         0.39979E+06         0.00000E+00
    0.39979E+06        -0.60619E+08         0.00000E+00
    0.00000E+00         0.00000E+00        -0.44751E+08
 
   -0.40177E+08         0.68037E+06         0.00000E+00
    0.68037E+06        -0.60714E+08         0.00000E+00
    0.00000E+00         0.00000E+00        -0.44761E+08
 
   -0.40743E+08         0.10365E+07         0.00000E+00
    0.10365E+07        -0.60778E+08         0.00000E+00
    0.00000E+00         0.00000E+00        -0.44772E+08
 
   -0.41298E+08         0.14669E+07         0.00000E+00
    0.14669E+07        -0.60801E+08         0.00000E+00
    0.00000E+00         0.00000E+00        -0.44782E+08
 
   -0.41859E+08         0.19680E+07         0.00000E+00
    0.19680E+07        -0.60773E+08         0.00000E+00
    0.00000E+00         0.00000E+00        -0.44791E+08
 
   -0.42441E+08         0.25345E+07         0.00000E+00
    0.25345E+07        -0.60686E+08         0.00000E+00
    0.00000E+00         0.00000E+00        -0.44798E+08
 
   -0.43057E+08         0.31593E+07         0.00000E+00
    0.31593E+07        -0.60532E+08         0.00000E+00
    0.00000E+00         0.00000E+00        -0.44804E+08
 
   -0.43719E+08         0.38338E+07         0.00000E+00
    0.38338E+07        -0.60305E+08         0.00000E+00
    0.00000E+00         0.00000E+00        -0.44809E+08
 
   -0.44438E+08         0.45478E+07         0.00000E+00
    0.45478E+07        -0.59998E+08         0.00000E+00
    0.00000E+00         0.00000E+00        -0.44811E+08
 
   -0.34288E+08        -0.34622E+05         0.00000E+00
   -0.34622E+05        -0.60019E+08         0.00000E+00
    0.00000E+00         0.00000E+00        -0.44004E+08
 
   -0.35491E+08        -0.10430E+06         0.00000E+00
   -0.10430E+06        -0.60077E+08         0.00000E+00
    0.00000E+00         0.00000E+00        -0.44004E+08
 
   -0.36513E+08        -0.15041E+06         0.00000E+00
   -0.15041E+06        -0.60181E+08         0.00000E+00
    0.00000E+00         0.00000E+00        -0.44004E+08
 
   -0.37381E+08        -0.14988E+06         0.00000E+00
   -0.14988E+06        -0.60317E+08         0.00000E+00
    0.00000E+00         0.00000E+00        -0.44005E+08
 
   -0.38122E+08        -0.85820E+05         0.00000E+00
   -0.85820E+05        -0.60470E+08         0.00000E+00
    0.00000E+00         0.00000E+00        -0.44006E+08
 
   -0.38762E+08         0.53341E+05         0.00000E+00
    0.53341E+05        -0.60629E+08         0.00000E+00
    0.00000E+00         0.00000E+00        -0.44008E+08
 
   -0.39328E+08         0.27474E+06         0.00000E+00
    0.27474E+06        -0.60778E+08         0.00000E+00
    0.00000E+00         0.00000E+00        -0.44009E+08
 
   -0.39843E+08         0.58182E+06         0.00000E+00
    0.58182E+06        -0.60907E+08         0.00000E+00
    0.00000E+00         0.00000E+00        -0.44012E+08
 
   -0.40329E+08         0.97505E+06         0.00000E+00
    0.97505E+06        -0.61003E+08         0.00000E+00
    0.00000E+00         0.00000E+00        -0.44014E+08
 
   -0.40806E+08         0.14523E+07         0.00000E+00
    0.14523E+07        -0.61057E+08         0.00000E+00
    0.00000E+00         0.00000E+00        -0.44017E+08
 
   -0.41294E+08         0.20095E+07         0.00000E+00
    0.20095E+07        -0.61058E+08         0.00000E+00
    0.00000E+00         0.00000E+00        -0.44019E+08
 
   -0.41810E+08         0.26404E+07         0.00000E+00
    0.26404E+07        -0.60998E+08         0.00000E+00
    0.00000E+00         0.00000E+00        -0.44021E+08
 
   -0.42369E+08         0.33371E+07         0.00000E+00
    0.33371E+07        -0.60869E+08         0.00000E+00
    0.00000E+00         0.00000E+00        -0.44022E+08
 
   -0.42983E+08         0.40902E+07         0.00000E+00
    0.40902E+07        -0.60662E+08         0.00000E+00
    0.00000E+00         0.00000E+00        -0.44023E+08
 
   -0.43665E+08         0.48884E+07         0.00000E+00
    0.48884E+07        -0.60372E+08         0.00000E+00
    0.00000E+00         0.00000E+00        -0.44023E+08
 
   -0.34391E+08        -0.69187E+05         0.00000E+00
   -0.69187E+05        -0.60023E+08         0.00000E+00
    0.00000E+00         0.00000E+00        -0.43212E+08
 
   -0.35578E+08        -0.19706E+06         0.00000E+00
   -0.19706E+06        -0.60093E+08         0.00000E+00
    0.00000E+00         0.00000E+00        -0.43209E+08
 
   -0.36556E+08        -0.28609E+06         0.00000E+00
   -0.28609E+06        -0.60218E+08         0.00000E+00
    0.00000E+00         0.00000E+00        -0.43204E+08
 
   -0.37360E+08        -0.31303E+06         0.00000E+00
   -0.31303E+06        -0.60381E+08         0.00000E+00
    0.00000E+00         0.00000E+00        -0.43198E+08
 
   -0.38024E+08        -0.26144E+06         0.00000E+00
   -0.26144E+06        -0.60566E+08         0.00000E+00
    0.00000E+00         0.00000E+00        -0.43192E+08
 
   -0.38579E+08        -0.12055E+06         0.00000E+00
   -0.12055E+06        -0.60757E+08         0.00000E+00
    0.00000E+00         0.00000E+00        -0.43185E+08
 
   -0.39054E+08         0.11577E+06         0.00000E+00
    0.11577E+06        -0.60940E+08         0.00000E+00
    0.00000E+00         0.00000E+00        -0.43178E+08
 
   -0.39476E+08         0.44992E+06         0.00000E+00
    0.44992E+06        -0.61102E+08         0.00000E+00
    0.00000E+00         0.00000E+00        -0.43172E+08
 
   -0.39871E+08         0.88134E+06         0.00000E+00
    0.88134E+06        -0.61231E+08         0.00000E+00
    0.00000E+00         0.00000E+00        -0.43166E+08
 
   -0.40262E+08         0.14071E+07         0.00000E+00
    0.14071E+07        -0.61316E+08         0.00000E+00
    0.00000E+00         0.00000E+00        -0.43161E+08
 
   -0.40668E+08         0.20222E+07         0.00000E+00
    0.20222E+07        -0.61348E+08         0.00000E+00
    0.00000E+00         0.00000E+00        -0.43156E+08
 
   -0.41110E+08         0.27199E+07         0.00000E+00
    0.27199E+07        -0.61316E+08         0.00000E+00
    0.00000E+00         0.00000E+00        -0.43152E+08
 
   -0.41603E+08         0.34916E+07         0.00000E+00
    0.34916E+07        -0.61211E+08         0.00000E+00
    0.00000E+00         0.00000E+00        -0.43149E+08
 
   -0.42163E+08         0.43269E+07         0.00000E+00
    0.43269E+07        -0.61027E+08         0.00000E+00
    0.00000E+00         0.00000E+00        -0.43146E+08
 
   -0.42803E+08         0.52137E+07         0.00000E+00
    0.52137E+07        -0.60756E+08         0.00000E+00
    0.00000E+00         0.00000E+00        -0.43145E+08
 
   -0.34567E+08        -0.11061E+06         0.00000E+00
   -0.11061E+06        -0.60027E+08         0.00000E+00
    0.00000E+00         0.00000E+00        -0.42325E+08
 
   -0.35719E+08        -0.30747E+06         0.00000E+00
   -0.30747E+06        -0.60109E+08         0.00000E+00
    0.00000E+00         0.00000E+00        -0.42319E+08
 
   -0.36637E+08        -0.44680E+06         0.00000E+00
   -0.44680E+06        -0.60255E+08         0.00000E+00
    0.00000E+00         0.00000E+00        -0.42309E+08
 
   -0.37362E+08        -0.50587E+06         0.00000E+00
   -0.50587E+06        -0.60446E+08         0.00000E+00
    0.00000E+00         0.00000E+00        -0.42296E+08
 
   -0.37932E+08        -0.46929E+06         0.00000E+00
   -0.46929E+06        -0.60661E+08         0.00000E+00
    0.00000E+00         0.00000E+00        -0.42282E+08
 
   -0.38387E+08        -0.32772E+06         0.00000E+00
   -0.32772E+06        -0.60885E+08         0.00000E+00
    0.00000E+00         0.00000E+00        -0.42267E+08
 
   -0.38758E+08        -0.76541E+05         0.00000E+00
   -0.76541E+05        -0.61100E+08         0.00000E+00
    0.00000E+00         0.00000E+00        -0.42251E+08
 
   -0.39076E+08         0.28521E+06         0.00000E+00
    0.28521E+06        -0.61295E+08         0.00000E+00
    0.00000E+00         0.00000E+00        -0.42236E+08
 
   -0.39370E+08         0.75576E+06         0.00000E+00
    0.75576E+06        -0.61456E+08         0.00000E+00
    0.00000E+00         0.00000E+00        -0.42222E+08
 
   -0.39663E+08         0.13312E+07         0.00000E+00
    0.13312E+07        -0.61572E+08         0.00000E+00
    0.00000E+00         0.00000E+00        -0.42209E+08
 
   -0.39979E+08         0.20058E+07         0.00000E+00
    0.20058E+07        -0.61633E+08         0.00000E+00
    0.00000E+00         0.00000E+00        -0.42197E+08
 
   -0.40337E+08         0.27721E+07         0.00000E+00
    0.27721E+07        -0.61629E+08         0.00000E+00
    0.00000E+00         0.00000E+00        -0.42187E+08
 
   -0.40757E+08         0.36212E+07         0.00000E+00
    0.36212E+07        -0.61552E+08         0.00000E+00
    0.00000E+00         0.00000E+00        -0.42179E+08
 
   -0.41256E+08         0.45420E+07         0.00000E+00
    0.45420E+07        -0.61392E+08         0.00000E+00
    0.00000E+00         0.00000E+00        -0.42173E+08
 
   -0.41848E+08         0.55215E+07         0.00000E+00
    0.55215E+07        -0.61141E+08         0.00000E+00
    0.00000E+00         0.00000E+00        -0.42170E+08
 
   -0.34827E+08        -0.15909E+06         0.00000E+00
   -0.15909E+06        -0.60031E+08         0.00000E+00
    0.00000E+00         0.00000E+00        -0.41336E+08
 
   -0.35925E+08        -0.43575E+06         0.00000E+00
   -0.43575E+06        -0.60125E+08         0.00000E+00
    0.00000E+00         0.00000E+00        -0.41327E+08
 
   -0.36762E+08        -0.63247E+06         0.00000E+00
   -0.63247E+06        -0.60293E+08         0.00000E+00
    0.00000E+00         0.00000E+00        -0.41312E+08
 
   -0.37388E+08        -0.72779E+06         0.00000E+00
   -0.72779E+06        -0.60510E+08         0.00000E+00
    0.00000E+00         0.00000E+00        -0.41292E+08
 
   -0.37848E+08        -0.70822E+06         0.00000E+00
   -0.70822E+06        -0.60754E+08         0.00000E+00
    0.00000E+00         0.00000E+00        -0.41270E+08
 
   -0.38187E+08        -0.56657E+06         0.00000E+00
   -0.56657E+06        -0.61008E+08         0.00000E+00
    0.00000E+00         0.00000E+00        -0.41246E+08
 
   -0.38440E+08        -0.30037E+06         0.00000E+00
   -0.30037E+06        -0.61254E+08         0.00000E+00
    0.00000E+00         0.00000E+00        -0.41222E+08
 
   -0.38643E+08         0.89486E+05         0.00000E+00
    0.89486E+05        -0.61478E+08         0.00000E+00
    0.00000E+00         0.00000E+00        -0.41198E+08
 
   -0.38824E+08         0.59974E+06         0.00000E+00
    0.59974E+06        -0.61668E+08         0.00000E+00
    0.00000E+00         0.00000E+00        -0.41176E+08
 
   -0.39010E+08         0.12254E+07         0.00000E+00
    0.12254E+07        -0.61814E+08         0.00000E+00
    0.00000E+00         0.00000E+00        -0.41155E+08
 
   -0.39225E+08         0.19602E+07         0.00000E+00
    0.19602E+07        -0.61904E+08         0.00000E+00
    0.00000E+00         0.00000E+00        -0.41136E+08
 
   -0.39491E+08         0.27963E+07         0.00000E+00
    0.27963E+07        -0.61929E+08         0.00000E+00
    0.00000E+00         0.00000E+00        -0.41120E+08
 
   -0.39829E+08         0.37245E+07         0.00000E+00
    0.37245E+07        -0.61879E+08         0.00000E+00
    0.00000E+00         0.00000E+00        -0.41107E+08
 
   -0.40258E+08         0.47334E+07         0.00000E+00
    0.47334E+07        -0.61745E+08         0.00000E+00
    0.00000E+00         0.00000E+00        -0.41098E+08
 
   -0.40794E+08         0.58093E+07         0.00000E+00
    0.58093E+07        -0.61517E+08         0.00000E+00
    0.00000E+00         0.00000E+00        -0.41093E+08
 
   -0.35185E+08        -0.21470E+06         0.00000E+00
   -0.21470E+06        -0.60034E+08         0.00000E+00
    0.00000E+00         0.00000E+00        -0.40237E+08
 
   -0.36204E+08        -0.58172E+06         0.00000E+00
   -0.58172E+06        -0.60141E+08         0.00000E+00
    0.00000E+00         0.00000E+00        -0.40226E+08
 
   -0.36936E+08        -0.84223E+06         0.00000E+00
   -0.84223E+06        -0.60329E+08         0.00000E+00
    0.00000E+00         0.00000E+00        -0.40205E+08
 
   -0.37441E+08        -0.97710E+06         0.00000E+00
   -0.97710E+06        -0.60571E+08         0.00000E+00
    0.00000E+00         0.00000E+00        -0.40179E+08
 
   -0.37773E+08        -0.97573E+06         0.00000E+00
   -0.97573E+06        -0.60842E+08         0.00000E+00
    0.00000E+00         0.00000E+00        -0.40148E+08
 
   -0.37979E+08        -0.83401E+06         0.00000E+00
   -0.83401E+06        -0.61122E+08         0.00000E+00
    0.00000E+00         0.00000E+00        -0.40116E+08
 
   -0.38101E+08        -0.55233E+06         0.00000E+00
   -0.55233E+06        -0.61394E+08         0.00000E+00
    0.00000E+00         0.00000E+00        -0.40084E+08
 
   -0.38175E+08        -0.13399E+06         0.00000E+00
   -0.13399E+06        -0.61644E+08         0.00000E+00
    0.00000E+00         0.00000E+00        -0.40052E+08
 
   -0.38233E+08         0.41603E+06         0.00000E+00
    0.41603E+06        -0.61860E+08         0.00000E+00
    0.00000E+00         0.00000E+00        -0.40022E+08
 
   -0.38301E+08         0.10917E+07         0.00000E+00
    0.10917E+07        -0.62031E+08         0.00000E+00
    0.00000E+00         0.00000E+00        -0.39994E+08
 
   -0.38406E+08         0.18863E+07         0.00000E+00
    0.18863E+07        -0.62148E+08         0.00000E+00
    0.00000E+00         0.00000E+00        -0.39969E+08
 
   -0.38570E+08         0.27920E+07         0.00000E+00
    0.27920E+07        -0.62201E+08         0.00000E+00
    0.00000E+00         0.00000E+00        -0.39947E+08
 
   -0.38816E+08         0.37997E+07         0.00000E+00
    0.37997E+07        -0.62180E+08         0.00000E+00
    0.00000E+00         0.00000E+00        -0.39930E+08
 
   -0.39166E+08         0.48984E+07         0.00000E+00
    0.48984E+07        -0.62074E+08         0.00000E+00
    0.00000E+00         0.00000E+00        -0.39917E+08
 
   -0.39639E+08         0.60739E+07         0.00000E+00
    0.60739E+07        -0.61873E+08         0.00000E+00
    0.00000E+00         0.00000E+00        -0.39910E+08
 
   -0.35653E+08        -0.27734E+06         0.00000E+00
   -0.27734E+06        -0.60038E+08         0.00000E+00
    0.00000E+00         0.00000E+00        -0.39023E+08
 
   -0.36563E+08        -0.74462E+06         0.00000E+00
   -0.74462E+06        -0.60157E+08         0.00000E+00
    0.00000E+00         0.00000E+00        -0.39008E+08
 
   -0.37163E+08        -0.10743E+07         0.00000E+00
   -0.10743E+07        -0.60363E+08         0.00000E+00
    0.00000E+00         0.00000E+00        -0.38982E+08
 
   -0.37523E+08        -0.12507E+07         0.00000E+00
   -0.12507E+07        -0.60626E+08         0.00000E+00
    0.00000E+00         0.00000E+00        -0.38949E+08
 
   -0.37705E+08        -0.12676E+07         0.00000E+00
   -0.12676E+07        -0.60919E+08         0.00000E+00
    0.00000E+00         0.00000E+00        -0.38912E+08
 
   -0.37762E+08        -0.11250E+07         0.00000E+00
   -0.11250E+07        -0.61220E+08         0.00000E+00
    0.00000E+00         0.00000E+00        -0.38872E+08
 
   -0.37739E+08        -0.82711E+06         0.00000E+00
   -0.82711E+06        -0.61512E+08         0.00000E+00
    0.00000E+00         0.00000E+00        -0.38832E+08
 
   -0.37673E+08        -0.38012E+06         0.00000E+00
   -0.38012E+06        -0.61781E+08         0.00000E+00
    0.00000E+00         0.00000E+00        -0.38792E+08
 
   -0.37597E+08         0.20896E+06         0.00000E+00
    0.20896E+06        -0.62017E+08         0.00000E+00
    0.00000E+00         0.00000E+00        -0.38755E+08
 
   -0.37539E+08         0.93315E+06         0.00000E+00
    0.93315E+06        -0.62210E+08         0.00000E+00
    0.00000E+00         0.00000E+00        -0.38720E+08
 
   -0.37523E+08         0.17856E+07         0.00000E+00
    0.17856E+07        -0.62351E+08         0.00000E+00
    0.00000E+00         0.00000E+00        -0.38689E+08
 
   -0.37576E+08         0.27590E+07         0.00000E+00
    0.27590E+07        -0.62431E+08         0.00000E+00
    0.00000E+00         0.00000E+00        -0.38662E+08
 
   -0.37720E+08         0.38453E+07         0.00000E+00
    0.38453E+07        -0.62440E+08         0.00000E+00
    0.00000E+00         0.00000E+00        -0.38640E+08
 
   -0.37979E+08         0.50339E+07         0.00000E+00
    0.50339E+07        -0.62365E+08         0.00000E+00
    0.00000E+00         0.00000E+00        -0.38624E+08
 
   -0.38377E+08         0.63113E+07         0.00000E+00
    0.63113E+07        -0.62195E+08         0.00000E+00
    0.00000E+00         0.00000E+00        -0.38616E+08
 
   -0.36244E+08        -0.34672E+06         0.00000E+00
   -0.34672E+06        -0.60042E+08         0.00000E+00
    0.00000E+00         0.00000E+00        -0.37684E+08
 
   -0.37009E+08        -0.92304E+06         0.00000E+00
   -0.92304E+06        -0.60171E+08         0.00000E+00
    0.00000E+00         0.00000E+00        -0.37667E+08
 
   -0.37446E+08        -0.13256E+07         0.00000E+00
   -0.13256E+07        -0.60393E+08         0.00000E+00
    0.00000E+00         0.00000E+00        -0.37636E+08
 
   -0.37635E+08        -0.15439E+07         0.00000E+00
   -0.15439E+07        -0.60673E+08         0.00000E+00
    0.00000E+00         0.00000E+00        -0.37597E+08
 
   -0.37645E+08        -0.15776E+07         0.00000E+00
   -0.15776E+07        -0.60981E+08         0.00000E+00
    0.00000E+00         0.00000E+00        -0.37553E+08
 
   -0.37536E+08        -0.14323E+07         0.00000E+00
   -0.14323E+07        -0.61295E+08         0.00000E+00
    0.00000E+00         0.00000E+00        -0.37506E+08
 
   -0.37354E+08        -0.11170E+07         0.00000E+00
   -0.11170E+07        -0.61598E+08         0.00000E+00
    0.00000E+00         0.00000E+00        -0.37459E+08
 
   -0.37138E+08        -0.64165E+06         0.00000E+00
   -0.64165E+06        -0.61877E+08         0.00000E+00
    0.00000E+00         0.00000E+00        -0.37413E+08
 
   -0.36919E+08        -0.15324E+05         0.00000E+00
   -0.15324E+05        -0.62125E+08         0.00000E+00
    0.00000E+00         0.00000E+00        -0.37369E+08
 
   -0.36725E+08         0.75419E+06         0.00000E+00
    0.75419E+06        -0.62334E+08         0.00000E+00
    0.00000E+00         0.00000E+00        -0.37328E+08
 
   -0.36580E+08         0.16604E+07         0.00000E+00
    0.16604E+07        -0.62495E+08         0.00000E+00
    0.00000E+00         0.00000E+00        -0.37292E+08
 
   -0.36510E+08         0.26976E+07         0.00000E+00
    0.26976E+07        -0.62601E+08         0.00000E+00
    0.00000E+00         0.00000E+00        -0.37260E+08
 
   -0.36540E+08         0.38590E+07         0.00000E+00
    0.38590E+07        -0.62640E+08         0.00000E+00
    0.00000E+00         0.00000E+00        -0.37235E+08
 
   -0.36696E+08         0.51361E+07         0.00000E+00
    0.51361E+07        -0.62600E+08         0.00000E+00
    0.00000E+00         0.00000E+00        -0.37216E+08
 
   -0.37006E+08         0.65163E+07         0.00000E+00
    0.65163E+07        -0.62465E+08         0.00000E+00
    0.00000E+00         0.00000E+00        -0.37206E+08
 
   -0.36969E+08        -0.42234E+06         0.00000E+00
   -0.42234E+06        -0.60045E+08         0.00000E+00
    0.00000E+00         0.00000E+00        -0.36215E+08
 
   -0.37548E+08        -0.11148E+07         0.00000E+00
   -0.11148E+07        -0.60183E+08         0.00000E+00
    0.00000E+00         0.00000E+00        -0.36196E+08
 
   -0.37785E+08        -0.15916E+07         0.00000E+00
   -0.15916E+07        -0.60417E+08         0.00000E+00
    0.00000E+00         0.00000E+00        -0.36161E+08
 
   -0.37773E+08        -0.18498E+07         0.00000E+00
   -0.18498E+07        -0.60707E+08         0.00000E+00
    0.00000E+00         0.00000E+00        -0.36116E+08
 
   -0.37590E+08        -0.18967E+07         0.00000E+00
   -0.18967E+07        -0.61021E+08         0.00000E+00
    0.00000E+00         0.00000E+00        -0.36066E+08
 
   -0.37298E+08        -0.17456E+07         0.00000E+00
   -0.17456E+07        -0.61336E+08         0.00000E+00
    0.00000E+00         0.00000E+00        -0.36014E+08
 
   -0.36946E+08        -0.14116E+07         0.00000E+00
   -0.14116E+07        -0.61638E+08         0.00000E+00
    0.00000E+00         0.00000E+00        -0.35961E+08
 
   -0.36570E+08        -0.90872E+06         0.00000E+00
   -0.90872E+06        -0.61917E+08         0.00000E+00
    0.00000E+00         0.00000E+00        -0.35909E+08
 
   -0.36202E+08        -0.24854E+06         0.00000E+00
   -0.24854E+06        -0.62166E+08         0.00000E+00
    0.00000E+00         0.00000E+00        -0.35860E+08
 
   -0.35864E+08         0.56080E+06         0.00000E+00
    0.56080E+06        -0.62382E+08         0.00000E+00
    0.00000E+00         0.00000E+00        -0.35814E+08
 
   -0.35582E+08         0.15141E+07         0.00000E+00
    0.15141E+07        -0.62558E+08         0.00000E+00
    0.00000E+00         0.00000E+00        -0.35773E+08
 
   -0.35379E+08         0.26077E+07         0.00000E+00
    0.26077E+07        -0.62688E+08         0.00000E+00
    0.00000E+00         0.00000E+00        -0.35738E+08
 
   -0.35281E+08         0.38382E+07         0.00000E+00
    0.38382E+07        -0.62760E+08         0.00000E+00
    0.00000E+00         0.00000E+00        -0.35710E+08
 
   -0.35319E+08         0.51998E+07         0.00000E+00
    0.51998E+07        -0.62758E+08         0.00000E+00
    0.00000E+00         0.00000E+00        -0.35689E+08
 
   -0.35525E+08         0.66823E+07         0.00000E+00
    0.66823E+07        -0.62666E+08         0.00000E+00
    0.00000E+00         0.00000E+00        -0.35678E+08
 
   -0.37838E+08        -0.50344E+06         0.00000E+00
   -0.50344E+06        -0.60048E+08         0.00000E+00
    0.00000E+00         0.00000E+00        -0.34610E+08
 
   -0.38182E+08        -0.13167E+07         0.00000E+00
   -0.13167E+07        -0.60192E+08         0.00000E+00
    0.00000E+00         0.00000E+00        -0.34588E+08
 
   -0.38178E+08        -0.18661E+07         0.00000E+00
   -0.18661E+07        -0.60432E+08         0.00000E+00
    0.00000E+00         0.00000E+00        -0.34549E+08
 
   -0.37934E+08        -0.21588E+07         0.00000E+00
   -0.21588E+07        -0.60723E+08         0.00000E+00
    0.00000E+00         0.00000E+00        -0.34501E+08
 
   -0.37535E+08        -0.22129E+07         0.00000E+00
   -0.22129E+07        -0.61030E+08         0.00000E+00
    0.00000E+00         0.00000E+00        -0.34446E+08
 
   -0.37046E+08        -0.20513E+07         0.00000E+00
   -0.20513E+07        -0.61332E+08         0.00000E+00
    0.00000E+00         0.00000E+00        -0.34389E+08
 
   -0.36514E+08        -0.16968E+07         0.00000E+00
   -0.16968E+07        -0.61617E+08         0.00000E+00
    0.00000E+00         0.00000E+00        -0.34332E+08
 
   -0.35974E+08        -0.11685E+07         0.00000E+00
   -0.11685E+07        -0.61879E+08         0.00000E+00
    0.00000E+00         0.00000E+00        -0.34276E+08
 
   -0.35451E+08        -0.48004E+06         0.00000E+00
   -0.48004E+06        -0.62117E+08         0.00000E+00
    0.00000E+00         0.00000E+00        -0.34223E+08
 
   -0.34966E+08         0.36060E+06         0.00000E+00
    0.36060E+06        -0.62330E+08         0.00000E+00
    0.00000E+00         0.00000E+00        -0.34174E+08
 
   -0.34538E+08         0.13504E+07         0.00000E+00
    0.13504E+07        -0.62516E+08         0.00000E+00
    0.00000E+00         0.00000E+00        -0.34130E+08
 
   -0.34190E+08         0.24896E+07         0.00000E+00
    0.24896E+07        -0.62667E+08         0.00000E+00
    0.00000E+00         0.00000E+00        -0.34092E+08
 
   -0.33950E+08         0.37792E+07         0.00000E+00
    0.37792E+07        -0.62773E+08         0.00000E+00
    0.00000E+00         0.00000E+00        -0.34061E+08
 
   -0.33851E+08         0.52183E+07         0.00000E+00
    0.52183E+07        -0.62817E+08         0.00000E+00
    0.00000E+00         0.00000E+00        -0.34039E+08
 
   -0.33932E+08         0.68003E+07         0.00000E+00
    0.68003E+07        -0.62775E+08         0.00000E+00
    0.00000E+00         0.00000E+00        -0.34026E+08
 
   -0.38858E+08        -0.58895E+06         0.00000E+00
   -0.58895E+06        -0.60050E+08         0.00000E+00
    0.00000E+00         0.00000E+00        -0.32861E+08
 
   -0.38909E+08        -0.15242E+07         0.00000E+00
   -0.15242E+07        -0.60197E+08         0.00000E+00
    0.00000E+00         0.00000E+00        -0.32838E+08
 
   -0.38619E+08        -0.21400E+07         0.00000E+00
   -0.21400E+07        -0.60436E+08         0.00000E+00
    0.00000E+00         0.00000E+00        -0.32797E+08
 
   -0.38110E+08        -0.24576E+07         0.00000E+00
   -0.24576E+07        -0.60715E+08         0.00000E+00
    0.00000E+00         0.00000E+00        -0.32745E+08
 
   -0.37473E+08        -0.25096E+07         0.00000E+00
   -0.25096E+07        -0.60998E+08         0.00000E+00
    0.00000E+00         0.00000E+00        -0.32688E+08
 
   -0.36775E+08        -0.23315E+07         0.00000E+00
   -0.23315E+07        -0.61267E+08         0.00000E+00
    0.00000E+00         0.00000E+00        -0.32628E+08
 
   -0.36059E+08        -0.19551E+07         0.00000E+00
   -0.19551E+07        -0.61515E+08         0.00000E+00
    0.00000E+00         0.00000E+00        -0.32568E+08
 
   -0.35354E+08        -0.14050E+07         0.00000E+00
   -0.14050E+07        -0.61742E+08         0.00000E+00
    0.00000E+00         0.00000E+00        -0.32510E+08
 
   -0.34676E+08        -0.69668E+06         0.00000E+00
   -0.69668E+06        -0.61953E+08         0.00000E+00
    0.00000E+00         0.00000E+00        -0.32455E+08
 
   -0.34041E+08         0.16283E+06         0.00000E+00
    0.16283E+06        -0.62151E+08         0.00000E+00
    0.00000E+00         0.00000E+00        -0.32404E+08
 
   -0.33461E+08         0.11741E+07         0.00000E+00
    0.11741E+07        -0.62337E+08         0.00000E+00
    0.00000E+00         0.00000E+00        -0.32358E+08
 
   -0.32958E+08         0.23429E+07         0.00000E+00
    0.23429E+07        -0.62508E+08         0.00000E+00
    0.00000E+00         0.00000E+00        -0.32319E+08
 
   -0.32558E+08         0.36770E+07         0.00000E+00
    0.36770E+07        -0.62652E+08         0.00000E+00
    0.00000E+00         0.00000E+00        -0.32287E+08
 
   -0.32299E+08         0.51824E+07         0.00000E+00
    0.51824E+07        -0.62748E+08         0.00000E+00
    0.00000E+00         0.00000E+00        -0.32263E+08
 
   -0.32229E+08         0.68585E+07         0.00000E+00
    0.68585E+07        -0.62771E+08         0.00000E+00
    0.00000E+00         0.00000E+00        -0.32251E+08
 
   -0.40033E+08        -0.67748E+06         0.00000E+00
   -0.67748E+06        -0.60051E+08         0.00000E+00
    0.00000E+00         0.00000E+00        -0.30966E+08
 
   -0.39725E+08        -0.17312E+07         0.00000E+00
   -0.17312E+07        -0.60197E+08         0.00000E+00
    0.00000E+00         0.00000E+00        -0.30941E+08
 
   -0.39097E+08        -0.24012E+07         0.00000E+00
   -0.24012E+07        -0.60424E+08         0.00000E+00
    0.00000E+00         0.00000E+00        -0.30899E+08
 
   -0.38288E+08        -0.27286E+07         0.00000E+00
   -0.27286E+07        -0.60672E+08         0.00000E+00
    0.00000E+00         0.00000E+00        -0.30846E+08
 
   -0.37395E+08        -0.27656E+07         0.00000E+00
   -0.27656E+07        -0.60909E+08         0.00000E+00
    0.00000E+00         0.00000E+00        -0.30788E+08
 
   -0.36482E+08        -0.25634E+07         0.00000E+00
   -0.25634E+07        -0.61121E+08         0.00000E+00
    0.00000E+00         0.00000E+00        -0.30727E+08
 
   -0.35584E+08        -0.21645E+07         0.00000E+00
   -0.21645E+07        -0.61307E+08         0.00000E+00
    0.00000E+00         0.00000E+00        -0.30667E+08
 
   -0.34718E+08        -0.15987E+07         0.00000E+00
   -0.15987E+07        -0.61477E+08         0.00000E+00
    0.00000E+00         0.00000E+00        -0.30609E+08
 
   -0.33890E+08        -0.88293E+06         0.00000E+00
   -0.88293E+06        -0.61641E+08         0.00000E+00
    0.00000E+00         0.00000E+00        -0.30554E+08
 
   -0.33105E+08        -0.21725E+05         0.00000E+00
   -0.21725E+05        -0.61810E+08         0.00000E+00
    0.00000E+00         0.00000E+00        -0.30503E+08
 
   -0.32370E+08         0.99047E+06         0.00000E+00
    0.99047E+06        -0.61989E+08         0.00000E+00
    0.00000E+00         0.00000E+00        -0.30457E+08
 
   -0.31700E+08         0.21669E+07         0.00000E+00
    0.21669E+07        -0.62177E+08         0.00000E+00
    0.00000E+00         0.00000E+00        -0.30418E+08
 
   -0.31121E+08         0.35248E+07         0.00000E+00
    0.35248E+07        -0.62363E+08         0.00000E+00
    0.00000E+00         0.00000E+00        -0.30385E+08
 
   -0.30675E+08         0.50801E+07         0.00000E+00
    0.50801E+07        -0.62524E+08         0.00000E+00
    0.00000E+00         0.00000E+00        -0.30362E+08
 
   -0.30418E+08         0.68414E+07         0.00000E+00
    0.68414E+07        -0.62626E+08         0.00000E+00
    0.00000E+00         0.00000E+00        -0.30349E+08
 
   -0.41365E+08        -0.76715E+06         0.00000E+00
   -0.76715E+06        -0.60051E+08         0.00000E+00
    0.00000E+00         0.00000E+00        -0.28919E+08
 
   -0.40617E+08        -0.19290E+07         0.00000E+00
   -0.19290E+07        -0.60190E+08         0.00000E+00
    0.00000E+00         0.00000E+00        -0.28895E+08
 
   -0.39594E+08        -0.26326E+07         0.00000E+00
   -0.26326E+07        -0.60388E+08         0.00000E+00
    0.00000E+00         0.00000E+00        -0.28853E+08
 
   -0.38451E+08        -0.29475E+07         0.00000E+00
   -0.29475E+07        -0.60583E+08         0.00000E+00
    0.00000E+00         0.00000E+00        -0.28801E+08
 
   -0.37289E+08        -0.29527E+07         0.00000E+00
   -0.29527E+07        -0.60743E+08         0.00000E+00
    0.00000E+00         0.00000E+00        -0.28745E+08
 
   -0.36163E+08        -0.27187E+07         0.00000E+00
   -0.27187E+07        -0.60865E+08         0.00000E+00
    0.00000E+00         0.00000E+00        -0.28686E+08
 
   -0.35092E+08        -0.22990E+07         0.00000E+00
   -0.22990E+07        -0.60961E+08         0.00000E+00
    0.00000E+00         0.00000E+00        -0.28628E+08
 
   -0.34077E+08        -0.17277E+07         0.00000E+00
   -0.17277E+07        -0.61048E+08         0.00000E+00
    0.00000E+00         0.00000E+00        -0.28571E+08
 
   -0.33110E+08        -0.10214E+07         0.00000E+00
   -0.10214E+07        -0.61145E+08         0.00000E+00
    0.00000E+00         0.00000E+00        -0.28518E+08
 
   -0.32182E+08        -0.18110E+06         0.00000E+00
   -0.18110E+06        -0.61270E+08         0.00000E+00
    0.00000E+00         0.00000E+00        -0.28469E+08
 
   -0.31291E+08         0.80504E+06         0.00000E+00
    0.80504E+06        -0.61433E+08         0.00000E+00
    0.00000E+00         0.00000E+00        -0.28425E+08
 
   -0.30442E+08         0.19599E+07         0.00000E+00
    0.19599E+07        -0.61637E+08         0.00000E+00
    0.00000E+00         0.00000E+00        -0.28387E+08
 
   -0.29661E+08         0.33132E+07         0.00000E+00
    0.33132E+07        -0.61872E+08         0.00000E+00
    0.00000E+00         0.00000E+00        -0.28356E+08
 
   -0.28993E+08         0.48952E+07         0.00000E+00
    0.48952E+07        -0.62111E+08         0.00000E+00
    0.00000E+00         0.00000E+00        -0.28333E+08
 
   -0.28506E+08         0.67281E+07         0.00000E+00
    0.67281E+07        -0.62314E+08         0.00000E+00
    0.00000E+00         0.00000E+00        -0.28321E+08
 
   -0.42846E+08        -0.85549E+06         0.00000E+00
   -0.85549E+06        -0.60049E+08         0.00000E+00
    0.00000E+00         0.00000E+00        -0.26722E+08
 
   -0.41562E+08        -0.21051E+07         0.00000E+00
   -0.21051E+07        -0.60172E+08         0.00000E+00
    0.00000E+00         0.00000E+00        -0.26698E+08
 
   -0.40080E+08        -0.28093E+07         0.00000E+00
   -0.28093E+07        -0.60319E+08         0.00000E+00
    0.00000E+00         0.00000E+00        -0.26659E+08
 
   -0.38576E+08        -0.30810E+07         0.00000E+00
   -0.30810E+07        -0.60424E+08         0.00000E+00
    0.00000E+00         0.00000E+00        -0.26611E+08
 
   -0.37144E+08        -0.30352E+07         0.00000E+00
   -0.30352E+07        -0.60469E+08         0.00000E+00
    0.00000E+00         0.00000E+00        -0.26558E+08
 
   -0.35818E+08        -0.27641E+07         0.00000E+00
   -0.27641E+07        -0.60464E+08         0.00000E+00
    0.00000E+00         0.00000E+00        -0.26504E+08
 
   -0.34592E+08        -0.23301E+07         0.00000E+00
   -0.23301E+07        -0.60436E+08         0.00000E+00
    0.00000E+00         0.00000E+00        -0.26450E+08
 
   -0.33447E+08        -0.17687E+07         0.00000E+00
   -0.17687E+07        -0.60415E+08         0.00000E+00
    0.00000E+00         0.00000E+00        -0.26398E+08
 
   -0.32357E+08        -0.10940E+07         0.00000E+00
   -0.10940E+07        -0.60425E+08         0.00000E+00
    0.00000E+00         0.00000E+00        -0.26349E+08
 
   -0.31299E+08        -0.30270E+06         0.00000E+00
   -0.30270E+06        -0.60491E+08         0.00000E+00
    0.00000E+00         0.00000E+00        -0.26304E+08
 
   -0.30254E+08         0.62389E+06         0.00000E+00
    0.62389E+06        -0.60628E+08         0.00000E+00
    0.00000E+00         0.00000E+00        -0.26264E+08
 
   -0.29219E+08         0.17193E+07         0.00000E+00
    0.17193E+07        -0.60845E+08         0.00000E+00
    0.00000E+00         0.00000E+00        -0.26229E+08
 
   -0.28210E+08         0.30298E+07         0.00000E+00
    0.30298E+07        -0.61137E+08         0.00000E+00
    0.00000E+00         0.00000E+00        -0.26200E+08
 
   -0.27277E+08         0.46059E+07         0.00000E+00
    0.46059E+07        -0.61475E+08         0.00000E+00
    0.00000E+00         0.00000E+00        -0.26179E+08
 
   -0.26501E+08         0.64901E+07         0.00000E+00
    0.64901E+07        -0.61808E+08         0.00000E+00
    0.00000E+00         0.00000E+00        -0.26168E+08
 
   -0.44462E+08        -0.93887E+06         0.00000E+00
   -0.93887E+06        -0.60045E+08         0.00000E+00
    0.00000E+00         0.00000E+00        -0.24374E+08
 
   -0.42523E+08        -0.22392E+07         0.00000E+00
   -0.22392E+07        -0.60136E+08         0.00000E+00
    0.00000E+00         0.00000E+00        -0.24353E+08
 
   -0.40516E+08        -0.28934E+07         0.00000E+00
   -0.28934E+07        -0.60195E+08         0.00000E+00
    0.00000E+00         0.00000E+00        -0.24319E+08
 
   -0.38636E+08        -0.30829E+07         0.00000E+00
   -0.30829E+07        -0.60160E+08         0.00000E+00
    0.00000E+00         0.00000E+00        -0.24277E+08
 
   -0.36950E+08        -0.29689E+07         0.00000E+00
   -0.29689E+07        -0.60037E+08         0.00000E+00
    0.00000E+00         0.00000E+00        -0.24231E+08
 
   -0.35451E+08        -0.26628E+07         0.00000E+00
   -0.26628E+07        -0.59864E+08         0.00000E+00
    0.00000E+00         0.00000E+00        -0.24183E+08
 
   -0.34100E+08        -0.22293E+07         0.00000E+00
   -0.22293E+07        -0.59682E+08         0.00000E+00
    0.00000E+00         0.00000E+00        -0.24137E+08
 
   -0.32852E+08        -0.17001E+07         0.00000E+00
   -0.17001E+07        -0.59529E+08         0.00000E+00
    0.00000E+00         0.00000E+00        -0.24092E+08
 
   -0.31661E+08        -0.10844E+07         0.00000E+00
   -0.10844E+07        -0.59437E+08         0.00000E+00
    0.00000E+00         0.00000E+00        -0.24049E+08
 
   -0.30488E+08        -0.37441E+06         0.00000E+00
   -0.37441E+06        -0.59430E+08         0.00000E+00
    0.00000E+00         0.00000E+00        -0.24010E+08
 
   -0.29300E+08         0.45411E+06         0.00000E+00
    0.45411E+06        -0.59532E+08         0.00000E+00
    0.00000E+00         0.00000E+00        -0.23975E+08
 
   -0.28074E+08         0.14439E+07         0.00000E+00
    0.14439E+07        -0.59759E+08         0.00000E+00
    0.00000E+00         0.00000E+00        -0.23944E+08
 
   -0.26812E+08         0.26596E+07         0.00000E+00
    0.26596E+07        -0.60114E+08         0.00000E+00
    0.00000E+00         0.00000E+00        -0.23919E+08
 
   -0.25561E+08         0.41833E+07         0.00000E+00
    0.41833E+07        -0.60576E+08         0.00000E+00
    0.00000E+00         0.00000E+00        -0.23901E+08
 
   -0.24418E+08         0.60881E+07         0.00000E+00
    0.60881E+07        -0.61080E+08         0.00000E+00
    0.00000E+00         0.00000E+00        -0.23892E+08
 
   -0.46184E+08        -0.10113E+07         0.00000E+00
   -0.10113E+07        -0.60037E+08         0.00000E+00
    0.00000E+00         0.00000E+00        -0.21882E+08
 
   -0.43436E+08        -0.22954E+07         0.00000E+00
   -0.22954E+07        -0.60066E+08         0.00000E+00
    0.00000E+00         0.00000E+00        -0.21866E+08
 
   -0.40848E+08        -0.28243E+07         0.00000E+00
   -0.28243E+07        -0.59973E+08         0.00000E+00
    0.00000E+00         0.00000E+00        -0.21838E+08
 
   -0.38606E+08        -0.28902E+07         0.00000E+00
   -0.28902E+07        -0.59723E+08         0.00000E+00
    0.00000E+00         0.00000E+00        -0.21805E+08
 
   -0.36707E+08        -0.27044E+07         0.00000E+00
   -0.27044E+07        -0.59373E+08         0.00000E+00
    0.00000E+00         0.00000E+00        -0.21769E+08
 
   -0.35078E+08        -0.23813E+07         0.00000E+00
   -0.23813E+07        -0.58992E+08         0.00000E+00
    0.00000E+00         0.00000E+00        -0.21731E+08
 
   -0.33639E+08        -0.19750E+07         0.00000E+00
   -0.19750E+07        -0.58634E+08         0.00000E+00
    0.00000E+00         0.00000E+00        -0.21693E+08
 
   -0.32317E+08        -0.15075E+07         0.00000E+00
   -0.15075E+07        -0.58339E+08         0.00000E+00
    0.00000E+00         0.00000E+00        -0.21657E+08
 
   -0.31052E+08        -0.98173E+06         0.00000E+00
   -0.98173E+06        -0.58135E+08         0.00000E+00
    0.00000E+00         0.00000E+00        -0.21623E+08
 
   -0.29787E+08        -0.38654E+06         0.00000E+00
   -0.38654E+06        -0.58050E+08         0.00000E+00
    0.00000E+00         0.00000E+00        -0.21591E+08
 
   -0.28472E+08         0.30421E+06         0.00000E+00
    0.30421E+06        -0.58108E+08         0.00000E+00
    0.00000E+00         0.00000E+00        -0.21562E+08
 
   -0.27062E+08         0.11370E+07         0.00000E+00
    0.11370E+07        -0.58336E+08         0.00000E+00
    0.00000E+00         0.00000E+00        -0.21538E+08
 
   -0.25529E+08         0.21909E+07         0.00000E+00
    0.21909E+07        -0.58755E+08         0.00000E+00
    0.00000E+00         0.00000E+00        -0.21518E+08
 
   -0.23895E+08         0.35870E+07         0.00000E+00
    0.35870E+07        -0.59360E+08         0.00000E+00
    0.00000E+00         0.00000E+00        -0.21504E+08
 
   -0.22303E+08         0.54586E+07         0.00000E+00
    0.54586E+07        -0.60090E+08         0.00000E+00
    0.00000E+00         0.00000E+00        -0.21523E+08
 
   -0.47951E+08        -0.10598E+07         0.00000E+00
   -0.10598E+07        -0.60017E+08         0.00000E+00
    0.00000E+00         0.00000E+00        -0.19258E+08
 
   -0.44198E+08        -0.21992E+07         0.00000E+00
   -0.21992E+07        -0.59918E+08         0.00000E+00
    0.00000E+00         0.00000E+00        -0.19247E+08
 
   -0.41017E+08        -0.25010E+07         0.00000E+00
   -0.25010E+07        -0.59551E+08         0.00000E+00
    0.00000E+00         0.00000E+00        -0.19229E+08
 
   -0.38482E+08        -0.24279E+07         0.00000E+00
   -0.24279E+07        -0.58988E+08         0.00000E+00
    0.00000E+00         0.00000E+00        -0.19206E+08
 
   -0.36440E+08        -0.22002E+07         0.00000E+00
   -0.22002E+07        -0.58362E+08         0.00000E+00
    0.00000E+00         0.00000E+00        -0.19181E+08
 
   -0.34733E+08        -0.19003E+07         0.00000E+00
   -0.19003E+07        -0.57758E+08         0.00000E+00
    0.00000E+00         0.00000E+00        -0.19154E+08
 
   -0.33242E+08        -0.15601E+07         0.00000E+00
   -0.15601E+07        -0.57223E+08         0.00000E+00
    0.00000E+00         0.00000E+00        -0.19128E+08
 
   -0.31876E+08        -0.11891E+07         0.00000E+00
   -0.11891E+07        -0.56789E+08         0.00000E+00
    0.00000E+00         0.00000E+00        -0.19101E+08
 
   -0.30560E+08        -0.78476E+06         0.00000E+00
   -0.78476E+06        -0.56481E+08         0.00000E+00
    0.00000E+00         0.00000E+00        -0.19077E+08
 
   -0.29227E+08        -0.33526E+06         0.00000E+00
   -0.33526E+06        -0.56320E+08         0.00000E+00
    0.00000E+00         0.00000E+00        -0.19054E+08
 
   -0.27812E+08         0.18268E+06         0.00000E+00
    0.18268E+06        -0.56332E+08         0.00000E+00
    0.00000E+00         0.00000E+00        -0.19033E+08
 
   -0.26243E+08         0.81065E+06         0.00000E+00
    0.81065E+06        -0.56550E+08         0.00000E+00
    0.00000E+00         0.00000E+00        -0.19015E+08
 
   -0.24444E+08         0.16261E+07         0.00000E+00
    0.16261E+07        -0.57016E+08         0.00000E+00
    0.00000E+00         0.00000E+00        -0.19001E+08
 
   -0.22366E+08         0.27890E+07         0.00000E+00
    0.27890E+07        -0.57775E+08         0.00000E+00
    0.00000E+00         0.00000E+00        -0.18991E+08
 
   -0.20223E+08         0.45352E+07         0.00000E+00
    0.45352E+07        -0.58775E+08         0.00000E+00
    0.00000E+00         0.00000E+00        -0.19092E+08
 
   -0.49619E+08        -0.10395E+07         0.00000E+00
   -0.10395E+07        -0.59956E+08         0.00000E+00
    0.00000E+00         0.00000E+00        -0.16519E+08
 
   -0.44652E+08        -0.17667E+07         0.00000E+00
   -0.17667E+07        -0.59520E+08         0.00000E+00
    0.00000E+00         0.00000E+00        -0.16515E+08
 
   -0.41005E+08        -0.17891E+07         0.00000E+00
   -0.17891E+07        -0.58688E+08         0.00000E+00
    0.00000E+00         0.00000E+00        -0.16506E+08
 
   -0.38311E+08        -0.16459E+07         0.00000E+00
   -0.16459E+07        -0.57754E+08         0.00000E+00
    0.00000E+00         0.00000E+00        -0.16495E+08
 
   -0.36200E+08        -0.14491E+07         0.00000E+00
   -0.14491E+07        -0.56858E+08         0.00000E+00
    0.00000E+00         0.00000E+00        -0.16481E+08
 
   -0.34459E+08        -0.12310E+07         0.00000E+00
   -0.12310E+07        -0.56056E+08         0.00000E+00
    0.00000E+00         0.00000E+00        -0.16466E+08
 
   -0.32947E+08        -0.10016E+07         0.00000E+00
   -0.10016E+07        -0.55376E+08         0.00000E+00
    0.00000E+00         0.00000E+00        -0.16451E+08
 
   -0.31559E+08        -0.76152E+06         0.00000E+00
   -0.76152E+06        -0.54834E+08         0.00000E+00
    0.00000E+00         0.00000E+00        -0.16435E+08
 
   -0.30215E+08        -0.50626E+06         0.00000E+00
   -0.50626E+06        -0.54444E+08         0.00000E+00
    0.00000E+00         0.00000E+00        -0.16420E+08
 
   -0.28839E+08        -0.22667E+06         0.00000E+00
   -0.22667E+06        -0.54224E+08         0.00000E+00
    0.00000E+00         0.00000E+00        -0.16407E+08
 
   -0.27354E+08         0.93131E+05         0.00000E+00
    0.93131E+05        -0.54196E+08         0.00000E+00
    0.00000E+00         0.00000E+00        -0.16395E+08
 
   -0.25668E+08         0.48146E+06         0.00000E+00
    0.48146E+06        -0.54397E+08         0.00000E+00
    0.00000E+00         0.00000E+00        -0.16384E+08
 
   -0.23659E+08         0.99403E+06         0.00000E+00
    0.99403E+06        -0.54885E+08         0.00000E+00
    0.00000E+00         0.00000E+00        -0.16376E+08
 
   -0.21132E+08         0.17620E+07         0.00000E+00
    0.17620E+07        -0.55766E+08         0.00000E+00
    0.00000E+00         0.00000E+00        -0.16371E+08
 
   -0.18173E+08         0.32100E+07         0.00000E+00
    0.32100E+07        -0.57142E+08         0.00000E+00
    0.00000E+00         0.00000E+00        -0.16508E+08
 
   -0.50792E+08        -0.62160E+06         0.00000E+00
   -0.62160E+06        -0.59397E+08         0.00000E+00
    0.00000E+00         0.00000E+00        -0.13695E+08
 
   -0.44732E+08        -0.71678E+06         0.00000E+00
   -0.71678E+06        -0.58276E+08         0.00000E+00
    0.00000E+00         0.00000E+00        -0.13695E+08
 
   -0.40929E+08        -0.65906E+06         0.00000E+00
   -0.65906E+06        -0.56986E+08         0.00000E+00
    0.00000E+00         0.00000E+00        -0.13693E+08
 
   -0.38183E+08        -0.58592E+06         0.00000E+00
   -0.58592E+06        -0.55782E+08         0.00000E+00
    0.00000E+00         0.00000E+00        -0.13690E+08
 
   -0.36055E+08        -0.50674E+06         0.00000E+00
   -0.50674E+06        -0.54714E+08         0.00000E+00
    0.00000E+00         0.00000E+00        -0.13686E+08
 
   -0.34307E+08        -0.42620E+06         0.00000E+00
   -0.42620E+06        -0.53797E+08         0.00000E+00
    0.00000E+00         0.00000E+00        -0.13681E+08
 
   -0.32788E+08        -0.34481E+06         0.00000E+00
   -0.34481E+06        -0.53037E+08         0.00000E+00
    0.00000E+00         0.00000E+00        -0.13676E+08
 
   -0.31393E+08        -0.26153E+06         0.00000E+00
   -0.26153E+06        -0.52438E+08         0.00000E+00
    0.00000E+00         0.00000E+00        -0.13671E+08
 
   -0.30037E+08        -0.17423E+06         0.00000E+00
   -0.17423E+06        -0.52007E+08         0.00000E+00
    0.00000E+00         0.00000E+00        -0.13666E+08
 
   -0.28640E+08        -0.79445E+05         0.00000E+00
   -0.79445E+05        -0.51757E+08         0.00000E+00
    0.00000E+00         0.00000E+00        -0.13662E+08
 
   -0.27121E+08         0.28437E+05         0.00000E+00
    0.28437E+05        -0.51709E+08         0.00000E+00
    0.00000E+00         0.00000E+00        -0.13658E+08
 
   -0.25374E+08         0.15930E+06         0.00000E+00
    0.15930E+06        -0.51898E+08         0.00000E+00
    0.00000E+00         0.00000E+00        -0.13655E+08
 
   -0.23247E+08         0.33368E+06         0.00000E+00
    0.33368E+06        -0.52391E+08         0.00000E+00
    0.00000E+00         0.00000E+00        -0.13652E+08
 
   -0.20471E+08         0.59445E+06         0.00000E+00
    0.59445E+06        -0.53318E+08         0.00000E+00
    0.00000E+00         0.00000E+00        -0.13651E+08
 
   -0.16352E+08         0.12147E+07         0.00000E+00
    0.12147E+07        -0.55072E+08         0.00000E+00
    0.00000E+00         0.00000E+00        -0.13743E+08
 
SCALARS stresss double 
LOOKUP_TABLE default
  -47662103.4199742     
  -48006320.1205967     
  -48350781.7245890     
  -48691500.7306005     
  -49025163.0955813     
  -49349033.0407829     
  -49660864.2738429     
  -49958817.9853361     
  -50241387.8041752     
  -50507331.7689474     
  -50755611.2896419     
  -50985337.0335045     
  -51195721.6662569     
  -51386039.4109356     
  -51555592.4453869     
  -47640070.5712602     
  -47986175.1213220     
  -48331909.2383598     
  -48673379.6128126     
  -49007361.8517919     
  -49331204.4882658     
  -49642739.6621353     
  -49940200.7830362     
  -50222147.3117281     
  -50487396.6713177     
  -50734963.2195533     
  -50964004.1764689     
  -51173772.4041264     
  -51363575.9723730     
  -51532744.5105207     
  -47596162.3579009     
  -47945977.0151768     
  -48294192.0122581     
  -48637103.5968320     
  -48971667.5618993     
  -49295401.7030062     
  -49606295.4595106     
  -49902726.9521366     
  -50183387.4577733     
  -50447213.2399261     
  -50693324.5782971     
  -50920971.8114692     
  -51129488.2191519     
  -51318249.6200962     
  -51486640.6424616     
  -47530694.5882987     
  -47885909.2940651     
  -48237684.3779279     
  -48582603.3260818     
  -48917894.3914337     
  -49241330.8272068     
  -49551139.0745563     
  -49845914.9688142     
  -50124547.8592010     
  -50386152.4181529     
  -50630007.8486354     
  -50855504.1793750     
  -51062095.3656189     
  -51249258.9818747     
  -51416462.3964922     
  -47444142.9384048     
  -47806246.3417985     
  -48162464.8260339     
  -48509770.1920865     
  -48845757.9518606     
  -49168544.7919382     
  -49476675.0225553     
  -49769035.8770365     
  -50044781.3572205     
  -50303264.2053824     
  -50543975.5240398     
  -50766491.5610874     
  -50970427.2260187     
  -51155395.9983604     
  -51320976.0245530     
  -47337144.9198575     
  -47707352.0650421     
  -48068632.1036932     
  -48418450.6081491     
  -48754868.3607855     
  -49076435.6694186     
  -49382096.9671998     
  -49671105.3085708     
  -49942946.1998617     
  -50197270.0901186     
  -50433832.7979238     
  -50652443.1637658     
  -50852917.2923135     
  -51035038.8790991     
  -51198525.2932488     
  -47210501.8479969     
  -47589677.4849179     
  -47956299.5119431     
  -48308437.9708384     
  -48644720.6920494     
  -48964224.2936195     
  -49266377.0444080     
  -49550872.8916190     
  -49817595.7702251     
  -50066553.1971742     
  -50297818.1122040     
  -50511477.9616186     
  -50707590.1291596     
  -50886142.9926910     
  -51047022.1168076     
  -47065180.2294434     
  -47453756.7718296     
  -47825586.9589219     
  -48179461.9499048     
  -48514682.5526494     
  -48830946.9911805     
  -49128252.4193318     
  -49406809.1060955     
  -49666966.0161002     
  -49909146.3855580     
  -50133791.8595721     
  -50341313.8147690     
  -50532050.6395450     
  -50706229.9749278     
  -50863935.2196281     
  -46902311.8250901     
  -47300201.0565659     
  -47676610.1932913     
  -48031174.6399584     
  -48363978.4459664     
  -48675439.2222480     
  -48966209.0238158     
  -49237089.6790820     
  -49488960.8091495     
  -49722718.6378554     
  -49939223.6612547     
  -50139255.3296493     
  -50323472.0935062     
  -50492375.4661795     
  -50646277.1448424     
  -46723191.4739564     
  -47129689.1907807     
  -47509466.4982801     
  -47863132.9869169     
  -48191670.4933587     
  -48496315.8846583     
  -48778462.4224797     
  -49039577.6642170     
  -49281135.5592661     
  -49504560.2200223     
  -49711178.8105214     
  -49902181.1097700     
  -50078583.5673690     
  -50241196.0609262     
  -50390590.0652576     
  -46529271.5915699     
  -46942954.4599886     
  -47324215.9661521     
  -47674776.7632756     
  -47996634.9830766     
  -48291947.9809067     
  -48562935.7604733     
  -48811803.4168928     
  -49040679.5392674     
  -49251567.2735926     
  -49446304.6956052     
  -49626531.2921786     
  -49793657.6905881     
  -49948836.2839241     
  -50092931.0453492     
  -46322152.0927873     
  -46740766.0731434     
  -47120857.2900555     
  -47465401.1990018     
  -47777534.0865225     
  -48060435.2779951     
  -48317234.7519417     
  -48550942.7660802     
  -48764397.5455030     
  -48960226.7440743     
  -49140818.3115150     
  -49308296.5922627     
  -49464499.9303822     
  -49610956.7192249     
  -49748857.6661032     
  -46103564.3476813     
  -46523904.0646100     
  -46899296.7937520     
  -47234123.1619198     
  -47532781.9092602     
  -47799574.4919140     
  -48038619.6690630     
  -48253793.7957544     
  -48448691.7419910     
  -48626602.8674304     
  -48790496.3610150     
  -48943010.5130757     
  -49086441.0871588     
  -49222724.8356737     
  -49353415.2821332     
  -45875347.6804079     
  -46293126.0425209     
  -46659309.1472842     
  -46979839.4914968     
  -47260503.7968259     
  -47506822.3778104     
  -47723974.2758545     
  -47916752.7862266     
  -48089544.8233726     
  -48246326.8544522     
  -48390669.9603580     
  -48525746.9476588     
  -48654335.2593152     
  -48778810.6075498     
  -48901127.6625195     
  -45639416.8897028     
  -46049123.9866631     
  -46400487.8445438     
  -46701175.6671614     
  -46958487.4406957     
  -47179252.8656316     
  -47369771.6006729     
  -47535790.0306557     
  -47682506.0052059     
  -47814591.9628863     
  -47936226.6448130     
  -48051126.1561752     
  -48162566.3059707     
  -48273389.7607530     
  -48385993.4094956     
  -45397719.3317880     
  -45792468.9989751     
  -46122182.9637088     
  -46396422.3387225     
  -46624123.7404832     
  -46813506.9895213     
  -46972036.3307335     
  -47106426.4406437     
  -47222681.8394456     
  -47326156.8757228     
  -47421623.2666692     
  -47513333.0893621     
  -47605066.8425107     
  -47700158.4297881     
  -47801491.3939704     
  -45152180.2787632     
  -45523541.4490661     
  -45823422.8376802     
  -46063456.1923480     
  -46254334.4333684     
  -46405733.7289643     
  -46526303.4099112     
  -46623712.1041360     
  -46704734.5083824     
  -46775361.2793029     
  -46840914.5691446     
  -46906153.3290010     
  -46975355.1116915     
  -47052364.2423253     
  -47140599.5369250     
  -44904635.5324960     
  -45242443.1422384     
  -45502814.7403079     
  -45699639.8797584     
  -45845481.9780314     
  -45951518.8884822     
  -46027572.1017117     
  -46082208.3031748     
  -46122891.1559195     
  -46156158.8576372     
  -46187803.8070231     
  -46223033.6226042     
  -46266596.7661096     
  -46322860.4178918     
  -46395832.6383571     
  -44656750.5392043     
  -44948886.5724961     
  -45158417.0128289     
  -45301692.8043675     
  -45393254.7375829     
  -45445797.6422689     
  -45470254.3531557     
  -45475975.0426569     
  -45470969.1116521     
  -45462174.7339338     
  -45455723.9083084     
  -45457176.2346838     
  -45471700.7906893     
  -45504191.4521472     
  -45559306.6337262     
  -44409925.2365305     
  -44642053.2109224     
  -44787570.2240807     
  -44865519.5932383     
  -44892516.6491526     
  -44882744.2332299     
  -44848115.8857531     
  -44798567.1118704     
  -44742423.7752027     
  -44686796.8889963     
  -44637960.5007287     
  -44601679.2982712     
  -44583461.6590357     
  -44588721.4821786     
  -44622838.6495694     
  -44165182.9171518     
  -44320406.5000828     
  -44386666.1117970     
  -44385974.6562005     
  -44337104.6493479     
  -44255629.5878144     
  -44154208.4654610     
  -44043043.5493505     
  -43930428.7935399     
  -43823314.4647581     
  -43727831.8406978     
  -43649739.2421775     
  -43594763.6614959     
  -43568819.7500261     
  -43578094.5794696     
  -43923038.0147494     
  -43981432.4255856     
  -43950816.5432453     
  -43856526.9466650     
  -43719548.4933862     
  -43556634.9683114     
  -43380793.3342976     
  -43201998.9709779     
  -43028002.3329159     
  -42865120.2768244     
  -42718945.2739764     
  -42594936.4895421     
  -42498868.6481470     
  -42437122.4187737     
  -42416798.8814172     
  -43683328.7039683     
  -43621253.7475049     
  -43473353.3200696     
  -43268764.8623581     
  -43030676.4202276     
  -42776609.6843441     
  -42519261.4191959     
  -42267631.6670926     
  -42028199.1187955     
  -41805999.7229358     
  -41605555.5045134     
  -41431631.5958484     
  -41289816.3693818     
  -41186897.8699121     
  -41131026.4783881     
  -43444976.9216147     
  -43234006.6657406     
  -42945027.3135804     
  -42611641.6812791     
  -42259059.5873494     
  -41904770.7760834     
  -41560071.0339414     
  -41231874.2932251     
  -40924392.5017382     
  -40640535.0481586     
  -40383053.9221676     
  -40155507.5554056     
  -39962974.7779313     
  -39812559.3044668     
  -39713609.6513631     
  -43205584.5472791     
  -42810732.7904741     
  -42352651.6996604     
  -41870299.1250614     
  -41390255.4899061     
  -40928380.2317174     
  -40492758.7698665     
  -40086628.0537724     
  -39710669.4131864     
  -39364643.3516006     
  -39048651.4968278     
  -38764284.2277155     
  -38515782.9336299     
  -38310394.9743562     
  -38158748.9448119     
  -42960596.2067042     
  -42337226.0778723     
  -41676654.0286109     
  -41024248.7683669     
  -40405883.9589441     
  -39832543.5930456     
  -39306143.5625237     
  -38824156.5226637     
  -38382337.7449123     
  -37976234.3327790     
  -37602258.1133284     
  -37258920.0552776     
  -36948487.3027738     
  -36679456.6849170     
  -36463352.8227338     
  -42701397.5374899     
  -41789213.4557980     
  -40886549.3001174     
  -40044708.6798955     
  -39282914.2516669     
  -38600497.0711466     
  -37988910.3359568     
  -37437697.4528536     
  -36936509.1526457     
  -36475849.4009743     
  -36047496.2853759     
  -35645212.6447570     
  -35267096.2951297     
  -34919601.8161066     
  -34638872.2493709     
  -42408626.4527969     
  -41121068.3091546     
  -39932016.6454042     
  -38892183.4940051     
  -37994431.5229559     
  -37214895.7821006     
  -36530775.4344949     
  -35922322.6040873     
  -35372668.9845824     
  -34867078.9358993     
  -34392228.3209991     
  -33935852.5414708     
  -33487078.7568349     
  -33044289.0644160     
  -32696592.0108273     
  -42031301.8312313     
  -40228812.5381216     
  -38733161.0588489     
  -37519933.6354626     
  -36513156.7375050     
  -35660548.8393178     
  -34924289.3403936     
  -34276005.2926784     
  -33693145.3262437     
  -33156491.8589599     
  -32648179.6848525     
  -32149725.5990082     
  -31640041.0713226     
  -31089748.1112533     
  -30607475.3447217     
  -41294577.3509674     
  -38900618.3772650     
  -37202630.2299900     
  -35885136.3003977     
  -34818432.6614295     
  -33928330.7683681     
  -33167050.7666037     
  -32500758.1277695     
  -31903421.3241867     
  -31353101.5766375     
  -30829105.0840401     
  -30308924.5860753     
  -29763272.9868654     
  -29146674.8879758     
  -28389157.1278446     
SCALARS 2waySource double 
LOOKUP_TABLE default
 -3.649753723922504E-002
 -3.555539273346168E-002
 -3.482595487931358E-002
 -3.427827553528530E-002
 -3.388239269959434E-002
 -3.360962833063527E-002
 -3.343277464971412E-002
 -3.332619004252084E-002
 -3.326582416455405E-002
 -3.322919032674339E-002
 -3.319530167766373E-002
 -3.314458610692748E-002
 -3.305879317538264E-002
 -3.292090473715861E-002
 -3.271505925939633E-002
 -3.654944034757003E-002
 -3.562156317047677E-002
 -3.490628622640755E-002
 -3.437231352581962E-002
 -3.398943992952677E-002
 -3.372883021959192E-002
 -3.356318816483961E-002
 -3.346683664421946E-002
 -3.341572840344268E-002
 -3.338740550298402E-002
 -3.336092395894330E-002
 -3.331675848489389E-002
 -3.323670062046535E-002
 -3.310376188868967E-002
 -3.290209196298517E-002
 -3.662756533126997E-002
 -3.572819606740772E-002
 -3.504099543233304E-002
 -3.453402711170404E-002
 -3.417665363708723E-002
 -3.393977684475296E-002
 -3.379597161198630E-002
 -3.371953378388410E-002
 -3.368646176061334E-002
 -3.367438971828486E-002
 -3.366248888540994E-002
 -3.363135170285474E-002
 -3.356287207335222E-002
 -3.344013326902982E-002
 -3.324731341701646E-002
 -3.673184503987584E-002
 -3.587542103639931E-002
 -3.523024453402695E-002
 -3.476348152758420E-002
 -3.444390457701027E-002
 -3.424207514216131E-002
 -3.413042416783856E-002
 -3.408325161558247E-002
 -3.407666425383875E-002
 -3.408846954114635E-002
 -3.409804188427320E-002
 -3.408617595224064E-002
 -3.403494010555533E-002
 -3.392754137711401E-002
 -3.374821182317218E-002
 -3.686221472711775E-002
 -3.606344152842177E-002
 -3.547426317536417E-002
 -3.506074274926107E-002
 -3.479095206039337E-002
 -3.463507684364266E-002
 -3.456542675378354E-002
 -3.455637062464854E-002
 -3.458421612760702E-002
 -3.462705149001948E-002
 -3.466456535726584E-002
 -3.467785925548887E-002
 -3.464926548372448E-002
 -3.456218166401195E-002
 -3.440093161356543E-002
 -3.701860849927947E-002
 -3.629249953257895E-002
 -3.577328590503188E-002
 -3.542579111358954E-002
 -3.521733714740809E-002
 -3.511775411384218E-002
 -3.509930265628733E-002
 -3.513652945413211E-002
 -3.520607479525049E-002
 -3.528644969368253E-002
 -3.535779837566406E-002
 -3.540166026787700E-002
 -3.540074396923988E-002
 -3.533872411806839E-002
 -3.520007058792601E-002
 -3.720095600611106E-002
 -3.656283052831804E-002
 -3.612747100639012E-002
 -3.585840888623293E-002
 -3.572224325152709E-002
 -3.568853703354194E-002
 -3.572963531301945E-002
 -3.582042599353323E-002
 -3.593806178729975E-002
 -3.606166080554350E-002
 -3.617200123751911E-002
 -3.625122378488740E-002
 -3.628255381028150E-002
 -3.625005362839609E-002
 -3.613841402240032E-002
 -3.740917746298038E-002
 -3.687460724060221E-002
 -3.653679969606830E-002
 -3.635804080975198E-002
 -3.630432336601283E-002
 -3.634511235332609E-002
 -3.645304296278176E-002
 -3.660357176061259E-002
 -3.677460010261208E-002
 -3.694608692521778E-002
 -3.709966593913232E-002
 -3.721828020107013E-002
 -3.728584522608058E-002
 -3.728695032288012E-002
 -3.720660669130598E-002
 -3.764317430969789E-002
 -3.722787002563807E-002
 -3.700095381432083E-002
 -3.692362595310224E-002
 -3.696149244395869E-002
 -3.708418234582579E-002
 -3.726490940310337E-002
 -3.747999934404356E-002
 -3.770840231673758E-002
 -3.793120746247678E-002
 -3.813117399251631E-002
 -3.829229069173324E-002
 -3.839937378142205E-002
 -3.843771166353442E-002
 -3.839276423141302E-002
 -3.790281188126854E-002
 -3.762244077706879E-002
 -3.751916913188497E-002
 -3.755339813774031E-002
 -3.769068243288209E-002
 -3.790118166135722E-002
 -3.815906937855846E-002
 -3.844192223559295E-002
 -3.873010969139058E-002
 -3.900620110267559E-002
 -3.925440354321580E-002
 -3.946004063674927E-002
 -3.960908042086980E-002
 -3.968771895785222E-002
 -3.968202603484623E-002
 -3.818788939360081E-002
 -3.805781604240644E-002
 -3.809006002236035E-002
 -3.824465071242969E-002
 -3.848755595211365E-002
 -3.878994872221420E-002
 -3.912744604861676E-002
 -3.947934572250548E-002
 -3.982788235622211E-002
 -4.015751935323671E-002
 -4.045428850403922E-002
 -4.070518490356354E-002
 -4.089762222441987E-002
 -4.101895226651703E-002
 -4.105605303580181E-002
 -3.849809136133515E-002
 -3.853303352137749E-002
 -3.871140936925545E-002
 -3.899345931709011E-002
 -3.934617242372362E-002
 -3.974234621511459E-002
 -4.015963644462173E-002
 -4.057962658673989E-002
 -4.098694042119050E-002
 -4.136841365365514E-002
 -4.171233355869382E-002
 -4.200775023165859E-002
 -4.224385986126702E-002
 -4.240945966847498E-002
 -4.249247556984431E-002
 -3.883291332402783E-002
 -3.904650420686495E-002
 -3.937991500851148E-002
 -3.979435326679205E-002
 -4.025859736577719E-002
 -4.074782243917666E-002
 -4.124243867762408E-002
 -4.172697811923484E-002
 -4.218905567263103E-002
 -4.261841884886389E-002
 -4.300609060195104E-002
 -4.334360235411044E-002
 -4.362231052249549E-002
 -4.383278976147253E-002
 -4.396429921035833E-002
 -3.919155355331153E-002
 -3.959580000730210E-002
 -4.009088046670342E-002
 -4.063992192655277E-002
 -4.121444115305656E-002
 -4.179290133341437E-002
 -4.235931172018321E-002
 -4.290191536439946E-002
 -4.341199340228577E-002
 -4.388279715864849E-002
 -4.430860474486564E-002
 -4.468388897174897E-002
 -4.500257914516613E-002
 -4.525740047468957E-002
 -4.543928047032799E-002
 -3.957276137067120E-002
 -4.017738354952304E-002
 -4.083783278649078E-002
 -4.152033636057820E-002
 -4.220030728984241E-002
 -4.286058352227945E-002
 -4.348975463538987E-002
 -4.408063355500998E-002
 -4.462890409175996E-002
 -4.513194893047624E-002
 -4.558784180576833E-002
 -4.599447467216480E-002
 -4.634878641124780E-002
 -4.664606315377853E-002
 -4.687928990032632E-002
 -3.997463195813790E-002
 -4.078626261900392E-002
 -4.161204308038877E-002
 -4.242275772484447E-002
 -4.319912130057693E-002
 -4.392963310983253E-002
 -4.460858692507223E-002
 -4.523431045899328E-002
 -4.580766544794652E-002
 -4.633079990844320E-002
 -4.680611475461312E-002
 -4.723539087486289E-002
 -4.761901978981642E-002
 -4.795528888085626E-002
 -4.823968783427803E-002
 -4.039433719054478E-002
 -4.141554562639760E-002
 -4.240191485024350E-002
 -4.333059089903708E-002
 -4.418929851443960E-002
 -4.497371447908567E-002
 -4.568510501889056E-002
 -4.632832111026120E-002
 -4.691017724016096E-002
 -4.743818020522862E-002
 -4.791953459544862E-002
 -4.836033351412769E-002
 -4.876484429789699E-002
 -4.913481451378837E-002
 -4.946874818573080E-002
 -4.082778201461629E-002
 -4.205586522965038E-002
 -4.319218887342367E-002
 -4.422252242943577E-002
 -4.514369052582556E-002
 -4.596032911931106E-002
 -4.668208183439865E-002
 -4.732135181259210E-002
 -4.789161555154883E-002
 -4.840621871228256E-002
 -4.887752262217913E-002
 -4.931625418362437E-002
 -4.973092317471114E-002
 -5.012719922966459E-002
 -5.050717840733528E-002
 -4.126917586211490E-002
 -4.269462220630979E-002
 -4.396288778007483E-002
 -4.507125225716007E-002
 -4.602822342134774E-002
 -4.684948364101679E-002
 -4.755456739547186E-002
 -4.816440085773552E-002
 -4.869966115028347E-002
 -4.917978991505033E-002
 -4.962243711121694E-002
 -5.004310771876683E-002
 -5.045481570074568E-002
 -5.086759839870110E-002
 -5.128779861644212E-002
 -4.171050740046674E-002
 -4.331497591796121E-002
 -4.468788148953839E-002
 -4.584178281279648E-002
 -4.680010253577637E-002
 -4.759199638300483E-002
 -4.824844075165487E-002
 -4.879965898493860E-002
 -4.927373145641967E-002
 -4.969607007083246E-002
 -5.008938988341999E-002
 -5.047384164814078E-002
 -5.086704033298863E-002
 -5.128379983027772E-002
 -5.173545859011180E-002
 -4.214090605776385E-002
 -4.389446147021060E-002
 -4.533288371253612E-002
 -4.648905657082374E-002
 -4.740540440482162E-002
 -4.812732345803295E-002
 -4.869866226287543E-002
 -4.915927874975728E-002
 -4.954427055264642E-002
 -4.988428883883309E-002
 -5.020635815866548E-002
 -5.053474234002731E-002
 -5.089151668914590E-002
 -5.129662681939248E-002
 -5.176728429144960E-002
 -4.254585949827148E-002
 -4.440302697286548E-002
 -4.585256466482650E-002
 -4.695461661454152E-002
 -4.777580335246211E-002
 -4.838076472755572E-002
 -4.882719415829444E-002
 -4.916407754677397E-002
 -4.943219090612563E-002
 -4.966579934859376E-002
 -4.989473743503026E-002
 -5.014629103738620E-002
 -5.044653453595163E-002
 -5.082083029451236E-002
 -5.129334767451418E-002
 -4.290622127027940E-002
 -4.480011185878800E-002
 -4.618623493976524E-002
 -4.716177357455667E-002
 -4.782409207458192E-002
 -4.825992291001732E-002
 -4.854062630547039E-002
 -4.872229302914695E-002
 -4.884860463413437E-002
 -4.895463104294005E-002
 -4.907051989300283E-002
 -4.922475351984668E-002
 -4.944644901243313E-002
 -4.976661534871468E-002
 -5.021781483775936E-002
 -4.319685229132776E-002
 -4.503002778607675E-002
 -4.625110107964676E-002
 -4.700845244693794E-002
 -4.743808425027926E-002
 -4.765040843454815E-002
 -4.772772281975073E-002
 -4.772864884454628E-002
 -4.769504087487497E-002
 -4.765861867580114E-002
 -4.764636589436032E-002
 -4.768481021124815E-002
 -4.780450545092102E-002
 -4.804195537685856E-002
 -4.844045499241699E-002
 -4.338455210861668E-002
 -4.501403714262650E-002
 -4.593117612053180E-002
 -4.635639280823366E-002
 -4.647259105678218E-002
 -4.641117858467499E-002
 -4.625749039824181E-002
 -4.606420972759898E-002
 -4.586440487041752E-002
 -4.568113388679904E-002
 -4.553411605952919E-002
 -4.544437047982920E-002
 -4.543766170327818E-002
 -4.555618736479937E-002
 -4.585739851328315E-002
 -4.342415851888864E-002
 -4.463549835773171E-002
 -4.505772884891412E-002
 -4.501491844475848E-002
 -4.473989966089556E-002
 -4.437097027735280E-002
 -4.397901756707555E-002
 -4.359772357112528E-002
 -4.324295107556689E-002
 -4.292340472612725E-002
 -4.264727465734500E-002
 -4.242723948141846E-002
 -4.228208737825288E-002
 -4.223081953494410E-002
 -4.235043993931892E-002
 -4.325076259808047E-002
 -4.370676123301284E-002
 -4.337337207330982E-002
 -4.271772011830617E-002
 -4.200251696366809E-002
 -4.132936191668810E-002
 -4.072487732560465E-002
 -4.018915295746667E-002
 -3.971335186873982E-002
 -3.928731343038766E-002
 -3.890382714771635E-002
 -3.856318807694445E-002
 -3.828122518864018E-002
 -3.808182482557446E-002
 -3.765122000057224E-002
 -4.274761013588992E-002
 -4.188981872752023E-002
 -4.045967568992037E-002
 -3.910355134145035E-002
 -3.798010280984394E-002
 -3.706692247091238E-002
 -3.631968478358701E-002
 -3.569560457365706E-002
 -3.515841846512546E-002
 -3.467795926185981E-002
 -3.422937252268146E-002
 -3.379457916594425E-002
 -3.337120354966991E-002
 -3.301517608859329E-002
 -3.178748536405775E-002
 -4.164778872273067E-002
 -3.840418458317080E-002
 -3.566505683551342E-002
 -3.375314055122650E-002
 -3.238043369463713E-002
 -3.136699775306508E-002
 -3.059351200339843E-002
 -2.997891848032255E-002
 -2.946450650103058E-002
 -2.900414180947658E-002
 -2.855748356487196E-002
 -2.808465926042791E-002
 -2.754386029282119E-002
 -2.691031692405279E-002
 -2.514653149987616E-002
 -3.808226750794308E-002
 -3.166417147911778E-002
 -2.832858046802387E-002
 -2.628692728203242E-002
 -2.495391780835714E-002
 -2.404403047702661E-002
 -2.339711863275079E-002
 -2.291323196713659E-002
 -2.252370424982207E-002
 -2.217557569961529E-002
 -2.182104220611091E-002
 -2.140694204516636E-002
 -2.085733296683685E-002
 -2.002767657847715E-002
 -1.789973592774206E-002
SCALARS elementIsPlast double 
LOOKUP_TABLE default
  0.000000000000000E+000
  0.000000000000000E+000
  0.000000000000000E+000
  0.000000000000000E+000
  0.000000000000000E+000
  0.000000000000000E+000
  0.000000000000000E+000
  0.000000000000000E+000
  0.000000000000000E+000
  0.000000000000000E+000
  0.000000000000000E+000
  0.000000000000000E+000
  0.000000000000000E+000
  0.000000000000000E+000
  0.000000000000000E+000
  0.000000000000000E+000
  0.000000000000000E+000
  0.000000000000000E+000
  0.000000000000000E+000
  0.000000000000000E+000
  0.000000000000000E+000
  0.000000000000000E+000
  0.000000000000000E+000
  0.000000000000000E+000
  0.000000000000000E+000
  0.000000000000000E+000
  0.000000000000000E+000
  0.000000000000000E+000
  0.000000000000000E+000
  0.000000000000000E+000
  0.000000000000000E+000
  0.000000000000000E+000
  0.000000000000000E+000
  0.000000000000000E+000
  0.000000000000000E+000
  0.000000000000000E+000
  0.000000000000000E+000
  0.000000000000000E+000
  0.000000000000000E+000
  0.000000000000000E+000
  0.000000000000000E+000
  0.000000000000000E+000
  0.000000000000000E+000
  0.000000000000000E+000
  0.000000000000000E+000
  0.000000000000000E+000
  0.000000000000000E+000
  0.000000000000000E+000
  0.000000000000000E+000
  0.000000000000000E+000
  0.000000000000000E+000
  0.000000000000000E+000
  0.000000000000000E+000
  0.000000000000000E+000
  0.000000000000000E+000
  0.000000000000000E+000
  0.000000000000000E+000
  0.000000000000000E+000
  0.000000000000000E+000
  0.000000000000000E+000
  0.000000000000000E+000
  0.000000000000000E+000
  0.000000000000000E+000
  0.000000000000000E+000
  0.000000000000000E+000
  0.000000000000000E+000
  0.000000000000000E+000
  0.000000000000000E+000
  0.000000000000000E+000
  0.000000000000000E+000
  0.000000000000000E+000
  0.000000000000000E+000
  0.000000000000000E+000
  0.000000000000000E+000
  0.000000000000000E+000
  0.000000000000000E+000
  0.000000000000000E+000
  0.000000000000000E+000
  0.000000000000000E+000
  0.000000000000000E+000
  0.000000000000000E+000
  0.000000000000000E+000
  0.000000000000000E+000
  0.000000000000000E+000
  0.000000000000000E+000
  0.000000000000000E+000
  0.000000000000000E+000
  0.000000000000000E+000
  0.000000000000000E+000
  0.000000000000000E+000
  0.000000000000000E+000
  0.000000000000000E+000
  0.000000000000000E+000
  0.000000000000000E+000
  0.000000000000000E+000
  0.000000000000000E+000
  0.000000000000000E+000
  0.000000000000000E+000
  0.000000000000000E+000
  0.000000000000000E+000
  0.000000000000000E+000
  0.000000000000000E+000
  0.000000000000000E+000
  0.000000000000000E+000
  0.000000000000000E+000
  0.000000000000000E+000
  0.000000000000000E+000
  0.000000000000000E+000
  0.000000000000000E+000
  0.000000000000000E+000
  0.000000000000000E+000
  0.000000000000000E+000
  0.000000000000000E+000
  0.000000000000000E+000
  0.000000000000000E+000
  0.000000000000000E+000
  0.000000000000000E+000
  0.000000000000000E+000
  0.000000000000000E+000
  0.000000000000000E+000
  0.000000000000000E+000
  0.000000000000000E+000
  0.000000000000000E+000
  0.000000000000000E+000
  0.000000000000000E+000
  0.000000000000000E+000
  0.000000000000000E+000
  0.000000000000000E+000
  0.000000000000000E+000
  0.000000000000000E+000
  0.000000000000000E+000
  0.000000000000000E+000
  0.000000000000000E+000
  0.000000000000000E+000
  0.000000000000000E+000
  0.000000000000000E+000
  0.000000000000000E+000
  0.000000000000000E+000
  0.000000000000000E+000
  0.000000000000000E+000
  0.000000000000000E+000
  0.000000000000000E+000
  0.000000000000000E+000
  0.000000000000000E+000
  0.000000000000000E+000
  0.000000000000000E+000
  0.000000000000000E+000
  0.000000000000000E+000
  0.000000000000000E+000
  0.000000000000000E+000
  0.000000000000000E+000
  0.000000000000000E+000
  0.000000000000000E+000
  0.000000000000000E+000
  0.000000000000000E+000
  0.000000000000000E+000
  0.000000000000000E+000
  0.000000000000000E+000
  0.000000000000000E+000
  0.000000000000000E+000
  0.000000000000000E+000
  0.000000000000000E+000
  0.000000000000000E+000
  0.000000000000000E+000
  0.000000000000000E+000
  0.000000000000000E+000
  0.000000000000000E+000
  0.000000000000000E+000
  0.000000000000000E+000
  0.000000000000000E+000
  0.000000000000000E+000
  0.000000000000000E+000
  0.000000000000000E+000
  0.000000000000000E+000
  0.000000000000000E+000
  0.000000000000000E+000
  0.000000000000000E+000
  0.000000000000000E+000
  0.000000000000000E+000
  0.000000000000000E+000
  0.000000000000000E+000
  0.000000000000000E+000
  0.000000000000000E+000
  0.000000000000000E+000
  0.000000000000000E+000
  0.000000000000000E+000
  0.000000000000000E+000
  0.000000000000000E+000
  0.000000000000000E+000
  0.000000000000000E+000
  0.000000000000000E+000
  0.000000000000000E+000
  0.000000000000000E+000
  0.000000000000000E+000
  0.000000000000000E+000
  0.000000000000000E+000
  0.000000000000000E+000
  0.000000000000000E+000
  0.000000000000000E+000
  0.000000000000000E+000
  0.000000000000000E+000
  0.000000000000000E+000
  0.000000000000000E+000
  0.000000000000000E+000
  0.000000000000000E+000
  0.000000000000000E+000
  0.000000000000000E+000
  0.000000000000000E+000
  0.000000000000000E+000
  0.000000000000000E+000
  0.000000000000000E+000
  0.000000000000000E+000
  0.000000000000000E+000
  0.000000000000000E+000
  0.000000000000000E+000
  0.000000000000000E+000
  0.000000000000000E+000
  0.000000000000000E+000
  0.000000000000000E+000
  0.000000000000000E+000
  0.000000000000000E+000
  0.000000000000000E+000
  0.000000000000000E+000
  0.000000000000000E+000
  0.000000000000000E+000
  0.000000000000000E+000
  0.000000000000000E+000
  0.000000000000000E+000
  0.000000000000000E+000
  0.000000000000000E+000
  0.000000000000000E+000
  0.000000000000000E+000
  0.000000000000000E+000
  0.000000000000000E+000
  0.000000000000000E+000
  0.000000000000000E+000
  0.000000000000000E+000
  0.000000000000000E+000
  0.000000000000000E+000
  0.000000000000000E+000
  0.000000000000000E+000
  0.000000000000000E+000
  0.000000000000000E+000
  0.000000000000000E+000
  0.000000000000000E+000
  0.000000000000000E+000
  0.000000000000000E+000
  0.000000000000000E+000
  0.000000000000000E+000
  0.000000000000000E+000
  0.000000000000000E+000
  0.000000000000000E+000
  0.000000000000000E+000
  0.000000000000000E+000
  0.000000000000000E+000
  0.000000000000000E+000
  0.000000000000000E+000
  0.000000000000000E+000
  0.000000000000000E+000
  0.000000000000000E+000
  0.000000000000000E+000
  0.000000000000000E+000
  0.000000000000000E+000
  0.000000000000000E+000
  0.000000000000000E+000
  0.000000000000000E+000
  0.000000000000000E+000
  0.000000000000000E+000
  0.000000000000000E+000
  0.000000000000000E+000
  0.000000000000000E+000
  0.000000000000000E+000
  0.000000000000000E+000
  0.000000000000000E+000
  0.000000000000000E+000
  0.000000000000000E+000
  0.000000000000000E+000
  0.000000000000000E+000
  0.000000000000000E+000
  0.000000000000000E+000
  0.000000000000000E+000
  0.000000000000000E+000
  0.000000000000000E+000
  0.000000000000000E+000
  0.000000000000000E+000
  0.000000000000000E+000
  0.000000000000000E+000
  0.000000000000000E+000
  0.000000000000000E+000
  0.000000000000000E+000
  0.000000000000000E+000
  0.000000000000000E+000
  0.000000000000000E+000
  0.000000000000000E+000
  0.000000000000000E+000
  0.000000000000000E+000
  0.000000000000000E+000
  0.000000000000000E+000
  0.000000000000000E+000
  0.000000000000000E+000
  0.000000000000000E+000
  0.000000000000000E+000
  0.000000000000000E+000
  0.000000000000000E+000
  0.000000000000000E+000
  0.000000000000000E+000
  0.000000000000000E+000
  0.000000000000000E+000
  0.000000000000000E+000
  0.000000000000000E+000
  0.000000000000000E+000
  0.000000000000000E+000
  0.000000000000000E+000
  0.000000000000000E+000
  0.000000000000000E+000
  0.000000000000000E+000
  0.000000000000000E+000
  0.000000000000000E+000
  0.000000000000000E+000
  0.000000000000000E+000
  0.000000000000000E+000
  0.000000000000000E+000
  0.000000000000000E+000
  0.000000000000000E+000
  0.000000000000000E+000
  0.000000000000000E+000
  0.000000000000000E+000
  0.000000000000000E+000
  0.000000000000000E+000
  0.000000000000000E+000
  0.000000000000000E+000
  0.000000000000000E+000
  0.000000000000000E+000
  0.000000000000000E+000
  0.000000000000000E+000
  0.000000000000000E+000
  0.000000000000000E+000
  0.000000000000000E+000
  0.000000000000000E+000
  0.000000000000000E+000
  0.000000000000000E+000
  0.000000000000000E+000
  0.000000000000000E+000
  0.000000000000000E+000
  0.000000000000000E+000
  0.000000000000000E+000
  0.000000000000000E+000
  0.000000000000000E+000
  0.000000000000000E+000
  0.000000000000000E+000
  0.000000000000000E+000
  0.000000000000000E+000
  0.000000000000000E+000
  0.000000000000000E+000
  0.000000000000000E+000
  0.000000000000000E+000
  0.000000000000000E+000
  0.000000000000000E+000
  0.000000000000000E+000
  0.000000000000000E+000
  0.000000000000000E+000
  0.000000000000000E+000
  0.000000000000000E+000
  0.000000000000000E+000
  0.000000000000000E+000
  0.000000000000000E+000
  0.000000000000000E+000
  0.000000000000000E+000
  0.000000000000000E+000
  0.000000000000000E+000
  0.000000000000000E+000
  0.000000000000000E+000
  0.000000000000000E+000
  0.000000000000000E+000
  0.000000000000000E+000
  0.000000000000000E+000
  0.000000000000000E+000
  0.000000000000000E+000
  0.000000000000000E+000
  0.000000000000000E+000
  0.000000000000000E+000
  0.000000000000000E+000
  0.000000000000000E+000
  0.000000000000000E+000
  0.000000000000000E+000
  0.000000000000000E+000
  0.000000000000000E+000
  0.000000000000000E+000
  0.000000000000000E+000
  0.000000000000000E+000
  0.000000000000000E+000
  0.000000000000000E+000
  0.000000000000000E+000
  0.000000000000000E+000
  0.000000000000000E+000
  0.000000000000000E+000
  0.000000000000000E+000
  0.000000000000000E+000
  0.000000000000000E+000
  0.000000000000000E+000
  0.000000000000000E+000
  0.000000000000000E+000
  0.000000000000000E+000
  0.000000000000000E+000
   1.00000000000000     
  0.000000000000000E+000
  0.000000000000000E+000
  0.000000000000000E+000
  0.000000000000000E+000
  0.000000000000000E+000
  0.000000000000000E+000
  0.000000000000000E+000
  0.000000000000000E+000
  0.000000000000000E+000
  0.000000000000000E+000
  0.000000000000000E+000
  0.000000000000000E+000
  0.000000000000000E+000
  0.000000000000000E+000
   1.00000000000000     
  0.000000000000000E+000
  0.000000000000000E+000
  0.000000000000000E+000
  0.000000000000000E+000
  0.000000000000000E+000
  0.000000000000000E+000
  0.000000000000000E+000
  0.000000000000000E+000
  0.000000000000000E+000
  0.000000000000000E+000
  0.000000000000000E+000
  0.000000000000000E+000
  0.000000000000000E+000
  0.000000000000000E+000
   1.00000000000000     
  0.000000000000000E+000
  0.000000000000000E+000
  0.000000000000000E+000
  0.000000000000000E+000
  0.000000000000000E+000
  0.000000000000000E+000
  0.000000000000000E+000
  0.000000000000000E+000
  0.000000000000000E+000
  0.000000000000000E+000
  0.000000000000000E+000
  0.000000000000000E+000
  0.000000000000000E+000
  0.000000000000000E+000
   1.00000000000000     
SCALARS poroL double 
LOOKUP_TABLE default
  0.250320095647072     
  0.250075716596414     
  0.249842486375620     
  0.249620697531648     
  0.249410423841355     
  0.249211553763698     
  0.249023822990211     
  0.248846845481604     
  0.248680142473396     
  0.248523169019420     
  0.248375337718108     
  0.248236039332826     
  0.248104660075361     
  0.247980595373520     
  0.247863259992756     
  0.250302880048544     
  0.250056904951896     
  0.249822390335571     
  0.249599592119831     
  0.249388548203309     
  0.249189112540426     
  0.249000988226466     
  0.248823758985710     
  0.248656918554681     
  0.248499897539346     
  0.248352087400950     
  0.248212861290303     
  0.248081591505914     
  0.247957663399876     
  0.247840485600484     
  0.250267892258553     
  0.250018774241840     
  0.249781739146830     
  0.249556968953696     
  0.249344429221177     
  0.249143904406147     
  0.248955032007663     
  0.248777334946605     
  0.248610251692039     
  0.248453163734007     
  0.248305420078068     
  0.248166358499578     
  0.248035323346568     
  0.247911679721885     
  0.247794823912012     
  0.250214019541470     
  0.249960311002322     
  0.249719616763747     
  0.249492006188628     
  0.249277334879030     
  0.249075281837862     
  0.248885385175314     
  0.248707075796109     
  0.248539708609271     
  0.248382590893762     
  0.248235007528999     
  0.248096242858254     
  0.247965598996557     
  0.247842410425868     
  0.247726054743707     
  0.250139594121329     
  0.249879998671900     
  0.249634654721256     
  0.249403478316233     
  0.249186175782516     
  0.248982283301942     
  0.248791204651921     
  0.248612246578746     
  0.248444651390808     
  0.248287626454603     
  0.248140370352723     
  0.248002095517483     
  0.247872047187229     
  0.247749518548228     
  0.247633861929107     
  0.250042395341755     
  0.249775822484417     
  0.249525039348859     
  0.249289765317357     
  0.249069515905266     
  0.248863645290914     
  0.248671386512504     
  0.248491888852145     
  0.248324252054217     
  0.248167557130700     
  0.248020893584698     
  0.247883382932588     
  0.247754198425224     
  0.247632580863484     
  0.247517850380384     
  0.249919653496114     
  0.249645276884016     
  0.249388522211452     
  0.249148865609452     
  0.248925587573194     
  0.248717818934116     
  0.248524583877746     
  0.248344839590073     
  0.248177512261775     
  0.248021529298982     
  0.247875847673364     
  0.247739478388050     
  0.247611507038846     
  0.247491110416991     
  0.247377569039453     
  0.249768056153145     
  0.249485376238090     
  0.249222434494211     
  0.248978413437482     
  0.248752311258501     
  0.248542991668881     
  0.248349230025755     
  0.248169755395672     
  0.248003288395321     
  0.247848574788838     
  0.247704414916295     
  0.247569689067203     
  0.247443378894392     
  0.247324584893159     
  0.247212539860038     
  0.249583758023455     
  0.249292669833916     
  0.249023706246179     
  0.248775701538073     
  0.248547320913586     
  0.248337114590050     
  0.248143567219359     
  0.247965142399210     
  0.247800322252918     
  0.247647642235577     
  0.247505721439198     
  0.247373288706088     
  0.247249204814771     
  0.247132480882903     
  0.247022292953291     
  0.249362395641944     
  0.249063262368211     
  0.248788891611187     
  0.248537710104840     
  0.248307995749436     
  0.248097936237966     
  0.247905681849500     
  0.247729392276061     
  0.247567277644954     
  0.247417634137212     
  0.247278874751688     
  0.247149555802358     
  0.247028399657917     
  0.246914314047329     
  0.246806407985053     
  0.249099108382570     
  0.248792841381434     
  0.248514201414090     
  0.248261143309136     
  0.248031499563580     
  0.247823043746724     
  0.247633546607547     
  0.247460824877037     
  0.247302783167346     
  0.247157449702650     
  0.247023006820845     
  0.246897817230116     
  0.246780446882580     
  0.246669685053244     
  0.246564561818656     
  0.248788567576725     
  0.248476713358835     
  0.248195544748576     
  0.247942474900979     
  0.247714828964896     
  0.247509912467876     
  0.247325070527210     
  0.247157738015941     
  0.247005481405275     
  0.246866033484790     
  0.246737322452174     
  0.246617496922290     
  0.246504948224338     
  0.246398330960188     
  0.246296582234355     
  0.248425015777045     
  0.248109850531122     
  0.247828581551295     
  0.247578004754686     
  0.247354872150645     
  0.247155965428832     
  0.246978157891499     
  0.246818465009986     
  0.246674084765584     
  0.246542429639886     
  0.246421152537579     
  0.246308168999969     
  0.246201677800059     
  0.246100181442894     
  0.246002507300733     
  0.248002318497179     
  0.247686950780037     
  0.247408788579760     
  0.247163928672194     
  0.246948480301798     
  0.246758644307852     
  0.246590777196917     
  0.246441440619428     
  0.246307438038904     
  0.246185841424526     
  0.246074011394125     
  0.245969614321752     
  0.245870639521465     
  0.245775418804585     
  0.245682649593212     
  0.247514031070242     
  0.247202513523524     
  0.246931541793806     
  0.246696424376204     
  0.246492554231981     
  0.246315494049198     
  0.246161041626296     
  0.246025276083403     
  0.245904587636521     
  0.245795695203462     
  0.245695656937686     
  0.245601878854098     
  0.245512126086063     
  0.245424540134740     
  0.245337663911273     
  0.246953483616623     
  0.246650935082854     
  0.246392218963972     
  0.246171757513756     
  0.245984149737690     
  0.245824263859538     
  0.245687302827571     
  0.245568843993689     
  0.245464857202757     
  0.245371707750867     
  0.245286151759333     
  0.245205331470756     
  0.245126776973307     
  0.245048419140763     
  0.244968616393785     
  0.246313887524795     
  0.246026627929396     
  0.245786327548875     
  0.245586412805651     
  0.245420606279115     
  0.245283028196498     
  0.245168260252216     
  0.245071373767030     
  0.244987928920983     
  0.244913954917026     
  0.244845922225612     
  0.244780717702872     
  0.244715631738959     
  0.244648364079242     
  0.244577051922117     
  0.245588467393775     
  0.245324169569643     
  0.245109664759780     
  0.244937257470780     
  0.244799705358026     
  0.244690332577761     
  0.244603088884641     
  0.244532558418912     
  0.244473929224951     
  0.244422938702314     
  0.244375811405085     
  0.244329204485156     
  0.244280173387904     
  0.244226166764501     
  0.244165055388188     
  0.244770623208130     
  0.244538489018782     
  0.244358519718769     
  0.244221747133738     
  0.244119867517937     
  0.244045370704768     
  0.243991588858298     
  0.243952673094907     
  0.243923516655414     
  0.243899648288363     
  0.243877119797446     
  0.243852408952537     
  0.243822354606882     
  0.243784135764023     
  0.243735300756335     
  0.243854128920997     
  0.243665102520874     
  0.243529932523154     
  0.243438189249828     
  0.243380400633813     
  0.243348201563971     
  0.243334361055474     
  0.243332705148200     
  0.243337968042519     
  0.243345608434659     
  0.243351625346173     
  0.243352401675058     
  0.243344597002980     
  0.243325104494668     
  0.243291079848567     
  0.242833376231795     
  0.242700416725869     
  0.242622033319946     
  0.242586086732527     
  0.242581817514105     
  0.242600017709433     
  0.242633012899867     
  0.242674494024069     
  0.242719256718652     
  0.242762905662858     
  0.242801570887562     
  0.242831671193335     
  0.242849749974764     
  0.242852401809486     
  0.242836300401142     
  0.241703677470979     
  0.241642129589480     
  0.241634498962777     
  0.241666596687413     
  0.241726248144894     
  0.241803478131882     
  0.241890397168690     
  0.241980876014650     
  0.242070112713819     
  0.242154178669147     
  0.242229603033292     
  0.242293032108438     
  0.242340991068898     
  0.242369768274609     
  0.242375439991546     
  0.240461651823342     
  0.240489782610393     
  0.240569190909275     
  0.240683158771568     
  0.240817980705209     
  0.240963118754405     
  0.241110881479220     
  0.241255822993194     
  0.241394049437978     
  0.241522554888533     
  0.241638641464297     
  0.241739453636345     
  0.241821642756511     
  0.241881194525090     
  0.241913437774569     
  0.239105741553561     
  0.239245565299514     
  0.239431087600080     
  0.239642378306756     
  0.239864172653144     
  0.240085844368258     
  0.240300632560296     
  0.240504553962677     
  0.240695336308528     
  0.240871509087510     
  0.241031654136686     
  0.241173778450820     
  0.241294873269598     
  0.241390644375911     
  0.241455495381425     
  0.237636952464698     
  0.237915580360854     
  0.238229719950267     
  0.238555295586250     
  0.238875764418466     
  0.239181473162035     
  0.239467868870077     
  0.239733583507978     
  0.239978895568584     
  0.240204626776135     
  0.240411289367632     
  0.240598309904614     
  0.240763243944787     
  0.240901603177989     
  0.241006714968811     
  0.236060057658831     
  0.236512020315636     
  0.236981529418136     
  0.237439210904411     
  0.237868564505965     
  0.238263214646033     
  0.238622979400342     
  0.238950654921489     
  0.239250116476541     
  0.239525278582223     
  0.239779361211612     
  0.240014033571326     
  0.240228251887539     
  0.240416482743032     
  0.240571168097648     
  0.234385793634187     
  0.235057511746661     
  0.235713901868107     
  0.236320205365697     
  0.236864196630147     
  0.237347776935328     
  0.237778345263802     
  0.238164498742586     
  0.238514606268310     
  0.238836305299605     
  0.239136232989086     
  0.239419543113141     
  0.239688217185267     
  0.239938151792077     
  0.240150230955841     
  0.232636941461364     
  0.233594527104668     
  0.234472602769943     
  0.235235487677657     
  0.235889888927170     
  0.236454661766539     
  0.236947676254310     
  0.237384375681041     
  0.237777938453429     
  0.238139868391452     
  0.238480565564725     
  0.238809622571735     
  0.239135623285019     
  0.239460401311081     
  0.239745847651343     
  0.230865541843550     
  0.232214369230859     
  0.233329819819034     
  0.234231152628771     
  0.234976002575939     
  0.235604230696186     
  0.236144780816871     
  0.236619419398157     
  0.237045466253060     
  0.237437680956770     
  0.237809771112057     
  0.238175892586519     
  0.238552168333922     
  0.238961035117466     
  0.239358037539447     
  0.229300297932632     
  0.231095543802915     
  0.232367710719327     
  0.233353568355443     
  0.234150586955019     
  0.234814679114117     
  0.235381919011859     
  0.235877881254381     
  0.236322252992734     
  0.236731626458029     
  0.237121644833005     
  0.237509305512153     
  0.237916699695142     
  0.238378062587842     
  0.238970161267217     
