# vtk DataFile Version 3.0
vtk output
ASCII
DATASET UNSTRUCTURED_GRID
POINTS       496 double 
  0.00000000E+00  3.00000000E+02  0.00000000E+00
  0.00000000E+00  2.80000000E+02  0.00000000E+00
  0.00000000E+00  2.60000000E+02  0.00000000E+00
  0.00000000E+00  2.40000000E+02  0.00000000E+00
  0.00000000E+00  2.20000000E+02  0.00000000E+00
  0.00000000E+00  2.00000000E+02  0.00000000E+00
  0.00000000E+00  1.80000000E+02  0.00000000E+00
  0.00000000E+00  1.60000000E+02  0.00000000E+00
  0.00000000E+00  1.40000000E+02  0.00000000E+00
  0.00000000E+00  1.20000000E+02  0.00000000E+00
  0.00000000E+00  1.00000000E+02  0.00000000E+00
  0.00000000E+00  8.00000000E+01  0.00000000E+00
  0.00000000E+00  6.00000000E+01  0.00000000E+00
  0.00000000E+00  4.00000000E+01  0.00000000E+00
  0.00000000E+00  2.00000000E+01  0.00000000E+00
  0.00000000E+00  4.99600361E-14  0.00000000E+00
  2.00000000E+01  3.00000000E+02  0.00000000E+00
  2.00000000E+01  2.80000000E+02  0.00000000E+00
  2.00000000E+01  2.60000000E+02  0.00000000E+00
  2.00000000E+01  2.40000000E+02  0.00000000E+00
  2.00000000E+01  2.20000000E+02  0.00000000E+00
  2.00000000E+01  2.00000000E+02  0.00000000E+00
  2.00000000E+01  1.80000000E+02  0.00000000E+00
  2.00000000E+01  1.60000000E+02  0.00000000E+00
  2.00000000E+01  1.40000000E+02  0.00000000E+00
  2.00000000E+01  1.20000000E+02  0.00000000E+00
  2.00000000E+01  1.00000000E+02  0.00000000E+00
  2.00000000E+01  8.00000000E+01  0.00000000E+00
  2.00000000E+01  6.00000000E+01  0.00000000E+00
  2.00000000E+01  4.00000000E+01  0.00000000E+00
  2.00000000E+01  2.00000000E+01  0.00000000E+00
  2.00000000E+01  4.99600361E-14  0.00000000E+00
  4.00000000E+01  3.00000000E+02  0.00000000E+00
  4.00000000E+01  2.80000000E+02  0.00000000E+00
  4.00000000E+01  2.60000000E+02  0.00000000E+00
  4.00000000E+01  2.40000000E+02  0.00000000E+00
  4.00000000E+01  2.20000000E+02  0.00000000E+00
  4.00000000E+01  2.00000000E+02  0.00000000E+00
  4.00000000E+01  1.80000000E+02  0.00000000E+00
  4.00000000E+01  1.60000000E+02  0.00000000E+00
  4.00000000E+01  1.40000000E+02  0.00000000E+00
  4.00000000E+01  1.20000000E+02  0.00000000E+00
  4.00000000E+01  1.00000000E+02  0.00000000E+00
  4.00000000E+01  8.00000000E+01  0.00000000E+00
  4.00000000E+01  6.00000000E+01  0.00000000E+00
  4.00000000E+01  4.00000000E+01  0.00000000E+00
  4.00000000E+01  2.00000000E+01  0.00000000E+00
  4.00000000E+01  4.99600361E-14  0.00000000E+00
  6.00000000E+01  3.00000000E+02  0.00000000E+00
  6.00000000E+01  2.80000000E+02  0.00000000E+00
  6.00000000E+01  2.60000000E+02  0.00000000E+00
  6.00000000E+01  2.40000000E+02  0.00000000E+00
  6.00000000E+01  2.20000000E+02  0.00000000E+00
  6.00000000E+01  2.00000000E+02  0.00000000E+00
  6.00000000E+01  1.80000000E+02  0.00000000E+00
  6.00000000E+01  1.60000000E+02  0.00000000E+00
  6.00000000E+01  1.40000000E+02  0.00000000E+00
  6.00000000E+01  1.20000000E+02  0.00000000E+00
  6.00000000E+01  1.00000000E+02  0.00000000E+00
  6.00000000E+01  8.00000000E+01  0.00000000E+00
  6.00000000E+01  6.00000000E+01  0.00000000E+00
  6.00000000E+01  4.00000000E+01  0.00000000E+00
  6.00000000E+01  2.00000000E+01  0.00000000E+00
  6.00000000E+01  4.99600361E-14  0.00000000E+00
  8.00000000E+01  3.00000000E+02  0.00000000E+00
  8.00000000E+01  2.80000000E+02  0.00000000E+00
  8.00000000E+01  2.60000000E+02  0.00000000E+00
  8.00000000E+01  2.40000000E+02  0.00000000E+00
  8.00000000E+01  2.20000000E+02  0.00000000E+00
  8.00000000E+01  2.00000000E+02  0.00000000E+00
  8.00000000E+01  1.80000000E+02  0.00000000E+00
  8.00000000E+01  1.60000000E+02  0.00000000E+00
  8.00000000E+01  1.40000000E+02  0.00000000E+00
  8.00000000E+01  1.20000000E+02  0.00000000E+00
  8.00000000E+01  1.00000000E+02  0.00000000E+00
  8.00000000E+01  8.00000000E+01  0.00000000E+00
  8.00000000E+01  6.00000000E+01  0.00000000E+00
  8.00000000E+01  4.00000000E+01  0.00000000E+00
  8.00000000E+01  2.00000000E+01  0.00000000E+00
  8.00000000E+01  4.99600361E-14  0.00000000E+00
  1.00000000E+02  3.00000000E+02  0.00000000E+00
  1.00000000E+02  2.80000000E+02  0.00000000E+00
  1.00000000E+02  2.60000000E+02  0.00000000E+00
  1.00000000E+02  2.40000000E+02  0.00000000E+00
  1.00000000E+02  2.20000000E+02  0.00000000E+00
  1.00000000E+02  2.00000000E+02  0.00000000E+00
  1.00000000E+02  1.80000000E+02  0.00000000E+00
  1.00000000E+02  1.60000000E+02  0.00000000E+00
  1.00000000E+02  1.40000000E+02  0.00000000E+00
  1.00000000E+02  1.20000000E+02  0.00000000E+00
  1.00000000E+02  1.00000000E+02  0.00000000E+00
  1.00000000E+02  8.00000000E+01  0.00000000E+00
  1.00000000E+02  6.00000000E+01  0.00000000E+00
  1.00000000E+02  4.00000000E+01  0.00000000E+00
  1.00000000E+02  2.00000000E+01  0.00000000E+00
  1.00000000E+02  4.99600361E-14  0.00000000E+00
  1.20000000E+02  3.00000000E+02  0.00000000E+00
  1.20000000E+02  2.80000000E+02  0.00000000E+00
  1.20000000E+02  2.60000000E+02  0.00000000E+00
  1.20000000E+02  2.40000000E+02  0.00000000E+00
  1.20000000E+02  2.20000000E+02  0.00000000E+00
  1.20000000E+02  2.00000000E+02  0.00000000E+00
  1.20000000E+02  1.80000000E+02  0.00000000E+00
  1.20000000E+02  1.60000000E+02  0.00000000E+00
  1.20000000E+02  1.40000000E+02  0.00000000E+00
  1.20000000E+02  1.20000000E+02  0.00000000E+00
  1.20000000E+02  1.00000000E+02  0.00000000E+00
  1.20000000E+02  8.00000000E+01  0.00000000E+00
  1.20000000E+02  6.00000000E+01  0.00000000E+00
  1.20000000E+02  4.00000000E+01  0.00000000E+00
  1.20000000E+02  2.00000000E+01  0.00000000E+00
  1.20000000E+02  4.99600361E-14  0.00000000E+00
  1.40000000E+02  3.00000000E+02  0.00000000E+00
  1.40000000E+02  2.80000000E+02  0.00000000E+00
  1.40000000E+02  2.60000000E+02  0.00000000E+00
  1.40000000E+02  2.40000000E+02  0.00000000E+00
  1.40000000E+02  2.20000000E+02  0.00000000E+00
  1.40000000E+02  2.00000000E+02  0.00000000E+00
  1.40000000E+02  1.80000000E+02  0.00000000E+00
  1.40000000E+02  1.60000000E+02  0.00000000E+00
  1.40000000E+02  1.40000000E+02  0.00000000E+00
  1.40000000E+02  1.20000000E+02  0.00000000E+00
  1.40000000E+02  1.00000000E+02  0.00000000E+00
  1.40000000E+02  8.00000000E+01  0.00000000E+00
  1.40000000E+02  6.00000000E+01  0.00000000E+00
  1.40000000E+02  4.00000000E+01  0.00000000E+00
  1.40000000E+02  2.00000000E+01  0.00000000E+00
  1.40000000E+02  4.99600361E-14  0.00000000E+00
  1.60000000E+02  3.00000000E+02  0.00000000E+00
  1.60000000E+02  2.80000000E+02  0.00000000E+00
  1.60000000E+02  2.60000000E+02  0.00000000E+00
  1.60000000E+02  2.40000000E+02  0.00000000E+00
  1.60000000E+02  2.20000000E+02  0.00000000E+00
  1.60000000E+02  2.00000000E+02  0.00000000E+00
  1.60000000E+02  1.80000000E+02  0.00000000E+00
  1.60000000E+02  1.60000000E+02  0.00000000E+00
  1.60000000E+02  1.40000000E+02  0.00000000E+00
  1.60000000E+02  1.20000000E+02  0.00000000E+00
  1.60000000E+02  1.00000000E+02  0.00000000E+00
  1.60000000E+02  8.00000000E+01  0.00000000E+00
  1.60000000E+02  6.00000000E+01  0.00000000E+00
  1.60000000E+02  4.00000000E+01  0.00000000E+00
  1.60000000E+02  2.00000000E+01  0.00000000E+00
  1.60000000E+02  4.99600361E-14  0.00000000E+00
  1.80000000E+02  3.00000000E+02  0.00000000E+00
  1.80000000E+02  2.80000000E+02  0.00000000E+00
  1.80000000E+02  2.60000000E+02  0.00000000E+00
  1.80000000E+02  2.40000000E+02  0.00000000E+00
  1.80000000E+02  2.20000000E+02  0.00000000E+00
  1.80000000E+02  2.00000000E+02  0.00000000E+00
  1.80000000E+02  1.80000000E+02  0.00000000E+00
  1.80000000E+02  1.60000000E+02  0.00000000E+00
  1.80000000E+02  1.40000000E+02  0.00000000E+00
  1.80000000E+02  1.20000000E+02  0.00000000E+00
  1.80000000E+02  1.00000000E+02  0.00000000E+00
  1.80000000E+02  8.00000000E+01  0.00000000E+00
  1.80000000E+02  6.00000000E+01  0.00000000E+00
  1.80000000E+02  4.00000000E+01  0.00000000E+00
  1.80000000E+02  2.00000000E+01  0.00000000E+00
  1.80000000E+02  4.99600361E-14  0.00000000E+00
  2.00000000E+02  3.00000000E+02  0.00000000E+00
  2.00000000E+02  2.80000000E+02  0.00000000E+00
  2.00000000E+02  2.60000000E+02  0.00000000E+00
  2.00000000E+02  2.40000000E+02  0.00000000E+00
  2.00000000E+02  2.20000000E+02  0.00000000E+00
  2.00000000E+02  2.00000000E+02  0.00000000E+00
  2.00000000E+02  1.80000000E+02  0.00000000E+00
  2.00000000E+02  1.60000000E+02  0.00000000E+00
  2.00000000E+02  1.40000000E+02  0.00000000E+00
  2.00000000E+02  1.20000000E+02  0.00000000E+00
  2.00000000E+02  1.00000000E+02  0.00000000E+00
  2.00000000E+02  8.00000000E+01  0.00000000E+00
  2.00000000E+02  6.00000000E+01  0.00000000E+00
  2.00000000E+02  4.00000000E+01  0.00000000E+00
  2.00000000E+02  2.00000000E+01  0.00000000E+00
  2.00000000E+02  4.99600361E-14  0.00000000E+00
  2.20000000E+02  3.00000000E+02  0.00000000E+00
  2.20000000E+02  2.80000000E+02  0.00000000E+00
  2.20000000E+02  2.60000000E+02  0.00000000E+00
  2.20000000E+02  2.40000000E+02  0.00000000E+00
  2.20000000E+02  2.20000000E+02  0.00000000E+00
  2.20000000E+02  2.00000000E+02  0.00000000E+00
  2.20000000E+02  1.80000000E+02  0.00000000E+00
  2.20000000E+02  1.60000000E+02  0.00000000E+00
  2.20000000E+02  1.40000000E+02  0.00000000E+00
  2.20000000E+02  1.20000000E+02  0.00000000E+00
  2.20000000E+02  1.00000000E+02  0.00000000E+00
  2.20000000E+02  8.00000000E+01  0.00000000E+00
  2.20000000E+02  6.00000000E+01  0.00000000E+00
  2.20000000E+02  4.00000000E+01  0.00000000E+00
  2.20000000E+02  2.00000000E+01  0.00000000E+00
  2.20000000E+02  4.99600361E-14  0.00000000E+00
  2.40000000E+02  3.00000000E+02  0.00000000E+00
  2.40000000E+02  2.80000000E+02  0.00000000E+00
  2.40000000E+02  2.60000000E+02  0.00000000E+00
  2.40000000E+02  2.40000000E+02  0.00000000E+00
  2.40000000E+02  2.20000000E+02  0.00000000E+00
  2.40000000E+02  2.00000000E+02  0.00000000E+00
  2.40000000E+02  1.80000000E+02  0.00000000E+00
  2.40000000E+02  1.60000000E+02  0.00000000E+00
  2.40000000E+02  1.40000000E+02  0.00000000E+00
  2.40000000E+02  1.20000000E+02  0.00000000E+00
  2.40000000E+02  1.00000000E+02  0.00000000E+00
  2.40000000E+02  8.00000000E+01  0.00000000E+00
  2.40000000E+02  6.00000000E+01  0.00000000E+00
  2.40000000E+02  4.00000000E+01  0.00000000E+00
  2.40000000E+02  2.00000000E+01  0.00000000E+00
  2.40000000E+02  4.99600361E-14  0.00000000E+00
  2.60000000E+02  3.00000000E+02  0.00000000E+00
  2.60000000E+02  2.80000000E+02  0.00000000E+00
  2.60000000E+02  2.60000000E+02  0.00000000E+00
  2.60000000E+02  2.40000000E+02  0.00000000E+00
  2.60000000E+02  2.20000000E+02  0.00000000E+00
  2.60000000E+02  2.00000000E+02  0.00000000E+00
  2.60000000E+02  1.80000000E+02  0.00000000E+00
  2.60000000E+02  1.60000000E+02  0.00000000E+00
  2.60000000E+02  1.40000000E+02  0.00000000E+00
  2.60000000E+02  1.20000000E+02  0.00000000E+00
  2.60000000E+02  1.00000000E+02  0.00000000E+00
  2.60000000E+02  8.00000000E+01  0.00000000E+00
  2.60000000E+02  6.00000000E+01  0.00000000E+00
  2.60000000E+02  4.00000000E+01  0.00000000E+00
  2.60000000E+02  2.00000000E+01  0.00000000E+00
  2.60000000E+02  4.99600361E-14  0.00000000E+00
  2.80000000E+02  3.00000000E+02  0.00000000E+00
  2.80000000E+02  2.80000000E+02  0.00000000E+00
  2.80000000E+02  2.60000000E+02  0.00000000E+00
  2.80000000E+02  2.40000000E+02  0.00000000E+00
  2.80000000E+02  2.20000000E+02  0.00000000E+00
  2.80000000E+02  2.00000000E+02  0.00000000E+00
  2.80000000E+02  1.80000000E+02  0.00000000E+00
  2.80000000E+02  1.60000000E+02  0.00000000E+00
  2.80000000E+02  1.40000000E+02  0.00000000E+00
  2.80000000E+02  1.20000000E+02  0.00000000E+00
  2.80000000E+02  1.00000000E+02  0.00000000E+00
  2.80000000E+02  8.00000000E+01  0.00000000E+00
  2.80000000E+02  6.00000000E+01  0.00000000E+00
  2.80000000E+02  4.00000000E+01  0.00000000E+00
  2.80000000E+02  2.00000000E+01  0.00000000E+00
  2.80000000E+02  4.99600361E-14  0.00000000E+00
  3.00000000E+02  3.00000000E+02  0.00000000E+00
  3.00000000E+02  2.80000000E+02  0.00000000E+00
  3.00000000E+02  2.60000000E+02  0.00000000E+00
  3.00000000E+02  2.40000000E+02  0.00000000E+00
  3.00000000E+02  2.20000000E+02  0.00000000E+00
  3.00000000E+02  2.00000000E+02  0.00000000E+00
  3.00000000E+02  1.80000000E+02  0.00000000E+00
  3.00000000E+02  1.60000000E+02  0.00000000E+00
  3.00000000E+02  1.40000000E+02  0.00000000E+00
  3.00000000E+02  1.20000000E+02  0.00000000E+00
  3.00000000E+02  1.00000000E+02  0.00000000E+00
  3.00000000E+02  8.00000000E+01  0.00000000E+00
  3.00000000E+02  6.00000000E+01  0.00000000E+00
  3.00000000E+02  4.00000000E+01  0.00000000E+00
  3.00000000E+02  2.00000000E+01  0.00000000E+00
  3.00000000E+02  4.99600361E-14  0.00000000E+00
  3.20000000E+02  3.00000000E+02  0.00000000E+00
  3.20000000E+02  2.80000000E+02  0.00000000E+00
  3.20000000E+02  2.60000000E+02  0.00000000E+00
  3.20000000E+02  2.40000000E+02  0.00000000E+00
  3.20000000E+02  2.20000000E+02  0.00000000E+00
  3.20000000E+02  2.00000000E+02  0.00000000E+00
  3.20000000E+02  1.80000000E+02  0.00000000E+00
  3.20000000E+02  1.60000000E+02  0.00000000E+00
  3.20000000E+02  1.40000000E+02  0.00000000E+00
  3.20000000E+02  1.20000000E+02  0.00000000E+00
  3.20000000E+02  1.00000000E+02  0.00000000E+00
  3.20000000E+02  8.00000000E+01  0.00000000E+00
  3.20000000E+02  6.00000000E+01  0.00000000E+00
  3.20000000E+02  4.00000000E+01  0.00000000E+00
  3.20000000E+02  2.00000000E+01  0.00000000E+00
  3.20000000E+02  4.99600361E-14  0.00000000E+00
  3.40000000E+02  3.00000000E+02  0.00000000E+00
  3.40000000E+02  2.80000000E+02  0.00000000E+00
  3.40000000E+02  2.60000000E+02  0.00000000E+00
  3.40000000E+02  2.40000000E+02  0.00000000E+00
  3.40000000E+02  2.20000000E+02  0.00000000E+00
  3.40000000E+02  2.00000000E+02  0.00000000E+00
  3.40000000E+02  1.80000000E+02  0.00000000E+00
  3.40000000E+02  1.60000000E+02  0.00000000E+00
  3.40000000E+02  1.40000000E+02  0.00000000E+00
  3.40000000E+02  1.20000000E+02  0.00000000E+00
  3.40000000E+02  1.00000000E+02  0.00000000E+00
  3.40000000E+02  8.00000000E+01  0.00000000E+00
  3.40000000E+02  6.00000000E+01  0.00000000E+00
  3.40000000E+02  4.00000000E+01  0.00000000E+00
  3.40000000E+02  2.00000000E+01  0.00000000E+00
  3.40000000E+02  4.99600361E-14  0.00000000E+00
  3.60000000E+02  3.00000000E+02  0.00000000E+00
  3.60000000E+02  2.80000000E+02  0.00000000E+00
  3.60000000E+02  2.60000000E+02  0.00000000E+00
  3.60000000E+02  2.40000000E+02  0.00000000E+00
  3.60000000E+02  2.20000000E+02  0.00000000E+00
  3.60000000E+02  2.00000000E+02  0.00000000E+00
  3.60000000E+02  1.80000000E+02  0.00000000E+00
  3.60000000E+02  1.60000000E+02  0.00000000E+00
  3.60000000E+02  1.40000000E+02  0.00000000E+00
  3.60000000E+02  1.20000000E+02  0.00000000E+00
  3.60000000E+02  1.00000000E+02  0.00000000E+00
  3.60000000E+02  8.00000000E+01  0.00000000E+00
  3.60000000E+02  6.00000000E+01  0.00000000E+00
  3.60000000E+02  4.00000000E+01  0.00000000E+00
  3.60000000E+02  2.00000000E+01  0.00000000E+00
  3.60000000E+02  4.99600361E-14  0.00000000E+00
  3.80000000E+02  3.00000000E+02  0.00000000E+00
  3.80000000E+02  2.80000000E+02  0.00000000E+00
  3.80000000E+02  2.60000000E+02  0.00000000E+00
  3.80000000E+02  2.40000000E+02  0.00000000E+00
  3.80000000E+02  2.20000000E+02  0.00000000E+00
  3.80000000E+02  2.00000000E+02  0.00000000E+00
  3.80000000E+02  1.80000000E+02  0.00000000E+00
  3.80000000E+02  1.60000000E+02  0.00000000E+00
  3.80000000E+02  1.40000000E+02  0.00000000E+00
  3.80000000E+02  1.20000000E+02  0.00000000E+00
  3.80000000E+02  1.00000000E+02  0.00000000E+00
  3.80000000E+02  8.00000000E+01  0.00000000E+00
  3.80000000E+02  6.00000000E+01  0.00000000E+00
  3.80000000E+02  4.00000000E+01  0.00000000E+00
  3.80000000E+02  2.00000000E+01  0.00000000E+00
  3.80000000E+02  4.99600361E-14  0.00000000E+00
  4.00000000E+02  3.00000000E+02  0.00000000E+00
  4.00000000E+02  2.80000000E+02  0.00000000E+00
  4.00000000E+02  2.60000000E+02  0.00000000E+00
  4.00000000E+02  2.40000000E+02  0.00000000E+00
  4.00000000E+02  2.20000000E+02  0.00000000E+00
  4.00000000E+02  2.00000000E+02  0.00000000E+00
  4.00000000E+02  1.80000000E+02  0.00000000E+00
  4.00000000E+02  1.60000000E+02  0.00000000E+00
  4.00000000E+02  1.40000000E+02  0.00000000E+00
  4.00000000E+02  1.20000000E+02  0.00000000E+00
  4.00000000E+02  1.00000000E+02  0.00000000E+00
  4.00000000E+02  8.00000000E+01  0.00000000E+00
  4.00000000E+02  6.00000000E+01  0.00000000E+00
  4.00000000E+02  4.00000000E+01  0.00000000E+00
  4.00000000E+02  2.00000000E+01  0.00000000E+00
  4.00000000E+02  4.99600361E-14  0.00000000E+00
  4.20000000E+02  3.00000000E+02  0.00000000E+00
  4.20000000E+02  2.80000000E+02  0.00000000E+00
  4.20000000E+02  2.60000000E+02  0.00000000E+00
  4.20000000E+02  2.40000000E+02  0.00000000E+00
  4.20000000E+02  2.20000000E+02  0.00000000E+00
  4.20000000E+02  2.00000000E+02  0.00000000E+00
  4.20000000E+02  1.80000000E+02  0.00000000E+00
  4.20000000E+02  1.60000000E+02  0.00000000E+00
  4.20000000E+02  1.40000000E+02  0.00000000E+00
  4.20000000E+02  1.20000000E+02  0.00000000E+00
  4.20000000E+02  1.00000000E+02  0.00000000E+00
  4.20000000E+02  8.00000000E+01  0.00000000E+00
  4.20000000E+02  6.00000000E+01  0.00000000E+00
  4.20000000E+02  4.00000000E+01  0.00000000E+00
  4.20000000E+02  2.00000000E+01  0.00000000E+00
  4.20000000E+02  4.99600361E-14  0.00000000E+00
  4.40000000E+02  3.00000000E+02  0.00000000E+00
  4.40000000E+02  2.80000000E+02  0.00000000E+00
  4.40000000E+02  2.60000000E+02  0.00000000E+00
  4.40000000E+02  2.40000000E+02  0.00000000E+00
  4.40000000E+02  2.20000000E+02  0.00000000E+00
  4.40000000E+02  2.00000000E+02  0.00000000E+00
  4.40000000E+02  1.80000000E+02  0.00000000E+00
  4.40000000E+02  1.60000000E+02  0.00000000E+00
  4.40000000E+02  1.40000000E+02  0.00000000E+00
  4.40000000E+02  1.20000000E+02  0.00000000E+00
  4.40000000E+02  1.00000000E+02  0.00000000E+00
  4.40000000E+02  8.00000000E+01  0.00000000E+00
  4.40000000E+02  6.00000000E+01  0.00000000E+00
  4.40000000E+02  4.00000000E+01  0.00000000E+00
  4.40000000E+02  2.00000000E+01  0.00000000E+00
  4.40000000E+02  4.99600361E-14  0.00000000E+00
  4.60000000E+02  3.00000000E+02  0.00000000E+00
  4.60000000E+02  2.80000000E+02  0.00000000E+00
  4.60000000E+02  2.60000000E+02  0.00000000E+00
  4.60000000E+02  2.40000000E+02  0.00000000E+00
  4.60000000E+02  2.20000000E+02  0.00000000E+00
  4.60000000E+02  2.00000000E+02  0.00000000E+00
  4.60000000E+02  1.80000000E+02  0.00000000E+00
  4.60000000E+02  1.60000000E+02  0.00000000E+00
  4.60000000E+02  1.40000000E+02  0.00000000E+00
  4.60000000E+02  1.20000000E+02  0.00000000E+00
  4.60000000E+02  1.00000000E+02  0.00000000E+00
  4.60000000E+02  8.00000000E+01  0.00000000E+00
  4.60000000E+02  6.00000000E+01  0.00000000E+00
  4.60000000E+02  4.00000000E+01  0.00000000E+00
  4.60000000E+02  2.00000000E+01  0.00000000E+00
  4.60000000E+02  4.99600361E-14  0.00000000E+00
  4.80000000E+02  3.00000000E+02  0.00000000E+00
  4.80000000E+02  2.80000000E+02  0.00000000E+00
  4.80000000E+02  2.60000000E+02  0.00000000E+00
  4.80000000E+02  2.40000000E+02  0.00000000E+00
  4.80000000E+02  2.20000000E+02  0.00000000E+00
  4.80000000E+02  2.00000000E+02  0.00000000E+00
  4.80000000E+02  1.80000000E+02  0.00000000E+00
  4.80000000E+02  1.60000000E+02  0.00000000E+00
  4.80000000E+02  1.40000000E+02  0.00000000E+00
  4.80000000E+02  1.20000000E+02  0.00000000E+00
  4.80000000E+02  1.00000000E+02  0.00000000E+00
  4.80000000E+02  8.00000000E+01  0.00000000E+00
  4.80000000E+02  6.00000000E+01  0.00000000E+00
  4.80000000E+02  4.00000000E+01  0.00000000E+00
  4.80000000E+02  2.00000000E+01  0.00000000E+00
  4.80000000E+02  4.99600361E-14  0.00000000E+00
  5.00000000E+02  3.00000000E+02  0.00000000E+00
  5.00000000E+02  2.80000000E+02  0.00000000E+00
  5.00000000E+02  2.60000000E+02  0.00000000E+00
  5.00000000E+02  2.40000000E+02  0.00000000E+00
  5.00000000E+02  2.20000000E+02  0.00000000E+00
  5.00000000E+02  2.00000000E+02  0.00000000E+00
  5.00000000E+02  1.80000000E+02  0.00000000E+00
  5.00000000E+02  1.60000000E+02  0.00000000E+00
  5.00000000E+02  1.40000000E+02  0.00000000E+00
  5.00000000E+02  1.20000000E+02  0.00000000E+00
  5.00000000E+02  1.00000000E+02  0.00000000E+00
  5.00000000E+02  8.00000000E+01  0.00000000E+00
  5.00000000E+02  6.00000000E+01  0.00000000E+00
  5.00000000E+02  4.00000000E+01  0.00000000E+00
  5.00000000E+02  2.00000000E+01  0.00000000E+00
  5.00000000E+02  4.99600361E-14  0.00000000E+00
  5.20000000E+02  3.00000000E+02  0.00000000E+00
  5.20000000E+02  2.80000000E+02  0.00000000E+00
  5.20000000E+02  2.60000000E+02  0.00000000E+00
  5.20000000E+02  2.40000000E+02  0.00000000E+00
  5.20000000E+02  2.20000000E+02  0.00000000E+00
  5.20000000E+02  2.00000000E+02  0.00000000E+00
  5.20000000E+02  1.80000000E+02  0.00000000E+00
  5.20000000E+02  1.60000000E+02  0.00000000E+00
  5.20000000E+02  1.40000000E+02  0.00000000E+00
  5.20000000E+02  1.20000000E+02  0.00000000E+00
  5.20000000E+02  1.00000000E+02  0.00000000E+00
  5.20000000E+02  8.00000000E+01  0.00000000E+00
  5.20000000E+02  6.00000000E+01  0.00000000E+00
  5.20000000E+02  4.00000000E+01  0.00000000E+00
  5.20000000E+02  2.00000000E+01  0.00000000E+00
  5.20000000E+02  4.99600361E-14  0.00000000E+00
  5.40000000E+02  3.00000000E+02  0.00000000E+00
  5.40000000E+02  2.80000000E+02  0.00000000E+00
  5.40000000E+02  2.60000000E+02  0.00000000E+00
  5.40000000E+02  2.40000000E+02  0.00000000E+00
  5.40000000E+02  2.20000000E+02  0.00000000E+00
  5.40000000E+02  2.00000000E+02  0.00000000E+00
  5.40000000E+02  1.80000000E+02  0.00000000E+00
  5.40000000E+02  1.60000000E+02  0.00000000E+00
  5.40000000E+02  1.40000000E+02  0.00000000E+00
  5.40000000E+02  1.20000000E+02  0.00000000E+00
  5.40000000E+02  1.00000000E+02  0.00000000E+00
  5.40000000E+02  8.00000000E+01  0.00000000E+00
  5.40000000E+02  6.00000000E+01  0.00000000E+00
  5.40000000E+02  4.00000000E+01  0.00000000E+00
  5.40000000E+02  2.00000000E+01  0.00000000E+00
  5.40000000E+02  4.99600361E-14  0.00000000E+00
  5.60000000E+02  3.00000000E+02  0.00000000E+00
  5.60000000E+02  2.80000000E+02  0.00000000E+00
  5.60000000E+02  2.60000000E+02  0.00000000E+00
  5.60000000E+02  2.40000000E+02  0.00000000E+00
  5.60000000E+02  2.20000000E+02  0.00000000E+00
  5.60000000E+02  2.00000000E+02  0.00000000E+00
  5.60000000E+02  1.80000000E+02  0.00000000E+00
  5.60000000E+02  1.60000000E+02  0.00000000E+00
  5.60000000E+02  1.40000000E+02  0.00000000E+00
  5.60000000E+02  1.20000000E+02  0.00000000E+00
  5.60000000E+02  1.00000000E+02  0.00000000E+00
  5.60000000E+02  8.00000000E+01  0.00000000E+00
  5.60000000E+02  6.00000000E+01  0.00000000E+00
  5.60000000E+02  4.00000000E+01  0.00000000E+00
  5.60000000E+02  2.00000000E+01  0.00000000E+00
  5.60000000E+02  4.99600361E-14  0.00000000E+00
  5.80000000E+02  3.00000000E+02  0.00000000E+00
  5.80000000E+02  2.80000000E+02  0.00000000E+00
  5.80000000E+02  2.60000000E+02  0.00000000E+00
  5.80000000E+02  2.40000000E+02  0.00000000E+00
  5.80000000E+02  2.20000000E+02  0.00000000E+00
  5.80000000E+02  2.00000000E+02  0.00000000E+00
  5.80000000E+02  1.80000000E+02  0.00000000E+00
  5.80000000E+02  1.60000000E+02  0.00000000E+00
  5.80000000E+02  1.40000000E+02  0.00000000E+00
  5.80000000E+02  1.20000000E+02  0.00000000E+00
  5.80000000E+02  1.00000000E+02  0.00000000E+00
  5.80000000E+02  8.00000000E+01  0.00000000E+00
  5.80000000E+02  6.00000000E+01  0.00000000E+00
  5.80000000E+02  4.00000000E+01  0.00000000E+00
  5.80000000E+02  2.00000000E+01  0.00000000E+00
  5.80000000E+02  4.99600361E-14  0.00000000E+00
  6.00000000E+02  3.00000000E+02  0.00000000E+00
  6.00000000E+02  2.80000000E+02  0.00000000E+00
  6.00000000E+02  2.60000000E+02  0.00000000E+00
  6.00000000E+02  2.40000000E+02  0.00000000E+00
  6.00000000E+02  2.20000000E+02  0.00000000E+00
  6.00000000E+02  2.00000000E+02  0.00000000E+00
  6.00000000E+02  1.80000000E+02  0.00000000E+00
  6.00000000E+02  1.60000000E+02  0.00000000E+00
  6.00000000E+02  1.40000000E+02  0.00000000E+00
  6.00000000E+02  1.20000000E+02  0.00000000E+00
  6.00000000E+02  1.00000000E+02  0.00000000E+00
  6.00000000E+02  8.00000000E+01  0.00000000E+00
  6.00000000E+02  6.00000000E+01  0.00000000E+00
  6.00000000E+02  4.00000000E+01  0.00000000E+00
  6.00000000E+02  2.00000000E+01  0.00000000E+00
  6.00000000E+02  4.99600361E-14  0.00000000E+00
CELLS       450      2250
         4           0           1          17          16
         4           1           2          18          17
         4           2           3          19          18
         4           3           4          20          19
         4           4           5          21          20
         4           5           6          22          21
         4           6           7          23          22
         4           7           8          24          23
         4           8           9          25          24
         4           9          10          26          25
         4          10          11          27          26
         4          11          12          28          27
         4          12          13          29          28
         4          13          14          30          29
         4          14          15          31          30
         4          16          17          33          32
         4          17          18          34          33
         4          18          19          35          34
         4          19          20          36          35
         4          20          21          37          36
         4          21          22          38          37
         4          22          23          39          38
         4          23          24          40          39
         4          24          25          41          40
         4          25          26          42          41
         4          26          27          43          42
         4          27          28          44          43
         4          28          29          45          44
         4          29          30          46          45
         4          30          31          47          46
         4          32          33          49          48
         4          33          34          50          49
         4          34          35          51          50
         4          35          36          52          51
         4          36          37          53          52
         4          37          38          54          53
         4          38          39          55          54
         4          39          40          56          55
         4          40          41          57          56
         4          41          42          58          57
         4          42          43          59          58
         4          43          44          60          59
         4          44          45          61          60
         4          45          46          62          61
         4          46          47          63          62
         4          48          49          65          64
         4          49          50          66          65
         4          50          51          67          66
         4          51          52          68          67
         4          52          53          69          68
         4          53          54          70          69
         4          54          55          71          70
         4          55          56          72          71
         4          56          57          73          72
         4          57          58          74          73
         4          58          59          75          74
         4          59          60          76          75
         4          60          61          77          76
         4          61          62          78          77
         4          62          63          79          78
         4          64          65          81          80
         4          65          66          82          81
         4          66          67          83          82
         4          67          68          84          83
         4          68          69          85          84
         4          69          70          86          85
         4          70          71          87          86
         4          71          72          88          87
         4          72          73          89          88
         4          73          74          90          89
         4          74          75          91          90
         4          75          76          92          91
         4          76          77          93          92
         4          77          78          94          93
         4          78          79          95          94
         4          80          81          97          96
         4          81          82          98          97
         4          82          83          99          98
         4          83          84         100          99
         4          84          85         101         100
         4          85          86         102         101
         4          86          87         103         102
         4          87          88         104         103
         4          88          89         105         104
         4          89          90         106         105
         4          90          91         107         106
         4          91          92         108         107
         4          92          93         109         108
         4          93          94         110         109
         4          94          95         111         110
         4          96          97         113         112
         4          97          98         114         113
         4          98          99         115         114
         4          99         100         116         115
         4         100         101         117         116
         4         101         102         118         117
         4         102         103         119         118
         4         103         104         120         119
         4         104         105         121         120
         4         105         106         122         121
         4         106         107         123         122
         4         107         108         124         123
         4         108         109         125         124
         4         109         110         126         125
         4         110         111         127         126
         4         112         113         129         128
         4         113         114         130         129
         4         114         115         131         130
         4         115         116         132         131
         4         116         117         133         132
         4         117         118         134         133
         4         118         119         135         134
         4         119         120         136         135
         4         120         121         137         136
         4         121         122         138         137
         4         122         123         139         138
         4         123         124         140         139
         4         124         125         141         140
         4         125         126         142         141
         4         126         127         143         142
         4         128         129         145         144
         4         129         130         146         145
         4         130         131         147         146
         4         131         132         148         147
         4         132         133         149         148
         4         133         134         150         149
         4         134         135         151         150
         4         135         136         152         151
         4         136         137         153         152
         4         137         138         154         153
         4         138         139         155         154
         4         139         140         156         155
         4         140         141         157         156
         4         141         142         158         157
         4         142         143         159         158
         4         144         145         161         160
         4         145         146         162         161
         4         146         147         163         162
         4         147         148         164         163
         4         148         149         165         164
         4         149         150         166         165
         4         150         151         167         166
         4         151         152         168         167
         4         152         153         169         168
         4         153         154         170         169
         4         154         155         171         170
         4         155         156         172         171
         4         156         157         173         172
         4         157         158         174         173
         4         158         159         175         174
         4         160         161         177         176
         4         161         162         178         177
         4         162         163         179         178
         4         163         164         180         179
         4         164         165         181         180
         4         165         166         182         181
         4         166         167         183         182
         4         167         168         184         183
         4         168         169         185         184
         4         169         170         186         185
         4         170         171         187         186
         4         171         172         188         187
         4         172         173         189         188
         4         173         174         190         189
         4         174         175         191         190
         4         176         177         193         192
         4         177         178         194         193
         4         178         179         195         194
         4         179         180         196         195
         4         180         181         197         196
         4         181         182         198         197
         4         182         183         199         198
         4         183         184         200         199
         4         184         185         201         200
         4         185         186         202         201
         4         186         187         203         202
         4         187         188         204         203
         4         188         189         205         204
         4         189         190         206         205
         4         190         191         207         206
         4         192         193         209         208
         4         193         194         210         209
         4         194         195         211         210
         4         195         196         212         211
         4         196         197         213         212
         4         197         198         214         213
         4         198         199         215         214
         4         199         200         216         215
         4         200         201         217         216
         4         201         202         218         217
         4         202         203         219         218
         4         203         204         220         219
         4         204         205         221         220
         4         205         206         222         221
         4         206         207         223         222
         4         208         209         225         224
         4         209         210         226         225
         4         210         211         227         226
         4         211         212         228         227
         4         212         213         229         228
         4         213         214         230         229
         4         214         215         231         230
         4         215         216         232         231
         4         216         217         233         232
         4         217         218         234         233
         4         218         219         235         234
         4         219         220         236         235
         4         220         221         237         236
         4         221         222         238         237
         4         222         223         239         238
         4         224         225         241         240
         4         225         226         242         241
         4         226         227         243         242
         4         227         228         244         243
         4         228         229         245         244
         4         229         230         246         245
         4         230         231         247         246
         4         231         232         248         247
         4         232         233         249         248
         4         233         234         250         249
         4         234         235         251         250
         4         235         236         252         251
         4         236         237         253         252
         4         237         238         254         253
         4         238         239         255         254
         4         240         241         257         256
         4         241         242         258         257
         4         242         243         259         258
         4         243         244         260         259
         4         244         245         261         260
         4         245         246         262         261
         4         246         247         263         262
         4         247         248         264         263
         4         248         249         265         264
         4         249         250         266         265
         4         250         251         267         266
         4         251         252         268         267
         4         252         253         269         268
         4         253         254         270         269
         4         254         255         271         270
         4         256         257         273         272
         4         257         258         274         273
         4         258         259         275         274
         4         259         260         276         275
         4         260         261         277         276
         4         261         262         278         277
         4         262         263         279         278
         4         263         264         280         279
         4         264         265         281         280
         4         265         266         282         281
         4         266         267         283         282
         4         267         268         284         283
         4         268         269         285         284
         4         269         270         286         285
         4         270         271         287         286
         4         272         273         289         288
         4         273         274         290         289
         4         274         275         291         290
         4         275         276         292         291
         4         276         277         293         292
         4         277         278         294         293
         4         278         279         295         294
         4         279         280         296         295
         4         280         281         297         296
         4         281         282         298         297
         4         282         283         299         298
         4         283         284         300         299
         4         284         285         301         300
         4         285         286         302         301
         4         286         287         303         302
         4         288         289         305         304
         4         289         290         306         305
         4         290         291         307         306
         4         291         292         308         307
         4         292         293         309         308
         4         293         294         310         309
         4         294         295         311         310
         4         295         296         312         311
         4         296         297         313         312
         4         297         298         314         313
         4         298         299         315         314
         4         299         300         316         315
         4         300         301         317         316
         4         301         302         318         317
         4         302         303         319         318
         4         304         305         321         320
         4         305         306         322         321
         4         306         307         323         322
         4         307         308         324         323
         4         308         309         325         324
         4         309         310         326         325
         4         310         311         327         326
         4         311         312         328         327
         4         312         313         329         328
         4         313         314         330         329
         4         314         315         331         330
         4         315         316         332         331
         4         316         317         333         332
         4         317         318         334         333
         4         318         319         335         334
         4         320         321         337         336
         4         321         322         338         337
         4         322         323         339         338
         4         323         324         340         339
         4         324         325         341         340
         4         325         326         342         341
         4         326         327         343         342
         4         327         328         344         343
         4         328         329         345         344
         4         329         330         346         345
         4         330         331         347         346
         4         331         332         348         347
         4         332         333         349         348
         4         333         334         350         349
         4         334         335         351         350
         4         336         337         353         352
         4         337         338         354         353
         4         338         339         355         354
         4         339         340         356         355
         4         340         341         357         356
         4         341         342         358         357
         4         342         343         359         358
         4         343         344         360         359
         4         344         345         361         360
         4         345         346         362         361
         4         346         347         363         362
         4         347         348         364         363
         4         348         349         365         364
         4         349         350         366         365
         4         350         351         367         366
         4         352         353         369         368
         4         353         354         370         369
         4         354         355         371         370
         4         355         356         372         371
         4         356         357         373         372
         4         357         358         374         373
         4         358         359         375         374
         4         359         360         376         375
         4         360         361         377         376
         4         361         362         378         377
         4         362         363         379         378
         4         363         364         380         379
         4         364         365         381         380
         4         365         366         382         381
         4         366         367         383         382
         4         368         369         385         384
         4         369         370         386         385
         4         370         371         387         386
         4         371         372         388         387
         4         372         373         389         388
         4         373         374         390         389
         4         374         375         391         390
         4         375         376         392         391
         4         376         377         393         392
         4         377         378         394         393
         4         378         379         395         394
         4         379         380         396         395
         4         380         381         397         396
         4         381         382         398         397
         4         382         383         399         398
         4         384         385         401         400
         4         385         386         402         401
         4         386         387         403         402
         4         387         388         404         403
         4         388         389         405         404
         4         389         390         406         405
         4         390         391         407         406
         4         391         392         408         407
         4         392         393         409         408
         4         393         394         410         409
         4         394         395         411         410
         4         395         396         412         411
         4         396         397         413         412
         4         397         398         414         413
         4         398         399         415         414
         4         400         401         417         416
         4         401         402         418         417
         4         402         403         419         418
         4         403         404         420         419
         4         404         405         421         420
         4         405         406         422         421
         4         406         407         423         422
         4         407         408         424         423
         4         408         409         425         424
         4         409         410         426         425
         4         410         411         427         426
         4         411         412         428         427
         4         412         413         429         428
         4         413         414         430         429
         4         414         415         431         430
         4         416         417         433         432
         4         417         418         434         433
         4         418         419         435         434
         4         419         420         436         435
         4         420         421         437         436
         4         421         422         438         437
         4         422         423         439         438
         4         423         424         440         439
         4         424         425         441         440
         4         425         426         442         441
         4         426         427         443         442
         4         427         428         444         443
         4         428         429         445         444
         4         429         430         446         445
         4         430         431         447         446
         4         432         433         449         448
         4         433         434         450         449
         4         434         435         451         450
         4         435         436         452         451
         4         436         437         453         452
         4         437         438         454         453
         4         438         439         455         454
         4         439         440         456         455
         4         440         441         457         456
         4         441         442         458         457
         4         442         443         459         458
         4         443         444         460         459
         4         444         445         461         460
         4         445         446         462         461
         4         446         447         463         462
         4         448         449         465         464
         4         449         450         466         465
         4         450         451         467         466
         4         451         452         468         467
         4         452         453         469         468
         4         453         454         470         469
         4         454         455         471         470
         4         455         456         472         471
         4         456         457         473         472
         4         457         458         474         473
         4         458         459         475         474
         4         459         460         476         475
         4         460         461         477         476
         4         461         462         478         477
         4         462         463         479         478
         4         464         465         481         480
         4         465         466         482         481
         4         466         467         483         482
         4         467         468         484         483
         4         468         469         485         484
         4         469         470         486         485
         4         470         471         487         486
         4         471         472         488         487
         4         472         473         489         488
         4         473         474         490         489
         4         474         475         491         490
         4         475         476         492         491
         4         476         477         493         492
         4         477         478         494         493
         4         478         479         495         494
CELL_TYPES        450
9
9
9
9
9
9
9
9
9
9
9
9
9
9
9
9
9
9
9
9
9
9
9
9
9
9
9
9
9
9
9
9
9
9
9
9
9
9
9
9
9
9
9
9
9
9
9
9
9
9
9
9
9
9
9
9
9
9
9
9
9
9
9
9
9
9
9
9
9
9
9
9
9
9
9
9
9
9
9
9
9
9
9
9
9
9
9
9
9
9
9
9
9
9
9
9
9
9
9
9
9
9
9
9
9
9
9
9
9
9
9
9
9
9
9
9
9
9
9
9
9
9
9
9
9
9
9
9
9
9
9
9
9
9
9
9
9
9
9
9
9
9
9
9
9
9
9
9
9
9
9
9
9
9
9
9
9
9
9
9
9
9
9
9
9
9
9
9
9
9
9
9
9
9
9
9
9
9
9
9
9
9
9
9
9
9
9
9
9
9
9
9
9
9
9
9
9
9
9
9
9
9
9
9
9
9
9
9
9
9
9
9
9
9
9
9
9
9
9
9
9
9
9
9
9
9
9
9
9
9
9
9
9
9
9
9
9
9
9
9
9
9
9
9
9
9
9
9
9
9
9
9
9
9
9
9
9
9
9
9
9
9
9
9
9
9
9
9
9
9
9
9
9
9
9
9
9
9
9
9
9
9
9
9
9
9
9
9
9
9
9
9
9
9
9
9
9
9
9
9
9
9
9
9
9
9
9
9
9
9
9
9
9
9
9
9
9
9
9
9
9
9
9
9
9
9
9
9
9
9
9
9
9
9
9
9
9
9
9
9
9
9
9
9
9
9
9
9
9
9
9
9
9
9
9
9
9
9
9
9
9
9
9
9
9
9
9
9
9
9
9
9
9
9
9
9
9
9
9
9
9
9
9
9
9
9
9
9
9
9
9
9
9
9
9
9
9
9
9
9
9
9
9
9
9
9
9
9
9
9
9
9
9
9
9
9
9
9
9
9
9
9
9
9
9
9
9
9
9
9
9
9
9
9
9
9
9
9
9
9
9
9
9
9
9
9
9
9
9
9
POINT_DATA       496
SCALARS p double 
LOOKUP_TABLE default
   71087123.0477987     
   71087123.0477987     
   71087123.0477987     
   71087123.0477986     
   71087123.0477986     
   71087123.0477985     
   71087123.0477984     
   71087123.0477984     
   71087123.0477984     
   71087123.0477983     
   71087123.0477983     
   71087123.0477983     
   71087123.0477982     
   71087123.0477982     
   71087123.0477982     
   71087123.0477982     
   70583105.6854724     
   70583105.6854724     
   70583105.6854724     
   70583105.6854724     
   70583105.6854723     
   70583105.6854722     
   70583105.6854722     
   70583105.6854721     
   70583105.6854721     
   70583105.6854721     
   70583105.6854721     
   70583105.6854721     
   70583105.6854720     
   70583105.6854720     
   70583105.6854720     
   70583105.6854720     
   70079088.5900206     
   70079088.5900206     
   70079088.5900205     
   70079088.5900205     
   70079088.5900204     
   70079088.5900204     
   70079088.5900203     
   70079088.5900203     
   70079088.5900202     
   70079088.5900202     
   70079088.5900202     
   70079088.5900202     
   70079088.5900202     
   70079088.5900202     
   70079088.5900201     
   70079088.5900201     
   69575071.7487332     
   69575071.7487332     
   69575071.7487332     
   69575071.7487331     
   69575071.7487330     
   69575071.7487330     
   69575071.7487330     
   69575071.7487329     
   69575071.7487328     
   69575071.7487329     
   69575071.7487329     
   69575071.7487329     
   69575071.7487328     
   69575071.7487328     
   69575071.7487328     
   69575071.7487328     
   69071055.1489005     
   69071055.1489005     
   69071055.1489005     
   69071055.1489005     
   69071055.1489004     
   69071055.1489004     
   69071055.1489003     
   69071055.1489003     
   69071055.1489003     
   69071055.1489003     
   69071055.1489003     
   69071055.1489003     
   69071055.1489003     
   69071055.1489002     
   69071055.1489002     
   69071055.1489002     
   68567038.7778128     
   68567038.7778129     
   68567038.7778129     
   68567038.7778128     
   68567038.7778128     
   68567038.7778127     
   68567038.7778127     
   68567038.7778126     
   68567038.7778126     
   68567038.7778126     
   68567038.7778126     
   68567038.7778126     
   68567038.7778126     
   68567038.7778126     
   68567038.7778126     
   68567038.7778125     
   68063022.6227603     
   68063022.6227604     
   68063022.6227603     
   68063022.6227603     
   68063022.6227603     
   68063022.6227602     
   68063022.6227602     
   68063022.6227602     
   68063022.6227601     
   68063022.6227601     
   68063022.6227602     
   68063022.6227602     
   68063022.6227601     
   68063022.6227601     
   68063022.6227601     
   68063022.6227601     
   67559006.6710332     
   67559006.6710332     
   67559006.6710332     
   67559006.6710331     
   67559006.6710331     
   67559006.6710331     
   67559006.6710330     
   67559006.6710330     
   67559006.6710330     
   67559006.6710330     
   67559006.6710331     
   67559006.6710330     
   67559006.6710330     
   67559006.6710330     
   67559006.6710330     
   67559006.6710330     
   67054990.9099217     
   67054990.9099216     
   67054990.9099216     
   67054990.9099216     
   67054990.9099215     
   67054990.9099215     
   67054990.9099215     
   67054990.9099215     
   67054990.9099215     
   67054990.9099215     
   67054990.9099215     
   67054990.9099215     
   67054990.9099215     
   67054990.9099215     
   67054990.9099214     
   67054990.9099214     
   66550975.3267159     
   66550975.3267159     
   66550975.3267159     
   66550975.3267159     
   66550975.3267158     
   66550975.3267158     
   66550975.3267158     
   66550975.3267158     
   66550975.3267158     
   66550975.3267158     
   66550975.3267158     
   66550975.3267158     
   66550975.3267158     
   66550975.3267158     
   66550975.3267158     
   66550975.3267158     
   66046959.9087062     
   66046959.9087062     
   66046959.9087062     
   66046959.9087062     
   66046959.9087061     
   66046959.9087061     
   66046959.9087061     
   66046959.9087061     
   66046959.9087061     
   66046959.9087061     
   66046959.9087062     
   66046959.9087061     
   66046959.9087061     
   66046959.9087061     
   66046959.9087061     
   66046959.9087061     
   65542944.6431828     
   65542944.6431828     
   65542944.6431828     
   65542944.6431828     
   65542944.6431828     
   65542944.6431828     
   65542944.6431828     
   65542944.6431828     
   65542944.6431828     
   65542944.6431828     
   65542944.6431828     
   65542944.6431828     
   65542944.6431828     
   65542944.6431828     
   65542944.6431828     
   65542944.6431828     
   65038929.5174359     
   65038929.5174359     
   65038929.5174359     
   65038929.5174359     
   65038929.5174359     
   65038929.5174359     
   65038929.5174360     
   65038929.5174360     
   65038929.5174359     
   65038929.5174360     
   65038929.5174360     
   65038929.5174360     
   65038929.5174359     
   65038929.5174359     
   65038929.5174360     
   65038929.5174360     
   64534914.5187559     
   64534914.5187558     
   64534914.5187558     
   64534914.5187558     
   64534914.5187559     
   64534914.5187559     
   64534914.5187559     
   64534914.5187559     
   64534914.5187559     
   64534914.5187559     
   64534914.5187559     
   64534914.5187559     
   64534914.5187559     
   64534914.5187559     
   64534914.5187559     
   64534914.5187559     
   64030899.6344328     
   64030899.6344328     
   64030899.6344328     
   64030899.6344328     
   64030899.6344328     
   64030899.6344329     
   64030899.6344329     
   64030899.6344329     
   64030899.6344328     
   64030899.6344329     
   64030899.6344329     
   64030899.6344329     
   64030899.6344329     
   64030899.6344329     
   64030899.6344329     
   64030899.6344329     
   63526884.8517570     
   63526884.8517570     
   63526884.8517570     
   63526884.8517570     
   63526884.8517570     
   63526884.8517570     
   63526884.8517571     
   63526884.8517570     
   63526884.8517571     
   63526884.8517571     
   63526884.8517571     
   63526884.8517571     
   63526884.8517571     
   63526884.8517571     
   63526884.8517571     
   63526884.8517571     
   63022870.1580187     
   63022870.1580187     
   63022870.1580187     
   63022870.1580188     
   63022870.1580188     
   63022870.1580188     
   63022870.1580188     
   63022870.1580188     
   63022870.1580188     
   63022870.1580188     
   63022870.1580188     
   63022870.1580188     
   63022870.1580188     
   63022870.1580189     
   63022870.1580189     
   63022870.1580189     
   62518855.5405082     
   62518855.5405083     
   62518855.5405083     
   62518855.5405083     
   62518855.5405083     
   62518855.5405083     
   62518855.5405083     
   62518855.5405083     
   62518855.5405083     
   62518855.5405083     
   62518855.5405083     
   62518855.5405083     
   62518855.5405084     
   62518855.5405084     
   62518855.5405084     
   62518855.5405084     
   62014840.9865158     
   62014840.9865158     
   62014840.9865158     
   62014840.9865158     
   62014840.9865158     
   62014840.9865158     
   62014840.9865158     
   62014840.9865158     
   62014840.9865158     
   62014840.9865158     
   62014840.9865159     
   62014840.9865159     
   62014840.9865159     
   62014840.9865159     
   62014840.9865159     
   62014840.9865159     
   61510826.4833316     
   61510826.4833316     
   61510826.4833316     
   61510826.4833316     
   61510826.4833316     
   61510826.4833316     
   61510826.4833316     
   61510826.4833316     
   61510826.4833316     
   61510826.4833316     
   61510826.4833317     
   61510826.4833317     
   61510826.4833317     
   61510826.4833317     
   61510826.4833317     
   61510826.4833317     
   61006812.0182460     
   61006812.0182460     
   61006812.0182460     
   61006812.0182460     
   61006812.0182459     
   61006812.0182460     
   61006812.0182459     
   61006812.0182459     
   61006812.0182459     
   61006812.0182460     
   61006812.0182460     
   61006812.0182460     
   61006812.0182461     
   61006812.0182461     
   61006812.0182461     
   61006812.0182461     
   60502797.5785491     
   60502797.5785491     
   60502797.5785491     
   60502797.5785491     
   60502797.5785491     
   60502797.5785491     
   60502797.5785491     
   60502797.5785491     
   60502797.5785491     
   60502797.5785491     
   60502797.5785492     
   60502797.5785492     
   60502797.5785492     
   60502797.5785492     
   60502797.5785492     
   60502797.5785492     
   59998783.1515313     
   59998783.1515313     
   59998783.1515313     
   59998783.1515313     
   59998783.1515313     
   59998783.1515313     
   59998783.1515313     
   59998783.1515314     
   59998783.1515313     
   59998783.1515314     
   59998783.1515314     
   59998783.1515314     
   59998783.1515314     
   59998783.1515314     
   59998783.1515314     
   59998783.1515314     
   59494768.7244829     
   59494768.7244829     
   59494768.7244828     
   59494768.7244829     
   59494768.7244828     
   59494768.7244828     
   59494768.7244829     
   59494768.7244829     
   59494768.7244829     
   59494768.7244829     
   59494768.7244829     
   59494768.7244829     
   59494768.7244829     
   59494768.7244830     
   59494768.7244830     
   59494768.7244830     
   58990754.2846940     
   58990754.2846940     
   58990754.2846940     
   58990754.2846940     
   58990754.2846940     
   58990754.2846940     
   58990754.2846940     
   58990754.2846940     
   58990754.2846940     
   58990754.2846940     
   58990754.2846940     
   58990754.2846940     
   58990754.2846941     
   58990754.2846941     
   58990754.2846941     
   58990754.2846941     
   58486739.8194550     
   58486739.8194550     
   58486739.8194550     
   58486739.8194549     
   58486739.8194550     
   58486739.8194550     
   58486739.8194550     
   58486739.8194550     
   58486739.8194550     
   58486739.8194550     
   58486739.8194550     
   58486739.8194550     
   58486739.8194550     
   58486739.8194550     
   58486739.8194550     
   58486739.8194550     
   57982725.3160560     
   57982725.3160561     
   57982725.3160561     
   57982725.3160560     
   57982725.3160561     
   57982725.3160561     
   57982725.3160561     
   57982725.3160561     
   57982725.3160561     
   57982725.3160561     
   57982725.3160561     
   57982725.3160561     
   57982725.3160561     
   57982725.3160561     
   57982725.3160561     
   57982725.3160561     
   57478710.7617875     
   57478710.7617875     
   57478710.7617875     
   57478710.7617875     
   57478710.7617875     
   57478710.7617875     
   57478710.7617875     
   57478710.7617875     
   57478710.7617875     
   57478710.7617875     
   57478710.7617875     
   57478710.7617875     
   57478710.7617875     
   57478710.7617876     
   57478710.7617876     
   57478710.7617876     
   56974696.1439396     
   56974696.1439396     
   56974696.1439396     
   56974696.1439396     
   56974696.1439395     
   56974696.1439396     
   56974696.1439395     
   56974696.1439396     
   56974696.1439396     
   56974696.1439396     
   56974696.1439396     
   56974696.1439396     
   56974696.1439396     
   56974696.1439396     
   56974696.1439396     
   56974696.1439396     
   56470681.4498026     
   56470681.4498025     
   56470681.4498025     
   56470681.4498025     
   56470681.4498025     
   56470681.4498025     
   56470681.4498025     
   56470681.4498025     
   56470681.4498025     
   56470681.4498025     
   56470681.4498026     
   56470681.4498026     
   56470681.4498026     
   56470681.4498026     
   56470681.4498026     
   56470681.4498026     
   55966666.6666667     
   55966666.6666667     
   55966666.6666667     
   55966666.6666667     
   55966666.6666667     
   55966666.6666667     
   55966666.6666667     
   55966666.6666667     
   55966666.6666667     
   55966666.6666667     
   55966666.6666667     
   55966666.6666667     
   55966666.6666667     
   55966666.6666667     
   55966666.6666667     
   55966666.6666667     
VECTORS u double 
    0.00000E+00         0.77676E-06         0.00000E+00
    0.00000E+00         0.70815E-06         0.00000E+00
    0.00000E+00         0.64806E-06         0.00000E+00
    0.00000E+00         0.59411E-06         0.00000E+00
    0.00000E+00         0.54308E-06         0.00000E+00
    0.00000E+00         0.49278E-06         0.00000E+00
    0.00000E+00         0.44330E-06         0.00000E+00
    0.00000E+00         0.39447E-06         0.00000E+00
    0.00000E+00         0.34614E-06         0.00000E+00
    0.00000E+00         0.29809E-06         0.00000E+00
    0.00000E+00         0.25010E-06         0.00000E+00
    0.00000E+00         0.20193E-06         0.00000E+00
    0.00000E+00         0.15328E-06         0.00000E+00
    0.00000E+00         0.10380E-06         0.00000E+00
    0.00000E+00         0.53021E-07         0.00000E+00
    0.00000E+00         0.00000E+00         0.00000E+00
    0.68198E-07         0.76442E-06         0.00000E+00
    0.53535E-07         0.70141E-06         0.00000E+00
    0.45510E-07         0.64372E-06         0.00000E+00
    0.39680E-07         0.59118E-06         0.00000E+00
    0.35431E-07         0.54036E-06         0.00000E+00
    0.32054E-07         0.49043E-06         0.00000E+00
    0.29139E-07         0.44126E-06         0.00000E+00
    0.26492E-07         0.39271E-06         0.00000E+00
    0.23986E-07         0.34462E-06         0.00000E+00
    0.21523E-07         0.29679E-06         0.00000E+00
    0.19012E-07         0.24901E-06         0.00000E+00
    0.16359E-07         0.20102E-06         0.00000E+00
    0.13444E-07         0.15254E-06         0.00000E+00
    0.10086E-07         0.10324E-06         0.00000E+00
    0.59570E-08         0.52623E-07         0.00000E+00
    0.00000E+00         0.00000E+00         0.00000E+00
    0.12360E-06         0.73858E-06         0.00000E+00
    0.10159E-06         0.68453E-06         0.00000E+00
    0.86868E-07         0.63239E-06         0.00000E+00
    0.76370E-07         0.58197E-06         0.00000E+00
    0.68353E-07         0.53234E-06         0.00000E+00
    0.61709E-07         0.48348E-06         0.00000E+00
    0.55922E-07         0.43525E-06         0.00000E+00
    0.50651E-07         0.38751E-06         0.00000E+00
    0.45658E-07         0.34014E-06         0.00000E+00
    0.40753E-07         0.29295E-06         0.00000E+00
    0.35763E-07         0.24576E-06         0.00000E+00
    0.30504E-07         0.19833E-06         0.00000E+00
    0.24748E-07         0.15039E-06         0.00000E+00
    0.18178E-07         0.10162E-06         0.00000E+00
    0.10244E-07         0.51619E-07         0.00000E+00
    0.00000E+00         0.00000E+00         0.00000E+00
    0.16810E-06         0.71089E-06         0.00000E+00
    0.14349E-06         0.66295E-06         0.00000E+00
    0.12478E-06         0.61496E-06         0.00000E+00
    0.11041E-06         0.56704E-06         0.00000E+00
    0.98836E-07         0.51949E-06         0.00000E+00
    0.89079E-07         0.47232E-06         0.00000E+00
    0.80493E-07         0.42554E-06         0.00000E+00
    0.72644E-07         0.37908E-06         0.00000E+00
    0.65206E-07         0.33285E-06         0.00000E+00
    0.57910E-07         0.28671E-06         0.00000E+00
    0.50504E-07         0.24048E-06         0.00000E+00
    0.42729E-07         0.19398E-06         0.00000E+00
    0.34280E-07         0.14695E-06         0.00000E+00
    0.24754E-07         0.99135E-07         0.00000E+00
    0.13584E-07         0.50229E-07         0.00000E+00
    0.00000E+00         0.00000E+00         0.00000E+00
    0.20793E-06         0.68343E-06         0.00000E+00
    0.18150E-06         0.63819E-06         0.00000E+00
    0.15960E-06         0.59304E-06         0.00000E+00
    0.14177E-06         0.54782E-06         0.00000E+00
    0.12695E-06         0.50260E-06         0.00000E+00
    0.11424E-06         0.45750E-06         0.00000E+00
    0.10296E-06         0.41254E-06         0.00000E+00
    0.92610E-07         0.36773E-06         0.00000E+00
    0.82799E-07         0.32300E-06         0.00000E+00
    0.73188E-07         0.27826E-06         0.00000E+00
    0.63463E-07         0.23336E-06         0.00000E+00
    0.53306E-07         0.18814E-06         0.00000E+00
    0.42361E-07         0.14240E-06         0.00000E+00
    0.30198E-07         0.95930E-07         0.00000E+00
    0.16288E-07         0.48513E-07         0.00000E+00
    0.00000E+00         0.00000E+00         0.00000E+00
    0.24463E-06         0.65362E-06         0.00000E+00
    0.21574E-06         0.61082E-06         0.00000E+00
    0.19116E-06         0.56808E-06         0.00000E+00
    0.17037E-06         0.52531E-06         0.00000E+00
    0.15264E-06         0.48248E-06         0.00000E+00
    0.13720E-06         0.43960E-06         0.00000E+00
    0.12338E-06         0.39671E-06         0.00000E+00
    0.11065E-06         0.35382E-06         0.00000E+00
    0.98573E-07         0.31090E-06         0.00000E+00
    0.86757E-07         0.26786E-06         0.00000E+00
    0.74843E-07         0.22460E-06         0.00000E+00
    0.62469E-07         0.18100E-06         0.00000E+00
    0.49253E-07         0.13689E-06         0.00000E+00
    0.34765E-07         0.92108E-07         0.00000E+00
    0.18523E-07         0.46515E-07         0.00000E+00
    0.00000E+00         0.00000E+00         0.00000E+00
    0.27778E-06         0.62117E-06         0.00000E+00
    0.24648E-06         0.58086E-06         0.00000E+00
    0.21947E-06         0.54054E-06         0.00000E+00
    0.19615E-06         0.50018E-06         0.00000E+00
    0.17586E-06         0.45972E-06         0.00000E+00
    0.15794E-06         0.41916E-06         0.00000E+00
    0.14178E-06         0.37850E-06         0.00000E+00
    0.12683E-06         0.33773E-06         0.00000E+00
    0.11263E-06         0.29683E-06         0.00000E+00
    0.98756E-07         0.25576E-06         0.00000E+00
    0.84810E-07         0.21442E-06         0.00000E+00
    0.70407E-07         0.17272E-06         0.00000E+00
    0.55152E-07         0.13054E-06         0.00000E+00
    0.38628E-07         0.87755E-07         0.00000E+00
    0.20395E-07         0.44267E-07         0.00000E+00
    0.00000E+00         0.00000E+00         0.00000E+00
    0.30721E-06         0.58642E-06         0.00000E+00
    0.27379E-06         0.54862E-06         0.00000E+00
    0.24463E-06         0.51077E-06         0.00000E+00
    0.21909E-06         0.47284E-06         0.00000E+00
    0.19657E-06         0.43480E-06         0.00000E+00
    0.17646E-06         0.39662E-06         0.00000E+00
    0.15818E-06         0.35829E-06         0.00000E+00
    0.14121E-06         0.31979E-06         0.00000E+00
    0.12506E-06         0.28112E-06         0.00000E+00
    0.10929E-06         0.24221E-06         0.00000E+00
    0.93495E-07         0.20303E-06         0.00000E+00
    0.77264E-07         0.16348E-06         0.00000E+00
    0.60203E-07         0.12348E-06         0.00000E+00
    0.41907E-07         0.82944E-07         0.00000E+00
    0.21973E-07         0.41802E-07         0.00000E+00
    0.00000E+00         0.00000E+00         0.00000E+00
    0.33293E-06         0.54976E-06         0.00000E+00
    0.29772E-06         0.51447E-06         0.00000E+00
    0.26668E-06         0.47912E-06         0.00000E+00
    0.23923E-06         0.44367E-06         0.00000E+00
    0.21478E-06         0.40808E-06         0.00000E+00
    0.19275E-06         0.37234E-06         0.00000E+00
    0.17260E-06         0.33643E-06         0.00000E+00
    0.15381E-06         0.30033E-06         0.00000E+00
    0.13591E-06         0.26401E-06         0.00000E+00
    0.11845E-06         0.22745E-06         0.00000E+00
    0.10100E-06         0.19061E-06         0.00000E+00
    0.83149E-07         0.15342E-06         0.00000E+00
    0.64507E-07         0.11581E-06         0.00000E+00
    0.44685E-07         0.77743E-07         0.00000E+00
    0.23302E-07         0.39150E-07         0.00000E+00
    0.00000E+00         0.00000E+00         0.00000E+00
    0.35498E-06         0.51152E-06         0.00000E+00
    0.31829E-06         0.47874E-06         0.00000E+00
    0.28568E-06         0.44591E-06         0.00000E+00
    0.25660E-06         0.41297E-06         0.00000E+00
    0.23049E-06         0.37988E-06         0.00000E+00
    0.20681E-06         0.34664E-06         0.00000E+00
    0.18504E-06         0.31322E-06         0.00000E+00
    0.16467E-06         0.27960E-06         0.00000E+00
    0.14524E-06         0.24577E-06         0.00000E+00
    0.12629E-06         0.21170E-06         0.00000E+00
    0.10739E-06         0.17735E-06         0.00000E+00
    0.88139E-07         0.14268E-06         0.00000E+00
    0.68140E-07         0.10765E-06         0.00000E+00
    0.47017E-07         0.72216E-07         0.00000E+00
    0.24415E-07         0.36341E-07         0.00000E+00
    0.00000E+00         0.00000E+00         0.00000E+00
    0.37345E-06         0.47201E-06         0.00000E+00
    0.33556E-06         0.44176E-06         0.00000E+00
    0.30166E-06         0.41144E-06         0.00000E+00
    0.27122E-06         0.38103E-06         0.00000E+00
    0.24372E-06         0.35048E-06         0.00000E+00
    0.21866E-06         0.31978E-06         0.00000E+00
    0.19552E-06         0.28891E-06         0.00000E+00
    0.17382E-06         0.25786E-06         0.00000E+00
    0.15308E-06         0.22660E-06         0.00000E+00
    0.13286E-06         0.19512E-06         0.00000E+00
    0.11273E-06         0.16340E-06         0.00000E+00
    0.92292E-07         0.13139E-06         0.00000E+00
    0.71151E-07         0.99076E-07         0.00000E+00
    0.48946E-07         0.66421E-07         0.00000E+00
    0.25332E-07         0.33401E-07         0.00000E+00
    0.00000E+00         0.00000E+00         0.00000E+00
    0.38841E-06         0.43150E-06         0.00000E+00
    0.34958E-06         0.40377E-06         0.00000E+00
    0.31464E-06         0.37599E-06         0.00000E+00
    0.28312E-06         0.34811E-06         0.00000E+00
    0.25450E-06         0.32013E-06         0.00000E+00
    0.22831E-06         0.29201E-06         0.00000E+00
    0.20406E-06         0.26374E-06         0.00000E+00
    0.18126E-06         0.23531E-06         0.00000E+00
    0.15945E-06         0.20670E-06         0.00000E+00
    0.13819E-06         0.17791E-06         0.00000E+00
    0.11706E-06         0.14890E-06         0.00000E+00
    0.95646E-07         0.11966E-06         0.00000E+00
    0.73579E-07         0.90174E-07         0.00000E+00
    0.50496E-07         0.60410E-07         0.00000E+00
    0.26069E-07         0.30356E-07         0.00000E+00
    0.00000E+00         0.00000E+00         0.00000E+00
    0.39993E-06         0.39022E-06         0.00000E+00
    0.36040E-06         0.36502E-06         0.00000E+00
    0.32467E-06         0.33977E-06         0.00000E+00
    0.29231E-06         0.31445E-06         0.00000E+00
    0.26284E-06         0.28904E-06         0.00000E+00
    0.23579E-06         0.26353E-06         0.00000E+00
    0.21067E-06         0.23790E-06         0.00000E+00
    0.18702E-06         0.21214E-06         0.00000E+00
    0.16438E-06         0.18624E-06         0.00000E+00
    0.14231E-06         0.16020E-06         0.00000E+00
    0.12039E-06         0.13399E-06         0.00000E+00
    0.98231E-07         0.10760E-06         0.00000E+00
    0.75446E-07         0.81020E-07         0.00000E+00
    0.51688E-07         0.54233E-07         0.00000E+00
    0.26635E-07         0.27229E-07         0.00000E+00
    0.00000E+00         0.00000E+00         0.00000E+00
    0.40807E-06         0.34840E-06         0.00000E+00
    0.36804E-06         0.32572E-06         0.00000E+00
    0.33178E-06         0.30301E-06         0.00000E+00
    0.29883E-06         0.28025E-06         0.00000E+00
    0.26876E-06         0.25743E-06         0.00000E+00
    0.24109E-06         0.23455E-06         0.00000E+00
    0.21536E-06         0.21158E-06         0.00000E+00
    0.19110E-06         0.18853E-06         0.00000E+00
    0.16787E-06         0.16538E-06         0.00000E+00
    0.14523E-06         0.14213E-06         0.00000E+00
    0.12276E-06         0.11877E-06         0.00000E+00
    0.10006E-06         0.95292E-07         0.00000E+00
    0.76769E-07         0.71683E-07         0.00000E+00
    0.52532E-07         0.47935E-07         0.00000E+00
    0.27037E-07         0.24042E-07         0.00000E+00
    0.00000E+00         0.00000E+00         0.00000E+00
    0.41286E-06         0.30622E-06         0.00000E+00
    0.37255E-06         0.28606E-06         0.00000E+00
    0.33597E-06         0.26589E-06         0.00000E+00
    0.30268E-06         0.24570E-06         0.00000E+00
    0.27225E-06         0.22548E-06         0.00000E+00
    0.24423E-06         0.20523E-06         0.00000E+00
    0.21814E-06         0.18495E-06         0.00000E+00
    0.19353E-06         0.16462E-06         0.00000E+00
    0.16995E-06         0.14425E-06         0.00000E+00
    0.14697E-06         0.12384E-06         0.00000E+00
    0.12417E-06         0.10336E-06         0.00000E+00
    0.10116E-06         0.82827E-07         0.00000E+00
    0.77560E-07         0.62228E-07         0.00000E+00
    0.53037E-07         0.41559E-07         0.00000E+00
    0.27277E-07         0.20817E-07         0.00000E+00
    0.00000E+00         0.00000E+00         0.00000E+00
    0.41435E-06         0.26386E-06         0.00000E+00
    0.37394E-06         0.24622E-06         0.00000E+00
    0.33726E-06         0.22860E-06         0.00000E+00
    0.30387E-06         0.21097E-06         0.00000E+00
    0.27334E-06         0.19336E-06         0.00000E+00
    0.24521E-06         0.17576E-06         0.00000E+00
    0.21902E-06         0.15817E-06         0.00000E+00
    0.19431E-06         0.14058E-06         0.00000E+00
    0.17062E-06         0.12300E-06         0.00000E+00
    0.14754E-06         0.10543E-06         0.00000E+00
    0.12463E-06         0.87857E-07         0.00000E+00
    0.10152E-06         0.70287E-07         0.00000E+00
    0.77824E-07         0.52717E-07         0.00000E+00
    0.53207E-07         0.35146E-07         0.00000E+00
    0.27358E-07         0.17574E-07         0.00000E+00
    0.00000E+00         0.00000E+00         0.00000E+00
    0.41252E-06         0.22150E-06         0.00000E+00
    0.37221E-06         0.20639E-06         0.00000E+00
    0.33565E-06         0.19130E-06         0.00000E+00
    0.30240E-06         0.17625E-06         0.00000E+00
    0.27202E-06         0.16124E-06         0.00000E+00
    0.24404E-06         0.14629E-06         0.00000E+00
    0.21800E-06         0.13139E-06         0.00000E+00
    0.19343E-06         0.11655E-06         0.00000E+00
    0.16989E-06         0.10176E-06         0.00000E+00
    0.14693E-06         0.87029E-07         0.00000E+00
    0.12415E-06         0.72360E-07         0.00000E+00
    0.10115E-06         0.57753E-07         0.00000E+00
    0.77562E-07         0.43211E-07         0.00000E+00
    0.53043E-07         0.28736E-07         0.00000E+00
    0.27282E-07         0.14332E-07         0.00000E+00
    0.00000E+00         0.00000E+00         0.00000E+00
    0.40736E-06         0.17932E-06         0.00000E+00
    0.36736E-06         0.16673E-06         0.00000E+00
    0.33114E-06         0.15419E-06         0.00000E+00
    0.29827E-06         0.14170E-06         0.00000E+00
    0.26829E-06         0.12930E-06         0.00000E+00
    0.24072E-06         0.11699E-06         0.00000E+00
    0.21508E-06         0.10477E-06         0.00000E+00
    0.19090E-06         0.92662E-07         0.00000E+00
    0.16774E-06         0.80654E-07         0.00000E+00
    0.14515E-06         0.68755E-07         0.00000E+00
    0.12272E-06         0.56970E-07         0.00000E+00
    0.10005E-06         0.45306E-07         0.00000E+00
    0.76776E-07         0.33770E-07         0.00000E+00
    0.52545E-07         0.22371E-07         0.00000E+00
    0.27047E-07         0.11113E-07         0.00000E+00
    0.00000E+00         0.00000E+00         0.00000E+00
    0.39884E-06         0.13749E-06         0.00000E+00
    0.35934E-06         0.12743E-06         0.00000E+00
    0.32371E-06         0.11743E-06         0.00000E+00
    0.29147E-06         0.10751E-06         0.00000E+00
    0.26214E-06         0.97705E-07         0.00000E+00
    0.23523E-06         0.88027E-07         0.00000E+00
    0.21025E-06         0.78485E-07         0.00000E+00
    0.18672E-06         0.69084E-07         0.00000E+00
    0.16418E-06         0.59828E-07         0.00000E+00
    0.14220E-06         0.50727E-07         0.00000E+00
    0.12034E-06         0.41790E-07         0.00000E+00
    0.98219E-07         0.33029E-07         0.00000E+00
    0.75458E-07         0.24458E-07         0.00000E+00
    0.51709E-07         0.16090E-07         0.00000E+00
    0.26652E-07         0.79348E-08         0.00000E+00
    0.00000E+00         0.00000E+00         0.00000E+00
    0.38691E-06         0.96228E-07         0.00000E+00
    0.34814E-06         0.88692E-07         0.00000E+00
    0.31333E-06         0.81223E-07         0.00000E+00
    0.28198E-06         0.73866E-07         0.00000E+00
    0.25357E-06         0.66650E-07         0.00000E+00
    0.22759E-06         0.59591E-07         0.00000E+00
    0.20352E-06         0.52696E-07         0.00000E+00
    0.18089E-06         0.45973E-07         0.00000E+00
    0.15921E-06         0.39429E-07         0.00000E+00
    0.13806E-06         0.33076E-07         0.00000E+00
    0.11700E-06         0.26930E-07         0.00000E+00
    0.95639E-07         0.21011E-07         0.00000E+00
    0.73600E-07         0.15340E-07         0.00000E+00
    0.50527E-07         0.99375E-08         0.00000E+00
    0.26093E-07         0.48205E-08         0.00000E+00
    0.00000E+00         0.00000E+00         0.00000E+00
    0.37150E-06         0.55733E-07         0.00000E+00
    0.33369E-06         0.50721E-07         0.00000E+00
    0.29997E-06         0.45788E-07         0.00000E+00
    0.26979E-06         0.40986E-07         0.00000E+00
    0.24257E-06         0.36345E-07         0.00000E+00
    0.21778E-06         0.31881E-07         0.00000E+00
    0.19488E-06         0.27599E-07         0.00000E+00
    0.17338E-06         0.23507E-07         0.00000E+00
    0.15281E-06         0.19616E-07         0.00000E+00
    0.13271E-06         0.15942E-07         0.00000E+00
    0.11268E-06         0.12509E-07         0.00000E+00
    0.92293E-07         0.93466E-08         0.00000E+00
    0.71185E-07         0.64865E-08         0.00000E+00
    0.48988E-07         0.39597E-08         0.00000E+00
    0.25363E-07         0.17919E-08         0.00000E+00
    0.00000E+00         0.00000E+00         0.00000E+00
    0.35250E-06         0.16254E-07         0.00000E+00
    0.31594E-06         0.13765E-07         0.00000E+00
    0.28360E-06         0.11365E-07         0.00000E+00
    0.25487E-06         0.91091E-08         0.00000E+00
    0.22913E-06         0.70250E-08         0.00000E+00
    0.20580E-06         0.51236E-08         0.00000E+00
    0.18433E-06         0.34088E-08         0.00000E+00
    0.16421E-06         0.18862E-08         0.00000E+00
    0.14496E-06         0.56933E-09         0.00000E+00
    0.12615E-06        -0.51822E-09         0.00000E+00
    0.10735E-06        -0.13422E-08         0.00000E+00
    0.88155E-07        -0.18603E-08         0.00000E+00
    0.68188E-07        -0.20260E-08         0.00000E+00
    0.47073E-07        -0.17942E-08         0.00000E+00
    0.24454E-07        -0.11272E-08         0.00000E+00
    0.00000E+00         0.00000E+00         0.00000E+00
    0.32983E-06        -0.21932E-07         0.00000E+00
    0.29482E-06        -0.21897E-07         0.00000E+00
    0.26418E-06        -0.21768E-07         0.00000E+00
    0.23721E-06        -0.21490E-07         0.00000E+00
    0.21324E-06        -0.21042E-07         0.00000E+00
    0.19164E-06        -0.20423E-07         0.00000E+00
    0.17184E-06        -0.19633E-07         0.00000E+00
    0.15333E-06        -0.18669E-07         0.00000E+00
    0.13564E-06        -0.17513E-07         0.00000E+00
    0.11832E-06        -0.16133E-07         0.00000E+00
    0.10097E-06        -0.14481E-07         0.00000E+00
    0.83183E-07        -0.12497E-07         0.00000E+00
    0.64572E-07        -0.10115E-07         0.00000E+00
    0.44752E-07        -0.72712E-08         0.00000E+00
    0.23348E-07        -0.39118E-08         0.00000E+00
    0.00000E+00         0.00000E+00         0.00000E+00
    0.30335E-06        -0.58499E-07         0.00000E+00
    0.27025E-06        -0.55943E-07         0.00000E+00
    0.24167E-06        -0.53290E-07         0.00000E+00
    0.21680E-06        -0.50494E-07         0.00000E+00
    0.19490E-06        -0.47548E-07         0.00000E+00
    0.17531E-06        -0.44463E-07         0.00000E+00
    0.15743E-06        -0.41251E-07         0.00000E+00
    0.14075E-06        -0.37908E-07         0.00000E+00
    0.12481E-06        -0.34410E-07         0.00000E+00
    0.10919E-06        -0.30712E-07         0.00000E+00
    0.93491E-07        -0.26749E-07         0.00000E+00
    0.77318E-07        -0.22438E-07         0.00000E+00
    0.60282E-07        -0.17690E-07         0.00000E+00
    0.41986E-07        -0.12414E-07         0.00000E+00
    0.22025E-07        -0.65353E-08         0.00000E+00
    0.00000E+00         0.00000E+00         0.00000E+00
    0.27294E-06        -0.93067E-07         0.00000E+00
    0.24217E-06        -0.87990E-07         0.00000E+00
    0.21604E-06        -0.82820E-07         0.00000E+00
    0.19364E-06        -0.77528E-07         0.00000E+00
    0.17413E-06        -0.72132E-07         0.00000E+00
    0.15680E-06        -0.66661E-07         0.00000E+00
    0.14107E-06        -0.61135E-07         0.00000E+00
    0.12642E-06        -0.55551E-07         0.00000E+00
    0.11243E-06        -0.49876E-07         0.00000E+00
    0.98690E-07        -0.44045E-07         0.00000E+00
    0.84832E-07        -0.37973E-07         0.00000E+00
    0.70479E-07        -0.31550E-07         0.00000E+00
    0.55244E-07        -0.24654E-07         0.00000E+00
    0.38714E-07        -0.17163E-07         0.00000E+00
    0.20451E-07        -0.89698E-08         0.00000E+00
    0.00000E+00         0.00000E+00         0.00000E+00
    0.23845E-06        -0.12518E-06         0.00000E+00
    0.21051E-06        -0.11758E-06         0.00000E+00
    0.18731E-06        -0.10991E-06         0.00000E+00
    0.16776E-06        -0.10215E-06         0.00000E+00
    0.15095E-06        -0.94377E-07         0.00000E+00
    0.13614E-06        -0.86630E-07         0.00000E+00
    0.12275E-06        -0.78940E-07         0.00000E+00
    0.11031E-06        -0.71295E-07         0.00000E+00
    0.98421E-07        -0.63645E-07         0.00000E+00
    0.86727E-07        -0.55908E-07         0.00000E+00
    0.74887E-07        -0.47968E-07         0.00000E+00
    0.62553E-07        -0.39685E-07         0.00000E+00
    0.49350E-07        -0.30901E-07         0.00000E+00
    0.34853E-07        -0.21451E-07         0.00000E+00
    0.18579E-07        -0.11187E-07         0.00000E+00
    0.00000E+00         0.00000E+00         0.00000E+00
    0.19974E-06        -0.15428E-06         0.00000E+00
    0.17523E-06        -0.14416E-06         0.00000E+00
    0.15549E-06        -0.13400E-06         0.00000E+00
    0.13920E-06        -0.12384E-06         0.00000E+00
    0.12539E-06        -0.11380E-06         0.00000E+00
    0.11332E-06        -0.10394E-06         0.00000E+00
    0.10244E-06        -0.94286E-07         0.00000E+00
    0.92349E-07        -0.84812E-07         0.00000E+00
    0.82699E-07        -0.75441E-07         0.00000E+00
    0.73187E-07        -0.66064E-07         0.00000E+00
    0.63521E-07        -0.56538E-07         0.00000E+00
    0.53394E-07        -0.46689E-07         0.00000E+00
    0.42455E-07        -0.36318E-07         0.00000E+00
    0.30281E-07        -0.25210E-07         0.00000E+00
    0.16340E-07        -0.13155E-07         0.00000E+00
    0.00000E+00         0.00000E+00         0.00000E+00
    0.15664E-06        -0.17966E-06         0.00000E+00
    0.13634E-06        -0.16704E-06         0.00000E+00
    0.12066E-06        -0.15442E-06         0.00000E+00
    0.10807E-06        -0.14197E-06         0.00000E+00
    0.97514E-07        -0.12985E-06         0.00000E+00
    0.88343E-07        -0.11812E-06         0.00000E+00
    0.80104E-07        -0.10678E-06         0.00000E+00
    0.72462E-07        -0.95773E-07         0.00000E+00
    0.65150E-07        -0.84985E-07         0.00000E+00
    0.57927E-07        -0.74279E-07         0.00000E+00
    0.50564E-07        -0.63483E-07         0.00000E+00
    0.42809E-07        -0.52396E-07         0.00000E+00
    0.34363E-07        -0.40780E-07         0.00000E+00
    0.24825E-07        -0.28358E-07         0.00000E+00
    0.13629E-07        -0.14844E-07         0.00000E+00
    0.00000E+00         0.00000E+00         0.00000E+00
    0.10900E-06        -0.20040E-06         0.00000E+00
    0.93933E-07        -0.18528E-06         0.00000E+00
    0.83010E-07        -0.17031E-06         0.00000E+00
    0.74451E-07        -0.15580E-06         0.00000E+00
    0.67343E-07        -0.14192E-06         0.00000E+00
    0.61187E-07        -0.12870E-06         0.00000E+00
    0.55663E-07        -0.11605E-06         0.00000E+00
    0.50539E-07        -0.10387E-06         0.00000E+00
    0.45631E-07        -0.92020E-07         0.00000E+00
    0.40776E-07        -0.80333E-07         0.00000E+00
    0.35813E-07        -0.68614E-07         0.00000E+00
    0.30565E-07        -0.56639E-07         0.00000E+00
    0.24810E-07        -0.44142E-07         0.00000E+00
    0.18230E-07        -0.30800E-07         0.00000E+00
    0.10276E-07        -0.16213E-07         0.00000E+00
    0.00000E+00         0.00000E+00         0.00000E+00
    0.56683E-07        -0.21512E-06         0.00000E+00
    0.48310E-07        -0.19755E-06         0.00000E+00
    0.42749E-07        -0.18057E-06         0.00000E+00
    0.38434E-07        -0.16453E-06         0.00000E+00
    0.34865E-07        -0.14946E-06         0.00000E+00
    0.31778E-07        -0.13524E-06         0.00000E+00
    0.29009E-07        -0.12176E-06         0.00000E+00
    0.26440E-07        -0.10884E-06         0.00000E+00
    0.23977E-07        -0.96335E-07         0.00000E+00
    0.21538E-07        -0.84047E-07         0.00000E+00
    0.19040E-07        -0.71768E-07         0.00000E+00
    0.16392E-07        -0.59262E-07         0.00000E+00
    0.13476E-07        -0.46250E-07         0.00000E+00
    0.10113E-07        -0.32387E-07         0.00000E+00
    0.59739E-08        -0.17204E-07         0.00000E+00
    0.00000E+00         0.00000E+00         0.00000E+00
    0.00000E+00        -0.22119E-06         0.00000E+00
    0.00000E+00        -0.20200E-06         0.00000E+00
    0.00000E+00        -0.18414E-06         0.00000E+00
    0.00000E+00        -0.16753E-06         0.00000E+00
    0.00000E+00        -0.15203E-06         0.00000E+00
    0.00000E+00        -0.13746E-06         0.00000E+00
    0.00000E+00        -0.12369E-06         0.00000E+00
    0.00000E+00        -0.11052E-06         0.00000E+00
    0.00000E+00        -0.97790E-07         0.00000E+00
    0.00000E+00        -0.85299E-07         0.00000E+00
    0.00000E+00        -0.72833E-07         0.00000E+00
    0.00000E+00        -0.60151E-07         0.00000E+00
    0.00000E+00        -0.46971E-07         0.00000E+00
    0.00000E+00        -0.32943E-07         0.00000E+00
    0.00000E+00        -0.17597E-07         0.00000E+00
    0.00000E+00         0.00000E+00         0.00000E+00
CELL_DATA        450
VECTORS vDarcy double 
    0.34700E-05         0.80148E-20         0.00000E+00
    0.34700E-05        -0.48089E-19         0.00000E+00
    0.34700E-05        -0.38471E-18         0.00000E+00
    0.34700E-05        -0.22442E-18         0.00000E+00
    0.34700E-05        -0.54501E-18         0.00000E+00
    0.34700E-05        -0.30456E-18         0.00000E+00
    0.34700E-05        -0.39273E-18         0.00000E+00
    0.34700E-05        -0.16030E-18         0.00000E+00
    0.34700E-05        -0.21640E-18         0.00000E+00
    0.34700E-05        -0.15228E-18         0.00000E+00
    0.34700E-05        -0.16831E-18         0.00000E+00
    0.34700E-05        -0.16831E-18         0.00000E+00
    0.34700E-05        -0.25647E-18         0.00000E+00
    0.34700E-05        -0.48089E-19         0.00000E+00
    0.34700E-05         0.56104E-19         0.00000E+00
    0.34700E-05         0.68126E-19         0.00000E+00
    0.34700E-05        -0.16030E-18         0.00000E+00
    0.34700E-05        -0.34063E-18         0.00000E+00
    0.34700E-05        -0.38471E-18         0.00000E+00
    0.34700E-05        -0.44082E-18         0.00000E+00
    0.34700E-05        -0.36868E-18         0.00000E+00
    0.34700E-05        -0.39273E-18         0.00000E+00
    0.34700E-05        -0.12824E-18         0.00000E+00
    0.34700E-05        -0.13625E-18         0.00000E+00
    0.34700E-05        -0.16831E-18         0.00000E+00
    0.34700E-05        -0.64119E-19         0.00000E+00
    0.34700E-05        -0.12022E-18         0.00000E+00
    0.34700E-05        -0.24044E-18         0.00000E+00
    0.34700E-05        -0.19236E-18         0.00000E+00
    0.34700E-05        -0.80148E-20         0.00000E+00
    0.34700E-05         0.12824E-18         0.00000E+00
    0.34700E-05        -0.25247E-18         0.00000E+00
    0.34700E-05        -0.38471E-18         0.00000E+00
    0.34700E-05        -0.52096E-18         0.00000E+00
    0.34700E-05        -0.29655E-18         0.00000E+00
    0.34700E-05        -0.28453E-18         0.00000E+00
    0.34700E-05        -0.26449E-18         0.00000E+00
    0.34700E-05        -0.32861E-18         0.00000E+00
    0.34700E-05        -0.16030E-19         0.00000E+00
    0.34700E-05        -0.40074E-19         0.00000E+00
    0.34700E-05         0.00000E+00         0.00000E+00
    0.34700E-05        -0.13625E-18         0.00000E+00
    0.34700E-05        -0.18434E-18         0.00000E+00
    0.34700E-05        -0.32861E-18         0.00000E+00
    0.34700E-05         0.48089E-19         0.00000E+00
    0.34700E-05         0.11621E-18         0.00000E+00
    0.34700E-05        -0.18434E-18         0.00000E+00
    0.34700E-05        -0.22842E-18         0.00000E+00
    0.34700E-05        -0.44082E-18         0.00000E+00
    0.34700E-05        -0.41677E-18         0.00000E+00
    0.34700E-05        -0.24044E-18         0.00000E+00
    0.34700E-05        -0.33662E-18         0.00000E+00
    0.34700E-05        -0.28853E-18         0.00000E+00
    0.34700E-05         0.11221E-18         0.00000E+00
    0.34700E-05         0.00000E+00         0.00000E+00
    0.34700E-05        -0.40074E-19         0.00000E+00
    0.34700E-05         0.80148E-20         0.00000E+00
    0.34700E-05        -0.25647E-18         0.00000E+00
    0.34700E-05        -0.35265E-18         0.00000E+00
    0.34700E-05         0.68126E-19         0.00000E+00
    0.34700E-05         0.56104E-19         0.00000E+00
    0.34700E-05         0.16030E-19         0.00000E+00
    0.34700E-05        -0.33662E-18         0.00000E+00
    0.34700E-05        -0.18434E-18         0.00000E+00
    0.34700E-05        -0.41677E-18         0.00000E+00
    0.34700E-05        -0.41276E-18         0.00000E+00
    0.34700E-05        -0.27250E-18         0.00000E+00
    0.34700E-05        -0.13625E-18         0.00000E+00
    0.34700E-05         0.11221E-18         0.00000E+00
    0.34700E-05         0.00000E+00         0.00000E+00
    0.34700E-05        -0.11221E-18         0.00000E+00
    0.34700E-05        -0.12824E-18         0.00000E+00
    0.34700E-05        -0.20037E-18         0.00000E+00
    0.34700E-05        -0.20839E-18         0.00000E+00
    0.34700E-05         0.20037E-19         0.00000E+00
    0.34700E-05         0.72133E-19         0.00000E+00
    0.34700E-05         0.24044E-19         0.00000E+00
    0.34700E-05        -0.44883E-18         0.00000E+00
    0.34700E-05        -0.16831E-18         0.00000E+00
    0.34700E-05        -0.25647E-18         0.00000E+00
    0.34700E-05        -0.35265E-18         0.00000E+00
    0.34700E-05        -0.18434E-18         0.00000E+00
    0.34700E-05        -0.16030E-18         0.00000E+00
    0.34700E-05         0.12824E-18         0.00000E+00
    0.34700E-05         0.36067E-19         0.00000E+00
    0.34700E-05        -0.80148E-19         0.00000E+00
    0.34700E-05        -0.32059E-18         0.00000E+00
    0.34700E-05        -0.18434E-18         0.00000E+00
    0.34700E-05        -0.96178E-19         0.00000E+00
    0.34700E-05        -0.20037E-19         0.00000E+00
    0.34700E-05         0.96178E-19         0.00000E+00
    0.34700E-05        -0.29655E-18         0.00000E+00
    0.34700E-05        -0.20037E-18         0.00000E+00
    0.34700E-05        -0.35265E-18         0.00000E+00
    0.34700E-05        -0.13625E-18         0.00000E+00
    0.34700E-05        -0.32861E-18         0.00000E+00
    0.34700E-05        -0.12022E-18         0.00000E+00
    0.34700E-05        -0.96178E-19         0.00000E+00
    0.34700E-05         0.72133E-19         0.00000E+00
    0.34700E-05         0.12824E-18         0.00000E+00
    0.34700E-05        -0.88163E-19         0.00000E+00
    0.34700E-05        -0.16030E-18         0.00000E+00
    0.34700E-05        -0.24846E-18         0.00000E+00
    0.34700E-05        -0.16831E-18         0.00000E+00
    0.34700E-05         0.32059E-19         0.00000E+00
    0.34700E-05         0.32059E-19         0.00000E+00
    0.34700E-05        -0.30456E-18         0.00000E+00
    0.34700E-05        -0.21640E-18         0.00000E+00
    0.34700E-05        -0.36868E-18         0.00000E+00
    0.34700E-05        -0.17633E-18         0.00000E+00
    0.34700E-05        -0.20037E-18         0.00000E+00
    0.34700E-05        -0.21640E-18         0.00000E+00
    0.34700E-05         0.23243E-18         0.00000E+00
    0.34700E-05         0.15228E-18         0.00000E+00
    0.34700E-05         0.14427E-18         0.00000E+00
    0.34700E-05        -0.24044E-18         0.00000E+00
    0.34700E-05        -0.32059E-19         0.00000E+00
    0.34700E-05        -0.21640E-18         0.00000E+00
    0.34700E-05        -0.23243E-18         0.00000E+00
    0.34700E-05        -0.64119E-19         0.00000E+00
    0.34700E-05        -0.44082E-19         0.00000E+00
    0.34700E-05        -0.80148E-20         0.00000E+00
    0.34700E-05        -0.37670E-18         0.00000E+00
    0.34700E-05        -0.39273E-18         0.00000E+00
    0.34700E-05        -0.10419E-18         0.00000E+00
    0.34700E-05        -0.14026E-18         0.00000E+00
    0.34700E-05        -0.21640E-18         0.00000E+00
    0.34700E-05         0.24846E-18         0.00000E+00
    0.34700E-05         0.24846E-18         0.00000E+00
    0.34700E-05         0.64119E-19         0.00000E+00
    0.34700E-05        -0.48089E-19         0.00000E+00
    0.34700E-05        -0.15228E-18         0.00000E+00
    0.34700E-05        -0.88163E-19         0.00000E+00
    0.34700E-05        -0.26449E-18         0.00000E+00
    0.34700E-05        -0.64119E-19         0.00000E+00
    0.34700E-05         0.76141E-19         0.00000E+00
    0.34700E-05         0.20037E-19         0.00000E+00
    0.34700E-05        -0.26048E-18         0.00000E+00
    0.34700E-05        -0.29655E-18         0.00000E+00
    0.34700E-05        -0.64119E-19         0.00000E+00
    0.34700E-05        -0.16030E-18         0.00000E+00
    0.34700E-05        -0.96178E-19         0.00000E+00
    0.34700E-05         0.18033E-18         0.00000E+00
    0.34700E-05         0.20839E-18         0.00000E+00
    0.34700E-05         0.40074E-19         0.00000E+00
    0.34700E-05         0.40074E-19         0.00000E+00
    0.34700E-05        -0.12824E-18         0.00000E+00
    0.34700E-05        -0.36067E-19         0.00000E+00
    0.34700E-05        -0.16831E-18         0.00000E+00
    0.34700E-05        -0.72133E-19         0.00000E+00
    0.34700E-05         0.88163E-19         0.00000E+00
    0.34700E-05         0.11621E-18         0.00000E+00
    0.34700E-05        -0.13224E-18         0.00000E+00
    0.34700E-05        -0.18033E-18         0.00000E+00
    0.34700E-05         0.28052E-19         0.00000E+00
    0.34700E-05        -0.16831E-18         0.00000E+00
    0.34700E-05         0.80148E-19         0.00000E+00
    0.34700E-05         0.88163E-19         0.00000E+00
    0.34700E-05         0.12022E-18         0.00000E+00
    0.34700E-05        -0.88163E-19         0.00000E+00
    0.34700E-05         0.40074E-20         0.00000E+00
    0.34700E-05         0.44082E-19         0.00000E+00
    0.34700E-05        -0.40074E-19         0.00000E+00
    0.34700E-05        -0.72133E-19         0.00000E+00
    0.34700E-05         0.56104E-19         0.00000E+00
    0.34700E-05         0.16030E-18         0.00000E+00
    0.34700E-05         0.17633E-18         0.00000E+00
    0.34700E-05        -0.80148E-19         0.00000E+00
    0.34700E-05         0.80148E-20         0.00000E+00
    0.34700E-05         0.40074E-19         0.00000E+00
    0.34700E-05         0.76141E-19         0.00000E+00
    0.34700E-05         0.24044E-19         0.00000E+00
    0.34700E-05        -0.80148E-19         0.00000E+00
    0.34700E-05         0.96178E-19         0.00000E+00
    0.34700E-05        -0.11221E-18         0.00000E+00
    0.34700E-05        -0.48089E-19         0.00000E+00
    0.34700E-05        -0.56104E-19         0.00000E+00
    0.34700E-05         0.80148E-20         0.00000E+00
    0.34700E-05         0.80148E-19         0.00000E+00
    0.34700E-05         0.72133E-19         0.00000E+00
    0.34700E-05         0.12824E-18         0.00000E+00
    0.34700E-05         0.56104E-19         0.00000E+00
    0.34700E-05        -0.24044E-19         0.00000E+00
    0.34700E-05         0.11221E-18         0.00000E+00
    0.34700E-05         0.12824E-18         0.00000E+00
    0.34700E-05         0.15629E-18         0.00000E+00
    0.34700E-05        -0.10419E-18         0.00000E+00
    0.34700E-05        -0.11621E-18         0.00000E+00
    0.34700E-05         0.25647E-18         0.00000E+00
    0.34700E-05        -0.40074E-19         0.00000E+00
    0.34700E-05        -0.11221E-18         0.00000E+00
    0.34700E-05        -0.12824E-18         0.00000E+00
    0.34700E-05        -0.88163E-19         0.00000E+00
    0.34700E-05         0.36868E-18         0.00000E+00
    0.34700E-05        -0.12022E-18         0.00000E+00
    0.34700E-05         0.60111E-19         0.00000E+00
    0.34700E-05        -0.18835E-18         0.00000E+00
    0.34700E-05         0.32059E-19         0.00000E+00
    0.34700E-05         0.14026E-18         0.00000E+00
    0.34700E-05         0.24044E-18         0.00000E+00
    0.34700E-05         0.24044E-19         0.00000E+00
    0.34700E-05        -0.24044E-19         0.00000E+00
    0.34700E-05        -0.56104E-19         0.00000E+00
    0.34700E-05         0.13224E-18         0.00000E+00
    0.34700E-05        -0.24044E-19         0.00000E+00
    0.34700E-05        -0.80148E-19         0.00000E+00
    0.34700E-05         0.40074E-19         0.00000E+00
    0.34700E-05        -0.12824E-18         0.00000E+00
    0.34700E-05         0.26048E-18         0.00000E+00
    0.34700E-05        -0.88163E-19         0.00000E+00
    0.34700E-05         0.84156E-19         0.00000E+00
    0.34700E-05        -0.13224E-18         0.00000E+00
    0.34700E-05         0.96178E-19         0.00000E+00
    0.34700E-05         0.88163E-19         0.00000E+00
    0.34700E-05         0.64119E-19         0.00000E+00
    0.34700E-05         0.14827E-18         0.00000E+00
    0.34700E-05        -0.88163E-19         0.00000E+00
    0.34700E-05         0.48089E-19         0.00000E+00
    0.34700E-05        -0.40074E-19         0.00000E+00
    0.34700E-05         0.10019E-18         0.00000E+00
    0.34700E-05        -0.24044E-19         0.00000E+00
    0.34700E-05         0.36067E-19         0.00000E+00
    0.34700E-05        -0.20037E-19         0.00000E+00
    0.34700E-05         0.16030E-18         0.00000E+00
    0.34700E-05         0.48089E-19         0.00000E+00
    0.34700E-05        -0.24044E-19         0.00000E+00
    0.34700E-05         0.64119E-19         0.00000E+00
    0.34700E-05         0.26048E-18         0.00000E+00
    0.34700E-05        -0.80148E-19         0.00000E+00
    0.34700E-05         0.00000E+00         0.00000E+00
    0.34700E-05         0.13625E-18         0.00000E+00
    0.34700E-05        -0.10419E-18         0.00000E+00
    0.34700E-05         0.17633E-18         0.00000E+00
    0.34700E-05        -0.72133E-19         0.00000E+00
    0.34700E-05         0.24044E-18         0.00000E+00
    0.34700E-05         0.00000E+00         0.00000E+00
    0.34700E-05         0.80148E-19         0.00000E+00
    0.34700E-05        -0.24044E-19         0.00000E+00
    0.34700E-05         0.17633E-18         0.00000E+00
    0.34700E-05         0.80148E-19         0.00000E+00
    0.34700E-05         0.10019E-18         0.00000E+00
    0.34700E-05         0.60111E-19         0.00000E+00
    0.34700E-05         0.16030E-18         0.00000E+00
    0.34700E-05         0.80148E-19         0.00000E+00
    0.34700E-05         0.40074E-19         0.00000E+00
    0.34700E-05        -0.64119E-19         0.00000E+00
    0.34700E-05        -0.48089E-19         0.00000E+00
    0.34700E-05         0.24044E-19         0.00000E+00
    0.34700E-05         0.48089E-19         0.00000E+00
    0.34700E-05         0.36067E-18         0.00000E+00
    0.34700E-05         0.48089E-19         0.00000E+00
    0.34700E-05         0.64119E-19         0.00000E+00
    0.34700E-05         0.11221E-18         0.00000E+00
    0.34700E-05        -0.80148E-20         0.00000E+00
    0.34700E-05         0.48089E-19         0.00000E+00
    0.34700E-05         0.40074E-19         0.00000E+00
    0.34700E-05         0.40074E-19         0.00000E+00
    0.34700E-05         0.80148E-19         0.00000E+00
    0.34700E-05         0.96178E-19         0.00000E+00
    0.34700E-05         0.28052E-19         0.00000E+00
    0.34700E-05        -0.21640E-18         0.00000E+00
    0.34700E-05        -0.84156E-19         0.00000E+00
    0.34700E-05         0.36067E-19         0.00000E+00
    0.34700E-05         0.21640E-18         0.00000E+00
    0.34700E-05         0.32861E-18         0.00000E+00
    0.34700E-05         0.64119E-19         0.00000E+00
    0.34700E-05         0.40074E-19         0.00000E+00
    0.34700E-05         0.72133E-19         0.00000E+00
    0.34700E-05        -0.56104E-19         0.00000E+00
    0.34700E-05         0.56104E-19         0.00000E+00
    0.34700E-05         0.64119E-19         0.00000E+00
    0.34700E-05         0.24044E-19         0.00000E+00
    0.34700E-05        -0.28052E-19         0.00000E+00
    0.34700E-05         0.80148E-19         0.00000E+00
    0.34700E-05        -0.12022E-18         0.00000E+00
    0.34700E-05        -0.88163E-19         0.00000E+00
    0.34700E-05        -0.80148E-19         0.00000E+00
    0.34700E-05         0.12022E-18         0.00000E+00
    0.34700E-05         0.28853E-18         0.00000E+00
    0.34700E-05         0.20037E-18         0.00000E+00
    0.34700E-05         0.24044E-18         0.00000E+00
    0.34700E-05        -0.80148E-20         0.00000E+00
    0.34700E-05        -0.10419E-18         0.00000E+00
    0.34700E-05         0.13625E-18         0.00000E+00
    0.34700E-05         0.10419E-18         0.00000E+00
    0.34700E-05         0.10419E-18         0.00000E+00
    0.34700E-05         0.36067E-19         0.00000E+00
    0.34700E-05        -0.10419E-18         0.00000E+00
    0.34700E-05         0.32059E-19         0.00000E+00
    0.34700E-05        -0.96178E-19         0.00000E+00
    0.34700E-05        -0.48089E-19         0.00000E+00
    0.34700E-05        -0.24044E-19         0.00000E+00
    0.34700E-05         0.96178E-19         0.00000E+00
    0.34700E-05         0.24044E-18         0.00000E+00
    0.34700E-05         0.88163E-19         0.00000E+00
    0.34700E-05         0.42479E-18         0.00000E+00
    0.34700E-05         0.48089E-19         0.00000E+00
    0.34700E-05        -0.64119E-19         0.00000E+00
    0.34700E-05         0.11221E-18         0.00000E+00
    0.34700E-05         0.48089E-19         0.00000E+00
    0.34700E-05         0.12022E-18         0.00000E+00
    0.34700E-05        -0.12022E-19         0.00000E+00
    0.34700E-05         0.40074E-19         0.00000E+00
    0.34700E-05        -0.11221E-18         0.00000E+00
    0.34700E-05         0.56104E-19         0.00000E+00
    0.34700E-05        -0.32059E-19         0.00000E+00
    0.34700E-05        -0.40074E-19         0.00000E+00
    0.34700E-05         0.80148E-19         0.00000E+00
    0.34700E-05         0.13625E-18         0.00000E+00
    0.34700E-05         0.17633E-18         0.00000E+00
    0.34700E-05         0.16831E-18         0.00000E+00
    0.34700E-05         0.30456E-18         0.00000E+00
    0.34700E-05         0.00000E+00         0.00000E+00
    0.34700E-05        -0.32059E-19         0.00000E+00
    0.34700E-05        -0.48089E-19         0.00000E+00
    0.34700E-05         0.40074E-19         0.00000E+00
    0.34700E-05         0.72133E-19         0.00000E+00
    0.34700E-05         0.80148E-20         0.00000E+00
    0.34700E-05        -0.32059E-19         0.00000E+00
    0.34700E-05        -0.16030E-19         0.00000E+00
    0.34700E-05         0.48089E-19         0.00000E+00
    0.34700E-05         0.12824E-18         0.00000E+00
    0.34700E-05        -0.48089E-19         0.00000E+00
    0.34700E-05         0.14427E-18         0.00000E+00
    0.34700E-05         0.72133E-19         0.00000E+00
    0.34700E-05         0.12022E-18         0.00000E+00
    0.34700E-05         0.36868E-18         0.00000E+00
    0.34700E-05         0.00000E+00         0.00000E+00
    0.34700E-05         0.80148E-20         0.00000E+00
    0.34700E-05        -0.92170E-19         0.00000E+00
    0.34700E-05         0.20037E-19         0.00000E+00
    0.34700E-05        -0.28052E-19         0.00000E+00
    0.34700E-05         0.84156E-19         0.00000E+00
    0.34700E-05        -0.13625E-18         0.00000E+00
    0.34700E-05        -0.32059E-19         0.00000E+00
    0.34700E-05         0.24846E-18         0.00000E+00
    0.34700E-05         0.14427E-18         0.00000E+00
    0.34700E-05        -0.13625E-18         0.00000E+00
    0.34700E-05         0.10820E-18         0.00000E+00
    0.34700E-05         0.40074E-19         0.00000E+00
    0.34700E-05         0.12824E-18         0.00000E+00
    0.34700E-05         0.21640E-18         0.00000E+00
    0.34700E-05         0.12022E-18         0.00000E+00
    0.34700E-05        -0.32059E-19         0.00000E+00
    0.34700E-05         0.28052E-19         0.00000E+00
    0.34700E-05         0.00000E+00         0.00000E+00
    0.34700E-05        -0.32059E-19         0.00000E+00
    0.34700E-05         0.56104E-19         0.00000E+00
    0.34700E-05        -0.13625E-18         0.00000E+00
    0.34700E-05         0.11621E-18         0.00000E+00
    0.34700E-05         0.17633E-18         0.00000E+00
    0.34700E-05         0.12022E-18         0.00000E+00
    0.34700E-05        -0.11221E-18         0.00000E+00
    0.34700E-05         0.22041E-18         0.00000E+00
    0.34700E-05         0.32059E-19         0.00000E+00
    0.34700E-05         0.16030E-19         0.00000E+00
    0.34700E-05         0.11221E-18         0.00000E+00
    0.34700E-05         0.24846E-18         0.00000E+00
    0.34700E-05         0.00000E+00         0.00000E+00
    0.34700E-05        -0.40074E-19         0.00000E+00
    0.34700E-05         0.80148E-19         0.00000E+00
    0.34700E-05        -0.88163E-19         0.00000E+00
    0.34700E-05        -0.14427E-18         0.00000E+00
    0.34700E-05         0.80148E-20         0.00000E+00
    0.34700E-05         0.48089E-19         0.00000E+00
    0.34700E-05         0.68126E-19         0.00000E+00
    0.34700E-05         0.33262E-18         0.00000E+00
    0.34700E-05        -0.10820E-18         0.00000E+00
    0.34700E-05         0.88163E-19         0.00000E+00
    0.34700E-05        -0.12022E-18         0.00000E+00
    0.34700E-05         0.10019E-18         0.00000E+00
    0.34700E-05         0.12423E-18         0.00000E+00
    0.34700E-05         0.27250E-18         0.00000E+00
    0.34700E-05         0.00000E+00         0.00000E+00
    0.34700E-05        -0.22442E-18         0.00000E+00
    0.34700E-05         0.14427E-18         0.00000E+00
    0.34700E-05        -0.64119E-19         0.00000E+00
    0.34700E-05        -0.26449E-18         0.00000E+00
    0.34700E-05         0.16430E-18         0.00000E+00
    0.34700E-05         0.80148E-19         0.00000E+00
    0.34700E-05        -0.28052E-19         0.00000E+00
    0.34700E-05         0.20839E-18         0.00000E+00
    0.34700E-05         0.80148E-20         0.00000E+00
    0.34700E-05        -0.12423E-18         0.00000E+00
    0.34700E-05        -0.80148E-20         0.00000E+00
    0.34700E-05         0.48089E-19         0.00000E+00
    0.34700E-05         0.14026E-18         0.00000E+00
    0.34700E-05         0.13625E-18         0.00000E+00
    0.34700E-05         0.48089E-19         0.00000E+00
    0.34700E-05         0.76141E-19         0.00000E+00
    0.34700E-05         0.64119E-19         0.00000E+00
    0.34700E-05         0.14427E-18         0.00000E+00
    0.34700E-05        -0.28052E-18         0.00000E+00
    0.34700E-05         0.88163E-19         0.00000E+00
    0.34700E-05         0.10820E-18         0.00000E+00
    0.34700E-05        -0.13625E-18         0.00000E+00
    0.34700E-05         0.11221E-18         0.00000E+00
    0.34700E-05         0.64119E-19         0.00000E+00
    0.34700E-05        -0.40074E-20         0.00000E+00
    0.34700E-05         0.48089E-19         0.00000E+00
    0.34700E-05        -0.80148E-20         0.00000E+00
    0.34700E-05         0.17232E-18         0.00000E+00
    0.34700E-05         0.28052E-19         0.00000E+00
    0.34700E-05         0.64119E-19         0.00000E+00
    0.34700E-05         0.17633E-18         0.00000E+00
    0.34700E-05         0.32059E-19         0.00000E+00
    0.34700E-05         0.11221E-18         0.00000E+00
    0.34700E-05        -0.10419E-18         0.00000E+00
    0.34700E-05        -0.21239E-18         0.00000E+00
    0.34700E-05         0.12824E-18         0.00000E+00
    0.34700E-05        -0.12423E-18         0.00000E+00
    0.34700E-05         0.19236E-18         0.00000E+00
    0.34700E-05         0.52096E-19         0.00000E+00
    0.34700E-05        -0.24044E-19         0.00000E+00
    0.34700E-05         0.64119E-19         0.00000E+00
    0.34700E-05         0.80148E-20         0.00000E+00
    0.34700E-05         0.14026E-18         0.00000E+00
    0.34700E-05         0.16030E-19         0.00000E+00
    0.34700E-05        -0.40074E-19         0.00000E+00
    0.34700E-05         0.96178E-19         0.00000E+00
    0.34700E-05        -0.40074E-19         0.00000E+00
    0.34700E-05        -0.40074E-19         0.00000E+00
    0.34700E-05        -0.10419E-18         0.00000E+00
    0.34700E-05        -0.88163E-19         0.00000E+00
    0.34700E-05         0.13625E-18         0.00000E+00
    0.34700E-05        -0.10419E-18         0.00000E+00
    0.34700E-05         0.96178E-19         0.00000E+00
    0.34700E-05         0.96178E-19         0.00000E+00
    0.34700E-05        -0.60111E-19         0.00000E+00
    0.34700E-05         0.22041E-18         0.00000E+00
    0.34700E-05        -0.40074E-20         0.00000E+00
    0.34700E-05         0.48089E-19         0.00000E+00
    0.34700E-05         0.40074E-19         0.00000E+00
    0.34700E-05        -0.32059E-19         0.00000E+00
    0.34700E-05         0.76141E-19         0.00000E+00
    0.34700E-05        -0.64119E-19         0.00000E+00
    0.34700E-05        -0.80148E-20         0.00000E+00
    0.34700E-05        -0.60111E-19         0.00000E+00
    0.34700E-05         0.48089E-19         0.00000E+00
    0.34700E-05         0.32059E-19         0.00000E+00
    0.34700E-05        -0.32059E-19         0.00000E+00
    0.34700E-05        -0.32059E-19         0.00000E+00
    0.34700E-05         0.10019E-18         0.00000E+00
    0.34700E-05         0.80148E-20         0.00000E+00
    0.34700E-05         0.10419E-18         0.00000E+00
    0.34700E-05         0.24044E-19         0.00000E+00
    0.34700E-05        -0.76141E-19         0.00000E+00
    0.34700E-05         0.40074E-19         0.00000E+00
    0.34700E-05         0.00000E+00         0.00000E+00
    0.34700E-05         0.32059E-19         0.00000E+00
POINT_DATA        496
VECTORS vDarcyNodal double 
    0.34700E-05         0.00000E+00         0.00000E+00
    0.34700E-05         0.00000E+00         0.00000E+00
    0.34700E-05        -0.19236E-18         0.00000E+00
    0.34700E-05        -0.28853E-18         0.00000E+00
    0.34700E-05        -0.35265E-18         0.00000E+00
    0.34700E-05        -0.51295E-18         0.00000E+00
    0.34700E-05        -0.35265E-18         0.00000E+00
    0.34700E-05        -0.25647E-18         0.00000E+00
    0.34700E-05        -0.25647E-18         0.00000E+00
    0.34700E-05        -0.12824E-18         0.00000E+00
    0.34700E-05        -0.16030E-18         0.00000E+00
    0.34700E-05        -0.25647E-18         0.00000E+00
    0.34700E-05        -0.22442E-18         0.00000E+00
    0.34700E-05        -0.96178E-19         0.00000E+00
    0.34700E-05         0.96178E-19         0.00000E+00
    0.34700E-05         0.19236E-18         0.00000E+00
    0.34700E-05         0.10793E-19         0.00000E+00
    0.34700E-05        -0.64119E-19         0.00000E+00
    0.34700E-05        -0.27250E-18         0.00000E+00
    0.34700E-05        -0.28853E-18         0.00000E+00
    0.34700E-05        -0.39011E-18         0.00000E+00
    0.34700E-05        -0.31520E-18         0.00000E+00
    0.34700E-05        -0.37932E-18         0.00000E+00
    0.34700E-05        -0.35265E-18         0.00000E+00
    0.34700E-05        -0.96178E-19         0.00000E+00
    0.34700E-05        -0.22442E-18         0.00000E+00
    0.34700E-05        -0.19236E-18         0.00000E+00
    0.34700E-05        -0.12824E-18         0.00000E+00
    0.34700E-05        -0.22442E-18         0.00000E+00
    0.34700E-05        -0.22442E-18         0.00000E+00
    0.34700E-05        -0.69515E-19         0.00000E+00
    0.34700E-05        -0.10793E-19         0.00000E+00
    0.34700E-05         0.11715E-18         0.00000E+00
    0.34700E-05        -0.64119E-19         0.00000E+00
    0.34700E-05        -0.25647E-18         0.00000E+00
    0.34700E-05        -0.44883E-18         0.00000E+00
    0.34700E-05        -0.41123E-18         0.00000E+00
    0.34700E-05        -0.35820E-18         0.00000E+00
    0.34700E-05        -0.31011E-18         0.00000E+00
    0.34700E-05        -0.22442E-18         0.00000E+00
    0.34700E-05        -0.19236E-18         0.00000E+00
    0.34700E-05        -0.96178E-19         0.00000E+00
    0.34700E-05        -0.64119E-19         0.00000E+00
    0.34700E-05        -0.96178E-19         0.00000E+00
    0.34700E-05        -0.12824E-18         0.00000E+00
    0.34700E-05        -0.16030E-18         0.00000E+00
    0.34700E-05        -0.12269E-18         0.00000E+00
    0.34700E-05        -0.20969E-19         0.00000E+00
    0.34700E-05         0.64119E-19         0.00000E+00
    0.34700E-05        -0.64119E-19         0.00000E+00
    0.34700E-05        -0.28853E-18         0.00000E+00
    0.34700E-05        -0.38471E-18         0.00000E+00
    0.34700E-05        -0.39489E-18         0.00000E+00
    0.34700E-05        -0.25647E-18         0.00000E+00
    0.34700E-05        -0.27836E-18         0.00000E+00
    0.34700E-05        -0.41677E-18         0.00000E+00
    0.34700E-05        -0.16615E-18         0.00000E+00
    0.34700E-05         0.32059E-19         0.00000E+00
    0.34700E-05         0.58532E-20         0.00000E+00
    0.34700E-05        -0.64119E-19         0.00000E+00
    0.34700E-05        -0.19236E-18         0.00000E+00
    0.34700E-05        -0.32059E-18         0.00000E+00
    0.34700E-05        -0.16615E-18         0.00000E+00
    0.34700E-05         0.84471E-19         0.00000E+00
    0.34700E-05         0.10359E-18         0.00000E+00
    0.34700E-05         0.00000E+00         0.00000E+00
    0.34700E-05        -0.96178E-19         0.00000E+00
    0.34700E-05        -0.22442E-18         0.00000E+00
    0.34700E-05        -0.38842E-18         0.00000E+00
    0.34700E-05        -0.38100E-18         0.00000E+00
    0.34700E-05        -0.34895E-18         0.00000E+00
    0.34700E-05        -0.25647E-18         0.00000E+00
    0.34700E-05        -0.64119E-19         0.00000E+00
    0.34700E-05         0.32059E-19         0.00000E+00
    0.34700E-05        -0.32059E-19         0.00000E+00
    0.34700E-05         0.00000E+00         0.00000E+00
    0.34700E-05        -0.12824E-18         0.00000E+00
    0.34700E-05        -0.32059E-18         0.00000E+00
    0.34700E-05        -0.11591E-18         0.00000E+00
    0.34700E-05         0.56705E-19         0.00000E+00
    0.34700E-05         0.12824E-18         0.00000E+00
    0.34700E-05         0.93087E-19         0.00000E+00
    0.34700E-05        -0.20839E-18         0.00000E+00
    0.34700E-05        -0.25647E-18         0.00000E+00
    0.34700E-05        -0.22442E-18         0.00000E+00
    0.34700E-05        -0.36559E-18         0.00000E+00
    0.34700E-05        -0.32059E-18         0.00000E+00
    0.34700E-05        -0.19236E-18         0.00000E+00
    0.34700E-05         0.32059E-19         0.00000E+00
    0.34700E-05         0.64119E-19         0.00000E+00
    0.34700E-05        -0.32059E-19         0.00000E+00
    0.34700E-05        -0.19236E-18         0.00000E+00
    0.34700E-05        -0.19236E-18         0.00000E+00
    0.34700E-05        -0.64119E-19         0.00000E+00
    0.34700E-05        -0.96178E-19         0.00000E+00
    0.34700E-05        -0.12824E-18         0.00000E+00
    0.34700E-05         0.64119E-19         0.00000E+00
    0.34700E-05         0.00000E+00         0.00000E+00
    0.34700E-05        -0.19236E-18         0.00000E+00
    0.34700E-05        -0.32059E-18         0.00000E+00
    0.34700E-05        -0.22689E-18         0.00000E+00
    0.34700E-05        -0.25647E-18         0.00000E+00
    0.34700E-05        -0.25400E-18         0.00000E+00
    0.34700E-05        -0.16030E-18         0.00000E+00
    0.34700E-05        -0.29585E-19         0.00000E+00
    0.34700E-05         0.96178E-19         0.00000E+00
    0.34700E-05         0.45615E-19         0.00000E+00
    0.34700E-05        -0.12824E-18         0.00000E+00
    0.34700E-05        -0.25647E-18         0.00000E+00
    0.34700E-05        -0.16030E-18         0.00000E+00
    0.34700E-05        -0.29585E-19         0.00000E+00
    0.34700E-05         0.49481E-20         0.00000E+00
    0.34700E-05         0.13567E-18         0.00000E+00
    0.34700E-05        -0.19236E-18         0.00000E+00
    0.34700E-05        -0.32431E-18         0.00000E+00
    0.34700E-05        -0.22070E-18         0.00000E+00
    0.34700E-05        -0.25276E-18         0.00000E+00
    0.34700E-05        -0.19607E-18         0.00000E+00
    0.34700E-05        -0.19607E-18         0.00000E+00
    0.34700E-05        -0.60403E-19         0.00000E+00
    0.34700E-05         0.99893E-19         0.00000E+00
    0.34700E-05         0.96178E-19         0.00000E+00
    0.34700E-05        -0.67834E-19         0.00000E+00
    0.34700E-05        -0.99893E-19         0.00000E+00
    0.34700E-05        -0.96178E-19         0.00000E+00
    0.34700E-05        -0.18864E-18         0.00000E+00
    0.34700E-05        -0.96178E-19         0.00000E+00
    0.34700E-05        -0.74307E-20         0.00000E+00
    0.34700E-05        -0.12327E-18         0.00000E+00
    0.34700E-05        -0.96178E-19         0.00000E+00
    0.34700E-05        -0.19236E-18         0.00000E+00
    0.34700E-05        -0.35265E-18         0.00000E+00
    0.34700E-05        -0.25896E-18         0.00000E+00
    0.34700E-05        -0.15781E-18         0.00000E+00
    0.34700E-05        -0.22193E-18         0.00000E+00
    0.34700E-05         0.32059E-19         0.00000E+00
    0.34700E-05         0.25647E-18         0.00000E+00
    0.34700E-05         0.19236E-18         0.00000E+00
    0.34700E-05         0.00000E+00         0.00000E+00
    0.34700E-05        -0.12824E-18         0.00000E+00
    0.34700E-05        -0.12824E-18         0.00000E+00
    0.34700E-05        -0.22442E-18         0.00000E+00
    0.34700E-05        -0.19484E-18         0.00000E+00
    0.34700E-05        -0.13320E-18         0.00000E+00
    0.34700E-05         0.66618E-19         0.00000E+00
    0.34700E-05         0.32059E-19         0.00000E+00
    0.34700E-05        -0.16030E-18         0.00000E+00
    0.34700E-05        -0.35140E-18         0.00000E+00
    0.34700E-05        -0.22442E-18         0.00000E+00
    0.34700E-05        -0.96178E-19         0.00000E+00
    0.34700E-05        -0.16030E-18         0.00000E+00
    0.34700E-05         0.32059E-19         0.00000E+00
    0.34700E-05         0.25647E-18         0.00000E+00
    0.34700E-05         0.12824E-18         0.00000E+00
    0.34700E-05         0.64119E-19         0.00000E+00
    0.34700E-05        -0.32059E-19         0.00000E+00
    0.34700E-05        -0.12949E-18         0.00000E+00
    0.34700E-05        -0.16030E-18         0.00000E+00
    0.34700E-05        -0.12699E-18         0.00000E+00
    0.34700E-05         0.00000E+00         0.00000E+00
    0.34700E-05         0.12824E-18         0.00000E+00
    0.34700E-05         0.96161E-19         0.00000E+00
    0.34700E-05        -0.64119E-19         0.00000E+00
    0.34700E-05        -0.22442E-18         0.00000E+00
    0.34700E-05        -0.12824E-18         0.00000E+00
    0.34700E-05        -0.96161E-19         0.00000E+00
    0.34700E-05        -0.12824E-18         0.00000E+00
    0.34700E-05         0.64119E-19         0.00000E+00
    0.34700E-05         0.12824E-18         0.00000E+00
    0.34700E-05         0.96178E-19         0.00000E+00
    0.34700E-05         0.00000E+00         0.00000E+00
    0.34700E-05        -0.32059E-19         0.00000E+00
    0.34700E-05         0.00000E+00         0.00000E+00
    0.34700E-05        -0.32059E-19         0.00000E+00
    0.34700E-05        -0.96178E-19         0.00000E+00
    0.34700E-05        -0.12824E-18         0.00000E+00
    0.34700E-05         0.12824E-18         0.00000E+00
    0.34700E-05         0.16030E-18         0.00000E+00
    0.34700E-05         0.64119E-19         0.00000E+00
    0.34700E-05        -0.64119E-19         0.00000E+00
    0.34700E-05        -0.64119E-19         0.00000E+00
    0.34700E-05        -0.96178E-19         0.00000E+00
    0.34700E-05         0.00000E+00         0.00000E+00
    0.34700E-05         0.96178E-19         0.00000E+00
    0.34700E-05         0.64119E-19         0.00000E+00
    0.34700E-05        -0.64119E-19         0.00000E+00
    0.34700E-05        -0.94962E-19         0.00000E+00
    0.34700E-05         0.64119E-19         0.00000E+00
    0.34700E-05         0.30843E-19         0.00000E+00
    0.34700E-05        -0.64119E-19         0.00000E+00
    0.34700E-05         0.64119E-19         0.00000E+00
    0.34700E-05         0.19236E-18         0.00000E+00
    0.34700E-05         0.25647E-18         0.00000E+00
    0.34700E-05         0.22442E-18         0.00000E+00
    0.34700E-05         0.00000E+00         0.00000E+00
    0.34700E-05        -0.32059E-19         0.00000E+00
    0.34700E-05         0.82597E-19         0.00000E+00
    0.34700E-05         0.19236E-18         0.00000E+00
    0.34700E-05         0.77700E-19         0.00000E+00
    0.34700E-05        -0.12824E-18         0.00000E+00
    0.34700E-05         0.13581E-19         0.00000E+00
    0.34700E-05         0.32059E-19         0.00000E+00
    0.34700E-05        -0.61670E-19         0.00000E+00
    0.34700E-05        -0.12824E-18         0.00000E+00
    0.34700E-05        -0.64119E-19         0.00000E+00
    0.34700E-05         0.12824E-18         0.00000E+00
    0.34700E-05         0.61670E-19         0.00000E+00
    0.34700E-05        -0.36956E-19         0.00000E+00
    0.34700E-05        -0.64119E-19         0.00000E+00
    0.34700E-05        -0.96178E-19         0.00000E+00
    0.34700E-05         0.00000E+00         0.00000E+00
    0.34700E-05         0.96178E-19         0.00000E+00
    0.34700E-05         0.16030E-18         0.00000E+00
    0.34700E-05         0.12824E-18         0.00000E+00
    0.34700E-05        -0.32059E-19         0.00000E+00
    0.34700E-05        -0.39422E-19         0.00000E+00
    0.34700E-05         0.11221E-18         0.00000E+00
    0.34700E-05         0.11957E-18         0.00000E+00
    0.34700E-05        -0.96178E-19         0.00000E+00
    0.34700E-05        -0.64119E-19         0.00000E+00
    0.34700E-05        -0.12824E-18         0.00000E+00
    0.34700E-05         0.96178E-19         0.00000E+00
    0.34700E-05         0.12824E-18         0.00000E+00
    0.34700E-05        -0.22442E-18         0.00000E+00
    0.34700E-05         0.17270E-18         0.00000E+00
    0.34700E-05        -0.64119E-19         0.00000E+00
    0.34700E-05        -0.11841E-18         0.00000E+00
    0.34700E-05         0.11841E-18         0.00000E+00
    0.34700E-05         0.18253E-18         0.00000E+00
    0.34700E-05         0.10601E-18         0.00000E+00
    0.34700E-05         0.41888E-19         0.00000E+00
    0.34700E-05        -0.25858E-19         0.00000E+00
    0.34700E-05        -0.41888E-19         0.00000E+00
    0.34700E-05         0.32059E-19         0.00000E+00
    0.34700E-05        -0.62013E-20         0.00000E+00
    0.34700E-05         0.98283E-20         0.00000E+00
    0.34700E-05         0.32059E-19         0.00000E+00
    0.34700E-05         0.54290E-19         0.00000E+00
    0.34700E-05         0.64119E-19         0.00000E+00
    0.34700E-05         0.19657E-19         0.00000E+00
    0.34700E-05        -0.64119E-19         0.00000E+00
    0.34700E-05         0.00000E+00         0.00000E+00
    0.34700E-05         0.11594E-18         0.00000E+00
    0.34700E-05         0.64119E-19         0.00000E+00
    0.34700E-05        -0.19765E-19         0.00000E+00
    0.34700E-05         0.16030E-18         0.00000E+00
    0.34700E-05         0.64119E-19         0.00000E+00
    0.34700E-05         0.19765E-19         0.00000E+00
    0.34700E-05         0.99914E-19         0.00000E+00
    0.34700E-05         0.76412E-19         0.00000E+00
    0.34700E-05         0.10847E-18         0.00000E+00
    0.34700E-05         0.19765E-19         0.00000E+00
    0.34700E-05        -0.64119E-19         0.00000E+00
    0.34700E-05         0.44353E-19         0.00000E+00
    0.34700E-05         0.16030E-18         0.00000E+00
    0.34700E-05         0.12824E-18         0.00000E+00
    0.34700E-05         0.34600E-19         0.00000E+00
    0.34700E-05         0.32059E-19         0.00000E+00
    0.34700E-05         0.19236E-18         0.00000E+00
    0.34700E-05         0.11221E-18         0.00000E+00
    0.34700E-05        -0.12702E-20         0.00000E+00
    0.34700E-05         0.33329E-19         0.00000E+00
    0.34700E-05        -0.30789E-19         0.00000E+00
    0.34700E-05         0.32059E-19         0.00000E+00
    0.34700E-05         0.64119E-19         0.00000E+00
    0.34700E-05         0.19236E-18         0.00000E+00
    0.34700E-05         0.22442E-18         0.00000E+00
    0.34700E-05         0.64119E-19         0.00000E+00
    0.34700E-05         0.64119E-19         0.00000E+00
    0.34700E-05         0.96178E-19         0.00000E+00
    0.34700E-05         0.78878E-19         0.00000E+00
    0.34700E-05         0.29519E-19         0.00000E+00
    0.34700E-05         0.12585E-18         0.00000E+00
    0.34700E-05         0.14307E-18         0.00000E+00
    0.34700E-05         0.64119E-19         0.00000E+00
    0.34700E-05         0.81344E-19         0.00000E+00
    0.34700E-05         0.12824E-18         0.00000E+00
    0.34700E-05        -0.65314E-19         0.00000E+00
    0.34700E-05        -0.14307E-18         0.00000E+00
    0.34700E-05        -0.64119E-19         0.00000E+00
    0.34700E-05         0.11101E-18         0.00000E+00
    0.34700E-05         0.22442E-18         0.00000E+00
    0.34700E-05         0.19236E-18         0.00000E+00
    0.34700E-05         0.96178E-19         0.00000E+00
    0.34700E-05         0.96178E-19         0.00000E+00
    0.34700E-05         0.32059E-19         0.00000E+00
    0.34700E-05        -0.14834E-19         0.00000E+00
    0.34700E-05         0.34450E-19         0.00000E+00
    0.34700E-05         0.24737E-19         0.00000E+00
    0.34700E-05        -0.32059E-19         0.00000E+00
    0.34700E-05         0.32059E-19         0.00000E+00
    0.34700E-05         0.76487E-19         0.00000E+00
    0.34700E-05         0.00000E+00         0.00000E+00
    0.34700E-05        -0.12824E-18         0.00000E+00
    0.34700E-05        -0.12824E-18         0.00000E+00
    0.34700E-05         0.32059E-19         0.00000E+00
    0.34700E-05         0.16030E-18         0.00000E+00
    0.34700E-05         0.32059E-18         0.00000E+00
    0.34700E-05         0.19236E-18         0.00000E+00
    0.34700E-05         0.32059E-19         0.00000E+00
    0.34700E-05        -0.12369E-19         0.00000E+00
    0.34700E-05        -0.57176E-34         0.00000E+00
    0.34700E-05         0.76487E-19         0.00000E+00
    0.34700E-05         0.64119E-19         0.00000E+00
    0.34700E-05         0.12824E-18         0.00000E+00
    0.34700E-05         0.10608E-18         0.00000E+00
    0.34700E-05        -0.54215E-19         0.00000E+00
    0.34700E-05         0.00000E+00         0.00000E+00
    0.34700E-05        -0.32059E-19         0.00000E+00
    0.34700E-05        -0.12824E-18         0.00000E+00
    0.34700E-05        -0.64119E-19         0.00000E+00
    0.34700E-05         0.32059E-19         0.00000E+00
    0.34700E-05         0.22442E-18         0.00000E+00
    0.34700E-05         0.16030E-18         0.00000E+00
    0.34700E-05         0.25647E-18         0.00000E+00
    0.34700E-05         0.19236E-18         0.00000E+00
    0.34700E-05        -0.12824E-18         0.00000E+00
    0.34700E-05         0.99031E-20         0.00000E+00
    0.34700E-05         0.16030E-18         0.00000E+00
    0.34700E-05         0.10843E-18         0.00000E+00
    0.34700E-05         0.12824E-18         0.00000E+00
    0.34700E-05         0.85921E-20         0.00000E+00
    0.34700E-05        -0.32059E-19         0.00000E+00
    0.34700E-05        -0.32059E-19         0.00000E+00
    0.34700E-05        -0.32059E-19         0.00000E+00
    0.34700E-05        -0.85921E-20         0.00000E+00
    0.34700E-05        -0.32059E-19         0.00000E+00
    0.34700E-05         0.00000E+00         0.00000E+00
    0.34700E-05         0.96178E-19         0.00000E+00
    0.34700E-05         0.19236E-18         0.00000E+00
    0.34700E-05         0.28853E-18         0.00000E+00
    0.34700E-05         0.28853E-18         0.00000E+00
    0.34700E-05         0.96178E-19         0.00000E+00
    0.34700E-05         0.00000E+00         0.00000E+00
    0.34700E-05         0.00000E+00         0.00000E+00
    0.34700E-05         0.00000E+00         0.00000E+00
    0.34700E-05         0.15035E-18         0.00000E+00
    0.34700E-05         0.10724E-18         0.00000E+00
    0.34700E-05         0.21002E-19         0.00000E+00
    0.34700E-05        -0.32059E-19         0.00000E+00
    0.34700E-05        -0.17093E-32         0.00000E+00
    0.34700E-05         0.21002E-19         0.00000E+00
    0.34700E-05        -0.32059E-19         0.00000E+00
    0.34700E-05         0.32059E-19         0.00000E+00
    0.34700E-05         0.96178E-19         0.00000E+00
    0.34700E-05         0.12824E-18         0.00000E+00
    0.34700E-05         0.96178E-19         0.00000E+00
    0.34700E-05         0.22442E-18         0.00000E+00
    0.34700E-05         0.22442E-18         0.00000E+00
    0.34700E-05        -0.11058E-19         0.00000E+00
    0.34700E-05        -0.64119E-19         0.00000E+00
    0.34700E-05        -0.10612E-18         0.00000E+00
    0.34700E-05         0.64119E-19         0.00000E+00
    0.34700E-05         0.32059E-19         0.00000E+00
    0.34700E-05         0.00000E+00         0.00000E+00
    0.34700E-05        -0.32059E-19         0.00000E+00
    0.34700E-05        -0.96178E-19         0.00000E+00
    0.34700E-05         0.00000E+00         0.00000E+00
    0.34700E-05         0.22442E-18         0.00000E+00
    0.34700E-05         0.96178E-19         0.00000E+00
    0.34700E-05         0.00000E+00         0.00000E+00
    0.34700E-05         0.64119E-19         0.00000E+00
    0.34700E-05         0.12573E-18         0.00000E+00
    0.34700E-05         0.27250E-18         0.00000E+00
    0.34700E-05         0.16280E-18         0.00000E+00
    0.34700E-05        -0.32059E-19         0.00000E+00
    0.34700E-05        -0.32059E-19         0.00000E+00
    0.34700E-05         0.00000E+00         0.00000E+00
    0.34700E-05         0.31978E-19         0.00000E+00
    0.34700E-05        -0.64119E-19         0.00000E+00
    0.34700E-05        -0.39722E-33         0.00000E+00
    0.34700E-05        -0.32059E-19         0.00000E+00
    0.34700E-05        -0.12824E-18         0.00000E+00
    0.34700E-05         0.19236E-18         0.00000E+00
    0.34700E-05         0.19236E-18         0.00000E+00
    0.34700E-05        -0.32059E-19         0.00000E+00
    0.34700E-05         0.64200E-19         0.00000E+00
    0.34700E-05         0.11225E-18         0.00000E+00
    0.34700E-05         0.64037E-19         0.00000E+00
    0.34700E-05         0.80107E-19         0.00000E+00
    0.34700E-05         0.19240E-18         0.00000E+00
    0.34700E-05         0.11217E-18         0.00000E+00
    0.34700E-05         0.48130E-19         0.00000E+00
    0.34700E-05         0.96341E-19         0.00000E+00
    0.34700E-05         0.00000E+00         0.00000E+00
    0.34700E-05         0.00000E+00         0.00000E+00
    0.34700E-05        -0.64119E-19         0.00000E+00
    0.34700E-05        -0.12824E-18         0.00000E+00
    0.34700E-05         0.18454E-19         0.00000E+00
    0.34700E-05         0.12824E-18         0.00000E+00
    0.34700E-05         0.14184E-18         0.00000E+00
    0.34700E-05         0.32059E-19         0.00000E+00
    0.34700E-05        -0.24247E-20         0.00000E+00
    0.34700E-05         0.11221E-18         0.00000E+00
    0.34700E-05         0.24247E-20         0.00000E+00
    0.34700E-05         0.96178E-19         0.00000E+00
    0.34700E-05         0.19236E-18         0.00000E+00
    0.34700E-05         0.96178E-19         0.00000E+00
    0.34700E-05        -0.11463E-18         0.00000E+00
    0.34700E-05        -0.29338E-18         0.00000E+00
    0.34700E-05         0.19236E-18         0.00000E+00
    0.34700E-05        -0.32059E-19         0.00000E+00
    0.34700E-05        -0.19236E-18         0.00000E+00
    0.34700E-05        -0.11139E-19         0.00000E+00
    0.34700E-05         0.52979E-19         0.00000E+00
    0.34700E-05         0.22279E-19         0.00000E+00
    0.34700E-05         0.18747E-18         0.00000E+00
    0.34700E-05         0.16030E-18         0.00000E+00
    0.34700E-05        -0.52979E-19         0.00000E+00
    0.34700E-05        -0.12824E-18         0.00000E+00
    0.34700E-05        -0.11139E-19         0.00000E+00
    0.34700E-05         0.16030E-18         0.00000E+00
    0.34700E-05         0.22442E-18         0.00000E+00
    0.34700E-05         0.85039E-19         0.00000E+00
    0.34700E-05        -0.10107E-18         0.00000E+00
    0.34700E-05        -0.10596E-18         0.00000E+00
    0.34700E-05         0.12824E-18         0.00000E+00
    0.34700E-05         0.96178E-19         0.00000E+00
    0.34700E-05        -0.19236E-18         0.00000E+00
    0.34700E-05        -0.96178E-19         0.00000E+00
    0.34700E-05         0.22442E-18         0.00000E+00
    0.34700E-05         0.32059E-19         0.00000E+00
    0.34700E-05        -0.32059E-19         0.00000E+00
    0.34700E-05         0.49407E-19         0.00000E+00
    0.34700E-05        -0.64119E-19         0.00000E+00
    0.34700E-05         0.78830E-19         0.00000E+00
    0.34700E-05         0.96178E-19         0.00000E+00
    0.34700E-05         0.96178E-19         0.00000E+00
    0.34700E-05         0.12824E-18         0.00000E+00
    0.34700E-05         0.32059E-19         0.00000E+00
    0.34700E-05         0.12824E-18         0.00000E+00
    0.34700E-05         0.19236E-18         0.00000E+00
    0.34700E-05        -0.64119E-19         0.00000E+00
    0.34700E-05         0.60505E-19         0.00000E+00
    0.34700E-05        -0.25097E-32         0.00000E+00
    0.34700E-05        -0.15668E-18         0.00000E+00
    0.34700E-05        -0.35672E-19         0.00000E+00
    0.34700E-05        -0.35672E-19         0.00000E+00
    0.34700E-05         0.32059E-19         0.00000E+00
    0.34700E-05         0.13185E-18         0.00000E+00
    0.34700E-05         0.12824E-18         0.00000E+00
    0.34700E-05         0.28446E-19         0.00000E+00
    0.34700E-05        -0.76535E-19         0.00000E+00
    0.34700E-05         0.11221E-18         0.00000E+00
    0.34700E-05         0.11221E-18         0.00000E+00
    0.34700E-05         0.64119E-19         0.00000E+00
    0.34700E-05         0.76535E-19         0.00000E+00
    0.34700E-05         0.12824E-18         0.00000E+00
    0.34700E-05         0.11115E-18         0.00000E+00
    0.34700E-05         0.32059E-19         0.00000E+00
    0.34700E-05        -0.71604E-19         0.00000E+00
    0.34700E-05        -0.20090E-18         0.00000E+00
    0.34700E-05        -0.40604E-19         0.00000E+00
    0.34700E-05         0.85443E-20         0.00000E+00
    0.34700E-05         0.72663E-19         0.00000E+00
    0.34700E-05         0.16778E-18         0.00000E+00
    0.34700E-05        -0.72663E-19         0.00000E+00
    0.34700E-05         0.32059E-19         0.00000E+00
    0.34700E-05         0.12075E-18         0.00000E+00
    0.34700E-05         0.56633E-19         0.00000E+00
    0.34700E-05         0.64119E-19         0.00000E+00
    0.34700E-05        -0.40604E-19         0.00000E+00
    0.34700E-05         0.00000E+00         0.00000E+00
    0.34700E-05         0.81207E-19         0.00000E+00
    0.34700E-05        -0.64119E-19         0.00000E+00
    0.34700E-05        -0.34614E-19         0.00000E+00
    0.34700E-05        -0.66673E-19         0.00000E+00
    0.34700E-05         0.00000E+00         0.00000E+00
    0.34700E-05         0.64119E-19         0.00000E+00
    0.34700E-05         0.00000E+00         0.00000E+00
    0.34700E-05        -0.64119E-19         0.00000E+00
    0.34700E-05         0.32059E-19         0.00000E+00
    0.34700E-05         0.66673E-19         0.00000E+00
    0.34700E-05         0.64119E-19         0.00000E+00
    0.34700E-05         0.12824E-18         0.00000E+00
    0.34700E-05        -0.61564E-19         0.00000E+00
    0.34700E-05        -0.64119E-19         0.00000E+00
    0.34700E-05         0.32059E-19         0.00000E+00
    0.34700E-05         0.32059E-19         0.00000E+00
    0.34700E-05         0.64119E-19         0.00000E+00
    0.34700E-05         0.00000E+00         0.00000E+00
    0.34700E-05         0.00000E+00         0.00000E+00
    0.34700E-05         0.32059E-19         0.00000E+00
    0.34700E-05         0.00000E+00         0.00000E+00
    0.34700E-05         0.00000E+00         0.00000E+00
    0.34700E-05         0.00000E+00         0.00000E+00
    0.34700E-05         0.00000E+00         0.00000E+00
    0.34700E-05         0.32059E-19         0.00000E+00
    0.34700E-05         0.00000E+00         0.00000E+00
    0.34700E-05         0.00000E+00         0.00000E+00
    0.34700E-05         0.00000E+00         0.00000E+00
    0.34700E-05         0.00000E+00         0.00000E+00
    0.34700E-05        -0.32059E-19         0.00000E+00
    0.34700E-05         0.00000E+00         0.00000E+00
    0.34700E-05         0.32059E-19         0.00000E+00
    0.34700E-05         0.00000E+00         0.00000E+00
CELL_DATA        450
TENSORS stressef double 
    0.98934E+07        -0.14260E+06         0.00000E+00
   -0.14260E+06         0.10632E+08         0.00000E+00
    0.00000E+00         0.00000E+00         0.22282E+07
 
    0.89301E+07        -0.11924E+06         0.00000E+00
   -0.11924E+06         0.10448E+08         0.00000E+00
    0.00000E+00         0.00000E+00         0.10621E+07
 
    0.82806E+07        -0.65284E+05         0.00000E+00
   -0.65284E+05         0.10288E+08         0.00000E+00
    0.00000E+00         0.00000E+00         0.27517E+06
 
    0.75112E+07        -0.69657E+05         0.00000E+00
   -0.69657E+05         0.10185E+08         0.00000E+00
    0.00000E+00         0.00000E+00         0.00000E+00
 
    0.67485E+07        -0.84824E+05         0.00000E+00
   -0.84824E+05         0.10023E+08         0.00000E+00
    0.00000E+00         0.00000E+00         0.00000E+00
 
    0.61193E+07        -0.73994E+05         0.00000E+00
   -0.73994E+05         0.98659E+07         0.00000E+00
    0.00000E+00         0.00000E+00         0.00000E+00
 
    0.55631E+07        -0.57429E+05         0.00000E+00
   -0.57429E+05         0.97366E+07         0.00000E+00
    0.00000E+00         0.00000E+00         0.00000E+00
 
    0.50478E+07        -0.38358E+05         0.00000E+00
   -0.38358E+05         0.96425E+07         0.00000E+00
    0.00000E+00         0.00000E+00         0.00000E+00
 
    0.45509E+07        -0.17382E+05         0.00000E+00
   -0.17382E+05         0.95880E+07         0.00000E+00
    0.00000E+00         0.00000E+00         0.00000E+00
 
    0.40535E+07         0.58323E+04         0.00000E+00
    0.58323E+04         0.95775E+07         0.00000E+00
    0.00000E+00         0.00000E+00         0.00000E+00
 
    0.35371E+07         0.32179E+05         0.00000E+00
    0.32179E+05         0.96162E+07         0.00000E+00
    0.00000E+00         0.00000E+00         0.00000E+00
 
    0.29803E+07         0.63322E+05         0.00000E+00
    0.63322E+05         0.97122E+07         0.00000E+00
    0.00000E+00         0.00000E+00         0.00000E+00
 
    0.23529E+07         0.10275E+06         0.00000E+00
    0.10275E+06         0.98784E+07         0.00000E+00
    0.00000E+00         0.00000E+00         0.00000E+00
 
    0.16043E+07         0.15827E+06         0.00000E+00
    0.15827E+06         0.10140E+08         0.00000E+00
    0.00000E+00         0.00000E+00         0.00000E+00
 
    0.59570E+06         0.27799E+06         0.00000E+00
    0.27799E+06         0.10564E+08         0.00000E+00
    0.00000E+00         0.00000E+00         0.00000E+00
 
    0.91948E+07        -0.23594E+06         0.00000E+00
   -0.23594E+06         0.10319E+08         0.00000E+00
    0.00000E+00         0.00000E+00         0.11738E+07
 
    0.84863E+07        -0.23690E+06         0.00000E+00
   -0.23690E+06         0.10317E+08         0.00000E+00
    0.00000E+00         0.00000E+00         0.51438E+06
 
    0.77871E+07        -0.20885E+06         0.00000E+00
   -0.20885E+06         0.10267E+08         0.00000E+00
    0.00000E+00         0.00000E+00         0.21163E+05
 
    0.69611E+07        -0.24803E+06         0.00000E+00
   -0.24803E+06         0.10045E+08         0.00000E+00
    0.00000E+00         0.00000E+00         0.00000E+00
 
    0.62577E+07        -0.24714E+06         0.00000E+00
   -0.24714E+06         0.98795E+07         0.00000E+00
    0.00000E+00         0.00000E+00         0.00000E+00
 
    0.56438E+07        -0.21278E+06         0.00000E+00
   -0.21278E+06         0.97404E+07         0.00000E+00
    0.00000E+00         0.00000E+00         0.00000E+00
 
    0.50942E+07        -0.16470E+06         0.00000E+00
   -0.16470E+06         0.96277E+07         0.00000E+00
    0.00000E+00         0.00000E+00         0.00000E+00
 
    0.45830E+07        -0.10934E+06         0.00000E+00
   -0.10934E+06         0.95465E+07         0.00000E+00
    0.00000E+00         0.00000E+00         0.00000E+00
 
    0.40902E+07        -0.47896E+05         0.00000E+00
   -0.47896E+05         0.95017E+07         0.00000E+00
    0.00000E+00         0.00000E+00         0.00000E+00
 
    0.35982E+07         0.20613E+05         0.00000E+00
    0.20613E+05         0.94982E+07         0.00000E+00
    0.00000E+00         0.00000E+00         0.00000E+00
 
    0.30896E+07         0.98727E+05         0.00000E+00
    0.98727E+05         0.95420E+07         0.00000E+00
    0.00000E+00         0.00000E+00         0.00000E+00
 
    0.25449E+07         0.19127E+06         0.00000E+00
    0.19127E+06         0.96410E+07         0.00000E+00
    0.00000E+00         0.00000E+00         0.00000E+00
 
    0.19398E+07         0.30789E+06         0.00000E+00
    0.30789E+06         0.98075E+07         0.00000E+00
    0.00000E+00         0.00000E+00         0.00000E+00
 
    0.12380E+07         0.47213E+06         0.00000E+00
    0.47213E+06         0.10062E+08         0.00000E+00
    0.00000E+00         0.00000E+00         0.00000E+00
 
    0.42869E+06         0.75980E+06         0.00000E+00
    0.75980E+06         0.10424E+08         0.00000E+00
    0.00000E+00         0.00000E+00         0.00000E+00
 
    0.84728E+07        -0.12406E+06         0.00000E+00
   -0.12406E+06         0.99907E+07         0.00000E+00
    0.00000E+00         0.00000E+00         0.17332E+06
 
    0.79668E+07        -0.27713E+06         0.00000E+00
   -0.27713E+06         0.99933E+07         0.00000E+00
    0.00000E+00         0.00000E+00         0.15412E+05
 
    0.71953E+07        -0.37500E+06         0.00000E+00
   -0.37500E+06         0.98328E+07         0.00000E+00
    0.00000E+00         0.00000E+00         0.00000E+00
 
    0.64527E+07        -0.40932E+06         0.00000E+00
   -0.40932E+06         0.97181E+07         0.00000E+00
    0.00000E+00         0.00000E+00         0.00000E+00
 
    0.57853E+07        -0.38044E+06         0.00000E+00
   -0.38044E+06         0.96030E+07         0.00000E+00
    0.00000E+00         0.00000E+00         0.00000E+00
 
    0.51941E+07        -0.32467E+06         0.00000E+00
   -0.32467E+06         0.95018E+07         0.00000E+00
    0.00000E+00         0.00000E+00         0.00000E+00
 
    0.46564E+07        -0.25093E+06         0.00000E+00
   -0.25093E+06         0.94191E+07         0.00000E+00
    0.00000E+00         0.00000E+00         0.00000E+00
 
    0.41542E+07        -0.16450E+06         0.00000E+00
   -0.16450E+06         0.93607E+07         0.00000E+00
    0.00000E+00         0.00000E+00         0.00000E+00
 
    0.36705E+07        -0.66718E+05         0.00000E+00
   -0.66718E+05         0.93330E+07         0.00000E+00
    0.00000E+00         0.00000E+00         0.00000E+00
 
    0.31897E+07         0.43772E+05         0.00000E+00
    0.43772E+05         0.93417E+07         0.00000E+00
    0.00000E+00         0.00000E+00         0.00000E+00
 
    0.26966E+07         0.17069E+06         0.00000E+00
    0.17069E+06         0.93936E+07         0.00000E+00
    0.00000E+00         0.00000E+00         0.00000E+00
 
    0.21757E+07         0.32117E+06         0.00000E+00
    0.32117E+06         0.94961E+07         0.00000E+00
    0.00000E+00         0.00000E+00         0.00000E+00
 
    0.16107E+07         0.50874E+06         0.00000E+00
    0.50874E+06         0.96588E+07         0.00000E+00
    0.00000E+00         0.00000E+00         0.00000E+00
 
    0.99160E+06         0.76139E+06         0.00000E+00
    0.76139E+06         0.98909E+07         0.00000E+00
    0.00000E+00         0.00000E+00         0.00000E+00
 
    0.33403E+06         0.11219E+07         0.00000E+00
    0.11219E+07         0.10185E+08         0.00000E+00
    0.00000E+00         0.00000E+00         0.00000E+00
 
    0.77838E+07        -0.58924E+05         0.00000E+00
   -0.58924E+05         0.93177E+07         0.00000E+00
    0.00000E+00         0.00000E+00         0.00000E+00
 
    0.72834E+07        -0.30303E+06         0.00000E+00
   -0.30303E+06         0.93145E+07         0.00000E+00
    0.00000E+00         0.00000E+00         0.00000E+00
 
    0.66173E+07        -0.44753E+06         0.00000E+00
   -0.44753E+06         0.93131E+07         0.00000E+00
    0.00000E+00         0.00000E+00         0.00000E+00
 
    0.59467E+07        -0.48560E+06         0.00000E+00
   -0.48560E+06         0.92767E+07         0.00000E+00
    0.00000E+00         0.00000E+00         0.00000E+00
 
    0.53271E+07        -0.46215E+06         0.00000E+00
   -0.46215E+06         0.92277E+07         0.00000E+00
    0.00000E+00         0.00000E+00         0.00000E+00
 
    0.47621E+07        -0.39787E+06         0.00000E+00
   -0.39787E+06         0.91738E+07         0.00000E+00
    0.00000E+00         0.00000E+00         0.00000E+00
 
    0.42430E+07        -0.30762E+06         0.00000E+00
   -0.30762E+06         0.91269E+07         0.00000E+00
    0.00000E+00         0.00000E+00         0.00000E+00
 
    0.37559E+07        -0.19741E+06         0.00000E+00
   -0.19741E+06         0.90960E+07         0.00000E+00
    0.00000E+00         0.00000E+00         0.00000E+00
 
    0.32871E+07        -0.69189E+05         0.00000E+00
   -0.69189E+05         0.90887E+07         0.00000E+00
    0.00000E+00         0.00000E+00         0.00000E+00
 
    0.28238E+07         0.78166E+05         0.00000E+00
    0.78166E+05         0.91120E+07         0.00000E+00
    0.00000E+00         0.00000E+00         0.00000E+00
 
    0.23537E+07         0.24874E+06         0.00000E+00
    0.24874E+06         0.91724E+07         0.00000E+00
    0.00000E+00         0.00000E+00         0.00000E+00
 
    0.18658E+07         0.45038E+06         0.00000E+00
    0.45038E+06         0.92764E+07         0.00000E+00
    0.00000E+00         0.00000E+00         0.00000E+00
 
    0.13524E+07         0.69663E+06         0.00000E+00
    0.69663E+06         0.94295E+07         0.00000E+00
    0.00000E+00         0.00000E+00         0.00000E+00
 
    0.81469E+06         0.10080E+07         0.00000E+00
    0.10080E+07         0.96322E+07         0.00000E+00
    0.00000E+00         0.00000E+00         0.00000E+00
 
    0.27034E+06         0.14078E+07         0.00000E+00
    0.14078E+07         0.98742E+07         0.00000E+00
    0.00000E+00         0.00000E+00         0.00000E+00
 
    0.70945E+07        -0.93637E+05         0.00000E+00
   -0.93637E+05         0.88033E+07         0.00000E+00
    0.00000E+00         0.00000E+00         0.00000E+00
 
    0.65804E+07        -0.29241E+06         0.00000E+00
   -0.29241E+06         0.87898E+07         0.00000E+00
    0.00000E+00         0.00000E+00         0.00000E+00
 
    0.60170E+07        -0.44286E+06         0.00000E+00
   -0.44286E+06         0.87980E+07         0.00000E+00
    0.00000E+00         0.00000E+00         0.00000E+00
 
    0.54300E+07        -0.50447E+06         0.00000E+00
   -0.50447E+06         0.88052E+07         0.00000E+00
    0.00000E+00         0.00000E+00         0.00000E+00
 
    0.48654E+07        -0.49322E+06         0.00000E+00
   -0.49322E+06         0.87985E+07         0.00000E+00
    0.00000E+00         0.00000E+00         0.00000E+00
 
    0.43380E+07        -0.43146E+06         0.00000E+00
   -0.43146E+06         0.87840E+07         0.00000E+00
    0.00000E+00         0.00000E+00         0.00000E+00
 
    0.38459E+07        -0.33317E+06         0.00000E+00
   -0.33317E+06         0.87700E+07         0.00000E+00
    0.00000E+00         0.00000E+00         0.00000E+00
 
    0.33813E+07        -0.20637E+06         0.00000E+00
   -0.20637E+06         0.87655E+07         0.00000E+00
    0.00000E+00         0.00000E+00         0.00000E+00
 
    0.29343E+07        -0.54137E+05         0.00000E+00
   -0.54137E+05         0.87782E+07         0.00000E+00
    0.00000E+00         0.00000E+00         0.00000E+00
 
    0.24949E+07         0.12391E+06         0.00000E+00
    0.12391E+06         0.88152E+07         0.00000E+00
    0.00000E+00         0.00000E+00         0.00000E+00
 
    0.20543E+07         0.33132E+06         0.00000E+00
    0.33132E+06         0.88825E+07         0.00000E+00
    0.00000E+00         0.00000E+00         0.00000E+00
 
    0.16055E+07         0.57502E+06         0.00000E+00
    0.57502E+06         0.89850E+07         0.00000E+00
    0.00000E+00         0.00000E+00         0.00000E+00
 
    0.11459E+07         0.86564E+06         0.00000E+00
    0.86564E+06         0.91253E+07         0.00000E+00
    0.00000E+00         0.00000E+00         0.00000E+00
 
    0.68027E+06         0.12166E+07         0.00000E+00
    0.12166E+07         0.93010E+07         0.00000E+00
    0.00000E+00         0.00000E+00         0.00000E+00
 
    0.22355E+06         0.16406E+07         0.00000E+00
    0.16406E+07         0.95028E+07         0.00000E+00
    0.00000E+00         0.00000E+00         0.00000E+00
 
    0.63885E+07        -0.11103E+06         0.00000E+00
   -0.11103E+06         0.83109E+07         0.00000E+00
    0.00000E+00         0.00000E+00         0.00000E+00
 
    0.59052E+07        -0.29539E+06         0.00000E+00
   -0.29539E+06         0.83059E+07         0.00000E+00
    0.00000E+00         0.00000E+00         0.00000E+00
 
    0.54092E+07        -0.42800E+06         0.00000E+00
   -0.42800E+06         0.83128E+07         0.00000E+00
    0.00000E+00         0.00000E+00         0.00000E+00
 
    0.48995E+07        -0.49345E+06         0.00000E+00
   -0.49345E+06         0.83291E+07         0.00000E+00
    0.00000E+00         0.00000E+00         0.00000E+00
 
    0.43966E+07        -0.49139E+06         0.00000E+00
   -0.49139E+06         0.83441E+07         0.00000E+00
    0.00000E+00         0.00000E+00         0.00000E+00
 
    0.39152E+07        -0.43366E+06         0.00000E+00
   -0.43366E+06         0.83549E+07         0.00000E+00
    0.00000E+00         0.00000E+00         0.00000E+00
 
    0.34588E+07        -0.33193E+06         0.00000E+00
   -0.33193E+06         0.83656E+07         0.00000E+00
    0.00000E+00         0.00000E+00         0.00000E+00
 
    0.30244E+07        -0.19393E+06         0.00000E+00
   -0.19393E+06         0.83822E+07         0.00000E+00
    0.00000E+00         0.00000E+00         0.00000E+00
 
    0.26059E+07        -0.23466E+05         0.00000E+00
   -0.23466E+05         0.84114E+07         0.00000E+00
    0.00000E+00         0.00000E+00         0.00000E+00
 
    0.21965E+07         0.17897E+06         0.00000E+00
    0.17897E+06         0.84592E+07         0.00000E+00
    0.00000E+00         0.00000E+00         0.00000E+00
 
    0.17904E+07         0.41583E+06         0.00000E+00
    0.41583E+06         0.85307E+07         0.00000E+00
    0.00000E+00         0.00000E+00         0.00000E+00
 
    0.13837E+07         0.69223E+06         0.00000E+00
    0.69223E+06         0.86294E+07         0.00000E+00
    0.00000E+00         0.00000E+00         0.00000E+00
 
    0.97632E+06         0.10154E+07         0.00000E+00
    0.10154E+07         0.87561E+07         0.00000E+00
    0.00000E+00         0.00000E+00         0.00000E+00
 
    0.57358E+06         0.13937E+07         0.00000E+00
    0.13937E+07         0.89082E+07         0.00000E+00
    0.00000E+00         0.00000E+00         0.00000E+00
 
    0.18722E+06         0.18335E+07         0.00000E+00
    0.18335E+07         0.90781E+07         0.00000E+00
    0.00000E+00         0.00000E+00         0.00000E+00
 
    0.56745E+07        -0.11346E+06         0.00000E+00
   -0.11346E+06         0.78117E+07         0.00000E+00
    0.00000E+00         0.00000E+00         0.00000E+00
 
    0.52468E+07        -0.29211E+06         0.00000E+00
   -0.29211E+06         0.78163E+07         0.00000E+00
    0.00000E+00         0.00000E+00         0.00000E+00
 
    0.48099E+07        -0.41221E+06         0.00000E+00
   -0.41221E+06         0.78290E+07         0.00000E+00
    0.00000E+00         0.00000E+00         0.00000E+00
 
    0.43654E+07        -0.47216E+06         0.00000E+00
   -0.47216E+06         0.78499E+07         0.00000E+00
    0.00000E+00         0.00000E+00         0.00000E+00
 
    0.39229E+07        -0.47148E+06         0.00000E+00
   -0.47148E+06         0.78745E+07         0.00000E+00
    0.00000E+00         0.00000E+00         0.00000E+00
 
    0.34921E+07        -0.41535E+06         0.00000E+00
   -0.41535E+06         0.78996E+07         0.00000E+00
    0.00000E+00         0.00000E+00         0.00000E+00
 
    0.30779E+07        -0.31119E+06         0.00000E+00
   -0.31119E+06         0.79260E+07         0.00000E+00
    0.00000E+00         0.00000E+00         0.00000E+00
 
    0.26803E+07        -0.16519E+06         0.00000E+00
   -0.16519E+06         0.79572E+07         0.00000E+00
    0.00000E+00         0.00000E+00         0.00000E+00
 
    0.22964E+07         0.18949E+05         0.00000E+00
    0.18949E+05         0.79978E+07         0.00000E+00
    0.00000E+00         0.00000E+00         0.00000E+00
 
    0.19221E+07         0.24013E+06         0.00000E+00
    0.24013E+06         0.80525E+07         0.00000E+00
    0.00000E+00         0.00000E+00         0.00000E+00
 
    0.15542E+07         0.49959E+06         0.00000E+00
    0.49959E+06         0.81251E+07         0.00000E+00
    0.00000E+00         0.00000E+00         0.00000E+00
 
    0.11908E+07         0.80051E+06         0.00000E+00
    0.80051E+06         0.82181E+07         0.00000E+00
    0.00000E+00         0.00000E+00         0.00000E+00
 
    0.83295E+06         0.11473E+07         0.00000E+00
    0.11473E+07         0.83316E+07         0.00000E+00
    0.00000E+00         0.00000E+00         0.00000E+00
 
    0.48566E+06         0.15446E+07         0.00000E+00
    0.15446E+07         0.84630E+07         0.00000E+00
    0.00000E+00         0.00000E+00         0.00000E+00
 
    0.15775E+06         0.19952E+07         0.00000E+00
    0.19952E+07         0.86068E+07         0.00000E+00
    0.00000E+00         0.00000E+00         0.00000E+00
 
    0.49639E+07        -0.10952E+06         0.00000E+00
   -0.10952E+06         0.73098E+07         0.00000E+00
    0.00000E+00         0.00000E+00         0.00000E+00
 
    0.45978E+07        -0.28069E+06         0.00000E+00
   -0.28069E+06         0.73196E+07         0.00000E+00
    0.00000E+00         0.00000E+00         0.00000E+00
 
    0.42194E+07        -0.39228E+06         0.00000E+00
   -0.39228E+06         0.73377E+07         0.00000E+00
    0.00000E+00         0.00000E+00         0.00000E+00
 
    0.38343E+07        -0.44594E+06         0.00000E+00
   -0.44594E+06         0.73626E+07         0.00000E+00
    0.00000E+00         0.00000E+00         0.00000E+00
 
    0.34489E+07        -0.44266E+06         0.00000E+00
   -0.44266E+06         0.73923E+07         0.00000E+00
    0.00000E+00         0.00000E+00         0.00000E+00
 
    0.30700E+07        -0.38531E+06         0.00000E+00
   -0.38531E+06         0.74247E+07         0.00000E+00
    0.00000E+00         0.00000E+00         0.00000E+00
 
    0.27018E+07        -0.27830E+06         0.00000E+00
   -0.27830E+06         0.74597E+07         0.00000E+00
    0.00000E+00         0.00000E+00         0.00000E+00
 
    0.23458E+07        -0.12601E+06         0.00000E+00
   -0.12601E+06         0.74991E+07         0.00000E+00
    0.00000E+00         0.00000E+00         0.00000E+00
 
    0.20011E+07         0.68484E+05         0.00000E+00
    0.68484E+05         0.75460E+07         0.00000E+00
    0.00000E+00         0.00000E+00         0.00000E+00
 
    0.16660E+07         0.30377E+06         0.00000E+00
    0.30377E+06         0.76035E+07         0.00000E+00
    0.00000E+00         0.00000E+00         0.00000E+00
 
    0.13387E+07         0.58009E+06         0.00000E+00
    0.58009E+06         0.76743E+07         0.00000E+00
    0.00000E+00         0.00000E+00         0.00000E+00
 
    0.10189E+07         0.89901E+06         0.00000E+00
    0.89901E+06         0.77600E+07         0.00000E+00
    0.00000E+00         0.00000E+00         0.00000E+00
 
    0.70818E+06         0.12627E+07         0.00000E+00
    0.12627E+07         0.78604E+07         0.00000E+00
    0.00000E+00         0.00000E+00         0.00000E+00
 
    0.41065E+06         0.16733E+07         0.00000E+00
    0.16733E+07         0.79735E+07         0.00000E+00
    0.00000E+00         0.00000E+00         0.00000E+00
 
    0.13293E+06         0.21312E+07         0.00000E+00
    0.21312E+07         0.80952E+07         0.00000E+00
    0.00000E+00         0.00000E+00         0.00000E+00
 
    0.42628E+07        -0.10305E+06         0.00000E+00
   -0.10305E+06         0.68065E+07         0.00000E+00
    0.00000E+00         0.00000E+00         0.00000E+00
 
    0.39570E+07        -0.26467E+06         0.00000E+00
   -0.26467E+06         0.68185E+07         0.00000E+00
    0.00000E+00         0.00000E+00         0.00000E+00
 
    0.36362E+07        -0.36877E+06         0.00000E+00
   -0.36877E+06         0.68393E+07         0.00000E+00
    0.00000E+00         0.00000E+00         0.00000E+00
 
    0.33076E+07        -0.41673E+06         0.00000E+00
   -0.41673E+06         0.68665E+07         0.00000E+00
    0.00000E+00         0.00000E+00         0.00000E+00
 
    0.29772E+07        -0.40972E+06         0.00000E+00
   -0.40972E+06         0.68983E+07         0.00000E+00
    0.00000E+00         0.00000E+00         0.00000E+00
 
    0.26502E+07        -0.34967E+06         0.00000E+00
   -0.34967E+06         0.69336E+07         0.00000E+00
    0.00000E+00         0.00000E+00         0.00000E+00
 
    0.23300E+07        -0.23937E+06         0.00000E+00
   -0.23937E+06         0.69720E+07         0.00000E+00
    0.00000E+00         0.00000E+00         0.00000E+00
 
    0.20188E+07        -0.81777E+05         0.00000E+00
   -0.81777E+05         0.70146E+07         0.00000E+00
    0.00000E+00         0.00000E+00         0.00000E+00
 
    0.17167E+07         0.12066E+06         0.00000E+00
    0.12066E+06         0.70631E+07         0.00000E+00
    0.00000E+00         0.00000E+00         0.00000E+00
 
    0.14234E+07         0.36645E+06         0.00000E+00
    0.36645E+06         0.71196E+07         0.00000E+00
    0.00000E+00         0.00000E+00         0.00000E+00
 
    0.11385E+07         0.65513E+06         0.00000E+00
    0.65513E+06         0.71859E+07         0.00000E+00
    0.00000E+00         0.00000E+00         0.00000E+00
 
    0.86228E+06         0.98701E+06         0.00000E+00
    0.98701E+06         0.72630E+07         0.00000E+00
    0.00000E+00         0.00000E+00         0.00000E+00
 
    0.59652E+06         0.13627E+07         0.00000E+00
    0.13627E+07         0.73505E+07         0.00000E+00
    0.00000E+00         0.00000E+00         0.00000E+00
 
    0.34455E+06         0.17825E+07         0.00000E+00
    0.17825E+07         0.74468E+07         0.00000E+00
    0.00000E+00         0.00000E+00         0.00000E+00
 
    0.11127E+06         0.22454E+07         0.00000E+00
    0.22454E+07         0.75491E+07         0.00000E+00
    0.00000E+00         0.00000E+00         0.00000E+00
 
    0.35741E+07        -0.95897E+05         0.00000E+00
   -0.95897E+05         0.63025E+07         0.00000E+00
    0.00000E+00         0.00000E+00         0.00000E+00
 
    0.33247E+07        -0.24711E+06         0.00000E+00
   -0.24711E+06         0.63148E+07         0.00000E+00
    0.00000E+00         0.00000E+00         0.00000E+00
 
    0.30594E+07        -0.34398E+06         0.00000E+00
   -0.34398E+06         0.63358E+07         0.00000E+00
    0.00000E+00         0.00000E+00         0.00000E+00
 
    0.27856E+07        -0.38669E+06         0.00000E+00
   -0.38669E+06         0.63629E+07         0.00000E+00
    0.00000E+00         0.00000E+00         0.00000E+00
 
    0.25087E+07        -0.37585E+06         0.00000E+00
   -0.37585E+06         0.63943E+07         0.00000E+00
    0.00000E+00         0.00000E+00         0.00000E+00
 
    0.22332E+07        -0.31270E+06         0.00000E+00
   -0.31270E+06         0.64291E+07         0.00000E+00
    0.00000E+00         0.00000E+00         0.00000E+00
 
    0.19622E+07        -0.19905E+06         0.00000E+00
   -0.19905E+06         0.64672E+07         0.00000E+00
    0.00000E+00         0.00000E+00         0.00000E+00
 
    0.16977E+07        -0.36972E+05         0.00000E+00
   -0.36972E+05         0.65088E+07         0.00000E+00
    0.00000E+00         0.00000E+00         0.00000E+00
 
    0.14404E+07         0.17159E+06         0.00000E+00
    0.17159E+06         0.65552E+07         0.00000E+00
    0.00000E+00         0.00000E+00         0.00000E+00
 
    0.11909E+07         0.42516E+06         0.00000E+00
    0.42516E+06         0.66077E+07         0.00000E+00
    0.00000E+00         0.00000E+00         0.00000E+00
 
    0.94928E+06         0.72277E+06         0.00000E+00
    0.72277E+06         0.66672E+07         0.00000E+00
    0.00000E+00         0.00000E+00         0.00000E+00
 
    0.71645E+06         0.10639E+07         0.00000E+00
    0.10639E+07         0.67344E+07         0.00000E+00
    0.00000E+00         0.00000E+00         0.00000E+00
 
    0.49400E+06         0.14479E+07         0.00000E+00
    0.14479E+07         0.68089E+07         0.00000E+00
    0.00000E+00         0.00000E+00         0.00000E+00
 
    0.28458E+06         0.18740E+07         0.00000E+00
    0.18740E+07         0.68895E+07         0.00000E+00
    0.00000E+00         0.00000E+00         0.00000E+00
 
    0.91762E+05         0.23404E+07         0.00000E+00
    0.23404E+07         0.69742E+07         0.00000E+00
    0.00000E+00         0.00000E+00         0.00000E+00
 
    0.28980E+07        -0.89053E+05         0.00000E+00
   -0.89053E+05         0.57982E+07         0.00000E+00
    0.00000E+00         0.00000E+00         0.00000E+00
 
    0.27007E+07        -0.23018E+06         0.00000E+00
   -0.23018E+06         0.58094E+07         0.00000E+00
    0.00000E+00         0.00000E+00         0.00000E+00
 
    0.24885E+07        -0.32023E+06         0.00000E+00
   -0.32023E+06         0.58287E+07         0.00000E+00
    0.00000E+00         0.00000E+00         0.00000E+00
 
    0.22678E+07        -0.35813E+06         0.00000E+00
   -0.35813E+06         0.58534E+07         0.00000E+00
    0.00000E+00         0.00000E+00         0.00000E+00
 
    0.20435E+07        -0.34374E+06         0.00000E+00
   -0.34374E+06         0.58821E+07         0.00000E+00
    0.00000E+00         0.00000E+00         0.00000E+00
 
    0.18193E+07        -0.27761E+06         0.00000E+00
   -0.27761E+06         0.59138E+07         0.00000E+00
    0.00000E+00         0.00000E+00         0.00000E+00
 
    0.15980E+07        -0.16090E+06         0.00000E+00
   -0.16090E+06         0.59484E+07         0.00000E+00
    0.00000E+00         0.00000E+00         0.00000E+00
 
    0.13813E+07         0.48847E+04         0.00000E+00
    0.48847E+04         0.59861E+07         0.00000E+00
    0.00000E+00         0.00000E+00         0.00000E+00
 
    0.11702E+07         0.21815E+06         0.00000E+00
    0.21815E+06         0.60275E+07         0.00000E+00
    0.00000E+00         0.00000E+00         0.00000E+00
 
    0.96558E+06         0.47742E+06         0.00000E+00
    0.47742E+06         0.60733E+07         0.00000E+00
    0.00000E+00         0.00000E+00         0.00000E+00
 
    0.76793E+06         0.78141E+06         0.00000E+00
    0.78141E+06         0.61242E+07         0.00000E+00
    0.00000E+00         0.00000E+00         0.00000E+00
 
    0.57819E+06         0.11290E+07         0.00000E+00
    0.11290E+07         0.61805E+07         0.00000E+00
    0.00000E+00         0.00000E+00         0.00000E+00
 
    0.39779E+06         0.15188E+07         0.00000E+00
    0.15188E+07         0.62419E+07         0.00000E+00
    0.00000E+00         0.00000E+00         0.00000E+00
 
    0.22877E+06         0.19492E+07         0.00000E+00
    0.19492E+07         0.63074E+07         0.00000E+00
    0.00000E+00         0.00000E+00         0.00000E+00
 
    0.73701E+05         0.24178E+07         0.00000E+00
    0.24178E+07         0.63757E+07         0.00000E+00
    0.00000E+00         0.00000E+00         0.00000E+00
 
    0.22335E+07        -0.83126E+05         0.00000E+00
   -0.83126E+05         0.52936E+07         0.00000E+00
    0.00000E+00         0.00000E+00         0.00000E+00
 
    0.20846E+07        -0.21538E+06         0.00000E+00
   -0.21538E+06         0.53029E+07         0.00000E+00
    0.00000E+00         0.00000E+00         0.00000E+00
 
    0.19229E+07        -0.29942E+06         0.00000E+00
   -0.29942E+06         0.53190E+07         0.00000E+00
    0.00000E+00         0.00000E+00         0.00000E+00
 
    0.17538E+07        -0.33316E+06         0.00000E+00
   -0.33316E+06         0.53396E+07         0.00000E+00
    0.00000E+00         0.00000E+00         0.00000E+00
 
    0.15812E+07        -0.31567E+06         0.00000E+00
   -0.31567E+06         0.53635E+07         0.00000E+00
    0.00000E+00         0.00000E+00         0.00000E+00
 
    0.14082E+07        -0.24694E+06         0.00000E+00
   -0.24694E+06         0.53900E+07         0.00000E+00
    0.00000E+00         0.00000E+00         0.00000E+00
 
    0.12368E+07        -0.12765E+06         0.00000E+00
   -0.12765E+06         0.54189E+07         0.00000E+00
    0.00000E+00         0.00000E+00         0.00000E+00
 
    0.10686E+07         0.41086E+05         0.00000E+00
    0.41086E+05         0.54501E+07         0.00000E+00
    0.00000E+00         0.00000E+00         0.00000E+00
 
    0.90458E+06         0.25788E+06         0.00000E+00
    0.25788E+06         0.54842E+07         0.00000E+00
    0.00000E+00         0.00000E+00         0.00000E+00
 
    0.74551E+06         0.52126E+06         0.00000E+00
    0.52126E+06         0.55216E+07         0.00000E+00
    0.00000E+00         0.00000E+00         0.00000E+00
 
    0.59209E+06         0.82973E+06         0.00000E+00
    0.82973E+06         0.55625E+07         0.00000E+00
    0.00000E+00         0.00000E+00         0.00000E+00
 
    0.44515E+06         0.11817E+07         0.00000E+00
    0.11817E+07         0.56071E+07         0.00000E+00
    0.00000E+00         0.00000E+00         0.00000E+00
 
    0.30587E+06         0.15754E+07         0.00000E+00
    0.15754E+07         0.56551E+07         0.00000E+00
    0.00000E+00         0.00000E+00         0.00000E+00
 
    0.17575E+06         0.20088E+07         0.00000E+00
    0.20088E+07         0.57059E+07         0.00000E+00
    0.00000E+00         0.00000E+00         0.00000E+00
 
    0.56600E+05         0.24789E+07         0.00000E+00
    0.24789E+07         0.57584E+07         0.00000E+00
    0.00000E+00         0.00000E+00         0.00000E+00
 
    0.15786E+07        -0.78501E+05         0.00000E+00
   -0.78501E+05         0.47889E+07         0.00000E+00
    0.00000E+00         0.00000E+00         0.00000E+00
 
    0.14749E+07        -0.20375E+06         0.00000E+00
   -0.20375E+06         0.47957E+07         0.00000E+00
    0.00000E+00         0.00000E+00         0.00000E+00
 
    0.13618E+07        -0.28303E+06         0.00000E+00
   -0.28303E+06         0.48074E+07         0.00000E+00
    0.00000E+00         0.00000E+00         0.00000E+00
 
    0.12430E+07        -0.31345E+06         0.00000E+00
   -0.31345E+06         0.48226E+07         0.00000E+00
    0.00000E+00         0.00000E+00         0.00000E+00
 
    0.11215E+07        -0.29349E+06         0.00000E+00
   -0.29349E+06         0.48402E+07         0.00000E+00
    0.00000E+00         0.00000E+00         0.00000E+00
 
    0.99930E+06        -0.22268E+06         0.00000E+00
   -0.22268E+06         0.48598E+07         0.00000E+00
    0.00000E+00         0.00000E+00         0.00000E+00
 
    0.87800E+06        -0.10136E+06         0.00000E+00
   -0.10136E+06         0.48812E+07         0.00000E+00
    0.00000E+00         0.00000E+00         0.00000E+00
 
    0.75871E+06         0.69604E+05         0.00000E+00
    0.69604E+05         0.49043E+07         0.00000E+00
    0.00000E+00         0.00000E+00         0.00000E+00
 
    0.64220E+06         0.28896E+06         0.00000E+00
    0.28896E+06         0.49295E+07         0.00000E+00
    0.00000E+00         0.00000E+00         0.00000E+00
 
    0.52911E+06         0.55522E+06         0.00000E+00
    0.55522E+06         0.49569E+07         0.00000E+00
    0.00000E+00         0.00000E+00         0.00000E+00
 
    0.42003E+06         0.86675E+06         0.00000E+00
    0.86675E+06         0.49867E+07         0.00000E+00
    0.00000E+00         0.00000E+00         0.00000E+00
 
    0.31564E+06         0.12217E+07         0.00000E+00
    0.12217E+07         0.50190E+07         0.00000E+00
    0.00000E+00         0.00000E+00         0.00000E+00
 
    0.21680E+06         0.16180E+07         0.00000E+00
    0.16180E+07         0.50535E+07         0.00000E+00
    0.00000E+00         0.00000E+00         0.00000E+00
 
    0.12457E+06         0.20532E+07         0.00000E+00
    0.20532E+07         0.50897E+07         0.00000E+00
    0.00000E+00         0.00000E+00         0.00000E+00
 
    0.40121E+05         0.25243E+07         0.00000E+00
    0.25243E+07         0.51271E+07         0.00000E+00
    0.00000E+00         0.00000E+00         0.00000E+00
 
    0.93083E+06        -0.75430E+05         0.00000E+00
   -0.75430E+05         0.42840E+07         0.00000E+00
    0.00000E+00         0.00000E+00         0.00000E+00
 
    0.87012E+06        -0.19601E+06         0.00000E+00
   -0.19601E+06         0.42879E+07         0.00000E+00
    0.00000E+00         0.00000E+00         0.00000E+00
 
    0.80400E+06        -0.27210E+06         0.00000E+00
   -0.27210E+06         0.42947E+07         0.00000E+00
    0.00000E+00         0.00000E+00         0.00000E+00
 
    0.73464E+06        -0.30027E+06         0.00000E+00
   -0.30027E+06         0.43035E+07         0.00000E+00
    0.00000E+00         0.00000E+00         0.00000E+00
 
    0.66364E+06        -0.27859E+06         0.00000E+00
   -0.27859E+06         0.43137E+07         0.00000E+00
    0.00000E+00         0.00000E+00         0.00000E+00
 
    0.59215E+06        -0.20631E+06         0.00000E+00
   -0.20631E+06         0.43251E+07         0.00000E+00
    0.00000E+00         0.00000E+00         0.00000E+00
 
    0.52102E+06        -0.83531E+05         0.00000E+00
   -0.83531E+05         0.43378E+07         0.00000E+00
    0.00000E+00         0.00000E+00         0.00000E+00
 
    0.45085E+06         0.89000E+05         0.00000E+00
    0.89000E+05         0.43516E+07         0.00000E+00
    0.00000E+00         0.00000E+00         0.00000E+00
 
    0.38210E+06         0.31010E+06         0.00000E+00
    0.31010E+06         0.43667E+07         0.00000E+00
    0.00000E+00         0.00000E+00         0.00000E+00
 
    0.31518E+06         0.57826E+06         0.00000E+00
    0.57826E+06         0.43833E+07         0.00000E+00
    0.00000E+00         0.00000E+00         0.00000E+00
 
    0.25047E+06         0.89174E+06         0.00000E+00
    0.89174E+06         0.44014E+07         0.00000E+00
    0.00000E+00         0.00000E+00         0.00000E+00
 
    0.18841E+06         0.12486E+07         0.00000E+00
    0.12486E+07         0.44209E+07         0.00000E+00
    0.00000E+00         0.00000E+00         0.00000E+00
 
    0.12955E+06         0.16464E+07         0.00000E+00
    0.16464E+07         0.44417E+07         0.00000E+00
    0.00000E+00         0.00000E+00         0.00000E+00
 
    0.74527E+05         0.20828E+07         0.00000E+00
    0.20828E+07         0.44635E+07         0.00000E+00
    0.00000E+00         0.00000E+00         0.00000E+00
 
    0.24029E+05         0.25544E+07         0.00000E+00
    0.25544E+07         0.44859E+07         0.00000E+00
    0.00000E+00         0.00000E+00         0.00000E+00
 
    0.28707E+06        -0.74073E+05         0.00000E+00
   -0.74073E+05         0.37791E+07         0.00000E+00
    0.00000E+00         0.00000E+00         0.00000E+00
 
    0.26806E+06        -0.19263E+06         0.00000E+00
   -0.19263E+06         0.37799E+07         0.00000E+00
    0.00000E+00         0.00000E+00         0.00000E+00
 
    0.24812E+06        -0.26732E+06         0.00000E+00
   -0.26732E+06         0.37812E+07         0.00000E+00
    0.00000E+00         0.00000E+00         0.00000E+00
 
    0.22768E+06        -0.29445E+06         0.00000E+00
   -0.29445E+06         0.37830E+07         0.00000E+00
    0.00000E+00         0.00000E+00         0.00000E+00
 
    0.20699E+06        -0.27191E+06         0.00000E+00
   -0.27191E+06         0.37851E+07         0.00000E+00
    0.00000E+00         0.00000E+00         0.00000E+00
 
    0.18615E+06        -0.19878E+06         0.00000E+00
   -0.19878E+06         0.37878E+07         0.00000E+00
    0.00000E+00         0.00000E+00         0.00000E+00
 
    0.16524E+06        -0.75119E+05         0.00000E+00
   -0.75119E+05         0.37910E+07         0.00000E+00
    0.00000E+00         0.00000E+00         0.00000E+00
 
    0.14431E+06         0.98369E+05         0.00000E+00
    0.98369E+05         0.37948E+07         0.00000E+00
    0.00000E+00         0.00000E+00         0.00000E+00
 
    0.12345E+06         0.32050E+06         0.00000E+00
    0.32050E+06         0.37993E+07         0.00000E+00
    0.00000E+00         0.00000E+00         0.00000E+00
 
    0.10276E+06         0.58973E+06         0.00000E+00
    0.58973E+06         0.38045E+07         0.00000E+00
    0.00000E+00         0.00000E+00         0.00000E+00
 
    0.82384E+05         0.90428E+06         0.00000E+00
    0.90428E+06         0.38104E+07         0.00000E+00
    0.00000E+00         0.00000E+00         0.00000E+00
 
    0.62504E+05         0.12621E+07         0.00000E+00
    0.12621E+07         0.38169E+07         0.00000E+00
    0.00000E+00         0.00000E+00         0.00000E+00
 
    0.43339E+05         0.16608E+07         0.00000E+00
    0.16608E+07         0.38240E+07         0.00000E+00
    0.00000E+00         0.00000E+00         0.00000E+00
 
    0.25134E+05         0.20976E+07         0.00000E+00
    0.20976E+07         0.38314E+07         0.00000E+00
    0.00000E+00         0.00000E+00         0.00000E+00
 
    0.81523E+04         0.25696E+07         0.00000E+00
    0.25696E+07         0.38391E+07         0.00000E+00
    0.00000E+00         0.00000E+00         0.00000E+00
 
   -0.35589E+06        -0.74523E+05         0.00000E+00
   -0.74523E+05         0.32742E+07         0.00000E+00
    0.00000E+00         0.00000E+00         0.00000E+00
 
   -0.33348E+06        -0.19385E+06         0.00000E+00
   -0.19385E+06         0.32717E+07         0.00000E+00
    0.00000E+00         0.00000E+00         0.00000E+00
 
   -0.30736E+06        -0.26908E+06         0.00000E+00
   -0.26908E+06         0.32674E+07         0.00000E+00
    0.00000E+00         0.00000E+00         0.00000E+00
 
   -0.27886E+06        -0.29646E+06         0.00000E+00
   -0.29646E+06         0.32619E+07         0.00000E+00
    0.00000E+00         0.00000E+00         0.00000E+00
 
   -0.24918E+06        -0.27390E+06         0.00000E+00
   -0.27390E+06         0.32557E+07         0.00000E+00
    0.00000E+00         0.00000E+00         0.00000E+00
 
   -0.21928E+06        -0.20057E+06         0.00000E+00
   -0.20057E+06         0.32493E+07         0.00000E+00
    0.00000E+00         0.00000E+00         0.00000E+00
 
   -0.18989E+06        -0.76565E+05         0.00000E+00
   -0.76565E+05         0.32429E+07         0.00000E+00
    0.00000E+00         0.00000E+00         0.00000E+00
 
   -0.16153E+06         0.97310E+05         0.00000E+00
    0.97310E+05         0.32365E+07         0.00000E+00
    0.00000E+00         0.00000E+00         0.00000E+00
 
   -0.13450E+06         0.31981E+06         0.00000E+00
    0.31981E+06         0.32303E+07         0.00000E+00
    0.00000E+00         0.00000E+00         0.00000E+00
 
   -0.10898E+06         0.58937E+06         0.00000E+00
    0.58937E+06         0.32241E+07         0.00000E+00
    0.00000E+00         0.00000E+00         0.00000E+00
 
   -0.85073E+05         0.90418E+06         0.00000E+00
    0.90418E+06         0.32177E+07         0.00000E+00
    0.00000E+00         0.00000E+00         0.00000E+00
 
   -0.62872E+05         0.12622E+07         0.00000E+00
    0.12622E+07         0.32112E+07         0.00000E+00
    0.00000E+00         0.00000E+00         0.00000E+00
 
   -0.42474E+05         0.16610E+07         0.00000E+00
    0.16610E+07         0.32045E+07         0.00000E+00
    0.00000E+00         0.00000E+00         0.00000E+00
 
   -0.24013E+05         0.20979E+07         0.00000E+00
    0.20979E+07         0.31976E+07         0.00000E+00
    0.00000E+00         0.00000E+00         0.00000E+00
 
   -0.76425E+04         0.25700E+07         0.00000E+00
    0.25700E+07         0.31906E+07         0.00000E+00
    0.00000E+00         0.00000E+00         0.00000E+00
 
   -0.10014E+07        -0.76812E+05         0.00000E+00
   -0.76812E+05         0.27693E+07         0.00000E+00
    0.00000E+00         0.00000E+00         0.00000E+00
 
   -0.93687E+06        -0.19976E+06         0.00000E+00
   -0.19976E+06         0.27635E+07         0.00000E+00
    0.00000E+00         0.00000E+00         0.00000E+00
 
   -0.86402E+06        -0.27746E+06         0.00000E+00
   -0.27746E+06         0.27536E+07         0.00000E+00
    0.00000E+00         0.00000E+00         0.00000E+00
 
   -0.78603E+06        -0.30636E+06         0.00000E+00
   -0.30636E+06         0.27409E+07         0.00000E+00
    0.00000E+00         0.00000E+00         0.00000E+00
 
   -0.70556E+06        -0.28460E+06         0.00000E+00
   -0.28460E+06         0.27266E+07         0.00000E+00
    0.00000E+00         0.00000E+00         0.00000E+00
 
   -0.62468E+06        -0.21163E+06         0.00000E+00
   -0.21163E+06         0.27114E+07         0.00000E+00
    0.00000E+00         0.00000E+00         0.00000E+00
 
   -0.54491E+06        -0.87794E+05         0.00000E+00
   -0.87794E+05         0.26956E+07         0.00000E+00
    0.00000E+00         0.00000E+00         0.00000E+00
 
   -0.46728E+06         0.85920E+05         0.00000E+00
    0.85920E+05         0.26795E+07         0.00000E+00
    0.00000E+00         0.00000E+00         0.00000E+00
 
   -0.39245E+06         0.30815E+06         0.00000E+00
    0.30815E+06         0.26628E+07         0.00000E+00
    0.00000E+00         0.00000E+00         0.00000E+00
 
   -0.32082E+06         0.57728E+06         0.00000E+00
    0.57728E+06         0.26454E+07         0.00000E+00
    0.00000E+00         0.00000E+00         0.00000E+00
 
   -0.25272E+06         0.89152E+06         0.00000E+00
    0.89152E+06         0.26271E+07         0.00000E+00
    0.00000E+00         0.00000E+00         0.00000E+00
 
   -0.18847E+06         0.12489E+07         0.00000E+00
    0.12489E+07         0.26078E+07         0.00000E+00
    0.00000E+00         0.00000E+00         0.00000E+00
 
   -0.12849E+06         0.16471E+07         0.00000E+00
    0.16471E+07         0.25874E+07         0.00000E+00
    0.00000E+00         0.00000E+00         0.00000E+00
 
   -0.73294E+05         0.20837E+07         0.00000E+00
    0.20837E+07         0.25662E+07         0.00000E+00
    0.00000E+00         0.00000E+00         0.00000E+00
 
   -0.23482E+05         0.25555E+07         0.00000E+00
    0.25555E+07         0.25445E+07         0.00000E+00
    0.00000E+00         0.00000E+00         0.00000E+00
 
   -0.16529E+07        -0.80921E+05         0.00000E+00
   -0.80921E+05         0.22643E+07         0.00000E+00
    0.00000E+00         0.00000E+00         0.00000E+00
 
   -0.15444E+07        -0.21028E+06         0.00000E+00
   -0.21028E+06         0.22555E+07         0.00000E+00
    0.00000E+00         0.00000E+00         0.00000E+00
 
   -0.14234E+07        -0.29228E+06         0.00000E+00
   -0.29228E+06         0.22402E+07         0.00000E+00
    0.00000E+00         0.00000E+00         0.00000E+00
 
   -0.12948E+07        -0.32382E+06         0.00000E+00
   -0.32382E+06         0.22207E+07         0.00000E+00
    0.00000E+00         0.00000E+00         0.00000E+00
 
   -0.11628E+07        -0.30356E+06         0.00000E+00
   -0.30356E+06         0.21989E+07         0.00000E+00
    0.00000E+00         0.00000E+00         0.00000E+00
 
   -0.10305E+07        -0.23142E+06         0.00000E+00
   -0.23142E+06         0.21756E+07         0.00000E+00
    0.00000E+00         0.00000E+00         0.00000E+00
 
   -0.90032E+06        -0.10820E+06         0.00000E+00
   -0.10820E+06         0.21514E+07         0.00000E+00
    0.00000E+00         0.00000E+00         0.00000E+00
 
   -0.77355E+06         0.64810E+05         0.00000E+00
    0.64810E+05         0.21263E+07         0.00000E+00
    0.00000E+00         0.00000E+00         0.00000E+00
 
   -0.65113E+06         0.28606E+06         0.00000E+00
    0.28606E+06         0.21001E+07         0.00000E+00
    0.00000E+00         0.00000E+00         0.00000E+00
 
   -0.53362E+06         0.55391E+06         0.00000E+00
    0.55391E+06         0.20722E+07         0.00000E+00
    0.00000E+00         0.00000E+00         0.00000E+00
 
   -0.42144E+06         0.86665E+06         0.00000E+00
    0.86665E+06         0.20425E+07         0.00000E+00
    0.00000E+00         0.00000E+00         0.00000E+00
 
   -0.31512E+06         0.12225E+07         0.00000E+00
    0.12225E+07         0.20106E+07         0.00000E+00
    0.00000E+00         0.00000E+00         0.00000E+00
 
   -0.21537E+06         0.16193E+07         0.00000E+00
    0.16193E+07         0.19768E+07         0.00000E+00
    0.00000E+00         0.00000E+00         0.00000E+00
 
   -0.12313E+06         0.20548E+07         0.00000E+00
    0.20548E+07         0.19413E+07         0.00000E+00
    0.00000E+00         0.00000E+00         0.00000E+00
 
   -0.39511E+05         0.25261E+07         0.00000E+00
    0.25261E+07         0.19047E+07         0.00000E+00
    0.00000E+00         0.00000E+00         0.00000E+00
 
   -0.23135E+07        -0.86786E+05         0.00000E+00
   -0.86786E+05         0.17595E+07         0.00000E+00
    0.00000E+00         0.00000E+00         0.00000E+00
 
   -0.21583E+07        -0.22516E+06         0.00000E+00
   -0.22516E+06         0.17477E+07         0.00000E+00
    0.00000E+00         0.00000E+00         0.00000E+00
 
   -0.19867E+07        -0.31305E+06         0.00000E+00
   -0.31305E+06         0.17275E+07         0.00000E+00
    0.00000E+00         0.00000E+00         0.00000E+00
 
   -0.18058E+07        -0.34812E+06         0.00000E+00
   -0.34812E+06         0.17021E+07         0.00000E+00
    0.00000E+00         0.00000E+00         0.00000E+00
 
   -0.16213E+07        -0.32982E+06         0.00000E+00
   -0.32982E+06         0.16737E+07         0.00000E+00
    0.00000E+00         0.00000E+00         0.00000E+00
 
   -0.14372E+07        -0.25884E+06         0.00000E+00
   -0.25884E+06         0.16437E+07         0.00000E+00
    0.00000E+00         0.00000E+00         0.00000E+00
 
   -0.12566E+07        -0.13661E+06         0.00000E+00
   -0.13661E+06         0.16125E+07         0.00000E+00
    0.00000E+00         0.00000E+00         0.00000E+00
 
   -0.10810E+07         0.35126E+05         0.00000E+00
    0.35126E+05         0.15799E+07         0.00000E+00
    0.00000E+00         0.00000E+00         0.00000E+00
 
   -0.91143E+06         0.25458E+06         0.00000E+00
    0.25458E+06         0.15454E+07         0.00000E+00
    0.00000E+00         0.00000E+00         0.00000E+00
 
   -0.74839E+06         0.52010E+06         0.00000E+00
    0.52010E+06         0.15083E+07         0.00000E+00
    0.00000E+00         0.00000E+00         0.00000E+00
 
   -0.59233E+06         0.83014E+06         0.00000E+00
    0.83014E+06         0.14680E+07         0.00000E+00
    0.00000E+00         0.00000E+00         0.00000E+00
 
   -0.44386E+06         0.11832E+07         0.00000E+00
    0.11832E+07         0.14242E+07         0.00000E+00
    0.00000E+00         0.00000E+00         0.00000E+00
 
   -0.30397E+06         0.15776E+07         0.00000E+00
    0.15776E+07         0.13771E+07         0.00000E+00
    0.00000E+00         0.00000E+00         0.00000E+00
 
   -0.17408E+06         0.20112E+07         0.00000E+00
    0.20112E+07         0.13272E+07         0.00000E+00
    0.00000E+00         0.00000E+00         0.00000E+00
 
   -0.55914E+05         0.24815E+07         0.00000E+00
    0.24815E+07         0.12755E+07         0.00000E+00
    0.00000E+00         0.00000E+00         0.00000E+00
 
   -0.29864E+07        -0.94296E+05         0.00000E+00
   -0.94296E+05         0.12547E+07         0.00000E+00
    0.00000E+00         0.00000E+00         0.00000E+00
 
   -0.27804E+07        -0.24399E+06         0.00000E+00
   -0.24399E+06         0.12402E+07         0.00000E+00
    0.00000E+00         0.00000E+00         0.00000E+00
 
   -0.25551E+07        -0.33901E+06         0.00000E+00
   -0.33901E+06         0.12159E+07         0.00000E+00
    0.00000E+00         0.00000E+00         0.00000E+00
 
   -0.23197E+07        -0.37811E+06         0.00000E+00
   -0.37811E+06         0.11857E+07         0.00000E+00
    0.00000E+00         0.00000E+00         0.00000E+00
 
   -0.20813E+07        -0.36190E+06         0.00000E+00
   -0.36190E+06         0.11524E+07         0.00000E+00
    0.00000E+00         0.00000E+00         0.00000E+00
 
   -0.18450E+07        -0.29216E+06         0.00000E+00
   -0.29216E+06         0.11176E+07         0.00000E+00
    0.00000E+00         0.00000E+00         0.00000E+00
 
   -0.16142E+07        -0.17122E+06         0.00000E+00
   -0.17122E+06         0.10815E+07         0.00000E+00
    0.00000E+00         0.00000E+00         0.00000E+00
 
   -0.13904E+07        -0.14023E+04         0.00000E+00
   -0.14023E+04         0.10435E+07         0.00000E+00
    0.00000E+00         0.00000E+00         0.00000E+00
 
   -0.11744E+07         0.21523E+06         0.00000E+00
    0.21523E+06         0.10027E+07         0.00000E+00
    0.00000E+00         0.00000E+00         0.00000E+00
 
   -0.96646E+06         0.47705E+06         0.00000E+00
    0.47705E+06         0.95788E+06         0.00000E+00
    0.00000E+00         0.00000E+00         0.00000E+00
 
   -0.76680E+06         0.78281E+06         0.00000E+00
    0.78281E+06         0.90816E+06         0.00000E+00
    0.00000E+00         0.00000E+00         0.00000E+00
 
   -0.57604E+06         0.11315E+07         0.00000E+00
    0.11315E+07         0.85311E+06         0.00000E+00
    0.00000E+00         0.00000E+00         0.00000E+00
 
   -0.39542E+06         0.15219E+07         0.00000E+00
    0.15219E+07         0.79292E+06         0.00000E+00
    0.00000E+00         0.00000E+00         0.00000E+00
 
   -0.22687E+06         0.19526E+07         0.00000E+00
    0.19526E+07         0.72848E+06         0.00000E+00
    0.00000E+00         0.00000E+00         0.00000E+00
 
   -0.72951E+05         0.24214E+07         0.00000E+00
    0.24214E+07         0.66124E+06         0.00000E+00
    0.00000E+00         0.00000E+00         0.00000E+00
 
   -0.36744E+07        -0.10329E+06         0.00000E+00
   -0.10329E+06         0.74997E+06         0.00000E+00
    0.00000E+00         0.00000E+00         0.00000E+00
 
   -0.34123E+07        -0.26618E+06         0.00000E+00
   -0.26618E+06         0.73334E+06         0.00000E+00
    0.00000E+00         0.00000E+00         0.00000E+00
 
   -0.31291E+07        -0.36902E+06         0.00000E+00
   -0.36902E+06         0.70581E+06         0.00000E+00
    0.00000E+00         0.00000E+00         0.00000E+00
 
   -0.28363E+07        -0.41210E+06         0.00000E+00
   -0.41210E+06         0.67249E+06         0.00000E+00
    0.00000E+00         0.00000E+00         0.00000E+00
 
   -0.25427E+07        -0.39765E+06         0.00000E+00
   -0.39765E+06         0.63662E+06         0.00000E+00
    0.00000E+00         0.00000E+00         0.00000E+00
 
   -0.22540E+07        -0.32898E+06         0.00000E+00
   -0.32898E+06         0.59963E+06         0.00000E+00
    0.00000E+00         0.00000E+00         0.00000E+00
 
   -0.19735E+07        -0.20954E+06         0.00000E+00
   -0.20954E+06         0.56141E+06         0.00000E+00
    0.00000E+00         0.00000E+00         0.00000E+00
 
   -0.17026E+07        -0.42420E+05         0.00000E+00
   -0.42420E+05         0.52082E+06         0.00000E+00
    0.00000E+00         0.00000E+00         0.00000E+00
 
   -0.14414E+07         0.17006E+06         0.00000E+00
    0.17006E+06         0.47616E+06         0.00000E+00
    0.00000E+00         0.00000E+00         0.00000E+00
 
   -0.11896E+07         0.42637E+06         0.00000E+00
    0.42637E+06         0.42570E+06         0.00000E+00
    0.00000E+00         0.00000E+00         0.00000E+00
 
   -0.94678E+06         0.72573E+06         0.00000E+00
    0.72573E+06         0.36806E+06         0.00000E+00
    0.00000E+00         0.00000E+00         0.00000E+00
 
   -0.71354E+06         0.10678E+07         0.00000E+00
    0.10678E+07         0.30258E+06         0.00000E+00
    0.00000E+00         0.00000E+00         0.00000E+00
 
   -0.49127E+06         0.14523E+07         0.00000E+00
    0.14523E+07         0.22950E+06         0.00000E+00
    0.00000E+00         0.00000E+00         0.00000E+00
 
   -0.28255E+06         0.18785E+07         0.00000E+00
    0.18785E+07         0.15008E+06         0.00000E+00
    0.00000E+00         0.00000E+00         0.00000E+00
 
   -0.90987E+05         0.23449E+07         0.00000E+00
    0.23449E+07         0.66467E+05         0.00000E+00
    0.00000E+00         0.00000E+00         0.00000E+00
 
   -0.43798E+07        -0.11358E+06         0.00000E+00
   -0.11358E+06         0.24537E+06         0.00000E+00
    0.00000E+00         0.00000E+00         0.00000E+00
 
   -0.40547E+07        -0.29093E+06         0.00000E+00
   -0.29093E+06         0.22713E+06         0.00000E+00
    0.00000E+00         0.00000E+00         0.00000E+00
 
   -0.37085E+07        -0.40152E+06         0.00000E+00
   -0.40152E+06         0.19781E+06         0.00000E+00
    0.00000E+00         0.00000E+00         0.00000E+00
 
   -0.33551E+07        -0.44776E+06         0.00000E+00
   -0.44776E+06         0.16363E+06         0.00000E+00
    0.00000E+00         0.00000E+00         0.00000E+00
 
   -0.30049E+07        -0.43419E+06         0.00000E+00
   -0.43419E+06         0.12815E+06         0.00000E+00
    0.00000E+00         0.00000E+00         0.00000E+00
 
   -0.26640E+07        -0.36607E+06         0.00000E+00
   -0.36607E+06         0.92502E+05         0.00000E+00
    0.00000E+00         0.00000E+00         0.00000E+00
 
   -0.23352E+07        -0.24834E+06         0.00000E+00
   -0.24834E+06         0.55850E+05         0.00000E+00
    0.00000E+00         0.00000E+00         0.00000E+00
 
   -0.20190E+07        -0.84903E+05         0.00000E+00
   -0.84903E+05         0.16136E+05         0.00000E+00
    0.00000E+00         0.00000E+00         0.00000E+00
 
   -0.17144E+07         0.12165E+06         0.00000E+00
    0.12165E+06        -0.29245E+05         0.00000E+00
    0.00000E+00         0.00000E+00         0.00000E+00
 
   -0.14200E+07         0.37004E+06         0.00000E+00
    0.37004E+06        -0.82836E+05         0.00000E+00
    0.00000E+00         0.00000E+00         0.00000E+00
 
   -0.11348E+07         0.66016E+06         0.00000E+00
    0.66016E+06        -0.14662E+06         0.00000E+00
    0.00000E+00         0.00000E+00         0.00000E+00
 
   -0.85886E+06         0.99265E+06         0.00000E+00
    0.99265E+06        -0.22161E+06         0.00000E+00
    0.00000E+00         0.00000E+00         0.00000E+00
 
   -0.59367E+06         0.13685E+07         0.00000E+00
    0.13685E+07        -0.30752E+06         0.00000E+00
    0.00000E+00         0.00000E+00         0.00000E+00
 
   -0.34257E+06         0.17881E+07         0.00000E+00
    0.17881E+07        -0.40264E+06         0.00000E+00
    0.00000E+00         0.00000E+00         0.00000E+00
 
   -0.11054E+06         0.22509E+07         0.00000E+00
    0.22509E+07        -0.50391E+06         0.00000E+00
    0.00000E+00         0.00000E+00         0.00000E+00
 
   -0.51044E+07        -0.12491E+06         0.00000E+00
   -0.12491E+06        -0.25909E+06         0.00000E+00
    0.00000E+00         0.00000E+00         0.00000E+00
 
   -0.47078E+07        -0.31716E+06         0.00000E+00
   -0.31716E+06        -0.27819E+06         0.00000E+00
    0.00000E+00         0.00000E+00         0.00000E+00
 
   -0.42922E+07        -0.43436E+06         0.00000E+00
   -0.43436E+06        -0.30741E+06         0.00000E+00
    0.00000E+00         0.00000E+00         0.00000E+00
 
   -0.38748E+07        -0.48197E+06         0.00000E+00
   -0.48197E+06        -0.33937E+06         0.00000E+00
    0.00000E+00         0.00000E+00         0.00000E+00
 
   -0.34671E+07        -0.46767E+06         0.00000E+00
   -0.46767E+06        -0.37043E+06         0.00000E+00
    0.00000E+00         0.00000E+00         0.00000E+00
 
   -0.30749E+07        -0.39931E+06         0.00000E+00
   -0.39931E+06        -0.40022E+06         0.00000E+00
    0.00000E+00         0.00000E+00         0.00000E+00
 
   -0.27000E+07        -0.28355E+06         0.00000E+00
   -0.28355E+06        -0.43075E+06         0.00000E+00
    0.00000E+00         0.00000E+00         0.00000E+00
 
   -0.23411E+07        -0.12516E+06         0.00000E+00
   -0.12516E+06        -0.46534E+06         0.00000E+00
    0.00000E+00         0.00000E+00         0.00000E+00
 
   -0.19957E+07         0.73109E+05         0.00000E+00
    0.73109E+05        -0.50777E+06         0.00000E+00
    0.00000E+00         0.00000E+00         0.00000E+00
 
   -0.16609E+07         0.31042E+06         0.00000E+00
    0.31042E+06        -0.56157E+06         0.00000E+00
    0.00000E+00         0.00000E+00         0.00000E+00
 
   -0.13344E+07         0.58755E+06         0.00000E+00
    0.58755E+06        -0.62949E+06         0.00000E+00
    0.00000E+00         0.00000E+00         0.00000E+00
 
   -0.10154E+07         0.90651E+06         0.00000E+00
    0.90651E+06        -0.71300E+06         0.00000E+00
    0.00000E+00         0.00000E+00         0.00000E+00
 
   -0.70558E+06         0.12699E+07         0.00000E+00
    0.12699E+07        -0.81188E+06         0.00000E+00
    0.00000E+00         0.00000E+00         0.00000E+00
 
   -0.40897E+06         0.16799E+07         0.00000E+00
    0.16799E+07        -0.92386E+06         0.00000E+00
    0.00000E+00         0.00000E+00         0.00000E+00
 
   -0.13233E+06         0.21375E+07         0.00000E+00
    0.21375E+07        -0.10447E+07         0.00000E+00
    0.00000E+00         0.00000E+00         0.00000E+00
 
   -0.58493E+07        -0.13697E+06         0.00000E+00
   -0.13697E+06        -0.76338E+06         0.00000E+00
    0.00000E+00         0.00000E+00         0.00000E+00
 
   -0.53704E+07        -0.34341E+06         0.00000E+00
   -0.34341E+06        -0.78229E+06         0.00000E+00
    0.00000E+00         0.00000E+00         0.00000E+00
 
   -0.48781E+07        -0.46457E+06         0.00000E+00
   -0.46457E+06        -0.80876E+06         0.00000E+00
    0.00000E+00         0.00000E+00         0.00000E+00
 
   -0.43931E+07        -0.51044E+06         0.00000E+00
   -0.51044E+06        -0.83424E+06         0.00000E+00
    0.00000E+00         0.00000E+00         0.00000E+00
 
   -0.39276E+07        -0.49306E+06         0.00000E+00
   -0.49306E+06        -0.85553E+06         0.00000E+00
    0.00000E+00         0.00000E+00         0.00000E+00
 
   -0.34864E+07        -0.42352E+06         0.00000E+00
   -0.42352E+06        -0.87377E+06         0.00000E+00
    0.00000E+00         0.00000E+00         0.00000E+00
 
   -0.30688E+07        -0.31030E+06         0.00000E+00
   -0.31030E+06        -0.89274E+06         0.00000E+00
    0.00000E+00         0.00000E+00         0.00000E+00
 
   -0.26712E+07        -0.15891E+06         0.00000E+00
   -0.15891E+06        -0.91738E+06         0.00000E+00
    0.00000E+00         0.00000E+00         0.00000E+00
 
   -0.22887E+07         0.27971E+05         0.00000E+00
    0.27971E+05        -0.95279E+06         0.00000E+00
    0.00000E+00         0.00000E+00         0.00000E+00
 
   -0.19162E+07         0.25014E+06         0.00000E+00
    0.25014E+06        -0.10036E+07         0.00000E+00
    0.00000E+00         0.00000E+00         0.00000E+00
 
   -0.15499E+07         0.50951E+06         0.00000E+00
    0.50951E+06        -0.10734E+07         0.00000E+00
    0.00000E+00         0.00000E+00         0.00000E+00
 
   -0.11878E+07         0.80975E+06         0.00000E+00
    0.80975E+06        -0.11644E+07         0.00000E+00
    0.00000E+00         0.00000E+00         0.00000E+00
 
   -0.83104E+06         0.11557E+07         0.00000E+00
    0.11557E+07        -0.12766E+07         0.00000E+00
    0.00000E+00         0.00000E+00         0.00000E+00
 
   -0.48456E+06         0.15521E+07         0.00000E+00
    0.15521E+07        -0.14072E+07         0.00000E+00
    0.00000E+00         0.00000E+00         0.00000E+00
 
   -0.15739E+06         0.20021E+07         0.00000E+00
    0.20021E+07        -0.15505E+07         0.00000E+00
    0.00000E+00         0.00000E+00         0.00000E+00
 
   -0.66146E+07        -0.14937E+06         0.00000E+00
   -0.14937E+06        -0.12674E+07         0.00000E+00
    0.00000E+00         0.00000E+00         0.00000E+00
 
   -0.60396E+07        -0.36756E+06         0.00000E+00
   -0.36756E+06        -0.12846E+07         0.00000E+00
    0.00000E+00         0.00000E+00         0.00000E+00
 
   -0.54619E+07        -0.48787E+06         0.00000E+00
   -0.48787E+06        -0.13044E+07         0.00000E+00
    0.00000E+00         0.00000E+00         0.00000E+00
 
   -0.49064E+07        -0.52731E+06         0.00000E+00
   -0.52731E+06        -0.13173E+07         0.00000E+00
    0.00000E+00         0.00000E+00         0.00000E+00
 
   -0.43848E+07        -0.50394E+06         0.00000E+00
   -0.50394E+06        -0.13218E+07         0.00000E+00
    0.00000E+00         0.00000E+00         0.00000E+00
 
   -0.38986E+07        -0.43254E+06         0.00000E+00
   -0.43254E+06        -0.13216E+07         0.00000E+00
    0.00000E+00         0.00000E+00         0.00000E+00
 
   -0.34435E+07        -0.32317E+06         0.00000E+00
   -0.32317E+06        -0.13229E+07         0.00000E+00
    0.00000E+00         0.00000E+00         0.00000E+00
 
   -0.30123E+07        -0.18158E+06         0.00000E+00
   -0.18158E+06        -0.13325E+07         0.00000E+00
    0.00000E+00         0.00000E+00         0.00000E+00
 
   -0.25972E+07        -0.10025E+05         0.00000E+00
   -0.10025E+05        -0.13568E+07         0.00000E+00
    0.00000E+00         0.00000E+00         0.00000E+00
 
   -0.21908E+07         0.19206E+06         0.00000E+00
    0.19206E+06        -0.14012E+07         0.00000E+00
    0.00000E+00         0.00000E+00         0.00000E+00
 
   -0.17870E+07         0.42780E+06         0.00000E+00
    0.42780E+06        -0.14706E+07         0.00000E+00
    0.00000E+00         0.00000E+00         0.00000E+00
 
   -0.13819E+07         0.70276E+06         0.00000E+00
    0.70276E+06        -0.15680E+07         0.00000E+00
    0.00000E+00         0.00000E+00         0.00000E+00
 
   -0.97554E+06         0.10245E+07         0.00000E+00
    0.10245E+07        -0.16941E+07         0.00000E+00
    0.00000E+00         0.00000E+00         0.00000E+00
 
   -0.57335E+06         0.14016E+07         0.00000E+00
    0.14016E+07        -0.18458E+07         0.00000E+00
    0.00000E+00         0.00000E+00         0.00000E+00
 
   -0.18718E+06         0.18407E+07         0.00000E+00
    0.18407E+07        -0.20156E+07         0.00000E+00
    0.00000E+00         0.00000E+00         0.00000E+00
 
   -0.73991E+07        -0.16156E+06         0.00000E+00
   -0.16156E+06        -0.17712E+07         0.00000E+00
    0.00000E+00         0.00000E+00         0.00000E+00
 
   -0.67098E+07        -0.38625E+06         0.00000E+00
   -0.38625E+06        -0.17841E+07         0.00000E+00
    0.00000E+00         0.00000E+00         0.00000E+00
 
   -0.60375E+07        -0.49774E+06         0.00000E+00
   -0.49774E+06        -0.17908E+07         0.00000E+00
    0.00000E+00         0.00000E+00         0.00000E+00
 
   -0.54107E+07        -0.52441E+06         0.00000E+00
   -0.52441E+06        -0.17822E+07         0.00000E+00
    0.00000E+00         0.00000E+00         0.00000E+00
 
   -0.48372E+07        -0.49230E+06         0.00000E+00
   -0.49230E+06        -0.17607E+07         0.00000E+00
    0.00000E+00         0.00000E+00         0.00000E+00
 
   -0.43126E+07        -0.41954E+06         0.00000E+00
   -0.41954E+06        -0.17342E+07         0.00000E+00
    0.00000E+00         0.00000E+00         0.00000E+00
 
   -0.38266E+07        -0.31665E+06         0.00000E+00
   -0.31665E+06        -0.17120E+07         0.00000E+00
    0.00000E+00         0.00000E+00         0.00000E+00
 
   -0.33681E+07        -0.18876E+06         0.00000E+00
   -0.18876E+06        -0.17020E+07         0.00000E+00
    0.00000E+00         0.00000E+00         0.00000E+00
 
   -0.29261E+07        -0.37333E+05         0.00000E+00
   -0.37333E+05        -0.17114E+07         0.00000E+00
    0.00000E+00         0.00000E+00         0.00000E+00
 
   -0.24906E+07         0.13901E+06         0.00000E+00
    0.13901E+06        -0.17466E+07         0.00000E+00
    0.00000E+00         0.00000E+00         0.00000E+00
 
   -0.20526E+07         0.34438E+06         0.00000E+00
    0.34438E+06        -0.18131E+07         0.00000E+00
    0.00000E+00         0.00000E+00         0.00000E+00
 
   -0.16054E+07         0.58604E+06         0.00000E+00
    0.58604E+06        -0.19155E+07         0.00000E+00
    0.00000E+00         0.00000E+00         0.00000E+00
 
   -0.11466E+07         0.87483E+06         0.00000E+00
    0.87483E+06        -0.20559E+07         0.00000E+00
    0.00000E+00         0.00000E+00         0.00000E+00
 
   -0.68111E+06         0.12243E+07         0.00000E+00
    0.12243E+07        -0.22319E+07         0.00000E+00
    0.00000E+00         0.00000E+00         0.00000E+00
 
   -0.22392E+06         0.16475E+07         0.00000E+00
    0.16475E+07        -0.24342E+07         0.00000E+00
    0.00000E+00         0.00000E+00         0.00000E+00
 
   -0.81989E+07        -0.17266E+06         0.00000E+00
   -0.17266E+06        -0.22743E+07         0.00000E+00
    0.00000E+00         0.00000E+00         0.00000E+00
 
   -0.73712E+07        -0.39338E+06         0.00000E+00
   -0.39338E+06        -0.22779E+07         0.00000E+00
    0.00000E+00         0.00000E+00         0.00000E+00
 
   -0.65959E+07        -0.48357E+06         0.00000E+00
   -0.48357E+06        -0.22605E+07         0.00000E+00
    0.00000E+00         0.00000E+00         0.00000E+00
 
   -0.59016E+07        -0.49054E+06         0.00000E+00
   -0.49054E+06        -0.22171E+07         0.00000E+00
    0.00000E+00         0.00000E+00         0.00000E+00
 
   -0.52852E+07        -0.44909E+06         0.00000E+00
   -0.44909E+06        -0.21588E+07         0.00000E+00
    0.00000E+00         0.00000E+00         0.00000E+00
 
   -0.47311E+07        -0.37804E+06         0.00000E+00
   -0.37804E+06        -0.20988E+07         0.00000E+00
    0.00000E+00         0.00000E+00         0.00000E+00
 
   -0.42224E+07        -0.28622E+06         0.00000E+00
   -0.28622E+06        -0.20484E+07         0.00000E+00
    0.00000E+00         0.00000E+00         0.00000E+00
 
   -0.37436E+07        -0.17714E+06         0.00000E+00
   -0.17714E+06        -0.20158E+07         0.00000E+00
    0.00000E+00         0.00000E+00         0.00000E+00
 
   -0.32809E+07        -0.51228E+05         0.00000E+00
   -0.51228E+05        -0.20083E+07         0.00000E+00
    0.00000E+00         0.00000E+00         0.00000E+00
 
   -0.28217E+07         0.93490E+05         0.00000E+00
    0.93490E+05        -0.20322E+07         0.00000E+00
    0.00000E+00         0.00000E+00         0.00000E+00
 
   -0.23542E+07         0.26149E+06         0.00000E+00
    0.26149E+06        -0.20936E+07         0.00000E+00
    0.00000E+00         0.00000E+00         0.00000E+00
 
   -0.18678E+07         0.46081E+06         0.00000E+00
    0.46081E+06        -0.21987E+07         0.00000E+00
    0.00000E+00         0.00000E+00         0.00000E+00
 
   -0.13548E+07         0.70512E+06         0.00000E+00
    0.70512E+06        -0.23530E+07         0.00000E+00
    0.00000E+00         0.00000E+00         0.00000E+00
 
   -0.81671E+06         0.10150E+07         0.00000E+00
    0.10150E+07        -0.25569E+07         0.00000E+00
    0.00000E+00         0.00000E+00         0.00000E+00
 
   -0.27115E+06         0.14140E+07         0.00000E+00
    0.14140E+07        -0.27999E+07         0.00000E+00
    0.00000E+00         0.00000E+00         0.00000E+00
 
   -0.90050E+07        -0.18058E+06         0.00000E+00
   -0.18058E+06        -0.27754E+07         0.00000E+00
    0.00000E+00         0.00000E+00         0.00000E+00
 
   -0.80063E+07        -0.37617E+06         0.00000E+00
   -0.37617E+06        -0.27586E+07         0.00000E+00
    0.00000E+00         0.00000E+00         0.00000E+00
 
   -0.71269E+07        -0.42765E+06         0.00000E+00
   -0.42765E+06        -0.26957E+07         0.00000E+00
    0.00000E+00         0.00000E+00         0.00000E+00
 
   -0.63787E+07        -0.41215E+06         0.00000E+00
   -0.41215E+06        -0.26000E+07         0.00000E+00
    0.00000E+00         0.00000E+00         0.00000E+00
 
   -0.57327E+07        -0.36640E+06         0.00000E+00
   -0.36640E+06        -0.24956E+07         0.00000E+00
    0.00000E+00         0.00000E+00         0.00000E+00
 
   -0.51597E+07        -0.30393E+06         0.00000E+00
   -0.30393E+06        -0.23984E+07         0.00000E+00
    0.00000E+00         0.00000E+00         0.00000E+00
 
   -0.46364E+07        -0.22982E+06         0.00000E+00
   -0.22982E+06        -0.23187E+07         0.00000E+00
    0.00000E+00         0.00000E+00         0.00000E+00
 
   -0.41442E+07        -0.14554E+06         0.00000E+00
   -0.14554E+06        -0.22637E+07         0.00000E+00
    0.00000E+00         0.00000E+00         0.00000E+00
 
   -0.36670E+07        -0.50599E+05         0.00000E+00
   -0.50599E+05        -0.22394E+07         0.00000E+00
    0.00000E+00         0.00000E+00         0.00000E+00
 
   -0.31902E+07         0.57074E+05         0.00000E+00
    0.57074E+05        -0.22514E+07         0.00000E+00
    0.00000E+00         0.00000E+00         0.00000E+00
 
   -0.26995E+07         0.18147E+06         0.00000E+00
    0.18147E+06        -0.23063E+07         0.00000E+00
    0.00000E+00         0.00000E+00         0.00000E+00
 
   -0.21797E+07         0.32980E+06         0.00000E+00
    0.32980E+06        -0.24114E+07         0.00000E+00
    0.00000E+00         0.00000E+00         0.00000E+00
 
   -0.16147E+07         0.51563E+06         0.00000E+00
    0.51563E+06        -0.25763E+07         0.00000E+00
    0.00000E+00         0.00000E+00         0.00000E+00
 
   -0.99471E+06         0.76700E+06         0.00000E+00
    0.76700E+06        -0.28102E+07         0.00000E+00
    0.00000E+00         0.00000E+00         0.00000E+00
 
   -0.33524E+06         0.11268E+07         0.00000E+00
    0.11268E+07        -0.31057E+07         0.00000E+00
    0.00000E+00         0.00000E+00         0.00000E+00
 
   -0.97942E+07        -0.17781E+06         0.00000E+00
   -0.17781E+06        -0.32699E+07         0.00000E+00
    0.00000E+00         0.00000E+00         0.00000E+00
 
   -0.85884E+07        -0.30256E+06         0.00000E+00
   -0.30256E+06        -0.31958E+07         0.00000E+00
    0.00000E+00         0.00000E+00         0.00000E+00
 
   -0.76279E+07        -0.30607E+06         0.00000E+00
   -0.30607E+06        -0.30538E+07         0.00000E+00
    0.00000E+00         0.00000E+00         0.00000E+00
 
   -0.68495E+07        -0.27979E+06         0.00000E+00
   -0.27979E+06        -0.28949E+07         0.00000E+00
    0.00000E+00         0.00000E+00         0.00000E+00
 
   -0.61886E+07        -0.24213E+06         0.00000E+00
   -0.24213E+06        -0.27444E+07         0.00000E+00
    0.00000E+00         0.00000E+00         0.00000E+00
 
   -0.56062E+07        -0.19819E+06         0.00000E+00
   -0.19819E+06        -0.26137E+07         0.00000E+00
    0.00000E+00         0.00000E+00         0.00000E+00
 
   -0.50753E+07        -0.14943E+06         0.00000E+00
   -0.14943E+06        -0.25091E+07         0.00000E+00
    0.00000E+00         0.00000E+00         0.00000E+00
 
   -0.45754E+07        -0.95866E+05         0.00000E+00
   -0.95866E+05        -0.24356E+07         0.00000E+00
    0.00000E+00         0.00000E+00         0.00000E+00
 
   -0.40893E+07        -0.36687E+05         0.00000E+00
   -0.36687E+05        -0.23976E+07         0.00000E+00
    0.00000E+00         0.00000E+00         0.00000E+00
 
   -0.36011E+07         0.29684E+05         0.00000E+00
    0.29684E+05        -0.23997E+07         0.00000E+00
    0.00000E+00         0.00000E+00         0.00000E+00
 
   -0.30945E+07         0.10596E+06         0.00000E+00
    0.10596E+06        -0.24481E+07         0.00000E+00
    0.00000E+00         0.00000E+00         0.00000E+00
 
   -0.25506E+07         0.19698E+06         0.00000E+00
    0.19698E+06        -0.25509E+07         0.00000E+00
    0.00000E+00         0.00000E+00         0.00000E+00
 
   -0.19451E+07         0.31239E+06         0.00000E+00
    0.31239E+06        -0.27204E+07         0.00000E+00
    0.00000E+00         0.00000E+00         0.00000E+00
 
   -0.12419E+07         0.47576E+06         0.00000E+00
    0.47576E+06        -0.29771E+07         0.00000E+00
    0.00000E+00         0.00000E+00         0.00000E+00
 
   -0.43022E+06         0.76293E+06         0.00000E+00
    0.76293E+06        -0.33417E+07         0.00000E+00
    0.00000E+00         0.00000E+00         0.00000E+00
 
   -0.10499E+08        -0.10712E+06         0.00000E+00
   -0.10712E+06        -0.36770E+07         0.00000E+00
    0.00000E+00         0.00000E+00         0.00000E+00
 
   -0.91059E+07        -0.12292E+06         0.00000E+00
   -0.12292E+06        -0.34846E+07         0.00000E+00
    0.00000E+00         0.00000E+00         0.00000E+00
 
   -0.81183E+07        -0.11283E+06         0.00000E+00
   -0.11283E+06        -0.32636E+07         0.00000E+00
    0.00000E+00         0.00000E+00         0.00000E+00
 
   -0.73299E+07        -0.99762E+05         0.00000E+00
   -0.99762E+05        -0.30582E+07         0.00000E+00
    0.00000E+00         0.00000E+00         0.00000E+00
 
   -0.66643E+07        -0.84930E+05         0.00000E+00
   -0.84930E+05        -0.28778E+07         0.00000E+00
    0.00000E+00         0.00000E+00         0.00000E+00
 
   -0.60787E+07        -0.68972E+05         0.00000E+00
   -0.68972E+05        -0.27267E+07         0.00000E+00
    0.00000E+00         0.00000E+00         0.00000E+00
 
   -0.55449E+07        -0.51894E+05         0.00000E+00
   -0.51894E+05        -0.26078E+07         0.00000E+00
    0.00000E+00         0.00000E+00         0.00000E+00
 
   -0.50417E+07        -0.33485E+05         0.00000E+00
   -0.33485E+05        -0.25238E+07         0.00000E+00
    0.00000E+00         0.00000E+00         0.00000E+00
 
   -0.45514E+07        -0.13366E+05         0.00000E+00
   -0.13366E+05        -0.24780E+07         0.00000E+00
    0.00000E+00         0.00000E+00         0.00000E+00
 
   -0.40578E+07         0.90538E+04         0.00000E+00
    0.90538E+04        -0.24744E+07         0.00000E+00
    0.00000E+00         0.00000E+00         0.00000E+00
 
   -0.35432E+07         0.34726E+05         0.00000E+00
    0.34726E+05        -0.25188E+07         0.00000E+00
    0.00000E+00         0.00000E+00         0.00000E+00
 
   -0.29868E+07         0.65320E+05         0.00000E+00
    0.65320E+05        -0.26192E+07         0.00000E+00
    0.00000E+00         0.00000E+00         0.00000E+00
 
   -0.23589E+07         0.10432E+06         0.00000E+00
    0.10432E+06        -0.27890E+07         0.00000E+00
    0.00000E+00         0.00000E+00         0.00000E+00
 
   -0.16087E+07         0.15952E+06         0.00000E+00
    0.15952E+06        -0.30529E+07         0.00000E+00
    0.00000E+00         0.00000E+00         0.00000E+00
 
   -0.59739E+06         0.27907E+06         0.00000E+00
    0.27907E+06        -0.34801E+07         0.00000E+00
    0.00000E+00         0.00000E+00         0.00000E+00
 
TENSORS stresstot double 
   -0.60942E+08        -0.14260E+06         0.00000E+00
   -0.14260E+06        -0.60204E+08         0.00000E+00
    0.00000E+00         0.00000E+00        -0.68607E+08
 
   -0.61905E+08        -0.11924E+06         0.00000E+00
   -0.11924E+06        -0.60388E+08         0.00000E+00
    0.00000E+00         0.00000E+00        -0.69773E+08
 
   -0.62554E+08        -0.65284E+05         0.00000E+00
   -0.65284E+05        -0.60547E+08         0.00000E+00
    0.00000E+00         0.00000E+00        -0.70560E+08
 
   -0.63324E+08        -0.69657E+05         0.00000E+00
   -0.69657E+05        -0.60650E+08         0.00000E+00
    0.00000E+00         0.00000E+00        -0.70835E+08
 
   -0.64087E+08        -0.84824E+05         0.00000E+00
   -0.84824E+05        -0.60812E+08         0.00000E+00
    0.00000E+00         0.00000E+00        -0.70835E+08
 
   -0.64716E+08        -0.73994E+05         0.00000E+00
   -0.73994E+05        -0.60969E+08         0.00000E+00
    0.00000E+00         0.00000E+00        -0.70835E+08
 
   -0.65272E+08        -0.57429E+05         0.00000E+00
   -0.57429E+05        -0.61099E+08         0.00000E+00
    0.00000E+00         0.00000E+00        -0.70835E+08
 
   -0.65787E+08        -0.38358E+05         0.00000E+00
   -0.38358E+05        -0.61193E+08         0.00000E+00
    0.00000E+00         0.00000E+00        -0.70835E+08
 
   -0.66284E+08        -0.17382E+05         0.00000E+00
   -0.17382E+05        -0.61247E+08         0.00000E+00
    0.00000E+00         0.00000E+00        -0.70835E+08
 
   -0.66782E+08         0.58323E+04         0.00000E+00
    0.58323E+04        -0.61258E+08         0.00000E+00
    0.00000E+00         0.00000E+00        -0.70835E+08
 
   -0.67298E+08         0.32179E+05         0.00000E+00
    0.32179E+05        -0.61219E+08         0.00000E+00
    0.00000E+00         0.00000E+00        -0.70835E+08
 
   -0.67855E+08         0.63322E+05         0.00000E+00
    0.63322E+05        -0.61123E+08         0.00000E+00
    0.00000E+00         0.00000E+00        -0.70835E+08
 
   -0.68482E+08         0.10275E+06         0.00000E+00
    0.10275E+06        -0.60957E+08         0.00000E+00
    0.00000E+00         0.00000E+00        -0.70835E+08
 
   -0.69231E+08         0.15827E+06         0.00000E+00
    0.15827E+06        -0.60696E+08         0.00000E+00
    0.00000E+00         0.00000E+00        -0.70835E+08
 
   -0.70239E+08         0.27799E+06         0.00000E+00
    0.27799E+06        -0.60271E+08         0.00000E+00
    0.00000E+00         0.00000E+00        -0.70835E+08
 
   -0.61136E+08        -0.23594E+06         0.00000E+00
   -0.23594E+06        -0.60013E+08         0.00000E+00
    0.00000E+00         0.00000E+00        -0.69157E+08
 
   -0.61845E+08        -0.23690E+06         0.00000E+00
   -0.23690E+06        -0.60014E+08         0.00000E+00
    0.00000E+00         0.00000E+00        -0.69817E+08
 
   -0.62544E+08        -0.20885E+06         0.00000E+00
   -0.20885E+06        -0.60065E+08         0.00000E+00
    0.00000E+00         0.00000E+00        -0.70310E+08
 
   -0.63370E+08        -0.24803E+06         0.00000E+00
   -0.24803E+06        -0.60286E+08         0.00000E+00
    0.00000E+00         0.00000E+00        -0.70331E+08
 
   -0.64073E+08        -0.24714E+06         0.00000E+00
   -0.24714E+06        -0.60452E+08         0.00000E+00
    0.00000E+00         0.00000E+00        -0.70331E+08
 
   -0.64687E+08        -0.21278E+06         0.00000E+00
   -0.21278E+06        -0.60591E+08         0.00000E+00
    0.00000E+00         0.00000E+00        -0.70331E+08
 
   -0.65237E+08        -0.16470E+06         0.00000E+00
   -0.16470E+06        -0.60703E+08         0.00000E+00
    0.00000E+00         0.00000E+00        -0.70331E+08
 
   -0.65748E+08        -0.10934E+06         0.00000E+00
   -0.10934E+06        -0.60785E+08         0.00000E+00
    0.00000E+00         0.00000E+00        -0.70331E+08
 
   -0.66241E+08        -0.47896E+05         0.00000E+00
   -0.47896E+05        -0.60829E+08         0.00000E+00
    0.00000E+00         0.00000E+00        -0.70331E+08
 
   -0.66733E+08         0.20613E+05         0.00000E+00
    0.20613E+05        -0.60833E+08         0.00000E+00
    0.00000E+00         0.00000E+00        -0.70331E+08
 
   -0.67242E+08         0.98727E+05         0.00000E+00
    0.98727E+05        -0.60789E+08         0.00000E+00
    0.00000E+00         0.00000E+00        -0.70331E+08
 
   -0.67786E+08         0.19127E+06         0.00000E+00
    0.19127E+06        -0.60690E+08         0.00000E+00
    0.00000E+00         0.00000E+00        -0.70331E+08
 
   -0.68391E+08         0.30789E+06         0.00000E+00
    0.30789E+06        -0.60524E+08         0.00000E+00
    0.00000E+00         0.00000E+00        -0.70331E+08
 
   -0.69093E+08         0.47213E+06         0.00000E+00
    0.47213E+06        -0.60269E+08         0.00000E+00
    0.00000E+00         0.00000E+00        -0.70331E+08
 
   -0.69902E+08         0.75980E+06         0.00000E+00
    0.75980E+06        -0.59907E+08         0.00000E+00
    0.00000E+00         0.00000E+00        -0.70331E+08
 
   -0.61354E+08        -0.12406E+06         0.00000E+00
   -0.12406E+06        -0.59836E+08         0.00000E+00
    0.00000E+00         0.00000E+00        -0.69654E+08
 
   -0.61860E+08        -0.27713E+06         0.00000E+00
   -0.27713E+06        -0.59834E+08         0.00000E+00
    0.00000E+00         0.00000E+00        -0.69812E+08
 
   -0.62632E+08        -0.37500E+06         0.00000E+00
   -0.37500E+06        -0.59994E+08         0.00000E+00
    0.00000E+00         0.00000E+00        -0.69827E+08
 
   -0.63374E+08        -0.40932E+06         0.00000E+00
   -0.40932E+06        -0.60109E+08         0.00000E+00
    0.00000E+00         0.00000E+00        -0.69827E+08
 
   -0.64042E+08        -0.38044E+06         0.00000E+00
   -0.38044E+06        -0.60224E+08         0.00000E+00
    0.00000E+00         0.00000E+00        -0.69827E+08
 
   -0.64633E+08        -0.32467E+06         0.00000E+00
   -0.32467E+06        -0.60325E+08         0.00000E+00
    0.00000E+00         0.00000E+00        -0.69827E+08
 
   -0.65171E+08        -0.25093E+06         0.00000E+00
   -0.25093E+06        -0.60408E+08         0.00000E+00
    0.00000E+00         0.00000E+00        -0.69827E+08
 
   -0.65673E+08        -0.16450E+06         0.00000E+00
   -0.16450E+06        -0.60466E+08         0.00000E+00
    0.00000E+00         0.00000E+00        -0.69827E+08
 
   -0.66157E+08        -0.66718E+05         0.00000E+00
   -0.66718E+05        -0.60494E+08         0.00000E+00
    0.00000E+00         0.00000E+00        -0.69827E+08
 
   -0.66637E+08         0.43772E+05         0.00000E+00
    0.43772E+05        -0.60485E+08         0.00000E+00
    0.00000E+00         0.00000E+00        -0.69827E+08
 
   -0.67131E+08         0.17069E+06         0.00000E+00
    0.17069E+06        -0.60433E+08         0.00000E+00
    0.00000E+00         0.00000E+00        -0.69827E+08
 
   -0.67651E+08         0.32117E+06         0.00000E+00
    0.32117E+06        -0.60331E+08         0.00000E+00
    0.00000E+00         0.00000E+00        -0.69827E+08
 
   -0.68216E+08         0.50874E+06         0.00000E+00
    0.50874E+06        -0.60168E+08         0.00000E+00
    0.00000E+00         0.00000E+00        -0.69827E+08
 
   -0.68835E+08         0.76139E+06         0.00000E+00
    0.76139E+06        -0.59936E+08         0.00000E+00
    0.00000E+00         0.00000E+00        -0.69827E+08
 
   -0.69493E+08         0.11219E+07         0.00000E+00
    0.11219E+07        -0.59642E+08         0.00000E+00
    0.00000E+00         0.00000E+00        -0.69827E+08
 
   -0.61539E+08        -0.58924E+05         0.00000E+00
   -0.58924E+05        -0.60005E+08         0.00000E+00
    0.00000E+00         0.00000E+00        -0.69323E+08
 
   -0.62040E+08        -0.30303E+06         0.00000E+00
   -0.30303E+06        -0.60009E+08         0.00000E+00
    0.00000E+00         0.00000E+00        -0.69323E+08
 
   -0.62706E+08        -0.44753E+06         0.00000E+00
   -0.44753E+06        -0.60010E+08         0.00000E+00
    0.00000E+00         0.00000E+00        -0.69323E+08
 
   -0.63376E+08        -0.48560E+06         0.00000E+00
   -0.48560E+06        -0.60046E+08         0.00000E+00
    0.00000E+00         0.00000E+00        -0.69323E+08
 
   -0.63996E+08        -0.46215E+06         0.00000E+00
   -0.46215E+06        -0.60095E+08         0.00000E+00
    0.00000E+00         0.00000E+00        -0.69323E+08
 
   -0.64561E+08        -0.39787E+06         0.00000E+00
   -0.39787E+06        -0.60149E+08         0.00000E+00
    0.00000E+00         0.00000E+00        -0.69323E+08
 
   -0.65080E+08        -0.30762E+06         0.00000E+00
   -0.30762E+06        -0.60196E+08         0.00000E+00
    0.00000E+00         0.00000E+00        -0.69323E+08
 
   -0.65567E+08        -0.19741E+06         0.00000E+00
   -0.19741E+06        -0.60227E+08         0.00000E+00
    0.00000E+00         0.00000E+00        -0.69323E+08
 
   -0.66036E+08        -0.69189E+05         0.00000E+00
   -0.69189E+05        -0.60234E+08         0.00000E+00
    0.00000E+00         0.00000E+00        -0.69323E+08
 
   -0.66499E+08         0.78166E+05         0.00000E+00
    0.78166E+05        -0.60211E+08         0.00000E+00
    0.00000E+00         0.00000E+00        -0.69323E+08
 
   -0.66969E+08         0.24874E+06         0.00000E+00
    0.24874E+06        -0.60151E+08         0.00000E+00
    0.00000E+00         0.00000E+00        -0.69323E+08
 
   -0.67457E+08         0.45038E+06         0.00000E+00
    0.45038E+06        -0.60047E+08         0.00000E+00
    0.00000E+00         0.00000E+00        -0.69323E+08
 
   -0.67971E+08         0.69663E+06         0.00000E+00
    0.69663E+06        -0.59894E+08         0.00000E+00
    0.00000E+00         0.00000E+00        -0.69323E+08
 
   -0.68508E+08         0.10080E+07         0.00000E+00
    0.10080E+07        -0.59691E+08         0.00000E+00
    0.00000E+00         0.00000E+00        -0.69323E+08
 
   -0.69053E+08         0.14078E+07         0.00000E+00
    0.14078E+07        -0.59449E+08         0.00000E+00
    0.00000E+00         0.00000E+00        -0.69323E+08
 
   -0.61725E+08        -0.93637E+05         0.00000E+00
   -0.93637E+05        -0.60016E+08         0.00000E+00
    0.00000E+00         0.00000E+00        -0.68819E+08
 
   -0.62239E+08        -0.29241E+06         0.00000E+00
   -0.29241E+06        -0.60029E+08         0.00000E+00
    0.00000E+00         0.00000E+00        -0.68819E+08
 
   -0.62802E+08        -0.44286E+06         0.00000E+00
   -0.44286E+06        -0.60021E+08         0.00000E+00
    0.00000E+00         0.00000E+00        -0.68819E+08
 
   -0.63389E+08        -0.50447E+06         0.00000E+00
   -0.50447E+06        -0.60014E+08         0.00000E+00
    0.00000E+00         0.00000E+00        -0.68819E+08
 
   -0.63954E+08        -0.49322E+06         0.00000E+00
   -0.49322E+06        -0.60021E+08         0.00000E+00
    0.00000E+00         0.00000E+00        -0.68819E+08
 
   -0.64481E+08        -0.43146E+06         0.00000E+00
   -0.43146E+06        -0.60035E+08         0.00000E+00
    0.00000E+00         0.00000E+00        -0.68819E+08
 
   -0.64973E+08        -0.33317E+06         0.00000E+00
   -0.33317E+06        -0.60049E+08         0.00000E+00
    0.00000E+00         0.00000E+00        -0.68819E+08
 
   -0.65438E+08        -0.20637E+06         0.00000E+00
   -0.20637E+06        -0.60054E+08         0.00000E+00
    0.00000E+00         0.00000E+00        -0.68819E+08
 
   -0.65885E+08        -0.54137E+05         0.00000E+00
   -0.54137E+05        -0.60041E+08         0.00000E+00
    0.00000E+00         0.00000E+00        -0.68819E+08
 
   -0.66324E+08         0.12391E+06         0.00000E+00
    0.12391E+06        -0.60004E+08         0.00000E+00
    0.00000E+00         0.00000E+00        -0.68819E+08
 
   -0.66765E+08         0.33132E+06         0.00000E+00
    0.33132E+06        -0.59937E+08         0.00000E+00
    0.00000E+00         0.00000E+00        -0.68819E+08
 
   -0.67214E+08         0.57502E+06         0.00000E+00
    0.57502E+06        -0.59834E+08         0.00000E+00
    0.00000E+00         0.00000E+00        -0.68819E+08
 
   -0.67673E+08         0.86564E+06         0.00000E+00
    0.86564E+06        -0.59694E+08         0.00000E+00
    0.00000E+00         0.00000E+00        -0.68819E+08
 
   -0.68139E+08         0.12166E+07         0.00000E+00
    0.12166E+07        -0.59518E+08         0.00000E+00
    0.00000E+00         0.00000E+00        -0.68819E+08
 
   -0.68595E+08         0.16406E+07         0.00000E+00
    0.16406E+07        -0.59316E+08         0.00000E+00
    0.00000E+00         0.00000E+00        -0.68819E+08
 
   -0.61927E+08        -0.11103E+06         0.00000E+00
   -0.11103E+06        -0.60004E+08         0.00000E+00
    0.00000E+00         0.00000E+00        -0.68315E+08
 
   -0.62410E+08        -0.29539E+06         0.00000E+00
   -0.29539E+06        -0.60009E+08         0.00000E+00
    0.00000E+00         0.00000E+00        -0.68315E+08
 
   -0.62906E+08        -0.42800E+06         0.00000E+00
   -0.42800E+06        -0.60002E+08         0.00000E+00
    0.00000E+00         0.00000E+00        -0.68315E+08
 
   -0.63415E+08        -0.49345E+06         0.00000E+00
   -0.49345E+06        -0.59986E+08         0.00000E+00
    0.00000E+00         0.00000E+00        -0.68315E+08
 
   -0.63918E+08        -0.49139E+06         0.00000E+00
   -0.49139E+06        -0.59971E+08         0.00000E+00
    0.00000E+00         0.00000E+00        -0.68315E+08
 
   -0.64400E+08        -0.43366E+06         0.00000E+00
   -0.43366E+06        -0.59960E+08         0.00000E+00
    0.00000E+00         0.00000E+00        -0.68315E+08
 
   -0.64856E+08        -0.33193E+06         0.00000E+00
   -0.33193E+06        -0.59949E+08         0.00000E+00
    0.00000E+00         0.00000E+00        -0.68315E+08
 
   -0.65291E+08        -0.19393E+06         0.00000E+00
   -0.19393E+06        -0.59933E+08         0.00000E+00
    0.00000E+00         0.00000E+00        -0.68315E+08
 
   -0.65709E+08        -0.23466E+05         0.00000E+00
   -0.23466E+05        -0.59904E+08         0.00000E+00
    0.00000E+00         0.00000E+00        -0.68315E+08
 
   -0.66118E+08         0.17897E+06         0.00000E+00
    0.17897E+06        -0.59856E+08         0.00000E+00
    0.00000E+00         0.00000E+00        -0.68315E+08
 
   -0.66525E+08         0.41583E+06         0.00000E+00
    0.41583E+06        -0.59784E+08         0.00000E+00
    0.00000E+00         0.00000E+00        -0.68315E+08
 
   -0.66931E+08         0.69223E+06         0.00000E+00
    0.69223E+06        -0.59686E+08         0.00000E+00
    0.00000E+00         0.00000E+00        -0.68315E+08
 
   -0.67339E+08         0.10154E+07         0.00000E+00
    0.10154E+07        -0.59559E+08         0.00000E+00
    0.00000E+00         0.00000E+00        -0.68315E+08
 
   -0.67741E+08         0.13937E+07         0.00000E+00
    0.13937E+07        -0.59407E+08         0.00000E+00
    0.00000E+00         0.00000E+00        -0.68315E+08
 
   -0.68128E+08         0.18335E+07         0.00000E+00
    0.18335E+07        -0.59237E+08         0.00000E+00
    0.00000E+00         0.00000E+00        -0.68315E+08
 
   -0.62136E+08        -0.11346E+06         0.00000E+00
   -0.11346E+06        -0.59999E+08         0.00000E+00
    0.00000E+00         0.00000E+00        -0.67811E+08
 
   -0.62564E+08        -0.29211E+06         0.00000E+00
   -0.29211E+06        -0.59995E+08         0.00000E+00
    0.00000E+00         0.00000E+00        -0.67811E+08
 
   -0.63001E+08        -0.41221E+06         0.00000E+00
   -0.41221E+06        -0.59982E+08         0.00000E+00
    0.00000E+00         0.00000E+00        -0.67811E+08
 
   -0.63446E+08        -0.47216E+06         0.00000E+00
   -0.47216E+06        -0.59961E+08         0.00000E+00
    0.00000E+00         0.00000E+00        -0.67811E+08
 
   -0.63888E+08        -0.47148E+06         0.00000E+00
   -0.47148E+06        -0.59937E+08         0.00000E+00
    0.00000E+00         0.00000E+00        -0.67811E+08
 
   -0.64319E+08        -0.41535E+06         0.00000E+00
   -0.41535E+06        -0.59911E+08         0.00000E+00
    0.00000E+00         0.00000E+00        -0.67811E+08
 
   -0.64733E+08        -0.31119E+06         0.00000E+00
   -0.31119E+06        -0.59885E+08         0.00000E+00
    0.00000E+00         0.00000E+00        -0.67811E+08
 
   -0.65131E+08        -0.16519E+06         0.00000E+00
   -0.16519E+06        -0.59854E+08         0.00000E+00
    0.00000E+00         0.00000E+00        -0.67811E+08
 
   -0.65515E+08         0.18949E+05         0.00000E+00
    0.18949E+05        -0.59813E+08         0.00000E+00
    0.00000E+00         0.00000E+00        -0.67811E+08
 
   -0.65889E+08         0.24013E+06         0.00000E+00
    0.24013E+06        -0.59759E+08         0.00000E+00
    0.00000E+00         0.00000E+00        -0.67811E+08
 
   -0.66257E+08         0.49959E+06         0.00000E+00
    0.49959E+06        -0.59686E+08         0.00000E+00
    0.00000E+00         0.00000E+00        -0.67811E+08
 
   -0.66620E+08         0.80051E+06         0.00000E+00
    0.80051E+06        -0.59593E+08         0.00000E+00
    0.00000E+00         0.00000E+00        -0.67811E+08
 
   -0.66978E+08         0.11473E+07         0.00000E+00
    0.11473E+07        -0.59479E+08         0.00000E+00
    0.00000E+00         0.00000E+00        -0.67811E+08
 
   -0.67325E+08         0.15446E+07         0.00000E+00
    0.15446E+07        -0.59348E+08         0.00000E+00
    0.00000E+00         0.00000E+00        -0.67811E+08
 
   -0.67653E+08         0.19952E+07         0.00000E+00
    0.19952E+07        -0.59204E+08         0.00000E+00
    0.00000E+00         0.00000E+00        -0.67811E+08
 
   -0.62343E+08        -0.10952E+06         0.00000E+00
   -0.10952E+06        -0.59997E+08         0.00000E+00
    0.00000E+00         0.00000E+00        -0.67307E+08
 
   -0.62709E+08        -0.28069E+06         0.00000E+00
   -0.28069E+06        -0.59987E+08         0.00000E+00
    0.00000E+00         0.00000E+00        -0.67307E+08
 
   -0.63088E+08        -0.39228E+06         0.00000E+00
   -0.39228E+06        -0.59969E+08         0.00000E+00
    0.00000E+00         0.00000E+00        -0.67307E+08
 
   -0.63473E+08        -0.44594E+06         0.00000E+00
   -0.44594E+06        -0.59944E+08         0.00000E+00
    0.00000E+00         0.00000E+00        -0.67307E+08
 
   -0.63858E+08        -0.44266E+06         0.00000E+00
   -0.44266E+06        -0.59915E+08         0.00000E+00
    0.00000E+00         0.00000E+00        -0.67307E+08
 
   -0.64237E+08        -0.38531E+06         0.00000E+00
   -0.38531E+06        -0.59882E+08         0.00000E+00
    0.00000E+00         0.00000E+00        -0.67307E+08
 
   -0.64605E+08        -0.27830E+06         0.00000E+00
   -0.27830E+06        -0.59847E+08         0.00000E+00
    0.00000E+00         0.00000E+00        -0.67307E+08
 
   -0.64961E+08        -0.12601E+06         0.00000E+00
   -0.12601E+06        -0.59808E+08         0.00000E+00
    0.00000E+00         0.00000E+00        -0.67307E+08
 
   -0.65306E+08         0.68484E+05         0.00000E+00
    0.68484E+05        -0.59761E+08         0.00000E+00
    0.00000E+00         0.00000E+00        -0.67307E+08
 
   -0.65641E+08         0.30377E+06         0.00000E+00
    0.30377E+06        -0.59704E+08         0.00000E+00
    0.00000E+00         0.00000E+00        -0.67307E+08
 
   -0.65968E+08         0.58009E+06         0.00000E+00
    0.58009E+06        -0.59633E+08         0.00000E+00
    0.00000E+00         0.00000E+00        -0.67307E+08
 
   -0.66288E+08         0.89901E+06         0.00000E+00
    0.89901E+06        -0.59547E+08         0.00000E+00
    0.00000E+00         0.00000E+00        -0.67307E+08
 
   -0.66599E+08         0.12627E+07         0.00000E+00
    0.12627E+07        -0.59447E+08         0.00000E+00
    0.00000E+00         0.00000E+00        -0.67307E+08
 
   -0.66896E+08         0.16733E+07         0.00000E+00
    0.16733E+07        -0.59333E+08         0.00000E+00
    0.00000E+00         0.00000E+00        -0.67307E+08
 
   -0.67174E+08         0.21312E+07         0.00000E+00
    0.21312E+07        -0.59212E+08         0.00000E+00
    0.00000E+00         0.00000E+00        -0.67307E+08
 
   -0.62540E+08        -0.10305E+06         0.00000E+00
   -0.10305E+06        -0.59997E+08         0.00000E+00
    0.00000E+00         0.00000E+00        -0.66803E+08
 
   -0.62846E+08        -0.26467E+06         0.00000E+00
   -0.26467E+06        -0.59984E+08         0.00000E+00
    0.00000E+00         0.00000E+00        -0.66803E+08
 
   -0.63167E+08        -0.36877E+06         0.00000E+00
   -0.36877E+06        -0.59964E+08         0.00000E+00
    0.00000E+00         0.00000E+00        -0.66803E+08
 
   -0.63495E+08        -0.41673E+06         0.00000E+00
   -0.41673E+06        -0.59936E+08         0.00000E+00
    0.00000E+00         0.00000E+00        -0.66803E+08
 
   -0.63826E+08        -0.40972E+06         0.00000E+00
   -0.40972E+06        -0.59905E+08         0.00000E+00
    0.00000E+00         0.00000E+00        -0.66803E+08
 
   -0.64153E+08        -0.34967E+06         0.00000E+00
   -0.34967E+06        -0.59869E+08         0.00000E+00
    0.00000E+00         0.00000E+00        -0.66803E+08
 
   -0.64473E+08        -0.23937E+06         0.00000E+00
   -0.23937E+06        -0.59831E+08         0.00000E+00
    0.00000E+00         0.00000E+00        -0.66803E+08
 
   -0.64784E+08        -0.81777E+05         0.00000E+00
   -0.81777E+05        -0.59788E+08         0.00000E+00
    0.00000E+00         0.00000E+00        -0.66803E+08
 
   -0.65086E+08         0.12066E+06         0.00000E+00
    0.12066E+06        -0.59740E+08         0.00000E+00
    0.00000E+00         0.00000E+00        -0.66803E+08
 
   -0.65380E+08         0.36645E+06         0.00000E+00
    0.36645E+06        -0.59683E+08         0.00000E+00
    0.00000E+00         0.00000E+00        -0.66803E+08
 
   -0.65665E+08         0.65513E+06         0.00000E+00
    0.65513E+06        -0.59617E+08         0.00000E+00
    0.00000E+00         0.00000E+00        -0.66803E+08
 
   -0.65941E+08         0.98701E+06         0.00000E+00
    0.98701E+06        -0.59540E+08         0.00000E+00
    0.00000E+00         0.00000E+00        -0.66803E+08
 
   -0.66206E+08         0.13627E+07         0.00000E+00
    0.13627E+07        -0.59452E+08         0.00000E+00
    0.00000E+00         0.00000E+00        -0.66803E+08
 
   -0.66458E+08         0.17825E+07         0.00000E+00
    0.17825E+07        -0.59356E+08         0.00000E+00
    0.00000E+00         0.00000E+00        -0.66803E+08
 
   -0.66692E+08         0.22454E+07         0.00000E+00
    0.22454E+07        -0.59254E+08         0.00000E+00
    0.00000E+00         0.00000E+00        -0.66803E+08
 
   -0.62725E+08        -0.95897E+05         0.00000E+00
   -0.95897E+05        -0.59996E+08         0.00000E+00
    0.00000E+00         0.00000E+00        -0.66299E+08
 
   -0.62974E+08        -0.24711E+06         0.00000E+00
   -0.24711E+06        -0.59984E+08         0.00000E+00
    0.00000E+00         0.00000E+00        -0.66299E+08
 
   -0.63240E+08        -0.34398E+06         0.00000E+00
   -0.34398E+06        -0.59963E+08         0.00000E+00
    0.00000E+00         0.00000E+00        -0.66299E+08
 
   -0.63513E+08        -0.38669E+06         0.00000E+00
   -0.38669E+06        -0.59936E+08         0.00000E+00
    0.00000E+00         0.00000E+00        -0.66299E+08
 
   -0.63790E+08        -0.37585E+06         0.00000E+00
   -0.37585E+06        -0.59905E+08         0.00000E+00
    0.00000E+00         0.00000E+00        -0.66299E+08
 
   -0.64066E+08        -0.31270E+06         0.00000E+00
   -0.31270E+06        -0.59870E+08         0.00000E+00
    0.00000E+00         0.00000E+00        -0.66299E+08
 
   -0.64337E+08        -0.19905E+06         0.00000E+00
   -0.19905E+06        -0.59832E+08         0.00000E+00
    0.00000E+00         0.00000E+00        -0.66299E+08
 
   -0.64601E+08        -0.36972E+05         0.00000E+00
   -0.36972E+05        -0.59790E+08         0.00000E+00
    0.00000E+00         0.00000E+00        -0.66299E+08
 
   -0.64859E+08         0.17159E+06         0.00000E+00
    0.17159E+06        -0.59744E+08         0.00000E+00
    0.00000E+00         0.00000E+00        -0.66299E+08
 
   -0.65108E+08         0.42516E+06         0.00000E+00
    0.42516E+06        -0.59691E+08         0.00000E+00
    0.00000E+00         0.00000E+00        -0.66299E+08
 
   -0.65350E+08         0.72277E+06         0.00000E+00
    0.72277E+06        -0.59632E+08         0.00000E+00
    0.00000E+00         0.00000E+00        -0.66299E+08
 
   -0.65583E+08         0.10639E+07         0.00000E+00
    0.10639E+07        -0.59565E+08         0.00000E+00
    0.00000E+00         0.00000E+00        -0.66299E+08
 
   -0.65805E+08         0.14479E+07         0.00000E+00
    0.14479E+07        -0.59490E+08         0.00000E+00
    0.00000E+00         0.00000E+00        -0.66299E+08
 
   -0.66014E+08         0.18740E+07         0.00000E+00
    0.18740E+07        -0.59409E+08         0.00000E+00
    0.00000E+00         0.00000E+00        -0.66299E+08
 
   -0.66207E+08         0.23404E+07         0.00000E+00
    0.23404E+07        -0.59325E+08         0.00000E+00
    0.00000E+00         0.00000E+00        -0.66299E+08
 
   -0.62897E+08        -0.89053E+05         0.00000E+00
   -0.89053E+05        -0.59997E+08         0.00000E+00
    0.00000E+00         0.00000E+00        -0.65795E+08
 
   -0.63094E+08        -0.23018E+06         0.00000E+00
   -0.23018E+06        -0.59986E+08         0.00000E+00
    0.00000E+00         0.00000E+00        -0.65795E+08
 
   -0.63306E+08        -0.32023E+06         0.00000E+00
   -0.32023E+06        -0.59966E+08         0.00000E+00
    0.00000E+00         0.00000E+00        -0.65795E+08
 
   -0.63527E+08        -0.35813E+06         0.00000E+00
   -0.35813E+06        -0.59942E+08         0.00000E+00
    0.00000E+00         0.00000E+00        -0.65795E+08
 
   -0.63751E+08        -0.34374E+06         0.00000E+00
   -0.34374E+06        -0.59913E+08         0.00000E+00
    0.00000E+00         0.00000E+00        -0.65795E+08
 
   -0.63976E+08        -0.27761E+06         0.00000E+00
   -0.27761E+06        -0.59881E+08         0.00000E+00
    0.00000E+00         0.00000E+00        -0.65795E+08
 
   -0.64197E+08        -0.16090E+06         0.00000E+00
   -0.16090E+06        -0.59847E+08         0.00000E+00
    0.00000E+00         0.00000E+00        -0.65795E+08
 
   -0.64414E+08         0.48847E+04         0.00000E+00
    0.48847E+04        -0.59809E+08         0.00000E+00
    0.00000E+00         0.00000E+00        -0.65795E+08
 
   -0.64625E+08         0.21815E+06         0.00000E+00
    0.21815E+06        -0.59767E+08         0.00000E+00
    0.00000E+00         0.00000E+00        -0.65795E+08
 
   -0.64829E+08         0.47742E+06         0.00000E+00
    0.47742E+06        -0.59722E+08         0.00000E+00
    0.00000E+00         0.00000E+00        -0.65795E+08
 
   -0.65027E+08         0.78141E+06         0.00000E+00
    0.78141E+06        -0.59671E+08         0.00000E+00
    0.00000E+00         0.00000E+00        -0.65795E+08
 
   -0.65217E+08         0.11290E+07         0.00000E+00
    0.11290E+07        -0.59614E+08         0.00000E+00
    0.00000E+00         0.00000E+00        -0.65795E+08
 
   -0.65397E+08         0.15188E+07         0.00000E+00
    0.15188E+07        -0.59553E+08         0.00000E+00
    0.00000E+00         0.00000E+00        -0.65795E+08
 
   -0.65566E+08         0.19492E+07         0.00000E+00
    0.19492E+07        -0.59488E+08         0.00000E+00
    0.00000E+00         0.00000E+00        -0.65795E+08
 
   -0.65721E+08         0.24178E+07         0.00000E+00
    0.24178E+07        -0.59419E+08         0.00000E+00
    0.00000E+00         0.00000E+00        -0.65795E+08
 
   -0.63057E+08        -0.83126E+05         0.00000E+00
   -0.83126E+05        -0.59997E+08         0.00000E+00
    0.00000E+00         0.00000E+00        -0.65291E+08
 
   -0.63206E+08        -0.21538E+06         0.00000E+00
   -0.21538E+06        -0.59988E+08         0.00000E+00
    0.00000E+00         0.00000E+00        -0.65291E+08
 
   -0.63368E+08        -0.29942E+06         0.00000E+00
   -0.29942E+06        -0.59972E+08         0.00000E+00
    0.00000E+00         0.00000E+00        -0.65291E+08
 
   -0.63537E+08        -0.33316E+06         0.00000E+00
   -0.33316E+06        -0.59951E+08         0.00000E+00
    0.00000E+00         0.00000E+00        -0.65291E+08
 
   -0.63710E+08        -0.31567E+06         0.00000E+00
   -0.31567E+06        -0.59927E+08         0.00000E+00
    0.00000E+00         0.00000E+00        -0.65291E+08
 
   -0.63883E+08        -0.24694E+06         0.00000E+00
   -0.24694E+06        -0.59901E+08         0.00000E+00
    0.00000E+00         0.00000E+00        -0.65291E+08
 
   -0.64054E+08        -0.12765E+06         0.00000E+00
   -0.12765E+06        -0.59872E+08         0.00000E+00
    0.00000E+00         0.00000E+00        -0.65291E+08
 
   -0.64222E+08         0.41086E+05         0.00000E+00
    0.41086E+05        -0.59841E+08         0.00000E+00
    0.00000E+00         0.00000E+00        -0.65291E+08
 
   -0.64386E+08         0.25788E+06         0.00000E+00
    0.25788E+06        -0.59807E+08         0.00000E+00
    0.00000E+00         0.00000E+00        -0.65291E+08
 
   -0.64545E+08         0.52126E+06         0.00000E+00
    0.52126E+06        -0.59769E+08         0.00000E+00
    0.00000E+00         0.00000E+00        -0.65291E+08
 
   -0.64699E+08         0.82973E+06         0.00000E+00
    0.82973E+06        -0.59728E+08         0.00000E+00
    0.00000E+00         0.00000E+00        -0.65291E+08
 
   -0.64846E+08         0.11817E+07         0.00000E+00
    0.11817E+07        -0.59684E+08         0.00000E+00
    0.00000E+00         0.00000E+00        -0.65291E+08
 
   -0.64985E+08         0.15754E+07         0.00000E+00
    0.15754E+07        -0.59636E+08         0.00000E+00
    0.00000E+00         0.00000E+00        -0.65291E+08
 
   -0.65115E+08         0.20088E+07         0.00000E+00
    0.20088E+07        -0.59585E+08         0.00000E+00
    0.00000E+00         0.00000E+00        -0.65291E+08
 
   -0.65234E+08         0.24789E+07         0.00000E+00
    0.24789E+07        -0.59533E+08         0.00000E+00
    0.00000E+00         0.00000E+00        -0.65291E+08
 
   -0.63208E+08        -0.78501E+05         0.00000E+00
   -0.78501E+05        -0.59998E+08         0.00000E+00
    0.00000E+00         0.00000E+00        -0.64787E+08
 
   -0.63312E+08        -0.20375E+06         0.00000E+00
   -0.20375E+06        -0.59991E+08         0.00000E+00
    0.00000E+00         0.00000E+00        -0.64787E+08
 
   -0.63425E+08        -0.28303E+06         0.00000E+00
   -0.28303E+06        -0.59979E+08         0.00000E+00
    0.00000E+00         0.00000E+00        -0.64787E+08
 
   -0.63544E+08        -0.31345E+06         0.00000E+00
   -0.31345E+06        -0.59964E+08         0.00000E+00
    0.00000E+00         0.00000E+00        -0.64787E+08
 
   -0.63665E+08        -0.29349E+06         0.00000E+00
   -0.29349E+06        -0.59947E+08         0.00000E+00
    0.00000E+00         0.00000E+00        -0.64787E+08
 
   -0.63788E+08        -0.22268E+06         0.00000E+00
   -0.22268E+06        -0.59927E+08         0.00000E+00
    0.00000E+00         0.00000E+00        -0.64787E+08
 
   -0.63909E+08        -0.10136E+06         0.00000E+00
   -0.10136E+06        -0.59906E+08         0.00000E+00
    0.00000E+00         0.00000E+00        -0.64787E+08
 
   -0.64028E+08         0.69604E+05         0.00000E+00
    0.69604E+05        -0.59883E+08         0.00000E+00
    0.00000E+00         0.00000E+00        -0.64787E+08
 
   -0.64145E+08         0.28896E+06         0.00000E+00
    0.28896E+06        -0.59857E+08         0.00000E+00
    0.00000E+00         0.00000E+00        -0.64787E+08
 
   -0.64258E+08         0.55522E+06         0.00000E+00
    0.55522E+06        -0.59830E+08         0.00000E+00
    0.00000E+00         0.00000E+00        -0.64787E+08
 
   -0.64367E+08         0.86675E+06         0.00000E+00
    0.86675E+06        -0.59800E+08         0.00000E+00
    0.00000E+00         0.00000E+00        -0.64787E+08
 
   -0.64471E+08         0.12217E+07         0.00000E+00
    0.12217E+07        -0.59768E+08         0.00000E+00
    0.00000E+00         0.00000E+00        -0.64787E+08
 
   -0.64570E+08         0.16180E+07         0.00000E+00
    0.16180E+07        -0.59733E+08         0.00000E+00
    0.00000E+00         0.00000E+00        -0.64787E+08
 
   -0.64662E+08         0.20532E+07         0.00000E+00
    0.20532E+07        -0.59697E+08         0.00000E+00
    0.00000E+00         0.00000E+00        -0.64787E+08
 
   -0.64747E+08         0.25243E+07         0.00000E+00
    0.25243E+07        -0.59660E+08         0.00000E+00
    0.00000E+00         0.00000E+00        -0.64787E+08
 
   -0.63352E+08        -0.75430E+05         0.00000E+00
   -0.75430E+05        -0.59999E+08         0.00000E+00
    0.00000E+00         0.00000E+00        -0.64283E+08
 
   -0.63413E+08        -0.19601E+06         0.00000E+00
   -0.19601E+06        -0.59995E+08         0.00000E+00
    0.00000E+00         0.00000E+00        -0.64283E+08
 
   -0.63479E+08        -0.27210E+06         0.00000E+00
   -0.27210E+06        -0.59988E+08         0.00000E+00
    0.00000E+00         0.00000E+00        -0.64283E+08
 
   -0.63548E+08        -0.30027E+06         0.00000E+00
   -0.30027E+06        -0.59979E+08         0.00000E+00
    0.00000E+00         0.00000E+00        -0.64283E+08
 
   -0.63619E+08        -0.27859E+06         0.00000E+00
   -0.27859E+06        -0.59969E+08         0.00000E+00
    0.00000E+00         0.00000E+00        -0.64283E+08
 
   -0.63691E+08        -0.20631E+06         0.00000E+00
   -0.20631E+06        -0.59958E+08         0.00000E+00
    0.00000E+00         0.00000E+00        -0.64283E+08
 
   -0.63762E+08        -0.83531E+05         0.00000E+00
   -0.83531E+05        -0.59945E+08         0.00000E+00
    0.00000E+00         0.00000E+00        -0.64283E+08
 
   -0.63832E+08         0.89000E+05         0.00000E+00
    0.89000E+05        -0.59931E+08         0.00000E+00
    0.00000E+00         0.00000E+00        -0.64283E+08
 
   -0.63901E+08         0.31010E+06         0.00000E+00
    0.31010E+06        -0.59916E+08         0.00000E+00
    0.00000E+00         0.00000E+00        -0.64283E+08
 
   -0.63968E+08         0.57826E+06         0.00000E+00
    0.57826E+06        -0.59900E+08         0.00000E+00
    0.00000E+00         0.00000E+00        -0.64283E+08
 
   -0.64032E+08         0.89174E+06         0.00000E+00
    0.89174E+06        -0.59882E+08         0.00000E+00
    0.00000E+00         0.00000E+00        -0.64283E+08
 
   -0.64094E+08         0.12486E+07         0.00000E+00
    0.12486E+07        -0.59862E+08         0.00000E+00
    0.00000E+00         0.00000E+00        -0.64283E+08
 
   -0.64153E+08         0.16464E+07         0.00000E+00
    0.16464E+07        -0.59841E+08         0.00000E+00
    0.00000E+00         0.00000E+00        -0.64283E+08
 
   -0.64208E+08         0.20828E+07         0.00000E+00
    0.20828E+07        -0.59819E+08         0.00000E+00
    0.00000E+00         0.00000E+00        -0.64283E+08
 
   -0.64259E+08         0.25544E+07         0.00000E+00
    0.25544E+07        -0.59797E+08         0.00000E+00
    0.00000E+00         0.00000E+00        -0.64283E+08
 
   -0.63492E+08        -0.74073E+05         0.00000E+00
   -0.74073E+05        -0.60000E+08         0.00000E+00
    0.00000E+00         0.00000E+00        -0.63779E+08
 
   -0.63511E+08        -0.19263E+06         0.00000E+00
   -0.19263E+06        -0.59999E+08         0.00000E+00
    0.00000E+00         0.00000E+00        -0.63779E+08
 
   -0.63531E+08        -0.26732E+06         0.00000E+00
   -0.26732E+06        -0.59998E+08         0.00000E+00
    0.00000E+00         0.00000E+00        -0.63779E+08
 
   -0.63551E+08        -0.29445E+06         0.00000E+00
   -0.29445E+06        -0.59996E+08         0.00000E+00
    0.00000E+00         0.00000E+00        -0.63779E+08
 
   -0.63572E+08        -0.27191E+06         0.00000E+00
   -0.27191E+06        -0.59994E+08         0.00000E+00
    0.00000E+00         0.00000E+00        -0.63779E+08
 
   -0.63593E+08        -0.19878E+06         0.00000E+00
   -0.19878E+06        -0.59991E+08         0.00000E+00
    0.00000E+00         0.00000E+00        -0.63779E+08
 
   -0.63614E+08        -0.75119E+05         0.00000E+00
   -0.75119E+05        -0.59988E+08         0.00000E+00
    0.00000E+00         0.00000E+00        -0.63779E+08
 
   -0.63635E+08         0.98369E+05         0.00000E+00
    0.98369E+05        -0.59984E+08         0.00000E+00
    0.00000E+00         0.00000E+00        -0.63779E+08
 
   -0.63655E+08         0.32050E+06         0.00000E+00
    0.32050E+06        -0.59980E+08         0.00000E+00
    0.00000E+00         0.00000E+00        -0.63779E+08
 
   -0.63676E+08         0.58973E+06         0.00000E+00
    0.58973E+06        -0.59974E+08         0.00000E+00
    0.00000E+00         0.00000E+00        -0.63779E+08
 
   -0.63697E+08         0.90428E+06         0.00000E+00
    0.90428E+06        -0.59968E+08         0.00000E+00
    0.00000E+00         0.00000E+00        -0.63779E+08
 
   -0.63716E+08         0.12621E+07         0.00000E+00
    0.12621E+07        -0.59962E+08         0.00000E+00
    0.00000E+00         0.00000E+00        -0.63779E+08
 
   -0.63736E+08         0.16608E+07         0.00000E+00
    0.16608E+07        -0.59955E+08         0.00000E+00
    0.00000E+00         0.00000E+00        -0.63779E+08
 
   -0.63754E+08         0.20976E+07         0.00000E+00
    0.20976E+07        -0.59947E+08         0.00000E+00
    0.00000E+00         0.00000E+00        -0.63779E+08
 
   -0.63771E+08         0.25696E+07         0.00000E+00
    0.25696E+07        -0.59940E+08         0.00000E+00
    0.00000E+00         0.00000E+00        -0.63779E+08
 
   -0.63631E+08        -0.74523E+05         0.00000E+00
   -0.74523E+05        -0.60001E+08         0.00000E+00
    0.00000E+00         0.00000E+00        -0.63275E+08
 
   -0.63608E+08        -0.19385E+06         0.00000E+00
   -0.19385E+06        -0.60003E+08         0.00000E+00
    0.00000E+00         0.00000E+00        -0.63275E+08
 
   -0.63582E+08        -0.26908E+06         0.00000E+00
   -0.26908E+06        -0.60007E+08         0.00000E+00
    0.00000E+00         0.00000E+00        -0.63275E+08
 
   -0.63554E+08        -0.29646E+06         0.00000E+00
   -0.29646E+06        -0.60013E+08         0.00000E+00
    0.00000E+00         0.00000E+00        -0.63275E+08
 
   -0.63524E+08        -0.27390E+06         0.00000E+00
   -0.27390E+06        -0.60019E+08         0.00000E+00
    0.00000E+00         0.00000E+00        -0.63275E+08
 
   -0.63494E+08        -0.20057E+06         0.00000E+00
   -0.20057E+06        -0.60026E+08         0.00000E+00
    0.00000E+00         0.00000E+00        -0.63275E+08
 
   -0.63465E+08        -0.76565E+05         0.00000E+00
   -0.76565E+05        -0.60032E+08         0.00000E+00
    0.00000E+00         0.00000E+00        -0.63275E+08
 
   -0.63436E+08         0.97310E+05         0.00000E+00
    0.97310E+05        -0.60038E+08         0.00000E+00
    0.00000E+00         0.00000E+00        -0.63275E+08
 
   -0.63409E+08         0.31981E+06         0.00000E+00
    0.31981E+06        -0.60045E+08         0.00000E+00
    0.00000E+00         0.00000E+00        -0.63275E+08
 
   -0.63384E+08         0.58937E+06         0.00000E+00
    0.58937E+06        -0.60051E+08         0.00000E+00
    0.00000E+00         0.00000E+00        -0.63275E+08
 
   -0.63360E+08         0.90418E+06         0.00000E+00
    0.90418E+06        -0.60057E+08         0.00000E+00
    0.00000E+00         0.00000E+00        -0.63275E+08
 
   -0.63338E+08         0.12622E+07         0.00000E+00
    0.12622E+07        -0.60064E+08         0.00000E+00
    0.00000E+00         0.00000E+00        -0.63275E+08
 
   -0.63317E+08         0.16610E+07         0.00000E+00
    0.16610E+07        -0.60070E+08         0.00000E+00
    0.00000E+00         0.00000E+00        -0.63275E+08
 
   -0.63299E+08         0.20979E+07         0.00000E+00
    0.20979E+07        -0.60077E+08         0.00000E+00
    0.00000E+00         0.00000E+00        -0.63275E+08
 
   -0.63283E+08         0.25700E+07         0.00000E+00
    0.25700E+07        -0.60084E+08         0.00000E+00
    0.00000E+00         0.00000E+00        -0.63275E+08
 
   -0.63772E+08        -0.76812E+05         0.00000E+00
   -0.76812E+05        -0.60002E+08         0.00000E+00
    0.00000E+00         0.00000E+00        -0.62771E+08
 
   -0.63708E+08        -0.19976E+06         0.00000E+00
   -0.19976E+06        -0.60007E+08         0.00000E+00
    0.00000E+00         0.00000E+00        -0.62771E+08
 
   -0.63635E+08        -0.27746E+06         0.00000E+00
   -0.27746E+06        -0.60017E+08         0.00000E+00
    0.00000E+00         0.00000E+00        -0.62771E+08
 
   -0.63557E+08        -0.30636E+06         0.00000E+00
   -0.30636E+06        -0.60030E+08         0.00000E+00
    0.00000E+00         0.00000E+00        -0.62771E+08
 
   -0.63476E+08        -0.28460E+06         0.00000E+00
   -0.28460E+06        -0.60044E+08         0.00000E+00
    0.00000E+00         0.00000E+00        -0.62771E+08
 
   -0.63396E+08        -0.21163E+06         0.00000E+00
   -0.21163E+06        -0.60059E+08         0.00000E+00
    0.00000E+00         0.00000E+00        -0.62771E+08
 
   -0.63316E+08        -0.87794E+05         0.00000E+00
   -0.87794E+05        -0.60075E+08         0.00000E+00
    0.00000E+00         0.00000E+00        -0.62771E+08
 
   -0.63238E+08         0.85920E+05         0.00000E+00
    0.85920E+05        -0.60091E+08         0.00000E+00
    0.00000E+00         0.00000E+00        -0.62771E+08
 
   -0.63163E+08         0.30815E+06         0.00000E+00
    0.30815E+06        -0.60108E+08         0.00000E+00
    0.00000E+00         0.00000E+00        -0.62771E+08
 
   -0.63092E+08         0.57728E+06         0.00000E+00
    0.57728E+06        -0.60125E+08         0.00000E+00
    0.00000E+00         0.00000E+00        -0.62771E+08
 
   -0.63024E+08         0.89152E+06         0.00000E+00
    0.89152E+06        -0.60144E+08         0.00000E+00
    0.00000E+00         0.00000E+00        -0.62771E+08
 
   -0.62959E+08         0.12489E+07         0.00000E+00
    0.12489E+07        -0.60163E+08         0.00000E+00
    0.00000E+00         0.00000E+00        -0.62771E+08
 
   -0.62899E+08         0.16471E+07         0.00000E+00
    0.16471E+07        -0.60183E+08         0.00000E+00
    0.00000E+00         0.00000E+00        -0.62771E+08
 
   -0.62844E+08         0.20837E+07         0.00000E+00
    0.20837E+07        -0.60205E+08         0.00000E+00
    0.00000E+00         0.00000E+00        -0.62771E+08
 
   -0.62794E+08         0.25555E+07         0.00000E+00
    0.25555E+07        -0.60226E+08         0.00000E+00
    0.00000E+00         0.00000E+00        -0.62771E+08
 
   -0.63920E+08        -0.80921E+05         0.00000E+00
   -0.80921E+05        -0.60002E+08         0.00000E+00
    0.00000E+00         0.00000E+00        -0.62267E+08
 
   -0.63811E+08        -0.21028E+06         0.00000E+00
   -0.21028E+06        -0.60011E+08         0.00000E+00
    0.00000E+00         0.00000E+00        -0.62267E+08
 
   -0.63690E+08        -0.29228E+06         0.00000E+00
   -0.29228E+06        -0.60027E+08         0.00000E+00
    0.00000E+00         0.00000E+00        -0.62267E+08
 
   -0.63562E+08        -0.32382E+06         0.00000E+00
   -0.32382E+06        -0.60046E+08         0.00000E+00
    0.00000E+00         0.00000E+00        -0.62267E+08
 
   -0.63430E+08        -0.30356E+06         0.00000E+00
   -0.30356E+06        -0.60068E+08         0.00000E+00
    0.00000E+00         0.00000E+00        -0.62267E+08
 
   -0.63297E+08        -0.23142E+06         0.00000E+00
   -0.23142E+06        -0.60091E+08         0.00000E+00
    0.00000E+00         0.00000E+00        -0.62267E+08
 
   -0.63167E+08        -0.10820E+06         0.00000E+00
   -0.10820E+06        -0.60115E+08         0.00000E+00
    0.00000E+00         0.00000E+00        -0.62267E+08
 
   -0.63040E+08         0.64810E+05         0.00000E+00
    0.64810E+05        -0.60141E+08         0.00000E+00
    0.00000E+00         0.00000E+00        -0.62267E+08
 
   -0.62918E+08         0.28606E+06         0.00000E+00
    0.28606E+06        -0.60167E+08         0.00000E+00
    0.00000E+00         0.00000E+00        -0.62267E+08
 
   -0.62800E+08         0.55391E+06         0.00000E+00
    0.55391E+06        -0.60195E+08         0.00000E+00
    0.00000E+00         0.00000E+00        -0.62267E+08
 
   -0.62688E+08         0.86665E+06         0.00000E+00
    0.86665E+06        -0.60224E+08         0.00000E+00
    0.00000E+00         0.00000E+00        -0.62267E+08
 
   -0.62582E+08         0.12225E+07         0.00000E+00
    0.12225E+07        -0.60256E+08         0.00000E+00
    0.00000E+00         0.00000E+00        -0.62267E+08
 
   -0.62482E+08         0.16193E+07         0.00000E+00
    0.16193E+07        -0.60290E+08         0.00000E+00
    0.00000E+00         0.00000E+00        -0.62267E+08
 
   -0.62390E+08         0.20548E+07         0.00000E+00
    0.20548E+07        -0.60326E+08         0.00000E+00
    0.00000E+00         0.00000E+00        -0.62267E+08
 
   -0.62306E+08         0.25261E+07         0.00000E+00
    0.25261E+07        -0.60362E+08         0.00000E+00
    0.00000E+00         0.00000E+00        -0.62267E+08
 
   -0.64076E+08        -0.86786E+05         0.00000E+00
   -0.86786E+05        -0.60003E+08         0.00000E+00
    0.00000E+00         0.00000E+00        -0.61763E+08
 
   -0.63921E+08        -0.22516E+06         0.00000E+00
   -0.22516E+06        -0.60015E+08         0.00000E+00
    0.00000E+00         0.00000E+00        -0.61763E+08
 
   -0.63750E+08        -0.31305E+06         0.00000E+00
   -0.31305E+06        -0.60035E+08         0.00000E+00
    0.00000E+00         0.00000E+00        -0.61763E+08
 
   -0.63569E+08        -0.34812E+06         0.00000E+00
   -0.34812E+06        -0.60061E+08         0.00000E+00
    0.00000E+00         0.00000E+00        -0.61763E+08
 
   -0.63384E+08        -0.32982E+06         0.00000E+00
   -0.32982E+06        -0.60089E+08         0.00000E+00
    0.00000E+00         0.00000E+00        -0.61763E+08
 
   -0.63200E+08        -0.25884E+06         0.00000E+00
   -0.25884E+06        -0.60119E+08         0.00000E+00
    0.00000E+00         0.00000E+00        -0.61763E+08
 
   -0.63019E+08        -0.13661E+06         0.00000E+00
   -0.13661E+06        -0.60150E+08         0.00000E+00
    0.00000E+00         0.00000E+00        -0.61763E+08
 
   -0.62844E+08         0.35126E+05         0.00000E+00
    0.35126E+05        -0.60183E+08         0.00000E+00
    0.00000E+00         0.00000E+00        -0.61763E+08
 
   -0.62674E+08         0.25458E+06         0.00000E+00
    0.25458E+06        -0.60217E+08         0.00000E+00
    0.00000E+00         0.00000E+00        -0.61763E+08
 
   -0.62511E+08         0.52010E+06         0.00000E+00
    0.52010E+06        -0.60255E+08         0.00000E+00
    0.00000E+00         0.00000E+00        -0.61763E+08
 
   -0.62355E+08         0.83014E+06         0.00000E+00
    0.83014E+06        -0.60295E+08         0.00000E+00
    0.00000E+00         0.00000E+00        -0.61763E+08
 
   -0.62207E+08         0.11832E+07         0.00000E+00
    0.11832E+07        -0.60339E+08         0.00000E+00
    0.00000E+00         0.00000E+00        -0.61763E+08
 
   -0.62067E+08         0.15776E+07         0.00000E+00
    0.15776E+07        -0.60386E+08         0.00000E+00
    0.00000E+00         0.00000E+00        -0.61763E+08
 
   -0.61937E+08         0.20112E+07         0.00000E+00
    0.20112E+07        -0.60436E+08         0.00000E+00
    0.00000E+00         0.00000E+00        -0.61763E+08
 
   -0.61819E+08         0.24815E+07         0.00000E+00
    0.24815E+07        -0.60487E+08         0.00000E+00
    0.00000E+00         0.00000E+00        -0.61763E+08
 
   -0.64245E+08        -0.94296E+05         0.00000E+00
   -0.94296E+05        -0.60004E+08         0.00000E+00
    0.00000E+00         0.00000E+00        -0.61259E+08
 
   -0.64039E+08        -0.24399E+06         0.00000E+00
   -0.24399E+06        -0.60019E+08         0.00000E+00
    0.00000E+00         0.00000E+00        -0.61259E+08
 
   -0.63814E+08        -0.33901E+06         0.00000E+00
   -0.33901E+06        -0.60043E+08         0.00000E+00
    0.00000E+00         0.00000E+00        -0.61259E+08
 
   -0.63578E+08        -0.37811E+06         0.00000E+00
   -0.37811E+06        -0.60073E+08         0.00000E+00
    0.00000E+00         0.00000E+00        -0.61259E+08
 
   -0.63340E+08        -0.36190E+06         0.00000E+00
   -0.36190E+06        -0.60106E+08         0.00000E+00
    0.00000E+00         0.00000E+00        -0.61259E+08
 
   -0.63104E+08        -0.29216E+06         0.00000E+00
   -0.29216E+06        -0.60141E+08         0.00000E+00
    0.00000E+00         0.00000E+00        -0.61259E+08
 
   -0.62873E+08        -0.17122E+06         0.00000E+00
   -0.17122E+06        -0.60177E+08         0.00000E+00
    0.00000E+00         0.00000E+00        -0.61259E+08
 
   -0.62649E+08        -0.14023E+04         0.00000E+00
   -0.14023E+04        -0.60215E+08         0.00000E+00
    0.00000E+00         0.00000E+00        -0.61259E+08
 
   -0.62433E+08         0.21523E+06         0.00000E+00
    0.21523E+06        -0.60256E+08         0.00000E+00
    0.00000E+00         0.00000E+00        -0.61259E+08
 
   -0.62225E+08         0.47705E+06         0.00000E+00
    0.47705E+06        -0.60301E+08         0.00000E+00
    0.00000E+00         0.00000E+00        -0.61259E+08
 
   -0.62026E+08         0.78281E+06         0.00000E+00
    0.78281E+06        -0.60351E+08         0.00000E+00
    0.00000E+00         0.00000E+00        -0.61259E+08
 
   -0.61835E+08         0.11315E+07         0.00000E+00
    0.11315E+07        -0.60406E+08         0.00000E+00
    0.00000E+00         0.00000E+00        -0.61259E+08
 
   -0.61654E+08         0.15219E+07         0.00000E+00
    0.15219E+07        -0.60466E+08         0.00000E+00
    0.00000E+00         0.00000E+00        -0.61259E+08
 
   -0.61486E+08         0.19526E+07         0.00000E+00
    0.19526E+07        -0.60530E+08         0.00000E+00
    0.00000E+00         0.00000E+00        -0.61259E+08
 
   -0.61332E+08         0.24214E+07         0.00000E+00
    0.24214E+07        -0.60598E+08         0.00000E+00
    0.00000E+00         0.00000E+00        -0.61259E+08
 
   -0.64429E+08        -0.10329E+06         0.00000E+00
   -0.10329E+06        -0.60005E+08         0.00000E+00
    0.00000E+00         0.00000E+00        -0.60755E+08
 
   -0.64167E+08        -0.26618E+06         0.00000E+00
   -0.26618E+06        -0.60021E+08         0.00000E+00
    0.00000E+00         0.00000E+00        -0.60755E+08
 
   -0.63884E+08        -0.36902E+06         0.00000E+00
   -0.36902E+06        -0.60049E+08         0.00000E+00
    0.00000E+00         0.00000E+00        -0.60755E+08
 
   -0.63591E+08        -0.41210E+06         0.00000E+00
   -0.41210E+06        -0.60082E+08         0.00000E+00
    0.00000E+00         0.00000E+00        -0.60755E+08
 
   -0.63297E+08        -0.39765E+06         0.00000E+00
   -0.39765E+06        -0.60118E+08         0.00000E+00
    0.00000E+00         0.00000E+00        -0.60755E+08
 
   -0.63009E+08        -0.32898E+06         0.00000E+00
   -0.32898E+06        -0.60155E+08         0.00000E+00
    0.00000E+00         0.00000E+00        -0.60755E+08
 
   -0.62728E+08        -0.20954E+06         0.00000E+00
   -0.20954E+06        -0.60193E+08         0.00000E+00
    0.00000E+00         0.00000E+00        -0.60755E+08
 
   -0.62457E+08        -0.42420E+05         0.00000E+00
   -0.42420E+05        -0.60234E+08         0.00000E+00
    0.00000E+00         0.00000E+00        -0.60755E+08
 
   -0.62196E+08         0.17006E+06         0.00000E+00
    0.17006E+06        -0.60279E+08         0.00000E+00
    0.00000E+00         0.00000E+00        -0.60755E+08
 
   -0.61944E+08         0.42637E+06         0.00000E+00
    0.42637E+06        -0.60329E+08         0.00000E+00
    0.00000E+00         0.00000E+00        -0.60755E+08
 
   -0.61702E+08         0.72573E+06         0.00000E+00
    0.72573E+06        -0.60387E+08         0.00000E+00
    0.00000E+00         0.00000E+00        -0.60755E+08
 
   -0.61468E+08         0.10678E+07         0.00000E+00
    0.10678E+07        -0.60452E+08         0.00000E+00
    0.00000E+00         0.00000E+00        -0.60755E+08
 
   -0.61246E+08         0.14523E+07         0.00000E+00
    0.14523E+07        -0.60525E+08         0.00000E+00
    0.00000E+00         0.00000E+00        -0.60755E+08
 
   -0.61037E+08         0.18785E+07         0.00000E+00
    0.18785E+07        -0.60605E+08         0.00000E+00
    0.00000E+00         0.00000E+00        -0.60755E+08
 
   -0.60846E+08         0.23449E+07         0.00000E+00
    0.23449E+07        -0.60688E+08         0.00000E+00
    0.00000E+00         0.00000E+00        -0.60755E+08
 
   -0.64631E+08        -0.11358E+06         0.00000E+00
   -0.11358E+06        -0.60005E+08         0.00000E+00
    0.00000E+00         0.00000E+00        -0.60251E+08
 
   -0.64306E+08        -0.29093E+06         0.00000E+00
   -0.29093E+06        -0.60024E+08         0.00000E+00
    0.00000E+00         0.00000E+00        -0.60251E+08
 
   -0.63959E+08        -0.40152E+06         0.00000E+00
   -0.40152E+06        -0.60053E+08         0.00000E+00
    0.00000E+00         0.00000E+00        -0.60251E+08
 
   -0.63606E+08        -0.44776E+06         0.00000E+00
   -0.44776E+06        -0.60087E+08         0.00000E+00
    0.00000E+00         0.00000E+00        -0.60251E+08
 
   -0.63256E+08        -0.43419E+06         0.00000E+00
   -0.43419E+06        -0.60123E+08         0.00000E+00
    0.00000E+00         0.00000E+00        -0.60251E+08
 
   -0.62915E+08        -0.36607E+06         0.00000E+00
   -0.36607E+06        -0.60158E+08         0.00000E+00
    0.00000E+00         0.00000E+00        -0.60251E+08
 
   -0.62586E+08        -0.24834E+06         0.00000E+00
   -0.24834E+06        -0.60195E+08         0.00000E+00
    0.00000E+00         0.00000E+00        -0.60251E+08
 
   -0.62270E+08        -0.84903E+05         0.00000E+00
   -0.84903E+05        -0.60235E+08         0.00000E+00
    0.00000E+00         0.00000E+00        -0.60251E+08
 
   -0.61965E+08         0.12165E+06         0.00000E+00
    0.12165E+06        -0.60280E+08         0.00000E+00
    0.00000E+00         0.00000E+00        -0.60251E+08
 
   -0.61671E+08         0.37004E+06         0.00000E+00
    0.37004E+06        -0.60334E+08         0.00000E+00
    0.00000E+00         0.00000E+00        -0.60251E+08
 
   -0.61386E+08         0.66016E+06         0.00000E+00
    0.66016E+06        -0.60397E+08         0.00000E+00
    0.00000E+00         0.00000E+00        -0.60251E+08
 
   -0.61110E+08         0.99265E+06         0.00000E+00
    0.99265E+06        -0.60472E+08         0.00000E+00
    0.00000E+00         0.00000E+00        -0.60251E+08
 
   -0.60844E+08         0.13685E+07         0.00000E+00
    0.13685E+07        -0.60558E+08         0.00000E+00
    0.00000E+00         0.00000E+00        -0.60251E+08
 
   -0.60593E+08         0.17881E+07         0.00000E+00
    0.17881E+07        -0.60653E+08         0.00000E+00
    0.00000E+00         0.00000E+00        -0.60251E+08
 
   -0.60361E+08         0.22509E+07         0.00000E+00
    0.22509E+07        -0.60755E+08         0.00000E+00
    0.00000E+00         0.00000E+00        -0.60251E+08
 
   -0.64851E+08        -0.12491E+06         0.00000E+00
   -0.12491E+06        -0.60006E+08         0.00000E+00
    0.00000E+00         0.00000E+00        -0.59747E+08
 
   -0.64455E+08        -0.31716E+06         0.00000E+00
   -0.31716E+06        -0.60025E+08         0.00000E+00
    0.00000E+00         0.00000E+00        -0.59747E+08
 
   -0.64039E+08        -0.43436E+06         0.00000E+00
   -0.43436E+06        -0.60054E+08         0.00000E+00
    0.00000E+00         0.00000E+00        -0.59747E+08
 
   -0.63622E+08        -0.48197E+06         0.00000E+00
   -0.48197E+06        -0.60086E+08         0.00000E+00
    0.00000E+00         0.00000E+00        -0.59747E+08
 
   -0.63214E+08        -0.46767E+06         0.00000E+00
   -0.46767E+06        -0.60117E+08         0.00000E+00
    0.00000E+00         0.00000E+00        -0.59747E+08
 
   -0.62822E+08        -0.39931E+06         0.00000E+00
   -0.39931E+06        -0.60147E+08         0.00000E+00
    0.00000E+00         0.00000E+00        -0.59747E+08
 
   -0.62447E+08        -0.28355E+06         0.00000E+00
   -0.28355E+06        -0.60178E+08         0.00000E+00
    0.00000E+00         0.00000E+00        -0.59747E+08
 
   -0.62088E+08        -0.12516E+06         0.00000E+00
   -0.12516E+06        -0.60212E+08         0.00000E+00
    0.00000E+00         0.00000E+00        -0.59747E+08
 
   -0.61743E+08         0.73109E+05         0.00000E+00
    0.73109E+05        -0.60255E+08         0.00000E+00
    0.00000E+00         0.00000E+00        -0.59747E+08
 
   -0.61408E+08         0.31042E+06         0.00000E+00
    0.31042E+06        -0.60308E+08         0.00000E+00
    0.00000E+00         0.00000E+00        -0.59747E+08
 
   -0.61081E+08         0.58755E+06         0.00000E+00
    0.58755E+06        -0.60376E+08         0.00000E+00
    0.00000E+00         0.00000E+00        -0.59747E+08
 
   -0.60762E+08         0.90651E+06         0.00000E+00
    0.90651E+06        -0.60460E+08         0.00000E+00
    0.00000E+00         0.00000E+00        -0.59747E+08
 
   -0.60452E+08         0.12699E+07         0.00000E+00
    0.12699E+07        -0.60559E+08         0.00000E+00
    0.00000E+00         0.00000E+00        -0.59747E+08
 
   -0.60156E+08         0.16799E+07         0.00000E+00
    0.16799E+07        -0.60671E+08         0.00000E+00
    0.00000E+00         0.00000E+00        -0.59747E+08
 
   -0.59879E+08         0.21375E+07         0.00000E+00
    0.21375E+07        -0.60791E+08         0.00000E+00
    0.00000E+00         0.00000E+00        -0.59747E+08
 
   -0.65092E+08        -0.13697E+06         0.00000E+00
   -0.13697E+06        -0.60006E+08         0.00000E+00
    0.00000E+00         0.00000E+00        -0.59243E+08
 
   -0.64613E+08        -0.34341E+06         0.00000E+00
   -0.34341E+06        -0.60025E+08         0.00000E+00
    0.00000E+00         0.00000E+00        -0.59243E+08
 
   -0.64121E+08        -0.46457E+06         0.00000E+00
   -0.46457E+06        -0.60052E+08         0.00000E+00
    0.00000E+00         0.00000E+00        -0.59243E+08
 
   -0.63636E+08        -0.51044E+06         0.00000E+00
   -0.51044E+06        -0.60077E+08         0.00000E+00
    0.00000E+00         0.00000E+00        -0.59243E+08
 
   -0.63170E+08        -0.49306E+06         0.00000E+00
   -0.49306E+06        -0.60098E+08         0.00000E+00
    0.00000E+00         0.00000E+00        -0.59243E+08
 
   -0.62729E+08        -0.42352E+06         0.00000E+00
   -0.42352E+06        -0.60117E+08         0.00000E+00
    0.00000E+00         0.00000E+00        -0.59243E+08
 
   -0.62312E+08        -0.31030E+06         0.00000E+00
   -0.31030E+06        -0.60136E+08         0.00000E+00
    0.00000E+00         0.00000E+00        -0.59243E+08
 
   -0.61914E+08        -0.15891E+06         0.00000E+00
   -0.15891E+06        -0.60160E+08         0.00000E+00
    0.00000E+00         0.00000E+00        -0.59243E+08
 
   -0.61531E+08         0.27971E+05         0.00000E+00
    0.27971E+05        -0.60196E+08         0.00000E+00
    0.00000E+00         0.00000E+00        -0.59243E+08
 
   -0.61159E+08         0.25014E+06         0.00000E+00
    0.25014E+06        -0.60246E+08         0.00000E+00
    0.00000E+00         0.00000E+00        -0.59243E+08
 
   -0.60793E+08         0.50951E+06         0.00000E+00
    0.50951E+06        -0.60316E+08         0.00000E+00
    0.00000E+00         0.00000E+00        -0.59243E+08
 
   -0.60431E+08         0.80975E+06         0.00000E+00
    0.80975E+06        -0.60407E+08         0.00000E+00
    0.00000E+00         0.00000E+00        -0.59243E+08
 
   -0.60074E+08         0.11557E+07         0.00000E+00
    0.11557E+07        -0.60519E+08         0.00000E+00
    0.00000E+00         0.00000E+00        -0.59243E+08
 
   -0.59727E+08         0.15521E+07         0.00000E+00
    0.15521E+07        -0.60650E+08         0.00000E+00
    0.00000E+00         0.00000E+00        -0.59243E+08
 
   -0.59400E+08         0.20021E+07         0.00000E+00
    0.20021E+07        -0.60793E+08         0.00000E+00
    0.00000E+00         0.00000E+00        -0.59243E+08
 
   -0.65353E+08        -0.14937E+06         0.00000E+00
   -0.14937E+06        -0.60006E+08         0.00000E+00
    0.00000E+00         0.00000E+00        -0.58739E+08
 
   -0.64778E+08        -0.36756E+06         0.00000E+00
   -0.36756E+06        -0.60023E+08         0.00000E+00
    0.00000E+00         0.00000E+00        -0.58739E+08
 
   -0.64201E+08        -0.48787E+06         0.00000E+00
   -0.48787E+06        -0.60043E+08         0.00000E+00
    0.00000E+00         0.00000E+00        -0.58739E+08
 
   -0.63645E+08        -0.52731E+06         0.00000E+00
   -0.52731E+06        -0.60056E+08         0.00000E+00
    0.00000E+00         0.00000E+00        -0.58739E+08
 
   -0.63124E+08        -0.50394E+06         0.00000E+00
   -0.50394E+06        -0.60061E+08         0.00000E+00
    0.00000E+00         0.00000E+00        -0.58739E+08
 
   -0.62637E+08        -0.43254E+06         0.00000E+00
   -0.43254E+06        -0.60060E+08         0.00000E+00
    0.00000E+00         0.00000E+00        -0.58739E+08
 
   -0.62182E+08        -0.32317E+06         0.00000E+00
   -0.32317E+06        -0.60062E+08         0.00000E+00
    0.00000E+00         0.00000E+00        -0.58739E+08
 
   -0.61751E+08        -0.18158E+06         0.00000E+00
   -0.18158E+06        -0.60071E+08         0.00000E+00
    0.00000E+00         0.00000E+00        -0.58739E+08
 
   -0.61336E+08        -0.10025E+05         0.00000E+00
   -0.10025E+05        -0.60096E+08         0.00000E+00
    0.00000E+00         0.00000E+00        -0.58739E+08
 
   -0.60930E+08         0.19206E+06         0.00000E+00
    0.19206E+06        -0.60140E+08         0.00000E+00
    0.00000E+00         0.00000E+00        -0.58739E+08
 
   -0.60526E+08         0.42780E+06         0.00000E+00
    0.42780E+06        -0.60209E+08         0.00000E+00
    0.00000E+00         0.00000E+00        -0.58739E+08
 
   -0.60121E+08         0.70276E+06         0.00000E+00
    0.70276E+06        -0.60307E+08         0.00000E+00
    0.00000E+00         0.00000E+00        -0.58739E+08
 
   -0.59714E+08         0.10245E+07         0.00000E+00
    0.10245E+07        -0.60433E+08         0.00000E+00
    0.00000E+00         0.00000E+00        -0.58739E+08
 
   -0.59312E+08         0.14016E+07         0.00000E+00
    0.14016E+07        -0.60585E+08         0.00000E+00
    0.00000E+00         0.00000E+00        -0.58739E+08
 
   -0.58926E+08         0.18407E+07         0.00000E+00
    0.18407E+07        -0.60754E+08         0.00000E+00
    0.00000E+00         0.00000E+00        -0.58739E+08
 
   -0.65634E+08        -0.16156E+06         0.00000E+00
   -0.16156E+06        -0.60006E+08         0.00000E+00
    0.00000E+00         0.00000E+00        -0.58235E+08
 
   -0.64945E+08        -0.38625E+06         0.00000E+00
   -0.38625E+06        -0.60019E+08         0.00000E+00
    0.00000E+00         0.00000E+00        -0.58235E+08
 
   -0.64272E+08        -0.49774E+06         0.00000E+00
   -0.49774E+06        -0.60026E+08         0.00000E+00
    0.00000E+00         0.00000E+00        -0.58235E+08
 
   -0.63645E+08        -0.52441E+06         0.00000E+00
   -0.52441E+06        -0.60017E+08         0.00000E+00
    0.00000E+00         0.00000E+00        -0.58235E+08
 
   -0.63072E+08        -0.49230E+06         0.00000E+00
   -0.49230E+06        -0.59995E+08         0.00000E+00
    0.00000E+00         0.00000E+00        -0.58235E+08
 
   -0.62547E+08        -0.41954E+06         0.00000E+00
   -0.41954E+06        -0.59969E+08         0.00000E+00
    0.00000E+00         0.00000E+00        -0.58235E+08
 
   -0.62061E+08        -0.31665E+06         0.00000E+00
   -0.31665E+06        -0.59947E+08         0.00000E+00
    0.00000E+00         0.00000E+00        -0.58235E+08
 
   -0.61603E+08        -0.18876E+06         0.00000E+00
   -0.18876E+06        -0.59937E+08         0.00000E+00
    0.00000E+00         0.00000E+00        -0.58235E+08
 
   -0.61161E+08        -0.37333E+05         0.00000E+00
   -0.37333E+05        -0.59946E+08         0.00000E+00
    0.00000E+00         0.00000E+00        -0.58235E+08
 
   -0.60725E+08         0.13901E+06         0.00000E+00
    0.13901E+06        -0.59981E+08         0.00000E+00
    0.00000E+00         0.00000E+00        -0.58235E+08
 
   -0.60287E+08         0.34438E+06         0.00000E+00
    0.34438E+06        -0.60048E+08         0.00000E+00
    0.00000E+00         0.00000E+00        -0.58235E+08
 
   -0.59840E+08         0.58604E+06         0.00000E+00
    0.58604E+06        -0.60150E+08         0.00000E+00
    0.00000E+00         0.00000E+00        -0.58235E+08
 
   -0.59381E+08         0.87483E+06         0.00000E+00
    0.87483E+06        -0.60291E+08         0.00000E+00
    0.00000E+00         0.00000E+00        -0.58235E+08
 
   -0.58916E+08         0.12243E+07         0.00000E+00
    0.12243E+07        -0.60467E+08         0.00000E+00
    0.00000E+00         0.00000E+00        -0.58235E+08
 
   -0.58459E+08         0.16475E+07         0.00000E+00
    0.16475E+07        -0.60669E+08         0.00000E+00
    0.00000E+00         0.00000E+00        -0.58235E+08
 
   -0.65930E+08        -0.17266E+06         0.00000E+00
   -0.17266E+06        -0.60005E+08         0.00000E+00
    0.00000E+00         0.00000E+00        -0.57731E+08
 
   -0.65102E+08        -0.39338E+06         0.00000E+00
   -0.39338E+06        -0.60009E+08         0.00000E+00
    0.00000E+00         0.00000E+00        -0.57731E+08
 
   -0.64327E+08        -0.48357E+06         0.00000E+00
   -0.48357E+06        -0.59991E+08         0.00000E+00
    0.00000E+00         0.00000E+00        -0.57731E+08
 
   -0.63632E+08        -0.49054E+06         0.00000E+00
   -0.49054E+06        -0.59948E+08         0.00000E+00
    0.00000E+00         0.00000E+00        -0.57731E+08
 
   -0.63016E+08        -0.44909E+06         0.00000E+00
   -0.44909E+06        -0.59889E+08         0.00000E+00
    0.00000E+00         0.00000E+00        -0.57731E+08
 
   -0.62462E+08        -0.37804E+06         0.00000E+00
   -0.37804E+06        -0.59830E+08         0.00000E+00
    0.00000E+00         0.00000E+00        -0.57731E+08
 
   -0.61953E+08        -0.28622E+06         0.00000E+00
   -0.28622E+06        -0.59779E+08         0.00000E+00
    0.00000E+00         0.00000E+00        -0.57731E+08
 
   -0.61474E+08        -0.17714E+06         0.00000E+00
   -0.17714E+06        -0.59747E+08         0.00000E+00
    0.00000E+00         0.00000E+00        -0.57731E+08
 
   -0.61012E+08        -0.51228E+05         0.00000E+00
   -0.51228E+05        -0.59739E+08         0.00000E+00
    0.00000E+00         0.00000E+00        -0.57731E+08
 
   -0.60552E+08         0.93490E+05         0.00000E+00
    0.93490E+05        -0.59763E+08         0.00000E+00
    0.00000E+00         0.00000E+00        -0.57731E+08
 
   -0.60085E+08         0.26149E+06         0.00000E+00
    0.26149E+06        -0.59824E+08         0.00000E+00
    0.00000E+00         0.00000E+00        -0.57731E+08
 
   -0.59598E+08         0.46081E+06         0.00000E+00
    0.46081E+06        -0.59929E+08         0.00000E+00
    0.00000E+00         0.00000E+00        -0.57731E+08
 
   -0.59086E+08         0.70512E+06         0.00000E+00
    0.70512E+06        -0.60084E+08         0.00000E+00
    0.00000E+00         0.00000E+00        -0.57731E+08
 
   -0.58547E+08         0.10150E+07         0.00000E+00
    0.10150E+07        -0.60288E+08         0.00000E+00
    0.00000E+00         0.00000E+00        -0.57731E+08
 
   -0.58002E+08         0.14140E+07         0.00000E+00
    0.14140E+07        -0.60531E+08         0.00000E+00
    0.00000E+00         0.00000E+00        -0.57731E+08
 
   -0.66232E+08        -0.18058E+06         0.00000E+00
   -0.18058E+06        -0.60002E+08         0.00000E+00
    0.00000E+00         0.00000E+00        -0.57227E+08
 
   -0.65233E+08        -0.37617E+06         0.00000E+00
   -0.37617E+06        -0.59985E+08         0.00000E+00
    0.00000E+00         0.00000E+00        -0.57227E+08
 
   -0.64354E+08        -0.42765E+06         0.00000E+00
   -0.42765E+06        -0.59922E+08         0.00000E+00
    0.00000E+00         0.00000E+00        -0.57227E+08
 
   -0.63605E+08        -0.41215E+06         0.00000E+00
   -0.41215E+06        -0.59827E+08         0.00000E+00
    0.00000E+00         0.00000E+00        -0.57227E+08
 
   -0.62959E+08        -0.36640E+06         0.00000E+00
   -0.36640E+06        -0.59722E+08         0.00000E+00
    0.00000E+00         0.00000E+00        -0.57227E+08
 
   -0.62386E+08        -0.30393E+06         0.00000E+00
   -0.30393E+06        -0.59625E+08         0.00000E+00
    0.00000E+00         0.00000E+00        -0.57227E+08
 
   -0.61863E+08        -0.22982E+06         0.00000E+00
   -0.22982E+06        -0.59545E+08         0.00000E+00
    0.00000E+00         0.00000E+00        -0.57227E+08
 
   -0.61371E+08        -0.14554E+06         0.00000E+00
   -0.14554E+06        -0.59490E+08         0.00000E+00
    0.00000E+00         0.00000E+00        -0.57227E+08
 
   -0.60894E+08        -0.50599E+05         0.00000E+00
   -0.50599E+05        -0.59466E+08         0.00000E+00
    0.00000E+00         0.00000E+00        -0.57227E+08
 
   -0.60417E+08         0.57074E+05         0.00000E+00
    0.57074E+05        -0.59478E+08         0.00000E+00
    0.00000E+00         0.00000E+00        -0.57227E+08
 
   -0.59926E+08         0.18147E+06         0.00000E+00
    0.18147E+06        -0.59533E+08         0.00000E+00
    0.00000E+00         0.00000E+00        -0.57227E+08
 
   -0.59406E+08         0.32980E+06         0.00000E+00
    0.32980E+06        -0.59638E+08         0.00000E+00
    0.00000E+00         0.00000E+00        -0.57227E+08
 
   -0.58841E+08         0.51563E+06         0.00000E+00
    0.51563E+06        -0.59803E+08         0.00000E+00
    0.00000E+00         0.00000E+00        -0.57227E+08
 
   -0.58221E+08         0.76700E+06         0.00000E+00
    0.76700E+06        -0.60037E+08         0.00000E+00
    0.00000E+00         0.00000E+00        -0.57227E+08
 
   -0.57562E+08         0.11268E+07         0.00000E+00
    0.11268E+07        -0.60332E+08         0.00000E+00
    0.00000E+00         0.00000E+00        -0.57227E+08
 
   -0.66517E+08        -0.17781E+06         0.00000E+00
   -0.17781E+06        -0.59993E+08         0.00000E+00
    0.00000E+00         0.00000E+00        -0.56723E+08
 
   -0.65311E+08        -0.30256E+06         0.00000E+00
   -0.30256E+06        -0.59919E+08         0.00000E+00
    0.00000E+00         0.00000E+00        -0.56723E+08
 
   -0.64351E+08        -0.30607E+06         0.00000E+00
   -0.30607E+06        -0.59776E+08         0.00000E+00
    0.00000E+00         0.00000E+00        -0.56723E+08
 
   -0.63572E+08        -0.27979E+06         0.00000E+00
   -0.27979E+06        -0.59618E+08         0.00000E+00
    0.00000E+00         0.00000E+00        -0.56723E+08
 
   -0.62911E+08        -0.24213E+06         0.00000E+00
   -0.24213E+06        -0.59467E+08         0.00000E+00
    0.00000E+00         0.00000E+00        -0.56723E+08
 
   -0.62329E+08        -0.19819E+06         0.00000E+00
   -0.19819E+06        -0.59336E+08         0.00000E+00
    0.00000E+00         0.00000E+00        -0.56723E+08
 
   -0.61798E+08        -0.14943E+06         0.00000E+00
   -0.14943E+06        -0.59232E+08         0.00000E+00
    0.00000E+00         0.00000E+00        -0.56723E+08
 
   -0.61298E+08        -0.95866E+05         0.00000E+00
   -0.95866E+05        -0.59158E+08         0.00000E+00
    0.00000E+00         0.00000E+00        -0.56723E+08
 
   -0.60812E+08        -0.36687E+05         0.00000E+00
   -0.36687E+05        -0.59120E+08         0.00000E+00
    0.00000E+00         0.00000E+00        -0.56723E+08
 
   -0.60324E+08         0.29684E+05         0.00000E+00
    0.29684E+05        -0.59122E+08         0.00000E+00
    0.00000E+00         0.00000E+00        -0.56723E+08
 
   -0.59817E+08         0.10596E+06         0.00000E+00
    0.10596E+06        -0.59171E+08         0.00000E+00
    0.00000E+00         0.00000E+00        -0.56723E+08
 
   -0.59273E+08         0.19698E+06         0.00000E+00
    0.19698E+06        -0.59274E+08         0.00000E+00
    0.00000E+00         0.00000E+00        -0.56723E+08
 
   -0.58668E+08         0.31239E+06         0.00000E+00
    0.31239E+06        -0.59443E+08         0.00000E+00
    0.00000E+00         0.00000E+00        -0.56723E+08
 
   -0.57965E+08         0.47576E+06         0.00000E+00
    0.47576E+06        -0.59700E+08         0.00000E+00
    0.00000E+00         0.00000E+00        -0.56723E+08
 
   -0.57153E+08         0.76293E+06         0.00000E+00
    0.76293E+06        -0.60064E+08         0.00000E+00
    0.00000E+00         0.00000E+00        -0.56723E+08
 
   -0.66718E+08        -0.10712E+06         0.00000E+00
   -0.10712E+06        -0.59896E+08         0.00000E+00
    0.00000E+00         0.00000E+00        -0.56219E+08
 
   -0.65325E+08        -0.12292E+06         0.00000E+00
   -0.12292E+06        -0.59703E+08         0.00000E+00
    0.00000E+00         0.00000E+00        -0.56219E+08
 
   -0.64337E+08        -0.11283E+06         0.00000E+00
   -0.11283E+06        -0.59482E+08         0.00000E+00
    0.00000E+00         0.00000E+00        -0.56219E+08
 
   -0.63549E+08        -0.99762E+05         0.00000E+00
   -0.99762E+05        -0.59277E+08         0.00000E+00
    0.00000E+00         0.00000E+00        -0.56219E+08
 
   -0.62883E+08        -0.84930E+05         0.00000E+00
   -0.84930E+05        -0.59096E+08         0.00000E+00
    0.00000E+00         0.00000E+00        -0.56219E+08
 
   -0.62297E+08        -0.68972E+05         0.00000E+00
   -0.68972E+05        -0.58945E+08         0.00000E+00
    0.00000E+00         0.00000E+00        -0.56219E+08
 
   -0.61764E+08        -0.51894E+05         0.00000E+00
   -0.51894E+05        -0.58826E+08         0.00000E+00
    0.00000E+00         0.00000E+00        -0.56219E+08
 
   -0.61260E+08        -0.33485E+05         0.00000E+00
   -0.33485E+05        -0.58742E+08         0.00000E+00
    0.00000E+00         0.00000E+00        -0.56219E+08
 
   -0.60770E+08        -0.13366E+05         0.00000E+00
   -0.13366E+05        -0.58697E+08         0.00000E+00
    0.00000E+00         0.00000E+00        -0.56219E+08
 
   -0.60276E+08         0.90538E+04         0.00000E+00
    0.90538E+04        -0.58693E+08         0.00000E+00
    0.00000E+00         0.00000E+00        -0.56219E+08
 
   -0.59762E+08         0.34726E+05         0.00000E+00
    0.34726E+05        -0.58737E+08         0.00000E+00
    0.00000E+00         0.00000E+00        -0.56219E+08
 
   -0.59206E+08         0.65320E+05         0.00000E+00
    0.65320E+05        -0.58838E+08         0.00000E+00
    0.00000E+00         0.00000E+00        -0.56219E+08
 
   -0.58578E+08         0.10432E+06         0.00000E+00
    0.10432E+06        -0.59008E+08         0.00000E+00
    0.00000E+00         0.00000E+00        -0.56219E+08
 
   -0.57827E+08         0.15952E+06         0.00000E+00
    0.15952E+06        -0.59272E+08         0.00000E+00
    0.00000E+00         0.00000E+00        -0.56219E+08
 
   -0.56816E+08         0.27907E+06         0.00000E+00
    0.27907E+06        -0.59699E+08         0.00000E+00
    0.00000E+00         0.00000E+00        -0.56219E+08
 
SCALARS stresss double 
LOOKUP_TABLE default
  -63250751.7606951     
  -64021888.8507969     
  -64553943.5584831     
  -64936476.6533098     
  -65244689.7601582     
  -65506737.1026743     
  -65735220.2787102     
  -65938344.4859501     
  -66122147.1140710     
  -66291473.0357083     
  -66450684.1775586     
  -66604305.7893337     
  -66757993.3557585     
  -66920503.0653968     
  -67115079.6261470     
  -63435366.5560463     
  -63891740.2775317     
  -64306154.5731918     
  -64662365.8567621     
  -64952041.1979029     
  -65203025.0164755     
  -65423817.3799090     
  -65621251.7923362     
  -65800438.7237958     
  -65965611.9109924     
  -66120575.4346073     
  -66269114.1937484     
  -66415356.6542314     
  -66564562.7842945     
  -66713467.6163077     
  -63614807.5250934     
  -63835241.4194030     
  -64151070.1221331     
  -64436805.7689424     
  -64697643.9548613     
  -64928439.1987339     
  -65135256.6597728     
  -65322093.0436512     
  -65492592.6039625     
  -65649945.7755666     
  -65797033.9943841     
  -65936482.5754631     
  -66070569.9246769     
  -66199593.2221761     
  -66320829.0797857     
  -63622573.4180032     
  -63790417.6970490     
  -64012943.5313656     
  -64248597.0462502     
  -64471480.7989887     
  -64677794.2437596     
  -64866442.4720629     
  -65039112.3902262     
  -65197779.8582591     
  -65344470.1058970     
  -65481039.1841750     
  -65609002.2125988     
  -65729099.4536853     
  -65840766.1440505     
  -65941546.2422947     
  -63519802.5535454     
  -63695663.2659691     
  -63880737.7626727     
  -64073966.6698185     
  -64264397.7072130     
  -64445038.8056624     
  -64613729.5375405     
  -64770117.2961275     
  -64914882.4381207     
  -65049004.9988665     
  -65173445.5428898     
  -65288860.3920460     
  -65395311.3030836     
  -65491960.8632323     
  -65576931.2164868     
  -63415223.4986298     
  -63577985.1574305     
  -63741052.9400239     
  -63905501.3076635     
  -64068145.0412387     
  -64225004.9686344     
  -64373573.1493878     
  -64512837.8941829     
  -64642612.0497868     
  -64763120.1238321     
  -64874657.1550895     
  -64977337.0855127     
  -65070876.4533271     
  -65154438.8655618     
  -65226585.6481466     
  -63315592.3450677     
  -63456620.7572648     
  -63598061.7864239     
  -63739245.2704114     
  -63878538.5532172     
  -64013754.8773118     
  -64143026.4499563     
  -64265177.8227057     
  -64379627.6963616     
  -64486135.1519790     
  -64584572.6171255     
  -64674730.6175633     
  -64756168.4010666     
  -64828121.0852872     
  -64889485.8558779     
  -63215790.1464370     
  -63334518.7177293     
  -63454633.4757436     
  -63574705.4478764     
  -63693265.9657858     
  -63808771.5442785     
  -63919821.0317783     
  -64025344.3553268     
  -64124622.0067034     
  -64217184.5984550     
  -64302673.4612675     
  -64380711.7326072     
  -64450804.1733662     
  -64512280.4539028     
  -64564292.2596387     
  -63113214.6984803     
  -63211131.4119850     
  -63311139.0881776     
  -63411609.3660657     
  -63511127.8335943     
  -63608401.6663803     
  -63702288.7584926     
  -63791852.1009957     
  -63876371.1501544     
  -63955296.7630512     
  -64028174.5982992     
  -64094565.1724397     
  -64153980.6453737     
  -64205850.4527591     
  -64249523.1372407     
  -63006767.5209338     
  -63085809.2537421     
  -63167230.7363454     
  -63249490.8133895     
  -63331290.4455172     
  -63411506.4275643     
  -63489170.9284804     
  -63563472.5493375     
  -63633749.1357815     
  -63699459.7985348     
  -63760140.6912728     
  -63815357.4386894     
  -63864666.8520247     
  -63907597.2152112     
  -63943652.4038585     
  -62896230.5540934     
  -62958237.7041808     
  -63022566.0509503     
  -63087889.9049491     
  -63153092.4303405     
  -63217223.9785118     
  -63279476.0977924     
  -63339166.1709082     
  -63395722.3807511     
  -63448662.2334538     
  -63497564.9277058     
  -63542042.8797719     
  -63581719.3052626     
  -63616217.7212202     
  -63645167.0093402     
  -62781904.8576559     
  -62828443.5222010     
  -62876982.2520682     
  -62926469.9450959     
  -62976016.6990016     
  -63024868.5906896     
  -63072386.3459440     
  -63118028.3949176     
  -63161335.3737724     
  -63201913.4460626     
  -63239416.2466181     
  -63273527.7271299     
  -63303949.4024945     
  -63330395.3435016     
  -63352597.1606690     
  -62664420.3843805     
  -62696720.2495226     
  -62730510.0201582     
  -62765041.0333927     
  -62799678.1101103     
  -62833883.9295267     
  -62867203.5682255     
  -62899250.6967907     
  -62929695.0982653     
  -62958250.7478596     
  -62984664.4030865     
  -63008705.6842394     
  -63030160.3065890     
  -63048828.1802707     
  -63064527.5962436     
  -62544622.2282791     
  -62563555.4875541     
  -62583339.5972172     
  -62603542.6393351     
  -62623801.4124638     
  -62643811.0572906     
  -62663314.4031567     
  -62682092.3762592     
  -62699955.7785518     
  -62716738.2544788     
  -62732290.3334585     
  -62746474.7993874     
  -62759163.9694954     
  -62770239.5641736     
  -62779595.6767395     
  -62423495.6179847     
  -62429569.4152427     
  -62435776.4263334     
  -62442010.4263735     
  -62448191.5846713     
  -62454258.6248643     
  -62460161.7309263     
  -62465857.1400657     
  -62471303.6239383     
  -62476460.5623387     
  -62481287.1484332     
  -62485742.3503653     
  -62489785.4381057     
  -62493377.0349271     
  -62496480.7046008     
  -62302111.0178461     
  -62295463.1123272     
  -62288196.3315514     
  -62280537.9254916     
  -62272699.9534453     
  -62264872.1670018     
  -62257217.5395116     
  -62249870.9699671     
  -62242940.9145659     
  -62236513.1312777     
  -62230655.4530051     
  -62225422.5077075     
  -62220859.4867956     
  -62217004.3244561     
  -62213887.9150015     
  -62181580.1563246     
  -62161973.2785541     
  -62141001.9995563     
  -62119236.2611804     
  -62097187.6578298     
  -62075301.6340345     
  -62053955.1188279     
  -62033459.6867774     
  -62014069.2856212     
  -61995990.8475345     
  -61979395.7790427     
  -61964430.3623019     
  -61951223.3976369     
  -61939889.8659195     
  -61930529.9010817     
  -62063018.0047920     
  -62029830.2021713     
  -61994579.6468030     
  -61958191.8692108     
  -61921486.2988961     
  -61885166.4496755     
  -61849819.6303722     
  -61815925.6692964     
  -61783872.5891434     
  -61753976.2324714     
  -61726500.5321255     
  -61701675.3164021     
  -61679709.0671119     
  -61660794.7718124     
  -61645107.8314482     
  -61947507.7613135     
  -61899716.0940374     
  -61849253.5161134     
  -61797420.3885035     
  -61745354.3259405     
  -61694016.9421078     
  -61644196.3265877     
  -61596523.6649267     
  -61551500.1184163     
  -61509528.9594707     
  -61470947.8495029     
  -61436056.6948732     
  -61405137.4138466     
  -61378463.0261428     
  -61356294.6740592     
  -61836066.8377802     
  -61772220.7226446     
  -61705234.7484074     
  -61636813.4739231     
  -61568426.5181535     
  -61501290.3607151     
  -61436375.6037125     
  -61374435.8825132     
  -61316051.3574360     
  -61261678.7035377     
  -61211700.0608427     
  -61166464.6584284     
  -61126318.2259831     
  -61091616.7486218     
  -61062722.7232106     
  -61729612.1248230     
  -61647790.3374656     
  -61562559.4600201     
  -61476073.4440083     
  -61390152.5144649     
  -61306258.9528078     
  -61225513.9496863     
  -61148746.8416729     
  -61076563.8999992     
  -61009423.9036250     
  -60947710.0245166     
  -60891790.0800920     
  -60842059.1168955     
  -60798959.8033512     
  -60762977.9899857     
  -61628922.3871884     
  -61526663.5810652     
  -61421007.7178641     
  -61314627.8245091     
  -61209718.4941901     
  -61107966.8650171     
  -61010589.9765783     
  -60918419.0069868     
  -60832006.8811406     
  -60751739.7848787     
  -60677939.4832973     
  -60610948.0318662     
  -60551188.2431903     
  -60499193.8058138     
  -60455604.4229176     
  -61534594.0561672     
  -61408783.1446620     
  -61279989.1858808     
  -61151511.1698842     
  -61025943.7969737     
  -60905152.4051669     
  -60790355.6310700     
  -60682271.3536103     
  -60581283.2083981     
  -60487599.8530971     
  -60401394.6967472     
  -60322921.0377387     
  -60252597.1559794     
  -60191051.9709598     
  -60139121.4935287     
  -61446982.4393168     
  -61293661.3603463     
  -61138369.6197189     
  -60985194.0271798     
  -60837142.0664071     
  -60696153.8280010     
  -60563285.4052109     
  -60438965.0687324     
  -60323244.8063282     
  -60216015.5879196     
  -60117185.6532335     
  -60026830.5440540     
  -59945313.2414199     
  -59873358.9845706     
  -59812059.5942569     
  -61366110.5719341     
  -61180153.1608252     
  -60994189.6446977     
  -60813327.1434045     
  -60640937.5200893     
  -60478803.5754822     
  -60327532.9030815     
  -60187003.7126094     
  -60056725.1632134     
  -59936097.7367483     
  -59824615.4508870     
  -59722048.1736200     
  -59628617.5521247     
  -59545130.9020479     
  -59473019.8557677     
  -61291495.9574348     
  -61066033.2555012     
  -60844176.4441688     
  -60632358.0196700     
  -60434039.9614350     
  -60250335.7047169     
  -60080916.3763602     
  -59924758.6494425     
  -59780590.2499742     
  -59647137.3883457     
  -59523301.7519998     
  -59408363.8853173     
  -59302235.4993493     
  -59205744.9993889     
  -59120770.0275164     
  -61221781.0209106     
  -60947084.7095527     
  -60682866.8720075     
  -60436979.3402878     
  -60212044.0890039     
  -60007372.7156012     
  -59820968.3542151     
  -59650532.0186007     
  -59493802.9249400     
  -59348685.3687712     
  -59213322.2324649     
  -59086221.0170455     
  -58966666.2928253     
  -58855241.3373735     
  -58754411.0385463     
  -61153505.5933120     
  -60815016.6429818     
  -60500921.4394360     
  -60219596.5045342     
  -59969480.6650028     
  -59746088.4744881     
  -59545089.9178612     
  -59362665.4121049     
  -59195486.5842748     
  -59040595.1335601     
  -58895285.3176196     
  -58757056.0705193     
  -58623711.7888511     
  -58495003.8001312     
  -58373674.0777796     
  -61077364.3807077     
  -60650782.4806435     
  -60283235.7399620     
  -59970819.1017717     
  -59700362.8405948     
  -59462638.5456164     
  -59250826.5257250     
  -59059690.2039071     
  -58884972.3350626     
  -58722978.9757806     
  -58570245.7759748     
  -58423203.8231933     
  -58277858.0800629     
  -58129022.7947081     
  -57979989.7993047     
  -60944079.8621732     
  -60415492.7013200     
  -60012636.5191318     
  -59681359.2433328     
  -59399385.6890356     
  -59153825.2337368     
  -58936231.8355906     
  -58740497.2355976     
  -58561818.5357377     
  -58396074.7724323     
  -58239343.9092960     
  -58087371.0324715     
  -57934663.6859137     
  -57772554.7552639     
  -57577831.3087450     
SCALARS 2waySource double 
LOOKUP_TABLE default
  0.000000000000000E+000
  0.000000000000000E+000
  0.000000000000000E+000
  0.000000000000000E+000
  0.000000000000000E+000
  0.000000000000000E+000
  0.000000000000000E+000
  0.000000000000000E+000
  0.000000000000000E+000
  0.000000000000000E+000
  0.000000000000000E+000
  0.000000000000000E+000
  0.000000000000000E+000
  0.000000000000000E+000
  0.000000000000000E+000
  0.000000000000000E+000
  0.000000000000000E+000
  0.000000000000000E+000
  0.000000000000000E+000
  0.000000000000000E+000
  0.000000000000000E+000
  0.000000000000000E+000
  0.000000000000000E+000
  0.000000000000000E+000
  0.000000000000000E+000
  0.000000000000000E+000
  0.000000000000000E+000
  0.000000000000000E+000
  0.000000000000000E+000
  0.000000000000000E+000
  0.000000000000000E+000
  0.000000000000000E+000
  0.000000000000000E+000
  0.000000000000000E+000
  0.000000000000000E+000
  0.000000000000000E+000
  0.000000000000000E+000
  0.000000000000000E+000
  0.000000000000000E+000
  0.000000000000000E+000
  0.000000000000000E+000
  0.000000000000000E+000
  0.000000000000000E+000
  0.000000000000000E+000
  0.000000000000000E+000
  0.000000000000000E+000
  0.000000000000000E+000
  0.000000000000000E+000
  0.000000000000000E+000
  0.000000000000000E+000
  0.000000000000000E+000
  0.000000000000000E+000
  0.000000000000000E+000
  0.000000000000000E+000
  0.000000000000000E+000
  0.000000000000000E+000
  0.000000000000000E+000
  0.000000000000000E+000
  0.000000000000000E+000
  0.000000000000000E+000
  0.000000000000000E+000
  0.000000000000000E+000
  0.000000000000000E+000
  0.000000000000000E+000
  0.000000000000000E+000
  0.000000000000000E+000
  0.000000000000000E+000
  0.000000000000000E+000
  0.000000000000000E+000
  0.000000000000000E+000
  0.000000000000000E+000
  0.000000000000000E+000
  0.000000000000000E+000
  0.000000000000000E+000
  0.000000000000000E+000
  0.000000000000000E+000
  0.000000000000000E+000
  0.000000000000000E+000
  0.000000000000000E+000
  0.000000000000000E+000
  0.000000000000000E+000
  0.000000000000000E+000
  0.000000000000000E+000
  0.000000000000000E+000
  0.000000000000000E+000
  0.000000000000000E+000
  0.000000000000000E+000
  0.000000000000000E+000
  0.000000000000000E+000
  0.000000000000000E+000
  0.000000000000000E+000
  0.000000000000000E+000
  0.000000000000000E+000
  0.000000000000000E+000
  0.000000000000000E+000
  0.000000000000000E+000
  0.000000000000000E+000
  0.000000000000000E+000
  0.000000000000000E+000
  0.000000000000000E+000
  0.000000000000000E+000
  0.000000000000000E+000
  0.000000000000000E+000
  0.000000000000000E+000
  0.000000000000000E+000
  0.000000000000000E+000
  0.000000000000000E+000
  0.000000000000000E+000
  0.000000000000000E+000
  0.000000000000000E+000
  0.000000000000000E+000
  0.000000000000000E+000
  0.000000000000000E+000
  0.000000000000000E+000
  0.000000000000000E+000
  0.000000000000000E+000
  0.000000000000000E+000
  0.000000000000000E+000
  0.000000000000000E+000
  0.000000000000000E+000
  0.000000000000000E+000
  0.000000000000000E+000
  0.000000000000000E+000
  0.000000000000000E+000
  0.000000000000000E+000
  0.000000000000000E+000
  0.000000000000000E+000
  0.000000000000000E+000
  0.000000000000000E+000
  0.000000000000000E+000
  0.000000000000000E+000
  0.000000000000000E+000
  0.000000000000000E+000
  0.000000000000000E+000
  0.000000000000000E+000
  0.000000000000000E+000
  0.000000000000000E+000
  0.000000000000000E+000
  0.000000000000000E+000
  0.000000000000000E+000
  0.000000000000000E+000
  0.000000000000000E+000
  0.000000000000000E+000
  0.000000000000000E+000
  0.000000000000000E+000
  0.000000000000000E+000
  0.000000000000000E+000
  0.000000000000000E+000
  0.000000000000000E+000
  0.000000000000000E+000
  0.000000000000000E+000
  0.000000000000000E+000
  0.000000000000000E+000
  0.000000000000000E+000
  0.000000000000000E+000
  0.000000000000000E+000
  0.000000000000000E+000
  0.000000000000000E+000
  0.000000000000000E+000
  0.000000000000000E+000
  0.000000000000000E+000
  0.000000000000000E+000
  0.000000000000000E+000
  0.000000000000000E+000
  0.000000000000000E+000
  0.000000000000000E+000
  0.000000000000000E+000
  0.000000000000000E+000
  0.000000000000000E+000
  0.000000000000000E+000
  0.000000000000000E+000
  0.000000000000000E+000
  0.000000000000000E+000
  0.000000000000000E+000
  0.000000000000000E+000
  0.000000000000000E+000
  0.000000000000000E+000
  0.000000000000000E+000
  0.000000000000000E+000
  0.000000000000000E+000
  0.000000000000000E+000
  0.000000000000000E+000
  0.000000000000000E+000
  0.000000000000000E+000
  0.000000000000000E+000
  0.000000000000000E+000
  0.000000000000000E+000
  0.000000000000000E+000
  0.000000000000000E+000
  0.000000000000000E+000
  0.000000000000000E+000
  0.000000000000000E+000
  0.000000000000000E+000
  0.000000000000000E+000
  0.000000000000000E+000
  0.000000000000000E+000
  0.000000000000000E+000
  0.000000000000000E+000
  0.000000000000000E+000
  0.000000000000000E+000
  0.000000000000000E+000
  0.000000000000000E+000
  0.000000000000000E+000
  0.000000000000000E+000
  0.000000000000000E+000
  0.000000000000000E+000
  0.000000000000000E+000
  0.000000000000000E+000
  0.000000000000000E+000
  0.000000000000000E+000
  0.000000000000000E+000
  0.000000000000000E+000
  0.000000000000000E+000
  0.000000000000000E+000
  0.000000000000000E+000
  0.000000000000000E+000
  0.000000000000000E+000
  0.000000000000000E+000
  0.000000000000000E+000
  0.000000000000000E+000
  0.000000000000000E+000
  0.000000000000000E+000
  0.000000000000000E+000
  0.000000000000000E+000
  0.000000000000000E+000
  0.000000000000000E+000
  0.000000000000000E+000
  0.000000000000000E+000
  0.000000000000000E+000
  0.000000000000000E+000
  0.000000000000000E+000
  0.000000000000000E+000
  0.000000000000000E+000
  0.000000000000000E+000
  0.000000000000000E+000
  0.000000000000000E+000
  0.000000000000000E+000
  0.000000000000000E+000
  0.000000000000000E+000
  0.000000000000000E+000
  0.000000000000000E+000
  0.000000000000000E+000
  0.000000000000000E+000
  0.000000000000000E+000
  0.000000000000000E+000
  0.000000000000000E+000
  0.000000000000000E+000
  0.000000000000000E+000
  0.000000000000000E+000
  0.000000000000000E+000
  0.000000000000000E+000
  0.000000000000000E+000
  0.000000000000000E+000
  0.000000000000000E+000
  0.000000000000000E+000
  0.000000000000000E+000
  0.000000000000000E+000
  0.000000000000000E+000
  0.000000000000000E+000
  0.000000000000000E+000
  0.000000000000000E+000
  0.000000000000000E+000
  0.000000000000000E+000
  0.000000000000000E+000
  0.000000000000000E+000
  0.000000000000000E+000
  0.000000000000000E+000
  0.000000000000000E+000
  0.000000000000000E+000
  0.000000000000000E+000
  0.000000000000000E+000
  0.000000000000000E+000
  0.000000000000000E+000
  0.000000000000000E+000
  0.000000000000000E+000
  0.000000000000000E+000
  0.000000000000000E+000
  0.000000000000000E+000
  0.000000000000000E+000
  0.000000000000000E+000
  0.000000000000000E+000
  0.000000000000000E+000
  0.000000000000000E+000
  0.000000000000000E+000
  0.000000000000000E+000
  0.000000000000000E+000
  0.000000000000000E+000
  0.000000000000000E+000
  0.000000000000000E+000
  0.000000000000000E+000
  0.000000000000000E+000
  0.000000000000000E+000
  0.000000000000000E+000
  0.000000000000000E+000
  0.000000000000000E+000
  0.000000000000000E+000
  0.000000000000000E+000
  0.000000000000000E+000
  0.000000000000000E+000
  0.000000000000000E+000
  0.000000000000000E+000
  0.000000000000000E+000
  0.000000000000000E+000
  0.000000000000000E+000
  0.000000000000000E+000
  0.000000000000000E+000
  0.000000000000000E+000
  0.000000000000000E+000
  0.000000000000000E+000
  0.000000000000000E+000
  0.000000000000000E+000
  0.000000000000000E+000
  0.000000000000000E+000
  0.000000000000000E+000
  0.000000000000000E+000
  0.000000000000000E+000
  0.000000000000000E+000
  0.000000000000000E+000
  0.000000000000000E+000
  0.000000000000000E+000
  0.000000000000000E+000
  0.000000000000000E+000
  0.000000000000000E+000
  0.000000000000000E+000
  0.000000000000000E+000
  0.000000000000000E+000
  0.000000000000000E+000
  0.000000000000000E+000
  0.000000000000000E+000
  0.000000000000000E+000
  0.000000000000000E+000
  0.000000000000000E+000
  0.000000000000000E+000
  0.000000000000000E+000
  0.000000000000000E+000
  0.000000000000000E+000
  0.000000000000000E+000
  0.000000000000000E+000
  0.000000000000000E+000
  0.000000000000000E+000
  0.000000000000000E+000
  0.000000000000000E+000
  0.000000000000000E+000
  0.000000000000000E+000
  0.000000000000000E+000
  0.000000000000000E+000
  0.000000000000000E+000
  0.000000000000000E+000
  0.000000000000000E+000
  0.000000000000000E+000
  0.000000000000000E+000
  0.000000000000000E+000
  0.000000000000000E+000
  0.000000000000000E+000
  0.000000000000000E+000
  0.000000000000000E+000
  0.000000000000000E+000
  0.000000000000000E+000
  0.000000000000000E+000
  0.000000000000000E+000
  0.000000000000000E+000
  0.000000000000000E+000
  0.000000000000000E+000
  0.000000000000000E+000
  0.000000000000000E+000
  0.000000000000000E+000
  0.000000000000000E+000
  0.000000000000000E+000
  0.000000000000000E+000
  0.000000000000000E+000
  0.000000000000000E+000
  0.000000000000000E+000
  0.000000000000000E+000
  0.000000000000000E+000
  0.000000000000000E+000
  0.000000000000000E+000
  0.000000000000000E+000
  0.000000000000000E+000
  0.000000000000000E+000
  0.000000000000000E+000
  0.000000000000000E+000
  0.000000000000000E+000
  0.000000000000000E+000
  0.000000000000000E+000
  0.000000000000000E+000
  0.000000000000000E+000
  0.000000000000000E+000
  0.000000000000000E+000
  0.000000000000000E+000
  0.000000000000000E+000
  0.000000000000000E+000
  0.000000000000000E+000
  0.000000000000000E+000
  0.000000000000000E+000
  0.000000000000000E+000
  0.000000000000000E+000
  0.000000000000000E+000
  0.000000000000000E+000
  0.000000000000000E+000
  0.000000000000000E+000
  0.000000000000000E+000
  0.000000000000000E+000
  0.000000000000000E+000
  0.000000000000000E+000
  0.000000000000000E+000
  0.000000000000000E+000
  0.000000000000000E+000
  0.000000000000000E+000
  0.000000000000000E+000
  0.000000000000000E+000
  0.000000000000000E+000
  0.000000000000000E+000
  0.000000000000000E+000
  0.000000000000000E+000
  0.000000000000000E+000
  0.000000000000000E+000
  0.000000000000000E+000
  0.000000000000000E+000
  0.000000000000000E+000
  0.000000000000000E+000
  0.000000000000000E+000
  0.000000000000000E+000
  0.000000000000000E+000
  0.000000000000000E+000
  0.000000000000000E+000
  0.000000000000000E+000
  0.000000000000000E+000
  0.000000000000000E+000
  0.000000000000000E+000
  0.000000000000000E+000
  0.000000000000000E+000
  0.000000000000000E+000
  0.000000000000000E+000
  0.000000000000000E+000
  0.000000000000000E+000
  0.000000000000000E+000
  0.000000000000000E+000
  0.000000000000000E+000
  0.000000000000000E+000
  0.000000000000000E+000
  0.000000000000000E+000
  0.000000000000000E+000
  0.000000000000000E+000
  0.000000000000000E+000
  0.000000000000000E+000
  0.000000000000000E+000
  0.000000000000000E+000
  0.000000000000000E+000
  0.000000000000000E+000
  0.000000000000000E+000
SCALARS elementIsPlast double 
LOOKUP_TABLE default
   1.00000000000000     
   1.00000000000000     
   1.00000000000000     
  0.000000000000000E+000
  0.000000000000000E+000
  0.000000000000000E+000
  0.000000000000000E+000
  0.000000000000000E+000
  0.000000000000000E+000
  0.000000000000000E+000
  0.000000000000000E+000
  0.000000000000000E+000
  0.000000000000000E+000
  0.000000000000000E+000
  0.000000000000000E+000
   1.00000000000000     
   1.00000000000000     
   1.00000000000000     
  0.000000000000000E+000
  0.000000000000000E+000
  0.000000000000000E+000
  0.000000000000000E+000
  0.000000000000000E+000
  0.000000000000000E+000
  0.000000000000000E+000
  0.000000000000000E+000
  0.000000000000000E+000
  0.000000000000000E+000
  0.000000000000000E+000
  0.000000000000000E+000
   1.00000000000000     
   1.00000000000000     
  0.000000000000000E+000
  0.000000000000000E+000
  0.000000000000000E+000
  0.000000000000000E+000
  0.000000000000000E+000
  0.000000000000000E+000
  0.000000000000000E+000
  0.000000000000000E+000
  0.000000000000000E+000
  0.000000000000000E+000
  0.000000000000000E+000
  0.000000000000000E+000
  0.000000000000000E+000
  0.000000000000000E+000
  0.000000000000000E+000
  0.000000000000000E+000
  0.000000000000000E+000
  0.000000000000000E+000
  0.000000000000000E+000
  0.000000000000000E+000
  0.000000000000000E+000
  0.000000000000000E+000
  0.000000000000000E+000
  0.000000000000000E+000
  0.000000000000000E+000
  0.000000000000000E+000
  0.000000000000000E+000
  0.000000000000000E+000
  0.000000000000000E+000
  0.000000000000000E+000
  0.000000000000000E+000
  0.000000000000000E+000
  0.000000000000000E+000
  0.000000000000000E+000
  0.000000000000000E+000
  0.000000000000000E+000
  0.000000000000000E+000
  0.000000000000000E+000
  0.000000000000000E+000
  0.000000000000000E+000
  0.000000000000000E+000
  0.000000000000000E+000
  0.000000000000000E+000
  0.000000000000000E+000
  0.000000000000000E+000
  0.000000000000000E+000
  0.000000000000000E+000
  0.000000000000000E+000
  0.000000000000000E+000
  0.000000000000000E+000
  0.000000000000000E+000
  0.000000000000000E+000
  0.000000000000000E+000
  0.000000000000000E+000
  0.000000000000000E+000
  0.000000000000000E+000
  0.000000000000000E+000
  0.000000000000000E+000
  0.000000000000000E+000
  0.000000000000000E+000
  0.000000000000000E+000
  0.000000000000000E+000
  0.000000000000000E+000
  0.000000000000000E+000
  0.000000000000000E+000
  0.000000000000000E+000
  0.000000000000000E+000
  0.000000000000000E+000
  0.000000000000000E+000
  0.000000000000000E+000
  0.000000000000000E+000
  0.000000000000000E+000
  0.000000000000000E+000
  0.000000000000000E+000
  0.000000000000000E+000
  0.000000000000000E+000
  0.000000000000000E+000
  0.000000000000000E+000
  0.000000000000000E+000
  0.000000000000000E+000
  0.000000000000000E+000
  0.000000000000000E+000
  0.000000000000000E+000
  0.000000000000000E+000
  0.000000000000000E+000
  0.000000000000000E+000
  0.000000000000000E+000
  0.000000000000000E+000
  0.000000000000000E+000
  0.000000000000000E+000
  0.000000000000000E+000
  0.000000000000000E+000
  0.000000000000000E+000
  0.000000000000000E+000
  0.000000000000000E+000
  0.000000000000000E+000
  0.000000000000000E+000
  0.000000000000000E+000
  0.000000000000000E+000
  0.000000000000000E+000
  0.000000000000000E+000
  0.000000000000000E+000
  0.000000000000000E+000
  0.000000000000000E+000
  0.000000000000000E+000
  0.000000000000000E+000
  0.000000000000000E+000
  0.000000000000000E+000
  0.000000000000000E+000
  0.000000000000000E+000
  0.000000000000000E+000
  0.000000000000000E+000
  0.000000000000000E+000
  0.000000000000000E+000
  0.000000000000000E+000
  0.000000000000000E+000
  0.000000000000000E+000
  0.000000000000000E+000
  0.000000000000000E+000
  0.000000000000000E+000
  0.000000000000000E+000
  0.000000000000000E+000
  0.000000000000000E+000
  0.000000000000000E+000
  0.000000000000000E+000
  0.000000000000000E+000
  0.000000000000000E+000
  0.000000000000000E+000
  0.000000000000000E+000
  0.000000000000000E+000
  0.000000000000000E+000
  0.000000000000000E+000
  0.000000000000000E+000
  0.000000000000000E+000
  0.000000000000000E+000
  0.000000000000000E+000
  0.000000000000000E+000
  0.000000000000000E+000
  0.000000000000000E+000
  0.000000000000000E+000
  0.000000000000000E+000
  0.000000000000000E+000
  0.000000000000000E+000
  0.000000000000000E+000
  0.000000000000000E+000
  0.000000000000000E+000
  0.000000000000000E+000
  0.000000000000000E+000
  0.000000000000000E+000
  0.000000000000000E+000
  0.000000000000000E+000
  0.000000000000000E+000
  0.000000000000000E+000
  0.000000000000000E+000
  0.000000000000000E+000
  0.000000000000000E+000
  0.000000000000000E+000
  0.000000000000000E+000
  0.000000000000000E+000
  0.000000000000000E+000
  0.000000000000000E+000
  0.000000000000000E+000
  0.000000000000000E+000
  0.000000000000000E+000
  0.000000000000000E+000
  0.000000000000000E+000
  0.000000000000000E+000
  0.000000000000000E+000
  0.000000000000000E+000
  0.000000000000000E+000
  0.000000000000000E+000
  0.000000000000000E+000
  0.000000000000000E+000
  0.000000000000000E+000
  0.000000000000000E+000
  0.000000000000000E+000
  0.000000000000000E+000
  0.000000000000000E+000
  0.000000000000000E+000
  0.000000000000000E+000
  0.000000000000000E+000
  0.000000000000000E+000
  0.000000000000000E+000
  0.000000000000000E+000
  0.000000000000000E+000
  0.000000000000000E+000
  0.000000000000000E+000
  0.000000000000000E+000
  0.000000000000000E+000
  0.000000000000000E+000
  0.000000000000000E+000
  0.000000000000000E+000
  0.000000000000000E+000
  0.000000000000000E+000
  0.000000000000000E+000
  0.000000000000000E+000
  0.000000000000000E+000
  0.000000000000000E+000
  0.000000000000000E+000
  0.000000000000000E+000
  0.000000000000000E+000
  0.000000000000000E+000
  0.000000000000000E+000
  0.000000000000000E+000
  0.000000000000000E+000
  0.000000000000000E+000
  0.000000000000000E+000
  0.000000000000000E+000
  0.000000000000000E+000
  0.000000000000000E+000
  0.000000000000000E+000
  0.000000000000000E+000
  0.000000000000000E+000
  0.000000000000000E+000
  0.000000000000000E+000
  0.000000000000000E+000
  0.000000000000000E+000
  0.000000000000000E+000
  0.000000000000000E+000
  0.000000000000000E+000
  0.000000000000000E+000
  0.000000000000000E+000
  0.000000000000000E+000
  0.000000000000000E+000
  0.000000000000000E+000
  0.000000000000000E+000
  0.000000000000000E+000
  0.000000000000000E+000
  0.000000000000000E+000
  0.000000000000000E+000
  0.000000000000000E+000
  0.000000000000000E+000
  0.000000000000000E+000
  0.000000000000000E+000
  0.000000000000000E+000
  0.000000000000000E+000
  0.000000000000000E+000
  0.000000000000000E+000
  0.000000000000000E+000
  0.000000000000000E+000
  0.000000000000000E+000
  0.000000000000000E+000
  0.000000000000000E+000
  0.000000000000000E+000
  0.000000000000000E+000
  0.000000000000000E+000
  0.000000000000000E+000
  0.000000000000000E+000
  0.000000000000000E+000
  0.000000000000000E+000
  0.000000000000000E+000
  0.000000000000000E+000
  0.000000000000000E+000
  0.000000000000000E+000
  0.000000000000000E+000
  0.000000000000000E+000
  0.000000000000000E+000
  0.000000000000000E+000
  0.000000000000000E+000
  0.000000000000000E+000
  0.000000000000000E+000
  0.000000000000000E+000
  0.000000000000000E+000
  0.000000000000000E+000
  0.000000000000000E+000
  0.000000000000000E+000
  0.000000000000000E+000
  0.000000000000000E+000
  0.000000000000000E+000
  0.000000000000000E+000
  0.000000000000000E+000
  0.000000000000000E+000
  0.000000000000000E+000
  0.000000000000000E+000
  0.000000000000000E+000
  0.000000000000000E+000
  0.000000000000000E+000
  0.000000000000000E+000
  0.000000000000000E+000
  0.000000000000000E+000
  0.000000000000000E+000
  0.000000000000000E+000
  0.000000000000000E+000
  0.000000000000000E+000
  0.000000000000000E+000
  0.000000000000000E+000
  0.000000000000000E+000
  0.000000000000000E+000
  0.000000000000000E+000
  0.000000000000000E+000
  0.000000000000000E+000
  0.000000000000000E+000
  0.000000000000000E+000
  0.000000000000000E+000
  0.000000000000000E+000
  0.000000000000000E+000
  0.000000000000000E+000
  0.000000000000000E+000
  0.000000000000000E+000
  0.000000000000000E+000
  0.000000000000000E+000
  0.000000000000000E+000
  0.000000000000000E+000
  0.000000000000000E+000
  0.000000000000000E+000
  0.000000000000000E+000
  0.000000000000000E+000
  0.000000000000000E+000
  0.000000000000000E+000
  0.000000000000000E+000
  0.000000000000000E+000
  0.000000000000000E+000
  0.000000000000000E+000
  0.000000000000000E+000
  0.000000000000000E+000
  0.000000000000000E+000
  0.000000000000000E+000
  0.000000000000000E+000
  0.000000000000000E+000
  0.000000000000000E+000
  0.000000000000000E+000
  0.000000000000000E+000
  0.000000000000000E+000
  0.000000000000000E+000
  0.000000000000000E+000
  0.000000000000000E+000
  0.000000000000000E+000
  0.000000000000000E+000
  0.000000000000000E+000
  0.000000000000000E+000
  0.000000000000000E+000
  0.000000000000000E+000
  0.000000000000000E+000
  0.000000000000000E+000
  0.000000000000000E+000
  0.000000000000000E+000
  0.000000000000000E+000
  0.000000000000000E+000
  0.000000000000000E+000
  0.000000000000000E+000
  0.000000000000000E+000
  0.000000000000000E+000
  0.000000000000000E+000
  0.000000000000000E+000
  0.000000000000000E+000
  0.000000000000000E+000
  0.000000000000000E+000
  0.000000000000000E+000
  0.000000000000000E+000
  0.000000000000000E+000
  0.000000000000000E+000
  0.000000000000000E+000
  0.000000000000000E+000
  0.000000000000000E+000
  0.000000000000000E+000
  0.000000000000000E+000
  0.000000000000000E+000
  0.000000000000000E+000
  0.000000000000000E+000
  0.000000000000000E+000
  0.000000000000000E+000
  0.000000000000000E+000
  0.000000000000000E+000
  0.000000000000000E+000
  0.000000000000000E+000
  0.000000000000000E+000
  0.000000000000000E+000
  0.000000000000000E+000
  0.000000000000000E+000
  0.000000000000000E+000
  0.000000000000000E+000
  0.000000000000000E+000
  0.000000000000000E+000
  0.000000000000000E+000
  0.000000000000000E+000
  0.000000000000000E+000
  0.000000000000000E+000
  0.000000000000000E+000
  0.000000000000000E+000
  0.000000000000000E+000
  0.000000000000000E+000
  0.000000000000000E+000
  0.000000000000000E+000
  0.000000000000000E+000
  0.000000000000000E+000
  0.000000000000000E+000
  0.000000000000000E+000
  0.000000000000000E+000
  0.000000000000000E+000
  0.000000000000000E+000
  0.000000000000000E+000
  0.000000000000000E+000
  0.000000000000000E+000
  0.000000000000000E+000
  0.000000000000000E+000
  0.000000000000000E+000
  0.000000000000000E+000
  0.000000000000000E+000
  0.000000000000000E+000
  0.000000000000000E+000
  0.000000000000000E+000
  0.000000000000000E+000
  0.000000000000000E+000
  0.000000000000000E+000
  0.000000000000000E+000
  0.000000000000000E+000
  0.000000000000000E+000
  0.000000000000000E+000
  0.000000000000000E+000
  0.000000000000000E+000
  0.000000000000000E+000
  0.000000000000000E+000
  0.000000000000000E+000
  0.000000000000000E+000
  0.000000000000000E+000
  0.000000000000000E+000
  0.000000000000000E+000
  0.000000000000000E+000
SCALARS poroL double 
LOOKUP_TABLE default
  0.250000006334210     
  0.250000005420456     
  0.250000004792083     
  0.250000004423978     
  0.250000004192818     
  0.250000003996283     
  0.250000003824921     
  0.250000003672577     
  0.250000003534725     
  0.250000003407731     
  0.250000003288323     
  0.250000003173106     
  0.250000003057841     
  0.250000002935958     
  0.250000002790026     
  0.250000005513182     
  0.250000004981220     
  0.250000004525020     
  0.250000004251548     
  0.250000004034292     
  0.250000003846054     
  0.250000003680460     
  0.250000003532384     
  0.250000003397994     
  0.250000003274114     
  0.250000003157891     
  0.250000003046487     
  0.250000002936805     
  0.250000002824901     
  0.250000002713222     
  0.250000004709659     
  0.250000004498455     
  0.250000004257008     
  0.250000004042706     
  0.250000003847077     
  0.250000003673981     
  0.250000003518868     
  0.250000003378740     
  0.250000003250866     
  0.250000003132851     
  0.250000003022535     
  0.250000002917948     
  0.250000002817383     
  0.250000002720615     
  0.250000002629688     
  0.250000004275368     
  0.250000004149484     
  0.250000003982590     
  0.250000003805850     
  0.250000003638687     
  0.250000003483952     
  0.250000003342466     
  0.250000003212963     
  0.250000003093963     
  0.250000002983945     
  0.250000002881518     
  0.250000002785546     
  0.250000002695473     
  0.250000002611723     
  0.250000002536138     
  0.250000003974433     
  0.250000003842538     
  0.250000003703732     
  0.250000003558810     
  0.250000003415987     
  0.250000003280506     
  0.250000003153988     
  0.250000003036697     
  0.250000002928123     
  0.250000002827531     
  0.250000002734201     
  0.250000002647640     
  0.250000002567802     
  0.250000002495315     
  0.250000002431587     
  0.250000003674855     
  0.250000003552784     
  0.250000003430483     
  0.250000003307147     
  0.250000003185164     
  0.250000003067519     
  0.250000002956093     
  0.250000002851645     
  0.250000002754314     
  0.250000002663933     
  0.250000002580280     
  0.250000002503270     
  0.250000002433116     
  0.250000002370444     
  0.250000002316334     
  0.250000003371567     
  0.250000003265795     
  0.250000003159715     
  0.250000003053827     
  0.250000002949357     
  0.250000002847945     
  0.250000002750991     
  0.250000002659378     
  0.250000002573540     
  0.250000002493660     
  0.250000002419832     
  0.250000002352213     
  0.250000002291135     
  0.250000002237170     
  0.250000002191147     
  0.250000003068406     
  0.250000002979360     
  0.250000002889274     
  0.250000002799220     
  0.250000002710300     
  0.250000002623670     
  0.250000002540383     
  0.250000002461241     
  0.250000002386783     
  0.250000002317361     
  0.250000002253244     
  0.250000002194715     
  0.250000002142146     
  0.250000002096039     
  0.250000002057030     
  0.250000002767326     
  0.250000002693889     
  0.250000002618883     
  0.250000002543530     
  0.250000002468891     
  0.250000002395936     
  0.250000002325521     
  0.250000002258348     
  0.250000002194959     
  0.250000002135765     
  0.250000002081106     
  0.250000002031313     
  0.250000001986752     
  0.250000001947849     
  0.250000001915095     
  0.250000002469150     
  0.250000002409869     
  0.250000002348803     
  0.250000002287108     
  0.250000002225758     
  0.250000002165596     
  0.250000002107348     
  0.250000002051621     
  0.250000001998914     
  0.250000001949631     
  0.250000001904120     
  0.250000001862708     
  0.250000001825726     
  0.250000001793528     
  0.250000001766486     
  0.250000002174041     
  0.250000002127536     
  0.250000002079290     
  0.250000002030297     
  0.250000001981395     
  0.250000001933296     
  0.250000001886607     
  0.250000001841840     
  0.250000001799422     
  0.250000001759718     
  0.250000001723040     
  0.250000001689682     
  0.250000001659925     
  0.250000001634051     
  0.250000001612339     
  0.250000001881774     
  0.250000001846870     
  0.250000001810466     
  0.250000001773350     
  0.250000001736190     
  0.250000001699551     
  0.250000001663913     
  0.250000001629682     
  0.250000001597201     
  0.250000001566768     
  0.250000001538641     
  0.250000001513057     
  0.250000001490241     
  0.250000001470406     
  0.250000001453755     
  0.250000001591876     
  0.250000001567651     
  0.250000001542309     
  0.250000001516411     
  0.250000001490433     
  0.250000001464779     
  0.250000001439789     
  0.250000001415754     
  0.250000001392920     
  0.250000001371503     
  0.250000001351693     
  0.250000001333662     
  0.250000001317571     
  0.250000001303570     
  0.250000001291796     
  0.250000001303714     
  0.250000001289514     
  0.250000001274676     
  0.250000001259523     
  0.250000001244329     
  0.250000001229322     
  0.250000001214695     
  0.250000001200611     
  0.250000001187213     
  0.250000001174627     
  0.250000001162963     
  0.250000001152324     
  0.250000001142807     
  0.250000001134501     
  0.250000001127484     
  0.250000001016547     
  0.250000001011992     
  0.250000001007337     
  0.250000001002661     
  0.250000000998025     
  0.250000000993475     
  0.250000000989048     
  0.250000000984776     
  0.250000000980691     
  0.250000000976824     
  0.250000000973204     
  0.250000000969862     
  0.250000000966830     
  0.250000000964136     
  0.250000000961809     
  0.250000000729575     
  0.250000000734561     
  0.250000000740011     
  0.250000000745755     
  0.250000000751633     
  0.250000000757504     
  0.250000000763245     
  0.250000000768755     
  0.250000000773952     
  0.250000000778773     
  0.250000000783167     
  0.250000000787091     
  0.250000000790513     
  0.250000000793405     
  0.250000000795742     
  0.250000000441962     
  0.250000000456667     
  0.250000000472396     
  0.250000000488720     
  0.250000000505256     
  0.250000000521671     
  0.250000000537681     
  0.250000000553052     
  0.250000000567595     
  0.250000000581154     
  0.250000000593600     
  0.250000000604824     
  0.250000000614730     
  0.250000000623230     
  0.250000000630250     
  0.250000000152873     
  0.250000000177764     
  0.250000000204201     
  0.250000000231492     
  0.250000000259021     
  0.250000000286261     
  0.250000000312771     
  0.250000000338192     
  0.250000000362232     
  0.250000000384654     
  0.250000000405261     
  0.250000000423880     
  0.250000000440354     
  0.250000000454540     
  0.250000000466305     
  0.249999999861494     
  0.249999999897338     
  0.249999999935185     
  0.249999999974060     
  0.250000000013110     
  0.250000000051613     
  0.250000000088978     
  0.250000000124733     
  0.250000000158500     
  0.250000000189979     
  0.250000000218914     
  0.250000000245083     
  0.250000000268272     
  0.250000000288278     
  0.250000000304904     
  0.249999999567064     
  0.249999999614949     
  0.249999999665188     
  0.249999999716504     
  0.249999999767795     
  0.249999999818147     
  0.249999999866833     
  0.249999999913288     
  0.249999999957076     
  0.249999999997855     
  0.250000000035339     
  0.250000000069266     
  0.250000000099376     
  0.250000000125402     
  0.250000000147072     
  0.249999999268895     
  0.249999999330261     
  0.249999999394184     
  0.249999999459049     
  0.249999999523489     
  0.249999999586409     
  0.249999999646968     
  0.249999999704543     
  0.249999999758681     
  0.249999999809036     
  0.249999999855321     
  0.249999999897261     
  0.249999999934559     
  0.249999999966884     
  0.249999999993870     
  0.249999998966401     
  0.249999999043095     
  0.249999999122337     
  0.249999999202122     
  0.249999999280804     
  0.249999999357118     
  0.249999999430150     
  0.249999999499279     
  0.249999999564088     
  0.249999999624288     
  0.249999999679638     
  0.249999999729882     
  0.249999999774702     
  0.249999999813697     
  0.249999999846389     
  0.249999998659136     
  0.249999998753495     
  0.249999998850090     
  0.249999998946449     
  0.249999999040624     
  0.249999999131218     
  0.249999999217315     
  0.249999999298378     
  0.249999999374120     
  0.249999999444382     
  0.249999999509036     
  0.249999999567891     
  0.249999999620634     
  0.249999999666793     
  0.249999999705741     
  0.249999998346834     
  0.249999998461825     
  0.249999998578294     
  0.249999998693176     
  0.249999998804215     
  0.249999998909956     
  0.249999999009607     
  0.249999999102847     
  0.249999999189638     
  0.249999999270059     
  0.249999999344182     
  0.249999999411948     
  0.249999999473086     
  0.249999999527052     
  0.249999999573026     
  0.249999998029477     
  0.249999998168945     
  0.249999998308418     
  0.249999998444065     
  0.249999998573357     
  0.249999998694958     
  0.249999998808411     
  0.249999998913808     
  0.249999999011516     
  0.249999999101987     
  0.249999999185599     
  0.249999999262524     
  0.249999999332597     
  0.249999999395212     
  0.249999999449295     
  0.249999997707427     
  0.249999997876524     
  0.249999998042917     
  0.249999998201781     
  0.249999998350519     
  0.249999998488298     
  0.249999998615362     
  0.249999998732480     
  0.249999998840607     
  0.249999998940696     
  0.249999999033573     
  0.249999999119777     
  0.249999999199373     
  0.249999999271741     
  0.249999999335472     
  0.249999997381703     
  0.249999997587725     
  0.249999997785888     
  0.249999997970304     
  0.249999998139005     
  0.249999998292509     
  0.249999998432312     
  0.249999998560140     
  0.249999998677686     
  0.249999998786525     
  0.249999998888047     
  0.249999998983373     
  0.249999999073039     
  0.249999999156608     
  0.249999999232230     
  0.249999997054898     
  0.249999997308765     
  0.249999997544337     
  0.249999997755330     
  0.249999997942917     
  0.249999998110461     
  0.249999998261210     
  0.249999998398029     
  0.249999998523413     
  0.249999998639581     
  0.249999998748564     
  0.249999998852236     
  0.249999998952244     
  0.249999999048775     
  0.249999999139772     
  0.249999996733993     
  0.249999997053930     
  0.249999997329590     
  0.249999997563902     
  0.249999997766744     
  0.249999997945038     
  0.249999998103897     
  0.249999998247249     
  0.249999998378287     
  0.249999998499782     
  0.249999998614332     
  0.249999998724614     
  0.249999998833623     
  0.249999998945249     
  0.249999999057024     
  0.249999996455946     
  0.249999996852386     
  0.249999997154528     
  0.249999997402986     
  0.249999997614466     
  0.249999997798637     
  0.249999997961832     
  0.249999998108633     
  0.249999998242642     
  0.249999998366949     
  0.249999998484498     
  0.249999998598477     
  0.249999998713008     
  0.249999998834589     
  0.249999998980632     
