# vtk DataFile Version 3.0
vtk output
ASCII
DATASET UNSTRUCTURED_GRID
POINTS       496 double 
  0.00000000E+00  3.00000000E+02  0.00000000E+00
  0.00000000E+00  2.80000000E+02  0.00000000E+00
  0.00000000E+00  2.60000000E+02  0.00000000E+00
  0.00000000E+00  2.40000000E+02  0.00000000E+00
  0.00000000E+00  2.20000000E+02  0.00000000E+00
  0.00000000E+00  2.00000000E+02  0.00000000E+00
  0.00000000E+00  1.80000000E+02  0.00000000E+00
  0.00000000E+00  1.60000000E+02  0.00000000E+00
  0.00000000E+00  1.40000000E+02  0.00000000E+00
  0.00000000E+00  1.20000000E+02  0.00000000E+00
  0.00000000E+00  1.00000000E+02  0.00000000E+00
  0.00000000E+00  8.00000000E+01  0.00000000E+00
  0.00000000E+00  6.00000000E+01  0.00000000E+00
  0.00000000E+00  4.00000000E+01  0.00000000E+00
  0.00000000E+00  2.00000000E+01  0.00000000E+00
  0.00000000E+00  4.99600361E-14  0.00000000E+00
  2.00000000E+01  3.00000000E+02  0.00000000E+00
  2.00000000E+01  2.80000000E+02  0.00000000E+00
  2.00000000E+01  2.60000000E+02  0.00000000E+00
  2.00000000E+01  2.40000000E+02  0.00000000E+00
  2.00000000E+01  2.20000000E+02  0.00000000E+00
  2.00000000E+01  2.00000000E+02  0.00000000E+00
  2.00000000E+01  1.80000000E+02  0.00000000E+00
  2.00000000E+01  1.60000000E+02  0.00000000E+00
  2.00000000E+01  1.40000000E+02  0.00000000E+00
  2.00000000E+01  1.20000000E+02  0.00000000E+00
  2.00000000E+01  1.00000000E+02  0.00000000E+00
  2.00000000E+01  8.00000000E+01  0.00000000E+00
  2.00000000E+01  6.00000000E+01  0.00000000E+00
  2.00000000E+01  4.00000000E+01  0.00000000E+00
  2.00000000E+01  2.00000000E+01  0.00000000E+00
  2.00000000E+01  4.99600361E-14  0.00000000E+00
  4.00000000E+01  3.00000000E+02  0.00000000E+00
  4.00000000E+01  2.80000000E+02  0.00000000E+00
  4.00000000E+01  2.60000000E+02  0.00000000E+00
  4.00000000E+01  2.40000000E+02  0.00000000E+00
  4.00000000E+01  2.20000000E+02  0.00000000E+00
  4.00000000E+01  2.00000000E+02  0.00000000E+00
  4.00000000E+01  1.80000000E+02  0.00000000E+00
  4.00000000E+01  1.60000000E+02  0.00000000E+00
  4.00000000E+01  1.40000000E+02  0.00000000E+00
  4.00000000E+01  1.20000000E+02  0.00000000E+00
  4.00000000E+01  1.00000000E+02  0.00000000E+00
  4.00000000E+01  8.00000000E+01  0.00000000E+00
  4.00000000E+01  6.00000000E+01  0.00000000E+00
  4.00000000E+01  4.00000000E+01  0.00000000E+00
  4.00000000E+01  2.00000000E+01  0.00000000E+00
  4.00000000E+01  4.99600361E-14  0.00000000E+00
  6.00000000E+01  3.00000000E+02  0.00000000E+00
  6.00000000E+01  2.80000000E+02  0.00000000E+00
  6.00000000E+01  2.60000000E+02  0.00000000E+00
  6.00000000E+01  2.40000000E+02  0.00000000E+00
  6.00000000E+01  2.20000000E+02  0.00000000E+00
  6.00000000E+01  2.00000000E+02  0.00000000E+00
  6.00000000E+01  1.80000000E+02  0.00000000E+00
  6.00000000E+01  1.60000000E+02  0.00000000E+00
  6.00000000E+01  1.40000000E+02  0.00000000E+00
  6.00000000E+01  1.20000000E+02  0.00000000E+00
  6.00000000E+01  1.00000000E+02  0.00000000E+00
  6.00000000E+01  8.00000000E+01  0.00000000E+00
  6.00000000E+01  6.00000000E+01  0.00000000E+00
  6.00000000E+01  4.00000000E+01  0.00000000E+00
  6.00000000E+01  2.00000000E+01  0.00000000E+00
  6.00000000E+01  4.99600361E-14  0.00000000E+00
  8.00000000E+01  3.00000000E+02  0.00000000E+00
  8.00000000E+01  2.80000000E+02  0.00000000E+00
  8.00000000E+01  2.60000000E+02  0.00000000E+00
  8.00000000E+01  2.40000000E+02  0.00000000E+00
  8.00000000E+01  2.20000000E+02  0.00000000E+00
  8.00000000E+01  2.00000000E+02  0.00000000E+00
  8.00000000E+01  1.80000000E+02  0.00000000E+00
  8.00000000E+01  1.60000000E+02  0.00000000E+00
  8.00000000E+01  1.40000000E+02  0.00000000E+00
  8.00000000E+01  1.20000000E+02  0.00000000E+00
  8.00000000E+01  1.00000000E+02  0.00000000E+00
  8.00000000E+01  8.00000000E+01  0.00000000E+00
  8.00000000E+01  6.00000000E+01  0.00000000E+00
  8.00000000E+01  4.00000000E+01  0.00000000E+00
  8.00000000E+01  2.00000000E+01  0.00000000E+00
  8.00000000E+01  4.99600361E-14  0.00000000E+00
  1.00000000E+02  3.00000000E+02  0.00000000E+00
  1.00000000E+02  2.80000000E+02  0.00000000E+00
  1.00000000E+02  2.60000000E+02  0.00000000E+00
  1.00000000E+02  2.40000000E+02  0.00000000E+00
  1.00000000E+02  2.20000000E+02  0.00000000E+00
  1.00000000E+02  2.00000000E+02  0.00000000E+00
  1.00000000E+02  1.80000000E+02  0.00000000E+00
  1.00000000E+02  1.60000000E+02  0.00000000E+00
  1.00000000E+02  1.40000000E+02  0.00000000E+00
  1.00000000E+02  1.20000000E+02  0.00000000E+00
  1.00000000E+02  1.00000000E+02  0.00000000E+00
  1.00000000E+02  8.00000000E+01  0.00000000E+00
  1.00000000E+02  6.00000000E+01  0.00000000E+00
  1.00000000E+02  4.00000000E+01  0.00000000E+00
  1.00000000E+02  2.00000000E+01  0.00000000E+00
  1.00000000E+02  4.99600361E-14  0.00000000E+00
  1.20000000E+02  3.00000000E+02  0.00000000E+00
  1.20000000E+02  2.80000000E+02  0.00000000E+00
  1.20000000E+02  2.60000000E+02  0.00000000E+00
  1.20000000E+02  2.40000000E+02  0.00000000E+00
  1.20000000E+02  2.20000000E+02  0.00000000E+00
  1.20000000E+02  2.00000000E+02  0.00000000E+00
  1.20000000E+02  1.80000000E+02  0.00000000E+00
  1.20000000E+02  1.60000000E+02  0.00000000E+00
  1.20000000E+02  1.40000000E+02  0.00000000E+00
  1.20000000E+02  1.20000000E+02  0.00000000E+00
  1.20000000E+02  1.00000000E+02  0.00000000E+00
  1.20000000E+02  8.00000000E+01  0.00000000E+00
  1.20000000E+02  6.00000000E+01  0.00000000E+00
  1.20000000E+02  4.00000000E+01  0.00000000E+00
  1.20000000E+02  2.00000000E+01  0.00000000E+00
  1.20000000E+02  4.99600361E-14  0.00000000E+00
  1.40000000E+02  3.00000000E+02  0.00000000E+00
  1.40000000E+02  2.80000000E+02  0.00000000E+00
  1.40000000E+02  2.60000000E+02  0.00000000E+00
  1.40000000E+02  2.40000000E+02  0.00000000E+00
  1.40000000E+02  2.20000000E+02  0.00000000E+00
  1.40000000E+02  2.00000000E+02  0.00000000E+00
  1.40000000E+02  1.80000000E+02  0.00000000E+00
  1.40000000E+02  1.60000000E+02  0.00000000E+00
  1.40000000E+02  1.40000000E+02  0.00000000E+00
  1.40000000E+02  1.20000000E+02  0.00000000E+00
  1.40000000E+02  1.00000000E+02  0.00000000E+00
  1.40000000E+02  8.00000000E+01  0.00000000E+00
  1.40000000E+02  6.00000000E+01  0.00000000E+00
  1.40000000E+02  4.00000000E+01  0.00000000E+00
  1.40000000E+02  2.00000000E+01  0.00000000E+00
  1.40000000E+02  4.99600361E-14  0.00000000E+00
  1.60000000E+02  3.00000000E+02  0.00000000E+00
  1.60000000E+02  2.80000000E+02  0.00000000E+00
  1.60000000E+02  2.60000000E+02  0.00000000E+00
  1.60000000E+02  2.40000000E+02  0.00000000E+00
  1.60000000E+02  2.20000000E+02  0.00000000E+00
  1.60000000E+02  2.00000000E+02  0.00000000E+00
  1.60000000E+02  1.80000000E+02  0.00000000E+00
  1.60000000E+02  1.60000000E+02  0.00000000E+00
  1.60000000E+02  1.40000000E+02  0.00000000E+00
  1.60000000E+02  1.20000000E+02  0.00000000E+00
  1.60000000E+02  1.00000000E+02  0.00000000E+00
  1.60000000E+02  8.00000000E+01  0.00000000E+00
  1.60000000E+02  6.00000000E+01  0.00000000E+00
  1.60000000E+02  4.00000000E+01  0.00000000E+00
  1.60000000E+02  2.00000000E+01  0.00000000E+00
  1.60000000E+02  4.99600361E-14  0.00000000E+00
  1.80000000E+02  3.00000000E+02  0.00000000E+00
  1.80000000E+02  2.80000000E+02  0.00000000E+00
  1.80000000E+02  2.60000000E+02  0.00000000E+00
  1.80000000E+02  2.40000000E+02  0.00000000E+00
  1.80000000E+02  2.20000000E+02  0.00000000E+00
  1.80000000E+02  2.00000000E+02  0.00000000E+00
  1.80000000E+02  1.80000000E+02  0.00000000E+00
  1.80000000E+02  1.60000000E+02  0.00000000E+00
  1.80000000E+02  1.40000000E+02  0.00000000E+00
  1.80000000E+02  1.20000000E+02  0.00000000E+00
  1.80000000E+02  1.00000000E+02  0.00000000E+00
  1.80000000E+02  8.00000000E+01  0.00000000E+00
  1.80000000E+02  6.00000000E+01  0.00000000E+00
  1.80000000E+02  4.00000000E+01  0.00000000E+00
  1.80000000E+02  2.00000000E+01  0.00000000E+00
  1.80000000E+02  4.99600361E-14  0.00000000E+00
  2.00000000E+02  3.00000000E+02  0.00000000E+00
  2.00000000E+02  2.80000000E+02  0.00000000E+00
  2.00000000E+02  2.60000000E+02  0.00000000E+00
  2.00000000E+02  2.40000000E+02  0.00000000E+00
  2.00000000E+02  2.20000000E+02  0.00000000E+00
  2.00000000E+02  2.00000000E+02  0.00000000E+00
  2.00000000E+02  1.80000000E+02  0.00000000E+00
  2.00000000E+02  1.60000000E+02  0.00000000E+00
  2.00000000E+02  1.40000000E+02  0.00000000E+00
  2.00000000E+02  1.20000000E+02  0.00000000E+00
  2.00000000E+02  1.00000000E+02  0.00000000E+00
  2.00000000E+02  8.00000000E+01  0.00000000E+00
  2.00000000E+02  6.00000000E+01  0.00000000E+00
  2.00000000E+02  4.00000000E+01  0.00000000E+00
  2.00000000E+02  2.00000000E+01  0.00000000E+00
  2.00000000E+02  4.99600361E-14  0.00000000E+00
  2.20000000E+02  3.00000000E+02  0.00000000E+00
  2.20000000E+02  2.80000000E+02  0.00000000E+00
  2.20000000E+02  2.60000000E+02  0.00000000E+00
  2.20000000E+02  2.40000000E+02  0.00000000E+00
  2.20000000E+02  2.20000000E+02  0.00000000E+00
  2.20000000E+02  2.00000000E+02  0.00000000E+00
  2.20000000E+02  1.80000000E+02  0.00000000E+00
  2.20000000E+02  1.60000000E+02  0.00000000E+00
  2.20000000E+02  1.40000000E+02  0.00000000E+00
  2.20000000E+02  1.20000000E+02  0.00000000E+00
  2.20000000E+02  1.00000000E+02  0.00000000E+00
  2.20000000E+02  8.00000000E+01  0.00000000E+00
  2.20000000E+02  6.00000000E+01  0.00000000E+00
  2.20000000E+02  4.00000000E+01  0.00000000E+00
  2.20000000E+02  2.00000000E+01  0.00000000E+00
  2.20000000E+02  4.99600361E-14  0.00000000E+00
  2.40000000E+02  3.00000000E+02  0.00000000E+00
  2.40000000E+02  2.80000000E+02  0.00000000E+00
  2.40000000E+02  2.60000000E+02  0.00000000E+00
  2.40000000E+02  2.40000000E+02  0.00000000E+00
  2.40000000E+02  2.20000000E+02  0.00000000E+00
  2.40000000E+02  2.00000000E+02  0.00000000E+00
  2.40000000E+02  1.80000000E+02  0.00000000E+00
  2.40000000E+02  1.60000000E+02  0.00000000E+00
  2.40000000E+02  1.40000000E+02  0.00000000E+00
  2.40000000E+02  1.20000000E+02  0.00000000E+00
  2.40000000E+02  1.00000000E+02  0.00000000E+00
  2.40000000E+02  8.00000000E+01  0.00000000E+00
  2.40000000E+02  6.00000000E+01  0.00000000E+00
  2.40000000E+02  4.00000000E+01  0.00000000E+00
  2.40000000E+02  2.00000000E+01  0.00000000E+00
  2.40000000E+02  4.99600361E-14  0.00000000E+00
  2.60000000E+02  3.00000000E+02  0.00000000E+00
  2.60000000E+02  2.80000000E+02  0.00000000E+00
  2.60000000E+02  2.60000000E+02  0.00000000E+00
  2.60000000E+02  2.40000000E+02  0.00000000E+00
  2.60000000E+02  2.20000000E+02  0.00000000E+00
  2.60000000E+02  2.00000000E+02  0.00000000E+00
  2.60000000E+02  1.80000000E+02  0.00000000E+00
  2.60000000E+02  1.60000000E+02  0.00000000E+00
  2.60000000E+02  1.40000000E+02  0.00000000E+00
  2.60000000E+02  1.20000000E+02  0.00000000E+00
  2.60000000E+02  1.00000000E+02  0.00000000E+00
  2.60000000E+02  8.00000000E+01  0.00000000E+00
  2.60000000E+02  6.00000000E+01  0.00000000E+00
  2.60000000E+02  4.00000000E+01  0.00000000E+00
  2.60000000E+02  2.00000000E+01  0.00000000E+00
  2.60000000E+02  4.99600361E-14  0.00000000E+00
  2.80000000E+02  3.00000000E+02  0.00000000E+00
  2.80000000E+02  2.80000000E+02  0.00000000E+00
  2.80000000E+02  2.60000000E+02  0.00000000E+00
  2.80000000E+02  2.40000000E+02  0.00000000E+00
  2.80000000E+02  2.20000000E+02  0.00000000E+00
  2.80000000E+02  2.00000000E+02  0.00000000E+00
  2.80000000E+02  1.80000000E+02  0.00000000E+00
  2.80000000E+02  1.60000000E+02  0.00000000E+00
  2.80000000E+02  1.40000000E+02  0.00000000E+00
  2.80000000E+02  1.20000000E+02  0.00000000E+00
  2.80000000E+02  1.00000000E+02  0.00000000E+00
  2.80000000E+02  8.00000000E+01  0.00000000E+00
  2.80000000E+02  6.00000000E+01  0.00000000E+00
  2.80000000E+02  4.00000000E+01  0.00000000E+00
  2.80000000E+02  2.00000000E+01  0.00000000E+00
  2.80000000E+02  4.99600361E-14  0.00000000E+00
  3.00000000E+02  3.00000000E+02  0.00000000E+00
  3.00000000E+02  2.80000000E+02  0.00000000E+00
  3.00000000E+02  2.60000000E+02  0.00000000E+00
  3.00000000E+02  2.40000000E+02  0.00000000E+00
  3.00000000E+02  2.20000000E+02  0.00000000E+00
  3.00000000E+02  2.00000000E+02  0.00000000E+00
  3.00000000E+02  1.80000000E+02  0.00000000E+00
  3.00000000E+02  1.60000000E+02  0.00000000E+00
  3.00000000E+02  1.40000000E+02  0.00000000E+00
  3.00000000E+02  1.20000000E+02  0.00000000E+00
  3.00000000E+02  1.00000000E+02  0.00000000E+00
  3.00000000E+02  8.00000000E+01  0.00000000E+00
  3.00000000E+02  6.00000000E+01  0.00000000E+00
  3.00000000E+02  4.00000000E+01  0.00000000E+00
  3.00000000E+02  2.00000000E+01  0.00000000E+00
  3.00000000E+02  4.99600361E-14  0.00000000E+00
  3.20000000E+02  3.00000000E+02  0.00000000E+00
  3.20000000E+02  2.80000000E+02  0.00000000E+00
  3.20000000E+02  2.60000000E+02  0.00000000E+00
  3.20000000E+02  2.40000000E+02  0.00000000E+00
  3.20000000E+02  2.20000000E+02  0.00000000E+00
  3.20000000E+02  2.00000000E+02  0.00000000E+00
  3.20000000E+02  1.80000000E+02  0.00000000E+00
  3.20000000E+02  1.60000000E+02  0.00000000E+00
  3.20000000E+02  1.40000000E+02  0.00000000E+00
  3.20000000E+02  1.20000000E+02  0.00000000E+00
  3.20000000E+02  1.00000000E+02  0.00000000E+00
  3.20000000E+02  8.00000000E+01  0.00000000E+00
  3.20000000E+02  6.00000000E+01  0.00000000E+00
  3.20000000E+02  4.00000000E+01  0.00000000E+00
  3.20000000E+02  2.00000000E+01  0.00000000E+00
  3.20000000E+02  4.99600361E-14  0.00000000E+00
  3.40000000E+02  3.00000000E+02  0.00000000E+00
  3.40000000E+02  2.80000000E+02  0.00000000E+00
  3.40000000E+02  2.60000000E+02  0.00000000E+00
  3.40000000E+02  2.40000000E+02  0.00000000E+00
  3.40000000E+02  2.20000000E+02  0.00000000E+00
  3.40000000E+02  2.00000000E+02  0.00000000E+00
  3.40000000E+02  1.80000000E+02  0.00000000E+00
  3.40000000E+02  1.60000000E+02  0.00000000E+00
  3.40000000E+02  1.40000000E+02  0.00000000E+00
  3.40000000E+02  1.20000000E+02  0.00000000E+00
  3.40000000E+02  1.00000000E+02  0.00000000E+00
  3.40000000E+02  8.00000000E+01  0.00000000E+00
  3.40000000E+02  6.00000000E+01  0.00000000E+00
  3.40000000E+02  4.00000000E+01  0.00000000E+00
  3.40000000E+02  2.00000000E+01  0.00000000E+00
  3.40000000E+02  4.99600361E-14  0.00000000E+00
  3.60000000E+02  3.00000000E+02  0.00000000E+00
  3.60000000E+02  2.80000000E+02  0.00000000E+00
  3.60000000E+02  2.60000000E+02  0.00000000E+00
  3.60000000E+02  2.40000000E+02  0.00000000E+00
  3.60000000E+02  2.20000000E+02  0.00000000E+00
  3.60000000E+02  2.00000000E+02  0.00000000E+00
  3.60000000E+02  1.80000000E+02  0.00000000E+00
  3.60000000E+02  1.60000000E+02  0.00000000E+00
  3.60000000E+02  1.40000000E+02  0.00000000E+00
  3.60000000E+02  1.20000000E+02  0.00000000E+00
  3.60000000E+02  1.00000000E+02  0.00000000E+00
  3.60000000E+02  8.00000000E+01  0.00000000E+00
  3.60000000E+02  6.00000000E+01  0.00000000E+00
  3.60000000E+02  4.00000000E+01  0.00000000E+00
  3.60000000E+02  2.00000000E+01  0.00000000E+00
  3.60000000E+02  4.99600361E-14  0.00000000E+00
  3.80000000E+02  3.00000000E+02  0.00000000E+00
  3.80000000E+02  2.80000000E+02  0.00000000E+00
  3.80000000E+02  2.60000000E+02  0.00000000E+00
  3.80000000E+02  2.40000000E+02  0.00000000E+00
  3.80000000E+02  2.20000000E+02  0.00000000E+00
  3.80000000E+02  2.00000000E+02  0.00000000E+00
  3.80000000E+02  1.80000000E+02  0.00000000E+00
  3.80000000E+02  1.60000000E+02  0.00000000E+00
  3.80000000E+02  1.40000000E+02  0.00000000E+00
  3.80000000E+02  1.20000000E+02  0.00000000E+00
  3.80000000E+02  1.00000000E+02  0.00000000E+00
  3.80000000E+02  8.00000000E+01  0.00000000E+00
  3.80000000E+02  6.00000000E+01  0.00000000E+00
  3.80000000E+02  4.00000000E+01  0.00000000E+00
  3.80000000E+02  2.00000000E+01  0.00000000E+00
  3.80000000E+02  4.99600361E-14  0.00000000E+00
  4.00000000E+02  3.00000000E+02  0.00000000E+00
  4.00000000E+02  2.80000000E+02  0.00000000E+00
  4.00000000E+02  2.60000000E+02  0.00000000E+00
  4.00000000E+02  2.40000000E+02  0.00000000E+00
  4.00000000E+02  2.20000000E+02  0.00000000E+00
  4.00000000E+02  2.00000000E+02  0.00000000E+00
  4.00000000E+02  1.80000000E+02  0.00000000E+00
  4.00000000E+02  1.60000000E+02  0.00000000E+00
  4.00000000E+02  1.40000000E+02  0.00000000E+00
  4.00000000E+02  1.20000000E+02  0.00000000E+00
  4.00000000E+02  1.00000000E+02  0.00000000E+00
  4.00000000E+02  8.00000000E+01  0.00000000E+00
  4.00000000E+02  6.00000000E+01  0.00000000E+00
  4.00000000E+02  4.00000000E+01  0.00000000E+00
  4.00000000E+02  2.00000000E+01  0.00000000E+00
  4.00000000E+02  4.99600361E-14  0.00000000E+00
  4.20000000E+02  3.00000000E+02  0.00000000E+00
  4.20000000E+02  2.80000000E+02  0.00000000E+00
  4.20000000E+02  2.60000000E+02  0.00000000E+00
  4.20000000E+02  2.40000000E+02  0.00000000E+00
  4.20000000E+02  2.20000000E+02  0.00000000E+00
  4.20000000E+02  2.00000000E+02  0.00000000E+00
  4.20000000E+02  1.80000000E+02  0.00000000E+00
  4.20000000E+02  1.60000000E+02  0.00000000E+00
  4.20000000E+02  1.40000000E+02  0.00000000E+00
  4.20000000E+02  1.20000000E+02  0.00000000E+00
  4.20000000E+02  1.00000000E+02  0.00000000E+00
  4.20000000E+02  8.00000000E+01  0.00000000E+00
  4.20000000E+02  6.00000000E+01  0.00000000E+00
  4.20000000E+02  4.00000000E+01  0.00000000E+00
  4.20000000E+02  2.00000000E+01  0.00000000E+00
  4.20000000E+02  4.99600361E-14  0.00000000E+00
  4.40000000E+02  3.00000000E+02  0.00000000E+00
  4.40000000E+02  2.80000000E+02  0.00000000E+00
  4.40000000E+02  2.60000000E+02  0.00000000E+00
  4.40000000E+02  2.40000000E+02  0.00000000E+00
  4.40000000E+02  2.20000000E+02  0.00000000E+00
  4.40000000E+02  2.00000000E+02  0.00000000E+00
  4.40000000E+02  1.80000000E+02  0.00000000E+00
  4.40000000E+02  1.60000000E+02  0.00000000E+00
  4.40000000E+02  1.40000000E+02  0.00000000E+00
  4.40000000E+02  1.20000000E+02  0.00000000E+00
  4.40000000E+02  1.00000000E+02  0.00000000E+00
  4.40000000E+02  8.00000000E+01  0.00000000E+00
  4.40000000E+02  6.00000000E+01  0.00000000E+00
  4.40000000E+02  4.00000000E+01  0.00000000E+00
  4.40000000E+02  2.00000000E+01  0.00000000E+00
  4.40000000E+02  4.99600361E-14  0.00000000E+00
  4.60000000E+02  3.00000000E+02  0.00000000E+00
  4.60000000E+02  2.80000000E+02  0.00000000E+00
  4.60000000E+02  2.60000000E+02  0.00000000E+00
  4.60000000E+02  2.40000000E+02  0.00000000E+00
  4.60000000E+02  2.20000000E+02  0.00000000E+00
  4.60000000E+02  2.00000000E+02  0.00000000E+00
  4.60000000E+02  1.80000000E+02  0.00000000E+00
  4.60000000E+02  1.60000000E+02  0.00000000E+00
  4.60000000E+02  1.40000000E+02  0.00000000E+00
  4.60000000E+02  1.20000000E+02  0.00000000E+00
  4.60000000E+02  1.00000000E+02  0.00000000E+00
  4.60000000E+02  8.00000000E+01  0.00000000E+00
  4.60000000E+02  6.00000000E+01  0.00000000E+00
  4.60000000E+02  4.00000000E+01  0.00000000E+00
  4.60000000E+02  2.00000000E+01  0.00000000E+00
  4.60000000E+02  4.99600361E-14  0.00000000E+00
  4.80000000E+02  3.00000000E+02  0.00000000E+00
  4.80000000E+02  2.80000000E+02  0.00000000E+00
  4.80000000E+02  2.60000000E+02  0.00000000E+00
  4.80000000E+02  2.40000000E+02  0.00000000E+00
  4.80000000E+02  2.20000000E+02  0.00000000E+00
  4.80000000E+02  2.00000000E+02  0.00000000E+00
  4.80000000E+02  1.80000000E+02  0.00000000E+00
  4.80000000E+02  1.60000000E+02  0.00000000E+00
  4.80000000E+02  1.40000000E+02  0.00000000E+00
  4.80000000E+02  1.20000000E+02  0.00000000E+00
  4.80000000E+02  1.00000000E+02  0.00000000E+00
  4.80000000E+02  8.00000000E+01  0.00000000E+00
  4.80000000E+02  6.00000000E+01  0.00000000E+00
  4.80000000E+02  4.00000000E+01  0.00000000E+00
  4.80000000E+02  2.00000000E+01  0.00000000E+00
  4.80000000E+02  4.99600361E-14  0.00000000E+00
  5.00000000E+02  3.00000000E+02  0.00000000E+00
  5.00000000E+02  2.80000000E+02  0.00000000E+00
  5.00000000E+02  2.60000000E+02  0.00000000E+00
  5.00000000E+02  2.40000000E+02  0.00000000E+00
  5.00000000E+02  2.20000000E+02  0.00000000E+00
  5.00000000E+02  2.00000000E+02  0.00000000E+00
  5.00000000E+02  1.80000000E+02  0.00000000E+00
  5.00000000E+02  1.60000000E+02  0.00000000E+00
  5.00000000E+02  1.40000000E+02  0.00000000E+00
  5.00000000E+02  1.20000000E+02  0.00000000E+00
  5.00000000E+02  1.00000000E+02  0.00000000E+00
  5.00000000E+02  8.00000000E+01  0.00000000E+00
  5.00000000E+02  6.00000000E+01  0.00000000E+00
  5.00000000E+02  4.00000000E+01  0.00000000E+00
  5.00000000E+02  2.00000000E+01  0.00000000E+00
  5.00000000E+02  4.99600361E-14  0.00000000E+00
  5.20000000E+02  3.00000000E+02  0.00000000E+00
  5.20000000E+02  2.80000000E+02  0.00000000E+00
  5.20000000E+02  2.60000000E+02  0.00000000E+00
  5.20000000E+02  2.40000000E+02  0.00000000E+00
  5.20000000E+02  2.20000000E+02  0.00000000E+00
  5.20000000E+02  2.00000000E+02  0.00000000E+00
  5.20000000E+02  1.80000000E+02  0.00000000E+00
  5.20000000E+02  1.60000000E+02  0.00000000E+00
  5.20000000E+02  1.40000000E+02  0.00000000E+00
  5.20000000E+02  1.20000000E+02  0.00000000E+00
  5.20000000E+02  1.00000000E+02  0.00000000E+00
  5.20000000E+02  8.00000000E+01  0.00000000E+00
  5.20000000E+02  6.00000000E+01  0.00000000E+00
  5.20000000E+02  4.00000000E+01  0.00000000E+00
  5.20000000E+02  2.00000000E+01  0.00000000E+00
  5.20000000E+02  4.99600361E-14  0.00000000E+00
  5.40000000E+02  3.00000000E+02  0.00000000E+00
  5.40000000E+02  2.80000000E+02  0.00000000E+00
  5.40000000E+02  2.60000000E+02  0.00000000E+00
  5.40000000E+02  2.40000000E+02  0.00000000E+00
  5.40000000E+02  2.20000000E+02  0.00000000E+00
  5.40000000E+02  2.00000000E+02  0.00000000E+00
  5.40000000E+02  1.80000000E+02  0.00000000E+00
  5.40000000E+02  1.60000000E+02  0.00000000E+00
  5.40000000E+02  1.40000000E+02  0.00000000E+00
  5.40000000E+02  1.20000000E+02  0.00000000E+00
  5.40000000E+02  1.00000000E+02  0.00000000E+00
  5.40000000E+02  8.00000000E+01  0.00000000E+00
  5.40000000E+02  6.00000000E+01  0.00000000E+00
  5.40000000E+02  4.00000000E+01  0.00000000E+00
  5.40000000E+02  2.00000000E+01  0.00000000E+00
  5.40000000E+02  4.99600361E-14  0.00000000E+00
  5.60000000E+02  3.00000000E+02  0.00000000E+00
  5.60000000E+02  2.80000000E+02  0.00000000E+00
  5.60000000E+02  2.60000000E+02  0.00000000E+00
  5.60000000E+02  2.40000000E+02  0.00000000E+00
  5.60000000E+02  2.20000000E+02  0.00000000E+00
  5.60000000E+02  2.00000000E+02  0.00000000E+00
  5.60000000E+02  1.80000000E+02  0.00000000E+00
  5.60000000E+02  1.60000000E+02  0.00000000E+00
  5.60000000E+02  1.40000000E+02  0.00000000E+00
  5.60000000E+02  1.20000000E+02  0.00000000E+00
  5.60000000E+02  1.00000000E+02  0.00000000E+00
  5.60000000E+02  8.00000000E+01  0.00000000E+00
  5.60000000E+02  6.00000000E+01  0.00000000E+00
  5.60000000E+02  4.00000000E+01  0.00000000E+00
  5.60000000E+02  2.00000000E+01  0.00000000E+00
  5.60000000E+02  4.99600361E-14  0.00000000E+00
  5.80000000E+02  3.00000000E+02  0.00000000E+00
  5.80000000E+02  2.80000000E+02  0.00000000E+00
  5.80000000E+02  2.60000000E+02  0.00000000E+00
  5.80000000E+02  2.40000000E+02  0.00000000E+00
  5.80000000E+02  2.20000000E+02  0.00000000E+00
  5.80000000E+02  2.00000000E+02  0.00000000E+00
  5.80000000E+02  1.80000000E+02  0.00000000E+00
  5.80000000E+02  1.60000000E+02  0.00000000E+00
  5.80000000E+02  1.40000000E+02  0.00000000E+00
  5.80000000E+02  1.20000000E+02  0.00000000E+00
  5.80000000E+02  1.00000000E+02  0.00000000E+00
  5.80000000E+02  8.00000000E+01  0.00000000E+00
  5.80000000E+02  6.00000000E+01  0.00000000E+00
  5.80000000E+02  4.00000000E+01  0.00000000E+00
  5.80000000E+02  2.00000000E+01  0.00000000E+00
  5.80000000E+02  4.99600361E-14  0.00000000E+00
  6.00000000E+02  3.00000000E+02  0.00000000E+00
  6.00000000E+02  2.80000000E+02  0.00000000E+00
  6.00000000E+02  2.60000000E+02  0.00000000E+00
  6.00000000E+02  2.40000000E+02  0.00000000E+00
  6.00000000E+02  2.20000000E+02  0.00000000E+00
  6.00000000E+02  2.00000000E+02  0.00000000E+00
  6.00000000E+02  1.80000000E+02  0.00000000E+00
  6.00000000E+02  1.60000000E+02  0.00000000E+00
  6.00000000E+02  1.40000000E+02  0.00000000E+00
  6.00000000E+02  1.20000000E+02  0.00000000E+00
  6.00000000E+02  1.00000000E+02  0.00000000E+00
  6.00000000E+02  8.00000000E+01  0.00000000E+00
  6.00000000E+02  6.00000000E+01  0.00000000E+00
  6.00000000E+02  4.00000000E+01  0.00000000E+00
  6.00000000E+02  2.00000000E+01  0.00000000E+00
  6.00000000E+02  4.99600361E-14  0.00000000E+00
CELLS       450      2250
         4           0           1          17          16
         4           1           2          18          17
         4           2           3          19          18
         4           3           4          20          19
         4           4           5          21          20
         4           5           6          22          21
         4           6           7          23          22
         4           7           8          24          23
         4           8           9          25          24
         4           9          10          26          25
         4          10          11          27          26
         4          11          12          28          27
         4          12          13          29          28
         4          13          14          30          29
         4          14          15          31          30
         4          16          17          33          32
         4          17          18          34          33
         4          18          19          35          34
         4          19          20          36          35
         4          20          21          37          36
         4          21          22          38          37
         4          22          23          39          38
         4          23          24          40          39
         4          24          25          41          40
         4          25          26          42          41
         4          26          27          43          42
         4          27          28          44          43
         4          28          29          45          44
         4          29          30          46          45
         4          30          31          47          46
         4          32          33          49          48
         4          33          34          50          49
         4          34          35          51          50
         4          35          36          52          51
         4          36          37          53          52
         4          37          38          54          53
         4          38          39          55          54
         4          39          40          56          55
         4          40          41          57          56
         4          41          42          58          57
         4          42          43          59          58
         4          43          44          60          59
         4          44          45          61          60
         4          45          46          62          61
         4          46          47          63          62
         4          48          49          65          64
         4          49          50          66          65
         4          50          51          67          66
         4          51          52          68          67
         4          52          53          69          68
         4          53          54          70          69
         4          54          55          71          70
         4          55          56          72          71
         4          56          57          73          72
         4          57          58          74          73
         4          58          59          75          74
         4          59          60          76          75
         4          60          61          77          76
         4          61          62          78          77
         4          62          63          79          78
         4          64          65          81          80
         4          65          66          82          81
         4          66          67          83          82
         4          67          68          84          83
         4          68          69          85          84
         4          69          70          86          85
         4          70          71          87          86
         4          71          72          88          87
         4          72          73          89          88
         4          73          74          90          89
         4          74          75          91          90
         4          75          76          92          91
         4          76          77          93          92
         4          77          78          94          93
         4          78          79          95          94
         4          80          81          97          96
         4          81          82          98          97
         4          82          83          99          98
         4          83          84         100          99
         4          84          85         101         100
         4          85          86         102         101
         4          86          87         103         102
         4          87          88         104         103
         4          88          89         105         104
         4          89          90         106         105
         4          90          91         107         106
         4          91          92         108         107
         4          92          93         109         108
         4          93          94         110         109
         4          94          95         111         110
         4          96          97         113         112
         4          97          98         114         113
         4          98          99         115         114
         4          99         100         116         115
         4         100         101         117         116
         4         101         102         118         117
         4         102         103         119         118
         4         103         104         120         119
         4         104         105         121         120
         4         105         106         122         121
         4         106         107         123         122
         4         107         108         124         123
         4         108         109         125         124
         4         109         110         126         125
         4         110         111         127         126
         4         112         113         129         128
         4         113         114         130         129
         4         114         115         131         130
         4         115         116         132         131
         4         116         117         133         132
         4         117         118         134         133
         4         118         119         135         134
         4         119         120         136         135
         4         120         121         137         136
         4         121         122         138         137
         4         122         123         139         138
         4         123         124         140         139
         4         124         125         141         140
         4         125         126         142         141
         4         126         127         143         142
         4         128         129         145         144
         4         129         130         146         145
         4         130         131         147         146
         4         131         132         148         147
         4         132         133         149         148
         4         133         134         150         149
         4         134         135         151         150
         4         135         136         152         151
         4         136         137         153         152
         4         137         138         154         153
         4         138         139         155         154
         4         139         140         156         155
         4         140         141         157         156
         4         141         142         158         157
         4         142         143         159         158
         4         144         145         161         160
         4         145         146         162         161
         4         146         147         163         162
         4         147         148         164         163
         4         148         149         165         164
         4         149         150         166         165
         4         150         151         167         166
         4         151         152         168         167
         4         152         153         169         168
         4         153         154         170         169
         4         154         155         171         170
         4         155         156         172         171
         4         156         157         173         172
         4         157         158         174         173
         4         158         159         175         174
         4         160         161         177         176
         4         161         162         178         177
         4         162         163         179         178
         4         163         164         180         179
         4         164         165         181         180
         4         165         166         182         181
         4         166         167         183         182
         4         167         168         184         183
         4         168         169         185         184
         4         169         170         186         185
         4         170         171         187         186
         4         171         172         188         187
         4         172         173         189         188
         4         173         174         190         189
         4         174         175         191         190
         4         176         177         193         192
         4         177         178         194         193
         4         178         179         195         194
         4         179         180         196         195
         4         180         181         197         196
         4         181         182         198         197
         4         182         183         199         198
         4         183         184         200         199
         4         184         185         201         200
         4         185         186         202         201
         4         186         187         203         202
         4         187         188         204         203
         4         188         189         205         204
         4         189         190         206         205
         4         190         191         207         206
         4         192         193         209         208
         4         193         194         210         209
         4         194         195         211         210
         4         195         196         212         211
         4         196         197         213         212
         4         197         198         214         213
         4         198         199         215         214
         4         199         200         216         215
         4         200         201         217         216
         4         201         202         218         217
         4         202         203         219         218
         4         203         204         220         219
         4         204         205         221         220
         4         205         206         222         221
         4         206         207         223         222
         4         208         209         225         224
         4         209         210         226         225
         4         210         211         227         226
         4         211         212         228         227
         4         212         213         229         228
         4         213         214         230         229
         4         214         215         231         230
         4         215         216         232         231
         4         216         217         233         232
         4         217         218         234         233
         4         218         219         235         234
         4         219         220         236         235
         4         220         221         237         236
         4         221         222         238         237
         4         222         223         239         238
         4         224         225         241         240
         4         225         226         242         241
         4         226         227         243         242
         4         227         228         244         243
         4         228         229         245         244
         4         229         230         246         245
         4         230         231         247         246
         4         231         232         248         247
         4         232         233         249         248
         4         233         234         250         249
         4         234         235         251         250
         4         235         236         252         251
         4         236         237         253         252
         4         237         238         254         253
         4         238         239         255         254
         4         240         241         257         256
         4         241         242         258         257
         4         242         243         259         258
         4         243         244         260         259
         4         244         245         261         260
         4         245         246         262         261
         4         246         247         263         262
         4         247         248         264         263
         4         248         249         265         264
         4         249         250         266         265
         4         250         251         267         266
         4         251         252         268         267
         4         252         253         269         268
         4         253         254         270         269
         4         254         255         271         270
         4         256         257         273         272
         4         257         258         274         273
         4         258         259         275         274
         4         259         260         276         275
         4         260         261         277         276
         4         261         262         278         277
         4         262         263         279         278
         4         263         264         280         279
         4         264         265         281         280
         4         265         266         282         281
         4         266         267         283         282
         4         267         268         284         283
         4         268         269         285         284
         4         269         270         286         285
         4         270         271         287         286
         4         272         273         289         288
         4         273         274         290         289
         4         274         275         291         290
         4         275         276         292         291
         4         276         277         293         292
         4         277         278         294         293
         4         278         279         295         294
         4         279         280         296         295
         4         280         281         297         296
         4         281         282         298         297
         4         282         283         299         298
         4         283         284         300         299
         4         284         285         301         300
         4         285         286         302         301
         4         286         287         303         302
         4         288         289         305         304
         4         289         290         306         305
         4         290         291         307         306
         4         291         292         308         307
         4         292         293         309         308
         4         293         294         310         309
         4         294         295         311         310
         4         295         296         312         311
         4         296         297         313         312
         4         297         298         314         313
         4         298         299         315         314
         4         299         300         316         315
         4         300         301         317         316
         4         301         302         318         317
         4         302         303         319         318
         4         304         305         321         320
         4         305         306         322         321
         4         306         307         323         322
         4         307         308         324         323
         4         308         309         325         324
         4         309         310         326         325
         4         310         311         327         326
         4         311         312         328         327
         4         312         313         329         328
         4         313         314         330         329
         4         314         315         331         330
         4         315         316         332         331
         4         316         317         333         332
         4         317         318         334         333
         4         318         319         335         334
         4         320         321         337         336
         4         321         322         338         337
         4         322         323         339         338
         4         323         324         340         339
         4         324         325         341         340
         4         325         326         342         341
         4         326         327         343         342
         4         327         328         344         343
         4         328         329         345         344
         4         329         330         346         345
         4         330         331         347         346
         4         331         332         348         347
         4         332         333         349         348
         4         333         334         350         349
         4         334         335         351         350
         4         336         337         353         352
         4         337         338         354         353
         4         338         339         355         354
         4         339         340         356         355
         4         340         341         357         356
         4         341         342         358         357
         4         342         343         359         358
         4         343         344         360         359
         4         344         345         361         360
         4         345         346         362         361
         4         346         347         363         362
         4         347         348         364         363
         4         348         349         365         364
         4         349         350         366         365
         4         350         351         367         366
         4         352         353         369         368
         4         353         354         370         369
         4         354         355         371         370
         4         355         356         372         371
         4         356         357         373         372
         4         357         358         374         373
         4         358         359         375         374
         4         359         360         376         375
         4         360         361         377         376
         4         361         362         378         377
         4         362         363         379         378
         4         363         364         380         379
         4         364         365         381         380
         4         365         366         382         381
         4         366         367         383         382
         4         368         369         385         384
         4         369         370         386         385
         4         370         371         387         386
         4         371         372         388         387
         4         372         373         389         388
         4         373         374         390         389
         4         374         375         391         390
         4         375         376         392         391
         4         376         377         393         392
         4         377         378         394         393
         4         378         379         395         394
         4         379         380         396         395
         4         380         381         397         396
         4         381         382         398         397
         4         382         383         399         398
         4         384         385         401         400
         4         385         386         402         401
         4         386         387         403         402
         4         387         388         404         403
         4         388         389         405         404
         4         389         390         406         405
         4         390         391         407         406
         4         391         392         408         407
         4         392         393         409         408
         4         393         394         410         409
         4         394         395         411         410
         4         395         396         412         411
         4         396         397         413         412
         4         397         398         414         413
         4         398         399         415         414
         4         400         401         417         416
         4         401         402         418         417
         4         402         403         419         418
         4         403         404         420         419
         4         404         405         421         420
         4         405         406         422         421
         4         406         407         423         422
         4         407         408         424         423
         4         408         409         425         424
         4         409         410         426         425
         4         410         411         427         426
         4         411         412         428         427
         4         412         413         429         428
         4         413         414         430         429
         4         414         415         431         430
         4         416         417         433         432
         4         417         418         434         433
         4         418         419         435         434
         4         419         420         436         435
         4         420         421         437         436
         4         421         422         438         437
         4         422         423         439         438
         4         423         424         440         439
         4         424         425         441         440
         4         425         426         442         441
         4         426         427         443         442
         4         427         428         444         443
         4         428         429         445         444
         4         429         430         446         445
         4         430         431         447         446
         4         432         433         449         448
         4         433         434         450         449
         4         434         435         451         450
         4         435         436         452         451
         4         436         437         453         452
         4         437         438         454         453
         4         438         439         455         454
         4         439         440         456         455
         4         440         441         457         456
         4         441         442         458         457
         4         442         443         459         458
         4         443         444         460         459
         4         444         445         461         460
         4         445         446         462         461
         4         446         447         463         462
         4         448         449         465         464
         4         449         450         466         465
         4         450         451         467         466
         4         451         452         468         467
         4         452         453         469         468
         4         453         454         470         469
         4         454         455         471         470
         4         455         456         472         471
         4         456         457         473         472
         4         457         458         474         473
         4         458         459         475         474
         4         459         460         476         475
         4         460         461         477         476
         4         461         462         478         477
         4         462         463         479         478
         4         464         465         481         480
         4         465         466         482         481
         4         466         467         483         482
         4         467         468         484         483
         4         468         469         485         484
         4         469         470         486         485
         4         470         471         487         486
         4         471         472         488         487
         4         472         473         489         488
         4         473         474         490         489
         4         474         475         491         490
         4         475         476         492         491
         4         476         477         493         492
         4         477         478         494         493
         4         478         479         495         494
CELL_TYPES        450
9
9
9
9
9
9
9
9
9
9
9
9
9
9
9
9
9
9
9
9
9
9
9
9
9
9
9
9
9
9
9
9
9
9
9
9
9
9
9
9
9
9
9
9
9
9
9
9
9
9
9
9
9
9
9
9
9
9
9
9
9
9
9
9
9
9
9
9
9
9
9
9
9
9
9
9
9
9
9
9
9
9
9
9
9
9
9
9
9
9
9
9
9
9
9
9
9
9
9
9
9
9
9
9
9
9
9
9
9
9
9
9
9
9
9
9
9
9
9
9
9
9
9
9
9
9
9
9
9
9
9
9
9
9
9
9
9
9
9
9
9
9
9
9
9
9
9
9
9
9
9
9
9
9
9
9
9
9
9
9
9
9
9
9
9
9
9
9
9
9
9
9
9
9
9
9
9
9
9
9
9
9
9
9
9
9
9
9
9
9
9
9
9
9
9
9
9
9
9
9
9
9
9
9
9
9
9
9
9
9
9
9
9
9
9
9
9
9
9
9
9
9
9
9
9
9
9
9
9
9
9
9
9
9
9
9
9
9
9
9
9
9
9
9
9
9
9
9
9
9
9
9
9
9
9
9
9
9
9
9
9
9
9
9
9
9
9
9
9
9
9
9
9
9
9
9
9
9
9
9
9
9
9
9
9
9
9
9
9
9
9
9
9
9
9
9
9
9
9
9
9
9
9
9
9
9
9
9
9
9
9
9
9
9
9
9
9
9
9
9
9
9
9
9
9
9
9
9
9
9
9
9
9
9
9
9
9
9
9
9
9
9
9
9
9
9
9
9
9
9
9
9
9
9
9
9
9
9
9
9
9
9
9
9
9
9
9
9
9
9
9
9
9
9
9
9
9
9
9
9
9
9
9
9
9
9
9
9
9
9
9
9
9
9
9
9
9
9
9
9
9
9
9
9
9
9
9
9
9
9
9
9
9
9
9
9
9
9
9
9
9
9
9
9
9
9
9
9
9
9
9
9
9
9
9
9
9
9
9
9
9
9
9
9
9
9
9
9
9
9
POINT_DATA       496
SCALARS p double 
LOOKUP_TABLE default
   59584773.3575632     
   59588030.8441974     
   59595488.7897667     
   59605443.2230021     
   59617296.4566561     
   59630580.8237000     
   59644795.8603854     
   59659469.2891088     
   59674180.3188468     
   59688567.4019987     
   59702344.4683563     
   59715302.5205691     
   59727314.4036368     
   59738521.7677134     
   59748988.0355842     
   59755663.9813991     
   59581115.9727449     
   59584404.9954722     
   59592005.7145187     
   59602191.5230219     
   59614300.3204533     
   59627835.9011144     
   59642285.7436051     
   59657169.9296509     
   59672061.4297998     
   59686592.9854192     
   59700472.4093679     
   59713484.2856077     
   59725493.2146778     
   59736617.9247004     
   59746897.6641671     
   59753380.6028631     
   59575862.4154271     
   59579420.1087924     
   59587647.4709345     
   59598596.0134197     
   59611492.9572220     
   59625793.4705631     
   59640955.5191450     
   59656478.1298093     
   59671916.7592258     
   59686887.6056961     
   59701080.9711321     
   59714263.0430421     
   59726276.3869529     
   59737188.7648463     
   59746993.8654096     
   59753018.8763703     
   59567408.9419756     
   59571721.9694832     
   59581309.6818215     
   59593664.1074768     
   59607929.6565522     
   59623537.2464407     
   59639909.7846005     
   59656515.9994682     
   59672884.9750659     
   59688606.9797524     
   59703345.1059371     
   59716837.1509210     
   59728895.1553176     
   59739532.9117503     
   59748716.7150372     
   59754151.8656871     
   59555181.5939478     
   59560695.7727227     
   59572377.4915648     
   59586825.6983259     
   59603084.6772287     
   59620576.5979859     
   59638687.3245847     
   59656849.0050392     
   59674557.5014795     
   59691369.3743801     
   59706912.1274237     
   59720886.6679804     
   59733068.2282300     
   59743414.0294468     
   59751874.2785947     
   59756616.5864578     
   59539252.2508012     
   59546343.1807819     
   59560810.4911760     
   59578056.7911343     
   59596969.9786147     
   59616960.7450001     
   59637372.5014126     
   59657595.2410386     
   59677086.2051596     
   59695361.8833282     
   59712006.5947592     
   59726675.8784025     
   59739099.5545339     
   59749162.4377164     
   59756785.7323516     
   59760694.1756708     
   59519609.0628816     
   59528703.1992838     
   59546712.5714252     
   59567510.0761294     
   59589782.3124122     
   59612928.4929230     
   59636244.1581176     
   59659072.7726829     
   59680829.3144089     
   59700985.3994796     
   59719075.4324111     
   59734700.6499855     
   59747533.8607491     
   59757365.2782072     
   59764064.7953947     
   59767002.0960026     
   59496171.9052086     
   59507766.3253177     
   59530168.2946535     
   59555341.0796083     
   59581732.5025734     
   59608738.3090845     
   59635604.5783111     
   59661626.8771553     
   59686177.0713461     
   59708679.4107903     
   59728613.2279137     
   59745516.8533826     
   59758993.2802831     
   59768715.7662937     
   59774480.2099576     
   59776361.5742202     
   59468921.8652997     
   59483569.3166176     
   59511302.3421892     
   59541748.0944366     
   59573077.2609292     
   59604696.2307854     
   59635804.4197189     
   59665652.2570200     
   59693571.6336674     
   59718940.3932895     
   59741180.3019693     
   59759759.5512933     
   59774198.3454919     
   59784030.8325608     
   59788952.9280592     
   59789764.6960401     
   59437905.6914987     
   59456219.0568651     
   59490313.3774515     
   59527003.5082715     
   59564145.5599605     
   59601177.5094163     
   59637260.0341270     
   59671606.3947312     
   59703516.9730735     
   59732329.0834643     
   59757408.5255012     
   59778148.6612915     
   59793974.3580394     
   59804258.7371259     
   59808565.6019383     
   59808384.3634085     
   59403258.9656329     
   59425911.3044009     
   59467486.2760140     
   59511461.4831892     
   59555341.7699315     
   59598624.7487593     
   59640446.3148706     
   59679997.0946053     
   59716561.4868288     
   59749449.0283739     
   59777977.2313400     
   59801464.1841760     
   59819228.4029586     
   59830461.3789507     
   59834555.3860499     
   59833578.6239656     
   59365242.4874381     
   59392961.5184127     
   59443216.1793585     
   59495575.9175945     
   59547157.8600972     
   59597554.0294928     
   59645896.1599331     
   59691374.9077965     
   59733283.5307454     
   59770926.0959459     
   59803588.3909693     
   59830519.5314319     
   59850923.9643626     
   59863794.0464860     
   59868302.7315417     
   59866887.4105064     
   59324272.9065543     
   59357833.2638860     
   59418032.8407800     
   59479920.4190779     
   59540188.1422854     
   59598562.9511486     
   59654200.3160353     
   59706323.6922971     
   59754272.4102344     
   59797380.6601164     
   59834931.9364663     
   59866123.0728865     
   59890042.8022660     
   59905472.8209603     
   59911309.8721083     
   59910020.8572346     
   59280950.4483998     
   59321164.6509370     
   59392624.8365078     
   59465210.3240355     
   59535146.9937202     
   59602341.0883928     
   59666007.6302996     
   59725448.4984014     
   59780102.9429730     
   59829389.3916997     
   59872636.9673926     
   59909022.5932749     
   59937527.9261546     
   59956722.9336755     
   59965161.9069491     
   59964832.5000263     
   59236086.6279116     
   59283794.4022934     
   59367867.0330870     
   59452329.8934645     
   59532892.7098536     
   59609685.6551635     
   59682027.8003339     
   59749361.7079481     
   59811303.0762126     
   59867434.5406969     
   59917205.1978815     
   59959827.6517582     
   59994201.7286007     
   60018701.3946040     
   60031463.4312090     
   60033269.6584938     
   59190703.2420040     
   59246770.2183057     
   59344839.0257830     
   59442361.2316157     
   59534457.8614109     
   59621523.9034137     
   59703037.2291769     
   59778666.3002297     
   59848311.2688470     
   59911835.0991501     
   59968918.5441235     
   60018899.4574135     
   60060646.8786756     
   60092381.2341444     
   60111739.0766193     
   60117293.1322684     
   59146043.0074470     
   59211374.9698217     
   59324887.5141772     
   59436661.9210573     
   59541129.1766791     
   59638980.6501075     
   59729923.0123822     
   59813968.0543170     
   59891452.4569195     
   59962685.5694441     
   60027743.5661966     
   60086227.5168614     
   60137065.8726038     
   60178406.6023248     
   60207299.9484338     
   60218750.6448505     
   59103511.2431544     
   59179081.2257272     
   59309594.5811599     
   59436867.5338167     
   59554460.6067675     
   59663380.4241143     
   59763654.1976332     
   59855803.8277793     
   59940816.8025751     
   60019683.5223084     
   60093110.5779035     
   60161169.7772062     
   60222998.2619974     
   60276815.4853040     
   60318996.0444073     
   60339186.7342689     
   59064582.1530167     
   59151595.3690814     
   59301019.3873265     
   59445213.8572186     
   59576615.9724480     
   59696560.7222142     
   59805543.1658536     
   59904838.5199200     
   59996387.2136423     
   60082184.9912324     
   60163897.5714527     
   60242368.9455986     
   60317183.4852880     
   60386860.8169620     
   60447030.9200223     
   60479599.3121417     
   59030827.9381851     
   59130811.4736731     
   59301589.3946978     
   59464441.1140262     
   59610243.2318070     
   59740699.1069059     
   59856998.2253983     
   59961534.4777050     
   60057621.0512273     
   60148696.2654734     
   60237830.4763482     
   60327073.9587034     
   60416829.6737925     
   60506303.3270936     
   60590311.1948356     
   60639994.9248867     
   59003515.7223274     
   59118786.6686645     
   59314630.3310411     
   59498605.3856349     
   59659382.2117849     
   59799142.4852214     
   59920235.2519573     
   60026740.7784746     
   60123925.2456629     
   60217228.2028483     
   60311700.5574778     
   60411197.0528977     
   60517534.9145394     
   60631216.8362765     
   60746314.1696139     
   60819089.8381575     
   58982936.5392340     
   59117854.0293530     
   59344911.3428158     
   59553666.3927566     
   59729737.9739004     
   59876410.0942729     
   59998053.6232975     
   60101312.6710554     
   60194153.2419241     
   60284670.3223653     
   60380573.0918549     
   60488325.3746122     
   60612058.8834168     
   60754686.0215167     
   60909680.3694554     
   61013299.7321112     
   58973018.2461666     
   59132965.8945759     
   59400391.0184159     
   59638790.6859674     
   59829815.4658155     
   59979016.5568457     
   60094407.4246522     
   60186519.8857333     
   60266921.2665552     
   60346995.3127229     
   60437800.1093621     
   60549396.2191942     
   60689711.2290756     
   60865925.5186944     
   61071810.3215855     
   61216205.1828618     
   58966210.5834152     
   59163261.3303478     
   59487898.9686689     
   59764474.2261158     
   59968848.8068001     
   60112635.1168072     
   60211087.2835057     
   60280596.8305769     
   60337184.9771107     
   60395859.9018444     
   60471423.6706212     
   60578591.5284649     
   60731311.3759005     
   60945124.4572966     
   61216459.7821327     
   61417256.6220793     
   58960390.5462726     
   59230165.2227872     
   59646643.8998083     
   59970834.1205906     
   60179778.9672923     
   60302693.1375013     
   60367509.9484475     
   60398410.0796442     
   60416078.2440562     
   60438574.6425213     
   60484003.1654314     
   60572147.4615144     
   60725629.9148632     
   60974906.1395858     
   61325957.5455111     
   61599872.5744008     
   59056303.0166860     
   59378674.5697188     
   59906096.3695826     
   60272674.6035274     
   60463839.4879989     
   60539120.6892430     
   60546010.4043672     
   60517643.7242950     
   60478223.8448800     
   60446528.0790770     
   60441819.7106471     
   60488149.2958100     
   60619471.8168650     
   60893340.4652995     
   61344301.6216986     
   61725350.1641995     
   58888827.6556416     
   59455056.1544620     
   60220399.6925872     
   60648491.3836744     
   60779982.3692647     
   60763896.0436108     
   60679522.7130402     
   60568600.1497127     
   60453983.1279857     
   60349695.2294265     
   60270931.6968093     
   60241382.9703196     
   60305204.0046157     
   60569404.4505787     
   61160040.1262536     
   61777363.5957588     
   58963183.6705054     
   60200716.0644985     
   61420373.3067100     
   61745953.5427839     
   61668438.2442677     
   61468805.8723160     
   61245161.5869865     
   61025898.4476686     
   60819418.2710579     
   60625255.9889673     
   60444644.3232733     
   60287021.7788094     
   60183924.5025007     
   60269336.1965955     
   60818305.6455384     
   61587914.3590821     
   62026237.0816108     
   63179992.9131003     
   63673796.2769164     
   63283305.0385657     
   62721122.9827014     
   62235048.7293237     
   61833859.1906808     
   61493371.4702026     
   61190127.9609873     
   60900776.2404648     
   60603342.1715392     
   60275517.8736137     
   59895121.7033317     
   59512861.8048870     
   59303370.7506262     
   59428507.2390058     
   63213814.0566081     
   60857755.0946922     
   59121739.1694385     
   57761430.0848964     
   56852820.7947552     
   56208439.7145713     
   55743967.2283046     
   55374035.7870310     
   55054865.1037196     
   54749189.1750988     
   54421979.4145672     
   54027627.2555340     
   53500646.7191534     
   52756712.7275595     
   51622913.8447719     
   50282387.3568092     
   28250000.0000000     
   28250000.0000000     
   28250000.0000000     
   28250000.0000000     
   28250000.0000000     
   28250000.0000000     
   28250000.0000000     
   28250000.0000000     
   28250000.0000000     
   28250000.0000000     
   28250000.0000000     
   28250000.0000000     
   28250000.0000000     
   28250000.0000000     
   28250000.0000000     
   28250000.0000000     
VECTORS u double 
    0.00000E+00        -0.16030E-01         0.00000E+00
    0.00000E+00        -0.13966E-01         0.00000E+00
    0.00000E+00        -0.11958E-01         0.00000E+00
    0.00000E+00        -0.10052E-01         0.00000E+00
    0.00000E+00        -0.82829E-02         0.00000E+00
    0.00000E+00        -0.66749E-02         0.00000E+00
    0.00000E+00        -0.52452E-02         0.00000E+00
    0.00000E+00        -0.40023E-02         0.00000E+00
    0.00000E+00        -0.29481E-02         0.00000E+00
    0.00000E+00        -0.20779E-02         0.00000E+00
    0.00000E+00        -0.13822E-02         0.00000E+00
    0.00000E+00        -0.84748E-03         0.00000E+00
    0.00000E+00        -0.45782E-03         0.00000E+00
    0.00000E+00        -0.19696E-03         0.00000E+00
    0.00000E+00        -0.50280E-04         0.00000E+00
    0.00000E+00         0.00000E+00         0.00000E+00
    0.20990E-02        -0.16043E-01         0.00000E+00
    0.20585E-02        -0.13966E-01         0.00000E+00
    0.19748E-02        -0.11950E-01         0.00000E+00
    0.18532E-02        -0.10038E-01         0.00000E+00
    0.17022E-02        -0.82645E-02         0.00000E+00
    0.15304E-02        -0.66542E-02         0.00000E+00
    0.13462E-02        -0.52235E-02         0.00000E+00
    0.11569E-02        -0.39812E-02         0.00000E+00
    0.96921E-03        -0.29285E-02         0.00000E+00
    0.78892E-03        -0.20609E-02         0.00000E+00
    0.62049E-03        -0.13684E-02         0.00000E+00
    0.46707E-03        -0.83738E-03         0.00000E+00
    0.33026E-03        -0.45148E-03         0.00000E+00
    0.20970E-03        -0.19408E-03         0.00000E+00
    0.10252E-03        -0.50064E-04         0.00000E+00
    0.00000E+00         0.00000E+00         0.00000E+00
    0.42073E-02        -0.16067E-01         0.00000E+00
    0.41273E-02        -0.13964E-01         0.00000E+00
    0.39558E-02        -0.11925E-01         0.00000E+00
    0.37088E-02        -0.99957E-02         0.00000E+00
    0.34033E-02        -0.82103E-02         0.00000E+00
    0.30567E-02        -0.65929E-02         0.00000E+00
    0.26853E-02        -0.51596E-02         0.00000E+00
    0.23042E-02        -0.39186E-02         0.00000E+00
    0.19269E-02        -0.28706E-02         0.00000E+00
    0.15647E-02        -0.20105E-02         0.00000E+00
    0.12267E-02        -0.13275E-02         0.00000E+00
    0.91932E-03        -0.80726E-03         0.00000E+00
    0.64589E-03        -0.43242E-03         0.00000E+00
    0.40594E-03        -0.18506E-03         0.00000E+00
    0.19419E-03        -0.48261E-04         0.00000E+00
    0.00000E+00         0.00000E+00         0.00000E+00
    0.63512E-02        -0.16104E-01         0.00000E+00
    0.62265E-02        -0.13960E-01         0.00000E+00
    0.59611E-02        -0.11885E-01         0.00000E+00
    0.55817E-02        -0.99282E-02         0.00000E+00
    0.51152E-02        -0.81232E-02         0.00000E+00
    0.45876E-02        -0.64941E-02         0.00000E+00
    0.40236E-02        -0.50563E-02         0.00000E+00
    0.34459E-02        -0.38171E-02         0.00000E+00
    0.28748E-02        -0.27765E-02         0.00000E+00
    0.23274E-02        -0.19283E-02         0.00000E+00
    0.18176E-02        -0.12607E-02         0.00000E+00
    0.13553E-02        -0.75776E-03         0.00000E+00
    0.94574E-03        -0.40067E-03         0.00000E+00
    0.58879E-03        -0.16927E-03         0.00000E+00
    0.27791E-03        -0.43753E-04         0.00000E+00
    0.00000E+00         0.00000E+00         0.00000E+00
    0.85517E-02        -0.16162E-01         0.00000E+00
    0.83727E-02        -0.13960E-01         0.00000E+00
    0.80041E-02        -0.11836E-01         0.00000E+00
    0.74828E-02        -0.98411E-02         0.00000E+00
    0.68457E-02        -0.80090E-02         0.00000E+00
    0.61283E-02        -0.63634E-02         0.00000E+00
    0.53637E-02        -0.49188E-02         0.00000E+00
    0.45823E-02        -0.36814E-02         0.00000E+00
    0.38114E-02        -0.26501E-02         0.00000E+00
    0.30741E-02        -0.18175E-02         0.00000E+00
    0.23892E-02        -0.11701E-02         0.00000E+00
    0.17704E-02        -0.69026E-03         0.00000E+00
    0.12254E-02        -0.35684E-03         0.00000E+00
    0.75500E-03        -0.14679E-03         0.00000E+00
    0.35188E-03        -0.36761E-04         0.00000E+00
    0.00000E+00         0.00000E+00         0.00000E+00
    0.10828E-01        -0.16254E-01         0.00000E+00
    0.10582E-01        -0.13976E-01         0.00000E+00
    0.10097E-01        -0.11788E-01         0.00000E+00
    0.94213E-02        -0.97437E-02         0.00000E+00
    0.86013E-02        -0.78766E-02         0.00000E+00
    0.76825E-02        -0.62092E-02         0.00000E+00
    0.67069E-02        -0.47549E-02         0.00000E+00
    0.57129E-02        -0.35185E-02         0.00000E+00
    0.47345E-02        -0.24976E-02         0.00000E+00
    0.38011E-02        -0.16829E-02         0.00000E+00
    0.29367E-02        -0.10594E-02         0.00000E+00
    0.21593E-02        -0.60714E-03         0.00000E+00
    0.14795E-02        -0.30231E-03         0.00000E+00
    0.89989E-03        -0.11838E-03         0.00000E+00
    0.41290E-03        -0.27702E-04         0.00000E+00
    0.00000E+00         0.00000E+00         0.00000E+00
    0.13200E-01        -0.16391E-01         0.00000E+00
    0.12871E-01        -0.14021E-01         0.00000E+00
    0.12253E-01        -0.11754E-01         0.00000E+00
    0.11406E-01        -0.96490E-02         0.00000E+00
    0.10388E-01        -0.77386E-02         0.00000E+00
    0.92545E-02        -0.60437E-02         0.00000E+00
    0.80556E-02        -0.45759E-02         0.00000E+00
    0.68380E-02        -0.33386E-02         0.00000E+00
    0.56429E-02        -0.23275E-02         0.00000E+00
    0.45060E-02        -0.15315E-02         0.00000E+00
    0.34567E-02        -0.93381E-03         0.00000E+00
    0.25178E-02        -0.51201E-03         0.00000E+00
    0.17037E-02        -0.23928E-03         0.00000E+00
    0.10193E-02        -0.85168E-04         0.00000E+00
    0.45809E-03        -0.16991E-04         0.00000E+00
    0.00000E+00         0.00000E+00         0.00000E+00
    0.15689E-01        -0.16593E-01         0.00000E+00
    0.15256E-01        -0.14111E-01         0.00000E+00
    0.14486E-01        -0.11751E-01         0.00000E+00
    0.13448E-01        -0.95743E-02         0.00000E+00
    0.12214E-01        -0.76120E-02         0.00000E+00
    0.10849E-01        -0.58831E-02         0.00000E+00
    0.94131E-02        -0.43972E-02         0.00000E+00
    0.79597E-02        -0.31555E-02         0.00000E+00
    0.65374E-02        -0.21518E-02         0.00000E+00
    0.51884E-02        -0.13732E-02         0.00000E+00
    0.39479E-02        -0.80079E-03         0.00000E+00
    0.28438E-02        -0.40997E-03         0.00000E+00
    0.18950E-02        -0.17080E-03         0.00000E+00
    0.11103E-02        -0.48629E-04         0.00000E+00
    0.48525E-03        -0.50610E-05         0.00000E+00
    0.00000E+00         0.00000E+00         0.00000E+00
    0.18315E-01        -0.16881E-01         0.00000E+00
    0.17755E-01        -0.14271E-01         0.00000E+00
    0.16807E-01        -0.11802E-01         0.00000E+00
    0.15557E-01        -0.95420E-02         0.00000E+00
    0.14087E-01        -0.75191E-02         0.00000E+00
    0.12473E-01        -0.57491E-02         0.00000E+00
    0.10784E-01        -0.42390E-02         0.00000E+00
    0.90819E-02        -0.29875E-02         0.00000E+00
    0.74214E-02        -0.19864E-02         0.00000E+00
    0.58509E-02        -0.12209E-02         0.00000E+00
    0.44118E-02        -0.67032E-03         0.00000E+00
    0.31376E-02        -0.30798E-03         0.00000E+00
    0.20529E-02        -0.10108E-03         0.00000E+00
    0.11715E-02        -0.10742E-04         0.00000E+00
    0.49305E-03         0.75275E-05         0.00000E+00
    0.00000E+00         0.00000E+00         0.00000E+00
    0.21101E-01        -0.17283E-01         0.00000E+00
    0.20382E-01        -0.14526E-01         0.00000E+00
    0.19229E-01        -0.11935E-01         0.00000E+00
    0.17741E-01        -0.95808E-02         0.00000E+00
    0.16014E-01        -0.74883E-02         0.00000E+00
    0.14133E-01        -0.56694E-02         0.00000E+00
    0.12175E-01        -0.41276E-02         0.00000E+00
    0.10211E-01        -0.28588E-02         0.00000E+00
    0.83008E-02        -0.18523E-02         0.00000E+00
    0.64992E-02        -0.10920E-02         0.00000E+00
    0.48533E-02        -0.55575E-03         0.00000E+00
    0.34030E-02        -0.21534E-03         0.00000E+00
    0.21796E-02        -0.35741E-04         0.00000E+00
    0.12037E-02         0.25818E-04         0.00000E+00
    0.48128E-03         0.20010E-04         0.00000E+00
    0.00000E+00         0.00000E+00         0.00000E+00
    0.24068E-01        -0.17832E-01         0.00000E+00
    0.23156E-01        -0.14913E-01         0.00000E+00
    0.21765E-01        -0.12186E-01         0.00000E+00
    0.20012E-01        -0.97263E-02         0.00000E+00
    0.18004E-01        -0.75553E-02         0.00000E+00
    0.15836E-01        -0.56790E-02         0.00000E+00
    0.13595E-01        -0.40964E-02         0.00000E+00
    0.11356E-01        -0.27999E-02         0.00000E+00
    0.91857E-02        -0.17767E-02         0.00000E+00
    0.71434E-02        -0.10091E-02         0.00000E+00
    0.52820E-02        -0.47456E-03         0.00000E+00
    0.36483E-02        -0.14437E-03         0.00000E+00
    0.22813E-02         0.17716E-04         0.00000E+00
    0.12104E-02         0.57466E-04         0.00000E+00
    0.45126E-03         0.31353E-04         0.00000E+00
    0.00000E+00         0.00000E+00         0.00000E+00
    0.27237E-01        -0.18568E-01         0.00000E+00
    0.26090E-01        -0.15471E-01         0.00000E+00
    0.24426E-01        -0.12596E-01         0.00000E+00
    0.22378E-01        -0.10022E-01         0.00000E+00
    0.20065E-01        -0.77647E-02         0.00000E+00
    0.17593E-01        -0.58219E-02         0.00000E+00
    0.15055E-01        -0.41876E-02         0.00000E+00
    0.12530E-01        -0.28501E-02         0.00000E+00
    0.10091E-01        -0.17941E-02         0.00000E+00
    0.77991E-02        -0.10012E-02         0.00000E+00
    0.57136E-02        -0.44941E-03         0.00000E+00
    0.38875E-02        -0.11113E-03         0.00000E+00
    0.23692E-02         0.49424E-04         0.00000E+00
    0.11993E-02         0.79439E-04         0.00000E+00
    0.40636E-03         0.40170E-04         0.00000E+00
    0.00000E+00         0.00000E+00         0.00000E+00
    0.30627E-01        -0.19540E-01         0.00000E+00
    0.29197E-01        -0.16251E-01         0.00000E+00
    0.27221E-01        -0.13217E-01         0.00000E+00
    0.24846E-01        -0.10523E-01         0.00000E+00
    0.22206E-01        -0.81706E-02         0.00000E+00
    0.19414E-01        -0.61522E-02         0.00000E+00
    0.16567E-01        -0.44536E-02         0.00000E+00
    0.13751E-01        -0.30581E-02         0.00000E+00
    0.11036E-01        -0.19481E-02         0.00000E+00
    0.84886E-02        -0.11051E-02         0.00000E+00
    0.61708E-02        -0.50932E-03         0.00000E+00
    0.41421E-02        -0.13635E-03         0.00000E+00
    0.24612E-02         0.46536E-04         0.00000E+00
    0.11827E-02         0.85482E-04         0.00000E+00
    0.35267E-03         0.44620E-04         0.00000E+00
    0.00000E+00         0.00000E+00         0.00000E+00
    0.34255E-01        -0.20801E-01         0.00000E+00
    0.32489E-01        -0.17310E-01         0.00000E+00
    0.30157E-01        -0.14112E-01         0.00000E+00
    0.27424E-01        -0.11290E-01         0.00000E+00
    0.24434E-01        -0.88385E-02         0.00000E+00
    0.21309E-01        -0.67355E-02         0.00000E+00
    0.18149E-01        -0.49584E-02         0.00000E+00
    0.15038E-01        -0.34844E-02         0.00000E+00
    0.12048E-01        -0.22931E-02         0.00000E+00
    0.92424E-02        -0.13672E-02         0.00000E+00
    0.66856E-02        -0.69107E-03         0.00000E+00
    0.44427E-02        -0.24653E-03         0.00000E+00
    0.25834E-02        -0.75006E-05         0.00000E+00
    0.11795E-02         0.67463E-04         0.00000E+00
    0.29984E-03         0.42290E-04         0.00000E+00
    0.00000E+00         0.00000E+00         0.00000E+00
    0.38135E-01        -0.22415E-01         0.00000E+00
    0.35972E-01        -0.18717E-01         0.00000E+00
    0.33238E-01        -0.15350E-01         0.00000E+00
    0.30114E-01        -0.12401E-01         0.00000E+00
    0.26755E-01        -0.98464E-02         0.00000E+00
    0.23290E-01        -0.76509E-02         0.00000E+00
    0.19818E-01        -0.57800E-02         0.00000E+00
    0.16419E-01        -0.42029E-02         0.00000E+00
    0.13161E-01        -0.28963E-02         0.00000E+00
    0.10101E-01        -0.18452E-02         0.00000E+00
    0.73011E-02        -0.10408E-02         0.00000E+00
    0.48314E-02        -0.47519E-03         0.00000E+00
    0.27726E-02        -0.13380E-03         0.00000E+00
    0.12168E-02         0.14915E-04         0.00000E+00
    0.26215E-03         0.30041E-04         0.00000E+00
    0.00000E+00         0.00000E+00         0.00000E+00
    0.42276E-01        -0.24455E-01         0.00000E+00
    0.39649E-01        -0.20547E-01         0.00000E+00
    0.36462E-01        -0.17015E-01         0.00000E+00
    0.32914E-01        -0.13942E-01         0.00000E+00
    0.29173E-01        -0.11286E-01         0.00000E+00
    0.25367E-01        -0.89923E-02         0.00000E+00
    0.21595E-01        -0.70117E-02         0.00000E+00
    0.17927E-01        -0.53031E-02         0.00000E+00
    0.14418E-01        -0.38397E-02         0.00000E+00
    0.11115E-01        -0.26101E-02         0.00000E+00
    0.80741E-02        -0.16157E-02         0.00000E+00
    0.53645E-02        -0.86428E-03         0.00000E+00
    0.30786E-02        -0.35903E-03         0.00000E+00
    0.13322E-02        -0.85492E-04         0.00000E+00
    0.25980E-03         0.38419E-05         0.00000E+00
    0.00000E+00         0.00000E+00         0.00000E+00
    0.46683E-01        -0.27000E-01         0.00000E+00
    0.43516E-01        -0.22889E-01         0.00000E+00
    0.39823E-01        -0.19200E-01         0.00000E+00
    0.35820E-01        -0.16013E-01         0.00000E+00
    0.31686E-01        -0.13263E-01         0.00000E+00
    0.27551E-01        -0.10870E-01         0.00000E+00
    0.23503E-01        -0.87641E-02         0.00000E+00
    0.19599E-01        -0.68918E-02         0.00000E+00
    0.15872E-01        -0.52219E-02         0.00000E+00
    0.12351E-01        -0.37480E-02         0.00000E+00
    0.90771E-02        -0.24861E-02         0.00000E+00
    0.61154E-02        -0.14657E-02         0.00000E+00
    0.35677E-02        -0.71649E-03         0.00000E+00
    0.15764E-02        -0.25057E-03         0.00000E+00
    0.32057E-03        -0.41446E-04         0.00000E+00
    0.00000E+00         0.00000E+00         0.00000E+00
    0.51351E-01        -0.30140E-01         0.00000E+00
    0.47563E-01        -0.25838E-01         0.00000E+00
    0.43306E-01        -0.22010E-01         0.00000E+00
    0.38817E-01        -0.18730E-01         0.00000E+00
    0.34288E-01        -0.15901E-01         0.00000E+00
    0.29846E-01        -0.13411E-01         0.00000E+00
    0.25566E-01        -0.11167E-01         0.00000E+00
    0.21479E-01        -0.90952E-02         0.00000E+00
    0.17587E-01        -0.71601E-02         0.00000E+00
    0.13889E-01        -0.53623E-02         0.00000E+00
    0.10402E-01        -0.37367E-02         0.00000E+00
    0.71781E-02        -0.23429E-02         0.00000E+00
    0.43259E-02        -0.12473E-02         0.00000E+00
    0.20161E-02        -0.50129E-03         0.00000E+00
    0.48173E-03        -0.11228E-03         0.00000E+00
    0.00000E+00         0.00000E+00         0.00000E+00
    0.56272E-01        -0.33973E-01         0.00000E+00
    0.51770E-01        -0.29502E-01         0.00000E+00
    0.46885E-01        -0.25562E-01         0.00000E+00
    0.41881E-01        -0.22220E-01         0.00000E+00
    0.36963E-01        -0.19338E-01         0.00000E+00
    0.32255E-01        -0.16764E-01         0.00000E+00
    0.27809E-01        -0.14369E-01         0.00000E+00
    0.23617E-01        -0.12059E-01         0.00000E+00
    0.19639E-01        -0.97910E-02         0.00000E+00
    0.15827E-01        -0.75742E-02         0.00000E+00
    0.12161E-01        -0.54686E-02         0.00000E+00
    0.86707E-02        -0.35722E-02         0.00000E+00
    0.54632E-02        -0.20017E-02         0.00000E+00
    0.27383E-02        -0.86364E-03         0.00000E+00
    0.79249E-03        -0.21679E-03         0.00000E+00
    0.00000E+00         0.00000E+00         0.00000E+00
    0.61428E-01        -0.38608E-01         0.00000E+00
    0.56109E-01        -0.33997E-01         0.00000E+00
    0.50523E-01        -0.29986E-01         0.00000E+00
    0.44973E-01        -0.26627E-01         0.00000E+00
    0.39685E-01        -0.23732E-01         0.00000E+00
    0.34774E-01        -0.21093E-01         0.00000E+00
    0.30256E-01        -0.18539E-01         0.00000E+00
    0.26071E-01        -0.15948E-01         0.00000E+00
    0.22116E-01        -0.13269E-01         0.00000E+00
    0.18282E-01        -0.10523E-01         0.00000E+00
    0.14492E-01        -0.77988E-02         0.00000E+00
    0.10739E-01        -0.52444E-02         0.00000E+00
    0.71174E-02        -0.30406E-02         0.00000E+00
    0.38538E-02        -0.13696E-02         0.00000E+00
    0.13166E-02        -0.36503E-03         0.00000E+00
    0.00000E+00         0.00000E+00         0.00000E+00
    0.66797E-01        -0.44167E-01         0.00000E+00
    0.60541E-01        -0.39455E-01         0.00000E+00
    0.54167E-01        -0.35427E-01         0.00000E+00
    0.48041E-01        -0.32115E-01         0.00000E+00
    0.42416E-01        -0.29261E-01         0.00000E+00
    0.37392E-01        -0.26586E-01         0.00000E+00
    0.32933E-01        -0.23864E-01         0.00000E+00
    0.28905E-01        -0.20943E-01         0.00000E+00
    0.25120E-01        -0.17764E-01         0.00000E+00
    0.21387E-01        -0.14361E-01         0.00000E+00
    0.17555E-01        -0.10860E-01         0.00000E+00
    0.13557E-01        -0.74652E-02         0.00000E+00
    0.94589E-02        -0.44372E-02         0.00000E+00
    0.55028E-02        -0.20587E-02         0.00000E+00
    0.21365E-02        -0.56977E-03         0.00000E+00
    0.00000E+00         0.00000E+00         0.00000E+00
    0.72352E-01        -0.50788E-01         0.00000E+00
    0.65012E-01        -0.46023E-01         0.00000E+00
    0.57744E-01        -0.42051E-01         0.00000E+00
    0.51012E-01        -0.38872E-01         0.00000E+00
    0.45108E-01        -0.36129E-01         0.00000E+00
    0.40101E-01        -0.33449E-01         0.00000E+00
    0.35876E-01        -0.30541E-01         0.00000E+00
    0.32195E-01        -0.27226E-01         0.00000E+00
    0.28766E-01        -0.23444E-01         0.00000E+00
    0.25294E-01        -0.19246E-01         0.00000E+00
    0.21532E-01        -0.14796E-01         0.00000E+00
    0.17329E-01        -0.10356E-01         0.00000E+00
    0.12694E-01        -0.62803E-02         0.00000E+00
    0.78609E-02        -0.29811E-02         0.00000E+00
    0.33574E-02        -0.84767E-03         0.00000E+00
    0.00000E+00         0.00000E+00         0.00000E+00
    0.78080E-01        -0.58641E-01         0.00000E+00
    0.69461E-01        -0.53886E-01         0.00000E+00
    0.61159E-01        -0.50064E-01         0.00000E+00
    0.53795E-01        -0.47127E-01         0.00000E+00
    0.47709E-01        -0.44571E-01         0.00000E+00
    0.42904E-01        -0.41900E-01         0.00000E+00
    0.39139E-01        -0.38762E-01         0.00000E+00
    0.36038E-01        -0.34963E-01         0.00000E+00
    0.33181E-01        -0.30458E-01         0.00000E+00
    0.30160E-01        -0.25323E-01         0.00000E+00
    0.26617E-01        -0.19750E-01         0.00000E+00
    0.22284E-01        -0.14053E-01         0.00000E+00
    0.17066E-01        -0.86804E-02         0.00000E+00
    0.11147E-01        -0.42036E-02         0.00000E+00
    0.51160E-02        -0.12217E-02         0.00000E+00
    0.00000E+00         0.00000E+00         0.00000E+00
    0.83965E-01        -0.67968E-01         0.00000E+00
    0.73795E-01        -0.63276E-01         0.00000E+00
    0.64271E-01        -0.59733E-01         0.00000E+00
    0.56275E-01        -0.57174E-01         0.00000E+00
    0.50178E-01        -0.54866E-01         0.00000E+00
    0.45840E-01        -0.52165E-01         0.00000E+00
    0.42815E-01        -0.48683E-01         0.00000E+00
    0.40549E-01        -0.44259E-01         0.00000E+00
    0.38491E-01        -0.38893E-01         0.00000E+00
    0.36127E-01        -0.32690E-01         0.00000E+00
    0.32982E-01        -0.25851E-01         0.00000E+00
    0.28644E-01        -0.18708E-01         0.00000E+00
    0.22846E-01        -0.11781E-01         0.00000E+00
    0.15630E-01        -0.58233E-02         0.00000E+00
    0.75896E-02        -0.17270E-02         0.00000E+00
    0.00000E+00         0.00000E+00         0.00000E+00
    0.90012E-01        -0.79041E-01         0.00000E+00
    0.77899E-01        -0.74540E-01         0.00000E+00
    0.66925E-01        -0.71472E-01         0.00000E+00
    0.58380E-01        -0.69428E-01         0.00000E+00
    0.52579E-01        -0.67347E-01         0.00000E+00
    0.49078E-01        -0.64438E-01         0.00000E+00
    0.47112E-01        -0.60363E-01         0.00000E+00
    0.45919E-01        -0.55085E-01         0.00000E+00
    0.44845E-01        -0.48699E-01         0.00000E+00
    0.43314E-01        -0.41338E-01         0.00000E+00
    0.40765E-01        -0.33174E-01         0.00000E+00
    0.36622E-01        -0.24484E-01         0.00000E+00
    0.30345E-01        -0.15785E-01         0.00000E+00
    0.21668E-01        -0.79990E-02         0.00000E+00
    0.11041E-01        -0.24311E-02         0.00000E+00
    0.00000E+00         0.00000E+00         0.00000E+00
    0.96504E-01        -0.92445E-01         0.00000E+00
    0.81665E-01        -0.88357E-01         0.00000E+00
    0.68951E-01        -0.85935E-01         0.00000E+00
    0.60096E-01        -0.84490E-01         0.00000E+00
    0.55145E-01        -0.82390E-01         0.00000E+00
    0.52977E-01        -0.78795E-01         0.00000E+00
    0.52361E-01        -0.73650E-01         0.00000E+00
    0.52372E-01        -0.67177E-01         0.00000E+00
    0.52346E-01        -0.59600E-01         0.00000E+00
    0.51729E-01        -0.51070E-01         0.00000E+00
    0.49946E-01        -0.41675E-01         0.00000E+00
    0.46280E-01        -0.31530E-01         0.00000E+00
    0.39824E-01        -0.20983E-01         0.00000E+00
    0.29702E-01        -0.11004E-01         0.00000E+00
    0.15843E-01        -0.34497E-02         0.00000E+00
    0.00000E+00         0.00000E+00         0.00000E+00
    0.10301E+00        -0.10949E+00         0.00000E+00
    0.84525E-01        -0.10550E+00         0.00000E+00
    0.69706E-01        -0.10423E+00         0.00000E+00
    0.61425E-01        -0.10329E+00         0.00000E+00
    0.58336E-01        -0.10028E+00         0.00000E+00
    0.58012E-01        -0.94973E-01         0.00000E+00
    0.58845E-01        -0.88000E-01         0.00000E+00
    0.59956E-01        -0.79896E-01         0.00000E+00
    0.60819E-01        -0.70985E-01         0.00000E+00
    0.61017E-01        -0.61384E-01         0.00000E+00
    0.60056E-01        -0.51060E-01         0.00000E+00
    0.57182E-01        -0.39883E-01         0.00000E+00
    0.51143E-01        -0.27793E-01         0.00000E+00
    0.40105E-01        -0.15411E-01         0.00000E+00
    0.22555E-01        -0.50565E-02         0.00000E+00
    0.00000E+00         0.00000E+00         0.00000E+00
    0.11033E+00        -0.12975E+00         0.00000E+00
    0.85980E-01        -0.12831E+00         0.00000E+00
    0.69973E-01        -0.12925E+00         0.00000E+00
    0.64731E-01        -0.12694E+00         0.00000E+00
    0.64583E-01        -0.12059E+00         0.00000E+00
    0.66108E-01        -0.11196E+00         0.00000E+00
    0.68003E-01        -0.10226E+00         0.00000E+00
    0.69734E-01        -0.92139E-01         0.00000E+00
    0.71039E-01        -0.81838E-01         0.00000E+00
    0.71697E-01        -0.71379E-01         0.00000E+00
    0.71374E-01        -0.60601E-01         0.00000E+00
    0.69421E-01        -0.49164E-01         0.00000E+00
    0.64526E-01        -0.36549E-01         0.00000E+00
    0.53898E-01        -0.22361E-01         0.00000E+00
    0.33027E-01        -0.83351E-02         0.00000E+00
    0.00000E+00         0.00000E+00         0.00000E+00
    0.12664E+00        -0.16017E+00         0.00000E+00
    0.87400E-01        -0.16761E+00         0.00000E+00
    0.75476E-01        -0.16484E+00         0.00000E+00
    0.75363E-01        -0.15405E+00         0.00000E+00
    0.77314E-01        -0.14088E+00         0.00000E+00
    0.79486E-01        -0.12746E+00         0.00000E+00
    0.81367E-01        -0.11456E+00         0.00000E+00
    0.82854E-01        -0.10235E+00         0.00000E+00
    0.83905E-01        -0.90797E-01         0.00000E+00
    0.84446E-01        -0.79750E-01         0.00000E+00
    0.84282E-01        -0.68964E-01         0.00000E+00
    0.82958E-01        -0.58051E-01         0.00000E+00
    0.79390E-01        -0.46325E-01         0.00000E+00
    0.70937E-01        -0.32626E-01         0.00000E+00
    0.49308E-01        -0.15360E-01         0.00000E+00
    0.00000E+00         0.00000E+00         0.00000E+00
    0.13456E+00        -0.24571E+00         0.00000E+00
    0.81301E-01        -0.23170E+00         0.00000E+00
    0.79032E-01        -0.20198E+00         0.00000E+00
    0.79707E-01        -0.17675E+00         0.00000E+00
    0.80754E-01        -0.15586E+00         0.00000E+00
    0.81626E-01        -0.13808E+00         0.00000E+00
    0.82287E-01        -0.12259E+00         0.00000E+00
    0.82737E-01        -0.10884E+00         0.00000E+00
    0.82968E-01        -0.96429E-01         0.00000E+00
    0.82930E-01        -0.85048E-01         0.00000E+00
    0.82500E-01        -0.74418E-01         0.00000E+00
    0.81394E-01        -0.64214E-01         0.00000E+00
    0.78955E-01        -0.53916E-01         0.00000E+00
    0.73380E-01        -0.42522E-01         0.00000E+00
    0.59275E-01        -0.26912E-01         0.00000E+00
    0.00000E+00         0.00000E+00         0.00000E+00
    0.00000E+00        -0.36565E+00         0.00000E+00
    0.00000E+00        -0.26641E+00         0.00000E+00
    0.00000E+00        -0.21630E+00         0.00000E+00
    0.00000E+00        -0.18440E+00         0.00000E+00
    0.00000E+00        -0.16052E+00         0.00000E+00
    0.00000E+00        -0.14124E+00         0.00000E+00
    0.00000E+00        -0.12492E+00         0.00000E+00
    0.00000E+00        -0.11069E+00         0.00000E+00
    0.00000E+00        -0.98009E-01         0.00000E+00
    0.00000E+00        -0.86515E-01         0.00000E+00
    0.00000E+00        -0.75914E-01         0.00000E+00
    0.00000E+00        -0.65907E-01         0.00000E+00
    0.00000E+00        -0.56072E-01         0.00000E+00
    0.00000E+00        -0.45521E-01         0.00000E+00
    0.00000E+00        -0.32214E-01         0.00000E+00
    0.00000E+00         0.00000E+00         0.00000E+00
CELL_DATA        450
VECTORS vDarcy double 
    0.14566E-10         0.13093E-10         0.00000E+00
    0.14218E-10         0.30117E-10         0.00000E+00
    0.13470E-10         0.40280E-10         0.00000E+00
    0.12496E-10         0.47924E-10         0.00000E+00
    0.11482E-10         0.53640E-10         0.00000E+00
    0.10510E-10         0.57330E-10         0.00000E+00
    0.96190E-11         0.59115E-10         0.00000E+00
    0.88365E-11         0.59205E-10         0.00000E+00
    0.81866E-11         0.57837E-10         0.00000E+00
    0.76930E-11         0.55313E-10         0.00000E+00
    0.73806E-11         0.51940E-10         0.00000E+00
    0.72788E-11         0.48042E-10         0.00000E+00
    0.74501E-11         0.44664E-10         0.00000E+00
    0.79884E-11         0.41492E-10         0.00000E+00
    0.87475E-11         0.26318E-10         0.00000E+00
    0.20477E-10         0.13693E-10         0.00000E+00
    0.18686E-10         0.31656E-10         0.00000E+00
    0.15908E-10         0.42269E-10         0.00000E+00
    0.12806E-10         0.50011E-10         0.00000E+00
    0.96996E-11         0.55672E-10         0.00000E+00
    0.67453E-11         0.59224E-10         0.00000E+00
    0.40440E-11         0.60814E-10         0.00000E+00
    0.16729E-11         0.60660E-10         0.00000E+00
   -0.29990E-12         0.59005E-10         0.00000E+00
   -0.18064E-11         0.56146E-10         0.00000E+00
   -0.27746E-11         0.52388E-10         0.00000E+00
   -0.31239E-11         0.48045E-10         0.00000E+00
   -0.27080E-11         0.44074E-10         0.00000E+00
   -0.13341E-11         0.40170E-10         0.00000E+00
    0.53105E-12         0.25016E-10         0.00000E+00
    0.32303E-10         0.15741E-10         0.00000E+00
    0.28072E-10         0.35630E-10         0.00000E+00
    0.22539E-10         0.46606E-10         0.00000E+00
    0.16990E-10         0.54325E-10         0.00000E+00
    0.11639E-10         0.59816E-10         0.00000E+00
    0.66039E-11         0.63069E-10         0.00000E+00
    0.20157E-11         0.64258E-10         0.00000E+00
   -0.20122E-11         0.63615E-10         0.00000E+00
   -0.53752E-11         0.61386E-10         0.00000E+00
   -0.79670E-11         0.57863E-10         0.00000E+00
   -0.96765E-11         0.53348E-10         0.00000E+00
   -0.10386E-10         0.48143E-10         0.00000E+00
   -0.99258E-11         0.43100E-10         0.00000E+00
   -0.81340E-11         0.37978E-10         0.00000E+00
   -0.57117E-11         0.22920E-10         0.00000E+00
    0.46507E-10         0.19654E-10         0.00000E+00
    0.39917E-10         0.42539E-10         0.00000E+00
    0.31541E-10         0.53605E-10         0.00000E+00
    0.23367E-10         0.61049E-10         0.00000E+00
    0.15611E-10         0.66199E-10         0.00000E+00
    0.83662E-11         0.68967E-10         0.00000E+00
    0.17789E-11         0.69536E-10         0.00000E+00
   -0.40111E-11         0.68155E-10         0.00000E+00
   -0.88698E-11         0.65068E-10         0.00000E+00
   -0.12659E-10         0.60562E-10         0.00000E+00
   -0.15233E-10         0.54933E-10         0.00000E+00
   -0.16445E-10         0.48479E-10         0.00000E+00
   -0.16108E-10         0.41967E-10         0.00000E+00
   -0.14077E-10         0.35288E-10         0.00000E+00
   -0.11245E-10         0.20355E-10         0.00000E+00
    0.60564E-10         0.25210E-10         0.00000E+00
    0.51839E-10         0.52298E-10         0.00000E+00
    0.40672E-10         0.63389E-10         0.00000E+00
    0.29767E-10         0.70344E-10         0.00000E+00
    0.19461E-10         0.74965E-10         0.00000E+00
    0.98614E-11         0.77045E-10         0.00000E+00
    0.11372E-11         0.76769E-10         0.00000E+00
   -0.65499E-11         0.74399E-10         0.00000E+00
   -0.13042E-10         0.70175E-10         0.00000E+00
   -0.18174E-10         0.64375E-10         0.00000E+00
   -0.21767E-10         0.57288E-10         0.00000E+00
   -0.23641E-10         0.49210E-10         0.00000E+00
   -0.23559E-10         0.40817E-10         0.00000E+00
   -0.21320E-10         0.32167E-10         0.00000E+00
   -0.17978E-10         0.17302E-10         0.00000E+00
    0.74566E-10         0.32370E-10         0.00000E+00
    0.63476E-10         0.64953E-10         0.00000E+00
    0.49289E-10         0.76088E-10         0.00000E+00
    0.35469E-10         0.82371E-10         0.00000E+00
    0.22440E-10         0.86274E-10         0.00000E+00
    0.10321E-10         0.87455E-10         0.00000E+00
   -0.69838E-12         0.86103E-10         0.00000E+00
   -0.10441E-10         0.82495E-10         0.00000E+00
   -0.18733E-10         0.76864E-10         0.00000E+00
   -0.25385E-10         0.69469E-10         0.00000E+00
   -0.30187E-10         0.60589E-10         0.00000E+00
   -0.32918E-10         0.50514E-10         0.00000E+00
   -0.33274E-10         0.39789E-10         0.00000E+00
   -0.30964E-10         0.28646E-10         0.00000E+00
   -0.27174E-10         0.13691E-10         0.00000E+00
    0.88748E-10         0.41377E-10         0.00000E+00
    0.74962E-10         0.80823E-10         0.00000E+00
    0.57427E-10         0.91941E-10         0.00000E+00
    0.40438E-10         0.97327E-10         0.00000E+00
    0.24480E-10         0.10030E-09         0.00000E+00
    0.96595E-11         0.10036E-09         0.00000E+00
   -0.38290E-11         0.97702E-10         0.00000E+00
   -0.15804E-10         0.92613E-10         0.00000E+00
   -0.26084E-10         0.85317E-10         0.00000E+00
   -0.34464E-10         0.76048E-10         0.00000E+00
   -0.40708E-10         0.65058E-10         0.00000E+00
   -0.44551E-10         0.52619E-10         0.00000E+00
   -0.45620E-10         0.39108E-10         0.00000E+00
   -0.43532E-10         0.24928E-10         0.00000E+00
   -0.39550E-10         0.96373E-11         0.00000E+00
    0.10289E-09         0.52484E-10         0.00000E+00
    0.86126E-10         0.10027E-09         0.00000E+00
    0.64918E-10         0.11124E-09         0.00000E+00
    0.44496E-10         0.11544E-09         0.00000E+00
    0.25395E-10         0.11725E-09         0.00000E+00
    0.76845E-11         0.11595E-09         0.00000E+00
   -0.84504E-11         0.11174E-09         0.00000E+00
   -0.22840E-10         0.10494E-09         0.00000E+00
   -0.35311E-10         0.95742E-10         0.00000E+00
   -0.45656E-10         0.84347E-10         0.00000E+00
   -0.53620E-10         0.70966E-10         0.00000E+00
   -0.58896E-10         0.55830E-10         0.00000E+00
   -0.61040E-10         0.39110E-10         0.00000E+00
   -0.59576E-10         0.21373E-10         0.00000E+00
   -0.55752E-10         0.53863E-11         0.00000E+00
    0.11673E-09         0.65922E-10         0.00000E+00
    0.96678E-10         0.12365E-09         0.00000E+00
    0.71467E-10         0.13427E-09         0.00000E+00
    0.47353E-10         0.13694E-09         0.00000E+00
    0.24901E-10         0.13730E-09         0.00000E+00
    0.41262E-11         0.13438E-09         0.00000E+00
   -0.14820E-10         0.12839E-09         0.00000E+00
   -0.31799E-10         0.11966E-09         0.00000E+00
   -0.46668E-10         0.10836E-09         0.00000E+00
   -0.59234E-10         0.94639E-10         0.00000E+00
   -0.69235E-10         0.78639E-10         0.00000E+00
   -0.76330E-10         0.60529E-10         0.00000E+00
   -0.80008E-10         0.40234E-10         0.00000E+00
   -0.79681E-10         0.18458E-10         0.00000E+00
   -0.76465E-10         0.12611E-11         0.00000E+00
    0.12991E-09         0.81931E-10         0.00000E+00
    0.10627E-09         0.15134E-09         0.00000E+00
    0.76738E-10         0.16133E-09         0.00000E+00
    0.48692E-10         0.16204E-09         0.00000E+00
    0.22713E-10         0.16063E-09         0.00000E+00
   -0.12670E-11         0.15581E-09         0.00000E+00
   -0.23154E-10         0.14779E-09         0.00000E+00
   -0.42870E-10         0.13695E-09         0.00000E+00
   -0.60329E-10         0.12340E-09         0.00000E+00
   -0.75377E-10         0.10722E-09         0.00000E+00
   -0.87768E-10         0.88454E-10         0.00000E+00
   -0.97139E-10         0.67180E-10         0.00000E+00
   -0.10291E-09         0.43035E-10         0.00000E+00
   -0.10438E-09         0.16802E-10         0.00000E+00
   -0.10237E-09        -0.23160E-11         0.00000E+00
    0.14193E-09         0.10074E-09         0.00000E+00
    0.11444E-09         0.18366E-09         0.00000E+00
    0.80311E-10         0.19267E-09         0.00000E+00
    0.48139E-10         0.19092E-09         0.00000E+00
    0.18509E-10         0.18736E-09         0.00000E+00
   -0.87583E-11         0.18033E-09         0.00000E+00
   -0.33655E-10         0.17006E-09         0.00000E+00
   -0.56200E-10         0.15695E-09         0.00000E+00
   -0.76398E-10         0.14106E-09         0.00000E+00
   -0.94176E-10         0.12238E-09         0.00000E+00
   -0.10933E-09         0.10084E-09         0.00000E+00
   -0.12150E-09         0.76337E-10         0.00000E+00
   -0.13006E-09         0.48206E-10         0.00000E+00
   -0.13416E-09         0.17205E-10         0.00000E+00
   -0.13411E-09        -0.47842E-11         0.00000E+00
    0.15220E-09         0.12256E-09         0.00000E+00
    0.12062E-09         0.22091E-09         0.00000E+00
    0.81678E-10         0.22849E-09         0.00000E+00
    0.45250E-10         0.22370E-09         0.00000E+00
    0.11922E-10         0.21754E-09         0.00000E+00
   -0.18626E-10         0.20796E-09         0.00000E+00
   -0.46506E-10         0.19520E-09         0.00000E+00
   -0.71875E-10         0.17971E-09         0.00000E+00
   -0.94887E-10         0.16150E-09         0.00000E+00
   -0.11560E-09         0.14043E-09         0.00000E+00
   -0.13389E-09         0.11624E-09         0.00000E+00
   -0.14944E-09         0.88648E-10         0.00000E+00
   -0.16160E-09         0.56600E-10         0.00000E+00
   -0.16937E-09         0.20691E-10         0.00000E+00
   -0.17228E-09        -0.54087E-11         0.00000E+00
    0.15998E-09         0.14755E-09         0.00000E+00
    0.12415E-09         0.26332E-09         0.00000E+00
    0.80236E-10         0.26895E-09         0.00000E+00
    0.39502E-10         0.26041E-09         0.00000E+00
    0.25260E-11         0.25114E-09         0.00000E+00
   -0.31171E-10         0.23861E-09         0.00000E+00
   -0.61864E-10         0.22313E-09         0.00000E+00
   -0.89911E-10         0.20521E-09         0.00000E+00
   -0.11568E-09         0.18479E-09         0.00000E+00
   -0.13943E-09         0.16160E-09         0.00000E+00
   -0.16121E-09         0.13515E-09         0.00000E+00
   -0.18077E-09         0.10485E-09         0.00000E+00
   -0.19747E-09         0.69250E-10         0.00000E+00
   -0.21020E-09         0.28552E-10         0.00000E+00
   -0.21733E-09        -0.32368E-11         0.00000E+00
    0.16447E-09         0.17584E-09         0.00000E+00
    0.12426E-09         0.31107E-09         0.00000E+00
    0.75276E-10         0.31410E-09         0.00000E+00
    0.30269E-10         0.30100E-09         0.00000E+00
   -0.10181E-10         0.28797E-09         0.00000E+00
   -0.46729E-10         0.27202E-09         0.00000E+00
   -0.79867E-10         0.25355E-09         0.00000E+00
   -0.11023E-09         0.23319E-09         0.00000E+00
   -0.13849E-09         0.21084E-09         0.00000E+00
   -0.16523E-09         0.18604E-09         0.00000E+00
   -0.19075E-09         0.15802E-09         0.00000E+00
   -0.21496E-09         0.12576E-09         0.00000E+00
   -0.23730E-09         0.87389E-10         0.00000E+00
   -0.25656E-09         0.42402E-10         0.00000E+00
   -0.26948E-09         0.29536E-11         0.00000E+00
    0.16482E-09         0.20755E-09         0.00000E+00
    0.12010E-09         0.36428E-09         0.00000E+00
    0.65993E-10         0.36397E-09         0.00000E+00
    0.16807E-10         0.34532E-09         0.00000E+00
   -0.26807E-10         0.32772E-09         0.00000E+00
   -0.65695E-10         0.30771E-09         0.00000E+00
   -0.10063E-09         0.28593E-09         0.00000E+00
   -0.13263E-09         0.26317E-09         0.00000E+00
   -0.16282E-09         0.23931E-09         0.00000E+00
   -0.19223E-09         0.21371E-09         0.00000E+00
   -0.22157E-09         0.18521E-09         0.00000E+00
   -0.25103E-09         0.15224E-09         0.00000E+00
   -0.28025E-09         0.11247E-09         0.00000E+00
   -0.30791E-09         0.64240E-10         0.00000E+00
   -0.32860E-09         0.14721E-10         0.00000E+00
    0.16011E-09         0.24280E-09         0.00000E+00
    0.11069E-09         0.42316E-09         0.00000E+00
    0.51302E-10         0.41859E-09         0.00000E+00
   -0.19440E-11         0.39313E-09         0.00000E+00
   -0.48256E-10         0.36984E-09         0.00000E+00
   -0.88685E-10         0.34491E-09         0.00000E+00
   -0.12438E-09         0.31935E-09         0.00000E+00
   -0.15689E-09         0.29426E-09         0.00000E+00
   -0.18798E-09         0.26951E-09         0.00000E+00
   -0.21935E-09         0.24428E-09         0.00000E+00
   -0.25231E-09         0.21693E-09         0.00000E+00
   -0.28749E-09         0.18517E-09         0.00000E+00
   -0.32489E-09         0.14615E-09         0.00000E+00
   -0.36317E-09         0.96502E-10         0.00000E+00
   -0.39404E-09         0.34010E-10         0.00000E+00
    0.14965E-09         0.28180E-09         0.00000E+00
    0.95173E-10         0.48805E-09         0.00000E+00
    0.30175E-10         0.47809E-09         0.00000E+00
   -0.27074E-10         0.44412E-09         0.00000E+00
   -0.75462E-10         0.41354E-09         0.00000E+00
   -0.11626E-09         0.38243E-09         0.00000E+00
   -0.15113E-09         0.35239E-09         0.00000E+00
   -0.18240E-09         0.32499E-09         0.00000E+00
   -0.21272E-09         0.30020E-09         0.00000E+00
   -0.24473E-09         0.27697E-09         0.00000E+00
   -0.28062E-09         0.25309E-09         0.00000E+00
   -0.32175E-09         0.22533E-09         0.00000E+00
   -0.36868E-09         0.19032E-09         0.00000E+00
   -0.42021E-09         0.14215E-09         0.00000E+00
   -0.46426E-09         0.63283E-10         0.00000E+00
    0.13283E-09         0.32517E-09         0.00000E+00
    0.72122E-10         0.55987E-09         0.00000E+00
    0.45774E-12         0.54293E-09         0.00000E+00
   -0.61003E-10         0.49799E-09         0.00000E+00
   -0.11067E-09         0.45773E-09         0.00000E+00
   -0.15014E-09         0.41851E-09         0.00000E+00
   -0.18185E-09         0.38289E-09         0.00000E+00
   -0.20921E-09         0.35312E-09         0.00000E+00
   -0.23614E-09         0.32933E-09         0.00000E+00
   -0.26658E-09         0.31028E-09         0.00000E+00
   -0.30397E-09         0.29306E-09         0.00000E+00
   -0.35077E-09         0.27329E-09         0.00000E+00
   -0.40846E-09         0.24699E-09         0.00000E+00
   -0.47616E-09         0.20470E-09         0.00000E+00
   -0.53689E-09         0.10552E-09         0.00000E+00
    0.10908E-09         0.37399E-09         0.00000E+00
    0.40428E-10         0.64040E-09         0.00000E+00
   -0.39595E-10         0.61409E-09         0.00000E+00
   -0.10571E-09         0.55441E-09         0.00000E+00
   -0.15553E-09         0.50080E-09         0.00000E+00
   -0.19119E-09         0.45056E-09         0.00000E+00
   -0.21630E-09         0.40766E-09         0.00000E+00
   -0.23586E-09         0.37527E-09         0.00000E+00
   -0.25549E-09         0.35375E-09         0.00000E+00
   -0.28089E-09         0.34169E-09         0.00000E+00
   -0.31728E-09         0.33543E-09         0.00000E+00
   -0.36870E-09         0.32914E-09         0.00000E+00
   -0.43818E-09         0.31830E-09         0.00000E+00
   -0.52545E-09         0.28836E-09         0.00000E+00
   -0.60735E-09         0.16450E-09         0.00000E+00
    0.78674E-10         0.43051E-09         0.00000E+00
   -0.20323E-11         0.73324E-09         0.00000E+00
   -0.94410E-10         0.69365E-09         0.00000E+00
   -0.16661E-09         0.61316E-09         0.00000E+00
   -0.21516E-09         0.54043E-09         0.00000E+00
   -0.24336E-09         0.47478E-09         0.00000E+00
   -0.25689E-09         0.42208E-09         0.00000E+00
   -0.26302E-09         0.38654E-09         0.00000E+00
   -0.26967E-09         0.36876E-09         0.00000E+00
   -0.28480E-09         0.36721E-09         0.00000E+00
   -0.31599E-09         0.37748E-09         0.00000E+00
   -0.36966E-09         0.39219E-09         0.00000E+00
   -0.45124E-09         0.40631E-09         0.00000E+00
   -0.56183E-09         0.39821E-09         0.00000E+00
   -0.67020E-09         0.24492E-09         0.00000E+00
    0.43024E-10         0.50038E-09         0.00000E+00
   -0.58697E-10         0.84580E-09         0.00000E+00
   -0.17068E-09         0.78546E-09         0.00000E+00
   -0.25083E-09         0.67370E-09         0.00000E+00
   -0.29525E-09         0.57286E-09         0.00000E+00
   -0.31017E-09         0.48547E-09         0.00000E+00
   -0.30478E-09         0.41953E-09         0.00000E+00
   -0.28960E-09         0.38005E-09         0.00000E+00
   -0.27534E-09         0.36764E-09         0.00000E+00
   -0.27263E-09         0.38075E-09         0.00000E+00
   -0.29200E-09         0.41450E-09         0.00000E+00
   -0.34330E-09         0.46014E-09         0.00000E+00
   -0.43599E-09         0.51262E-09         0.00000E+00
   -0.57367E-09         0.54018E-09         0.00000E+00
   -0.71515E-09         0.35279E-09         0.00000E+00
   -0.10387E-10         0.58973E-09         0.00000E+00
   -0.14118E-09         0.98896E-09         0.00000E+00
   -0.28121E-09         0.89431E-09         0.00000E+00
   -0.37040E-09         0.73419E-09         0.00000E+00
   -0.40537E-09         0.59175E-09         0.00000E+00
   -0.39792E-09         0.47407E-09         0.00000E+00
   -0.36312E-09         0.39074E-09         0.00000E+00
   -0.31595E-09         0.34648E-09         0.00000E+00
   -0.27019E-09         0.34118E-09         0.00000E+00
   -0.23910E-09         0.37342E-09         0.00000E+00
   -0.23660E-09         0.43870E-09         0.00000E+00
   -0.27745E-09         0.52810E-09         0.00000E+00
   -0.37778E-09         0.63768E-09         0.00000E+00
   -0.54674E-09         0.72176E-09         0.00000E+00
   -0.73007E-09         0.49603E-09         0.00000E+00
   -0.46976E-10         0.71400E-09         0.00000E+00
   -0.23561E-09         0.11841E-08         0.00000E+00
   -0.42638E-09         0.10299E-08         0.00000E+00
   -0.52943E-09         0.79080E-09         0.00000E+00
   -0.54530E-09         0.58597E-09         0.00000E+00
   -0.50060E-09         0.42769E-09         0.00000E+00
   -0.42151E-09         0.32324E-09         0.00000E+00
   -0.32868E-09         0.27398E-09         0.00000E+00
   -0.23826E-09         0.27750E-09         0.00000E+00
   -0.16498E-09         0.33274E-09         0.00000E+00
   -0.12564E-09         0.43753E-09         0.00000E+00
   -0.14159E-09         0.58607E-09         0.00000E+00
   -0.24160E-09         0.78005E-09         0.00000E+00
   -0.44770E-09         0.95444E-09         0.00000E+00
   -0.69140E-09         0.69038E-09         0.00000E+00
   -0.12217E-09         0.93365E-09         0.00000E+00
   -0.45130E-09         0.14822E-08         0.00000E+00
   -0.73021E-09         0.12015E-08         0.00000E+00
   -0.83458E-09         0.82664E-09         0.00000E+00
   -0.80198E-09         0.53340E-09         0.00000E+00
   -0.69296E-09         0.32654E-09         0.00000E+00
   -0.54847E-09         0.20082E-09         0.00000E+00
   -0.39341E-09         0.14851E-09         0.00000E+00
   -0.24322E-09         0.16234E-09         0.00000E+00
   -0.11059E-09         0.24198E-09         0.00000E+00
   -0.12271E-10         0.39062E-09         0.00000E+00
    0.24251E-10         0.61240E-09         0.00000E+00
   -0.48200E-10         0.92618E-09         0.00000E+00
   -0.27856E-09         0.12448E-08         0.00000E+00
   -0.58423E-09         0.94942E-09         0.00000E+00
   -0.48884E-09         0.11843E-08         0.00000E+00
   -0.81592E-09         0.18878E-08         0.00000E+00
   -0.11226E-08         0.13815E-08         0.00000E+00
   -0.11718E-08         0.80022E-09         0.00000E+00
   -0.10410E-08         0.39639E-09         0.00000E+00
   -0.82986E-09         0.14341E-09         0.00000E+00
   -0.59547E-09         0.50669E-11         0.00000E+00
   -0.36276E-09        -0.43503E-10         0.00000E+00
   -0.14020E-09        -0.18399E-10         0.00000E+00
    0.68460E-10         0.81440E-10         0.00000E+00
    0.25236E-09         0.26895E-09         0.00000E+00
    0.38031E-09         0.56961E-09         0.00000E+00
    0.37545E-09         0.10463E-08         0.00000E+00
    0.12644E-09         0.16040E-08         0.00000E+00
   -0.28764E-09         0.13099E-08         0.00000E+00
    0.18219E-09         0.17772E-08         0.00000E+00
   -0.78137E-09         0.25855E-08         0.00000E+00
   -0.13802E-08         0.15893E-08         0.00000E+00
   -0.13839E-08         0.64531E-09         0.00000E+00
   -0.10818E-08         0.11839E-09         0.00000E+00
   -0.71658E-09        -0.15497E-09         0.00000E+00
   -0.36894E-09        -0.27858E-09         0.00000E+00
   -0.53431E-10        -0.30807E-09         0.00000E+00
    0.24215E-09        -0.27197E-09         0.00000E+00
    0.53544E-09        -0.16694E-09         0.00000E+00
    0.83531E-09         0.33562E-10         0.00000E+00
    0.11221E-08         0.39029E-09         0.00000E+00
    0.12764E-08         0.10761E-08         0.00000E+00
    0.10164E-08         0.20832E-08         0.00000E+00
    0.26450E-09         0.19967E-08         0.00000E+00
   -0.16400E-08         0.36075E-08         0.00000E+00
   -0.38913E-08         0.39700E-08         0.00000E+00
   -0.45949E-08         0.15073E-08         0.00000E+00
   -0.39718E-08         0.10795E-09         0.00000E+00
   -0.31867E-08        -0.43144E-09         0.00000E+00
   -0.25411E-08        -0.61604E-09         0.00000E+00
   -0.20459E-08        -0.66037E-09         0.00000E+00
   -0.16455E-08        -0.64219E-09         0.00000E+00
   -0.12820E-08        -0.59690E-09         0.00000E+00
   -0.89855E-09        -0.51875E-09         0.00000E+00
   -0.43870E-09        -0.37434E-09         0.00000E+00
    0.15128E-09        -0.78552E-10         0.00000E+00
    0.84270E-09         0.69922E-09         0.00000E+00
    0.12836E-08         0.22792E-08         0.00000E+00
    0.10624E-08         0.27739E-08         0.00000E+00
   -0.12085E-07         0.47826E-08         0.00000E+00
   -0.10465E-07         0.34269E-08         0.00000E+00
   -0.75815E-08        -0.12982E-09         0.00000E+00
   -0.51801E-08        -0.12794E-08         0.00000E+00
   -0.36379E-08        -0.13714E-08         0.00000E+00
   -0.27099E-08        -0.12497E-08         0.00000E+00
   -0.21123E-08        -0.11195E-08         0.00000E+00
   -0.16764E-08        -0.10194E-08         0.00000E+00
   -0.12925E-08        -0.96703E-09         0.00000E+00
   -0.86844E-09        -0.95609E-09         0.00000E+00
   -0.29439E-09        -0.97089E-09         0.00000E+00
    0.60061E-09        -0.96699E-09         0.00000E+00
    0.20906E-08        -0.59370E-09         0.00000E+00
    0.45428E-08         0.67896E-09         0.00000E+00
    0.73487E-08         0.17895E-08         0.00000E+00
    0.22693E-08        -0.24046E-08         0.00000E+00
    0.13749E-07        -0.24844E-08         0.00000E+00
    0.20148E-07        -0.35016E-08         0.00000E+00
    0.22780E-07        -0.29416E-08         0.00000E+00
    0.23790E-07        -0.22609E-08         0.00000E+00
    0.24233E-07        -0.17313E-08         0.00000E+00
    0.24418E-07        -0.14208E-08         0.00000E+00
    0.24509E-07        -0.12448E-08         0.00000E+00
    0.24574E-07        -0.11901E-08         0.00000E+00
    0.24666E-07        -0.12493E-08         0.00000E+00
    0.24859E-07        -0.14444E-08         0.00000E+00
    0.25285E-07        -0.18148E-08         0.00000E+00
    0.26301E-07        -0.22524E-08         0.00000E+00
    0.28873E-07        -0.26866E-08         0.00000E+00
    0.33653E-07        -0.24308E-08         0.00000E+00
    0.13514E-06        -0.47121E-08         0.00000E+00
    0.12696E-06        -0.34720E-08         0.00000E+00
    0.12077E-06        -0.27206E-08         0.00000E+00
    0.11623E-06        -0.18172E-08         0.00000E+00
    0.11312E-06        -0.12888E-08         0.00000E+00
    0.11090E-06        -0.92894E-09         0.00000E+00
    0.10924E-06        -0.73986E-09         0.00000E+00
    0.10786E-06        -0.63834E-09         0.00000E+00
    0.10661E-06        -0.61135E-09         0.00000E+00
    0.10534E-06        -0.65442E-09         0.00000E+00
    0.10390E-06        -0.78870E-09         0.00000E+00
    0.10206E-06        -0.10540E-08         0.00000E+00
    0.99515E-07        -0.14879E-08         0.00000E+00
    0.95759E-07        -0.22676E-08         0.00000E+00
    0.90811E-07        -0.26811E-08         0.00000E+00
POINT_DATA        496
VECTORS vDarcyNodal double 
    0.14630E-10         0.13030E-10         0.00000E+00
    0.14503E-10         0.21431E-10         0.00000E+00
    0.13932E-10         0.34825E-10         0.00000E+00
    0.13007E-10         0.43615E-10         0.00000E+00
    0.11985E-10         0.50275E-10         0.00000E+00
    0.10980E-10         0.54999E-10         0.00000E+00
    0.10040E-10         0.57777E-10         0.00000E+00
    0.91974E-11         0.58769E-10         0.00000E+00
    0.84756E-11         0.58196E-10         0.00000E+00
    0.78977E-11         0.56328E-10         0.00000E+00
    0.74882E-11         0.53470E-10         0.00000E+00
    0.72729E-11         0.49940E-10         0.00000E+00
    0.72848E-11         0.46438E-10         0.00000E+00
    0.76154E-11         0.43347E-10         0.00000E+00
    0.83615E-11         0.34284E-10         0.00000E+00
    0.91335E-11         0.26704E-10         0.00000E+00
    0.17822E-10         0.13156E-10         0.00000E+00
    0.17221E-10         0.21779E-10         0.00000E+00
    0.15683E-10         0.35573E-10         0.00000E+00
    0.13694E-10         0.44589E-10         0.00000E+00
    0.11607E-10         0.51289E-10         0.00000E+00
    0.95747E-11         0.55971E-10         0.00000E+00
    0.76807E-11         0.58668E-10         0.00000E+00
    0.59823E-11         0.59551E-10         0.00000E+00
    0.45271E-11         0.58846E-10         0.00000E+00
    0.33596E-11         0.56822E-10         0.00000E+00
    0.25270E-11         0.53783E-10         0.00000E+00
    0.20790E-11         0.50042E-10         0.00000E+00
    0.20760E-11         0.46267E-10         0.00000E+00
    0.26660E-11         0.42809E-10         0.00000E+00
    0.39883E-11         0.33525E-10         0.00000E+00
    0.52902E-11         0.25932E-10         0.00000E+00
    0.27414E-10         0.14231E-10         0.00000E+00
    0.25366E-10         0.23570E-10         0.00000E+00
    0.21392E-10         0.38352E-10         0.00000E+00
    0.17055E-10         0.47691E-10         0.00000E+00
    0.12741E-10         0.54395E-10         0.00000E+00
    0.85973E-11         0.58925E-10         0.00000E+00
    0.47519E-11         0.61369E-10         0.00000E+00
    0.13079E-11         0.61922E-10         0.00000E+00
   -0.16471E-11         0.60819E-10         0.00000E+00
   -0.40280E-11         0.58328E-10         0.00000E+00
   -0.57454E-11         0.54751E-10         0.00000E+00
   -0.67057E-11         0.50391E-10         0.00000E+00
   -0.68039E-11         0.45851E-10         0.00000E+00
   -0.58300E-11         0.41435E-10         0.00000E+00
   -0.36381E-11         0.31660E-10         0.00000E+00
   -0.15425E-11         0.24100E-10         0.00000E+00
    0.41362E-10         0.17252E-10         0.00000E+00
    0.37449E-10         0.27801E-10         0.00000E+00
    0.30540E-10         0.43884E-10         0.00000E+00
    0.23541E-10         0.53240E-10         0.00000E+00
    0.16817E-10         0.59746E-10         0.00000E+00
    0.10434E-10         0.63960E-10         0.00000E+00
    0.45364E-11         0.65958E-10         0.00000E+00
   -0.74175E-12         0.65950E-10         0.00000E+00
   -0.52815E-11         0.64182E-10         0.00000E+00
   -0.89635E-11         0.60920E-10         0.00000E+00
   -0.11662E-10         0.56460E-10         0.00000E+00
   -0.13247E-10         0.51100E-10         0.00000E+00
   -0.13584E-10         0.45392E-10         0.00000E+00
   -0.12451E-10         0.39643E-10         0.00000E+00
   -0.97608E-11         0.29238E-10         0.00000E+00
   -0.71954E-11         0.21741E-10         0.00000E+00
    0.56313E-10         0.22057E-10         0.00000E+00
    0.50758E-10         0.34392E-10         0.00000E+00
    0.40998E-10         0.52260E-10         0.00000E+00
    0.31215E-10         0.61414E-10         0.00000E+00
    0.21919E-10         0.67502E-10         0.00000E+00
    0.13153E-10         0.71205E-10         0.00000E+00
    0.50746E-11         0.72545E-10         0.00000E+00
   -0.21585E-11         0.71740E-10         0.00000E+00
   -0.84025E-11         0.69041E-10         0.00000E+00
   -0.13510E-10         0.64709E-10         0.00000E+00
   -0.17323E-10         0.59035E-10         0.00000E+00
   -0.19677E-10         0.52312E-10         0.00000E+00
   -0.20409E-10         0.45055E-10         0.00000E+00
   -0.19259E-10         0.37612E-10         0.00000E+00
   -0.16138E-10         0.26405E-10         0.00000E+00
   -0.13085E-10         0.18969E-10         0.00000E+00
    0.71145E-10         0.28364E-10         0.00000E+00
    0.63985E-10         0.43116E-10         0.00000E+00
    0.51330E-10         0.63427E-10         0.00000E+00
    0.38631E-10         0.72319E-10         0.00000E+00
    0.26605E-10         0.77808E-10         0.00000E+00
    0.15296E-10         0.80805E-10         0.00000E+00
    0.48863E-11         0.81269E-10         0.00000E+00
   -0.44475E-11         0.79427E-10         0.00000E+00
   -0.12544E-10         0.75533E-10         0.00000E+00
   -0.19232E-10         0.69841E-10         0.00000E+00
   -0.24327E-10         0.62628E-10         0.00000E+00
   -0.27628E-10         0.54186E-10         0.00000E+00
   -0.28931E-10         0.44973E-10         0.00000E+00
   -0.27902E-10         0.35372E-10         0.00000E+00
   -0.24381E-10         0.23063E-10         0.00000E+00
   -0.20771E-10         0.15634E-10         0.00000E+00
    0.86161E-10         0.36377E-10         0.00000E+00
    0.77154E-10         0.54207E-10         0.00000E+00
    0.61284E-10         0.77614E-10         0.00000E+00
    0.45431E-10         0.86139E-10         0.00000E+00
    0.30475E-10         0.90837E-10         0.00000E+00
    0.16445E-10         0.92924E-10         0.00000E+00
    0.35358E-11         0.92289E-10         0.00000E+00
   -0.80633E-11         0.89170E-10         0.00000E+00
   -0.18182E-10         0.83825E-10         0.00000E+00
   -0.26635E-10         0.76492E-10         0.00000E+00
   -0.33213E-10         0.67431E-10         0.00000E+00
   -0.37682E-10         0.56917E-10         0.00000E+00
   -0.39787E-10         0.45329E-10         0.00000E+00
   -0.39107E-10         0.33062E-10         0.00000E+00
   -0.35389E-10         0.19274E-10         0.00000E+00
   -0.31335E-10         0.11749E-10         0.00000E+00
    0.10137E-09         0.46378E-10         0.00000E+00
    0.90268E-10         0.67993E-10         0.00000E+00
    0.70820E-10         0.95150E-10         0.00000E+00
    0.51524E-10         0.10313E-09         0.00000E+00
    0.33410E-10         0.10679E-09         0.00000E+00
    0.16465E-10         0.10774E-09         0.00000E+00
    0.87948E-12         0.10578E-09         0.00000E+00
   -0.13159E-10         0.10114E-09         0.00000E+00
   -0.25485E-10         0.94105E-10         0.00000E+00
   -0.35910E-10         0.84872E-10         0.00000E+00
   -0.44210E-10         0.73675E-10         0.00000E+00
   -0.50118E-10         0.60760E-10         0.00000E+00
   -0.53329E-10         0.46398E-10         0.00000E+00
   -0.53331E-10         0.30974E-10         0.00000E+00
   -0.49776E-10         0.15292E-10         0.00000E+00
   -0.45525E-10         0.75255E-11         0.00000E+00
    0.11653E-09         0.58590E-10         0.00000E+00
    0.10309E-09         0.84761E-10         0.00000E+00
    0.79710E-10         0.11636E-09         0.00000E+00
    0.56675E-10         0.12355E-09         0.00000E+00
    0.35174E-10         0.12590E-09         0.00000E+00
    0.15122E-10         0.12545E-09         0.00000E+00
   -0.33109E-11         0.12191E-09         0.00000E+00
   -0.19959E-10         0.11553E-09         0.00000E+00
   -0.34680E-10         0.10658E-09         0.00000E+00
   -0.47299E-10         0.95217E-10         0.00000E+00
   -0.57591E-10         0.81638E-10         0.00000E+00
   -0.65264E-10         0.66036E-10         0.00000E+00
   -0.69962E-10         0.48543E-10         0.00000E+00
   -0.71086E-10         0.29509E-10         0.00000E+00
   -0.68171E-10         0.11468E-10         0.00000E+00
   -0.64046E-10         0.32471E-11         0.00000E+00
    0.13133E-09         0.73253E-10         0.00000E+00
    0.11532E-09         0.10482E-09         0.00000E+00
    0.87632E-10         0.14157E-09         0.00000E+00
    0.60573E-10         0.14766E-09         0.00000E+00
    0.35471E-10         0.14835E-09         0.00000E+00
    0.12143E-10         0.14623E-09         0.00000E+00
   -0.92838E-11         0.14086E-09         0.00000E+00
   -0.28690E-10         0.13251E-09         0.00000E+00
   -0.45980E-10         0.12145E-09         0.00000E+00
   -0.61017E-10         0.10778E-09         0.00000E+00
   -0.73594E-10         0.91639E-10         0.00000E+00
   -0.83409E-10         0.73132E-10         0.00000E+00
   -0.90060E-10         0.52220E-10         0.00000E+00
   -0.92861E-10         0.29182E-10         0.00000E+00
   -0.91205E-10         0.82513E-11         0.00000E+00
   -0.87628E-10        -0.72495E-12         0.00000E+00
    0.14533E-09         0.90609E-10         0.00000E+00
    0.12652E-09         0.12845E-09         0.00000E+00
    0.94194E-10         0.17110E-09         0.00000E+00
    0.62855E-10         0.17571E-09         0.00000E+00
    0.33975E-10         0.17433E-09         0.00000E+00
    0.72470E-11         0.17021E-09         0.00000E+00
   -0.17272E-10         0.16274E-09         0.00000E+00
   -0.39537E-10         0.15223E-09         0.00000E+00
   -0.59533E-10         0.13890E-09         0.00000E+00
   -0.77194E-10         0.12283E-09         0.00000E+00
   -0.92360E-10         0.10403E-09         0.00000E+00
   -0.10474E-09         0.82502E-10         0.00000E+00
   -0.11390E-09         0.57994E-10         0.00000E+00
   -0.11907E-09         0.30654E-10         0.00000E+00
   -0.11947E-09         0.62345E-11         0.00000E+00
   -0.11701E-09        -0.39070E-11         0.00000E+00
    0.15797E-09         0.11088E-09         0.00000E+00
    0.13616E-09         0.15595E-09         0.00000E+00
    0.98907E-10         0.20523E-09         0.00000E+00
    0.63082E-10         0.20788E-09         0.00000E+00
    0.30307E-10         0.20396E-09         0.00000E+00
    0.12360E-12         0.19748E-09         0.00000E+00
   -0.27508E-10         0.18764E-09         0.00000E+00
   -0.52653E-10         0.17477E-09         0.00000E+00
   -0.75422E-10         0.15910E-09         0.00000E+00
   -0.95863E-10         0.14061E-09         0.00000E+00
   -0.11391E-09         0.11919E-09         0.00000E+00
   -0.12932E-09         0.94671E-10         0.00000E+00
   -0.14163E-09         0.66549E-10         0.00000E+00
   -0.15002E-09         0.34758E-10         0.00000E+00
   -0.15351E-09         0.61867E-11         0.00000E+00
   -0.15288E-09        -0.56613E-11         0.00000E+00
    0.16858E-09         0.13424E-09         0.00000E+00
    0.14359E-09         0.18752E-09         0.00000E+00
    0.10118E-09         0.24417E-09         0.00000E+00
    0.60731E-10         0.24431E-09         0.00000E+00
    0.24022E-10         0.23729E-09         0.00000E+00
   -0.95741E-11         0.22802E-09         0.00000E+00
   -0.40223E-10         0.21552E-09         0.00000E+00
   -0.68147E-10         0.20014E-09         0.00000E+00
   -0.93639E-10         0.18211E-09         0.00000E+00
   -0.11693E-09         0.16132E-09         0.00000E+00
   -0.13810E-09         0.13748E-09         0.00000E+00
   -0.15701E-09         0.11022E-09         0.00000E+00
   -0.17321E-09         0.78699E-10         0.00000E+00
   -0.18586E-09         0.42534E-10         0.00000E+00
   -0.19372E-09         0.90961E-11         0.00000E+00
   -0.19589E-09        -0.51561E-11         0.00000E+00
    0.17637E-09         0.16086E-09         0.00000E+00
    0.14808E-09         0.22335E-09         0.00000E+00
    0.10033E-09         0.28809E-09         0.00000E+00
    0.55181E-10         0.28504E-09         0.00000E+00
    0.14591E-10         0.27426E-09         0.00000E+00
   -0.22245E-10         0.26172E-09         0.00000E+00
   -0.55655E-10         0.24621E-09         0.00000E+00
   -0.86076E-10         0.22819E-09         0.00000E+00
   -0.11406E-09         0.20788E-09         0.00000E+00
   -0.14011E-09         0.18507E-09         0.00000E+00
   -0.16455E-09         0.15927E-09         0.00000E+00
   -0.18741E-09         0.12978E-09         0.00000E+00
   -0.20832E-09         0.95401E-10         0.00000E+00
   -0.22646E-09         0.55268E-10         0.00000E+00
   -0.24031E-09         0.16219E-10         0.00000E+00
   -0.24650E-09        -0.13176E-11         0.00000E+00
    0.18049E-09         0.19083E-09         0.00000E+00
    0.14879E-09         0.26356E-09         0.00000E+00
    0.95572E-10         0.33707E-09         0.00000E+00
    0.45698E-10         0.33005E-09         0.00000E+00
    0.13783E-11         0.31471E-09         0.00000E+00
   -0.38366E-10         0.29827E-09         0.00000E+00
   -0.74059E-10         0.27935E-09         0.00000E+00
   -0.10644E-09         0.25855E-09         0.00000E+00
   -0.13642E-09         0.23615E-09         0.00000E+00
   -0.16489E-09         0.21180E-09         0.00000E+00
   -0.19256E-09         0.18479E-09         0.00000E+00
   -0.21975E-09         0.15399E-09         0.00000E+00
   -0.24624E-09         0.11775E-09         0.00000E+00
   -0.27132E-09         0.74523E-10         0.00000E+00
   -0.29315E-09         0.29137E-10         0.00000E+00
   -0.30492E-09         0.72249E-11         0.00000E+00
    0.18009E-09         0.22427E-09         0.00000E+00
    0.14484E-09         0.30827E-09         0.00000E+00
    0.85959E-10         0.39118E-09         0.00000E+00
    0.31336E-10         0.37924E-09         0.00000E+00
   -0.16473E-10         0.35833E-09         0.00000E+00
   -0.58590E-10         0.33716E-09         0.00000E+00
   -0.95790E-10         0.31428E-09         0.00000E+00
   -0.12921E-09         0.29055E-09         0.00000E+00
   -0.16030E-09         0.26634E-09         0.00000E+00
   -0.19050E-09         0.24121E-09         0.00000E+00
   -0.22108E-09         0.21413E-09         0.00000E+00
   -0.25280E-09         0.18346E-09         0.00000E+00
   -0.28573E-09         0.14696E-09         0.00000E+00
   -0.31941E-09         0.10218E-09         0.00000E+00
   -0.35167E-09         0.49824E-10         0.00000E+00
   -0.37096E-09         0.22216E-10         0.00000E+00
    0.17438E-09         0.26133E-09         0.00000E+00
    0.13538E-09         0.35769E-09         0.00000E+00
    0.70489E-10         0.45057E-09         0.00000E+00
    0.10987E-10         0.43248E-09         0.00000E+00
   -0.40005E-10         0.40464E-09         0.00000E+00
   -0.83713E-10         0.37759E-09         0.00000E+00
   -0.12123E-09         0.34997E-09         0.00000E+00
   -0.15428E-09         0.32306E-09         0.00000E+00
   -0.18501E-09         0.29744E-09         0.00000E+00
   -0.21570E-09         0.27258E-09         0.00000E+00
   -0.24838E-09         0.24708E-09         0.00000E+00
   -0.28454E-09         0.21864E-09         0.00000E+00
   -0.32470E-09         0.18436E-09         0.00000E+00
   -0.36887E-09         0.14047E-09         0.00000E+00
   -0.41451E-09         0.80688E-10         0.00000E+00
   -0.44379E-09         0.45803E-10         0.00000E+00
    0.16292E-09         0.30228E-09         0.00000E+00
    0.11956E-09         0.41217E-09         0.00000E+00
    0.47736E-10         0.51557E-09         0.00000E+00
   -0.17104E-10         0.48973E-09         0.00000E+00
   -0.70974E-10         0.45303E-09         0.00000E+00
   -0.11516E-09         0.41839E-09         0.00000E+00
   -0.15124E-09         0.38485E-09         0.00000E+00
   -0.18174E-09         0.35433E-09         0.00000E+00
   -0.20987E-09         0.32776E-09         0.00000E+00
   -0.23900E-09         0.30459E-09         0.00000E+00
   -0.27231E-09         0.28297E-09         0.00000E+00
   -0.31228E-09         0.25978E-09         0.00000E+00
   -0.36024E-09         0.23129E-09         0.00000E+00
   -0.41691E-09         0.19200E-09         0.00000E+00
   -0.47946E-09         0.12474E-09         0.00000E+00
   -0.52170E-09         0.80763E-10         0.00000E+00
    0.14537E-09         0.34805E-09         0.00000E+00
    0.96540E-10         0.47287E-09         0.00000E+00
    0.16010E-10         0.58724E-09         0.00000E+00
   -0.55147E-10         0.55119E-09         0.00000E+00
   -0.11157E-09         0.50269E-09         0.00000E+00
   -0.15464E-09         0.45785E-09         0.00000E+00
   -0.18669E-09         0.41656E-09         0.00000E+00
   -0.21146E-09         0.38169E-09         0.00000E+00
   -0.23361E-09         0.35469E-09         0.00000E+00
   -0.25803E-09         0.33502E-09         0.00000E+00
   -0.28944E-09         0.32037E-09         0.00000E+00
   -0.33181E-09         0.30657E-09         0.00000E+00
   -0.38766E-09         0.28898E-09         0.00000E+00
   -0.45898E-09         0.25969E-09         0.00000E+00
   -0.54263E-09         0.18548E-09         0.00000E+00
   -0.60162E-09         0.13027E-09         0.00000E+00
    0.12213E-09         0.39993E-09         0.00000E+00
    0.65617E-10         0.54152E-09         0.00000E+00
   -0.27222E-10         0.66726E-09         0.00000E+00
   -0.10678E-09         0.61731E-09         0.00000E+00
   -0.16553E-09         0.55252E-09         0.00000E+00
   -0.20516E-09         0.49351E-09         0.00000E+00
   -0.22938E-09         0.44167E-09         0.00000E+00
   -0.24380E-09         0.40125E-09         0.00000E+00
   -0.25508E-09         0.37432E-09         0.00000E+00
   -0.27009E-09         0.36042E-09         0.00000E+00
   -0.29561E-09         0.35676E-09         0.00000E+00
   -0.33766E-09         0.35800E-09         0.00000E+00
   -0.40070E-09         0.35846E-09         0.00000E+00
   -0.48871E-09         0.34696E-09         0.00000E+00
   -0.59857E-09         0.26738E-09         0.00000E+00
   -0.67898E-09         0.19873E-09         0.00000E+00
    0.95783E-10         0.46108E-09         0.00000E+00
    0.25915E-10         0.62223E-09         0.00000E+00
   -0.86644E-10         0.75964E-09         0.00000E+00
   -0.17845E-09         0.68950E-09         0.00000E+00
   -0.23899E-09         0.60107E-09         0.00000E+00
   -0.27142E-09         0.52171E-09         0.00000E+00
   -0.28211E-09         0.45520E-09         0.00000E+00
   -0.27956E-09         0.40738E-09         0.00000E+00
   -0.27306E-09         0.38097E-09         0.00000E+00
   -0.27195E-09         0.37555E-09         0.00000E+00
   -0.28549E-09         0.38794E-09         0.00000E+00
   -0.32250E-09         0.41167E-09         0.00000E+00
   -0.39046E-09         0.44004E-09         0.00000E+00
   -0.49677E-09         0.45756E-09         0.00000E+00
   -0.63874E-09         0.37575E-09         0.00000E+00
   -0.74661E-09         0.29110E-09         0.00000E+00
    0.60995E-10         0.53967E-09         0.00000E+00
   -0.28358E-10         0.72395E-09         0.00000E+00
   -0.17152E-09         0.87162E-09         0.00000E+00
   -0.28037E-09         0.76965E-09         0.00000E+00
   -0.34087E-09         0.64549E-09         0.00000E+00
   -0.35975E-09         0.53663E-09         0.00000E+00
   -0.34834E-09         0.44981E-09         0.00000E+00
   -0.31956E-09         0.39220E-09         0.00000E+00
   -0.28599E-09         0.36672E-09         0.00000E+00
   -0.25953E-09         0.37284E-09         0.00000E+00
   -0.25220E-09         0.40731E-09         0.00000E+00
   -0.27640E-09         0.46297E-09         0.00000E+00
   -0.34435E-09         0.53272E-09         0.00000E+00
   -0.46942E-09         0.59524E-09         0.00000E+00
   -0.65099E-09         0.51723E-09         0.00000E+00
   -0.79423E-09         0.41448E-09         0.00000E+00
    0.33452E-10         0.63979E-09         0.00000E+00
   -0.90815E-10         0.85475E-09         0.00000E+00
   -0.28598E-09         0.10116E-08         0.00000E+00
   -0.42162E-09         0.85885E-09         0.00000E+00
   -0.47822E-09         0.68045E-09         0.00000E+00
   -0.47245E-09         0.52918E-09         0.00000E+00
   -0.42607E-09         0.41501E-09         0.00000E+00
   -0.35857E-09         0.34503E-09         0.00000E+00
   -0.28606E-09         0.32095E-09         0.00000E+00
   -0.22238E-09         0.34176E-09         0.00000E+00
   -0.18170E-09         0.40480E-09         0.00000E+00
   -0.18053E-09         0.50382E-09         0.00000E+00
   -0.23850E-09         0.63306E-09         0.00000E+00
   -0.38088E-09         0.76420E-09         0.00000E+00
   -0.61356E-09         0.70056E-09         0.00000E+00
   -0.80791E-09         0.57758E-09         0.00000E+00
    0.25255E-10         0.78820E-09         0.00000E+00
   -0.19440E-09         0.10434E-08         0.00000E+00
   -0.49251E-09         0.12024E-08         0.00000E+00
   -0.66409E-09         0.96190E-09         0.00000E+00
   -0.69993E-09         0.69632E-09         0.00000E+00
   -0.64735E-09         0.48448E-09         0.00000E+00
   -0.54621E-09         0.33592E-09         0.00000E+00
   -0.42378E-09         0.25220E-09         0.00000E+00
   -0.29831E-09         0.23053E-09         0.00000E+00
   -0.18316E-09         0.26848E-09         0.00000E+00
   -0.92406E-10         0.36546E-09         0.00000E+00
   -0.45502E-10         0.51978E-09         0.00000E+00
   -0.71837E-10         0.73307E-09         0.00000E+00
   -0.21796E-09         0.97030E-09         0.00000E+00
   -0.50829E-09         0.94426E-09         0.00000E+00
   -0.76733E-09         0.80319E-09         0.00000E+00
   -0.18018E-09         0.10791E-08         0.00000E+00
   -0.43083E-09         0.13725E-08         0.00000E+00
   -0.83639E-09         0.14813E-08         0.00000E+00
   -0.10164E-08         0.10663E-08         0.00000E+00
   -0.98998E-09         0.66372E-09         0.00000E+00
   -0.85297E-09         0.37546E-09         0.00000E+00
   -0.66985E-09         0.19143E-09         0.00000E+00
   -0.47409E-09         0.97137E-10         0.00000E+00
   -0.28208E-09         0.80329E-10         0.00000E+00
   -0.10134E-09         0.13585E-09         0.00000E+00
    0.59208E-10         0.26715E-09         0.00000E+00
    0.18088E-09         0.48325E-09         0.00000E+00
    0.22368E-09         0.80552E-09         0.00000E+00
    0.10357E-09         0.12007E-08         0.00000E+00
   -0.25568E-09         0.12499E-08         0.00000E+00
   -0.61619E-09         0.10957E-08         0.00000E+00
    0.14313E-09         0.12895E-08         0.00000E+00
   -0.44978E-09         0.16996E-08         0.00000E+00
   -0.11475E-08         0.17880E-08         0.00000E+00
   -0.13553E-08         0.11155E-08         0.00000E+00
   -0.12004E-08         0.53289E-09         0.00000E+00
   -0.92241E-09         0.16434E-09         0.00000E+00
   -0.62403E-09        -0.42954E-10         0.00000E+00
   -0.34038E-09        -0.13557E-09         0.00000E+00
   -0.75810E-10        -0.14223E-09         0.00000E+00
    0.17776E-09        -0.72808E-10         0.00000E+00
    0.42614E-09         0.83242E-10         0.00000E+00
    0.66153E-09         0.35530E-09         0.00000E+00
    0.84085E-09         0.81038E-09         0.00000E+00
    0.81100E-09         0.14497E-08         0.00000E+00
    0.33183E-09         0.16640E-08         0.00000E+00
   -0.35498E-09         0.15242E-08         0.00000E+00
    0.18624E-09         0.22649E-08         0.00000E+00
   -0.16441E-08         0.26631E-08         0.00000E+00
   -0.30286E-08         0.23869E-08         0.00000E+00
   -0.29466E-08         0.11192E-08         0.00000E+00
   -0.24092E-08         0.23081E-09         0.00000E+00
   -0.18594E-08        -0.20092E-09         0.00000E+00
   -0.13983E-08        -0.39059E-09         0.00000E+00
   -0.10165E-08        -0.45108E-09         0.00000E+00
   -0.68239E-09        -0.43781E-09         0.00000E+00
   -0.35746E-09        -0.36610E-09         0.00000E+00
   -0.56492E-11        -0.21662E-09         0.00000E+00
    0.40226E-09         0.68545E-10         0.00000E+00
    0.87109E-09         0.65604E-09         0.00000E+00
    0.12480E-08         0.17097E-08         0.00000E+00
    0.10520E-08         0.24159E-08         0.00000E+00
    0.27487E-09         0.24693E-08         0.00000E+00
   -0.62748E-08         0.49501E-08         0.00000E+00
   -0.74499E-08         0.49144E-08         0.00000E+00
   -0.69068E-08         0.30905E-08         0.00000E+00
   -0.52696E-08         0.49613E-09         0.00000E+00
   -0.38823E-08        -0.55430E-09         0.00000E+00
   -0.29423E-08        -0.84655E-09         0.00000E+00
   -0.23087E-08        -0.88581E-09         0.00000E+00
   -0.18495E-08        -0.85149E-09         0.00000E+00
   -0.14723E-08        -0.80128E-09         0.00000E+00
   -0.11022E-08        -0.74955E-09         0.00000E+00
   -0.66482E-09        -0.67647E-09         0.00000E+00
   -0.68270E-10        -0.52144E-09         0.00000E+00
    0.82016E-09        -0.35371E-10         0.00000E+00
    0.21131E-08         0.12688E-08         0.00000E+00
    0.37133E-08         0.26372E-08         0.00000E+00
    0.46977E-08         0.30784E-08         0.00000E+00
   -0.85013E-08         0.46150E-08         0.00000E+00
   -0.13141E-08         0.32951E-08         0.00000E+00
    0.45973E-08         0.20662E-09         0.00000E+00
    0.79690E-08        -0.19053E-08         0.00000E+00
    0.96312E-08        -0.20965E-08         0.00000E+00
    0.10521E-07        -0.17745E-08         0.00000E+00
    0.11002E-07        -0.14834E-08         0.00000E+00
    0.11304E-07        -0.12875E-08         0.00000E+00
    0.11529E-07        -0.11852E-08         0.00000E+00
    0.11752E-07        -0.11736E-08         0.00000E+00
    0.12045E-07        -0.12505E-08         0.00000E+00
    0.12519E-07        -0.14164E-08         0.00000E+00
    0.13367E-07        -0.15253E-08         0.00000E+00
    0.15025E-07        -0.11835E-08         0.00000E+00
    0.18391E-07        -0.16871E-09         0.00000E+00
    0.22611E-07         0.50055E-09         0.00000E+00
    0.67552E-07        -0.94242E-08         0.00000E+00
    0.69860E-07        -0.81841E-08         0.00000E+00
    0.70848E-07        -0.61927E-08         0.00000E+00
    0.70067E-07        -0.45378E-08         0.00000E+00
    0.68942E-07        -0.31060E-08         0.00000E+00
    0.67970E-07        -0.22177E-08         0.00000E+00
    0.67168E-07        -0.16688E-08         0.00000E+00
    0.66487E-07        -0.13782E-08         0.00000E+00
    0.65880E-07        -0.12497E-08         0.00000E+00
    0.65302E-07        -0.12658E-08         0.00000E+00
    0.64707E-07        -0.14431E-08         0.00000E+00
    0.64051E-07        -0.18427E-08         0.00000E+00
    0.63290E-07        -0.25418E-08         0.00000E+00
    0.62526E-07        -0.37555E-08         0.00000E+00
    0.62107E-07        -0.49487E-08         0.00000E+00
    0.62357E-07        -0.53621E-08         0.00000E+00
    0.13986E-06         0.00000E+00         0.00000E+00
    0.13043E-06         0.00000E+00         0.00000E+00
    0.12349E-06        -0.35390E-21         0.00000E+00
    0.11805E-06         0.93132E-23         0.00000E+00
    0.11441E-06         0.31665E-21         0.00000E+00
    0.11183E-06         0.00000E+00         0.00000E+00
    0.10998E-06         0.00000E+00         0.00000E+00
    0.10850E-06        -0.31665E-21         0.00000E+00
    0.10722E-06        -0.29802E-21         0.00000E+00
    0.10600E-06         0.30734E-21         0.00000E+00
    0.10469E-06         0.28871E-21         0.00000E+00
    0.10311E-06        -0.29802E-21         0.00000E+00
    0.10100E-06         0.00000E+00         0.00000E+00
    0.98027E-07         0.27008E-21         0.00000E+00
    0.93492E-07         0.93132E-23         0.00000E+00
    0.88130E-07         0.00000E+00         0.00000E+00
CELL_DATA        450
TENSORS stressef double 
    0.41575E+06         0.13799E+04         0.00000E+00
    0.13799E+04        -0.41408E+06         0.00000E+00
    0.00000E+00         0.00000E+00         0.00000E+00
 
    0.40333E+06         0.46021E+04         0.00000E+00
    0.46021E+04        -0.40248E+06         0.00000E+00
    0.00000E+00         0.00000E+00         0.00000E+00
 
    0.38280E+06         0.72171E+04         0.00000E+00
    0.72171E+04        -0.38177E+06         0.00000E+00
    0.00000E+00         0.00000E+00         0.00000E+00
 
    0.35554E+06         0.91857E+04         0.00000E+00
    0.91857E+04        -0.35429E+06         0.00000E+00
    0.00000E+00         0.00000E+00         0.00000E+00
 
    0.32326E+06         0.10544E+05         0.00000E+00
    0.10544E+05        -0.32182E+06         0.00000E+00
    0.00000E+00         0.00000E+00         0.00000E+00
 
    0.28766E+06         0.11332E+05         0.00000E+00
    0.11332E+05        -0.28604E+06         0.00000E+00
    0.00000E+00         0.00000E+00         0.00000E+00
 
    0.25030E+06         0.11603E+05         0.00000E+00
    0.11603E+05        -0.24852E+06         0.00000E+00
    0.00000E+00         0.00000E+00         0.00000E+00
 
    0.21261E+06         0.11417E+05         0.00000E+00
    0.11417E+05        -0.21069E+06         0.00000E+00
    0.00000E+00         0.00000E+00         0.00000E+00
 
    0.17581E+06         0.10842E+05         0.00000E+00
    0.10842E+05        -0.17378E+06         0.00000E+00
    0.00000E+00         0.00000E+00         0.00000E+00
 
    0.14094E+06         0.99599E+04         0.00000E+00
    0.99599E+04        -0.13882E+06         0.00000E+00
    0.00000E+00         0.00000E+00         0.00000E+00
 
    0.10876E+06         0.88636E+04         0.00000E+00
    0.88636E+04        -0.10658E+06         0.00000E+00
    0.00000E+00         0.00000E+00         0.00000E+00
 
    0.79733E+05         0.76623E+04         0.00000E+00
    0.76623E+04        -0.77556E+05         0.00000E+00
    0.00000E+00         0.00000E+00         0.00000E+00
 
    0.53996E+05         0.64887E+04         0.00000E+00
    0.64887E+04        -0.51825E+05         0.00000E+00
    0.00000E+00         0.00000E+00         0.00000E+00
 
    0.31222E+05         0.55136E+04         0.00000E+00
    0.55136E+04        -0.29070E+05         0.00000E+00
    0.00000E+00         0.00000E+00         0.00000E+00
 
    0.10252E+05         0.51370E+04         0.00000E+00
    0.51370E+04        -0.10034E+05         0.00000E+00
    0.00000E+00         0.00000E+00         0.00000E+00
 
    0.41771E+06         0.49264E+04         0.00000E+00
    0.49264E+04        -0.41801E+06         0.00000E+00
    0.00000E+00         0.00000E+00         0.00000E+00
 
    0.40499E+06         0.14116E+05         0.00000E+00
    0.14116E+05        -0.40560E+06         0.00000E+00
    0.00000E+00         0.00000E+00         0.00000E+00
 
    0.38366E+06         0.21799E+05         0.00000E+00
    0.21799E+05        -0.38410E+06         0.00000E+00
    0.00000E+00         0.00000E+00         0.00000E+00
 
    0.35567E+06         0.27649E+05         0.00000E+00
    0.27649E+05        -0.35589E+06         0.00000E+00
    0.00000E+00         0.00000E+00         0.00000E+00
 
    0.32274E+06         0.31693E+05         0.00000E+00
    0.31693E+05        -0.32277E+06         0.00000E+00
    0.00000E+00         0.00000E+00         0.00000E+00
 
    0.28654E+06         0.34043E+05         0.00000E+00
    0.34043E+05        -0.28639E+06         0.00000E+00
    0.00000E+00         0.00000E+00         0.00000E+00
 
    0.24865E+06         0.34844E+05         0.00000E+00
    0.34844E+05        -0.24834E+06         0.00000E+00
    0.00000E+00         0.00000E+00         0.00000E+00
 
    0.21051E+06         0.34276E+05         0.00000E+00
    0.34276E+05        -0.21006E+06         0.00000E+00
    0.00000E+00         0.00000E+00         0.00000E+00
 
    0.17334E+06         0.32545E+05         0.00000E+00
    0.32545E+05        -0.17278E+06         0.00000E+00
    0.00000E+00         0.00000E+00         0.00000E+00
 
    0.13819E+06         0.29890E+05         0.00000E+00
    0.29890E+05        -0.13754E+06         0.00000E+00
    0.00000E+00         0.00000E+00         0.00000E+00
 
    0.10584E+06         0.26590E+05         0.00000E+00
    0.26590E+05        -0.10513E+06         0.00000E+00
    0.00000E+00         0.00000E+00         0.00000E+00
 
    0.76787E+05         0.22971E+05         0.00000E+00
    0.22971E+05        -0.76074E+05         0.00000E+00
    0.00000E+00         0.00000E+00         0.00000E+00
 
    0.51188E+05         0.19430E+05         0.00000E+00
    0.19430E+05        -0.50476E+05         0.00000E+00
    0.00000E+00         0.00000E+00         0.00000E+00
 
    0.28790E+05         0.16488E+05         0.00000E+00
    0.16488E+05        -0.28081E+05         0.00000E+00
    0.00000E+00         0.00000E+00         0.00000E+00
 
    0.91662E+04         0.14926E+05         0.00000E+00
    0.14926E+05        -0.98325E+04         0.00000E+00
    0.00000E+00         0.00000E+00         0.00000E+00
 
    0.42431E+06         0.86219E+04         0.00000E+00
    0.86219E+04        -0.42472E+06         0.00000E+00
    0.00000E+00         0.00000E+00         0.00000E+00
 
    0.41044E+06         0.24047E+05         0.00000E+00
    0.24047E+05        -0.41143E+06         0.00000E+00
    0.00000E+00         0.00000E+00         0.00000E+00
 
    0.38782E+06         0.36687E+05         0.00000E+00
    0.36687E+05        -0.38860E+06         0.00000E+00
    0.00000E+00         0.00000E+00         0.00000E+00
 
    0.35849E+06         0.46328E+05         0.00000E+00
    0.46328E+05        -0.35904E+06         0.00000E+00
    0.00000E+00         0.00000E+00         0.00000E+00
 
    0.32428E+06         0.53002E+05         0.00000E+00
    0.53002E+05        -0.32465E+06         0.00000E+00
    0.00000E+00         0.00000E+00         0.00000E+00
 
    0.28692E+06         0.56872E+05         0.00000E+00
    0.56872E+05        -0.28711E+06         0.00000E+00
    0.00000E+00         0.00000E+00         0.00000E+00
 
    0.24800E+06         0.58175E+05         0.00000E+00
    0.58175E+05        -0.24803E+06         0.00000E+00
    0.00000E+00         0.00000E+00         0.00000E+00
 
    0.20896E+06         0.57204E+05         0.00000E+00
    0.57204E+05        -0.20885E+06         0.00000E+00
    0.00000E+00         0.00000E+00         0.00000E+00
 
    0.17107E+06         0.54296E+05         0.00000E+00
    0.54296E+05        -0.17084E+06         0.00000E+00
    0.00000E+00         0.00000E+00         0.00000E+00
 
    0.13537E+06         0.49843E+05         0.00000E+00
    0.49843E+05        -0.13505E+06         0.00000E+00
    0.00000E+00         0.00000E+00         0.00000E+00
 
    0.10269E+06         0.44302E+05         0.00000E+00
    0.44302E+05        -0.10232E+06         0.00000E+00
    0.00000E+00         0.00000E+00         0.00000E+00
 
    0.73583E+05         0.38211E+05         0.00000E+00
    0.38211E+05        -0.73193E+05         0.00000E+00
    0.00000E+00         0.00000E+00         0.00000E+00
 
    0.48270E+05         0.32222E+05         0.00000E+00
    0.32222E+05        -0.47876E+05         0.00000E+00
    0.00000E+00         0.00000E+00         0.00000E+00
 
    0.26657E+05         0.27146E+05         0.00000E+00
    0.27146E+05        -0.26232E+05         0.00000E+00
    0.00000E+00         0.00000E+00         0.00000E+00
 
    0.83724E+04         0.23830E+05         0.00000E+00
    0.23830E+05        -0.92014E+04         0.00000E+00
    0.00000E+00         0.00000E+00         0.00000E+00
 
    0.43467E+06         0.12237E+05         0.00000E+00
    0.12237E+05        -0.43458E+06         0.00000E+00
    0.00000E+00         0.00000E+00         0.00000E+00
 
    0.41892E+06         0.34117E+05         0.00000E+00
    0.34117E+05        -0.41992E+06         0.00000E+00
    0.00000E+00         0.00000E+00         0.00000E+00
 
    0.39441E+06         0.51830E+05         0.00000E+00
    0.51830E+05        -0.39519E+06         0.00000E+00
    0.00000E+00         0.00000E+00         0.00000E+00
 
    0.36316E+06         0.65244E+05         0.00000E+00
    0.65244E+05        -0.36370E+06         0.00000E+00
    0.00000E+00         0.00000E+00         0.00000E+00
 
    0.32712E+06         0.74500E+05         0.00000E+00
    0.74500E+05        -0.32747E+06         0.00000E+00
    0.00000E+00         0.00000E+00         0.00000E+00
 
    0.28807E+06         0.79844E+05         0.00000E+00
    0.79844E+05        -0.28825E+06         0.00000E+00
    0.00000E+00         0.00000E+00         0.00000E+00
 
    0.24765E+06         0.81611E+05         0.00000E+00
    0.81611E+05        -0.24766E+06         0.00000E+00
    0.00000E+00         0.00000E+00         0.00000E+00
 
    0.20730E+06         0.80206E+05         0.00000E+00
    0.80206E+05        -0.20718E+06         0.00000E+00
    0.00000E+00         0.00000E+00         0.00000E+00
 
    0.16833E+06         0.76093E+05         0.00000E+00
    0.76093E+05        -0.16809E+06         0.00000E+00
    0.00000E+00         0.00000E+00         0.00000E+00
 
    0.13183E+06         0.69805E+05         0.00000E+00
    0.69805E+05        -0.13150E+06         0.00000E+00
    0.00000E+00         0.00000E+00         0.00000E+00
 
    0.98672E+05         0.61961E+05         0.00000E+00
    0.61961E+05        -0.98272E+05         0.00000E+00
    0.00000E+00         0.00000E+00         0.00000E+00
 
    0.69477E+05         0.53295E+05         0.00000E+00
    0.53295E+05        -0.69051E+05         0.00000E+00
    0.00000E+00         0.00000E+00         0.00000E+00
 
    0.44587E+05         0.44684E+05         0.00000E+00
    0.44684E+05        -0.44144E+05         0.00000E+00
    0.00000E+00         0.00000E+00         0.00000E+00
 
    0.24017E+05         0.37174E+05         0.00000E+00
    0.37174E+05        -0.23555E+05         0.00000E+00
    0.00000E+00         0.00000E+00         0.00000E+00
 
    0.73966E+04         0.31839E+05         0.00000E+00
    0.31839E+05        -0.80514E+04         0.00000E+00
    0.00000E+00         0.00000E+00         0.00000E+00
 
    0.44856E+06         0.15897E+05         0.00000E+00
    0.15897E+05        -0.44793E+06         0.00000E+00
    0.00000E+00         0.00000E+00         0.00000E+00
 
    0.43026E+06         0.44288E+05         0.00000E+00
    0.44288E+05        -0.43124E+06         0.00000E+00
    0.00000E+00         0.00000E+00         0.00000E+00
 
    0.40316E+06         0.67149E+05         0.00000E+00
    0.67149E+05        -0.40394E+06         0.00000E+00
    0.00000E+00         0.00000E+00         0.00000E+00
 
    0.36940E+06         0.84345E+05         0.00000E+00
    0.84345E+05        -0.36991E+06         0.00000E+00
    0.00000E+00         0.00000E+00         0.00000E+00
 
    0.33098E+06         0.96143E+05         0.00000E+00
    0.96143E+05        -0.33130E+06         0.00000E+00
    0.00000E+00         0.00000E+00         0.00000E+00
 
    0.28975E+06         0.10291E+06         0.00000E+00
    0.10291E+06        -0.28990E+06         0.00000E+00
    0.00000E+00         0.00000E+00         0.00000E+00
 
    0.24738E+06         0.10510E+06         0.00000E+00
    0.10510E+06        -0.24737E+06         0.00000E+00
    0.00000E+00         0.00000E+00         0.00000E+00
 
    0.20536E+06         0.10324E+06         0.00000E+00
    0.10324E+06        -0.20522E+06         0.00000E+00
    0.00000E+00         0.00000E+00         0.00000E+00
 
    0.16500E+06         0.97892E+05         0.00000E+00
    0.97892E+05        -0.16474E+06         0.00000E+00
    0.00000E+00         0.00000E+00         0.00000E+00
 
    0.12745E+06         0.89728E+05         0.00000E+00
    0.89728E+05        -0.12709E+06         0.00000E+00
    0.00000E+00         0.00000E+00         0.00000E+00
 
    0.93641E+05         0.79505E+05         0.00000E+00
    0.79505E+05        -0.93204E+05         0.00000E+00
    0.00000E+00         0.00000E+00         0.00000E+00
 
    0.64302E+05         0.68121E+05         0.00000E+00
    0.68121E+05        -0.63824E+05         0.00000E+00
    0.00000E+00         0.00000E+00         0.00000E+00
 
    0.39903E+05         0.56650E+05         0.00000E+00
    0.56650E+05        -0.39397E+05         0.00000E+00
    0.00000E+00         0.00000E+00         0.00000E+00
 
    0.20593E+05         0.46379E+05         0.00000E+00
    0.46379E+05        -0.20071E+05         0.00000E+00
    0.00000E+00         0.00000E+00         0.00000E+00
 
    0.61028E+04         0.38692E+05         0.00000E+00
    0.38692E+05        -0.64464E+04         0.00000E+00
    0.00000E+00         0.00000E+00         0.00000E+00
 
    0.46610E+06         0.19642E+05         0.00000E+00
    0.19642E+05        -0.46478E+06         0.00000E+00
    0.00000E+00         0.00000E+00         0.00000E+00
 
    0.44451E+06         0.54599E+05         0.00000E+00
    0.54599E+05        -0.44551E+06         0.00000E+00
    0.00000E+00         0.00000E+00         0.00000E+00
 
    0.41414E+06         0.82599E+05         0.00000E+00
    0.82599E+05        -0.41492E+06         0.00000E+00
    0.00000E+00         0.00000E+00         0.00000E+00
 
    0.37724E+06         0.10354E+06         0.00000E+00
    0.10354E+06        -0.37774E+06         0.00000E+00
    0.00000E+00         0.00000E+00         0.00000E+00
 
    0.33592E+06         0.11782E+06         0.00000E+00
    0.11782E+06        -0.33623E+06         0.00000E+00
    0.00000E+00         0.00000E+00         0.00000E+00
 
    0.29207E+06         0.12595E+06         0.00000E+00
    0.12595E+06        -0.29221E+06         0.00000E+00
    0.00000E+00         0.00000E+00         0.00000E+00
 
    0.24738E+06         0.12853E+06         0.00000E+00
    0.12853E+06        -0.24737E+06         0.00000E+00
    0.00000E+00         0.00000E+00         0.00000E+00
 
    0.20335E+06         0.12617E+06         0.00000E+00
    0.12617E+06        -0.20321E+06         0.00000E+00
    0.00000E+00         0.00000E+00         0.00000E+00
 
    0.16133E+06         0.11959E+06         0.00000E+00
    0.11959E+06        -0.16107E+06         0.00000E+00
    0.00000E+00         0.00000E+00         0.00000E+00
 
    0.12249E+06         0.10952E+06         0.00000E+00
    0.10952E+06        -0.12212E+06         0.00000E+00
    0.00000E+00         0.00000E+00         0.00000E+00
 
    0.87851E+05         0.96853E+05         0.00000E+00
    0.96853E+05        -0.87403E+05         0.00000E+00
    0.00000E+00         0.00000E+00         0.00000E+00
 
    0.58266E+05         0.82602E+05         0.00000E+00
    0.82602E+05        -0.57756E+05         0.00000E+00
    0.00000E+00         0.00000E+00         0.00000E+00
 
    0.34357E+05         0.68013E+05         0.00000E+00
    0.68013E+05        -0.33804E+05         0.00000E+00
    0.00000E+00         0.00000E+00         0.00000E+00
 
    0.16461E+05         0.54607E+05         0.00000E+00
    0.54607E+05        -0.15886E+05         0.00000E+00
    0.00000E+00         0.00000E+00         0.00000E+00
 
    0.45187E+04         0.44085E+05         0.00000E+00
    0.44085E+05        -0.44694E+04         0.00000E+00
    0.00000E+00         0.00000E+00         0.00000E+00
 
    0.48739E+06         0.23455E+05         0.00000E+00
    0.23455E+05        -0.48517E+06         0.00000E+00
    0.00000E+00         0.00000E+00         0.00000E+00
 
    0.46173E+06         0.65015E+05         0.00000E+00
    0.65015E+05        -0.46273E+06         0.00000E+00
    0.00000E+00         0.00000E+00         0.00000E+00
 
    0.42739E+06         0.98086E+05         0.00000E+00
    0.98086E+05        -0.42817E+06         0.00000E+00
    0.00000E+00         0.00000E+00         0.00000E+00
 
    0.38678E+06         0.12266E+06         0.00000E+00
    0.12266E+06        -0.38726E+06         0.00000E+00
    0.00000E+00         0.00000E+00         0.00000E+00
 
    0.34209E+06         0.13931E+06         0.00000E+00
    0.13931E+06        -0.34238E+06         0.00000E+00
    0.00000E+00         0.00000E+00         0.00000E+00
 
    0.29524E+06         0.14873E+06         0.00000E+00
    0.14873E+06        -0.29537E+06         0.00000E+00
    0.00000E+00         0.00000E+00         0.00000E+00
 
    0.24791E+06         0.15164E+06         0.00000E+00
    0.15164E+06        -0.24790E+06         0.00000E+00
    0.00000E+00         0.00000E+00         0.00000E+00
 
    0.20162E+06         0.14881E+06         0.00000E+00
    0.14881E+06        -0.20149E+06         0.00000E+00
    0.00000E+00         0.00000E+00         0.00000E+00
 
    0.15770E+06         0.14100E+06         0.00000E+00
    0.14100E+06        -0.15745E+06         0.00000E+00
    0.00000E+00         0.00000E+00         0.00000E+00
 
    0.11737E+06         0.12906E+06         0.00000E+00
    0.12906E+06        -0.11701E+06         0.00000E+00
    0.00000E+00         0.00000E+00         0.00000E+00
 
    0.81716E+05         0.11391E+06         0.00000E+00
    0.11391E+06        -0.81262E+05         0.00000E+00
    0.00000E+00         0.00000E+00         0.00000E+00
 
    0.51730E+05         0.96669E+05         0.00000E+00
    0.96669E+05        -0.51190E+05         0.00000E+00
    0.00000E+00         0.00000E+00         0.00000E+00
 
    0.28233E+05         0.78704E+05         0.00000E+00
    0.78704E+05        -0.27628E+05         0.00000E+00
    0.00000E+00         0.00000E+00         0.00000E+00
 
    0.11815E+05         0.61738E+05         0.00000E+00
    0.61738E+05        -0.11174E+05         0.00000E+00
    0.00000E+00         0.00000E+00         0.00000E+00
 
    0.27161E+04         0.47764E+05         0.00000E+00
    0.47764E+05        -0.22052E+04         0.00000E+00
    0.00000E+00         0.00000E+00         0.00000E+00
 
    0.51248E+06         0.27298E+05         0.00000E+00
    0.27298E+05        -0.50912E+06         0.00000E+00
    0.00000E+00         0.00000E+00         0.00000E+00
 
    0.48192E+06         0.75420E+05         0.00000E+00
    0.75420E+05        -0.48291E+06         0.00000E+00
    0.00000E+00         0.00000E+00         0.00000E+00
 
    0.44293E+06         0.11342E+06         0.00000E+00
    0.11342E+06        -0.44369E+06         0.00000E+00
    0.00000E+00         0.00000E+00         0.00000E+00
 
    0.39808E+06         0.14143E+06         0.00000E+00
    0.14143E+06        -0.39852E+06         0.00000E+00
    0.00000E+00         0.00000E+00         0.00000E+00
 
    0.34962E+06         0.16029E+06         0.00000E+00
    0.16029E+06        -0.34989E+06         0.00000E+00
    0.00000E+00         0.00000E+00         0.00000E+00
 
    0.29948E+06         0.17088E+06         0.00000E+00
    0.17088E+06        -0.29960E+06         0.00000E+00
    0.00000E+00         0.00000E+00         0.00000E+00
 
    0.24933E+06         0.17409E+06         0.00000E+00
    0.17409E+06        -0.24932E+06         0.00000E+00
    0.00000E+00         0.00000E+00         0.00000E+00
 
    0.20061E+06         0.17080E+06         0.00000E+00
    0.17080E+06        -0.20049E+06         0.00000E+00
    0.00000E+00         0.00000E+00         0.00000E+00
 
    0.15464E+06         0.16186E+06         0.00000E+00
    0.16186E+06        -0.15441E+06         0.00000E+00
    0.00000E+00         0.00000E+00         0.00000E+00
 
    0.11263E+06         0.14812E+06         0.00000E+00
    0.14812E+06        -0.11230E+06         0.00000E+00
    0.00000E+00         0.00000E+00         0.00000E+00
 
    0.75763E+05         0.13054E+06         0.00000E+00
    0.13054E+06        -0.75316E+05         0.00000E+00
    0.00000E+00         0.00000E+00         0.00000E+00
 
    0.45166E+05         0.11026E+06         0.00000E+00
    0.11026E+06        -0.44606E+05         0.00000E+00
    0.00000E+00         0.00000E+00         0.00000E+00
 
    0.21906E+05         0.88686E+05         0.00000E+00
    0.88686E+05        -0.21251E+05         0.00000E+00
    0.00000E+00         0.00000E+00         0.00000E+00
 
    0.68985E+04         0.67699E+05         0.00000E+00
    0.67699E+05        -0.61837E+04         0.00000E+00
    0.00000E+00         0.00000E+00         0.00000E+00
 
    0.77985E+03         0.49545E+05         0.00000E+00
    0.49545E+05         0.24664E+03         0.00000E+00
    0.00000E+00         0.00000E+00         0.00000E+00
 
    0.54138E+06         0.31111E+05         0.00000E+00
    0.31111E+05        -0.53660E+06         0.00000E+00
    0.00000E+00         0.00000E+00         0.00000E+00
 
    0.50504E+06         0.85626E+05         0.00000E+00
    0.85626E+05        -0.50598E+06         0.00000E+00
    0.00000E+00         0.00000E+00         0.00000E+00
 
    0.46073E+06         0.12828E+06         0.00000E+00
    0.12828E+06        -0.46145E+06         0.00000E+00
    0.00000E+00         0.00000E+00         0.00000E+00
 
    0.41117E+06         0.15946E+06         0.00000E+00
    0.15946E+06        -0.41155E+06         0.00000E+00
    0.00000E+00         0.00000E+00         0.00000E+00
 
    0.35866E+06         0.18028E+06         0.00000E+00
    0.18028E+06        -0.35889E+06         0.00000E+00
    0.00000E+00         0.00000E+00         0.00000E+00
 
    0.30509E+06         0.19188E+06         0.00000E+00
    0.19188E+06        -0.30519E+06         0.00000E+00
    0.00000E+00         0.00000E+00         0.00000E+00
 
    0.25204E+06         0.19535E+06         0.00000E+00
    0.19535E+06        -0.25203E+06         0.00000E+00
    0.00000E+00         0.00000E+00         0.00000E+00
 
    0.20085E+06         0.19167E+06         0.00000E+00
    0.19167E+06        -0.20076E+06         0.00000E+00
    0.00000E+00         0.00000E+00         0.00000E+00
 
    0.15277E+06         0.18175E+06         0.00000E+00
    0.18175E+06        -0.15258E+06         0.00000E+00
    0.00000E+00         0.00000E+00         0.00000E+00
 
    0.10897E+06         0.16642E+06         0.00000E+00
    0.16642E+06        -0.10868E+06         0.00000E+00
    0.00000E+00         0.00000E+00         0.00000E+00
 
    0.70689E+05         0.14659E+06         0.00000E+00
    0.14659E+06        -0.70275E+05         0.00000E+00
    0.00000E+00         0.00000E+00         0.00000E+00
 
    0.39210E+05         0.12330E+06         0.00000E+00
    0.12330E+06        -0.38650E+05         0.00000E+00
    0.00000E+00         0.00000E+00         0.00000E+00
 
    0.15884E+05         0.97961E+05         0.00000E+00
    0.97961E+05        -0.15190E+05         0.00000E+00
    0.00000E+00         0.00000E+00         0.00000E+00
 
    0.20380E+04         0.72493E+05         0.00000E+00
    0.72493E+05        -0.12461E+04         0.00000E+00
    0.00000E+00         0.00000E+00         0.00000E+00
 
   -0.11773E+04         0.49341E+05         0.00000E+00
    0.49341E+05         0.27538E+04         0.00000E+00
    0.00000E+00         0.00000E+00         0.00000E+00
 
    0.57403E+06         0.34800E+05         0.00000E+00
    0.34800E+05        -0.56752E+06         0.00000E+00
    0.00000E+00         0.00000E+00         0.00000E+00
 
    0.53096E+06         0.95365E+05         0.00000E+00
    0.95365E+05        -0.53184E+06         0.00000E+00
    0.00000E+00         0.00000E+00         0.00000E+00
 
    0.48069E+06         0.14225E+06         0.00000E+00
    0.14225E+06        -0.48136E+06         0.00000E+00
    0.00000E+00         0.00000E+00         0.00000E+00
 
    0.42606E+06         0.17616E+06         0.00000E+00
    0.17616E+06        -0.42636E+06         0.00000E+00
    0.00000E+00         0.00000E+00         0.00000E+00
 
    0.36935E+06         0.19859E+06         0.00000E+00
    0.19859E+06        -0.36952E+06         0.00000E+00
    0.00000E+00         0.00000E+00         0.00000E+00
 
    0.31236E+06         0.21100E+06         0.00000E+00
    0.21100E+06        -0.31244E+06         0.00000E+00
    0.00000E+00         0.00000E+00         0.00000E+00
 
    0.25653E+06         0.21468E+06         0.00000E+00
    0.21468E+06        -0.25653E+06         0.00000E+00
    0.00000E+00         0.00000E+00         0.00000E+00
 
    0.20302E+06         0.21076E+06         0.00000E+00
    0.21076E+06        -0.20297E+06         0.00000E+00
    0.00000E+00         0.00000E+00         0.00000E+00
 
    0.15291E+06         0.20013E+06         0.00000E+00
    0.20013E+06        -0.15279E+06         0.00000E+00
    0.00000E+00         0.00000E+00         0.00000E+00
 
    0.10729E+06         0.18357E+06         0.00000E+00
    0.18357E+06        -0.10708E+06         0.00000E+00
    0.00000E+00         0.00000E+00         0.00000E+00
 
    0.67407E+05         0.16181E+06         0.00000E+00
    0.16181E+06        -0.67060E+05         0.00000E+00
    0.00000E+00         0.00000E+00         0.00000E+00
 
    0.34699E+05         0.13574E+06         0.00000E+00
    0.13574E+06        -0.34169E+05         0.00000E+00
    0.00000E+00         0.00000E+00         0.00000E+00
 
    0.10846E+05         0.10659E+06         0.00000E+00
    0.10659E+06        -0.10131E+05         0.00000E+00
    0.00000E+00         0.00000E+00         0.00000E+00
 
   -0.23245E+04         0.76227E+05         0.00000E+00
    0.76227E+05         0.31921E+04         0.00000E+00
    0.00000E+00         0.00000E+00         0.00000E+00
 
   -0.30021E+04         0.47194E+05         0.00000E+00
    0.47194E+05         0.51363E+04         0.00000E+00
    0.00000E+00         0.00000E+00         0.00000E+00
 
    0.61025E+06         0.38244E+05         0.00000E+00
    0.38244E+05        -0.60164E+06         0.00000E+00
    0.00000E+00         0.00000E+00         0.00000E+00
 
    0.55947E+06         0.10428E+06         0.00000E+00
    0.10428E+06        -0.56025E+06         0.00000E+00
    0.00000E+00         0.00000E+00         0.00000E+00
 
    0.50266E+06         0.15475E+06         0.00000E+00
    0.15475E+06        -0.50324E+06         0.00000E+00
    0.00000E+00         0.00000E+00         0.00000E+00
 
    0.44270E+06         0.19078E+06         0.00000E+00
    0.19078E+06        -0.44288E+06         0.00000E+00
    0.00000E+00         0.00000E+00         0.00000E+00
 
    0.38181E+06         0.21434E+06         0.00000E+00
    0.21434E+06        -0.38191E+06         0.00000E+00
    0.00000E+00         0.00000E+00         0.00000E+00
 
    0.32165E+06         0.22726E+06         0.00000E+00
    0.22726E+06        -0.32169E+06         0.00000E+00
    0.00000E+00         0.00000E+00         0.00000E+00
 
    0.26338E+06         0.23112E+06         0.00000E+00
    0.23112E+06        -0.26340E+06         0.00000E+00
    0.00000E+00         0.00000E+00         0.00000E+00
 
    0.20792E+06         0.22714E+06         0.00000E+00
    0.22714E+06        -0.20793E+06         0.00000E+00
    0.00000E+00         0.00000E+00         0.00000E+00
 
    0.15607E+06         0.21623E+06         0.00000E+00
    0.21623E+06        -0.15605E+06         0.00000E+00
    0.00000E+00         0.00000E+00         0.00000E+00
 
    0.10872E+06         0.19900E+06         0.00000E+00
    0.19900E+06        -0.10863E+06         0.00000E+00
    0.00000E+00         0.00000E+00         0.00000E+00
 
    0.67080E+05         0.17591E+06         0.00000E+00
    0.17591E+06        -0.66847E+05         0.00000E+00
    0.00000E+00         0.00000E+00         0.00000E+00
 
    0.32719E+05         0.14751E+06         0.00000E+00
    0.14751E+06        -0.32264E+05         0.00000E+00
    0.00000E+00         0.00000E+00         0.00000E+00
 
    0.76795E+04         0.11472E+06         0.00000E+00
    0.11472E+06        -0.69765E+04         0.00000E+00
    0.00000E+00         0.00000E+00         0.00000E+00
 
   -0.56031E+04         0.79145E+05         0.00000E+00
    0.79145E+05         0.65382E+04         0.00000E+00
    0.00000E+00         0.00000E+00         0.00000E+00
 
   -0.44898E+04         0.43322E+05         0.00000E+00
    0.43322E+05         0.71522E+04         0.00000E+00
    0.00000E+00         0.00000E+00         0.00000E+00
 
    0.64973E+06         0.41284E+05         0.00000E+00
    0.41284E+05        -0.63863E+06         0.00000E+00
    0.00000E+00         0.00000E+00         0.00000E+00
 
    0.59025E+06         0.11191E+06         0.00000E+00
    0.11191E+06        -0.59087E+06         0.00000E+00
    0.00000E+00         0.00000E+00         0.00000E+00
 
    0.52636E+06         0.16506E+06         0.00000E+00
    0.16506E+06        -0.52681E+06         0.00000E+00
    0.00000E+00         0.00000E+00         0.00000E+00
 
    0.46095E+06         0.20237E+06         0.00000E+00
    0.20237E+06        -0.46097E+06         0.00000E+00
    0.00000E+00         0.00000E+00         0.00000E+00
 
    0.39613E+06         0.22639E+06         0.00000E+00
    0.22639E+06        -0.39612E+06         0.00000E+00
    0.00000E+00         0.00000E+00         0.00000E+00
 
    0.33329E+06         0.23942E+06         0.00000E+00
    0.23942E+06        -0.33329E+06         0.00000E+00
    0.00000E+00         0.00000E+00         0.00000E+00
 
    0.27326E+06         0.24337E+06         0.00000E+00
    0.24337E+06        -0.27330E+06         0.00000E+00
    0.00000E+00         0.00000E+00         0.00000E+00
 
    0.21652E+06         0.23963E+06         0.00000E+00
    0.23963E+06        -0.21661E+06         0.00000E+00
    0.00000E+00         0.00000E+00         0.00000E+00
 
    0.16346E+06         0.22904E+06         0.00000E+00
    0.22904E+06        -0.16358E+06         0.00000E+00
    0.00000E+00         0.00000E+00         0.00000E+00
 
    0.11467E+06         0.21198E+06         0.00000E+00
    0.21198E+06        -0.11475E+06         0.00000E+00
    0.00000E+00         0.00000E+00         0.00000E+00
 
    0.71179E+05         0.18848E+06         0.00000E+00
    0.18848E+06        -0.71126E+05         0.00000E+00
    0.00000E+00         0.00000E+00         0.00000E+00
 
    0.34659E+05         0.15856E+06         0.00000E+00
    0.15856E+06        -0.34344E+05         0.00000E+00
    0.00000E+00         0.00000E+00         0.00000E+00
 
    0.75385E+04         0.12258E+06         0.00000E+00
    0.12258E+06        -0.68961E+04         0.00000E+00
    0.00000E+00         0.00000E+00         0.00000E+00
 
   -0.70289E+04         0.81673E+05         0.00000E+00
    0.81673E+05         0.80131E+04         0.00000E+00
    0.00000E+00         0.00000E+00         0.00000E+00
 
   -0.53688E+04         0.38174E+05         0.00000E+00
    0.38174E+05         0.84790E+04         0.00000E+00
    0.00000E+00         0.00000E+00         0.00000E+00
 
    0.69199E+06         0.43734E+05         0.00000E+00
    0.43734E+05        -0.67797E+06         0.00000E+00
    0.00000E+00         0.00000E+00         0.00000E+00
 
    0.62279E+06         0.11771E+06         0.00000E+00
    0.11771E+06        -0.62320E+06         0.00000E+00
    0.00000E+00         0.00000E+00         0.00000E+00
 
    0.55135E+06         0.17230E+06         0.00000E+00
    0.17230E+06        -0.55162E+06         0.00000E+00
    0.00000E+00         0.00000E+00         0.00000E+00
 
    0.48055E+06         0.20974E+06         0.00000E+00
    0.20974E+06        -0.48037E+06         0.00000E+00
    0.00000E+00         0.00000E+00         0.00000E+00
 
    0.41230E+06         0.23331E+06         0.00000E+00
    0.23331E+06        -0.41214E+06         0.00000E+00
    0.00000E+00         0.00000E+00         0.00000E+00
 
    0.34764E+06         0.24590E+06         0.00000E+00
    0.24590E+06        -0.34757E+06         0.00000E+00
    0.00000E+00         0.00000E+00         0.00000E+00
 
    0.28689E+06         0.24983E+06         0.00000E+00
    0.24983E+06        -0.28695E+06         0.00000E+00
    0.00000E+00         0.00000E+00         0.00000E+00
 
    0.22993E+06         0.24669E+06         0.00000E+00
    0.24669E+06        -0.23014E+06         0.00000E+00
    0.00000E+00         0.00000E+00         0.00000E+00
 
    0.17656E+06         0.23726E+06         0.00000E+00
    0.23726E+06        -0.17688E+06         0.00000E+00
    0.00000E+00         0.00000E+00         0.00000E+00
 
    0.12686E+06         0.22154E+06         0.00000E+00
    0.22154E+06        -0.12719E+06         0.00000E+00
    0.00000E+00         0.00000E+00         0.00000E+00
 
    0.81539E+05         0.19898E+06         0.00000E+00
    0.19898E+06        -0.81751E+05         0.00000E+00
    0.00000E+00         0.00000E+00         0.00000E+00
 
    0.42280E+05         0.16880E+06         0.00000E+00
    0.16880E+06        -0.42191E+05         0.00000E+00
    0.00000E+00         0.00000E+00         0.00000E+00
 
    0.11902E+05         0.13052E+06         0.00000E+00
    0.13052E+06        -0.11391E+05         0.00000E+00
    0.00000E+00         0.00000E+00         0.00000E+00
 
   -0.56020E+04         0.84467E+05         0.00000E+00
    0.84467E+05         0.66035E+04         0.00000E+00
    0.00000E+00         0.00000E+00         0.00000E+00
 
   -0.52829E+04         0.32509E+05         0.00000E+00
    0.32509E+05         0.86910E+04         0.00000E+00
    0.00000E+00         0.00000E+00         0.00000E+00
 
    0.73633E+06         0.45380E+05         0.00000E+00
    0.45380E+05        -0.71895E+06         0.00000E+00
    0.00000E+00         0.00000E+00         0.00000E+00
 
    0.65639E+06         0.12107E+06         0.00000E+00
    0.12107E+06        -0.65652E+06         0.00000E+00
    0.00000E+00         0.00000E+00         0.00000E+00
 
    0.57703E+06         0.17544E+06         0.00000E+00
    0.17544E+06        -0.57705E+06         0.00000E+00
    0.00000E+00         0.00000E+00         0.00000E+00
 
    0.50108E+06         0.21150E+06         0.00000E+00
    0.21150E+06        -0.50061E+06         0.00000E+00
    0.00000E+00         0.00000E+00         0.00000E+00
 
    0.43020E+06         0.23337E+06         0.00000E+00
    0.23337E+06        -0.42984E+06         0.00000E+00
    0.00000E+00         0.00000E+00         0.00000E+00
 
    0.36497E+06         0.24473E+06         0.00000E+00
    0.24473E+06        -0.36480E+06         0.00000E+00
    0.00000E+00         0.00000E+00         0.00000E+00
 
    0.30503E+06         0.24845E+06         0.00000E+00
    0.24845E+06        -0.30511E+06         0.00000E+00
    0.00000E+00         0.00000E+00         0.00000E+00
 
    0.24944E+06         0.24638E+06         0.00000E+00
    0.24638E+06        -0.24979E+06         0.00000E+00
    0.00000E+00         0.00000E+00         0.00000E+00
 
    0.19712E+06         0.23919E+06         0.00000E+00
    0.23919E+06        -0.19770E+06         0.00000E+00
    0.00000E+00         0.00000E+00         0.00000E+00
 
    0.14738E+06         0.22643E+06         0.00000E+00
    0.22643E+06        -0.14806E+06         0.00000E+00
    0.00000E+00         0.00000E+00         0.00000E+00
 
    0.10043E+06         0.20671E+06         0.00000E+00
    0.20671E+06        -0.10101E+06         0.00000E+00
    0.00000E+00         0.00000E+00         0.00000E+00
 
    0.57786E+05         0.17816E+06         0.00000E+00
    0.17816E+06        -0.58042E+05         0.00000E+00
    0.00000E+00         0.00000E+00         0.00000E+00
 
    0.22651E+05         0.13904E+06         0.00000E+00
    0.13904E+06        -0.22368E+05         0.00000E+00
    0.00000E+00         0.00000E+00         0.00000E+00
 
   -0.36082E+02         0.88478E+05         0.00000E+00
    0.88478E+05         0.10047E+04         0.00000E+00
    0.00000E+00         0.00000E+00         0.00000E+00
 
   -0.37695E+04         0.27487E+05         0.00000E+00
    0.27487E+05         0.72331E+04         0.00000E+00
    0.00000E+00         0.00000E+00         0.00000E+00
 
    0.78184E+06         0.45996E+05         0.00000E+00
    0.45996E+05        -0.76063E+06         0.00000E+00
    0.00000E+00         0.00000E+00         0.00000E+00
 
    0.69013E+06         0.12129E+06         0.00000E+00
    0.12129E+06        -0.68990E+06         0.00000E+00
    0.00000E+00         0.00000E+00         0.00000E+00
 
    0.60253E+06         0.17333E+06         0.00000E+00
    0.17333E+06        -0.60222E+06         0.00000E+00
    0.00000E+00         0.00000E+00         0.00000E+00
 
    0.52186E+06         0.20599E+06         0.00000E+00
    0.20599E+06        -0.52103E+06         0.00000E+00
    0.00000E+00         0.00000E+00         0.00000E+00
 
    0.44951E+06         0.22452E+06         0.00000E+00
    0.22452E+06        -0.44888E+06         0.00000E+00
    0.00000E+00         0.00000E+00         0.00000E+00
 
    0.38547E+06         0.23355E+06         0.00000E+00
    0.23355E+06        -0.38516E+06         0.00000E+00
    0.00000E+00         0.00000E+00         0.00000E+00
 
    0.32848E+06         0.23672E+06         0.00000E+00
    0.23672E+06        -0.32857E+06         0.00000E+00
    0.00000E+00         0.00000E+00         0.00000E+00
 
    0.27647E+06         0.23624E+06         0.00000E+00
    0.23624E+06        -0.27700E+06         0.00000E+00
    0.00000E+00         0.00000E+00         0.00000E+00
 
    0.22716E+06         0.23271E+06         0.00000E+00
    0.23271E+06        -0.22807E+06         0.00000E+00
    0.00000E+00         0.00000E+00         0.00000E+00
 
    0.17875E+06         0.22504E+06         0.00000E+00
    0.22504E+06        -0.17988E+06         0.00000E+00
    0.00000E+00         0.00000E+00         0.00000E+00
 
    0.13060E+06         0.21076E+06         0.00000E+00
    0.21076E+06        -0.13171E+06         0.00000E+00
    0.00000E+00         0.00000E+00         0.00000E+00
 
    0.83910E+05         0.18652E+06         0.00000E+00
    0.18652E+06        -0.84664E+05         0.00000E+00
    0.00000E+00         0.00000E+00         0.00000E+00
 
    0.42144E+05         0.14882E+06         0.00000E+00
    0.14882E+06        -0.42226E+05         0.00000E+00
    0.00000E+00         0.00000E+00         0.00000E+00
 
    0.11306E+05         0.95027E+05         0.00000E+00
    0.95027E+05        -0.10446E+05         0.00000E+00
    0.00000E+00         0.00000E+00         0.00000E+00
 
   -0.23502E+03         0.24787E+05         0.00000E+00
    0.24787E+05         0.33883E+04         0.00000E+00
    0.00000E+00         0.00000E+00         0.00000E+00
 
    0.82737E+06         0.45361E+05         0.00000E+00
    0.45361E+05        -0.80187E+06         0.00000E+00
    0.00000E+00         0.00000E+00         0.00000E+00
 
    0.72281E+06         0.11768E+06         0.00000E+00
    0.11768E+06        -0.72213E+06         0.00000E+00
    0.00000E+00         0.00000E+00         0.00000E+00
 
    0.62669E+06         0.16470E+06         0.00000E+00
    0.16470E+06        -0.62594E+06         0.00000E+00
    0.00000E+00         0.00000E+00         0.00000E+00
 
    0.54191E+06         0.19137E+06         0.00000E+00
    0.19137E+06        -0.54061E+06         0.00000E+00
    0.00000E+00         0.00000E+00         0.00000E+00
 
    0.46966E+06         0.20430E+06         0.00000E+00
    0.20430E+06        -0.46866E+06         0.00000E+00
    0.00000E+00         0.00000E+00         0.00000E+00
 
    0.40917E+06         0.20948E+06         0.00000E+00
    0.20948E+06        -0.40864E+06         0.00000E+00
    0.00000E+00         0.00000E+00         0.00000E+00
 
    0.35800E+06         0.21156E+06         0.00000E+00
    0.21156E+06        -0.35809E+06         0.00000E+00
    0.00000E+00         0.00000E+00         0.00000E+00
 
    0.31259E+06         0.21328E+06         0.00000E+00
    0.21328E+06        -0.31334E+06         0.00000E+00
    0.00000E+00         0.00000E+00         0.00000E+00
 
    0.26901E+06         0.21515E+06         0.00000E+00
    0.21515E+06        -0.27035E+06         0.00000E+00
    0.00000E+00         0.00000E+00         0.00000E+00
 
    0.22390E+06         0.21534E+06         0.00000E+00
    0.21534E+06        -0.22562E+06         0.00000E+00
    0.00000E+00         0.00000E+00         0.00000E+00
 
    0.17540E+06         0.20998E+06         0.00000E+00
    0.20998E+06        -0.17719E+06         0.00000E+00
    0.00000E+00         0.00000E+00         0.00000E+00
 
    0.12400E+06         0.19373E+06         0.00000E+00
    0.19373E+06        -0.12545E+06         0.00000E+00
    0.00000E+00         0.00000E+00         0.00000E+00
 
    0.73326E+05         0.16076E+06         0.00000E+00
    0.16076E+06        -0.73946E+05         0.00000E+00
    0.00000E+00         0.00000E+00         0.00000E+00
 
    0.30492E+05         0.10590E+06         0.00000E+00
    0.10590E+06        -0.29846E+05         0.00000E+00
    0.00000E+00         0.00000E+00         0.00000E+00
 
    0.60776E+04         0.26754E+05         0.00000E+00
    0.26754E+05        -0.37604E+04         0.00000E+00
    0.00000E+00         0.00000E+00         0.00000E+00
 
    0.87155E+06         0.43286E+05         0.00000E+00
    0.43286E+05        -0.84128E+06         0.00000E+00
    0.00000E+00         0.00000E+00         0.00000E+00
 
    0.75292E+06         0.10956E+06         0.00000E+00
    0.10956E+06        -0.75170E+06         0.00000E+00
    0.00000E+00         0.00000E+00         0.00000E+00
 
    0.64792E+06         0.14821E+06         0.00000E+00
    0.14821E+06        -0.64663E+06         0.00000E+00
    0.00000E+00         0.00000E+00         0.00000E+00
 
    0.55986E+06         0.16551E+06         0.00000E+00
    0.16551E+06        -0.55794E+06         0.00000E+00
    0.00000E+00         0.00000E+00         0.00000E+00
 
    0.48971E+06         0.16989E+06         0.00000E+00
    0.16989E+06        -0.48824E+06         0.00000E+00
    0.00000E+00         0.00000E+00         0.00000E+00
 
    0.43586E+06         0.16914E+06         0.00000E+00
    0.16914E+06        -0.43506E+06         0.00000E+00
    0.00000E+00         0.00000E+00         0.00000E+00
 
    0.39431E+06         0.16931E+06         0.00000E+00
    0.16931E+06        -0.39437E+06         0.00000E+00
    0.00000E+00         0.00000E+00         0.00000E+00
 
    0.35950E+06         0.17387E+06         0.00000E+00
    0.17387E+06        -0.36050E+06         0.00000E+00
    0.00000E+00         0.00000E+00         0.00000E+00
 
    0.32531E+06         0.18329E+06         0.00000E+00
    0.18329E+06        -0.32717E+06         0.00000E+00
    0.00000E+00         0.00000E+00         0.00000E+00
 
    0.28627E+06         0.19483E+06         0.00000E+00
    0.19483E+06        -0.28874E+06         0.00000E+00
    0.00000E+00         0.00000E+00         0.00000E+00
 
    0.23873E+06         0.20288E+06         0.00000E+00
    0.20288E+06        -0.24143E+06         0.00000E+00
    0.00000E+00         0.00000E+00         0.00000E+00
 
    0.18209E+06         0.19959E+06         0.00000E+00
    0.19959E+06        -0.18448E+06         0.00000E+00
    0.00000E+00         0.00000E+00         0.00000E+00
 
    0.11979E+06         0.17598E+06         0.00000E+00
    0.17598E+06        -0.12119E+06         0.00000E+00
    0.00000E+00         0.00000E+00         0.00000E+00
 
    0.60088E+05         0.12343E+06         0.00000E+00
    0.12343E+06        -0.59814E+05         0.00000E+00
    0.00000E+00         0.00000E+00         0.00000E+00
 
    0.16116E+05         0.36573E+05         0.00000E+00
    0.36573E+05        -0.15373E+05         0.00000E+00
    0.00000E+00         0.00000E+00         0.00000E+00
 
    0.91280E+06         0.39658E+05         0.00000E+00
    0.39658E+05        -0.87730E+06         0.00000E+00
    0.00000E+00         0.00000E+00         0.00000E+00
 
    0.77863E+06         0.96369E+05         0.00000E+00
    0.96369E+05        -0.77676E+06         0.00000E+00
    0.00000E+00         0.00000E+00         0.00000E+00
 
    0.66425E+06         0.12250E+06         0.00000E+00
    0.12250E+06        -0.66223E+06         0.00000E+00
    0.00000E+00         0.00000E+00         0.00000E+00
 
    0.57385E+06         0.12605E+06         0.00000E+00
    0.12605E+06        -0.57113E+06         0.00000E+00
    0.00000E+00         0.00000E+00         0.00000E+00
 
    0.50841E+06         0.11799E+06         0.00000E+00
    0.11799E+06        -0.50630E+06         0.00000E+00
    0.00000E+00         0.00000E+00         0.00000E+00
 
    0.46517E+06         0.10857E+06         0.00000E+00
    0.10857E+06        -0.46400E+06         0.00000E+00
    0.00000E+00         0.00000E+00         0.00000E+00
 
    0.43810E+06         0.10568E+06         0.00000E+00
    0.10568E+06        -0.43811E+06         0.00000E+00
    0.00000E+00         0.00000E+00         0.00000E+00
 
    0.41902E+06         0.11378E+06         0.00000E+00
    0.11378E+06        -0.42031E+06         0.00000E+00
    0.00000E+00         0.00000E+00         0.00000E+00
 
    0.39899E+06         0.13331E+06         0.00000E+00
    0.13331E+06        -0.40146E+06         0.00000E+00
    0.00000E+00         0.00000E+00         0.00000E+00
 
    0.36975E+06         0.16049E+06         0.00000E+00
    0.16049E+06        -0.37312E+06         0.00000E+00
    0.00000E+00         0.00000E+00         0.00000E+00
 
    0.32520E+06         0.18765E+06         0.00000E+00
    0.18765E+06        -0.32902E+06         0.00000E+00
    0.00000E+00         0.00000E+00         0.00000E+00
 
    0.26299E+06         0.20380E+06         0.00000E+00
    0.20380E+06        -0.26661E+06         0.00000E+00
    0.00000E+00         0.00000E+00         0.00000E+00
 
    0.18594E+06         0.19590E+06         0.00000E+00
    0.19590E+06        -0.18841E+06         0.00000E+00
    0.00000E+00         0.00000E+00         0.00000E+00
 
    0.10329E+06         0.15066E+06         0.00000E+00
    0.15066E+06        -0.10359E+06         0.00000E+00
    0.00000E+00         0.00000E+00         0.00000E+00
 
    0.31075E+05         0.58486E+05         0.00000E+00
    0.58486E+05        -0.32907E+05         0.00000E+00
    0.00000E+00         0.00000E+00         0.00000E+00
 
    0.94949E+06         0.34476E+05         0.00000E+00
    0.34476E+05        -0.90822E+06         0.00000E+00
    0.00000E+00         0.00000E+00         0.00000E+00
 
    0.79772E+06         0.77646E+05         0.00000E+00
    0.77646E+05        -0.79508E+06         0.00000E+00
    0.00000E+00         0.00000E+00         0.00000E+00
 
    0.67308E+06         0.86090E+05         0.00000E+00
    0.86090E+05        -0.67013E+06         0.00000E+00
    0.00000E+00         0.00000E+00         0.00000E+00
 
    0.58149E+06         0.70264E+05         0.00000E+00
    0.70264E+05        -0.57776E+06         0.00000E+00
    0.00000E+00         0.00000E+00         0.00000E+00
 
    0.52409E+06         0.44764E+05         0.00000E+00
    0.44764E+05        -0.52121E+06         0.00000E+00
    0.00000E+00         0.00000E+00         0.00000E+00
 
    0.49653E+06         0.23204E+05         0.00000E+00
    0.23204E+05        -0.49494E+06         0.00000E+00
    0.00000E+00         0.00000E+00         0.00000E+00
 
    0.49004E+06         0.15847E+05         0.00000E+00
    0.15847E+05        -0.49002E+06         0.00000E+00
    0.00000E+00         0.00000E+00         0.00000E+00
 
    0.49307E+06         0.28290E+05         0.00000E+00
    0.28290E+05        -0.49471E+06         0.00000E+00
    0.00000E+00         0.00000E+00         0.00000E+00
 
    0.49314E+06         0.60924E+05         0.00000E+00
    0.60924E+05        -0.49633E+06         0.00000E+00
    0.00000E+00         0.00000E+00         0.00000E+00
 
    0.47851E+06         0.10885E+06         0.00000E+00
    0.10885E+06        -0.48296E+06         0.00000E+00
    0.00000E+00         0.00000E+00         0.00000E+00
 
    0.43987E+06         0.16206E+06         0.00000E+00
    0.16206E+06        -0.44507E+06         0.00000E+00
    0.00000E+00         0.00000E+00         0.00000E+00
 
    0.37222E+06         0.20589E+06         0.00000E+00
    0.20589E+06        -0.37744E+06         0.00000E+00
    0.00000E+00         0.00000E+00         0.00000E+00
 
    0.27697E+06         0.22219E+06         0.00000E+00
    0.22219E+06        -0.28091E+06         0.00000E+00
    0.00000E+00         0.00000E+00         0.00000E+00
 
    0.16397E+06         0.19144E+06         0.00000E+00
    0.19144E+06        -0.16514E+06         0.00000E+00
    0.00000E+00         0.00000E+00         0.00000E+00
 
    0.52416E+05         0.98044E+05         0.00000E+00
    0.98044E+05        -0.58181E+05         0.00000E+00
    0.00000E+00         0.00000E+00         0.00000E+00
 
    0.98001E+06         0.27888E+05         0.00000E+00
    0.27888E+05        -0.93227E+06         0.00000E+00
    0.00000E+00         0.00000E+00         0.00000E+00
 
    0.80754E+06         0.53124E+05         0.00000E+00
    0.53124E+05        -0.80396E+06         0.00000E+00
    0.00000E+00         0.00000E+00         0.00000E+00
 
    0.67119E+06         0.37316E+05         0.00000E+00
    0.37316E+05        -0.66707E+06         0.00000E+00
    0.00000E+00         0.00000E+00         0.00000E+00
 
    0.57993E+06        -0.51814E+04         0.00000E+00
   -0.51814E+04        -0.57496E+06         0.00000E+00
    0.00000E+00         0.00000E+00         0.00000E+00
 
    0.53500E+06        -0.54363E+05         0.00000E+00
   -0.54363E+05        -0.53125E+06         0.00000E+00
    0.00000E+00         0.00000E+00         0.00000E+00
 
    0.52963E+06        -0.92077E+05         0.00000E+00
   -0.92077E+05        -0.52765E+06         0.00000E+00
    0.00000E+00         0.00000E+00         0.00000E+00
 
    0.55115E+06        -0.10531E+06         0.00000E+00
   -0.10531E+06        -0.55118E+06         0.00000E+00
    0.00000E+00         0.00000E+00         0.00000E+00
 
    0.58379E+06        -0.87436E+05         0.00000E+00
   -0.87436E+05        -0.58586E+06         0.00000E+00
    0.00000E+00         0.00000E+00         0.00000E+00
 
    0.61093E+06        -0.38272E+05         0.00000E+00
   -0.38272E+05        -0.61492E+06         0.00000E+00
    0.00000E+00         0.00000E+00         0.00000E+00
 
    0.61683E+06         0.36131E+05         0.00000E+00
    0.36131E+05        -0.62247E+06         0.00000E+00
    0.00000E+00         0.00000E+00         0.00000E+00
 
    0.58811E+06         0.12346E+06         0.00000E+00
    0.12346E+06        -0.59493E+06         0.00000E+00
    0.00000E+00         0.00000E+00         0.00000E+00
 
    0.51596E+06         0.20509E+06         0.00000E+00
    0.20509E+06        -0.52319E+06         0.00000E+00
    0.00000E+00         0.00000E+00         0.00000E+00
 
    0.39905E+06         0.25670E+06         0.00000E+00
    0.25670E+06        -0.40495E+06         0.00000E+00
    0.00000E+00         0.00000E+00         0.00000E+00
 
    0.24689E+06         0.25048E+06         0.00000E+00
    0.25048E+06        -0.24934E+06         0.00000E+00
    0.00000E+00         0.00000E+00         0.00000E+00
 
    0.81983E+05         0.16242E+06         0.00000E+00
    0.16242E+06        -0.93480E+05         0.00000E+00
    0.00000E+00         0.00000E+00         0.00000E+00
 
    0.10027E+07         0.20281E+05         0.00000E+00
    0.20281E+05        -0.94767E+06         0.00000E+00
    0.00000E+00         0.00000E+00         0.00000E+00
 
    0.80486E+06         0.22498E+05         0.00000E+00
    0.22498E+05        -0.80008E+06         0.00000E+00
    0.00000E+00         0.00000E+00         0.00000E+00
 
    0.65479E+06        -0.26232E+05         0.00000E+00
   -0.26232E+05        -0.64908E+06         0.00000E+00
    0.00000E+00         0.00000E+00         0.00000E+00
 
    0.56626E+06        -0.10479E+06         0.00000E+00
   -0.10479E+06        -0.55974E+06         0.00000E+00
    0.00000E+00         0.00000E+00         0.00000E+00
 
    0.54008E+06        -0.18498E+06         0.00000E+00
   -0.18498E+06        -0.53543E+06         0.00000E+00
    0.00000E+00         0.00000E+00         0.00000E+00
 
    0.56520E+06        -0.24276E+06         0.00000E+00
   -0.24276E+06        -0.56297E+06         0.00000E+00
    0.00000E+00         0.00000E+00         0.00000E+00
 
    0.62336E+06        -0.26253E+06         0.00000E+00
   -0.26253E+06        -0.62360E+06         0.00000E+00
    0.00000E+00         0.00000E+00         0.00000E+00
 
    0.69368E+06        -0.23745E+06         0.00000E+00
   -0.23745E+06        -0.69623E+06         0.00000E+00
    0.00000E+00         0.00000E+00         0.00000E+00
 
    0.75530E+06        -0.16805E+06         0.00000E+00
   -0.16805E+06        -0.76000E+06         0.00000E+00
    0.00000E+00         0.00000E+00         0.00000E+00
 
    0.78842E+06        -0.61349E+05         0.00000E+00
   -0.61349E+05        -0.79515E+06         0.00000E+00
    0.00000E+00         0.00000E+00         0.00000E+00
 
    0.77500E+06         0.68729E+05         0.00000E+00
    0.68729E+05        -0.78348E+06         0.00000E+00
    0.00000E+00         0.00000E+00         0.00000E+00
 
    0.70075E+06         0.20001E+06         0.00000E+00
    0.20001E+06        -0.71034E+06         0.00000E+00
    0.00000E+00         0.00000E+00         0.00000E+00
 
    0.55929E+06         0.30116E+06         0.00000E+00
    0.30116E+06        -0.56777E+06         0.00000E+00
    0.00000E+00         0.00000E+00         0.00000E+00
 
    0.35791E+06         0.33347E+06         0.00000E+00
    0.33347E+06        -0.36224E+06         0.00000E+00
    0.00000E+00         0.00000E+00         0.00000E+00
 
    0.12210E+06         0.26080E+06         0.00000E+00
    0.26080E+06        -0.14174E+06         0.00000E+00
    0.00000E+00         0.00000E+00         0.00000E+00
 
    0.10176E+07         0.12197E+05         0.00000E+00
    0.12197E+05        -0.95205E+06         0.00000E+00
    0.00000E+00         0.00000E+00         0.00000E+00
 
    0.78630E+06        -0.15209E+05         0.00000E+00
   -0.15209E+05        -0.77945E+06         0.00000E+00
    0.00000E+00         0.00000E+00         0.00000E+00
 
    0.61976E+06        -0.10861E+06         0.00000E+00
   -0.10861E+06        -0.61161E+06         0.00000E+00
    0.00000E+00         0.00000E+00         0.00000E+00
 
    0.53834E+06        -0.23531E+06         0.00000E+00
   -0.23531E+06        -0.52992E+06         0.00000E+00
    0.00000E+00         0.00000E+00         0.00000E+00
 
    0.54035E+06        -0.35415E+06         0.00000E+00
   -0.35415E+06        -0.53503E+06         0.00000E+00
    0.00000E+00         0.00000E+00         0.00000E+00
 
    0.60659E+06        -0.43412E+06         0.00000E+00
   -0.43412E+06        -0.60459E+06         0.00000E+00
    0.00000E+00         0.00000E+00         0.00000E+00
 
    0.71054E+06        -0.45878E+06         0.00000E+00
   -0.45878E+06        -0.71135E+06         0.00000E+00
    0.00000E+00         0.00000E+00         0.00000E+00
 
    0.82576E+06        -0.42326E+06         0.00000E+00
   -0.42326E+06        -0.82879E+06         0.00000E+00
    0.00000E+00         0.00000E+00         0.00000E+00
 
    0.92817E+06        -0.32998E+06         0.00000E+00
   -0.32998E+06        -0.93322E+06         0.00000E+00
    0.00000E+00         0.00000E+00         0.00000E+00
 
    0.99514E+06        -0.18631E+06         0.00000E+00
   -0.18631E+06        -0.10024E+07         0.00000E+00
    0.00000E+00         0.00000E+00         0.00000E+00
 
    0.10039E+07        -0.57953E+04         0.00000E+00
   -0.57953E+04        -0.10137E+07         0.00000E+00
    0.00000E+00         0.00000E+00         0.00000E+00
 
    0.93265E+06         0.18785E+06         0.00000E+00
    0.18785E+06        -0.94478E+06         0.00000E+00
    0.00000E+00         0.00000E+00         0.00000E+00
 
    0.76583E+06         0.35643E+06         0.00000E+00
    0.35643E+06        -0.77760E+06         0.00000E+00
    0.00000E+00         0.00000E+00         0.00000E+00
 
    0.50449E+06         0.44691E+06         0.00000E+00
    0.44691E+06        -0.51153E+06         0.00000E+00
    0.00000E+00         0.00000E+00         0.00000E+00
 
    0.17586E+06         0.40497E+06         0.00000E+00
    0.40497E+06        -0.20694E+06         0.00000E+00
    0.00000E+00         0.00000E+00         0.00000E+00
 
    0.10219E+07         0.36271E+04         0.00000E+00
    0.36271E+04        -0.94481E+06         0.00000E+00
    0.00000E+00         0.00000E+00         0.00000E+00
 
    0.74469E+06        -0.61658E+05         0.00000E+00
   -0.61658E+05        -0.73643E+06         0.00000E+00
    0.00000E+00         0.00000E+00         0.00000E+00
 
    0.55920E+06        -0.21787E+06         0.00000E+00
   -0.21787E+06        -0.54962E+06         0.00000E+00
    0.00000E+00         0.00000E+00         0.00000E+00
 
    0.49493E+06        -0.40798E+06         0.00000E+00
   -0.40798E+06        -0.48644E+06         0.00000E+00
    0.00000E+00         0.00000E+00         0.00000E+00
 
    0.54053E+06        -0.57086E+06         0.00000E+00
   -0.57086E+06        -0.53707E+06         0.00000E+00
    0.00000E+00         0.00000E+00         0.00000E+00
 
    0.66116E+06        -0.66979E+06         0.00000E+00
   -0.66979E+06        -0.66207E+06         0.00000E+00
    0.00000E+00         0.00000E+00         0.00000E+00
 
    0.81873E+06        -0.69245E+06         0.00000E+00
   -0.69245E+06        -0.82229E+06         0.00000E+00
    0.00000E+00         0.00000E+00         0.00000E+00
 
    0.98218E+06        -0.64072E+06         0.00000E+00
   -0.64072E+06        -0.98713E+06         0.00000E+00
    0.00000E+00         0.00000E+00         0.00000E+00
 
    0.11276E+07        -0.52077E+06         0.00000E+00
   -0.52077E+06        -0.11338E+07         0.00000E+00
    0.00000E+00         0.00000E+00         0.00000E+00
 
    0.12331E+07        -0.33893E+06         0.00000E+00
   -0.33893E+06        -0.12412E+07         0.00000E+00
    0.00000E+00         0.00000E+00         0.00000E+00
 
    0.12725E+07        -0.10430E+06         0.00000E+00
   -0.10430E+06        -0.12840E+07         0.00000E+00
    0.00000E+00         0.00000E+00         0.00000E+00
 
    0.12140E+07         0.16303E+06         0.00000E+00
    0.16303E+06        -0.12299E+07         0.00000E+00
    0.00000E+00         0.00000E+00         0.00000E+00
 
    0.10263E+07         0.42066E+06         0.00000E+00
    0.42066E+06        -0.10435E+07         0.00000E+00
    0.00000E+00         0.00000E+00         0.00000E+00
 
    0.69564E+06         0.59734E+06         0.00000E+00
    0.59734E+06        -0.70782E+06         0.00000E+00
    0.00000E+00         0.00000E+00         0.00000E+00
 
    0.24736E+06         0.61002E+06         0.00000E+00
    0.61002E+06        -0.29487E+06         0.00000E+00
    0.00000E+00         0.00000E+00         0.00000E+00
 
    0.10151E+07        -0.27271E+04         0.00000E+00
   -0.27271E+04        -0.91942E+06         0.00000E+00
    0.00000E+00         0.00000E+00         0.00000E+00
 
    0.67575E+06        -0.12523E+06         0.00000E+00
   -0.12523E+06        -0.66098E+06         0.00000E+00
    0.00000E+00         0.00000E+00         0.00000E+00
 
    0.47590E+06        -0.37254E+06         0.00000E+00
   -0.37254E+06        -0.46038E+06         0.00000E+00
    0.00000E+00         0.00000E+00         0.00000E+00
 
    0.45061E+06        -0.64189E+06         0.00000E+00
   -0.64189E+06        -0.43889E+06         0.00000E+00
    0.00000E+00         0.00000E+00         0.00000E+00
 
    0.56394E+06        -0.84577E+06         0.00000E+00
   -0.84577E+06        -0.56092E+06         0.00000E+00
    0.00000E+00         0.00000E+00         0.00000E+00
 
    0.75352E+06        -0.94807E+06         0.00000E+00
   -0.94807E+06        -0.75575E+06         0.00000E+00
    0.00000E+00         0.00000E+00         0.00000E+00
 
    0.96666E+06        -0.95240E+06         0.00000E+00
   -0.95240E+06        -0.97019E+06         0.00000E+00
    0.00000E+00         0.00000E+00         0.00000E+00
 
    0.11724E+07        -0.87504E+06         0.00000E+00
   -0.87504E+06        -0.11753E+07         0.00000E+00
    0.00000E+00         0.00000E+00         0.00000E+00
 
    0.13541E+07        -0.72792E+06         0.00000E+00
   -0.72792E+06        -0.13564E+07         0.00000E+00
    0.00000E+00         0.00000E+00         0.00000E+00
 
    0.14971E+07        -0.51389E+06         0.00000E+00
   -0.51389E+06        -0.15002E+07         0.00000E+00
    0.00000E+00         0.00000E+00         0.00000E+00
 
    0.15761E+07        -0.23094E+06         0.00000E+00
   -0.23094E+06        -0.15833E+07         0.00000E+00
    0.00000E+00         0.00000E+00         0.00000E+00
 
    0.15476E+07         0.11481E+06         0.00000E+00
    0.11481E+06        -0.15626E+07         0.00000E+00
    0.00000E+00         0.00000E+00         0.00000E+00
 
    0.13537E+07         0.48564E+06         0.00000E+00
    0.48564E+06        -0.13744E+07         0.00000E+00
    0.00000E+00         0.00000E+00         0.00000E+00
 
    0.94897E+06         0.78939E+06         0.00000E+00
    0.78939E+06        -0.96642E+06         0.00000E+00
    0.00000E+00         0.00000E+00         0.00000E+00
 
    0.34515E+06         0.89632E+06         0.00000E+00
    0.89632E+06        -0.41581E+06         0.00000E+00
    0.00000E+00         0.00000E+00         0.00000E+00
 
    0.10258E+07        -0.13383E+05         0.00000E+00
   -0.13383E+05        -0.85900E+06         0.00000E+00
    0.00000E+00         0.00000E+00         0.00000E+00
 
    0.57925E+06        -0.22960E+06         0.00000E+00
   -0.22960E+06        -0.54894E+06         0.00000E+00
    0.00000E+00         0.00000E+00         0.00000E+00
 
    0.37426E+06        -0.60624E+06         0.00000E+00
   -0.60624E+06        -0.34893E+06         0.00000E+00
    0.00000E+00         0.00000E+00         0.00000E+00
 
    0.42823E+06        -0.96771E+06         0.00000E+00
   -0.96771E+06        -0.41803E+06         0.00000E+00
    0.00000E+00         0.00000E+00         0.00000E+00
 
    0.64643E+06        -0.11865E+07         0.00000E+00
   -0.11865E+07        -0.65040E+06         0.00000E+00
    0.00000E+00         0.00000E+00         0.00000E+00
 
    0.91469E+06        -0.12531E+07         0.00000E+00
   -0.12531E+07        -0.92205E+06         0.00000E+00
    0.00000E+00         0.00000E+00         0.00000E+00
 
    0.11702E+07        -0.12099E+07         0.00000E+00
   -0.12099E+07        -0.11751E+07         0.00000E+00
    0.00000E+00         0.00000E+00         0.00000E+00
 
    0.13954E+07        -0.10946E+07         0.00000E+00
   -0.10946E+07        -0.13963E+07         0.00000E+00
    0.00000E+00         0.00000E+00         0.00000E+00
 
    0.15916E+07        -0.92428E+06         0.00000E+00
   -0.92428E+06        -0.15891E+07         0.00000E+00
    0.00000E+00         0.00000E+00         0.00000E+00
 
    0.17597E+07        -0.69506E+06         0.00000E+00
   -0.69506E+06        -0.17559E+07         0.00000E+00
    0.00000E+00         0.00000E+00         0.00000E+00
 
    0.18839E+07        -0.38676E+06         0.00000E+00
   -0.38676E+06        -0.18835E+07         0.00000E+00
    0.00000E+00         0.00000E+00         0.00000E+00
 
    0.19137E+07         0.24487E+05         0.00000E+00
    0.24487E+05        -0.19246E+07         0.00000E+00
    0.00000E+00         0.00000E+00         0.00000E+00
 
    0.17513E+07         0.52972E+06         0.00000E+00
    0.52972E+06        -0.17765E+07         0.00000E+00
    0.00000E+00         0.00000E+00         0.00000E+00
 
    0.12836E+07         0.10232E+07         0.00000E+00
    0.10232E+07        -0.13122E+07         0.00000E+00
    0.00000E+00         0.00000E+00         0.00000E+00
 
    0.48021E+06         0.12933E+07         0.00000E+00
    0.12933E+07        -0.58809E+06         0.00000E+00
    0.00000E+00         0.00000E+00         0.00000E+00
 
    0.93671E+06        -0.43333E+05         0.00000E+00
   -0.43333E+05        -0.80747E+06         0.00000E+00
    0.00000E+00         0.00000E+00         0.00000E+00
 
    0.36153E+06        -0.39533E+06         0.00000E+00
   -0.39533E+06        -0.36982E+06         0.00000E+00
    0.00000E+00         0.00000E+00         0.00000E+00
 
    0.20836E+06        -0.99770E+06         0.00000E+00
   -0.99770E+06        -0.23831E+06         0.00000E+00
    0.00000E+00         0.00000E+00         0.00000E+00
 
    0.45194E+06        -0.14323E+07         0.00000E+00
   -0.14323E+07        -0.51129E+06         0.00000E+00
    0.00000E+00         0.00000E+00         0.00000E+00
 
    0.82263E+06        -0.15786E+07         0.00000E+00
   -0.15786E+07        -0.88973E+06         0.00000E+00
    0.00000E+00         0.00000E+00         0.00000E+00
 
    0.11520E+07        -0.15373E+07         0.00000E+00
   -0.15373E+07        -0.12119E+07         0.00000E+00
    0.00000E+00         0.00000E+00         0.00000E+00
 
    0.14068E+07        -0.14096E+07         0.00000E+00
   -0.14096E+07        -0.14576E+07         0.00000E+00
    0.00000E+00         0.00000E+00         0.00000E+00
 
    0.16058E+07        -0.12470E+07         0.00000E+00
   -0.12470E+07        -0.16488E+07         0.00000E+00
    0.00000E+00         0.00000E+00         0.00000E+00
 
    0.17762E+07        -0.10640E+07         0.00000E+00
   -0.10640E+07        -0.18130E+07         0.00000E+00
    0.00000E+00         0.00000E+00         0.00000E+00
 
    0.19398E+07        -0.84781E+06         0.00000E+00
   -0.84781E+06        -0.19720E+07         0.00000E+00
    0.00000E+00         0.00000E+00         0.00000E+00
 
    0.21012E+07        -0.55985E+06         0.00000E+00
   -0.55985E+06        -0.21323E+07         0.00000E+00
    0.00000E+00         0.00000E+00         0.00000E+00
 
    0.22221E+07        -0.13338E+06         0.00000E+00
   -0.13338E+06        -0.22636E+07         0.00000E+00
    0.00000E+00         0.00000E+00         0.00000E+00
 
    0.21722E+07         0.49705E+06         0.00000E+00
    0.49705E+06        -0.22360E+07         0.00000E+00
    0.00000E+00         0.00000E+00         0.00000E+00
 
    0.17115E+07         0.12698E+07         0.00000E+00
    0.12698E+07        -0.17909E+07         0.00000E+00
    0.00000E+00         0.00000E+00         0.00000E+00
 
    0.67116E+06         0.18396E+07         0.00000E+00
    0.18396E+07        -0.85063E+06         0.00000E+00
    0.00000E+00         0.00000E+00         0.00000E+00
 
    0.87702E+06        -0.11616E+05         0.00000E+00
   -0.11616E+05        -0.54306E+06         0.00000E+00
    0.00000E+00         0.00000E+00         0.00000E+00
 
    0.17217E+06        -0.85011E+06         0.00000E+00
   -0.85011E+06        -0.33117E+05         0.00000E+00
    0.00000E+00         0.00000E+00         0.00000E+00
 
    0.35732E+06        -0.17576E+07         0.00000E+00
   -0.17576E+07        -0.32497E+06         0.00000E+00
    0.00000E+00         0.00000E+00         0.00000E+00
 
    0.95533E+06        -0.20367E+07         0.00000E+00
   -0.20367E+07        -0.93604E+06         0.00000E+00
    0.00000E+00         0.00000E+00         0.00000E+00
 
    0.14343E+07        -0.19252E+07         0.00000E+00
   -0.19252E+07        -0.13937E+07         0.00000E+00
    0.00000E+00         0.00000E+00         0.00000E+00
 
    0.17254E+07        -0.16988E+07         0.00000E+00
   -0.16988E+07        -0.16669E+07         0.00000E+00
    0.00000E+00         0.00000E+00         0.00000E+00
 
    0.18935E+07        -0.14673E+07         0.00000E+00
   -0.14673E+07        -0.18228E+07         0.00000E+00
    0.00000E+00         0.00000E+00         0.00000E+00
 
    0.19997E+07        -0.12632E+07         0.00000E+00
   -0.12632E+07        -0.19212E+07         0.00000E+00
    0.00000E+00         0.00000E+00         0.00000E+00
 
    0.20900E+07        -0.10853E+07         0.00000E+00
   -0.10853E+07        -0.20059E+07         0.00000E+00
    0.00000E+00         0.00000E+00         0.00000E+00
 
    0.21998E+07        -0.91254E+06         0.00000E+00
   -0.91254E+06        -0.21103E+07         0.00000E+00
    0.00000E+00         0.00000E+00         0.00000E+00
 
    0.23557E+07        -0.69975E+06         0.00000E+00
   -0.69975E+06        -0.22614E+07         0.00000E+00
    0.00000E+00         0.00000E+00         0.00000E+00
 
    0.25623E+07        -0.35520E+06         0.00000E+00
   -0.35520E+06        -0.24705E+07         0.00000E+00
    0.00000E+00         0.00000E+00         0.00000E+00
 
    0.27176E+07         0.29795E+06         0.00000E+00
    0.29795E+06        -0.26569E+07         0.00000E+00
    0.00000E+00         0.00000E+00         0.00000E+00
 
    0.24265E+07         0.14097E+07         0.00000E+00
    0.14097E+07        -0.24381E+07         0.00000E+00
    0.00000E+00         0.00000E+00         0.00000E+00
 
    0.10472E+07         0.26151E+07         0.00000E+00
    0.26151E+07        -0.13392E+07         0.00000E+00
    0.00000E+00         0.00000E+00         0.00000E+00
 
    0.17738E+07        -0.30638E+06         0.00000E+00
   -0.30638E+06         0.59976E+06         0.00000E+00
    0.00000E+00         0.00000E+00         0.00000E+00
 
    0.69234E+06        -0.23481E+07         0.00000E+00
   -0.23481E+07        -0.18203E+06         0.00000E+00
    0.00000E+00         0.00000E+00         0.00000E+00
 
    0.16135E+07        -0.28673E+07         0.00000E+00
   -0.28673E+07        -0.13103E+07         0.00000E+00
    0.00000E+00         0.00000E+00         0.00000E+00
 
    0.23363E+07        -0.24602E+07         0.00000E+00
   -0.24602E+07        -0.19515E+07         0.00000E+00
    0.00000E+00         0.00000E+00         0.00000E+00
 
    0.26109E+07        -0.19746E+07         0.00000E+00
   -0.19746E+07        -0.22055E+07         0.00000E+00
    0.00000E+00         0.00000E+00         0.00000E+00
 
    0.26742E+07        -0.15787E+07         0.00000E+00
   -0.15787E+07        -0.22602E+07         0.00000E+00
    0.00000E+00         0.00000E+00         0.00000E+00
 
    0.26484E+07        -0.12861E+07         0.00000E+00
   -0.12861E+07        -0.22331E+07         0.00000E+00
    0.00000E+00         0.00000E+00         0.00000E+00
 
    0.25986E+07        -0.10764E+07         0.00000E+00
   -0.10764E+07        -0.21853E+07         0.00000E+00
    0.00000E+00         0.00000E+00         0.00000E+00
 
    0.25615E+07        -0.92645E+06         0.00000E+00
   -0.92645E+06        -0.21506E+07         0.00000E+00
    0.00000E+00         0.00000E+00         0.00000E+00
 
    0.25657E+07        -0.81229E+06         0.00000E+00
   -0.81229E+06        -0.21565E+07         0.00000E+00
    0.00000E+00         0.00000E+00         0.00000E+00
 
    0.26446E+07        -0.69866E+06         0.00000E+00
   -0.69866E+06        -0.22350E+07         0.00000E+00
    0.00000E+00         0.00000E+00         0.00000E+00
 
    0.28401E+07        -0.50999E+06         0.00000E+00
   -0.50999E+06        -0.24341E+07         0.00000E+00
    0.00000E+00         0.00000E+00         0.00000E+00
 
    0.31902E+07        -0.48024E+05         0.00000E+00
   -0.48024E+05        -0.27887E+07         0.00000E+00
    0.00000E+00         0.00000E+00         0.00000E+00
 
    0.33320E+07         0.12605E+07         0.00000E+00
    0.12605E+07        -0.31292E+07         0.00000E+00
    0.00000E+00         0.00000E+00         0.00000E+00
 
    0.16282E+07         0.37655E+07         0.00000E+00
    0.37655E+07        -0.23695E+07         0.00000E+00
    0.00000E+00         0.00000E+00         0.00000E+00
 
    0.18143E+06        -0.28566E+07         0.00000E+00
   -0.28566E+07        -0.65675E+06         0.00000E+00
    0.00000E+00         0.00000E+00         0.00000E+00
 
   -0.25438E+06        -0.43518E+07         0.00000E+00
   -0.43518E+07        -0.32482E+07         0.00000E+00
    0.00000E+00         0.00000E+00         0.00000E+00
 
    0.78993E+06        -0.30201E+07         0.00000E+00
   -0.30201E+07        -0.36020E+07         0.00000E+00
    0.00000E+00         0.00000E+00         0.00000E+00
 
    0.77837E+06        -0.20337E+07         0.00000E+00
   -0.20337E+07        -0.34065E+07         0.00000E+00
    0.00000E+00         0.00000E+00         0.00000E+00
 
    0.55798E+06        -0.14315E+07         0.00000E+00
   -0.14315E+07        -0.31200E+07         0.00000E+00
    0.00000E+00         0.00000E+00         0.00000E+00
 
    0.30592E+06        -0.10593E+07         0.00000E+00
   -0.10593E+07        -0.28397E+07         0.00000E+00
    0.00000E+00         0.00000E+00         0.00000E+00
 
    0.80336E+05        -0.82279E+06         0.00000E+00
   -0.82279E+06        -0.25954E+07         0.00000E+00
    0.00000E+00         0.00000E+00         0.00000E+00
 
   -0.10528E+06        -0.67020E+06         0.00000E+00
   -0.67020E+06        -0.23962E+07         0.00000E+00
    0.00000E+00         0.00000E+00         0.00000E+00
 
   -0.24524E+06        -0.57166E+06         0.00000E+00
   -0.57166E+06        -0.22428E+07         0.00000E+00
    0.00000E+00         0.00000E+00         0.00000E+00
 
   -0.32982E+06        -0.50789E+06         0.00000E+00
   -0.50789E+06        -0.21416E+07         0.00000E+00
    0.00000E+00         0.00000E+00         0.00000E+00
 
   -0.33464E+06        -0.45941E+06         0.00000E+00
   -0.45941E+06        -0.21117E+07         0.00000E+00
    0.00000E+00         0.00000E+00         0.00000E+00
 
   -0.19986E+06        -0.38737E+06         0.00000E+00
   -0.38737E+06        -0.22023E+07         0.00000E+00
    0.00000E+00         0.00000E+00         0.00000E+00
 
    0.20088E+06        -0.17292E+06         0.00000E+00
   -0.17292E+06        -0.25094E+07         0.00000E+00
    0.00000E+00         0.00000E+00         0.00000E+00
 
    0.12410E+07         0.71433E+06         0.00000E+00
    0.71433E+06        -0.32876E+07         0.00000E+00
    0.00000E+00         0.00000E+00         0.00000E+00
 
    0.99663E+06         0.48516E+07         0.00000E+00
    0.48516E+07        -0.42272E+07         0.00000E+00
    0.00000E+00         0.00000E+00         0.00000E+00
 
   -0.21409E+08        -0.49154E+07         0.00000E+00
   -0.49154E+07        -0.11452E+08         0.00000E+00
    0.00000E+00         0.00000E+00        -0.35235E+06
 
   -0.16033E+08        -0.23379E+07         0.00000E+00
   -0.23379E+07        -0.79820E+07         0.00000E+00
    0.00000E+00         0.00000E+00         0.00000E+00
 
   -0.15874E+08        -0.11320E+07         0.00000E+00
   -0.11320E+07        -0.57135E+07         0.00000E+00
    0.00000E+00         0.00000E+00         0.00000E+00
 
   -0.16046E+08        -0.66793E+06         0.00000E+00
   -0.66793E+06        -0.44769E+07         0.00000E+00
    0.00000E+00         0.00000E+00         0.00000E+00
 
   -0.16238E+08        -0.43526E+06         0.00000E+00
   -0.43526E+06        -0.37062E+07         0.00000E+00
    0.00000E+00         0.00000E+00         0.00000E+00
 
   -0.16391E+08        -0.30802E+06         0.00000E+00
   -0.30802E+06        -0.31813E+07         0.00000E+00
    0.00000E+00         0.00000E+00         0.00000E+00
 
   -0.16502E+08        -0.23169E+06         0.00000E+00
   -0.23169E+06        -0.27979E+07         0.00000E+00
    0.00000E+00         0.00000E+00         0.00000E+00
 
   -0.16571E+08        -0.18298E+06         0.00000E+00
   -0.18298E+06        -0.25089E+07         0.00000E+00
    0.00000E+00         0.00000E+00         0.00000E+00
 
   -0.16590E+08        -0.15039E+06         0.00000E+00
   -0.15039E+06        -0.22875E+07         0.00000E+00
    0.00000E+00         0.00000E+00         0.00000E+00
 
   -0.16543E+08        -0.12657E+06         0.00000E+00
   -0.12657E+06        -0.21231E+07         0.00000E+00
    0.00000E+00         0.00000E+00         0.00000E+00
 
   -0.16389E+08        -0.10417E+06         0.00000E+00
   -0.10417E+06        -0.20211E+07         0.00000E+00
    0.00000E+00         0.00000E+00         0.00000E+00
 
   -0.16035E+08        -0.70490E+05         0.00000E+00
   -0.70490E+05        -0.20132E+07         0.00000E+00
    0.00000E+00         0.00000E+00         0.00000E+00
 
   -0.15234E+08         0.20988E+05         0.00000E+00
    0.20988E+05        -0.21946E+07         0.00000E+00
    0.00000E+00         0.00000E+00         0.00000E+00
 
   -0.13265E+08         0.29019E+06         0.00000E+00
    0.29019E+06        -0.28917E+07         0.00000E+00
    0.00000E+00         0.00000E+00         0.00000E+00
 
   -0.59275E+07         0.26986E+07         0.00000E+00
    0.26986E+07        -0.59126E+07         0.00000E+00
    0.00000E+00         0.00000E+00         0.00000E+00
 
TENSORS stresstot double 
   -0.59169E+08         0.13799E+04         0.00000E+00
    0.13799E+04        -0.59999E+08         0.00000E+00
    0.00000E+00         0.00000E+00        -0.59585E+08
 
   -0.59187E+08         0.46021E+04         0.00000E+00
    0.46021E+04        -0.59992E+08         0.00000E+00
    0.00000E+00         0.00000E+00        -0.59590E+08
 
   -0.59216E+08         0.72171E+04         0.00000E+00
    0.72171E+04        -0.59981E+08         0.00000E+00
    0.00000E+00         0.00000E+00        -0.59599E+08
 
   -0.59254E+08         0.91857E+04         0.00000E+00
    0.91857E+04        -0.59964E+08         0.00000E+00
    0.00000E+00         0.00000E+00        -0.59610E+08
 
   -0.59299E+08         0.10544E+05         0.00000E+00
    0.10544E+05        -0.59944E+08         0.00000E+00
    0.00000E+00         0.00000E+00        -0.59623E+08
 
   -0.59349E+08         0.11332E+05         0.00000E+00
    0.11332E+05        -0.59922E+08         0.00000E+00
    0.00000E+00         0.00000E+00        -0.59636E+08
 
   -0.59401E+08         0.11603E+05         0.00000E+00
    0.11603E+05        -0.59899E+08         0.00000E+00
    0.00000E+00         0.00000E+00        -0.59651E+08
 
   -0.59453E+08         0.11417E+05         0.00000E+00
    0.11417E+05        -0.59876E+08         0.00000E+00
    0.00000E+00         0.00000E+00        -0.59666E+08
 
   -0.59505E+08         0.10842E+05         0.00000E+00
    0.10842E+05        -0.59854E+08         0.00000E+00
    0.00000E+00         0.00000E+00        -0.59680E+08
 
   -0.59554E+08         0.99599E+04         0.00000E+00
    0.99599E+04        -0.59833E+08         0.00000E+00
    0.00000E+00         0.00000E+00        -0.59694E+08
 
   -0.59599E+08         0.88636E+04         0.00000E+00
    0.88636E+04        -0.59814E+08         0.00000E+00
    0.00000E+00         0.00000E+00        -0.59708E+08
 
   -0.59641E+08         0.76623E+04         0.00000E+00
    0.76623E+04        -0.59798E+08         0.00000E+00
    0.00000E+00         0.00000E+00        -0.59720E+08
 
   -0.59678E+08         0.64887E+04         0.00000E+00
    0.64887E+04        -0.59784E+08         0.00000E+00
    0.00000E+00         0.00000E+00        -0.59732E+08
 
   -0.59712E+08         0.55136E+04         0.00000E+00
    0.55136E+04        -0.59772E+08         0.00000E+00
    0.00000E+00         0.00000E+00        -0.59743E+08
 
   -0.59741E+08         0.51370E+04         0.00000E+00
    0.51370E+04        -0.59761E+08         0.00000E+00
    0.00000E+00         0.00000E+00        -0.59751E+08
 
   -0.59162E+08         0.49264E+04         0.00000E+00
    0.49264E+04        -0.59998E+08         0.00000E+00
    0.00000E+00         0.00000E+00        -0.59580E+08
 
   -0.59181E+08         0.14116E+05         0.00000E+00
    0.14116E+05        -0.59991E+08         0.00000E+00
    0.00000E+00         0.00000E+00        -0.59586E+08
 
   -0.59211E+08         0.21799E+05         0.00000E+00
    0.21799E+05        -0.59979E+08         0.00000E+00
    0.00000E+00         0.00000E+00        -0.59595E+08
 
   -0.59251E+08         0.27649E+05         0.00000E+00
    0.27649E+05        -0.59963E+08         0.00000E+00
    0.00000E+00         0.00000E+00        -0.59607E+08
 
   -0.59297E+08         0.31693E+05         0.00000E+00
    0.31693E+05        -0.59943E+08         0.00000E+00
    0.00000E+00         0.00000E+00        -0.59620E+08
 
   -0.59348E+08         0.34043E+05         0.00000E+00
    0.34043E+05        -0.59921E+08         0.00000E+00
    0.00000E+00         0.00000E+00        -0.59634E+08
 
   -0.59401E+08         0.34844E+05         0.00000E+00
    0.34844E+05        -0.59898E+08         0.00000E+00
    0.00000E+00         0.00000E+00        -0.59649E+08
 
   -0.59454E+08         0.34276E+05         0.00000E+00
    0.34276E+05        -0.59874E+08         0.00000E+00
    0.00000E+00         0.00000E+00        -0.59664E+08
 
   -0.59506E+08         0.32545E+05         0.00000E+00
    0.32545E+05        -0.59852E+08         0.00000E+00
    0.00000E+00         0.00000E+00        -0.59679E+08
 
   -0.59556E+08         0.29890E+05         0.00000E+00
    0.29890E+05        -0.59831E+08         0.00000E+00
    0.00000E+00         0.00000E+00        -0.59694E+08
 
   -0.59601E+08         0.26590E+05         0.00000E+00
    0.26590E+05        -0.59812E+08         0.00000E+00
    0.00000E+00         0.00000E+00        -0.59707E+08
 
   -0.59643E+08         0.22971E+05         0.00000E+00
    0.22971E+05        -0.59796E+08         0.00000E+00
    0.00000E+00         0.00000E+00        -0.59720E+08
 
   -0.59680E+08         0.19430E+05         0.00000E+00
    0.19430E+05        -0.59782E+08         0.00000E+00
    0.00000E+00         0.00000E+00        -0.59731E+08
 
   -0.59713E+08         0.16488E+05         0.00000E+00
    0.16488E+05        -0.59770E+08         0.00000E+00
    0.00000E+00         0.00000E+00        -0.59742E+08
 
   -0.59741E+08         0.14926E+05         0.00000E+00
    0.14926E+05        -0.59760E+08         0.00000E+00
    0.00000E+00         0.00000E+00        -0.59750E+08
 
   -0.59149E+08         0.86219E+04         0.00000E+00
    0.86219E+04        -0.59998E+08         0.00000E+00
    0.00000E+00         0.00000E+00        -0.59574E+08
 
   -0.59170E+08         0.24047E+05         0.00000E+00
    0.24047E+05        -0.59991E+08         0.00000E+00
    0.00000E+00         0.00000E+00        -0.59580E+08
 
   -0.59202E+08         0.36687E+05         0.00000E+00
    0.36687E+05        -0.59979E+08         0.00000E+00
    0.00000E+00         0.00000E+00        -0.59590E+08
 
   -0.59244E+08         0.46328E+05         0.00000E+00
    0.46328E+05        -0.59962E+08         0.00000E+00
    0.00000E+00         0.00000E+00        -0.59603E+08
 
   -0.59293E+08         0.53002E+05         0.00000E+00
    0.53002E+05        -0.59942E+08         0.00000E+00
    0.00000E+00         0.00000E+00        -0.59617E+08
 
   -0.59346E+08         0.56872E+05         0.00000E+00
    0.56872E+05        -0.59920E+08         0.00000E+00
    0.00000E+00         0.00000E+00        -0.59633E+08
 
   -0.59400E+08         0.58175E+05         0.00000E+00
    0.58175E+05        -0.59896E+08         0.00000E+00
    0.00000E+00         0.00000E+00        -0.59648E+08
 
   -0.59455E+08         0.57204E+05         0.00000E+00
    0.57204E+05        -0.59873E+08         0.00000E+00
    0.00000E+00         0.00000E+00        -0.59664E+08
 
   -0.59509E+08         0.54296E+05         0.00000E+00
    0.54296E+05        -0.59851E+08         0.00000E+00
    0.00000E+00         0.00000E+00        -0.59680E+08
 
   -0.59560E+08         0.49843E+05         0.00000E+00
    0.49843E+05        -0.59830E+08         0.00000E+00
    0.00000E+00         0.00000E+00        -0.59695E+08
 
   -0.59606E+08         0.44302E+05         0.00000E+00
    0.44302E+05        -0.59811E+08         0.00000E+00
    0.00000E+00         0.00000E+00        -0.59709E+08
 
   -0.59648E+08         0.38211E+05         0.00000E+00
    0.38211E+05        -0.59795E+08         0.00000E+00
    0.00000E+00         0.00000E+00        -0.59722E+08
 
   -0.59685E+08         0.32222E+05         0.00000E+00
    0.32222E+05        -0.59781E+08         0.00000E+00
    0.00000E+00         0.00000E+00        -0.59733E+08
 
   -0.59716E+08         0.27146E+05         0.00000E+00
    0.27146E+05        -0.59769E+08         0.00000E+00
    0.00000E+00         0.00000E+00        -0.59743E+08
 
   -0.59742E+08         0.23830E+05         0.00000E+00
    0.23830E+05        -0.59760E+08         0.00000E+00
    0.00000E+00         0.00000E+00        -0.59751E+08
 
   -0.59129E+08         0.12237E+05         0.00000E+00
    0.12237E+05        -0.59998E+08         0.00000E+00
    0.00000E+00         0.00000E+00        -0.59564E+08
 
   -0.59153E+08         0.34117E+05         0.00000E+00
    0.34117E+05        -0.59991E+08         0.00000E+00
    0.00000E+00         0.00000E+00        -0.59572E+08
 
   -0.59189E+08         0.51830E+05         0.00000E+00
    0.51830E+05        -0.59979E+08         0.00000E+00
    0.00000E+00         0.00000E+00        -0.59584E+08
 
   -0.59235E+08         0.65244E+05         0.00000E+00
    0.65244E+05        -0.59962E+08         0.00000E+00
    0.00000E+00         0.00000E+00        -0.59598E+08
 
   -0.59287E+08         0.74500E+05         0.00000E+00
    0.74500E+05        -0.59941E+08         0.00000E+00
    0.00000E+00         0.00000E+00        -0.59614E+08
 
   -0.59343E+08         0.79844E+05         0.00000E+00
    0.79844E+05        -0.59919E+08         0.00000E+00
    0.00000E+00         0.00000E+00        -0.59631E+08
 
   -0.59400E+08         0.81611E+05         0.00000E+00
    0.81611E+05        -0.59896E+08         0.00000E+00
    0.00000E+00         0.00000E+00        -0.59648E+08
 
   -0.59458E+08         0.80206E+05         0.00000E+00
    0.80206E+05        -0.59872E+08         0.00000E+00
    0.00000E+00         0.00000E+00        -0.59665E+08
 
   -0.59514E+08         0.76093E+05         0.00000E+00
    0.76093E+05        -0.59850E+08         0.00000E+00
    0.00000E+00         0.00000E+00        -0.59682E+08
 
   -0.59566E+08         0.69805E+05         0.00000E+00
    0.69805E+05        -0.59829E+08         0.00000E+00
    0.00000E+00         0.00000E+00        -0.59698E+08
 
   -0.59613E+08         0.61961E+05         0.00000E+00
    0.61961E+05        -0.59810E+08         0.00000E+00
    0.00000E+00         0.00000E+00        -0.59712E+08
 
   -0.59655E+08         0.53295E+05         0.00000E+00
    0.53295E+05        -0.59794E+08         0.00000E+00
    0.00000E+00         0.00000E+00        -0.59725E+08
 
   -0.59692E+08         0.44684E+05         0.00000E+00
    0.44684E+05        -0.59780E+08         0.00000E+00
    0.00000E+00         0.00000E+00        -0.59736E+08
 
   -0.59722E+08         0.37174E+05         0.00000E+00
    0.37174E+05        -0.59769E+08         0.00000E+00
    0.00000E+00         0.00000E+00        -0.59746E+08
 
   -0.59745E+08         0.31839E+05         0.00000E+00
    0.31839E+05        -0.59761E+08         0.00000E+00
    0.00000E+00         0.00000E+00        -0.59753E+08
 
   -0.59102E+08         0.15897E+05         0.00000E+00
    0.15897E+05        -0.59998E+08         0.00000E+00
    0.00000E+00         0.00000E+00        -0.59550E+08
 
   -0.59130E+08         0.44288E+05         0.00000E+00
    0.44288E+05        -0.59991E+08         0.00000E+00
    0.00000E+00         0.00000E+00        -0.59560E+08
 
   -0.59171E+08         0.67149E+05         0.00000E+00
    0.67149E+05        -0.59978E+08         0.00000E+00
    0.00000E+00         0.00000E+00        -0.59575E+08
 
   -0.59222E+08         0.84345E+05         0.00000E+00
    0.84345E+05        -0.59961E+08         0.00000E+00
    0.00000E+00         0.00000E+00        -0.59591E+08
 
   -0.59278E+08         0.96143E+05         0.00000E+00
    0.96143E+05        -0.59941E+08         0.00000E+00
    0.00000E+00         0.00000E+00        -0.59609E+08
 
   -0.59339E+08         0.10291E+06         0.00000E+00
    0.10291E+06        -0.59918E+08         0.00000E+00
    0.00000E+00         0.00000E+00        -0.59628E+08
 
   -0.59400E+08         0.10510E+06         0.00000E+00
    0.10510E+06        -0.59895E+08         0.00000E+00
    0.00000E+00         0.00000E+00        -0.59648E+08
 
   -0.59461E+08         0.10324E+06         0.00000E+00
    0.10324E+06        -0.59872E+08         0.00000E+00
    0.00000E+00         0.00000E+00        -0.59667E+08
 
   -0.59520E+08         0.97892E+05         0.00000E+00
    0.97892E+05        -0.59849E+08         0.00000E+00
    0.00000E+00         0.00000E+00        -0.59685E+08
 
   -0.59574E+08         0.89728E+05         0.00000E+00
    0.89728E+05        -0.59829E+08         0.00000E+00
    0.00000E+00         0.00000E+00        -0.59701E+08
 
   -0.59623E+08         0.79505E+05         0.00000E+00
    0.79505E+05        -0.59810E+08         0.00000E+00
    0.00000E+00         0.00000E+00        -0.59717E+08
 
   -0.59666E+08         0.68121E+05         0.00000E+00
    0.68121E+05        -0.59794E+08         0.00000E+00
    0.00000E+00         0.00000E+00        -0.59730E+08
 
   -0.59701E+08         0.56650E+05         0.00000E+00
    0.56650E+05        -0.59781E+08         0.00000E+00
    0.00000E+00         0.00000E+00        -0.59741E+08
 
   -0.59730E+08         0.46379E+05         0.00000E+00
    0.46379E+05        -0.59770E+08         0.00000E+00
    0.00000E+00         0.00000E+00        -0.59750E+08
 
   -0.59750E+08         0.38692E+05         0.00000E+00
    0.38692E+05        -0.59763E+08         0.00000E+00
    0.00000E+00         0.00000E+00        -0.59756E+08
 
   -0.59067E+08         0.19642E+05         0.00000E+00
    0.19642E+05        -0.59998E+08         0.00000E+00
    0.00000E+00         0.00000E+00        -0.59533E+08
 
   -0.59101E+08         0.54599E+05         0.00000E+00
    0.54599E+05        -0.59991E+08         0.00000E+00
    0.00000E+00         0.00000E+00        -0.59546E+08
 
   -0.59149E+08         0.82599E+05         0.00000E+00
    0.82599E+05        -0.59978E+08         0.00000E+00
    0.00000E+00         0.00000E+00        -0.59563E+08
 
   -0.59206E+08         0.10354E+06         0.00000E+00
    0.10354E+06        -0.59961E+08         0.00000E+00
    0.00000E+00         0.00000E+00        -0.59583E+08
 
   -0.59268E+08         0.11782E+06         0.00000E+00
    0.11782E+06        -0.59940E+08         0.00000E+00
    0.00000E+00         0.00000E+00        -0.59604E+08
 
   -0.59334E+08         0.12595E+06         0.00000E+00
    0.12595E+06        -0.59918E+08         0.00000E+00
    0.00000E+00         0.00000E+00        -0.59626E+08
 
   -0.59400E+08         0.12853E+06         0.00000E+00
    0.12853E+06        -0.59895E+08         0.00000E+00
    0.00000E+00         0.00000E+00        -0.59648E+08
 
   -0.59465E+08         0.12617E+06         0.00000E+00
    0.12617E+06        -0.59872E+08         0.00000E+00
    0.00000E+00         0.00000E+00        -0.59669E+08
 
   -0.59527E+08         0.11959E+06         0.00000E+00
    0.11959E+06        -0.59850E+08         0.00000E+00
    0.00000E+00         0.00000E+00        -0.59689E+08
 
   -0.59584E+08         0.10952E+06         0.00000E+00
    0.10952E+06        -0.59829E+08         0.00000E+00
    0.00000E+00         0.00000E+00        -0.59707E+08
 
   -0.59635E+08         0.96853E+05         0.00000E+00
    0.96853E+05        -0.59811E+08         0.00000E+00
    0.00000E+00         0.00000E+00        -0.59723E+08
 
   -0.59679E+08         0.82602E+05         0.00000E+00
    0.82602E+05        -0.59795E+08         0.00000E+00
    0.00000E+00         0.00000E+00        -0.59737E+08
 
   -0.59714E+08         0.68013E+05         0.00000E+00
    0.68013E+05        -0.59782E+08         0.00000E+00
    0.00000E+00         0.00000E+00        -0.59748E+08
 
   -0.59740E+08         0.54607E+05         0.00000E+00
    0.54607E+05        -0.59773E+08         0.00000E+00
    0.00000E+00         0.00000E+00        -0.59757E+08
 
   -0.59758E+08         0.44085E+05         0.00000E+00
    0.44085E+05        -0.59767E+08         0.00000E+00
    0.00000E+00         0.00000E+00        -0.59762E+08
 
   -0.59026E+08         0.23455E+05         0.00000E+00
    0.23455E+05        -0.59998E+08         0.00000E+00
    0.00000E+00         0.00000E+00        -0.59513E+08
 
   -0.59067E+08         0.65015E+05         0.00000E+00
    0.65015E+05        -0.59991E+08         0.00000E+00
    0.00000E+00         0.00000E+00        -0.59528E+08
 
   -0.59123E+08         0.98086E+05         0.00000E+00
    0.98086E+05        -0.59978E+08         0.00000E+00
    0.00000E+00         0.00000E+00        -0.59550E+08
 
   -0.59187E+08         0.12266E+06         0.00000E+00
    0.12266E+06        -0.59961E+08         0.00000E+00
    0.00000E+00         0.00000E+00        -0.59574E+08
 
   -0.59256E+08         0.13931E+06         0.00000E+00
    0.13931E+06        -0.59941E+08         0.00000E+00
    0.00000E+00         0.00000E+00        -0.59598E+08
 
   -0.59328E+08         0.14873E+06         0.00000E+00
    0.14873E+06        -0.59919E+08         0.00000E+00
    0.00000E+00         0.00000E+00        -0.59623E+08
 
   -0.59400E+08         0.15164E+06         0.00000E+00
    0.15164E+06        -0.59896E+08         0.00000E+00
    0.00000E+00         0.00000E+00        -0.59648E+08
 
   -0.59470E+08         0.14881E+06         0.00000E+00
    0.14881E+06        -0.59873E+08         0.00000E+00
    0.00000E+00         0.00000E+00        -0.59672E+08
 
   -0.59536E+08         0.14100E+06         0.00000E+00
    0.14100E+06        -0.59852E+08         0.00000E+00
    0.00000E+00         0.00000E+00        -0.59694E+08
 
   -0.59597E+08         0.12906E+06         0.00000E+00
    0.12906E+06        -0.59831E+08         0.00000E+00
    0.00000E+00         0.00000E+00        -0.59714E+08
 
   -0.59650E+08         0.11391E+06         0.00000E+00
    0.11391E+06        -0.59813E+08         0.00000E+00
    0.00000E+00         0.00000E+00        -0.59732E+08
 
   -0.59695E+08         0.96669E+05         0.00000E+00
    0.96669E+05        -0.59798E+08         0.00000E+00
    0.00000E+00         0.00000E+00        -0.59747E+08
 
   -0.59730E+08         0.78704E+05         0.00000E+00
    0.78704E+05        -0.59786E+08         0.00000E+00
    0.00000E+00         0.00000E+00        -0.59758E+08
 
   -0.59754E+08         0.61738E+05         0.00000E+00
    0.61738E+05        -0.59777E+08         0.00000E+00
    0.00000E+00         0.00000E+00        -0.59766E+08
 
   -0.59768E+08         0.47764E+05         0.00000E+00
    0.47764E+05        -0.59773E+08         0.00000E+00
    0.00000E+00         0.00000E+00        -0.59770E+08
 
   -0.58977E+08         0.27298E+05         0.00000E+00
    0.27298E+05        -0.59998E+08         0.00000E+00
    0.00000E+00         0.00000E+00        -0.59489E+08
 
   -0.59026E+08         0.75420E+05         0.00000E+00
    0.75420E+05        -0.59991E+08         0.00000E+00
    0.00000E+00         0.00000E+00        -0.59508E+08
 
   -0.59092E+08         0.11342E+06         0.00000E+00
    0.11342E+06        -0.59978E+08         0.00000E+00
    0.00000E+00         0.00000E+00        -0.59535E+08
 
   -0.59165E+08         0.14143E+06         0.00000E+00
    0.14143E+06        -0.59961E+08         0.00000E+00
    0.00000E+00         0.00000E+00        -0.59563E+08
 
   -0.59242E+08         0.16029E+06         0.00000E+00
    0.16029E+06        -0.59942E+08         0.00000E+00
    0.00000E+00         0.00000E+00        -0.59592E+08
 
   -0.59322E+08         0.17088E+06         0.00000E+00
    0.17088E+06        -0.59921E+08         0.00000E+00
    0.00000E+00         0.00000E+00        -0.59621E+08
 
   -0.59400E+08         0.17409E+06         0.00000E+00
    0.17409E+06        -0.59899E+08         0.00000E+00
    0.00000E+00         0.00000E+00        -0.59650E+08
 
   -0.59476E+08         0.17080E+06         0.00000E+00
    0.17080E+06        -0.59877E+08         0.00000E+00
    0.00000E+00         0.00000E+00        -0.59677E+08
 
   -0.59547E+08         0.16186E+06         0.00000E+00
    0.16186E+06        -0.59856E+08         0.00000E+00
    0.00000E+00         0.00000E+00        -0.59702E+08
 
   -0.59612E+08         0.14812E+06         0.00000E+00
    0.14812E+06        -0.59837E+08         0.00000E+00
    0.00000E+00         0.00000E+00        -0.59724E+08
 
   -0.59668E+08         0.13054E+06         0.00000E+00
    0.13054E+06        -0.59819E+08         0.00000E+00
    0.00000E+00         0.00000E+00        -0.59744E+08
 
   -0.59714E+08         0.11026E+06         0.00000E+00
    0.11026E+06        -0.59804E+08         0.00000E+00
    0.00000E+00         0.00000E+00        -0.59760E+08
 
   -0.59750E+08         0.88686E+05         0.00000E+00
    0.88686E+05        -0.59793E+08         0.00000E+00
    0.00000E+00         0.00000E+00        -0.59771E+08
 
   -0.59772E+08         0.67699E+05         0.00000E+00
    0.67699E+05        -0.59785E+08         0.00000E+00
    0.00000E+00         0.00000E+00        -0.59779E+08
 
   -0.59782E+08         0.49545E+05         0.00000E+00
    0.49545E+05        -0.59782E+08         0.00000E+00
    0.00000E+00         0.00000E+00        -0.59782E+08
 
   -0.58920E+08         0.31111E+05         0.00000E+00
    0.31111E+05        -0.59998E+08         0.00000E+00
    0.00000E+00         0.00000E+00        -0.59462E+08
 
   -0.58980E+08         0.85626E+05         0.00000E+00
    0.85626E+05        -0.59991E+08         0.00000E+00
    0.00000E+00         0.00000E+00        -0.59485E+08
 
   -0.59057E+08         0.12828E+06         0.00000E+00
    0.12828E+06        -0.59979E+08         0.00000E+00
    0.00000E+00         0.00000E+00        -0.59518E+08
 
   -0.59140E+08         0.15946E+06         0.00000E+00
    0.15946E+06        -0.59963E+08         0.00000E+00
    0.00000E+00         0.00000E+00        -0.59551E+08
 
   -0.59227E+08         0.18028E+06         0.00000E+00
    0.18028E+06        -0.59945E+08         0.00000E+00
    0.00000E+00         0.00000E+00        -0.59586E+08
 
   -0.59315E+08         0.19188E+06         0.00000E+00
    0.19188E+06        -0.59925E+08         0.00000E+00
    0.00000E+00         0.00000E+00        -0.59620E+08
 
   -0.59401E+08         0.19535E+06         0.00000E+00
    0.19535E+06        -0.59905E+08         0.00000E+00
    0.00000E+00         0.00000E+00        -0.59653E+08
 
   -0.59483E+08         0.19167E+06         0.00000E+00
    0.19167E+06        -0.59884E+08         0.00000E+00
    0.00000E+00         0.00000E+00        -0.59684E+08
 
   -0.59559E+08         0.18175E+06         0.00000E+00
    0.18175E+06        -0.59865E+08         0.00000E+00
    0.00000E+00         0.00000E+00        -0.59712E+08
 
   -0.59628E+08         0.16642E+06         0.00000E+00
    0.16642E+06        -0.59846E+08         0.00000E+00
    0.00000E+00         0.00000E+00        -0.59737E+08
 
   -0.59688E+08         0.14659E+06         0.00000E+00
    0.14659E+06        -0.59829E+08         0.00000E+00
    0.00000E+00         0.00000E+00        -0.59759E+08
 
   -0.59737E+08         0.12330E+06         0.00000E+00
    0.12330E+06        -0.59815E+08         0.00000E+00
    0.00000E+00         0.00000E+00        -0.59777E+08
 
   -0.59773E+08         0.97961E+05         0.00000E+00
    0.97961E+05        -0.59804E+08         0.00000E+00
    0.00000E+00         0.00000E+00        -0.59789E+08
 
   -0.59794E+08         0.72493E+05         0.00000E+00
    0.72493E+05        -0.59798E+08         0.00000E+00
    0.00000E+00         0.00000E+00        -0.59796E+08
 
   -0.59800E+08         0.49341E+05         0.00000E+00
    0.49341E+05        -0.59796E+08         0.00000E+00
    0.00000E+00         0.00000E+00        -0.59799E+08
 
   -0.58857E+08         0.34800E+05         0.00000E+00
    0.34800E+05        -0.59998E+08         0.00000E+00
    0.00000E+00         0.00000E+00        -0.59431E+08
 
   -0.58929E+08         0.95365E+05         0.00000E+00
    0.95365E+05        -0.59992E+08         0.00000E+00
    0.00000E+00         0.00000E+00        -0.59460E+08
 
   -0.59018E+08         0.14225E+06         0.00000E+00
    0.14225E+06        -0.59980E+08         0.00000E+00
    0.00000E+00         0.00000E+00        -0.59499E+08
 
   -0.59113E+08         0.17616E+06         0.00000E+00
    0.17616E+06        -0.59966E+08         0.00000E+00
    0.00000E+00         0.00000E+00        -0.59539E+08
 
   -0.59210E+08         0.19859E+06         0.00000E+00
    0.19859E+06        -0.59949E+08         0.00000E+00
    0.00000E+00         0.00000E+00        -0.59580E+08
 
   -0.59307E+08         0.21100E+06         0.00000E+00
    0.21100E+06        -0.59932E+08         0.00000E+00
    0.00000E+00         0.00000E+00        -0.59619E+08
 
   -0.59401E+08         0.21468E+06         0.00000E+00
    0.21468E+06        -0.59914E+08         0.00000E+00
    0.00000E+00         0.00000E+00        -0.59657E+08
 
   -0.59490E+08         0.21076E+06         0.00000E+00
    0.21076E+06        -0.59896E+08         0.00000E+00
    0.00000E+00         0.00000E+00        -0.59693E+08
 
   -0.59573E+08         0.20013E+06         0.00000E+00
    0.20013E+06        -0.59878E+08         0.00000E+00
    0.00000E+00         0.00000E+00        -0.59725E+08
 
   -0.59647E+08         0.18357E+06         0.00000E+00
    0.18357E+06        -0.59861E+08         0.00000E+00
    0.00000E+00         0.00000E+00        -0.59754E+08
 
   -0.59711E+08         0.16181E+06         0.00000E+00
    0.16181E+06        -0.59846E+08         0.00000E+00
    0.00000E+00         0.00000E+00        -0.59779E+08
 
   -0.59764E+08         0.13574E+06         0.00000E+00
    0.13574E+06        -0.59832E+08         0.00000E+00
    0.00000E+00         0.00000E+00        -0.59798E+08
 
   -0.59801E+08         0.10659E+06         0.00000E+00
    0.10659E+06        -0.59822E+08         0.00000E+00
    0.00000E+00         0.00000E+00        -0.59812E+08
 
   -0.59822E+08         0.76227E+05         0.00000E+00
    0.76227E+05        -0.59816E+08         0.00000E+00
    0.00000E+00         0.00000E+00        -0.59819E+08
 
   -0.59824E+08         0.47194E+05         0.00000E+00
    0.47194E+05        -0.59816E+08         0.00000E+00
    0.00000E+00         0.00000E+00        -0.59821E+08
 
   -0.58787E+08         0.38244E+05         0.00000E+00
    0.38244E+05        -0.59998E+08         0.00000E+00
    0.00000E+00         0.00000E+00        -0.59397E+08
 
   -0.58873E+08         0.10428E+06         0.00000E+00
    0.10428E+06        -0.59993E+08         0.00000E+00
    0.00000E+00         0.00000E+00        -0.59432E+08
 
   -0.58977E+08         0.15475E+06         0.00000E+00
    0.15475E+06        -0.59983E+08         0.00000E+00
    0.00000E+00         0.00000E+00        -0.59479E+08
 
   -0.59085E+08         0.19078E+06         0.00000E+00
    0.19078E+06        -0.59970E+08         0.00000E+00
    0.00000E+00         0.00000E+00        -0.59527E+08
 
   -0.59193E+08         0.21434E+06         0.00000E+00
    0.21434E+06        -0.59957E+08         0.00000E+00
    0.00000E+00         0.00000E+00        -0.59575E+08
 
   -0.59299E+08         0.22726E+06         0.00000E+00
    0.22726E+06        -0.59942E+08         0.00000E+00
    0.00000E+00         0.00000E+00        -0.59621E+08
 
   -0.59401E+08         0.23112E+06         0.00000E+00
    0.23112E+06        -0.59928E+08         0.00000E+00
    0.00000E+00         0.00000E+00        -0.59664E+08
 
   -0.59497E+08         0.22714E+06         0.00000E+00
    0.22714E+06        -0.59913E+08         0.00000E+00
    0.00000E+00         0.00000E+00        -0.59705E+08
 
   -0.59586E+08         0.21623E+06         0.00000E+00
    0.21623E+06        -0.59899E+08         0.00000E+00
    0.00000E+00         0.00000E+00        -0.59743E+08
 
   -0.59667E+08         0.19900E+06         0.00000E+00
    0.19900E+06        -0.59884E+08         0.00000E+00
    0.00000E+00         0.00000E+00        -0.59775E+08
 
   -0.59736E+08         0.17591E+06         0.00000E+00
    0.17591E+06        -0.59870E+08         0.00000E+00
    0.00000E+00         0.00000E+00        -0.59803E+08
 
   -0.59793E+08         0.14751E+06         0.00000E+00
    0.14751E+06        -0.59858E+08         0.00000E+00
    0.00000E+00         0.00000E+00        -0.59826E+08
 
   -0.59833E+08         0.11472E+06         0.00000E+00
    0.11472E+06        -0.59848E+08         0.00000E+00
    0.00000E+00         0.00000E+00        -0.59841E+08
 
   -0.59855E+08         0.79145E+05         0.00000E+00
    0.79145E+05        -0.59843E+08         0.00000E+00
    0.00000E+00         0.00000E+00        -0.59849E+08
 
   -0.59855E+08         0.43322E+05         0.00000E+00
    0.43322E+05        -0.59844E+08         0.00000E+00
    0.00000E+00         0.00000E+00        -0.59851E+08
 
   -0.58710E+08         0.41284E+05         0.00000E+00
    0.41284E+05        -0.59999E+08         0.00000E+00
    0.00000E+00         0.00000E+00        -0.59360E+08
 
   -0.58813E+08         0.11191E+06         0.00000E+00
    0.11191E+06        -0.59994E+08         0.00000E+00
    0.00000E+00         0.00000E+00        -0.59403E+08
 
   -0.58933E+08         0.16506E+06         0.00000E+00
    0.16506E+06        -0.59986E+08         0.00000E+00
    0.00000E+00         0.00000E+00        -0.59459E+08
 
   -0.59055E+08         0.20237E+06         0.00000E+00
    0.20237E+06        -0.59977E+08         0.00000E+00
    0.00000E+00         0.00000E+00        -0.59516E+08
 
   -0.59175E+08         0.22639E+06         0.00000E+00
    0.22639E+06        -0.59967E+08         0.00000E+00
    0.00000E+00         0.00000E+00        -0.59571E+08
 
   -0.59291E+08         0.23942E+06         0.00000E+00
    0.23942E+06        -0.59957E+08         0.00000E+00
    0.00000E+00         0.00000E+00        -0.59624E+08
 
   -0.59401E+08         0.24337E+06         0.00000E+00
    0.24337E+06        -0.59948E+08         0.00000E+00
    0.00000E+00         0.00000E+00        -0.59674E+08
 
   -0.59505E+08         0.23963E+06         0.00000E+00
    0.23963E+06        -0.59938E+08         0.00000E+00
    0.00000E+00         0.00000E+00        -0.59721E+08
 
   -0.59601E+08         0.22904E+06         0.00000E+00
    0.22904E+06        -0.59928E+08         0.00000E+00
    0.00000E+00         0.00000E+00        -0.59764E+08
 
   -0.59687E+08         0.21198E+06         0.00000E+00
    0.21198E+06        -0.59916E+08         0.00000E+00
    0.00000E+00         0.00000E+00        -0.59802E+08
 
   -0.59763E+08         0.18848E+06         0.00000E+00
    0.18848E+06        -0.59905E+08         0.00000E+00
    0.00000E+00         0.00000E+00        -0.59834E+08
 
   -0.59825E+08         0.15856E+06         0.00000E+00
    0.15856E+06        -0.59894E+08         0.00000E+00
    0.00000E+00         0.00000E+00        -0.59859E+08
 
   -0.59870E+08         0.12258E+06         0.00000E+00
    0.12258E+06        -0.59884E+08         0.00000E+00
    0.00000E+00         0.00000E+00        -0.59878E+08
 
   -0.59894E+08         0.81673E+05         0.00000E+00
    0.81673E+05        -0.59879E+08         0.00000E+00
    0.00000E+00         0.00000E+00        -0.59887E+08
 
   -0.59894E+08         0.38174E+05         0.00000E+00
    0.38174E+05        -0.59881E+08         0.00000E+00
    0.00000E+00         0.00000E+00        -0.59889E+08
 
   -0.58629E+08         0.43734E+05         0.00000E+00
    0.43734E+05        -0.59999E+08         0.00000E+00
    0.00000E+00         0.00000E+00        -0.59321E+08
 
   -0.58750E+08         0.11771E+06         0.00000E+00
    0.11771E+06        -0.59996E+08         0.00000E+00
    0.00000E+00         0.00000E+00        -0.59372E+08
 
   -0.58888E+08         0.17230E+06         0.00000E+00
    0.17230E+06        -0.59991E+08         0.00000E+00
    0.00000E+00         0.00000E+00        -0.59439E+08
 
   -0.59025E+08         0.20974E+06         0.00000E+00
    0.20974E+06        -0.59985E+08         0.00000E+00
    0.00000E+00         0.00000E+00        -0.59505E+08
 
   -0.59157E+08         0.23331E+06         0.00000E+00
    0.23331E+06        -0.59981E+08         0.00000E+00
    0.00000E+00         0.00000E+00        -0.59569E+08
 
   -0.59283E+08         0.24590E+06         0.00000E+00
    0.24590E+06        -0.59978E+08         0.00000E+00
    0.00000E+00         0.00000E+00        -0.59630E+08
 
   -0.59401E+08         0.24983E+06         0.00000E+00
    0.24983E+06        -0.59975E+08         0.00000E+00
    0.00000E+00         0.00000E+00        -0.59688E+08
 
   -0.59512E+08         0.24669E+06         0.00000E+00
    0.24669E+06        -0.59972E+08         0.00000E+00
    0.00000E+00         0.00000E+00        -0.59742E+08
 
   -0.59614E+08         0.23726E+06         0.00000E+00
    0.23726E+06        -0.59967E+08         0.00000E+00
    0.00000E+00         0.00000E+00        -0.59790E+08
 
   -0.59707E+08         0.22154E+06         0.00000E+00
    0.22154E+06        -0.59961E+08         0.00000E+00
    0.00000E+00         0.00000E+00        -0.59834E+08
 
   -0.59789E+08         0.19898E+06         0.00000E+00
    0.19898E+06        -0.59952E+08         0.00000E+00
    0.00000E+00         0.00000E+00        -0.59871E+08
 
   -0.59858E+08         0.16880E+06         0.00000E+00
    0.16880E+06        -0.59943E+08         0.00000E+00
    0.00000E+00         0.00000E+00        -0.59901E+08
 
   -0.59911E+08         0.13052E+06         0.00000E+00
    0.13052E+06        -0.59934E+08         0.00000E+00
    0.00000E+00         0.00000E+00        -0.59922E+08
 
   -0.59940E+08         0.84467E+05         0.00000E+00
    0.84467E+05        -0.59928E+08         0.00000E+00
    0.00000E+00         0.00000E+00        -0.59935E+08
 
   -0.59943E+08         0.32509E+05         0.00000E+00
    0.32509E+05        -0.59929E+08         0.00000E+00
    0.00000E+00         0.00000E+00        -0.59938E+08
 
   -0.58544E+08         0.45380E+05         0.00000E+00
    0.45380E+05        -0.59999E+08         0.00000E+00
    0.00000E+00         0.00000E+00        -0.59280E+08
 
   -0.58685E+08         0.12107E+06         0.00000E+00
    0.12107E+06        -0.59998E+08         0.00000E+00
    0.00000E+00         0.00000E+00        -0.59341E+08
 
   -0.58842E+08         0.17544E+06         0.00000E+00
    0.17544E+06        -0.59997E+08         0.00000E+00
    0.00000E+00         0.00000E+00        -0.59420E+08
 
   -0.58995E+08         0.21150E+06         0.00000E+00
    0.21150E+06        -0.59997E+08         0.00000E+00
    0.00000E+00         0.00000E+00        -0.59496E+08
 
   -0.59140E+08         0.23337E+06         0.00000E+00
    0.23337E+06        -0.60000E+08         0.00000E+00
    0.00000E+00         0.00000E+00        -0.59570E+08
 
   -0.59275E+08         0.24473E+06         0.00000E+00
    0.24473E+06        -0.60005E+08         0.00000E+00
    0.00000E+00         0.00000E+00        -0.59640E+08
 
   -0.59401E+08         0.24845E+06         0.00000E+00
    0.24845E+06        -0.60011E+08         0.00000E+00
    0.00000E+00         0.00000E+00        -0.59706E+08
 
   -0.59517E+08         0.24638E+06         0.00000E+00
    0.24638E+06        -0.60016E+08         0.00000E+00
    0.00000E+00         0.00000E+00        -0.59767E+08
 
   -0.59625E+08         0.23919E+06         0.00000E+00
    0.23919E+06        -0.60020E+08         0.00000E+00
    0.00000E+00         0.00000E+00        -0.59822E+08
 
   -0.59724E+08         0.22643E+06         0.00000E+00
    0.22643E+06        -0.60020E+08         0.00000E+00
    0.00000E+00         0.00000E+00        -0.59872E+08
 
   -0.59814E+08         0.20671E+06         0.00000E+00
    0.20671E+06        -0.60016E+08         0.00000E+00
    0.00000E+00         0.00000E+00        -0.59915E+08
 
   -0.59892E+08         0.17816E+06         0.00000E+00
    0.17816E+06        -0.60008E+08         0.00000E+00
    0.00000E+00         0.00000E+00        -0.59950E+08
 
   -0.59954E+08         0.13904E+06         0.00000E+00
    0.13904E+06        -0.59999E+08         0.00000E+00
    0.00000E+00         0.00000E+00        -0.59977E+08
 
   -0.59993E+08         0.88478E+05         0.00000E+00
    0.88478E+05        -0.59992E+08         0.00000E+00
    0.00000E+00         0.00000E+00        -0.59993E+08
 
   -0.60002E+08         0.27487E+05         0.00000E+00
    0.27487E+05        -0.59991E+08         0.00000E+00
    0.00000E+00         0.00000E+00        -0.59999E+08
 
   -0.58457E+08         0.45996E+05         0.00000E+00
    0.45996E+05        -0.60000E+08         0.00000E+00
    0.00000E+00         0.00000E+00        -0.59239E+08
 
   -0.58621E+08         0.12129E+06         0.00000E+00
    0.12129E+06        -0.60001E+08         0.00000E+00
    0.00000E+00         0.00000E+00        -0.59311E+08
 
   -0.58799E+08         0.17333E+06         0.00000E+00
    0.17333E+06        -0.60004E+08         0.00000E+00
    0.00000E+00         0.00000E+00        -0.59402E+08
 
   -0.58969E+08         0.20599E+06         0.00000E+00
    0.20599E+06        -0.60012E+08         0.00000E+00
    0.00000E+00         0.00000E+00        -0.59491E+08
 
   -0.59125E+08         0.22452E+06         0.00000E+00
    0.22452E+06        -0.60024E+08         0.00000E+00
    0.00000E+00         0.00000E+00        -0.59575E+08
 
   -0.59269E+08         0.23355E+06         0.00000E+00
    0.23355E+06        -0.60039E+08         0.00000E+00
    0.00000E+00         0.00000E+00        -0.59654E+08
 
   -0.59400E+08         0.23672E+06         0.00000E+00
    0.23672E+06        -0.60057E+08         0.00000E+00
    0.00000E+00         0.00000E+00        -0.59728E+08
 
   -0.59520E+08         0.23624E+06         0.00000E+00
    0.23624E+06        -0.60074E+08         0.00000E+00
    0.00000E+00         0.00000E+00        -0.59797E+08
 
   -0.59633E+08         0.23271E+06         0.00000E+00
    0.23271E+06        -0.60088E+08         0.00000E+00
    0.00000E+00         0.00000E+00        -0.59860E+08
 
   -0.59738E+08         0.22504E+06         0.00000E+00
    0.22504E+06        -0.60096E+08         0.00000E+00
    0.00000E+00         0.00000E+00        -0.59916E+08
 
   -0.59836E+08         0.21076E+06         0.00000E+00
    0.21076E+06        -0.60098E+08         0.00000E+00
    0.00000E+00         0.00000E+00        -0.59966E+08
 
   -0.59924E+08         0.18652E+06         0.00000E+00
    0.18652E+06        -0.60093E+08         0.00000E+00
    0.00000E+00         0.00000E+00        -0.60008E+08
 
   -0.59999E+08         0.14882E+06         0.00000E+00
    0.14882E+06        -0.60084E+08         0.00000E+00
    0.00000E+00         0.00000E+00        -0.60041E+08
 
   -0.60052E+08         0.95027E+05         0.00000E+00
    0.95027E+05        -0.60074E+08         0.00000E+00
    0.00000E+00         0.00000E+00        -0.60064E+08
 
   -0.60074E+08         0.24787E+05         0.00000E+00
    0.24787E+05        -0.60070E+08         0.00000E+00
    0.00000E+00         0.00000E+00        -0.60073E+08
 
   -0.58371E+08         0.45361E+05         0.00000E+00
    0.45361E+05        -0.60001E+08         0.00000E+00
    0.00000E+00         0.00000E+00        -0.59199E+08
 
   -0.58559E+08         0.11768E+06         0.00000E+00
    0.11768E+06        -0.60004E+08         0.00000E+00
    0.00000E+00         0.00000E+00        -0.59282E+08
 
   -0.58761E+08         0.16470E+06         0.00000E+00
    0.16470E+06        -0.60013E+08         0.00000E+00
    0.00000E+00         0.00000E+00        -0.59387E+08
 
   -0.58947E+08         0.19137E+06         0.00000E+00
    0.19137E+06        -0.60029E+08         0.00000E+00
    0.00000E+00         0.00000E+00        -0.59489E+08
 
   -0.59114E+08         0.20430E+06         0.00000E+00
    0.20430E+06        -0.60053E+08         0.00000E+00
    0.00000E+00         0.00000E+00        -0.59584E+08
 
   -0.59264E+08         0.20948E+06         0.00000E+00
    0.20948E+06        -0.60082E+08         0.00000E+00
    0.00000E+00         0.00000E+00        -0.59673E+08
 
   -0.59398E+08         0.21156E+06         0.00000E+00
    0.21156E+06        -0.60114E+08         0.00000E+00
    0.00000E+00         0.00000E+00        -0.59756E+08
 
   -0.59521E+08         0.21328E+06         0.00000E+00
    0.21328E+06        -0.60146E+08         0.00000E+00
    0.00000E+00         0.00000E+00        -0.59833E+08
 
   -0.59635E+08         0.21515E+06         0.00000E+00
    0.21515E+06        -0.60174E+08         0.00000E+00
    0.00000E+00         0.00000E+00        -0.59904E+08
 
   -0.59744E+08         0.21534E+06         0.00000E+00
    0.21534E+06        -0.60193E+08         0.00000E+00
    0.00000E+00         0.00000E+00        -0.59968E+08
 
   -0.59850E+08         0.20998E+06         0.00000E+00
    0.20998E+06        -0.60203E+08         0.00000E+00
    0.00000E+00         0.00000E+00        -0.60025E+08
 
   -0.59952E+08         0.19373E+06         0.00000E+00
    0.19373E+06        -0.60201E+08         0.00000E+00
    0.00000E+00         0.00000E+00        -0.60076E+08
 
   -0.60044E+08         0.16076E+06         0.00000E+00
    0.16076E+06        -0.60191E+08         0.00000E+00
    0.00000E+00         0.00000E+00        -0.60117E+08
 
   -0.60117E+08         0.10590E+06         0.00000E+00
    0.10590E+06        -0.60177E+08         0.00000E+00
    0.00000E+00         0.00000E+00        -0.60147E+08
 
   -0.60158E+08         0.26754E+05         0.00000E+00
    0.26754E+05        -0.60168E+08         0.00000E+00
    0.00000E+00         0.00000E+00        -0.60164E+08
 
   -0.58288E+08         0.43286E+05         0.00000E+00
    0.43286E+05        -0.60001E+08         0.00000E+00
    0.00000E+00         0.00000E+00        -0.59160E+08
 
   -0.58503E+08         0.10956E+06         0.00000E+00
    0.10956E+06        -0.60008E+08         0.00000E+00
    0.00000E+00         0.00000E+00        -0.59256E+08
 
   -0.58729E+08         0.14821E+06         0.00000E+00
    0.14821E+06        -0.60024E+08         0.00000E+00
    0.00000E+00         0.00000E+00        -0.59377E+08
 
   -0.58932E+08         0.16551E+06         0.00000E+00
    0.16551E+06        -0.60050E+08         0.00000E+00
    0.00000E+00         0.00000E+00        -0.59492E+08
 
   -0.59110E+08         0.16989E+06         0.00000E+00
    0.16989E+06        -0.60088E+08         0.00000E+00
    0.00000E+00         0.00000E+00        -0.59599E+08
 
   -0.59263E+08         0.16914E+06         0.00000E+00
    0.16914E+06        -0.60134E+08         0.00000E+00
    0.00000E+00         0.00000E+00        -0.59699E+08
 
   -0.59397E+08         0.16931E+06         0.00000E+00
    0.16931E+06        -0.60185E+08         0.00000E+00
    0.00000E+00         0.00000E+00        -0.59791E+08
 
   -0.59516E+08         0.17387E+06         0.00000E+00
    0.17387E+06        -0.60236E+08         0.00000E+00
    0.00000E+00         0.00000E+00        -0.59876E+08
 
   -0.59628E+08         0.18329E+06         0.00000E+00
    0.18329E+06        -0.60281E+08         0.00000E+00
    0.00000E+00         0.00000E+00        -0.59954E+08
 
   -0.59740E+08         0.19483E+06         0.00000E+00
    0.19483E+06        -0.60315E+08         0.00000E+00
    0.00000E+00         0.00000E+00        -0.60026E+08
 
   -0.59853E+08         0.20288E+06         0.00000E+00
    0.20288E+06        -0.60333E+08         0.00000E+00
    0.00000E+00         0.00000E+00        -0.60092E+08
 
   -0.59970E+08         0.19959E+06         0.00000E+00
    0.19959E+06        -0.60336E+08         0.00000E+00
    0.00000E+00         0.00000E+00        -0.60152E+08
 
   -0.60084E+08         0.17598E+06         0.00000E+00
    0.17598E+06        -0.60325E+08         0.00000E+00
    0.00000E+00         0.00000E+00        -0.60204E+08
 
   -0.60185E+08         0.12343E+06         0.00000E+00
    0.12343E+06        -0.60305E+08         0.00000E+00
    0.00000E+00         0.00000E+00        -0.60245E+08
 
   -0.60255E+08         0.36573E+05         0.00000E+00
    0.36573E+05        -0.60286E+08         0.00000E+00
    0.00000E+00         0.00000E+00        -0.60271E+08
 
   -0.58212E+08         0.39658E+05         0.00000E+00
    0.39658E+05        -0.60002E+08         0.00000E+00
    0.00000E+00         0.00000E+00        -0.59125E+08
 
   -0.58457E+08         0.96369E+05         0.00000E+00
    0.96369E+05        -0.60012E+08         0.00000E+00
    0.00000E+00         0.00000E+00        -0.59235E+08
 
   -0.58709E+08         0.12250E+06         0.00000E+00
    0.12250E+06        -0.60035E+08         0.00000E+00
    0.00000E+00         0.00000E+00        -0.59373E+08
 
   -0.58929E+08         0.12605E+06         0.00000E+00
    0.12605E+06        -0.60074E+08         0.00000E+00
    0.00000E+00         0.00000E+00        -0.59503E+08
 
   -0.59114E+08         0.11799E+06         0.00000E+00
    0.11799E+06        -0.60129E+08         0.00000E+00
    0.00000E+00         0.00000E+00        -0.59623E+08
 
   -0.59267E+08         0.10857E+06         0.00000E+00
    0.10857E+06        -0.60196E+08         0.00000E+00
    0.00000E+00         0.00000E+00        -0.59732E+08
 
   -0.59394E+08         0.10568E+06         0.00000E+00
    0.10568E+06        -0.60271E+08         0.00000E+00
    0.00000E+00         0.00000E+00        -0.59832E+08
 
   -0.59505E+08         0.11378E+06         0.00000E+00
    0.11378E+06        -0.60345E+08         0.00000E+00
    0.00000E+00         0.00000E+00        -0.59924E+08
 
   -0.59611E+08         0.13331E+06         0.00000E+00
    0.13331E+06        -0.60411E+08         0.00000E+00
    0.00000E+00         0.00000E+00        -0.60010E+08
 
   -0.59720E+08         0.16049E+06         0.00000E+00
    0.16049E+06        -0.60463E+08         0.00000E+00
    0.00000E+00         0.00000E+00        -0.60090E+08
 
   -0.59840E+08         0.18765E+06         0.00000E+00
    0.18765E+06        -0.60494E+08         0.00000E+00
    0.00000E+00         0.00000E+00        -0.60165E+08
 
   -0.59973E+08         0.20380E+06         0.00000E+00
    0.20380E+06        -0.60503E+08         0.00000E+00
    0.00000E+00         0.00000E+00        -0.60236E+08
 
   -0.60115E+08         0.19590E+06         0.00000E+00
    0.19590E+06        -0.60489E+08         0.00000E+00
    0.00000E+00         0.00000E+00        -0.60301E+08
 
   -0.60254E+08         0.15066E+06         0.00000E+00
    0.15066E+06        -0.60461E+08         0.00000E+00
    0.00000E+00         0.00000E+00        -0.60357E+08
 
   -0.60365E+08         0.58486E+05         0.00000E+00
    0.58486E+05        -0.60429E+08         0.00000E+00
    0.00000E+00         0.00000E+00        -0.60396E+08
 
   -0.58145E+08         0.34476E+05         0.00000E+00
    0.34476E+05        -0.60003E+08         0.00000E+00
    0.00000E+00         0.00000E+00        -0.59094E+08
 
   -0.58424E+08         0.77646E+05         0.00000E+00
    0.77646E+05        -0.60016E+08         0.00000E+00
    0.00000E+00         0.00000E+00        -0.59221E+08
 
   -0.58705E+08         0.86090E+05         0.00000E+00
    0.86090E+05        -0.60048E+08         0.00000E+00
    0.00000E+00         0.00000E+00        -0.59378E+08
 
   -0.58943E+08         0.70264E+05         0.00000E+00
    0.70264E+05        -0.60102E+08         0.00000E+00
    0.00000E+00         0.00000E+00        -0.59524E+08
 
   -0.59132E+08         0.44764E+05         0.00000E+00
    0.44764E+05        -0.60177E+08         0.00000E+00
    0.00000E+00         0.00000E+00        -0.59656E+08
 
   -0.59278E+08         0.23204E+05         0.00000E+00
    0.23204E+05        -0.60270E+08         0.00000E+00
    0.00000E+00         0.00000E+00        -0.59775E+08
 
   -0.59392E+08         0.15847E+05         0.00000E+00
    0.15847E+05        -0.60372E+08         0.00000E+00
    0.00000E+00         0.00000E+00        -0.59882E+08
 
   -0.59487E+08         0.28290E+05         0.00000E+00
    0.28290E+05        -0.60475E+08         0.00000E+00
    0.00000E+00         0.00000E+00        -0.59980E+08
 
   -0.59578E+08         0.60924E+05         0.00000E+00
    0.60924E+05        -0.60568E+08         0.00000E+00
    0.00000E+00         0.00000E+00        -0.60071E+08
 
   -0.59680E+08         0.10885E+06         0.00000E+00
    0.10885E+06        -0.60641E+08         0.00000E+00
    0.00000E+00         0.00000E+00        -0.60158E+08
 
   -0.59803E+08         0.16206E+06         0.00000E+00
    0.16206E+06        -0.60688E+08         0.00000E+00
    0.00000E+00         0.00000E+00        -0.60243E+08
 
   -0.59954E+08         0.20589E+06         0.00000E+00
    0.20589E+06        -0.60703E+08         0.00000E+00
    0.00000E+00         0.00000E+00        -0.60326E+08
 
   -0.60130E+08         0.22219E+06         0.00000E+00
    0.22219E+06        -0.60688E+08         0.00000E+00
    0.00000E+00         0.00000E+00        -0.60407E+08
 
   -0.60319E+08         0.19144E+06         0.00000E+00
    0.19144E+06        -0.60648E+08         0.00000E+00
    0.00000E+00         0.00000E+00        -0.60483E+08
 
   -0.60487E+08         0.98044E+05         0.00000E+00
    0.98044E+05        -0.60597E+08         0.00000E+00
    0.00000E+00         0.00000E+00        -0.60539E+08
 
   -0.58091E+08         0.27888E+05         0.00000E+00
    0.27888E+05        -0.60003E+08         0.00000E+00
    0.00000E+00         0.00000E+00        -0.59071E+08
 
   -0.58409E+08         0.53124E+05         0.00000E+00
    0.53124E+05        -0.60020E+08         0.00000E+00
    0.00000E+00         0.00000E+00        -0.59216E+08
 
   -0.58724E+08         0.37316E+05         0.00000E+00
    0.37316E+05        -0.60062E+08         0.00000E+00
    0.00000E+00         0.00000E+00        -0.59395E+08
 
   -0.58978E+08        -0.51814E+04         0.00000E+00
   -0.51814E+04        -0.60133E+08         0.00000E+00
    0.00000E+00         0.00000E+00        -0.59558E+08
 
   -0.59167E+08        -0.54363E+05         0.00000E+00
   -0.54363E+05        -0.60234E+08         0.00000E+00
    0.00000E+00         0.00000E+00        -0.59702E+08
 
   -0.59300E+08        -0.92077E+05         0.00000E+00
   -0.92077E+05        -0.60357E+08         0.00000E+00
    0.00000E+00         0.00000E+00        -0.59829E+08
 
   -0.59390E+08        -0.10531E+06         0.00000E+00
   -0.10531E+06        -0.60493E+08         0.00000E+00
    0.00000E+00         0.00000E+00        -0.59941E+08
 
   -0.59459E+08        -0.87436E+05         0.00000E+00
   -0.87436E+05        -0.60628E+08         0.00000E+00
    0.00000E+00         0.00000E+00        -0.60042E+08
 
   -0.59526E+08        -0.38272E+05         0.00000E+00
   -0.38272E+05        -0.60752E+08         0.00000E+00
    0.00000E+00         0.00000E+00        -0.60137E+08
 
   -0.59612E+08         0.36131E+05         0.00000E+00
    0.36131E+05        -0.60851E+08         0.00000E+00
    0.00000E+00         0.00000E+00        -0.60229E+08
 
   -0.59734E+08         0.12346E+06         0.00000E+00
    0.12346E+06        -0.60917E+08         0.00000E+00
    0.00000E+00         0.00000E+00        -0.60322E+08
 
   -0.59902E+08         0.20509E+06         0.00000E+00
    0.20509E+06        -0.60941E+08         0.00000E+00
    0.00000E+00         0.00000E+00        -0.60418E+08
 
   -0.60119E+08         0.25670E+06         0.00000E+00
    0.25670E+06        -0.60923E+08         0.00000E+00
    0.00000E+00         0.00000E+00        -0.60518E+08
 
   -0.60372E+08         0.25048E+06         0.00000E+00
    0.25048E+06        -0.60868E+08         0.00000E+00
    0.00000E+00         0.00000E+00        -0.60619E+08
 
   -0.60617E+08         0.16242E+06         0.00000E+00
    0.16242E+06        -0.60792E+08         0.00000E+00
    0.00000E+00         0.00000E+00        -0.60699E+08
 
   -0.58053E+08         0.20281E+05         0.00000E+00
    0.20281E+05        -0.60003E+08         0.00000E+00
    0.00000E+00         0.00000E+00        -0.59056E+08
 
   -0.58419E+08         0.22498E+05         0.00000E+00
    0.22498E+05        -0.60024E+08         0.00000E+00
    0.00000E+00         0.00000E+00        -0.59224E+08
 
   -0.58773E+08        -0.26232E+05         0.00000E+00
   -0.26232E+05        -0.60077E+08         0.00000E+00
    0.00000E+00         0.00000E+00        -0.59428E+08
 
   -0.59044E+08        -0.10479E+06         0.00000E+00
   -0.10479E+06        -0.60170E+08         0.00000E+00
    0.00000E+00         0.00000E+00        -0.59610E+08
 
   -0.59226E+08        -0.18498E+06         0.00000E+00
   -0.18498E+06        -0.60302E+08         0.00000E+00
    0.00000E+00         0.00000E+00        -0.59766E+08
 
   -0.59333E+08        -0.24276E+06         0.00000E+00
   -0.24276E+06        -0.60461E+08         0.00000E+00
    0.00000E+00         0.00000E+00        -0.59898E+08
 
   -0.59388E+08        -0.26253E+06         0.00000E+00
   -0.26253E+06        -0.60635E+08         0.00000E+00
    0.00000E+00         0.00000E+00        -0.60012E+08
 
   -0.59418E+08        -0.23745E+06         0.00000E+00
   -0.23745E+06        -0.60808E+08         0.00000E+00
    0.00000E+00         0.00000E+00        -0.60112E+08
 
   -0.59450E+08        -0.16805E+06         0.00000E+00
   -0.16805E+06        -0.60965E+08         0.00000E+00
    0.00000E+00         0.00000E+00        -0.60205E+08
 
   -0.59510E+08        -0.61349E+05         0.00000E+00
   -0.61349E+05        -0.61094E+08         0.00000E+00
    0.00000E+00         0.00000E+00        -0.60299E+08
 
   -0.59623E+08         0.68729E+05         0.00000E+00
    0.68729E+05        -0.61181E+08         0.00000E+00
    0.00000E+00         0.00000E+00        -0.60398E+08
 
   -0.59807E+08         0.20001E+06         0.00000E+00
    0.20001E+06        -0.61218E+08         0.00000E+00
    0.00000E+00         0.00000E+00        -0.60507E+08
 
   -0.60070E+08         0.30116E+06         0.00000E+00
    0.30116E+06        -0.61197E+08         0.00000E+00
    0.00000E+00         0.00000E+00        -0.60629E+08
 
   -0.60403E+08         0.33347E+06         0.00000E+00
    0.33347E+06        -0.61123E+08         0.00000E+00
    0.00000E+00         0.00000E+00        -0.60760E+08
 
   -0.60750E+08         0.26080E+06         0.00000E+00
    0.26080E+06        -0.61014E+08         0.00000E+00
    0.00000E+00         0.00000E+00        -0.60872E+08
 
   -0.58034E+08         0.12197E+05         0.00000E+00
    0.12197E+05        -0.60004E+08         0.00000E+00
    0.00000E+00         0.00000E+00        -0.59052E+08
 
   -0.58463E+08        -0.15209E+05         0.00000E+00
   -0.15209E+05        -0.60028E+08         0.00000E+00
    0.00000E+00         0.00000E+00        -0.59249E+08
 
   -0.58865E+08        -0.10861E+06         0.00000E+00
   -0.10861E+06        -0.60096E+08         0.00000E+00
    0.00000E+00         0.00000E+00        -0.59484E+08
 
   -0.59150E+08        -0.23531E+06         0.00000E+00
   -0.23531E+06        -0.60218E+08         0.00000E+00
    0.00000E+00         0.00000E+00        -0.59688E+08
 
   -0.59313E+08        -0.35415E+06         0.00000E+00
   -0.35415E+06        -0.60389E+08         0.00000E+00
    0.00000E+00         0.00000E+00        -0.59854E+08
 
   -0.59380E+08        -0.43412E+06         0.00000E+00
   -0.43412E+06        -0.60592E+08         0.00000E+00
    0.00000E+00         0.00000E+00        -0.59987E+08
 
   -0.59385E+08        -0.45878E+06         0.00000E+00
   -0.45878E+06        -0.60806E+08         0.00000E+00
    0.00000E+00         0.00000E+00        -0.60095E+08
 
   -0.59361E+08        -0.42326E+06         0.00000E+00
   -0.42326E+06        -0.61016E+08         0.00000E+00
    0.00000E+00         0.00000E+00        -0.60187E+08
 
   -0.59345E+08        -0.32998E+06         0.00000E+00
   -0.32998E+06        -0.61206E+08         0.00000E+00
    0.00000E+00         0.00000E+00        -0.60273E+08
 
   -0.59367E+08        -0.18631E+06         0.00000E+00
   -0.18631E+06        -0.61365E+08         0.00000E+00
    0.00000E+00         0.00000E+00        -0.60363E+08
 
   -0.59460E+08        -0.57953E+04         0.00000E+00
   -0.57953E+04        -0.61478E+08         0.00000E+00
    0.00000E+00         0.00000E+00        -0.60464E+08
 
   -0.59652E+08         0.18785E+06         0.00000E+00
    0.18785E+06        -0.61530E+08         0.00000E+00
    0.00000E+00         0.00000E+00        -0.60585E+08
 
   -0.59965E+08         0.35643E+06         0.00000E+00
    0.35643E+06        -0.61508E+08         0.00000E+00
    0.00000E+00         0.00000E+00        -0.60731E+08
 
   -0.60396E+08         0.44691E+06         0.00000E+00
    0.44691E+06        -0.61412E+08         0.00000E+00
    0.00000E+00         0.00000E+00        -0.60901E+08
 
   -0.60877E+08         0.40497E+06         0.00000E+00
    0.40497E+06        -0.61260E+08         0.00000E+00
    0.00000E+00         0.00000E+00        -0.61053E+08
 
   -0.58037E+08         0.36271E+04         0.00000E+00
    0.36271E+04        -0.60004E+08         0.00000E+00
    0.00000E+00         0.00000E+00        -0.59059E+08
 
   -0.58551E+08        -0.61658E+05         0.00000E+00
   -0.61658E+05        -0.60033E+08         0.00000E+00
    0.00000E+00         0.00000E+00        -0.59296E+08
 
   -0.59014E+08        -0.21787E+06         0.00000E+00
   -0.21787E+06        -0.60123E+08         0.00000E+00
    0.00000E+00         0.00000E+00        -0.59573E+08
 
   -0.59306E+08        -0.40798E+06         0.00000E+00
   -0.40798E+06        -0.60287E+08         0.00000E+00
    0.00000E+00         0.00000E+00        -0.59800E+08
 
   -0.59432E+08        -0.57086E+06         0.00000E+00
   -0.57086E+06        -0.60510E+08         0.00000E+00
    0.00000E+00         0.00000E+00        -0.59973E+08
 
   -0.59438E+08        -0.66979E+06         0.00000E+00
   -0.66979E+06        -0.60761E+08         0.00000E+00
    0.00000E+00         0.00000E+00        -0.60099E+08
 
   -0.59374E+08        -0.69245E+06         0.00000E+00
   -0.69245E+06        -0.61015E+08         0.00000E+00
    0.00000E+00         0.00000E+00        -0.60193E+08
 
   -0.59286E+08        -0.64072E+06         0.00000E+00
   -0.64072E+06        -0.61255E+08         0.00000E+00
    0.00000E+00         0.00000E+00        -0.60268E+08
 
   -0.59209E+08        -0.52077E+06         0.00000E+00
   -0.52077E+06        -0.61471E+08         0.00000E+00
    0.00000E+00         0.00000E+00        -0.60337E+08
 
   -0.59180E+08        -0.33893E+06         0.00000E+00
   -0.33893E+06        -0.61654E+08         0.00000E+00
    0.00000E+00         0.00000E+00        -0.60413E+08
 
   -0.59237E+08        -0.10430E+06         0.00000E+00
   -0.10430E+06        -0.61793E+08         0.00000E+00
    0.00000E+00         0.00000E+00        -0.60509E+08
 
   -0.59423E+08         0.16303E+06         0.00000E+00
    0.16303E+06        -0.61867E+08         0.00000E+00
    0.00000E+00         0.00000E+00        -0.60637E+08
 
   -0.59782E+08         0.42066E+06         0.00000E+00
    0.42066E+06        -0.61852E+08         0.00000E+00
    0.00000E+00         0.00000E+00        -0.60808E+08
 
   -0.60329E+08         0.59734E+06         0.00000E+00
    0.59734E+06        -0.61733E+08         0.00000E+00
    0.00000E+00         0.00000E+00        -0.61025E+08
 
   -0.60983E+08         0.61002E+06         0.00000E+00
    0.61002E+06        -0.61525E+08         0.00000E+00
    0.00000E+00         0.00000E+00        -0.61230E+08
 
   -0.58065E+08        -0.27271E+04         0.00000E+00
   -0.27271E+04        -0.59999E+08         0.00000E+00
    0.00000E+00         0.00000E+00        -0.59080E+08
 
   -0.58706E+08        -0.12523E+06         0.00000E+00
   -0.12523E+06        -0.60043E+08         0.00000E+00
    0.00000E+00         0.00000E+00        -0.59382E+08
 
   -0.59242E+08        -0.37254E+06         0.00000E+00
   -0.37254E+06        -0.60178E+08         0.00000E+00
    0.00000E+00         0.00000E+00        -0.59717E+08
 
   -0.59520E+08        -0.64189E+06         0.00000E+00
   -0.64189E+06        -0.60410E+08         0.00000E+00
    0.00000E+00         0.00000E+00        -0.59971E+08
 
   -0.59577E+08        -0.84577E+06         0.00000E+00
   -0.84577E+06        -0.60702E+08         0.00000E+00
    0.00000E+00         0.00000E+00        -0.60141E+08
 
   -0.59495E+08        -0.94807E+06         0.00000E+00
   -0.94807E+06        -0.61004E+08         0.00000E+00
    0.00000E+00         0.00000E+00        -0.60248E+08
 
   -0.59348E+08        -0.95240E+06         0.00000E+00
   -0.95240E+06        -0.61285E+08         0.00000E+00
    0.00000E+00         0.00000E+00        -0.60314E+08
 
   -0.59186E+08        -0.87504E+06         0.00000E+00
   -0.87504E+06        -0.61533E+08         0.00000E+00
    0.00000E+00         0.00000E+00        -0.60358E+08
 
   -0.59043E+08        -0.72792E+06         0.00000E+00
   -0.72792E+06        -0.61753E+08         0.00000E+00
    0.00000E+00         0.00000E+00        -0.60397E+08
 
   -0.58950E+08        -0.51389E+06         0.00000E+00
   -0.51389E+06        -0.61948E+08         0.00000E+00
    0.00000E+00         0.00000E+00        -0.60447E+08
 
   -0.58950E+08        -0.23094E+06         0.00000E+00
   -0.23094E+06        -0.62110E+08         0.00000E+00
    0.00000E+00         0.00000E+00        -0.60527E+08
 
   -0.59104E+08         0.11481E+06         0.00000E+00
    0.11481E+06        -0.62215E+08         0.00000E+00
    0.00000E+00         0.00000E+00        -0.60652E+08
 
   -0.59491E+08         0.48564E+06         0.00000E+00
    0.48564E+06        -0.62219E+08         0.00000E+00
    0.00000E+00         0.00000E+00        -0.60844E+08
 
   -0.60167E+08         0.78939E+06         0.00000E+00
    0.78939E+06        -0.62082E+08         0.00000E+00
    0.00000E+00         0.00000E+00        -0.61116E+08
 
   -0.61045E+08         0.89632E+06         0.00000E+00
    0.89632E+06        -0.61806E+08         0.00000E+00
    0.00000E+00         0.00000E+00        -0.61390E+08
 
   -0.58131E+08        -0.13383E+05         0.00000E+00
   -0.13383E+05        -0.60015E+08         0.00000E+00
    0.00000E+00         0.00000E+00        -0.59156E+08
 
   -0.58961E+08        -0.22960E+06         0.00000E+00
   -0.22960E+06        -0.60089E+08         0.00000E+00
    0.00000E+00         0.00000E+00        -0.59540E+08
 
   -0.59575E+08        -0.60624E+06         0.00000E+00
   -0.60624E+06        -0.60298E+08         0.00000E+00
    0.00000E+00         0.00000E+00        -0.59949E+08
 
   -0.59794E+08        -0.96771E+06         0.00000E+00
   -0.96771E+06        -0.60640E+08         0.00000E+00
    0.00000E+00         0.00000E+00        -0.60222E+08
 
   -0.59725E+08        -0.11865E+07         0.00000E+00
   -0.11865E+07        -0.61022E+08         0.00000E+00
    0.00000E+00         0.00000E+00        -0.60371E+08
 
   -0.59524E+08        -0.12531E+07         0.00000E+00
   -0.12531E+07        -0.61361E+08         0.00000E+00
    0.00000E+00         0.00000E+00        -0.60439E+08
 
   -0.59287E+08        -0.12099E+07         0.00000E+00
   -0.12099E+07        -0.61632E+08         0.00000E+00
    0.00000E+00         0.00000E+00        -0.60457E+08
 
   -0.59057E+08        -0.10946E+07         0.00000E+00
   -0.10946E+07        -0.61849E+08         0.00000E+00
    0.00000E+00         0.00000E+00        -0.60453E+08
 
   -0.58853E+08        -0.92428E+06         0.00000E+00
   -0.92428E+06        -0.62034E+08         0.00000E+00
    0.00000E+00         0.00000E+00        -0.60445E+08
 
   -0.58693E+08        -0.69506E+06         0.00000E+00
   -0.69506E+06        -0.62209E+08         0.00000E+00
    0.00000E+00         0.00000E+00        -0.60453E+08
 
   -0.58613E+08        -0.38676E+06         0.00000E+00
   -0.38676E+06        -0.62380E+08         0.00000E+00
    0.00000E+00         0.00000E+00        -0.60497E+08
 
   -0.58688E+08         0.24487E+05         0.00000E+00
    0.24487E+05        -0.62526E+08         0.00000E+00
    0.00000E+00         0.00000E+00        -0.60601E+08
 
   -0.59052E+08         0.52972E+06         0.00000E+00
    0.52972E+06        -0.62580E+08         0.00000E+00
    0.00000E+00         0.00000E+00        -0.60803E+08
 
   -0.59851E+08         0.10232E+07         0.00000E+00
    0.10232E+07        -0.62447E+08         0.00000E+00
    0.00000E+00         0.00000E+00        -0.61135E+08
 
   -0.61019E+08         0.12933E+07         0.00000E+00
    0.12933E+07        -0.62087E+08         0.00000E+00
    0.00000E+00         0.00000E+00        -0.61499E+08
 
   -0.58258E+08        -0.43333E+05         0.00000E+00
   -0.43333E+05        -0.60002E+08         0.00000E+00
    0.00000E+00         0.00000E+00        -0.59195E+08
 
   -0.59379E+08        -0.39533E+06         0.00000E+00
   -0.39533E+06        -0.60110E+08         0.00000E+00
    0.00000E+00         0.00000E+00        -0.59740E+08
 
   -0.60054E+08        -0.99770E+06         0.00000E+00
   -0.99770E+06        -0.60500E+08         0.00000E+00
    0.00000E+00         0.00000E+00        -0.60262E+08
 
   -0.60089E+08        -0.14323E+07         0.00000E+00
   -0.14323E+07        -0.61053E+08         0.00000E+00
    0.00000E+00         0.00000E+00        -0.60541E+08
 
   -0.59814E+08        -0.15786E+07         0.00000E+00
   -0.15786E+07        -0.61526E+08         0.00000E+00
    0.00000E+00         0.00000E+00        -0.60637E+08
 
   -0.59480E+08        -0.15373E+07         0.00000E+00
   -0.15373E+07        -0.61844E+08         0.00000E+00
    0.00000E+00         0.00000E+00        -0.60632E+08
 
   -0.59171E+08        -0.14096E+07         0.00000E+00
   -0.14096E+07        -0.62036E+08         0.00000E+00
    0.00000E+00         0.00000E+00        -0.60578E+08
 
   -0.58899E+08        -0.12470E+07         0.00000E+00
   -0.12470E+07        -0.62153E+08         0.00000E+00
    0.00000E+00         0.00000E+00        -0.60505E+08
 
   -0.58656E+08        -0.10640E+07         0.00000E+00
   -0.10640E+07        -0.62245E+08         0.00000E+00
    0.00000E+00         0.00000E+00        -0.60432E+08
 
   -0.58437E+08        -0.84781E+06         0.00000E+00
   -0.84781E+06        -0.62349E+08         0.00000E+00
    0.00000E+00         0.00000E+00        -0.60377E+08
 
   -0.58259E+08        -0.55985E+06         0.00000E+00
   -0.55985E+06        -0.62493E+08         0.00000E+00
    0.00000E+00         0.00000E+00        -0.60361E+08
 
   -0.58191E+08        -0.13338E+06         0.00000E+00
   -0.13338E+06        -0.62677E+08         0.00000E+00
    0.00000E+00         0.00000E+00        -0.60414E+08
 
   -0.58425E+08         0.49705E+06         0.00000E+00
    0.49705E+06        -0.62833E+08         0.00000E+00
    0.00000E+00         0.00000E+00        -0.60597E+08
 
   -0.59280E+08         0.12698E+07         0.00000E+00
    0.12698E+07        -0.62783E+08         0.00000E+00
    0.00000E+00         0.00000E+00        -0.60992E+08
 
   -0.60831E+08         0.18396E+07         0.00000E+00
    0.18396E+07        -0.62352E+08         0.00000E+00
    0.00000E+00         0.00000E+00        -0.61502E+08
 
   -0.58500E+08        -0.11616E+05         0.00000E+00
   -0.11616E+05        -0.59920E+08         0.00000E+00
    0.00000E+00         0.00000E+00        -0.59377E+08
 
   -0.60152E+08        -0.85011E+06         0.00000E+00
   -0.85011E+06        -0.60357E+08         0.00000E+00
    0.00000E+00         0.00000E+00        -0.60324E+08
 
   -0.60651E+08        -0.17576E+07         0.00000E+00
   -0.17576E+07        -0.61334E+08         0.00000E+00
    0.00000E+00         0.00000E+00        -0.61009E+08
 
   -0.60255E+08        -0.20367E+07         0.00000E+00
   -0.20367E+07        -0.62147E+08         0.00000E+00
    0.00000E+00         0.00000E+00        -0.61211E+08
 
   -0.59736E+08        -0.19252E+07         0.00000E+00
   -0.19252E+07        -0.62564E+08         0.00000E+00
    0.00000E+00         0.00000E+00        -0.61170E+08
 
   -0.59314E+08        -0.16988E+07         0.00000E+00
   -0.16988E+07        -0.62706E+08         0.00000E+00
    0.00000E+00         0.00000E+00        -0.61039E+08
 
   -0.58986E+08        -0.14673E+07         0.00000E+00
   -0.14673E+07        -0.62703E+08         0.00000E+00
    0.00000E+00         0.00000E+00        -0.60880E+08
 
   -0.58717E+08        -0.12632E+07         0.00000E+00
   -0.12632E+07        -0.62638E+08         0.00000E+00
    0.00000E+00         0.00000E+00        -0.60717E+08
 
   -0.58472E+08        -0.10853E+07         0.00000E+00
   -0.10853E+07        -0.62568E+08         0.00000E+00
    0.00000E+00         0.00000E+00        -0.60562E+08
 
   -0.58223E+08        -0.91254E+06         0.00000E+00
   -0.91254E+06        -0.62533E+08         0.00000E+00
    0.00000E+00         0.00000E+00        -0.60423E+08
 
   -0.57955E+08        -0.69975E+06         0.00000E+00
   -0.69975E+06        -0.62572E+08         0.00000E+00
    0.00000E+00         0.00000E+00        -0.60311E+08
 
   -0.57692E+08        -0.35520E+06         0.00000E+00
   -0.35520E+06        -0.62725E+08         0.00000E+00
    0.00000E+00         0.00000E+00        -0.60254E+08
 
   -0.57614E+08         0.29795E+06         0.00000E+00
    0.29795E+06        -0.62989E+08         0.00000E+00
    0.00000E+00         0.00000E+00        -0.60332E+08
 
   -0.58278E+08         0.14097E+07         0.00000E+00
    0.14097E+07        -0.63142E+08         0.00000E+00
    0.00000E+00         0.00000E+00        -0.60704E+08
 
   -0.60289E+08         0.26151E+07         0.00000E+00
    0.26151E+07        -0.62675E+08         0.00000E+00
    0.00000E+00         0.00000E+00        -0.61336E+08
 
   -0.59319E+08        -0.30638E+06         0.00000E+00
   -0.30638E+06        -0.60493E+08         0.00000E+00
    0.00000E+00         0.00000E+00        -0.61093E+08
 
   -0.61426E+08        -0.23481E+07         0.00000E+00
   -0.23481E+07        -0.62301E+08         0.00000E+00
    0.00000E+00         0.00000E+00        -0.62119E+08
 
   -0.60917E+08        -0.28673E+07         0.00000E+00
   -0.28673E+07        -0.63841E+08         0.00000E+00
    0.00000E+00         0.00000E+00        -0.62531E+08
 
   -0.60018E+08        -0.24602E+07         0.00000E+00
   -0.24602E+07        -0.64306E+08         0.00000E+00
    0.00000E+00         0.00000E+00        -0.62355E+08
 
   -0.59412E+08        -0.19746E+07         0.00000E+00
   -0.19746E+07        -0.64229E+08         0.00000E+00
    0.00000E+00         0.00000E+00        -0.62023E+08
 
   -0.59022E+08        -0.15787E+07         0.00000E+00
   -0.15787E+07        -0.63956E+08         0.00000E+00
    0.00000E+00         0.00000E+00        -0.61696E+08
 
   -0.58751E+08        -0.12861E+07         0.00000E+00
   -0.12861E+07        -0.63633E+08         0.00000E+00
    0.00000E+00         0.00000E+00        -0.61400E+08
 
   -0.58534E+08        -0.10764E+07         0.00000E+00
   -0.10764E+07        -0.63317E+08         0.00000E+00
    0.00000E+00         0.00000E+00        -0.61132E+08
 
   -0.58322E+08        -0.92645E+06         0.00000E+00
   -0.92645E+06        -0.63035E+08         0.00000E+00
    0.00000E+00         0.00000E+00        -0.60884E+08
 
   -0.58078E+08        -0.81229E+06         0.00000E+00
   -0.81229E+06        -0.62800E+08         0.00000E+00
    0.00000E+00         0.00000E+00        -0.60644E+08
 
   -0.57758E+08        -0.69866E+06         0.00000E+00
   -0.69866E+06        -0.62638E+08         0.00000E+00
    0.00000E+00         0.00000E+00        -0.60403E+08
 
   -0.57320E+08        -0.50999E+06         0.00000E+00
   -0.50999E+06        -0.62594E+08         0.00000E+00
    0.00000E+00         0.00000E+00        -0.60160E+08
 
   -0.56775E+08        -0.48024E+05         0.00000E+00
   -0.48024E+05        -0.62754E+08         0.00000E+00
    0.00000E+00         0.00000E+00        -0.59965E+08
 
   -0.56644E+08         0.12605E+07         0.00000E+00
    0.12605E+07        -0.63105E+08         0.00000E+00
    0.00000E+00         0.00000E+00        -0.59976E+08
 
   -0.58656E+08         0.37655E+07         0.00000E+00
    0.37655E+07        -0.62654E+08         0.00000E+00
    0.00000E+00         0.00000E+00        -0.60285E+08
 
   -0.62138E+08        -0.28566E+07         0.00000E+00
   -0.28566E+07        -0.62976E+08         0.00000E+00
    0.00000E+00         0.00000E+00        -0.62319E+08
 
   -0.61963E+08        -0.43518E+07         0.00000E+00
   -0.43518E+07        -0.64957E+08         0.00000E+00
    0.00000E+00         0.00000E+00        -0.61708E+08
 
   -0.60170E+08        -0.30201E+07         0.00000E+00
   -0.30201E+07        -0.64562E+08         0.00000E+00
    0.00000E+00         0.00000E+00        -0.60960E+08
 
   -0.59376E+08        -0.20337E+07         0.00000E+00
   -0.20337E+07        -0.63561E+08         0.00000E+00
    0.00000E+00         0.00000E+00        -0.60155E+08
 
   -0.58946E+08        -0.14315E+07         0.00000E+00
   -0.14315E+07        -0.62624E+08         0.00000E+00
    0.00000E+00         0.00000E+00        -0.59504E+08
 
   -0.58699E+08        -0.10593E+07         0.00000E+00
   -0.10593E+07        -0.61845E+08         0.00000E+00
    0.00000E+00         0.00000E+00        -0.59005E+08
 
   -0.58531E+08        -0.82279E+06         0.00000E+00
   -0.82279E+06        -0.61207E+08         0.00000E+00
    0.00000E+00         0.00000E+00        -0.58611E+08
 
   -0.58383E+08        -0.67020E+06         0.00000E+00
   -0.67020E+06        -0.60674E+08         0.00000E+00
    0.00000E+00         0.00000E+00        -0.58278E+08
 
   -0.58219E+08        -0.57166E+06         0.00000E+00
   -0.57166E+06        -0.60217E+08         0.00000E+00
    0.00000E+00         0.00000E+00        -0.57974E+08
 
   -0.57999E+08        -0.50789E+06         0.00000E+00
   -0.50789E+06        -0.59810E+08         0.00000E+00
    0.00000E+00         0.00000E+00        -0.57669E+08
 
   -0.57667E+08        -0.45941E+06         0.00000E+00
   -0.45941E+06        -0.59444E+08         0.00000E+00
    0.00000E+00         0.00000E+00        -0.57332E+08
 
   -0.57125E+08        -0.38737E+06         0.00000E+00
   -0.38737E+06        -0.59127E+08         0.00000E+00
    0.00000E+00         0.00000E+00        -0.56925E+08
 
   -0.56215E+08        -0.17292E+06         0.00000E+00
   -0.17292E+06        -0.58926E+08         0.00000E+00
    0.00000E+00         0.00000E+00        -0.56416E+08
 
   -0.54558E+08         0.71433E+06         0.00000E+00
    0.71433E+06        -0.59087E+08         0.00000E+00
    0.00000E+00         0.00000E+00        -0.55799E+08
 
   -0.54163E+08         0.48516E+07         0.00000E+00
    0.48516E+07        -0.59387E+08         0.00000E+00
    0.00000E+00         0.00000E+00        -0.55159E+08
 
   -0.66552E+08        -0.49154E+07         0.00000E+00
   -0.49154E+07        -0.56595E+08         0.00000E+00
    0.00000E+00         0.00000E+00        -0.45495E+08
 
   -0.60153E+08        -0.23379E+07         0.00000E+00
   -0.23379E+07        -0.52102E+08         0.00000E+00
    0.00000E+00         0.00000E+00        -0.44120E+08
 
   -0.59220E+08        -0.11320E+07         0.00000E+00
   -0.11320E+07        -0.49059E+08         0.00000E+00
    0.00000E+00         0.00000E+00        -0.43346E+08
 
   -0.58825E+08        -0.66793E+06         0.00000E+00
   -0.66793E+06        -0.47255E+08         0.00000E+00
    0.00000E+00         0.00000E+00        -0.42779E+08
 
   -0.58628E+08        -0.43526E+06         0.00000E+00
   -0.43526E+06        -0.46096E+08         0.00000E+00
    0.00000E+00         0.00000E+00        -0.42390E+08
 
   -0.58504E+08        -0.30802E+06         0.00000E+00
   -0.30802E+06        -0.45294E+08         0.00000E+00
    0.00000E+00         0.00000E+00        -0.42113E+08
 
   -0.58407E+08        -0.23169E+06         0.00000E+00
   -0.23169E+06        -0.44702E+08         0.00000E+00
    0.00000E+00         0.00000E+00        -0.41905E+08
 
   -0.58303E+08        -0.18298E+06         0.00000E+00
   -0.18298E+06        -0.44241E+08         0.00000E+00
    0.00000E+00         0.00000E+00        -0.41732E+08
 
   -0.58166E+08        -0.15039E+06         0.00000E+00
   -0.15039E+06        -0.43864E+08         0.00000E+00
    0.00000E+00         0.00000E+00        -0.41576E+08
 
   -0.57961E+08        -0.12657E+06         0.00000E+00
   -0.12657E+06        -0.43541E+08         0.00000E+00
    0.00000E+00         0.00000E+00        -0.41418E+08
 
   -0.57627E+08        -0.10417E+06         0.00000E+00
   -0.10417E+06        -0.43258E+08         0.00000E+00
    0.00000E+00         0.00000E+00        -0.41237E+08
 
   -0.57042E+08        -0.70490E+05         0.00000E+00
   -0.70490E+05        -0.43020E+08         0.00000E+00
    0.00000E+00         0.00000E+00        -0.41007E+08
 
   -0.55923E+08         0.20988E+05         0.00000E+00
    0.20988E+05        -0.42884E+08         0.00000E+00
    0.00000E+00         0.00000E+00        -0.40689E+08
 
   -0.53485E+08         0.29019E+06         0.00000E+00
    0.29019E+06        -0.43112E+08         0.00000E+00
    0.00000E+00         0.00000E+00        -0.40220E+08
 
   -0.45529E+08         0.26986E+07         0.00000E+00
    0.26986E+07        -0.45514E+08         0.00000E+00
    0.00000E+00         0.00000E+00        -0.39601E+08
 
SCALARS stresss double 
LOOKUP_TABLE default
  -59584024.2891263     
  -59589698.9071356     
  -59598439.5970300     
  -59609392.7503815     
  -59622024.2672444     
  -59635835.6680509     
  -59650337.2429653     
  -59665080.4467203     
  -59679672.2591542     
  -59693786.9021132     
  -59707175.5916560     
  -59719672.7522611     
  -59731263.2740004     
  -59742039.0275352     
  -59751159.8903159     
  -59580301.3262338     
  -59586073.1375957     
  -59595255.2580943     
  -59606718.5822577     
  -59619865.8466535     
  -59634168.5234427     
  -59649119.4657313     
  -59664257.0101326     
  -59679176.5903221     
  -59693540.9615630     
  -59707089.1400258     
  -59719641.3556340     
  -59731156.8988497     
  -59741688.2274033     
  -59750294.8369082     
  -59573739.1196052     
  -59580353.8434270     
  -59590562.3711404     
  -59603105.4773091     
  -59617310.2730993     
  -59632612.1237278     
  -59648474.6766686     
  -59664412.3275749     
  -59679998.7058349     
  -59694874.6779194     
  -59708756.2141334     
  -59721437.9635375     
  -59732841.9259881     
  -59742966.2029261     
  -59750996.6580512     
  -59563721.9249047     
  -59571856.9186818     
  -59583803.7517845     
  -59598055.7629664     
  -59613898.4844395     
  -59630735.5690253     
  -59647995.5194748     
  -59665160.7286798     
  -59681774.5509151     
  -59697446.9885129     
  -59711861.7018662     
  -59724779.5802322     
  -59736079.9839659     
  -59745730.5525977     
  -59753058.1448294     
  -59550155.8888969     
  -59560385.8059975     
  -59574775.2835417     
  -59591405.7102222     
  -59609505.6040814     
  -59628448.6666707     
  -59647623.3032290     
  -59666473.7649724     
  -59684506.2931279     
  -59701292.3311870     
  -59716474.9316045     
  -59729773.1068180     
  -59741017.4229121     
  -59750135.3134903     
  -59756607.2315190     
  -59533035.6741496     
  -59545975.3835179     
  -59563532.5062412     
  -59583247.0737376     
  -59604264.5885558     
  -59625923.7213704     
  -59647567.8961747     
  -59668598.4391493     
  -59688479.2346502     
  -59706736.6555535     
  -59722965.1154778     
  -59736832.3424911     
  -59748105.6766945     
  -59756652.6494499     
  -59762120.2400906     
  -59512321.1884084     
  -59528670.8010726     
  -59550191.8568015     
  -59573750.2842638     
  -59598393.3679488     
  -59623422.6585577     
  -59648133.3309482     
  -59671881.1694297     
  -59694084.5358842     
  -59714219.7597680     
  -59731825.1155622     
  -59746506.2500023     
  -59757950.3677920     
  -59765942.8704883     
  -59770306.8895106     
  -59487986.2459807     
  -59508529.8081761     
  -59534893.2666636     
  -59563119.8838548     
  -59592149.3438380     
  -59621249.6807032     
  -59649668.2912188     
  -59676716.1542585     
  -59701765.9899247     
  -59724241.5150633     
  -59743618.7110783     
  -59759430.3924038     
  -59771266.2545629     
  -59778806.6823408     
  -59782047.6867772     
  -59460060.8015749     
  -59485667.2491830     
  -59517834.0760550     
  -59551619.2324455     
  -59585849.0739107     
  -59619767.2585726     
  -59652578.6842484     
  -59683554.8701502     
  -59712027.0844588     
  -59737367.5124202     
  -59758986.2400478     
  -59776333.5118739     
  -59788884.0858730     
  -59796188.0707332     
  -59798391.3960837     
  -59428652.2025486     
  -59460276.6703519     
  -59499289.3151211     
  -59539586.1007889     
  -59579878.7831993     
  -59619401.8290555     
  -59657328.6916318     
  -59692902.7743493     
  -59725424.0093326     
  -59754219.4720623     
  -59778633.8564542     
  -59798027.2417685     
  -59811742.4907549     
  -59819171.0610693     
  -59820559.5993463     
  -59393974.1942402     
  -59432652.8847839     
  -59479628.3603680     
  -59527444.0962329     
  -59574700.3251374     
  -59620643.9508521     
  -59664434.8838130     
  -59705307.4441343     
  -59742548.3989885     
  -59775453.7986461     
  -59803309.7588893     
  -59825382.4635338     
  -59840867.6347659     
  -59848966.6934052     
  -59849943.5655632     
  -59356378.4393916     
  -59403218.6477275     
  -59459336.2111382     
  -59515718.5793568     
  -59570861.1490484     
  -59624051.3661285     
  -59674461.5231423     
  -59721345.7479558     
  -59764006.7579886     
  -59801734.5782795     
  -59833773.0521353     
  -59859297.2375650     
  -59877344.2785190     
  -59886891.8045432     
  -59888093.5064969     
  -59316384.1411528     
  -59372550.6642582     
  -59439036.0039432     
  -59505054.9663343     
  -59569006.6736372     
  -59630253.3006609     
  -59688014.9033621     
  -59741607.1128833     
  -59790392.6828070     
  -59833696.1284947     
  -59870749.4051083     
  -59900649.6643777     
  -59922271.1542449     
  -59934333.0661783     
  -59936695.2468552     
  -59274705.4199840     
  -59341405.5518925     
  -59419513.9309764     
  -59496241.1313141     
  -59569896.9588063     
  -59639957.5763973     
  -59705737.5066232     
  -59766672.5186438     
  -59822250.1543003     
  -59871891.9705295     
  -59914869.0651947     
  -59950230.1537227     
  -59976694.3781938     
  -59992689.5481449     
  -59997527.3437780     
  -59232268.5670958     
  -59310740.9960377     
  -59401745.6240563     
  -59490235.5712356     
  -59574430.3586796     
  -59653962.9398901     
  -59728303.2094356     
  -59797088.7633230     
  -59860025.5022993     
  -59916725.8078423     
  -59966580.8971662     
  -60008645.1709867     
  -60041509.9411072     
  -60063284.6592486     
  -60072390.2278902     
  -59190220.4743468     
  -59281741.9998062     
  -59386939.1903168     
  -59488218.0063688     
  -59583690.4444439     
  -59673191.2963396     
  -59756425.9909976     
  -59833347.8672589     
  -59904015.1617192     
  -59968368.8362119     
  -60026044.0318181     
  -60076191.4583435     
  -60117331.8391592     
  -60147241.4318517     
  -60162998.2836586     
  -59149912.8675945     
  -59255829.2507596     
  -59376570.7794801     
  -59491641.2737165     
  -59598995.9490673     
  -59698718.4881791     
  -59790858.1753339     
  -59875844.4559727     
  -59954278.6872946     
  -60026629.4588184     
  -60092960.1672706     
  -60152661.9760590     
  -60204287.9567183     
  -60245288.2549345     
  -60270810.6599284     
  -59112861.0506872     
  -59234700.9113072     
  -59372501.2534049     
  -59502382.9352962     
  -59622051.0736975     
  -59731894.9650109     
  -59832463.2700699     
  -59924890.6616149     
  -60010591.5027716     
  -60090844.4057432     
  -60166408.7582262     
  -60237137.4176405     
  -60301786.9345591     
  -60357524.6582482     
  -60396813.6751468     
  -59080696.3798042     
  -59220371.4744503     
  -59377084.3836676     
  -59522884.2017719     
  -59655069.3578076     
  -59774420.4358068     
  -59882220.7388379     
  -59980641.2573348     
  -60072286.5218522     
  -60159636.6943194     
  -60244527.1406462     
  -60327604.6221635     
  -60408105.6404838     
  -60483017.5365728     
  -60541155.9266419     
  -59055072.9855047     
  -59215261.5796027     
  -59393442.6751868     
  -59556511.3489745     
  -59701117.3184802     
  -59828607.9687010     
  -59941386.6244307     
  -60043146.0921600     
  -60138197.2241973     
  -60230745.2344472     
  -60324224.5631328     
  -60420568.8330744     
  -60519939.0054071     
  -60619355.8923308     
  -60702759.8772137     
  -59037425.9147398     
  -59222451.9020145     
  -59426051.3687593     
  -59608172.6783616     
  -59764616.3343484     
  -59897718.4993058     
  -60011666.2390331     
  -60112383.6658246     
  -60206560.9755244     
  -60300784.9762363     
  -60400777.0488764     
  -60510477.7496815     
  -60631700.2824215     
  -60761918.0529858     
  -60878645.1743967     
  -59029841.7559993     
  -59246747.4251884     
  -59481723.7738639     
  -59685197.2446038     
  -59851970.2793538     
  -59986306.7058907     
  -60095340.8454398     
  -60188236.8477021     
  -60274869.1468875     
  -60364936.9583723     
  -60467287.5520720     
  -60588915.6904955     
  -60734516.8988938     
  -60902874.3515342     
  -61063110.1955823     
  -59033164.3073407     
  -59293377.6863803     
  -59569694.3334070     
  -59797652.5558065     
  -59971423.1326888     
  -60099590.7530685     
  -60194337.9056696     
  -60269454.4277736     
  -60338783.8355807     
  -60415728.2973130     
  -60513134.6539790     
  -60642542.0009606     
  -60813757.5235327     
  -61028888.3002287     
  -61246271.4014837     
  -59048111.6871671     
  -59377069.4842015     
  -59712287.3430987     
  -59967077.2625202     
  -60139985.2355695     
  -60249226.6016112     
  -60315577.8806997     
  -60359030.3418876     
  -60397667.6813904     
  -60448526.3530683     
  -60528950.8522837     
  -60656914.1334626     
  -60851136.2310409     
  -61121430.5555353     
  -61413440.1485712     
  -59100775.7406028     
  -59530290.6968600     
  -59940620.7706405     
  -60218381.8969490     
  -60372678.9772909     
  -60441287.2026696     
  -60459015.4405507     
  -60452899.0388095     
  -60444035.7219860     
  -60451480.8553624     
  -60496382.7668603     
  -60604989.5126636     
  -60811729.4963138     
  -61144148.8412447     
  -61534828.3357709     
  -59151636.7644182     
  -59742818.1973774     
  -60271899.2310488     
  -60561032.2769304     
  -60659074.9170122     
  -60652102.3708248     
  -60594885.0596490     
  -60518966.7594040     
  -60444389.9639879     
  -60387985.2377976     
  -60370940.2021358     
  -60427400.1362455     
  -60618130.8420550     
  -61018251.8839557     
  -61561586.6984372     
  -59265622.7991084     
  -60277784.3035890     
  -60998019.4213736     
  -61204287.3446870     
  -61156733.3477970     
  -61019837.5926945     
  -60856202.8454325     
  -60690833.0630508     
  -60534057.6798007     
  -60392804.5279343     
  -60279569.6766944     
  -60223797.8414857     
  -60311721.3637685     
  -60708129.2729377     
  -61433224.8783515     
  -60301342.0699090     
  -61948614.4300392     
  -62429776.3593712     
  -62226454.1655424     
  -61888233.6722512     
  -61557717.3866052     
  -61261151.3864041     
  -60994422.8588764     
  -60746944.6340409     
  -60507087.5171181     
  -60266100.3239657     
  -60025043.5255486     
  -59831459.6394438     
  -59908364.4954315     
  -60531652.7559945     
  -62477890.3050872     
  -62875860.9790799     
  -61897427.7289106     
  -61030698.2588652     
  -60358365.0733933     
  -59849915.0822850     
  -59449676.4067900     
  -59111932.6070540     
  -58803102.5475164     
  -58492637.0970543     
  -58147570.1690151     
  -57725456.6149609     
  -57185828.0915597     
  -56481161.2006817     
  -56236162.3608531     
  -56213858.1903824     
  -52124960.7300615     
  -50541576.2873247     
  -49619544.2625019     
  -49038367.0280006     
  -48637272.2630886     
  -48337951.6811664     
  -48092055.3506987     
  -47868472.8398525     
  -47639841.2831245     
  -47374220.8981314     
  -47023136.3497825     
  -46498717.7772040     
  -45605629.7497611     
  -43548019.7601525     
SCALARS 2waySource double 
LOOKUP_TABLE default
 -1.073469816631562E-003
 -1.063314088058298E-003
 -1.043750225947561E-003
 -1.017428846372115E-003
 -9.862906277433741E-004
 -9.516520760261095E-004
 -9.147649156947114E-004
 -8.768330385698557E-004
 -8.389164222417369E-004
 -8.019138019434795E-004
 -7.665425505569239E-004
 -7.333313742817338E-004
 -7.023578008876713E-004
 -6.738247720821770E-004
 -6.505339057742169E-004
 -1.083304279165539E-003
 -1.072444612730527E-003
 -1.051506462948981E-003
 -1.023691192436834E-003
 -9.910735480941804E-004
 -9.550222098253510E-004
 -9.168328297962042E-004
 -8.777460259532738E-004
 -8.388527105531090E-004
 -8.010820333002051E-004
 -7.651800943213431E-004
 -7.317058852879967E-004
 -7.007873158165811E-004
 -6.726296132976571E-004
 -6.498495093495752E-004
 -1.101273825292129E-003
 -1.088713550170334E-003
 -1.065085603358787E-003
 -1.034304590284749E-003
 -9.987903351779902E-004
 -9.599962373025685E-004
 -9.192832269912844E-004
 -8.779588484522429E-004
 -8.371705329657349E-004
 -7.979031554371928E-004
 -7.609580890824651E-004
 -7.269510983176141E-004
 -6.960988596892038E-004
 -6.686530852742375E-004
 -6.469661636602978E-004
 -1.127883801834066E-003
 -1.112289892555462E-003
 -1.084366977391226E-003
 -1.048996728923040E-003
 -1.009072829194025E-003
 -9.661311413744195E-004
 -9.216084894430581E-004
 -8.769044226244250E-004
 -8.332448658851173E-004
 -7.916929532421351E-004
 -7.531296390288723E-004
 -7.182509883006329E-004
 -6.873902416143980E-004
 -6.608700133217532E-004
 -6.406905925620521E-004
 -1.163600224622274E-003
 -1.143699531384166E-003
 -1.109728567719436E-003
 -1.068019989278558E-003
 -1.022063316075730E-003
 -9.734731279680745E-004
 -9.237688630880646E-004
 -8.744617399288176E-004
 -8.268741119782638E-004
 -7.821669191719456E-004
 -7.413221384418519E-004
 -7.051377823139569E-004
 -6.740904948311941E-004
 -6.485797973980805E-004
 -6.301552942968801E-004
 -1.208461860383744E-003
 -1.183014905853287E-003
 -1.141198842864553E-003
 -1.091289614337526E-003
 -1.037558787217493E-003
 -9.817091196692124E-004
 -9.253486173836415E-004
 -8.701159533195757E-004
 -8.174433993405768E-004
 -7.686057547111932E-004
 -7.247052096659728E-004
 -6.866639157988758E-004
 -6.551358886992384E-004
 -6.306191421274213E-004
 -6.141411916908818E-004
 -1.262541812104466E-003
 -1.230124358457626E-003
 -1.178502971913125E-003
 -1.118376035804890E-003
 -1.054994058071245E-003
 -9.901513496509168E-004
 -9.255450221580253E-004
 -8.629518221212138E-004
 -8.039216243845610E-004
 -7.498544158373747E-004
 -7.019891097608233E-004
 -6.613950684683643E-004
 -6.289425507630614E-004
 -6.052674484633730E-004
 -5.908419202168924E-004
 -1.325926269644306E-003
 -1.284912712450304E-003
 -1.221302265919667E-003
 -1.148754128786439E-003
 -1.073692608331671E-003
 -9.979922880607541E-004
 -9.234291528694186E-004
 -8.519203670949984E-004
 -7.851328558771218E-004
 -7.245961296134652E-004
 -6.716975324421762E-004
 -6.276752010974406E-004
 -5.936541235020940E-004
 -5.704547111326083E-004
 -5.579989259020958E-004
 -1.398540806500116E-003
 -1.347128362990659E-003
 -1.269130180342862E-003
 -1.181767265169522E-003
 -1.092845336005095E-003
 -1.004293668348346E-003
 -9.179440483000370E-004
 -8.358454258901018E-004
 -7.597699385174571E-004
 -6.913707683393350E-004
 -6.321874819335755E-004
 -5.836442896464418E-004
 -5.471563814024689E-004
 -5.237826159053710E-004
 -5.129526000396560E-004
 -1.480110052477577E-003
 -1.416307947580591E-003
 -1.321309426905485E-003
 -1.216554210638608E-003
 -1.111448943580444E-003
 -1.007936693089767E-003
 -9.078668900875726E-004
 -8.133974797631897E-004
 -7.263787782691596E-004
 -6.485672962399976E-004
 -5.816465055697134E-004
 -5.272363935386202E-004
 -4.870719868570328E-004
 -4.625139673420487E-004
 -4.526301348143221E-004
 -1.570091020991837E-003
 -1.491728440710611E-003
 -1.376916705741847E-003
 -1.252027053678470E-003
 -1.128297031329016E-003
 -1.007627169810220E-003
 -8.918293545710458E-004
 -7.831297193002654E-004
 -6.834093354392958E-004
 -5.944871829063794E-004
 -5.181641316268047E-004
 -4.562528471684082E-004
 -4.108269161153960E-004
 -3.836216231986766E-004
 -3.735685821037925E-004
 -1.667591127179310E-003
 -1.572338166600028E-003
 -1.434728136446419E-003
 -1.286828919290967E-003
 -1.141951094884433E-003
 -1.001882522035147E-003
 -8.683237141966992E-004
 -7.435053325731554E-004
 -6.292642039131225E-004
 -5.274118513798291E-004
 -4.398130187930600E-004
 -3.684493704408642E-004
 -3.157331740601168E-004
 -2.838553750081028E-004
 -2.719596535542091E-004
 -1.771303297123922E-003
 -1.656690896922668E-003
 -1.493155199432249E-003
 -1.319277504239218E-003
 -1.150697164017393E-003
 -9.890077813985002E-004
 -8.357040349971568E-004
 -6.929278967840292E-004
 -5.623594108779249E-004
 -4.456915386706757E-004
 -3.447598135421887E-004
 -2.616593550401311E-004
 -1.991115446988161E-004
 -1.598493129205731E-004
 -1.437332005568182E-004
 -1.879422006542026E-003
 -1.742880589312894E-003
 -1.550190953792609E-003
 -1.347317910568074E-003
 -1.152509196672722E-003
 -9.670795305785350E-004
 -7.922013367672109E-004
 -6.297960057698296E-004
 -4.812220341959199E-004
 -3.478840169012236E-004
 -2.314373161704327E-004
 -1.339864757863197E-004
 -5.848602364081943E-005
 -8.297105074930892E-006
  1.530071097670015E-005
 -1.989685371766712E-003
 -1.828535824619030E-003
 -1.603354730620370E-003
 -1.368435999578361E-003
 -1.144960413321214E-003
 -9.338803759712766E-004
 -7.359014522803492E-004
 -5.525373866264263E-004
 -3.845865443050541E-004
 -2.329117414494563E-004
 -9.875423576313248E-005
  1.594801232777290E-005
  1.081527145695825E-004
  1.737966181834212E-004
  2.092320276627110E-004
 -2.099147418830671E-003
 -1.910598477166367E-003
 -1.649461914994431E-003
 -1.379441275397479E-003
 -1.125024489726860E-003
 -8.867403585597843E-004
 -6.646479106741046E-004
 -4.595914039439436E-004
 -2.714652593000538E-004
 -1.002187534223240E-004
  5.367329554774663E-005
  1.887185659178709E-004
  3.020329562733770E-004
  3.887955155096313E-004
  4.417381087884969E-004
 -2.204758607440525E-003
 -1.985868659364389E-003
 -1.685088159190403E-003
 -1.376772785013762E-003
 -1.089320946999455E-003
 -8.227968098796068E-004
 -5.763785717490681E-004
 -3.498548242603735E-004
 -1.417174760598863E-004
  4.953833598980340E-005
  2.247230740810471E-004
  3.832227927574235E-004
  5.227110628780727E-004
  6.376246838861833E-004
  7.154398857403912E-004
 -2.302440255438947E-003
 -2.049482563293962E-003
 -1.704502526422529E-003
 -1.354414868495525E-003
 -1.032088038863301E-003
 -7.371060430146497E-004
 -4.673980552044030E-004
 -2.211355058259580E-004
  5.311181632193093E-006
  2.156672712738714E-004
  4.127675449561372E-004
  5.975027467858272E-004
  7.686983887618269E-004
  9.201018402303886E-004
  1.031866647522342E-003
 -2.388872630133989E-003
 -2.098045642389176E-003
 -1.703949430831304E-003
 -1.308067501611479E-003
 -9.493066510304585E-004
 -6.267715067605924E-004
 -3.366473700604074E-004
 -7.461561318936470E-005
  1.661135454707522E-004
  3.925678890146188E-004
  6.106492439340004E-004
  8.236939291010908E-004
  1.032621007611185E-003
  1.230803414296325E-003
  1.388392024264661E-003
 -2.459675514496565E-003
 -2.123506219741628E-003
 -1.671122143838202E-003
 -1.223608899357363E-003
 -8.269611818141720E-004
 -4.796017110904716E-004
 -1.747928952818484E-004
  9.563760307641436E-005
  3.431310890693757E-004
  5.794499690682471E-004
  8.149352936699262E-004
  1.056630839385768E-003
  1.308899623539501E-003
  1.565184279889479E-003
  1.782440154973147E-003
 -2.512881948180264E-003
 -2.122021514124907E-003
 -1.600686728219299E-003
 -1.094545126906406E-003
 -6.597848685544609E-004
 -2.933295959537906E-004
  1.610866809223196E-005
  2.826969079249732E-004
  5.245169121285587E-004
  7.598991757314598E-004
  1.005372929831505E-003
  1.273499164390444E-003
  1.574193586075511E-003
  1.902245394476463E-003
  2.197262539032910E-003
 -2.534940279175230E-003
 -2.074366641200031E-003
 -1.465394983149796E-003
 -8.892177027258379E-004
 -4.165996086978902E-004
 -4.160654086005421E-005
  2.558935515732419E-004
  4.993797909360962E-004
  7.162560165814714E-004
  9.333928311569556E-004
  1.175463620665536E-003
  1.462870677454792E-003
  1.814470014594561E-003
  2.228466940660452E-003
  2.622859456964357E-003
 -2.559371376160875E-003
 -1.998465717945264E-003
 -1.262197049354893E-003
 -5.969792124136164E-004
 -9.173822949302239E-005
  2.720384253449248E-004
  5.307067107647959E-004
  7.224467665382750E-004
  8.865160748926892E-004
  1.059771155124636E-003
  1.276663222529614E-003
  1.568410697053322E-003
  1.968302539121066E-003
  2.484698417345808E-003
  3.008736838064284E-003
 -2.495761693324411E-003
 -1.746135154687395E-003
 -8.323480107099840E-004
 -7.044327244116981E-005
  4.465734318320590E-004
  7.600567521042916E-004
  9.373536136643103E-004
  1.036501081018185E-003
  1.109696716075488E-003
  1.202806762422181E-003
  1.360057485843150E-003
  1.626189520027497E-003
  2.055796653513849E-003
  2.672944414147177E-003
  3.343182685980687E-003
 -2.294723043084543E-003
 -1.472946804228041E-003
 -3.833804355777139E-004
  4.964035415530161E-004
  9.821113164196515E-004
  1.180680395705875E-003
  1.216435062049827E-003
  1.172435675530297E-003
  1.109942787859974E-003
  1.078421525250957E-003
  1.128413581747301E-003
  1.321772613444732E-003
  1.754744093646342E-003
  2.499151252289407E-003
  3.398426408763040E-003
 -2.812669074458518E-003
 -1.214146079634452E-003
  5.991294145936579E-004
  1.642230169626043E-003
  1.971468101448140E-003
  1.934151642784063E-003
  1.745410446418284E-003
  1.500749966540119E-003
  1.255784805894971E-003
  1.048703418715239E-003
  9.225238828933563E-004
  9.448832611957136E-004
  1.267847742986664E-003
  2.081545304283574E-003
  3.261744658015874E-003
 -5.762832136361660E-004
  2.097367611171361E-003
  4.255868810045008E-003
  4.800141930845587E-003
  4.561717046803516E-003
  4.070079505478159E-003
  3.547489272045645E-003
  3.040449417946172E-003
  2.566874434143825E-003
  2.130388984358775E-003
  1.740009540635970E-003
  1.425954288325227E-003
  1.331543740002401E-003
  1.676020815301346E-003
  2.367088786556370E-003
  2.079021977707539E-003
  4.521061536149819E-003
  4.703226659371808E-003
  3.922012292965862E-003
  2.810911065957386E-003
  1.780662150016135E-003
  9.168536798365444E-004
  1.662259387064539E-004
 -5.112857068321659E-004
 -1.158312486322860E-003
 -1.812610580029911E-003
 -2.510143642922273E-003
 -3.195237820785847E-003
 -3.773155495831671E-003
 -4.263686236737557E-003
  1.628675992071522E-004
 -2.874407010437188E-003
 -4.942432260648007E-003
 -7.425912234696624E-003
 -8.980295008868511E-003
 -1.026050081182745E-002
 -1.120662588656313E-002
 -1.198983732343195E-002
 -1.268046564760270E-002
 -1.334747042291290E-002
 -1.405404505167621E-002
 -1.487328230829327E-002
 -1.584567337201405E-002
 -1.702588449877718E-002
 -1.814984219216224E-002
 -5.884945342909682E-003
 -1.883677106945411E-002
 -2.211228872751295E-002
 -2.410207252173056E-002
 -2.516820528231568E-002
 -2.594679611729976E-002
 -2.650131170159782E-002
 -2.695012389264125E-002
 -2.734527710645369E-002
 -2.773381568013809E-002
 -2.816307208827874E-002
 -2.869858732241195E-002
 -2.943633469878709E-002
 -3.059483275018333E-002
 -3.261484516508232E-002
SCALARS elementIsPlast double 
LOOKUP_TABLE default
  0.000000000000000E+000
  0.000000000000000E+000
  0.000000000000000E+000
  0.000000000000000E+000
  0.000000000000000E+000
  0.000000000000000E+000
  0.000000000000000E+000
  0.000000000000000E+000
  0.000000000000000E+000
  0.000000000000000E+000
  0.000000000000000E+000
  0.000000000000000E+000
  0.000000000000000E+000
  0.000000000000000E+000
  0.000000000000000E+000
  0.000000000000000E+000
  0.000000000000000E+000
  0.000000000000000E+000
  0.000000000000000E+000
  0.000000000000000E+000
  0.000000000000000E+000
  0.000000000000000E+000
  0.000000000000000E+000
  0.000000000000000E+000
  0.000000000000000E+000
  0.000000000000000E+000
  0.000000000000000E+000
  0.000000000000000E+000
  0.000000000000000E+000
  0.000000000000000E+000
  0.000000000000000E+000
  0.000000000000000E+000
  0.000000000000000E+000
  0.000000000000000E+000
  0.000000000000000E+000
  0.000000000000000E+000
  0.000000000000000E+000
  0.000000000000000E+000
  0.000000000000000E+000
  0.000000000000000E+000
  0.000000000000000E+000
  0.000000000000000E+000
  0.000000000000000E+000
  0.000000000000000E+000
  0.000000000000000E+000
  0.000000000000000E+000
  0.000000000000000E+000
  0.000000000000000E+000
  0.000000000000000E+000
  0.000000000000000E+000
  0.000000000000000E+000
  0.000000000000000E+000
  0.000000000000000E+000
  0.000000000000000E+000
  0.000000000000000E+000
  0.000000000000000E+000
  0.000000000000000E+000
  0.000000000000000E+000
  0.000000000000000E+000
  0.000000000000000E+000
  0.000000000000000E+000
  0.000000000000000E+000
  0.000000000000000E+000
  0.000000000000000E+000
  0.000000000000000E+000
  0.000000000000000E+000
  0.000000000000000E+000
  0.000000000000000E+000
  0.000000000000000E+000
  0.000000000000000E+000
  0.000000000000000E+000
  0.000000000000000E+000
  0.000000000000000E+000
  0.000000000000000E+000
  0.000000000000000E+000
  0.000000000000000E+000
  0.000000000000000E+000
  0.000000000000000E+000
  0.000000000000000E+000
  0.000000000000000E+000
  0.000000000000000E+000
  0.000000000000000E+000
  0.000000000000000E+000
  0.000000000000000E+000
  0.000000000000000E+000
  0.000000000000000E+000
  0.000000000000000E+000
  0.000000000000000E+000
  0.000000000000000E+000
  0.000000000000000E+000
  0.000000000000000E+000
  0.000000000000000E+000
  0.000000000000000E+000
  0.000000000000000E+000
  0.000000000000000E+000
  0.000000000000000E+000
  0.000000000000000E+000
  0.000000000000000E+000
  0.000000000000000E+000
  0.000000000000000E+000
  0.000000000000000E+000
  0.000000000000000E+000
  0.000000000000000E+000
  0.000000000000000E+000
  0.000000000000000E+000
  0.000000000000000E+000
  0.000000000000000E+000
  0.000000000000000E+000
  0.000000000000000E+000
  0.000000000000000E+000
  0.000000000000000E+000
  0.000000000000000E+000
  0.000000000000000E+000
  0.000000000000000E+000
  0.000000000000000E+000
  0.000000000000000E+000
  0.000000000000000E+000
  0.000000000000000E+000
  0.000000000000000E+000
  0.000000000000000E+000
  0.000000000000000E+000
  0.000000000000000E+000
  0.000000000000000E+000
  0.000000000000000E+000
  0.000000000000000E+000
  0.000000000000000E+000
  0.000000000000000E+000
  0.000000000000000E+000
  0.000000000000000E+000
  0.000000000000000E+000
  0.000000000000000E+000
  0.000000000000000E+000
  0.000000000000000E+000
  0.000000000000000E+000
  0.000000000000000E+000
  0.000000000000000E+000
  0.000000000000000E+000
  0.000000000000000E+000
  0.000000000000000E+000
  0.000000000000000E+000
  0.000000000000000E+000
  0.000000000000000E+000
  0.000000000000000E+000
  0.000000000000000E+000
  0.000000000000000E+000
  0.000000000000000E+000
  0.000000000000000E+000
  0.000000000000000E+000
  0.000000000000000E+000
  0.000000000000000E+000
  0.000000000000000E+000
  0.000000000000000E+000
  0.000000000000000E+000
  0.000000000000000E+000
  0.000000000000000E+000
  0.000000000000000E+000
  0.000000000000000E+000
  0.000000000000000E+000
  0.000000000000000E+000
  0.000000000000000E+000
  0.000000000000000E+000
  0.000000000000000E+000
  0.000000000000000E+000
  0.000000000000000E+000
  0.000000000000000E+000
  0.000000000000000E+000
  0.000000000000000E+000
  0.000000000000000E+000
  0.000000000000000E+000
  0.000000000000000E+000
  0.000000000000000E+000
  0.000000000000000E+000
  0.000000000000000E+000
  0.000000000000000E+000
  0.000000000000000E+000
  0.000000000000000E+000
  0.000000000000000E+000
  0.000000000000000E+000
  0.000000000000000E+000
  0.000000000000000E+000
  0.000000000000000E+000
  0.000000000000000E+000
  0.000000000000000E+000
  0.000000000000000E+000
  0.000000000000000E+000
  0.000000000000000E+000
  0.000000000000000E+000
  0.000000000000000E+000
  0.000000000000000E+000
  0.000000000000000E+000
  0.000000000000000E+000
  0.000000000000000E+000
  0.000000000000000E+000
  0.000000000000000E+000
  0.000000000000000E+000
  0.000000000000000E+000
  0.000000000000000E+000
  0.000000000000000E+000
  0.000000000000000E+000
  0.000000000000000E+000
  0.000000000000000E+000
  0.000000000000000E+000
  0.000000000000000E+000
  0.000000000000000E+000
  0.000000000000000E+000
  0.000000000000000E+000
  0.000000000000000E+000
  0.000000000000000E+000
  0.000000000000000E+000
  0.000000000000000E+000
  0.000000000000000E+000
  0.000000000000000E+000
  0.000000000000000E+000
  0.000000000000000E+000
  0.000000000000000E+000
  0.000000000000000E+000
  0.000000000000000E+000
  0.000000000000000E+000
  0.000000000000000E+000
  0.000000000000000E+000
  0.000000000000000E+000
  0.000000000000000E+000
  0.000000000000000E+000
  0.000000000000000E+000
  0.000000000000000E+000
  0.000000000000000E+000
  0.000000000000000E+000
  0.000000000000000E+000
  0.000000000000000E+000
  0.000000000000000E+000
  0.000000000000000E+000
  0.000000000000000E+000
  0.000000000000000E+000
  0.000000000000000E+000
  0.000000000000000E+000
  0.000000000000000E+000
  0.000000000000000E+000
  0.000000000000000E+000
  0.000000000000000E+000
  0.000000000000000E+000
  0.000000000000000E+000
  0.000000000000000E+000
  0.000000000000000E+000
  0.000000000000000E+000
  0.000000000000000E+000
  0.000000000000000E+000
  0.000000000000000E+000
  0.000000000000000E+000
  0.000000000000000E+000
  0.000000000000000E+000
  0.000000000000000E+000
  0.000000000000000E+000
  0.000000000000000E+000
  0.000000000000000E+000
  0.000000000000000E+000
  0.000000000000000E+000
  0.000000000000000E+000
  0.000000000000000E+000
  0.000000000000000E+000
  0.000000000000000E+000
  0.000000000000000E+000
  0.000000000000000E+000
  0.000000000000000E+000
  0.000000000000000E+000
  0.000000000000000E+000
  0.000000000000000E+000
  0.000000000000000E+000
  0.000000000000000E+000
  0.000000000000000E+000
  0.000000000000000E+000
  0.000000000000000E+000
  0.000000000000000E+000
  0.000000000000000E+000
  0.000000000000000E+000
  0.000000000000000E+000
  0.000000000000000E+000
  0.000000000000000E+000
  0.000000000000000E+000
  0.000000000000000E+000
  0.000000000000000E+000
  0.000000000000000E+000
  0.000000000000000E+000
  0.000000000000000E+000
  0.000000000000000E+000
  0.000000000000000E+000
  0.000000000000000E+000
  0.000000000000000E+000
  0.000000000000000E+000
  0.000000000000000E+000
  0.000000000000000E+000
  0.000000000000000E+000
  0.000000000000000E+000
  0.000000000000000E+000
  0.000000000000000E+000
  0.000000000000000E+000
  0.000000000000000E+000
  0.000000000000000E+000
  0.000000000000000E+000
  0.000000000000000E+000
  0.000000000000000E+000
  0.000000000000000E+000
  0.000000000000000E+000
  0.000000000000000E+000
  0.000000000000000E+000
  0.000000000000000E+000
  0.000000000000000E+000
  0.000000000000000E+000
  0.000000000000000E+000
  0.000000000000000E+000
  0.000000000000000E+000
  0.000000000000000E+000
  0.000000000000000E+000
  0.000000000000000E+000
  0.000000000000000E+000
  0.000000000000000E+000
  0.000000000000000E+000
  0.000000000000000E+000
  0.000000000000000E+000
  0.000000000000000E+000
  0.000000000000000E+000
  0.000000000000000E+000
  0.000000000000000E+000
  0.000000000000000E+000
  0.000000000000000E+000
  0.000000000000000E+000
  0.000000000000000E+000
  0.000000000000000E+000
  0.000000000000000E+000
  0.000000000000000E+000
  0.000000000000000E+000
  0.000000000000000E+000
  0.000000000000000E+000
  0.000000000000000E+000
  0.000000000000000E+000
  0.000000000000000E+000
  0.000000000000000E+000
  0.000000000000000E+000
  0.000000000000000E+000
  0.000000000000000E+000
  0.000000000000000E+000
  0.000000000000000E+000
  0.000000000000000E+000
  0.000000000000000E+000
  0.000000000000000E+000
  0.000000000000000E+000
  0.000000000000000E+000
  0.000000000000000E+000
  0.000000000000000E+000
  0.000000000000000E+000
  0.000000000000000E+000
  0.000000000000000E+000
  0.000000000000000E+000
  0.000000000000000E+000
  0.000000000000000E+000
  0.000000000000000E+000
  0.000000000000000E+000
  0.000000000000000E+000
  0.000000000000000E+000
  0.000000000000000E+000
  0.000000000000000E+000
  0.000000000000000E+000
  0.000000000000000E+000
  0.000000000000000E+000
  0.000000000000000E+000
  0.000000000000000E+000
  0.000000000000000E+000
  0.000000000000000E+000
  0.000000000000000E+000
  0.000000000000000E+000
  0.000000000000000E+000
  0.000000000000000E+000
  0.000000000000000E+000
  0.000000000000000E+000
  0.000000000000000E+000
  0.000000000000000E+000
  0.000000000000000E+000
  0.000000000000000E+000
  0.000000000000000E+000
  0.000000000000000E+000
  0.000000000000000E+000
  0.000000000000000E+000
  0.000000000000000E+000
  0.000000000000000E+000
  0.000000000000000E+000
  0.000000000000000E+000
  0.000000000000000E+000
  0.000000000000000E+000
  0.000000000000000E+000
  0.000000000000000E+000
  0.000000000000000E+000
  0.000000000000000E+000
  0.000000000000000E+000
  0.000000000000000E+000
  0.000000000000000E+000
  0.000000000000000E+000
  0.000000000000000E+000
  0.000000000000000E+000
  0.000000000000000E+000
  0.000000000000000E+000
  0.000000000000000E+000
  0.000000000000000E+000
  0.000000000000000E+000
  0.000000000000000E+000
  0.000000000000000E+000
  0.000000000000000E+000
  0.000000000000000E+000
  0.000000000000000E+000
  0.000000000000000E+000
  0.000000000000000E+000
  0.000000000000000E+000
  0.000000000000000E+000
  0.000000000000000E+000
  0.000000000000000E+000
  0.000000000000000E+000
  0.000000000000000E+000
  0.000000000000000E+000
  0.000000000000000E+000
  0.000000000000000E+000
  0.000000000000000E+000
  0.000000000000000E+000
  0.000000000000000E+000
  0.000000000000000E+000
  0.000000000000000E+000
  0.000000000000000E+000
  0.000000000000000E+000
  0.000000000000000E+000
  0.000000000000000E+000
  0.000000000000000E+000
  0.000000000000000E+000
  0.000000000000000E+000
  0.000000000000000E+000
  0.000000000000000E+000
  0.000000000000000E+000
  0.000000000000000E+000
  0.000000000000000E+000
   1.00000000000000     
  0.000000000000000E+000
  0.000000000000000E+000
  0.000000000000000E+000
  0.000000000000000E+000
  0.000000000000000E+000
  0.000000000000000E+000
  0.000000000000000E+000
  0.000000000000000E+000
  0.000000000000000E+000
  0.000000000000000E+000
  0.000000000000000E+000
  0.000000000000000E+000
  0.000000000000000E+000
  0.000000000000000E+000
