# vtk DataFile Version 3.0
vtk output
ASCII
DATASET UNSTRUCTURED_GRID
POINTS      5151 double 
  0.00000000E+00  0.00000000E+00  0.00000000E+00
  1.00000000E+01  0.00000000E+00  0.00000000E+00
  2.00000000E+01  0.00000000E+00  0.00000000E+00
  3.00000000E+01  0.00000000E+00  0.00000000E+00
  4.00000000E+01  0.00000000E+00  0.00000000E+00
  5.00000000E+01  0.00000000E+00  0.00000000E+00
  6.00000000E+01  0.00000000E+00  0.00000000E+00
  7.00000000E+01  0.00000000E+00  0.00000000E+00
  8.00000000E+01  0.00000000E+00  0.00000000E+00
  9.00000000E+01  0.00000000E+00  0.00000000E+00
  1.00000000E+02  0.00000000E+00  0.00000000E+00
  1.10000000E+02  0.00000000E+00  0.00000000E+00
  1.20000000E+02  0.00000000E+00  0.00000000E+00
  1.30000000E+02  0.00000000E+00  0.00000000E+00
  1.40000000E+02  0.00000000E+00  0.00000000E+00
  1.50000000E+02  0.00000000E+00  0.00000000E+00
  1.60000000E+02  0.00000000E+00  0.00000000E+00
  1.70000000E+02  0.00000000E+00  0.00000000E+00
  1.80000000E+02  0.00000000E+00  0.00000000E+00
  1.90000000E+02  0.00000000E+00  0.00000000E+00
  2.00000000E+02  0.00000000E+00  0.00000000E+00
  2.10000000E+02  0.00000000E+00  0.00000000E+00
  2.20000000E+02  0.00000000E+00  0.00000000E+00
  2.30000000E+02  0.00000000E+00  0.00000000E+00
  2.40000000E+02  0.00000000E+00  0.00000000E+00
  2.50000000E+02  0.00000000E+00  0.00000000E+00
  2.60000000E+02  0.00000000E+00  0.00000000E+00
  2.70000000E+02  0.00000000E+00  0.00000000E+00
  2.80000000E+02  0.00000000E+00  0.00000000E+00
  2.90000000E+02  0.00000000E+00  0.00000000E+00
  3.00000000E+02  0.00000000E+00  0.00000000E+00
  3.10000000E+02  0.00000000E+00  0.00000000E+00
  3.20000000E+02  0.00000000E+00  0.00000000E+00
  3.30000000E+02  0.00000000E+00  0.00000000E+00
  3.40000000E+02  0.00000000E+00  0.00000000E+00
  3.50000000E+02  0.00000000E+00  0.00000000E+00
  3.60000000E+02  0.00000000E+00  0.00000000E+00
  3.70000000E+02  0.00000000E+00  0.00000000E+00
  3.80000000E+02  0.00000000E+00  0.00000000E+00
  3.90000000E+02  0.00000000E+00  0.00000000E+00
  4.00000000E+02  0.00000000E+00  0.00000000E+00
  4.10000000E+02  0.00000000E+00  0.00000000E+00
  4.20000000E+02  0.00000000E+00  0.00000000E+00
  4.30000000E+02  0.00000000E+00  0.00000000E+00
  4.40000000E+02  0.00000000E+00  0.00000000E+00
  4.50000000E+02  0.00000000E+00  0.00000000E+00
  4.60000000E+02  0.00000000E+00  0.00000000E+00
  4.70000000E+02  0.00000000E+00  0.00000000E+00
  4.80000000E+02  0.00000000E+00  0.00000000E+00
  4.90000000E+02  0.00000000E+00  0.00000000E+00
  5.00000000E+02  0.00000000E+00  0.00000000E+00
  5.10000000E+02  0.00000000E+00  0.00000000E+00
  5.20000000E+02  0.00000000E+00  0.00000000E+00
  5.30000000E+02  0.00000000E+00  0.00000000E+00
  5.40000000E+02  0.00000000E+00  0.00000000E+00
  5.50000000E+02  0.00000000E+00  0.00000000E+00
  5.60000000E+02  0.00000000E+00  0.00000000E+00
  5.70000000E+02  0.00000000E+00  0.00000000E+00
  5.80000000E+02  0.00000000E+00  0.00000000E+00
  5.90000000E+02  0.00000000E+00  0.00000000E+00
  6.00000000E+02  0.00000000E+00  0.00000000E+00
  6.10000000E+02  0.00000000E+00  0.00000000E+00
  6.20000000E+02  0.00000000E+00  0.00000000E+00
  6.30000000E+02  0.00000000E+00  0.00000000E+00
  6.40000000E+02  0.00000000E+00  0.00000000E+00
  6.50000000E+02  0.00000000E+00  0.00000000E+00
  6.60000000E+02  0.00000000E+00  0.00000000E+00
  6.70000000E+02  0.00000000E+00  0.00000000E+00
  6.80000000E+02  0.00000000E+00  0.00000000E+00
  6.90000000E+02  0.00000000E+00  0.00000000E+00
  7.00000000E+02  0.00000000E+00  0.00000000E+00
  7.10000000E+02  0.00000000E+00  0.00000000E+00
  7.20000000E+02  0.00000000E+00  0.00000000E+00
  7.30000000E+02  0.00000000E+00  0.00000000E+00
  7.40000000E+02  0.00000000E+00  0.00000000E+00
  7.50000000E+02  0.00000000E+00  0.00000000E+00
  7.60000000E+02  0.00000000E+00  0.00000000E+00
  7.70000000E+02  0.00000000E+00  0.00000000E+00
  7.80000000E+02  0.00000000E+00  0.00000000E+00
  7.90000000E+02  0.00000000E+00  0.00000000E+00
  8.00000000E+02  0.00000000E+00  0.00000000E+00
  8.10000000E+02  0.00000000E+00  0.00000000E+00
  8.20000000E+02  0.00000000E+00  0.00000000E+00
  8.30000000E+02  0.00000000E+00  0.00000000E+00
  8.40000000E+02  0.00000000E+00  0.00000000E+00
  8.50000000E+02  0.00000000E+00  0.00000000E+00
  8.60000000E+02  0.00000000E+00  0.00000000E+00
  8.70000000E+02  0.00000000E+00  0.00000000E+00
  8.80000000E+02  0.00000000E+00  0.00000000E+00
  8.90000000E+02  0.00000000E+00  0.00000000E+00
  9.00000000E+02  0.00000000E+00  0.00000000E+00
  9.10000000E+02  0.00000000E+00  0.00000000E+00
  9.20000000E+02  0.00000000E+00  0.00000000E+00
  9.30000000E+02  0.00000000E+00  0.00000000E+00
  9.40000000E+02  0.00000000E+00  0.00000000E+00
  9.50000000E+02  0.00000000E+00  0.00000000E+00
  9.60000000E+02  0.00000000E+00  0.00000000E+00
  9.70000000E+02  0.00000000E+00  0.00000000E+00
  9.80000000E+02  0.00000000E+00  0.00000000E+00
  9.90000000E+02  0.00000000E+00  0.00000000E+00
  1.00000000E+03  0.00000000E+00  0.00000000E+00
  0.00000000E+00  2.00000000E+00  0.00000000E+00
  1.00000000E+01  2.00000000E+00  0.00000000E+00
  2.00000000E+01  2.00000000E+00  0.00000000E+00
  3.00000000E+01  2.00000000E+00  0.00000000E+00
  4.00000000E+01  2.00000000E+00  0.00000000E+00
  5.00000000E+01  2.00000000E+00  0.00000000E+00
  6.00000000E+01  2.00000000E+00  0.00000000E+00
  7.00000000E+01  2.00000000E+00  0.00000000E+00
  8.00000000E+01  2.00000000E+00  0.00000000E+00
  9.00000000E+01  2.00000000E+00  0.00000000E+00
  1.00000000E+02  2.00000000E+00  0.00000000E+00
  1.10000000E+02  2.00000000E+00  0.00000000E+00
  1.20000000E+02  2.00000000E+00  0.00000000E+00
  1.30000000E+02  2.00000000E+00  0.00000000E+00
  1.40000000E+02  2.00000000E+00  0.00000000E+00
  1.50000000E+02  2.00000000E+00  0.00000000E+00
  1.60000000E+02  2.00000000E+00  0.00000000E+00
  1.70000000E+02  2.00000000E+00  0.00000000E+00
  1.80000000E+02  2.00000000E+00  0.00000000E+00
  1.90000000E+02  2.00000000E+00  0.00000000E+00
  2.00000000E+02  2.00000000E+00  0.00000000E+00
  2.10000000E+02  2.00000000E+00  0.00000000E+00
  2.20000000E+02  2.00000000E+00  0.00000000E+00
  2.30000000E+02  2.00000000E+00  0.00000000E+00
  2.40000000E+02  2.00000000E+00  0.00000000E+00
  2.50000000E+02  2.00000000E+00  0.00000000E+00
  2.60000000E+02  2.00000000E+00  0.00000000E+00
  2.70000000E+02  2.00000000E+00  0.00000000E+00
  2.80000000E+02  2.00000000E+00  0.00000000E+00
  2.90000000E+02  2.00000000E+00  0.00000000E+00
  3.00000000E+02  2.00000000E+00  0.00000000E+00
  3.10000000E+02  2.00000000E+00  0.00000000E+00
  3.20000000E+02  2.00000000E+00  0.00000000E+00
  3.30000000E+02  2.00000000E+00  0.00000000E+00
  3.40000000E+02  2.00000000E+00  0.00000000E+00
  3.50000000E+02  2.00000000E+00  0.00000000E+00
  3.60000000E+02  2.00000000E+00  0.00000000E+00
  3.70000000E+02  2.00000000E+00  0.00000000E+00
  3.80000000E+02  2.00000000E+00  0.00000000E+00
  3.90000000E+02  2.00000000E+00  0.00000000E+00
  4.00000000E+02  2.00000000E+00  0.00000000E+00
  4.10000000E+02  2.00000000E+00  0.00000000E+00
  4.20000000E+02  2.00000000E+00  0.00000000E+00
  4.30000000E+02  2.00000000E+00  0.00000000E+00
  4.40000000E+02  2.00000000E+00  0.00000000E+00
  4.50000000E+02  2.00000000E+00  0.00000000E+00
  4.60000000E+02  2.00000000E+00  0.00000000E+00
  4.70000000E+02  2.00000000E+00  0.00000000E+00
  4.80000000E+02  2.00000000E+00  0.00000000E+00
  4.90000000E+02  2.00000000E+00  0.00000000E+00
  5.00000000E+02  2.00000000E+00  0.00000000E+00
  5.10000000E+02  2.00000000E+00  0.00000000E+00
  5.20000000E+02  2.00000000E+00  0.00000000E+00
  5.30000000E+02  2.00000000E+00  0.00000000E+00
  5.40000000E+02  2.00000000E+00  0.00000000E+00
  5.50000000E+02  2.00000000E+00  0.00000000E+00
  5.60000000E+02  2.00000000E+00  0.00000000E+00
  5.70000000E+02  2.00000000E+00  0.00000000E+00
  5.80000000E+02  2.00000000E+00  0.00000000E+00
  5.90000000E+02  2.00000000E+00  0.00000000E+00
  6.00000000E+02  2.00000000E+00  0.00000000E+00
  6.10000000E+02  2.00000000E+00  0.00000000E+00
  6.20000000E+02  2.00000000E+00  0.00000000E+00
  6.30000000E+02  2.00000000E+00  0.00000000E+00
  6.40000000E+02  2.00000000E+00  0.00000000E+00
  6.50000000E+02  2.00000000E+00  0.00000000E+00
  6.60000000E+02  2.00000000E+00  0.00000000E+00
  6.70000000E+02  2.00000000E+00  0.00000000E+00
  6.80000000E+02  2.00000000E+00  0.00000000E+00
  6.90000000E+02  2.00000000E+00  0.00000000E+00
  7.00000000E+02  2.00000000E+00  0.00000000E+00
  7.10000000E+02  2.00000000E+00  0.00000000E+00
  7.20000000E+02  2.00000000E+00  0.00000000E+00
  7.30000000E+02  2.00000000E+00  0.00000000E+00
  7.40000000E+02  2.00000000E+00  0.00000000E+00
  7.50000000E+02  2.00000000E+00  0.00000000E+00
  7.60000000E+02  2.00000000E+00  0.00000000E+00
  7.70000000E+02  2.00000000E+00  0.00000000E+00
  7.80000000E+02  2.00000000E+00  0.00000000E+00
  7.90000000E+02  2.00000000E+00  0.00000000E+00
  8.00000000E+02  2.00000000E+00  0.00000000E+00
  8.10000000E+02  2.00000000E+00  0.00000000E+00
  8.20000000E+02  2.00000000E+00  0.00000000E+00
  8.30000000E+02  2.00000000E+00  0.00000000E+00
  8.40000000E+02  2.00000000E+00  0.00000000E+00
  8.50000000E+02  2.00000000E+00  0.00000000E+00
  8.60000000E+02  2.00000000E+00  0.00000000E+00
  8.70000000E+02  2.00000000E+00  0.00000000E+00
  8.80000000E+02  2.00000000E+00  0.00000000E+00
  8.90000000E+02  2.00000000E+00  0.00000000E+00
  9.00000000E+02  2.00000000E+00  0.00000000E+00
  9.10000000E+02  2.00000000E+00  0.00000000E+00
  9.20000000E+02  2.00000000E+00  0.00000000E+00
  9.30000000E+02  2.00000000E+00  0.00000000E+00
  9.40000000E+02  2.00000000E+00  0.00000000E+00
  9.50000000E+02  2.00000000E+00  0.00000000E+00
  9.60000000E+02  2.00000000E+00  0.00000000E+00
  9.70000000E+02  2.00000000E+00  0.00000000E+00
  9.80000000E+02  2.00000000E+00  0.00000000E+00
  9.90000000E+02  2.00000000E+00  0.00000000E+00
  1.00000000E+03  2.00000000E+00  0.00000000E+00
  0.00000000E+00  4.00000000E+00  0.00000000E+00
  1.00000000E+01  4.00000000E+00  0.00000000E+00
  2.00000000E+01  4.00000000E+00  0.00000000E+00
  3.00000000E+01  4.00000000E+00  0.00000000E+00
  4.00000000E+01  4.00000000E+00  0.00000000E+00
  5.00000000E+01  4.00000000E+00  0.00000000E+00
  6.00000000E+01  4.00000000E+00  0.00000000E+00
  7.00000000E+01  4.00000000E+00  0.00000000E+00
  8.00000000E+01  4.00000000E+00  0.00000000E+00
  9.00000000E+01  4.00000000E+00  0.00000000E+00
  1.00000000E+02  4.00000000E+00  0.00000000E+00
  1.10000000E+02  4.00000000E+00  0.00000000E+00
  1.20000000E+02  4.00000000E+00  0.00000000E+00
  1.30000000E+02  4.00000000E+00  0.00000000E+00
  1.40000000E+02  4.00000000E+00  0.00000000E+00
  1.50000000E+02  4.00000000E+00  0.00000000E+00
  1.60000000E+02  4.00000000E+00  0.00000000E+00
  1.70000000E+02  4.00000000E+00  0.00000000E+00
  1.80000000E+02  4.00000000E+00  0.00000000E+00
  1.90000000E+02  4.00000000E+00  0.00000000E+00
  2.00000000E+02  4.00000000E+00  0.00000000E+00
  2.10000000E+02  4.00000000E+00  0.00000000E+00
  2.20000000E+02  4.00000000E+00  0.00000000E+00
  2.30000000E+02  4.00000000E+00  0.00000000E+00
  2.40000000E+02  4.00000000E+00  0.00000000E+00
  2.50000000E+02  4.00000000E+00  0.00000000E+00
  2.60000000E+02  4.00000000E+00  0.00000000E+00
  2.70000000E+02  4.00000000E+00  0.00000000E+00
  2.80000000E+02  4.00000000E+00  0.00000000E+00
  2.90000000E+02  4.00000000E+00  0.00000000E+00
  3.00000000E+02  4.00000000E+00  0.00000000E+00
  3.10000000E+02  4.00000000E+00  0.00000000E+00
  3.20000000E+02  4.00000000E+00  0.00000000E+00
  3.30000000E+02  4.00000000E+00  0.00000000E+00
  3.40000000E+02  4.00000000E+00  0.00000000E+00
  3.50000000E+02  4.00000000E+00  0.00000000E+00
  3.60000000E+02  4.00000000E+00  0.00000000E+00
  3.70000000E+02  4.00000000E+00  0.00000000E+00
  3.80000000E+02  4.00000000E+00  0.00000000E+00
  3.90000000E+02  4.00000000E+00  0.00000000E+00
  4.00000000E+02  4.00000000E+00  0.00000000E+00
  4.10000000E+02  4.00000000E+00  0.00000000E+00
  4.20000000E+02  4.00000000E+00  0.00000000E+00
  4.30000000E+02  4.00000000E+00  0.00000000E+00
  4.40000000E+02  4.00000000E+00  0.00000000E+00
  4.50000000E+02  4.00000000E+00  0.00000000E+00
  4.60000000E+02  4.00000000E+00  0.00000000E+00
  4.70000000E+02  4.00000000E+00  0.00000000E+00
  4.80000000E+02  4.00000000E+00  0.00000000E+00
  4.90000000E+02  4.00000000E+00  0.00000000E+00
  5.00000000E+02  4.00000000E+00  0.00000000E+00
  5.10000000E+02  4.00000000E+00  0.00000000E+00
  5.20000000E+02  4.00000000E+00  0.00000000E+00
  5.30000000E+02  4.00000000E+00  0.00000000E+00
  5.40000000E+02  4.00000000E+00  0.00000000E+00
  5.50000000E+02  4.00000000E+00  0.00000000E+00
  5.60000000E+02  4.00000000E+00  0.00000000E+00
  5.70000000E+02  4.00000000E+00  0.00000000E+00
  5.80000000E+02  4.00000000E+00  0.00000000E+00
  5.90000000E+02  4.00000000E+00  0.00000000E+00
  6.00000000E+02  4.00000000E+00  0.00000000E+00
  6.10000000E+02  4.00000000E+00  0.00000000E+00
  6.20000000E+02  4.00000000E+00  0.00000000E+00
  6.30000000E+02  4.00000000E+00  0.00000000E+00
  6.40000000E+02  4.00000000E+00  0.00000000E+00
  6.50000000E+02  4.00000000E+00  0.00000000E+00
  6.60000000E+02  4.00000000E+00  0.00000000E+00
  6.70000000E+02  4.00000000E+00  0.00000000E+00
  6.80000000E+02  4.00000000E+00  0.00000000E+00
  6.90000000E+02  4.00000000E+00  0.00000000E+00
  7.00000000E+02  4.00000000E+00  0.00000000E+00
  7.10000000E+02  4.00000000E+00  0.00000000E+00
  7.20000000E+02  4.00000000E+00  0.00000000E+00
  7.30000000E+02  4.00000000E+00  0.00000000E+00
  7.40000000E+02  4.00000000E+00  0.00000000E+00
  7.50000000E+02  4.00000000E+00  0.00000000E+00
  7.60000000E+02  4.00000000E+00  0.00000000E+00
  7.70000000E+02  4.00000000E+00  0.00000000E+00
  7.80000000E+02  4.00000000E+00  0.00000000E+00
  7.90000000E+02  4.00000000E+00  0.00000000E+00
  8.00000000E+02  4.00000000E+00  0.00000000E+00
  8.10000000E+02  4.00000000E+00  0.00000000E+00
  8.20000000E+02  4.00000000E+00  0.00000000E+00
  8.30000000E+02  4.00000000E+00  0.00000000E+00
  8.40000000E+02  4.00000000E+00  0.00000000E+00
  8.50000000E+02  4.00000000E+00  0.00000000E+00
  8.60000000E+02  4.00000000E+00  0.00000000E+00
  8.70000000E+02  4.00000000E+00  0.00000000E+00
  8.80000000E+02  4.00000000E+00  0.00000000E+00
  8.90000000E+02  4.00000000E+00  0.00000000E+00
  9.00000000E+02  4.00000000E+00  0.00000000E+00
  9.10000000E+02  4.00000000E+00  0.00000000E+00
  9.20000000E+02  4.00000000E+00  0.00000000E+00
  9.30000000E+02  4.00000000E+00  0.00000000E+00
  9.40000000E+02  4.00000000E+00  0.00000000E+00
  9.50000000E+02  4.00000000E+00  0.00000000E+00
  9.60000000E+02  4.00000000E+00  0.00000000E+00
  9.70000000E+02  4.00000000E+00  0.00000000E+00
  9.80000000E+02  4.00000000E+00  0.00000000E+00
  9.90000000E+02  4.00000000E+00  0.00000000E+00
  1.00000000E+03  4.00000000E+00  0.00000000E+00
  0.00000000E+00  6.00000000E+00  0.00000000E+00
  1.00000000E+01  6.00000000E+00  0.00000000E+00
  2.00000000E+01  6.00000000E+00  0.00000000E+00
  3.00000000E+01  6.00000000E+00  0.00000000E+00
  4.00000000E+01  6.00000000E+00  0.00000000E+00
  5.00000000E+01  6.00000000E+00  0.00000000E+00
  6.00000000E+01  6.00000000E+00  0.00000000E+00
  7.00000000E+01  6.00000000E+00  0.00000000E+00
  8.00000000E+01  6.00000000E+00  0.00000000E+00
  9.00000000E+01  6.00000000E+00  0.00000000E+00
  1.00000000E+02  6.00000000E+00  0.00000000E+00
  1.10000000E+02  6.00000000E+00  0.00000000E+00
  1.20000000E+02  6.00000000E+00  0.00000000E+00
  1.30000000E+02  6.00000000E+00  0.00000000E+00
  1.40000000E+02  6.00000000E+00  0.00000000E+00
  1.50000000E+02  6.00000000E+00  0.00000000E+00
  1.60000000E+02  6.00000000E+00  0.00000000E+00
  1.70000000E+02  6.00000000E+00  0.00000000E+00
  1.80000000E+02  6.00000000E+00  0.00000000E+00
  1.90000000E+02  6.00000000E+00  0.00000000E+00
  2.00000000E+02  6.00000000E+00  0.00000000E+00
  2.10000000E+02  6.00000000E+00  0.00000000E+00
  2.20000000E+02  6.00000000E+00  0.00000000E+00
  2.30000000E+02  6.00000000E+00  0.00000000E+00
  2.40000000E+02  6.00000000E+00  0.00000000E+00
  2.50000000E+02  6.00000000E+00  0.00000000E+00
  2.60000000E+02  6.00000000E+00  0.00000000E+00
  2.70000000E+02  6.00000000E+00  0.00000000E+00
  2.80000000E+02  6.00000000E+00  0.00000000E+00
  2.90000000E+02  6.00000000E+00  0.00000000E+00
  3.00000000E+02  6.00000000E+00  0.00000000E+00
  3.10000000E+02  6.00000000E+00  0.00000000E+00
  3.20000000E+02  6.00000000E+00  0.00000000E+00
  3.30000000E+02  6.00000000E+00  0.00000000E+00
  3.40000000E+02  6.00000000E+00  0.00000000E+00
  3.50000000E+02  6.00000000E+00  0.00000000E+00
  3.60000000E+02  6.00000000E+00  0.00000000E+00
  3.70000000E+02  6.00000000E+00  0.00000000E+00
  3.80000000E+02  6.00000000E+00  0.00000000E+00
  3.90000000E+02  6.00000000E+00  0.00000000E+00
  4.00000000E+02  6.00000000E+00  0.00000000E+00
  4.10000000E+02  6.00000000E+00  0.00000000E+00
  4.20000000E+02  6.00000000E+00  0.00000000E+00
  4.30000000E+02  6.00000000E+00  0.00000000E+00
  4.40000000E+02  6.00000000E+00  0.00000000E+00
  4.50000000E+02  6.00000000E+00  0.00000000E+00
  4.60000000E+02  6.00000000E+00  0.00000000E+00
  4.70000000E+02  6.00000000E+00  0.00000000E+00
  4.80000000E+02  6.00000000E+00  0.00000000E+00
  4.90000000E+02  6.00000000E+00  0.00000000E+00
  5.00000000E+02  6.00000000E+00  0.00000000E+00
  5.10000000E+02  6.00000000E+00  0.00000000E+00
  5.20000000E+02  6.00000000E+00  0.00000000E+00
  5.30000000E+02  6.00000000E+00  0.00000000E+00
  5.40000000E+02  6.00000000E+00  0.00000000E+00
  5.50000000E+02  6.00000000E+00  0.00000000E+00
  5.60000000E+02  6.00000000E+00  0.00000000E+00
  5.70000000E+02  6.00000000E+00  0.00000000E+00
  5.80000000E+02  6.00000000E+00  0.00000000E+00
  5.90000000E+02  6.00000000E+00  0.00000000E+00
  6.00000000E+02  6.00000000E+00  0.00000000E+00
  6.10000000E+02  6.00000000E+00  0.00000000E+00
  6.20000000E+02  6.00000000E+00  0.00000000E+00
  6.30000000E+02  6.00000000E+00  0.00000000E+00
  6.40000000E+02  6.00000000E+00  0.00000000E+00
  6.50000000E+02  6.00000000E+00  0.00000000E+00
  6.60000000E+02  6.00000000E+00  0.00000000E+00
  6.70000000E+02  6.00000000E+00  0.00000000E+00
  6.80000000E+02  6.00000000E+00  0.00000000E+00
  6.90000000E+02  6.00000000E+00  0.00000000E+00
  7.00000000E+02  6.00000000E+00  0.00000000E+00
  7.10000000E+02  6.00000000E+00  0.00000000E+00
  7.20000000E+02  6.00000000E+00  0.00000000E+00
  7.30000000E+02  6.00000000E+00  0.00000000E+00
  7.40000000E+02  6.00000000E+00  0.00000000E+00
  7.50000000E+02  6.00000000E+00  0.00000000E+00
  7.60000000E+02  6.00000000E+00  0.00000000E+00
  7.70000000E+02  6.00000000E+00  0.00000000E+00
  7.80000000E+02  6.00000000E+00  0.00000000E+00
  7.90000000E+02  6.00000000E+00  0.00000000E+00
  8.00000000E+02  6.00000000E+00  0.00000000E+00
  8.10000000E+02  6.00000000E+00  0.00000000E+00
  8.20000000E+02  6.00000000E+00  0.00000000E+00
  8.30000000E+02  6.00000000E+00  0.00000000E+00
  8.40000000E+02  6.00000000E+00  0.00000000E+00
  8.50000000E+02  6.00000000E+00  0.00000000E+00
  8.60000000E+02  6.00000000E+00  0.00000000E+00
  8.70000000E+02  6.00000000E+00  0.00000000E+00
  8.80000000E+02  6.00000000E+00  0.00000000E+00
  8.90000000E+02  6.00000000E+00  0.00000000E+00
  9.00000000E+02  6.00000000E+00  0.00000000E+00
  9.10000000E+02  6.00000000E+00  0.00000000E+00
  9.20000000E+02  6.00000000E+00  0.00000000E+00
  9.30000000E+02  6.00000000E+00  0.00000000E+00
  9.40000000E+02  6.00000000E+00  0.00000000E+00
  9.50000000E+02  6.00000000E+00  0.00000000E+00
  9.60000000E+02  6.00000000E+00  0.00000000E+00
  9.70000000E+02  6.00000000E+00  0.00000000E+00
  9.80000000E+02  6.00000000E+00  0.00000000E+00
  9.90000000E+02  6.00000000E+00  0.00000000E+00
  1.00000000E+03  6.00000000E+00  0.00000000E+00
  0.00000000E+00  8.00000000E+00  0.00000000E+00
  1.00000000E+01  8.00000000E+00  0.00000000E+00
  2.00000000E+01  8.00000000E+00  0.00000000E+00
  3.00000000E+01  8.00000000E+00  0.00000000E+00
  4.00000000E+01  8.00000000E+00  0.00000000E+00
  5.00000000E+01  8.00000000E+00  0.00000000E+00
  6.00000000E+01  8.00000000E+00  0.00000000E+00
  7.00000000E+01  8.00000000E+00  0.00000000E+00
  8.00000000E+01  8.00000000E+00  0.00000000E+00
  9.00000000E+01  8.00000000E+00  0.00000000E+00
  1.00000000E+02  8.00000000E+00  0.00000000E+00
  1.10000000E+02  8.00000000E+00  0.00000000E+00
  1.20000000E+02  8.00000000E+00  0.00000000E+00
  1.30000000E+02  8.00000000E+00  0.00000000E+00
  1.40000000E+02  8.00000000E+00  0.00000000E+00
  1.50000000E+02  8.00000000E+00  0.00000000E+00
  1.60000000E+02  8.00000000E+00  0.00000000E+00
  1.70000000E+02  8.00000000E+00  0.00000000E+00
  1.80000000E+02  8.00000000E+00  0.00000000E+00
  1.90000000E+02  8.00000000E+00  0.00000000E+00
  2.00000000E+02  8.00000000E+00  0.00000000E+00
  2.10000000E+02  8.00000000E+00  0.00000000E+00
  2.20000000E+02  8.00000000E+00  0.00000000E+00
  2.30000000E+02  8.00000000E+00  0.00000000E+00
  2.40000000E+02  8.00000000E+00  0.00000000E+00
  2.50000000E+02  8.00000000E+00  0.00000000E+00
  2.60000000E+02  8.00000000E+00  0.00000000E+00
  2.70000000E+02  8.00000000E+00  0.00000000E+00
  2.80000000E+02  8.00000000E+00  0.00000000E+00
  2.90000000E+02  8.00000000E+00  0.00000000E+00
  3.00000000E+02  8.00000000E+00  0.00000000E+00
  3.10000000E+02  8.00000000E+00  0.00000000E+00
  3.20000000E+02  8.00000000E+00  0.00000000E+00
  3.30000000E+02  8.00000000E+00  0.00000000E+00
  3.40000000E+02  8.00000000E+00  0.00000000E+00
  3.50000000E+02  8.00000000E+00  0.00000000E+00
  3.60000000E+02  8.00000000E+00  0.00000000E+00
  3.70000000E+02  8.00000000E+00  0.00000000E+00
  3.80000000E+02  8.00000000E+00  0.00000000E+00
  3.90000000E+02  8.00000000E+00  0.00000000E+00
  4.00000000E+02  8.00000000E+00  0.00000000E+00
  4.10000000E+02  8.00000000E+00  0.00000000E+00
  4.20000000E+02  8.00000000E+00  0.00000000E+00
  4.30000000E+02  8.00000000E+00  0.00000000E+00
  4.40000000E+02  8.00000000E+00  0.00000000E+00
  4.50000000E+02  8.00000000E+00  0.00000000E+00
  4.60000000E+02  8.00000000E+00  0.00000000E+00
  4.70000000E+02  8.00000000E+00  0.00000000E+00
  4.80000000E+02  8.00000000E+00  0.00000000E+00
  4.90000000E+02  8.00000000E+00  0.00000000E+00
  5.00000000E+02  8.00000000E+00  0.00000000E+00
  5.10000000E+02  8.00000000E+00  0.00000000E+00
  5.20000000E+02  8.00000000E+00  0.00000000E+00
  5.30000000E+02  8.00000000E+00  0.00000000E+00
  5.40000000E+02  8.00000000E+00  0.00000000E+00
  5.50000000E+02  8.00000000E+00  0.00000000E+00
  5.60000000E+02  8.00000000E+00  0.00000000E+00
  5.70000000E+02  8.00000000E+00  0.00000000E+00
  5.80000000E+02  8.00000000E+00  0.00000000E+00
  5.90000000E+02  8.00000000E+00  0.00000000E+00
  6.00000000E+02  8.00000000E+00  0.00000000E+00
  6.10000000E+02  8.00000000E+00  0.00000000E+00
  6.20000000E+02  8.00000000E+00  0.00000000E+00
  6.30000000E+02  8.00000000E+00  0.00000000E+00
  6.40000000E+02  8.00000000E+00  0.00000000E+00
  6.50000000E+02  8.00000000E+00  0.00000000E+00
  6.60000000E+02  8.00000000E+00  0.00000000E+00
  6.70000000E+02  8.00000000E+00  0.00000000E+00
  6.80000000E+02  8.00000000E+00  0.00000000E+00
  6.90000000E+02  8.00000000E+00  0.00000000E+00
  7.00000000E+02  8.00000000E+00  0.00000000E+00
  7.10000000E+02  8.00000000E+00  0.00000000E+00
  7.20000000E+02  8.00000000E+00  0.00000000E+00
  7.30000000E+02  8.00000000E+00  0.00000000E+00
  7.40000000E+02  8.00000000E+00  0.00000000E+00
  7.50000000E+02  8.00000000E+00  0.00000000E+00
  7.60000000E+02  8.00000000E+00  0.00000000E+00
  7.70000000E+02  8.00000000E+00  0.00000000E+00
  7.80000000E+02  8.00000000E+00  0.00000000E+00
  7.90000000E+02  8.00000000E+00  0.00000000E+00
  8.00000000E+02  8.00000000E+00  0.00000000E+00
  8.10000000E+02  8.00000000E+00  0.00000000E+00
  8.20000000E+02  8.00000000E+00  0.00000000E+00
  8.30000000E+02  8.00000000E+00  0.00000000E+00
  8.40000000E+02  8.00000000E+00  0.00000000E+00
  8.50000000E+02  8.00000000E+00  0.00000000E+00
  8.60000000E+02  8.00000000E+00  0.00000000E+00
  8.70000000E+02  8.00000000E+00  0.00000000E+00
  8.80000000E+02  8.00000000E+00  0.00000000E+00
  8.90000000E+02  8.00000000E+00  0.00000000E+00
  9.00000000E+02  8.00000000E+00  0.00000000E+00
  9.10000000E+02  8.00000000E+00  0.00000000E+00
  9.20000000E+02  8.00000000E+00  0.00000000E+00
  9.30000000E+02  8.00000000E+00  0.00000000E+00
  9.40000000E+02  8.00000000E+00  0.00000000E+00
  9.50000000E+02  8.00000000E+00  0.00000000E+00
  9.60000000E+02  8.00000000E+00  0.00000000E+00
  9.70000000E+02  8.00000000E+00  0.00000000E+00
  9.80000000E+02  8.00000000E+00  0.00000000E+00
  9.90000000E+02  8.00000000E+00  0.00000000E+00
  1.00000000E+03  8.00000000E+00  0.00000000E+00
  0.00000000E+00  1.00000000E+01  0.00000000E+00
  1.00000000E+01  1.00000000E+01  0.00000000E+00
  2.00000000E+01  1.00000000E+01  0.00000000E+00
  3.00000000E+01  1.00000000E+01  0.00000000E+00
  4.00000000E+01  1.00000000E+01  0.00000000E+00
  5.00000000E+01  1.00000000E+01  0.00000000E+00
  6.00000000E+01  1.00000000E+01  0.00000000E+00
  7.00000000E+01  1.00000000E+01  0.00000000E+00
  8.00000000E+01  1.00000000E+01  0.00000000E+00
  9.00000000E+01  1.00000000E+01  0.00000000E+00
  1.00000000E+02  1.00000000E+01  0.00000000E+00
  1.10000000E+02  1.00000000E+01  0.00000000E+00
  1.20000000E+02  1.00000000E+01  0.00000000E+00
  1.30000000E+02  1.00000000E+01  0.00000000E+00
  1.40000000E+02  1.00000000E+01  0.00000000E+00
  1.50000000E+02  1.00000000E+01  0.00000000E+00
  1.60000000E+02  1.00000000E+01  0.00000000E+00
  1.70000000E+02  1.00000000E+01  0.00000000E+00
  1.80000000E+02  1.00000000E+01  0.00000000E+00
  1.90000000E+02  1.00000000E+01  0.00000000E+00
  2.00000000E+02  1.00000000E+01  0.00000000E+00
  2.10000000E+02  1.00000000E+01  0.00000000E+00
  2.20000000E+02  1.00000000E+01  0.00000000E+00
  2.30000000E+02  1.00000000E+01  0.00000000E+00
  2.40000000E+02  1.00000000E+01  0.00000000E+00
  2.50000000E+02  1.00000000E+01  0.00000000E+00
  2.60000000E+02  1.00000000E+01  0.00000000E+00
  2.70000000E+02  1.00000000E+01  0.00000000E+00
  2.80000000E+02  1.00000000E+01  0.00000000E+00
  2.90000000E+02  1.00000000E+01  0.00000000E+00
  3.00000000E+02  1.00000000E+01  0.00000000E+00
  3.10000000E+02  1.00000000E+01  0.00000000E+00
  3.20000000E+02  1.00000000E+01  0.00000000E+00
  3.30000000E+02  1.00000000E+01  0.00000000E+00
  3.40000000E+02  1.00000000E+01  0.00000000E+00
  3.50000000E+02  1.00000000E+01  0.00000000E+00
  3.60000000E+02  1.00000000E+01  0.00000000E+00
  3.70000000E+02  1.00000000E+01  0.00000000E+00
  3.80000000E+02  1.00000000E+01  0.00000000E+00
  3.90000000E+02  1.00000000E+01  0.00000000E+00
  4.00000000E+02  1.00000000E+01  0.00000000E+00
  4.10000000E+02  1.00000000E+01  0.00000000E+00
  4.20000000E+02  1.00000000E+01  0.00000000E+00
  4.30000000E+02  1.00000000E+01  0.00000000E+00
  4.40000000E+02  1.00000000E+01  0.00000000E+00
  4.50000000E+02  1.00000000E+01  0.00000000E+00
  4.60000000E+02  1.00000000E+01  0.00000000E+00
  4.70000000E+02  1.00000000E+01  0.00000000E+00
  4.80000000E+02  1.00000000E+01  0.00000000E+00
  4.90000000E+02  1.00000000E+01  0.00000000E+00
  5.00000000E+02  1.00000000E+01  0.00000000E+00
  5.10000000E+02  1.00000000E+01  0.00000000E+00
  5.20000000E+02  1.00000000E+01  0.00000000E+00
  5.30000000E+02  1.00000000E+01  0.00000000E+00
  5.40000000E+02  1.00000000E+01  0.00000000E+00
  5.50000000E+02  1.00000000E+01  0.00000000E+00
  5.60000000E+02  1.00000000E+01  0.00000000E+00
  5.70000000E+02  1.00000000E+01  0.00000000E+00
  5.80000000E+02  1.00000000E+01  0.00000000E+00
  5.90000000E+02  1.00000000E+01  0.00000000E+00
  6.00000000E+02  1.00000000E+01  0.00000000E+00
  6.10000000E+02  1.00000000E+01  0.00000000E+00
  6.20000000E+02  1.00000000E+01  0.00000000E+00
  6.30000000E+02  1.00000000E+01  0.00000000E+00
  6.40000000E+02  1.00000000E+01  0.00000000E+00
  6.50000000E+02  1.00000000E+01  0.00000000E+00
  6.60000000E+02  1.00000000E+01  0.00000000E+00
  6.70000000E+02  1.00000000E+01  0.00000000E+00
  6.80000000E+02  1.00000000E+01  0.00000000E+00
  6.90000000E+02  1.00000000E+01  0.00000000E+00
  7.00000000E+02  1.00000000E+01  0.00000000E+00
  7.10000000E+02  1.00000000E+01  0.00000000E+00
  7.20000000E+02  1.00000000E+01  0.00000000E+00
  7.30000000E+02  1.00000000E+01  0.00000000E+00
  7.40000000E+02  1.00000000E+01  0.00000000E+00
  7.50000000E+02  1.00000000E+01  0.00000000E+00
  7.60000000E+02  1.00000000E+01  0.00000000E+00
  7.70000000E+02  1.00000000E+01  0.00000000E+00
  7.80000000E+02  1.00000000E+01  0.00000000E+00
  7.90000000E+02  1.00000000E+01  0.00000000E+00
  8.00000000E+02  1.00000000E+01  0.00000000E+00
  8.10000000E+02  1.00000000E+01  0.00000000E+00
  8.20000000E+02  1.00000000E+01  0.00000000E+00
  8.30000000E+02  1.00000000E+01  0.00000000E+00
  8.40000000E+02  1.00000000E+01  0.00000000E+00
  8.50000000E+02  1.00000000E+01  0.00000000E+00
  8.60000000E+02  1.00000000E+01  0.00000000E+00
  8.70000000E+02  1.00000000E+01  0.00000000E+00
  8.80000000E+02  1.00000000E+01  0.00000000E+00
  8.90000000E+02  1.00000000E+01  0.00000000E+00
  9.00000000E+02  1.00000000E+01  0.00000000E+00
  9.10000000E+02  1.00000000E+01  0.00000000E+00
  9.20000000E+02  1.00000000E+01  0.00000000E+00
  9.30000000E+02  1.00000000E+01  0.00000000E+00
  9.40000000E+02  1.00000000E+01  0.00000000E+00
  9.50000000E+02  1.00000000E+01  0.00000000E+00
  9.60000000E+02  1.00000000E+01  0.00000000E+00
  9.70000000E+02  1.00000000E+01  0.00000000E+00
  9.80000000E+02  1.00000000E+01  0.00000000E+00
  9.90000000E+02  1.00000000E+01  0.00000000E+00
  1.00000000E+03  1.00000000E+01  0.00000000E+00
  0.00000000E+00  1.20000000E+01  0.00000000E+00
  1.00000000E+01  1.20000000E+01  0.00000000E+00
  2.00000000E+01  1.20000000E+01  0.00000000E+00
  3.00000000E+01  1.20000000E+01  0.00000000E+00
  4.00000000E+01  1.20000000E+01  0.00000000E+00
  5.00000000E+01  1.20000000E+01  0.00000000E+00
  6.00000000E+01  1.20000000E+01  0.00000000E+00
  7.00000000E+01  1.20000000E+01  0.00000000E+00
  8.00000000E+01  1.20000000E+01  0.00000000E+00
  9.00000000E+01  1.20000000E+01  0.00000000E+00
  1.00000000E+02  1.20000000E+01  0.00000000E+00
  1.10000000E+02  1.20000000E+01  0.00000000E+00
  1.20000000E+02  1.20000000E+01  0.00000000E+00
  1.30000000E+02  1.20000000E+01  0.00000000E+00
  1.40000000E+02  1.20000000E+01  0.00000000E+00
  1.50000000E+02  1.20000000E+01  0.00000000E+00
  1.60000000E+02  1.20000000E+01  0.00000000E+00
  1.70000000E+02  1.20000000E+01  0.00000000E+00
  1.80000000E+02  1.20000000E+01  0.00000000E+00
  1.90000000E+02  1.20000000E+01  0.00000000E+00
  2.00000000E+02  1.20000000E+01  0.00000000E+00
  2.10000000E+02  1.20000000E+01  0.00000000E+00
  2.20000000E+02  1.20000000E+01  0.00000000E+00
  2.30000000E+02  1.20000000E+01  0.00000000E+00
  2.40000000E+02  1.20000000E+01  0.00000000E+00
  2.50000000E+02  1.20000000E+01  0.00000000E+00
  2.60000000E+02  1.20000000E+01  0.00000000E+00
  2.70000000E+02  1.20000000E+01  0.00000000E+00
  2.80000000E+02  1.20000000E+01  0.00000000E+00
  2.90000000E+02  1.20000000E+01  0.00000000E+00
  3.00000000E+02  1.20000000E+01  0.00000000E+00
  3.10000000E+02  1.20000000E+01  0.00000000E+00
  3.20000000E+02  1.20000000E+01  0.00000000E+00
  3.30000000E+02  1.20000000E+01  0.00000000E+00
  3.40000000E+02  1.20000000E+01  0.00000000E+00
  3.50000000E+02  1.20000000E+01  0.00000000E+00
  3.60000000E+02  1.20000000E+01  0.00000000E+00
  3.70000000E+02  1.20000000E+01  0.00000000E+00
  3.80000000E+02  1.20000000E+01  0.00000000E+00
  3.90000000E+02  1.20000000E+01  0.00000000E+00
  4.00000000E+02  1.20000000E+01  0.00000000E+00
  4.10000000E+02  1.20000000E+01  0.00000000E+00
  4.20000000E+02  1.20000000E+01  0.00000000E+00
  4.30000000E+02  1.20000000E+01  0.00000000E+00
  4.40000000E+02  1.20000000E+01  0.00000000E+00
  4.50000000E+02  1.20000000E+01  0.00000000E+00
  4.60000000E+02  1.20000000E+01  0.00000000E+00
  4.70000000E+02  1.20000000E+01  0.00000000E+00
  4.80000000E+02  1.20000000E+01  0.00000000E+00
  4.90000000E+02  1.20000000E+01  0.00000000E+00
  5.00000000E+02  1.20000000E+01  0.00000000E+00
  5.10000000E+02  1.20000000E+01  0.00000000E+00
  5.20000000E+02  1.20000000E+01  0.00000000E+00
  5.30000000E+02  1.20000000E+01  0.00000000E+00
  5.40000000E+02  1.20000000E+01  0.00000000E+00
  5.50000000E+02  1.20000000E+01  0.00000000E+00
  5.60000000E+02  1.20000000E+01  0.00000000E+00
  5.70000000E+02  1.20000000E+01  0.00000000E+00
  5.80000000E+02  1.20000000E+01  0.00000000E+00
  5.90000000E+02  1.20000000E+01  0.00000000E+00
  6.00000000E+02  1.20000000E+01  0.00000000E+00
  6.10000000E+02  1.20000000E+01  0.00000000E+00
  6.20000000E+02  1.20000000E+01  0.00000000E+00
  6.30000000E+02  1.20000000E+01  0.00000000E+00
  6.40000000E+02  1.20000000E+01  0.00000000E+00
  6.50000000E+02  1.20000000E+01  0.00000000E+00
  6.60000000E+02  1.20000000E+01  0.00000000E+00
  6.70000000E+02  1.20000000E+01  0.00000000E+00
  6.80000000E+02  1.20000000E+01  0.00000000E+00
  6.90000000E+02  1.20000000E+01  0.00000000E+00
  7.00000000E+02  1.20000000E+01  0.00000000E+00
  7.10000000E+02  1.20000000E+01  0.00000000E+00
  7.20000000E+02  1.20000000E+01  0.00000000E+00
  7.30000000E+02  1.20000000E+01  0.00000000E+00
  7.40000000E+02  1.20000000E+01  0.00000000E+00
  7.50000000E+02  1.20000000E+01  0.00000000E+00
  7.60000000E+02  1.20000000E+01  0.00000000E+00
  7.70000000E+02  1.20000000E+01  0.00000000E+00
  7.80000000E+02  1.20000000E+01  0.00000000E+00
  7.90000000E+02  1.20000000E+01  0.00000000E+00
  8.00000000E+02  1.20000000E+01  0.00000000E+00
  8.10000000E+02  1.20000000E+01  0.00000000E+00
  8.20000000E+02  1.20000000E+01  0.00000000E+00
  8.30000000E+02  1.20000000E+01  0.00000000E+00
  8.40000000E+02  1.20000000E+01  0.00000000E+00
  8.50000000E+02  1.20000000E+01  0.00000000E+00
  8.60000000E+02  1.20000000E+01  0.00000000E+00
  8.70000000E+02  1.20000000E+01  0.00000000E+00
  8.80000000E+02  1.20000000E+01  0.00000000E+00
  8.90000000E+02  1.20000000E+01  0.00000000E+00
  9.00000000E+02  1.20000000E+01  0.00000000E+00
  9.10000000E+02  1.20000000E+01  0.00000000E+00
  9.20000000E+02  1.20000000E+01  0.00000000E+00
  9.30000000E+02  1.20000000E+01  0.00000000E+00
  9.40000000E+02  1.20000000E+01  0.00000000E+00
  9.50000000E+02  1.20000000E+01  0.00000000E+00
  9.60000000E+02  1.20000000E+01  0.00000000E+00
  9.70000000E+02  1.20000000E+01  0.00000000E+00
  9.80000000E+02  1.20000000E+01  0.00000000E+00
  9.90000000E+02  1.20000000E+01  0.00000000E+00
  1.00000000E+03  1.20000000E+01  0.00000000E+00
  0.00000000E+00  1.40000000E+01  0.00000000E+00
  1.00000000E+01  1.40000000E+01  0.00000000E+00
  2.00000000E+01  1.40000000E+01  0.00000000E+00
  3.00000000E+01  1.40000000E+01  0.00000000E+00
  4.00000000E+01  1.40000000E+01  0.00000000E+00
  5.00000000E+01  1.40000000E+01  0.00000000E+00
  6.00000000E+01  1.40000000E+01  0.00000000E+00
  7.00000000E+01  1.40000000E+01  0.00000000E+00
  8.00000000E+01  1.40000000E+01  0.00000000E+00
  9.00000000E+01  1.40000000E+01  0.00000000E+00
  1.00000000E+02  1.40000000E+01  0.00000000E+00
  1.10000000E+02  1.40000000E+01  0.00000000E+00
  1.20000000E+02  1.40000000E+01  0.00000000E+00
  1.30000000E+02  1.40000000E+01  0.00000000E+00
  1.40000000E+02  1.40000000E+01  0.00000000E+00
  1.50000000E+02  1.40000000E+01  0.00000000E+00
  1.60000000E+02  1.40000000E+01  0.00000000E+00
  1.70000000E+02  1.40000000E+01  0.00000000E+00
  1.80000000E+02  1.40000000E+01  0.00000000E+00
  1.90000000E+02  1.40000000E+01  0.00000000E+00
  2.00000000E+02  1.40000000E+01  0.00000000E+00
  2.10000000E+02  1.40000000E+01  0.00000000E+00
  2.20000000E+02  1.40000000E+01  0.00000000E+00
  2.30000000E+02  1.40000000E+01  0.00000000E+00
  2.40000000E+02  1.40000000E+01  0.00000000E+00
  2.50000000E+02  1.40000000E+01  0.00000000E+00
  2.60000000E+02  1.40000000E+01  0.00000000E+00
  2.70000000E+02  1.40000000E+01  0.00000000E+00
  2.80000000E+02  1.40000000E+01  0.00000000E+00
  2.90000000E+02  1.40000000E+01  0.00000000E+00
  3.00000000E+02  1.40000000E+01  0.00000000E+00
  3.10000000E+02  1.40000000E+01  0.00000000E+00
  3.20000000E+02  1.40000000E+01  0.00000000E+00
  3.30000000E+02  1.40000000E+01  0.00000000E+00
  3.40000000E+02  1.40000000E+01  0.00000000E+00
  3.50000000E+02  1.40000000E+01  0.00000000E+00
  3.60000000E+02  1.40000000E+01  0.00000000E+00
  3.70000000E+02  1.40000000E+01  0.00000000E+00
  3.80000000E+02  1.40000000E+01  0.00000000E+00
  3.90000000E+02  1.40000000E+01  0.00000000E+00
  4.00000000E+02  1.40000000E+01  0.00000000E+00
  4.10000000E+02  1.40000000E+01  0.00000000E+00
  4.20000000E+02  1.40000000E+01  0.00000000E+00
  4.30000000E+02  1.40000000E+01  0.00000000E+00
  4.40000000E+02  1.40000000E+01  0.00000000E+00
  4.50000000E+02  1.40000000E+01  0.00000000E+00
  4.60000000E+02  1.40000000E+01  0.00000000E+00
  4.70000000E+02  1.40000000E+01  0.00000000E+00
  4.80000000E+02  1.40000000E+01  0.00000000E+00
  4.90000000E+02  1.40000000E+01  0.00000000E+00
  5.00000000E+02  1.40000000E+01  0.00000000E+00
  5.10000000E+02  1.40000000E+01  0.00000000E+00
  5.20000000E+02  1.40000000E+01  0.00000000E+00
  5.30000000E+02  1.40000000E+01  0.00000000E+00
  5.40000000E+02  1.40000000E+01  0.00000000E+00
  5.50000000E+02  1.40000000E+01  0.00000000E+00
  5.60000000E+02  1.40000000E+01  0.00000000E+00
  5.70000000E+02  1.40000000E+01  0.00000000E+00
  5.80000000E+02  1.40000000E+01  0.00000000E+00
  5.90000000E+02  1.40000000E+01  0.00000000E+00
  6.00000000E+02  1.40000000E+01  0.00000000E+00
  6.10000000E+02  1.40000000E+01  0.00000000E+00
  6.20000000E+02  1.40000000E+01  0.00000000E+00
  6.30000000E+02  1.40000000E+01  0.00000000E+00
  6.40000000E+02  1.40000000E+01  0.00000000E+00
  6.50000000E+02  1.40000000E+01  0.00000000E+00
  6.60000000E+02  1.40000000E+01  0.00000000E+00
  6.70000000E+02  1.40000000E+01  0.00000000E+00
  6.80000000E+02  1.40000000E+01  0.00000000E+00
  6.90000000E+02  1.40000000E+01  0.00000000E+00
  7.00000000E+02  1.40000000E+01  0.00000000E+00
  7.10000000E+02  1.40000000E+01  0.00000000E+00
  7.20000000E+02  1.40000000E+01  0.00000000E+00
  7.30000000E+02  1.40000000E+01  0.00000000E+00
  7.40000000E+02  1.40000000E+01  0.00000000E+00
  7.50000000E+02  1.40000000E+01  0.00000000E+00
  7.60000000E+02  1.40000000E+01  0.00000000E+00
  7.70000000E+02  1.40000000E+01  0.00000000E+00
  7.80000000E+02  1.40000000E+01  0.00000000E+00
  7.90000000E+02  1.40000000E+01  0.00000000E+00
  8.00000000E+02  1.40000000E+01  0.00000000E+00
  8.10000000E+02  1.40000000E+01  0.00000000E+00
  8.20000000E+02  1.40000000E+01  0.00000000E+00
  8.30000000E+02  1.40000000E+01  0.00000000E+00
  8.40000000E+02  1.40000000E+01  0.00000000E+00
  8.50000000E+02  1.40000000E+01  0.00000000E+00
  8.60000000E+02  1.40000000E+01  0.00000000E+00
  8.70000000E+02  1.40000000E+01  0.00000000E+00
  8.80000000E+02  1.40000000E+01  0.00000000E+00
  8.90000000E+02  1.40000000E+01  0.00000000E+00
  9.00000000E+02  1.40000000E+01  0.00000000E+00
  9.10000000E+02  1.40000000E+01  0.00000000E+00
  9.20000000E+02  1.40000000E+01  0.00000000E+00
  9.30000000E+02  1.40000000E+01  0.00000000E+00
  9.40000000E+02  1.40000000E+01  0.00000000E+00
  9.50000000E+02  1.40000000E+01  0.00000000E+00
  9.60000000E+02  1.40000000E+01  0.00000000E+00
  9.70000000E+02  1.40000000E+01  0.00000000E+00
  9.80000000E+02  1.40000000E+01  0.00000000E+00
  9.90000000E+02  1.40000000E+01  0.00000000E+00
  1.00000000E+03  1.40000000E+01  0.00000000E+00
  0.00000000E+00  1.60000000E+01  0.00000000E+00
  1.00000000E+01  1.60000000E+01  0.00000000E+00
  2.00000000E+01  1.60000000E+01  0.00000000E+00
  3.00000000E+01  1.60000000E+01  0.00000000E+00
  4.00000000E+01  1.60000000E+01  0.00000000E+00
  5.00000000E+01  1.60000000E+01  0.00000000E+00
  6.00000000E+01  1.60000000E+01  0.00000000E+00
  7.00000000E+01  1.60000000E+01  0.00000000E+00
  8.00000000E+01  1.60000000E+01  0.00000000E+00
  9.00000000E+01  1.60000000E+01  0.00000000E+00
  1.00000000E+02  1.60000000E+01  0.00000000E+00
  1.10000000E+02  1.60000000E+01  0.00000000E+00
  1.20000000E+02  1.60000000E+01  0.00000000E+00
  1.30000000E+02  1.60000000E+01  0.00000000E+00
  1.40000000E+02  1.60000000E+01  0.00000000E+00
  1.50000000E+02  1.60000000E+01  0.00000000E+00
  1.60000000E+02  1.60000000E+01  0.00000000E+00
  1.70000000E+02  1.60000000E+01  0.00000000E+00
  1.80000000E+02  1.60000000E+01  0.00000000E+00
  1.90000000E+02  1.60000000E+01  0.00000000E+00
  2.00000000E+02  1.60000000E+01  0.00000000E+00
  2.10000000E+02  1.60000000E+01  0.00000000E+00
  2.20000000E+02  1.60000000E+01  0.00000000E+00
  2.30000000E+02  1.60000000E+01  0.00000000E+00
  2.40000000E+02  1.60000000E+01  0.00000000E+00
  2.50000000E+02  1.60000000E+01  0.00000000E+00
  2.60000000E+02  1.60000000E+01  0.00000000E+00
  2.70000000E+02  1.60000000E+01  0.00000000E+00
  2.80000000E+02  1.60000000E+01  0.00000000E+00
  2.90000000E+02  1.60000000E+01  0.00000000E+00
  3.00000000E+02  1.60000000E+01  0.00000000E+00
  3.10000000E+02  1.60000000E+01  0.00000000E+00
  3.20000000E+02  1.60000000E+01  0.00000000E+00
  3.30000000E+02  1.60000000E+01  0.00000000E+00
  3.40000000E+02  1.60000000E+01  0.00000000E+00
  3.50000000E+02  1.60000000E+01  0.00000000E+00
  3.60000000E+02  1.60000000E+01  0.00000000E+00
  3.70000000E+02  1.60000000E+01  0.00000000E+00
  3.80000000E+02  1.60000000E+01  0.00000000E+00
  3.90000000E+02  1.60000000E+01  0.00000000E+00
  4.00000000E+02  1.60000000E+01  0.00000000E+00
  4.10000000E+02  1.60000000E+01  0.00000000E+00
  4.20000000E+02  1.60000000E+01  0.00000000E+00
  4.30000000E+02  1.60000000E+01  0.00000000E+00
  4.40000000E+02  1.60000000E+01  0.00000000E+00
  4.50000000E+02  1.60000000E+01  0.00000000E+00
  4.60000000E+02  1.60000000E+01  0.00000000E+00
  4.70000000E+02  1.60000000E+01  0.00000000E+00
  4.80000000E+02  1.60000000E+01  0.00000000E+00
  4.90000000E+02  1.60000000E+01  0.00000000E+00
  5.00000000E+02  1.60000000E+01  0.00000000E+00
  5.10000000E+02  1.60000000E+01  0.00000000E+00
  5.20000000E+02  1.60000000E+01  0.00000000E+00
  5.30000000E+02  1.60000000E+01  0.00000000E+00
  5.40000000E+02  1.60000000E+01  0.00000000E+00
  5.50000000E+02  1.60000000E+01  0.00000000E+00
  5.60000000E+02  1.60000000E+01  0.00000000E+00
  5.70000000E+02  1.60000000E+01  0.00000000E+00
  5.80000000E+02  1.60000000E+01  0.00000000E+00
  5.90000000E+02  1.60000000E+01  0.00000000E+00
  6.00000000E+02  1.60000000E+01  0.00000000E+00
  6.10000000E+02  1.60000000E+01  0.00000000E+00
  6.20000000E+02  1.60000000E+01  0.00000000E+00
  6.30000000E+02  1.60000000E+01  0.00000000E+00
  6.40000000E+02  1.60000000E+01  0.00000000E+00
  6.50000000E+02  1.60000000E+01  0.00000000E+00
  6.60000000E+02  1.60000000E+01  0.00000000E+00
  6.70000000E+02  1.60000000E+01  0.00000000E+00
  6.80000000E+02  1.60000000E+01  0.00000000E+00
  6.90000000E+02  1.60000000E+01  0.00000000E+00
  7.00000000E+02  1.60000000E+01  0.00000000E+00
  7.10000000E+02  1.60000000E+01  0.00000000E+00
  7.20000000E+02  1.60000000E+01  0.00000000E+00
  7.30000000E+02  1.60000000E+01  0.00000000E+00
  7.40000000E+02  1.60000000E+01  0.00000000E+00
  7.50000000E+02  1.60000000E+01  0.00000000E+00
  7.60000000E+02  1.60000000E+01  0.00000000E+00
  7.70000000E+02  1.60000000E+01  0.00000000E+00
  7.80000000E+02  1.60000000E+01  0.00000000E+00
  7.90000000E+02  1.60000000E+01  0.00000000E+00
  8.00000000E+02  1.60000000E+01  0.00000000E+00
  8.10000000E+02  1.60000000E+01  0.00000000E+00
  8.20000000E+02  1.60000000E+01  0.00000000E+00
  8.30000000E+02  1.60000000E+01  0.00000000E+00
  8.40000000E+02  1.60000000E+01  0.00000000E+00
  8.50000000E+02  1.60000000E+01  0.00000000E+00
  8.60000000E+02  1.60000000E+01  0.00000000E+00
  8.70000000E+02  1.60000000E+01  0.00000000E+00
  8.80000000E+02  1.60000000E+01  0.00000000E+00
  8.90000000E+02  1.60000000E+01  0.00000000E+00
  9.00000000E+02  1.60000000E+01  0.00000000E+00
  9.10000000E+02  1.60000000E+01  0.00000000E+00
  9.20000000E+02  1.60000000E+01  0.00000000E+00
  9.30000000E+02  1.60000000E+01  0.00000000E+00
  9.40000000E+02  1.60000000E+01  0.00000000E+00
  9.50000000E+02  1.60000000E+01  0.00000000E+00
  9.60000000E+02  1.60000000E+01  0.00000000E+00
  9.70000000E+02  1.60000000E+01  0.00000000E+00
  9.80000000E+02  1.60000000E+01  0.00000000E+00
  9.90000000E+02  1.60000000E+01  0.00000000E+00
  1.00000000E+03  1.60000000E+01  0.00000000E+00
  0.00000000E+00  1.80000000E+01  0.00000000E+00
  1.00000000E+01  1.80000000E+01  0.00000000E+00
  2.00000000E+01  1.80000000E+01  0.00000000E+00
  3.00000000E+01  1.80000000E+01  0.00000000E+00
  4.00000000E+01  1.80000000E+01  0.00000000E+00
  5.00000000E+01  1.80000000E+01  0.00000000E+00
  6.00000000E+01  1.80000000E+01  0.00000000E+00
  7.00000000E+01  1.80000000E+01  0.00000000E+00
  8.00000000E+01  1.80000000E+01  0.00000000E+00
  9.00000000E+01  1.80000000E+01  0.00000000E+00
  1.00000000E+02  1.80000000E+01  0.00000000E+00
  1.10000000E+02  1.80000000E+01  0.00000000E+00
  1.20000000E+02  1.80000000E+01  0.00000000E+00
  1.30000000E+02  1.80000000E+01  0.00000000E+00
  1.40000000E+02  1.80000000E+01  0.00000000E+00
  1.50000000E+02  1.80000000E+01  0.00000000E+00
  1.60000000E+02  1.80000000E+01  0.00000000E+00
  1.70000000E+02  1.80000000E+01  0.00000000E+00
  1.80000000E+02  1.80000000E+01  0.00000000E+00
  1.90000000E+02  1.80000000E+01  0.00000000E+00
  2.00000000E+02  1.80000000E+01  0.00000000E+00
  2.10000000E+02  1.80000000E+01  0.00000000E+00
  2.20000000E+02  1.80000000E+01  0.00000000E+00
  2.30000000E+02  1.80000000E+01  0.00000000E+00
  2.40000000E+02  1.80000000E+01  0.00000000E+00
  2.50000000E+02  1.80000000E+01  0.00000000E+00
  2.60000000E+02  1.80000000E+01  0.00000000E+00
  2.70000000E+02  1.80000000E+01  0.00000000E+00
  2.80000000E+02  1.80000000E+01  0.00000000E+00
  2.90000000E+02  1.80000000E+01  0.00000000E+00
  3.00000000E+02  1.80000000E+01  0.00000000E+00
  3.10000000E+02  1.80000000E+01  0.00000000E+00
  3.20000000E+02  1.80000000E+01  0.00000000E+00
  3.30000000E+02  1.80000000E+01  0.00000000E+00
  3.40000000E+02  1.80000000E+01  0.00000000E+00
  3.50000000E+02  1.80000000E+01  0.00000000E+00
  3.60000000E+02  1.80000000E+01  0.00000000E+00
  3.70000000E+02  1.80000000E+01  0.00000000E+00
  3.80000000E+02  1.80000000E+01  0.00000000E+00
  3.90000000E+02  1.80000000E+01  0.00000000E+00
  4.00000000E+02  1.80000000E+01  0.00000000E+00
  4.10000000E+02  1.80000000E+01  0.00000000E+00
  4.20000000E+02  1.80000000E+01  0.00000000E+00
  4.30000000E+02  1.80000000E+01  0.00000000E+00
  4.40000000E+02  1.80000000E+01  0.00000000E+00
  4.50000000E+02  1.80000000E+01  0.00000000E+00
  4.60000000E+02  1.80000000E+01  0.00000000E+00
  4.70000000E+02  1.80000000E+01  0.00000000E+00
  4.80000000E+02  1.80000000E+01  0.00000000E+00
  4.90000000E+02  1.80000000E+01  0.00000000E+00
  5.00000000E+02  1.80000000E+01  0.00000000E+00
  5.10000000E+02  1.80000000E+01  0.00000000E+00
  5.20000000E+02  1.80000000E+01  0.00000000E+00
  5.30000000E+02  1.80000000E+01  0.00000000E+00
  5.40000000E+02  1.80000000E+01  0.00000000E+00
  5.50000000E+02  1.80000000E+01  0.00000000E+00
  5.60000000E+02  1.80000000E+01  0.00000000E+00
  5.70000000E+02  1.80000000E+01  0.00000000E+00
  5.80000000E+02  1.80000000E+01  0.00000000E+00
  5.90000000E+02  1.80000000E+01  0.00000000E+00
  6.00000000E+02  1.80000000E+01  0.00000000E+00
  6.10000000E+02  1.80000000E+01  0.00000000E+00
  6.20000000E+02  1.80000000E+01  0.00000000E+00
  6.30000000E+02  1.80000000E+01  0.00000000E+00
  6.40000000E+02  1.80000000E+01  0.00000000E+00
  6.50000000E+02  1.80000000E+01  0.00000000E+00
  6.60000000E+02  1.80000000E+01  0.00000000E+00
  6.70000000E+02  1.80000000E+01  0.00000000E+00
  6.80000000E+02  1.80000000E+01  0.00000000E+00
  6.90000000E+02  1.80000000E+01  0.00000000E+00
  7.00000000E+02  1.80000000E+01  0.00000000E+00
  7.10000000E+02  1.80000000E+01  0.00000000E+00
  7.20000000E+02  1.80000000E+01  0.00000000E+00
  7.30000000E+02  1.80000000E+01  0.00000000E+00
  7.40000000E+02  1.80000000E+01  0.00000000E+00
  7.50000000E+02  1.80000000E+01  0.00000000E+00
  7.60000000E+02  1.80000000E+01  0.00000000E+00
  7.70000000E+02  1.80000000E+01  0.00000000E+00
  7.80000000E+02  1.80000000E+01  0.00000000E+00
  7.90000000E+02  1.80000000E+01  0.00000000E+00
  8.00000000E+02  1.80000000E+01  0.00000000E+00
  8.10000000E+02  1.80000000E+01  0.00000000E+00
  8.20000000E+02  1.80000000E+01  0.00000000E+00
  8.30000000E+02  1.80000000E+01  0.00000000E+00
  8.40000000E+02  1.80000000E+01  0.00000000E+00
  8.50000000E+02  1.80000000E+01  0.00000000E+00
  8.60000000E+02  1.80000000E+01  0.00000000E+00
  8.70000000E+02  1.80000000E+01  0.00000000E+00
  8.80000000E+02  1.80000000E+01  0.00000000E+00
  8.90000000E+02  1.80000000E+01  0.00000000E+00
  9.00000000E+02  1.80000000E+01  0.00000000E+00
  9.10000000E+02  1.80000000E+01  0.00000000E+00
  9.20000000E+02  1.80000000E+01  0.00000000E+00
  9.30000000E+02  1.80000000E+01  0.00000000E+00
  9.40000000E+02  1.80000000E+01  0.00000000E+00
  9.50000000E+02  1.80000000E+01  0.00000000E+00
  9.60000000E+02  1.80000000E+01  0.00000000E+00
  9.70000000E+02  1.80000000E+01  0.00000000E+00
  9.80000000E+02  1.80000000E+01  0.00000000E+00
  9.90000000E+02  1.80000000E+01  0.00000000E+00
  1.00000000E+03  1.80000000E+01  0.00000000E+00
  0.00000000E+00  2.00000000E+01  0.00000000E+00
  1.00000000E+01  2.00000000E+01  0.00000000E+00
  2.00000000E+01  2.00000000E+01  0.00000000E+00
  3.00000000E+01  2.00000000E+01  0.00000000E+00
  4.00000000E+01  2.00000000E+01  0.00000000E+00
  5.00000000E+01  2.00000000E+01  0.00000000E+00
  6.00000000E+01  2.00000000E+01  0.00000000E+00
  7.00000000E+01  2.00000000E+01  0.00000000E+00
  8.00000000E+01  2.00000000E+01  0.00000000E+00
  9.00000000E+01  2.00000000E+01  0.00000000E+00
  1.00000000E+02  2.00000000E+01  0.00000000E+00
  1.10000000E+02  2.00000000E+01  0.00000000E+00
  1.20000000E+02  2.00000000E+01  0.00000000E+00
  1.30000000E+02  2.00000000E+01  0.00000000E+00
  1.40000000E+02  2.00000000E+01  0.00000000E+00
  1.50000000E+02  2.00000000E+01  0.00000000E+00
  1.60000000E+02  2.00000000E+01  0.00000000E+00
  1.70000000E+02  2.00000000E+01  0.00000000E+00
  1.80000000E+02  2.00000000E+01  0.00000000E+00
  1.90000000E+02  2.00000000E+01  0.00000000E+00
  2.00000000E+02  2.00000000E+01  0.00000000E+00
  2.10000000E+02  2.00000000E+01  0.00000000E+00
  2.20000000E+02  2.00000000E+01  0.00000000E+00
  2.30000000E+02  2.00000000E+01  0.00000000E+00
  2.40000000E+02  2.00000000E+01  0.00000000E+00
  2.50000000E+02  2.00000000E+01  0.00000000E+00
  2.60000000E+02  2.00000000E+01  0.00000000E+00
  2.70000000E+02  2.00000000E+01  0.00000000E+00
  2.80000000E+02  2.00000000E+01  0.00000000E+00
  2.90000000E+02  2.00000000E+01  0.00000000E+00
  3.00000000E+02  2.00000000E+01  0.00000000E+00
  3.10000000E+02  2.00000000E+01  0.00000000E+00
  3.20000000E+02  2.00000000E+01  0.00000000E+00
  3.30000000E+02  2.00000000E+01  0.00000000E+00
  3.40000000E+02  2.00000000E+01  0.00000000E+00
  3.50000000E+02  2.00000000E+01  0.00000000E+00
  3.60000000E+02  2.00000000E+01  0.00000000E+00
  3.70000000E+02  2.00000000E+01  0.00000000E+00
  3.80000000E+02  2.00000000E+01  0.00000000E+00
  3.90000000E+02  2.00000000E+01  0.00000000E+00
  4.00000000E+02  2.00000000E+01  0.00000000E+00
  4.10000000E+02  2.00000000E+01  0.00000000E+00
  4.20000000E+02  2.00000000E+01  0.00000000E+00
  4.30000000E+02  2.00000000E+01  0.00000000E+00
  4.40000000E+02  2.00000000E+01  0.00000000E+00
  4.50000000E+02  2.00000000E+01  0.00000000E+00
  4.60000000E+02  2.00000000E+01  0.00000000E+00
  4.70000000E+02  2.00000000E+01  0.00000000E+00
  4.80000000E+02  2.00000000E+01  0.00000000E+00
  4.90000000E+02  2.00000000E+01  0.00000000E+00
  5.00000000E+02  2.00000000E+01  0.00000000E+00
  5.10000000E+02  2.00000000E+01  0.00000000E+00
  5.20000000E+02  2.00000000E+01  0.00000000E+00
  5.30000000E+02  2.00000000E+01  0.00000000E+00
  5.40000000E+02  2.00000000E+01  0.00000000E+00
  5.50000000E+02  2.00000000E+01  0.00000000E+00
  5.60000000E+02  2.00000000E+01  0.00000000E+00
  5.70000000E+02  2.00000000E+01  0.00000000E+00
  5.80000000E+02  2.00000000E+01  0.00000000E+00
  5.90000000E+02  2.00000000E+01  0.00000000E+00
  6.00000000E+02  2.00000000E+01  0.00000000E+00
  6.10000000E+02  2.00000000E+01  0.00000000E+00
  6.20000000E+02  2.00000000E+01  0.00000000E+00
  6.30000000E+02  2.00000000E+01  0.00000000E+00
  6.40000000E+02  2.00000000E+01  0.00000000E+00
  6.50000000E+02  2.00000000E+01  0.00000000E+00
  6.60000000E+02  2.00000000E+01  0.00000000E+00
  6.70000000E+02  2.00000000E+01  0.00000000E+00
  6.80000000E+02  2.00000000E+01  0.00000000E+00
  6.90000000E+02  2.00000000E+01  0.00000000E+00
  7.00000000E+02  2.00000000E+01  0.00000000E+00
  7.10000000E+02  2.00000000E+01  0.00000000E+00
  7.20000000E+02  2.00000000E+01  0.00000000E+00
  7.30000000E+02  2.00000000E+01  0.00000000E+00
  7.40000000E+02  2.00000000E+01  0.00000000E+00
  7.50000000E+02  2.00000000E+01  0.00000000E+00
  7.60000000E+02  2.00000000E+01  0.00000000E+00
  7.70000000E+02  2.00000000E+01  0.00000000E+00
  7.80000000E+02  2.00000000E+01  0.00000000E+00
  7.90000000E+02  2.00000000E+01  0.00000000E+00
  8.00000000E+02  2.00000000E+01  0.00000000E+00
  8.10000000E+02  2.00000000E+01  0.00000000E+00
  8.20000000E+02  2.00000000E+01  0.00000000E+00
  8.30000000E+02  2.00000000E+01  0.00000000E+00
  8.40000000E+02  2.00000000E+01  0.00000000E+00
  8.50000000E+02  2.00000000E+01  0.00000000E+00
  8.60000000E+02  2.00000000E+01  0.00000000E+00
  8.70000000E+02  2.00000000E+01  0.00000000E+00
  8.80000000E+02  2.00000000E+01  0.00000000E+00
  8.90000000E+02  2.00000000E+01  0.00000000E+00
  9.00000000E+02  2.00000000E+01  0.00000000E+00
  9.10000000E+02  2.00000000E+01  0.00000000E+00
  9.20000000E+02  2.00000000E+01  0.00000000E+00
  9.30000000E+02  2.00000000E+01  0.00000000E+00
  9.40000000E+02  2.00000000E+01  0.00000000E+00
  9.50000000E+02  2.00000000E+01  0.00000000E+00
  9.60000000E+02  2.00000000E+01  0.00000000E+00
  9.70000000E+02  2.00000000E+01  0.00000000E+00
  9.80000000E+02  2.00000000E+01  0.00000000E+00
  9.90000000E+02  2.00000000E+01  0.00000000E+00
  1.00000000E+03  2.00000000E+01  0.00000000E+00
  0.00000000E+00  2.20000000E+01  0.00000000E+00
  1.00000000E+01  2.20000000E+01  0.00000000E+00
  2.00000000E+01  2.20000000E+01  0.00000000E+00
  3.00000000E+01  2.20000000E+01  0.00000000E+00
  4.00000000E+01  2.20000000E+01  0.00000000E+00
  5.00000000E+01  2.20000000E+01  0.00000000E+00
  6.00000000E+01  2.20000000E+01  0.00000000E+00
  7.00000000E+01  2.20000000E+01  0.00000000E+00
  8.00000000E+01  2.20000000E+01  0.00000000E+00
  9.00000000E+01  2.20000000E+01  0.00000000E+00
  1.00000000E+02  2.20000000E+01  0.00000000E+00
  1.10000000E+02  2.20000000E+01  0.00000000E+00
  1.20000000E+02  2.20000000E+01  0.00000000E+00
  1.30000000E+02  2.20000000E+01  0.00000000E+00
  1.40000000E+02  2.20000000E+01  0.00000000E+00
  1.50000000E+02  2.20000000E+01  0.00000000E+00
  1.60000000E+02  2.20000000E+01  0.00000000E+00
  1.70000000E+02  2.20000000E+01  0.00000000E+00
  1.80000000E+02  2.20000000E+01  0.00000000E+00
  1.90000000E+02  2.20000000E+01  0.00000000E+00
  2.00000000E+02  2.20000000E+01  0.00000000E+00
  2.10000000E+02  2.20000000E+01  0.00000000E+00
  2.20000000E+02  2.20000000E+01  0.00000000E+00
  2.30000000E+02  2.20000000E+01  0.00000000E+00
  2.40000000E+02  2.20000000E+01  0.00000000E+00
  2.50000000E+02  2.20000000E+01  0.00000000E+00
  2.60000000E+02  2.20000000E+01  0.00000000E+00
  2.70000000E+02  2.20000000E+01  0.00000000E+00
  2.80000000E+02  2.20000000E+01  0.00000000E+00
  2.90000000E+02  2.20000000E+01  0.00000000E+00
  3.00000000E+02  2.20000000E+01  0.00000000E+00
  3.10000000E+02  2.20000000E+01  0.00000000E+00
  3.20000000E+02  2.20000000E+01  0.00000000E+00
  3.30000000E+02  2.20000000E+01  0.00000000E+00
  3.40000000E+02  2.20000000E+01  0.00000000E+00
  3.50000000E+02  2.20000000E+01  0.00000000E+00
  3.60000000E+02  2.20000000E+01  0.00000000E+00
  3.70000000E+02  2.20000000E+01  0.00000000E+00
  3.80000000E+02  2.20000000E+01  0.00000000E+00
  3.90000000E+02  2.20000000E+01  0.00000000E+00
  4.00000000E+02  2.20000000E+01  0.00000000E+00
  4.10000000E+02  2.20000000E+01  0.00000000E+00
  4.20000000E+02  2.20000000E+01  0.00000000E+00
  4.30000000E+02  2.20000000E+01  0.00000000E+00
  4.40000000E+02  2.20000000E+01  0.00000000E+00
  4.50000000E+02  2.20000000E+01  0.00000000E+00
  4.60000000E+02  2.20000000E+01  0.00000000E+00
  4.70000000E+02  2.20000000E+01  0.00000000E+00
  4.80000000E+02  2.20000000E+01  0.00000000E+00
  4.90000000E+02  2.20000000E+01  0.00000000E+00
  5.00000000E+02  2.20000000E+01  0.00000000E+00
  5.10000000E+02  2.20000000E+01  0.00000000E+00
  5.20000000E+02  2.20000000E+01  0.00000000E+00
  5.30000000E+02  2.20000000E+01  0.00000000E+00
  5.40000000E+02  2.20000000E+01  0.00000000E+00
  5.50000000E+02  2.20000000E+01  0.00000000E+00
  5.60000000E+02  2.20000000E+01  0.00000000E+00
  5.70000000E+02  2.20000000E+01  0.00000000E+00
  5.80000000E+02  2.20000000E+01  0.00000000E+00
  5.90000000E+02  2.20000000E+01  0.00000000E+00
  6.00000000E+02  2.20000000E+01  0.00000000E+00
  6.10000000E+02  2.20000000E+01  0.00000000E+00
  6.20000000E+02  2.20000000E+01  0.00000000E+00
  6.30000000E+02  2.20000000E+01  0.00000000E+00
  6.40000000E+02  2.20000000E+01  0.00000000E+00
  6.50000000E+02  2.20000000E+01  0.00000000E+00
  6.60000000E+02  2.20000000E+01  0.00000000E+00
  6.70000000E+02  2.20000000E+01  0.00000000E+00
  6.80000000E+02  2.20000000E+01  0.00000000E+00
  6.90000000E+02  2.20000000E+01  0.00000000E+00
  7.00000000E+02  2.20000000E+01  0.00000000E+00
  7.10000000E+02  2.20000000E+01  0.00000000E+00
  7.20000000E+02  2.20000000E+01  0.00000000E+00
  7.30000000E+02  2.20000000E+01  0.00000000E+00
  7.40000000E+02  2.20000000E+01  0.00000000E+00
  7.50000000E+02  2.20000000E+01  0.00000000E+00
  7.60000000E+02  2.20000000E+01  0.00000000E+00
  7.70000000E+02  2.20000000E+01  0.00000000E+00
  7.80000000E+02  2.20000000E+01  0.00000000E+00
  7.90000000E+02  2.20000000E+01  0.00000000E+00
  8.00000000E+02  2.20000000E+01  0.00000000E+00
  8.10000000E+02  2.20000000E+01  0.00000000E+00
  8.20000000E+02  2.20000000E+01  0.00000000E+00
  8.30000000E+02  2.20000000E+01  0.00000000E+00
  8.40000000E+02  2.20000000E+01  0.00000000E+00
  8.50000000E+02  2.20000000E+01  0.00000000E+00
  8.60000000E+02  2.20000000E+01  0.00000000E+00
  8.70000000E+02  2.20000000E+01  0.00000000E+00
  8.80000000E+02  2.20000000E+01  0.00000000E+00
  8.90000000E+02  2.20000000E+01  0.00000000E+00
  9.00000000E+02  2.20000000E+01  0.00000000E+00
  9.10000000E+02  2.20000000E+01  0.00000000E+00
  9.20000000E+02  2.20000000E+01  0.00000000E+00
  9.30000000E+02  2.20000000E+01  0.00000000E+00
  9.40000000E+02  2.20000000E+01  0.00000000E+00
  9.50000000E+02  2.20000000E+01  0.00000000E+00
  9.60000000E+02  2.20000000E+01  0.00000000E+00
  9.70000000E+02  2.20000000E+01  0.00000000E+00
  9.80000000E+02  2.20000000E+01  0.00000000E+00
  9.90000000E+02  2.20000000E+01  0.00000000E+00
  1.00000000E+03  2.20000000E+01  0.00000000E+00
  0.00000000E+00  2.40000000E+01  0.00000000E+00
  1.00000000E+01  2.40000000E+01  0.00000000E+00
  2.00000000E+01  2.40000000E+01  0.00000000E+00
  3.00000000E+01  2.40000000E+01  0.00000000E+00
  4.00000000E+01  2.40000000E+01  0.00000000E+00
  5.00000000E+01  2.40000000E+01  0.00000000E+00
  6.00000000E+01  2.40000000E+01  0.00000000E+00
  7.00000000E+01  2.40000000E+01  0.00000000E+00
  8.00000000E+01  2.40000000E+01  0.00000000E+00
  9.00000000E+01  2.40000000E+01  0.00000000E+00
  1.00000000E+02  2.40000000E+01  0.00000000E+00
  1.10000000E+02  2.40000000E+01  0.00000000E+00
  1.20000000E+02  2.40000000E+01  0.00000000E+00
  1.30000000E+02  2.40000000E+01  0.00000000E+00
  1.40000000E+02  2.40000000E+01  0.00000000E+00
  1.50000000E+02  2.40000000E+01  0.00000000E+00
  1.60000000E+02  2.40000000E+01  0.00000000E+00
  1.70000000E+02  2.40000000E+01  0.00000000E+00
  1.80000000E+02  2.40000000E+01  0.00000000E+00
  1.90000000E+02  2.40000000E+01  0.00000000E+00
  2.00000000E+02  2.40000000E+01  0.00000000E+00
  2.10000000E+02  2.40000000E+01  0.00000000E+00
  2.20000000E+02  2.40000000E+01  0.00000000E+00
  2.30000000E+02  2.40000000E+01  0.00000000E+00
  2.40000000E+02  2.40000000E+01  0.00000000E+00
  2.50000000E+02  2.40000000E+01  0.00000000E+00
  2.60000000E+02  2.40000000E+01  0.00000000E+00
  2.70000000E+02  2.40000000E+01  0.00000000E+00
  2.80000000E+02  2.40000000E+01  0.00000000E+00
  2.90000000E+02  2.40000000E+01  0.00000000E+00
  3.00000000E+02  2.40000000E+01  0.00000000E+00
  3.10000000E+02  2.40000000E+01  0.00000000E+00
  3.20000000E+02  2.40000000E+01  0.00000000E+00
  3.30000000E+02  2.40000000E+01  0.00000000E+00
  3.40000000E+02  2.40000000E+01  0.00000000E+00
  3.50000000E+02  2.40000000E+01  0.00000000E+00
  3.60000000E+02  2.40000000E+01  0.00000000E+00
  3.70000000E+02  2.40000000E+01  0.00000000E+00
  3.80000000E+02  2.40000000E+01  0.00000000E+00
  3.90000000E+02  2.40000000E+01  0.00000000E+00
  4.00000000E+02  2.40000000E+01  0.00000000E+00
  4.10000000E+02  2.40000000E+01  0.00000000E+00
  4.20000000E+02  2.40000000E+01  0.00000000E+00
  4.30000000E+02  2.40000000E+01  0.00000000E+00
  4.40000000E+02  2.40000000E+01  0.00000000E+00
  4.50000000E+02  2.40000000E+01  0.00000000E+00
  4.60000000E+02  2.40000000E+01  0.00000000E+00
  4.70000000E+02  2.40000000E+01  0.00000000E+00
  4.80000000E+02  2.40000000E+01  0.00000000E+00
  4.90000000E+02  2.40000000E+01  0.00000000E+00
  5.00000000E+02  2.40000000E+01  0.00000000E+00
  5.10000000E+02  2.40000000E+01  0.00000000E+00
  5.20000000E+02  2.40000000E+01  0.00000000E+00
  5.30000000E+02  2.40000000E+01  0.00000000E+00
  5.40000000E+02  2.40000000E+01  0.00000000E+00
  5.50000000E+02  2.40000000E+01  0.00000000E+00
  5.60000000E+02  2.40000000E+01  0.00000000E+00
  5.70000000E+02  2.40000000E+01  0.00000000E+00
  5.80000000E+02  2.40000000E+01  0.00000000E+00
  5.90000000E+02  2.40000000E+01  0.00000000E+00
  6.00000000E+02  2.40000000E+01  0.00000000E+00
  6.10000000E+02  2.40000000E+01  0.00000000E+00
  6.20000000E+02  2.40000000E+01  0.00000000E+00
  6.30000000E+02  2.40000000E+01  0.00000000E+00
  6.40000000E+02  2.40000000E+01  0.00000000E+00
  6.50000000E+02  2.40000000E+01  0.00000000E+00
  6.60000000E+02  2.40000000E+01  0.00000000E+00
  6.70000000E+02  2.40000000E+01  0.00000000E+00
  6.80000000E+02  2.40000000E+01  0.00000000E+00
  6.90000000E+02  2.40000000E+01  0.00000000E+00
  7.00000000E+02  2.40000000E+01  0.00000000E+00
  7.10000000E+02  2.40000000E+01  0.00000000E+00
  7.20000000E+02  2.40000000E+01  0.00000000E+00
  7.30000000E+02  2.40000000E+01  0.00000000E+00
  7.40000000E+02  2.40000000E+01  0.00000000E+00
  7.50000000E+02  2.40000000E+01  0.00000000E+00
  7.60000000E+02  2.40000000E+01  0.00000000E+00
  7.70000000E+02  2.40000000E+01  0.00000000E+00
  7.80000000E+02  2.40000000E+01  0.00000000E+00
  7.90000000E+02  2.40000000E+01  0.00000000E+00
  8.00000000E+02  2.40000000E+01  0.00000000E+00
  8.10000000E+02  2.40000000E+01  0.00000000E+00
  8.20000000E+02  2.40000000E+01  0.00000000E+00
  8.30000000E+02  2.40000000E+01  0.00000000E+00
  8.40000000E+02  2.40000000E+01  0.00000000E+00
  8.50000000E+02  2.40000000E+01  0.00000000E+00
  8.60000000E+02  2.40000000E+01  0.00000000E+00
  8.70000000E+02  2.40000000E+01  0.00000000E+00
  8.80000000E+02  2.40000000E+01  0.00000000E+00
  8.90000000E+02  2.40000000E+01  0.00000000E+00
  9.00000000E+02  2.40000000E+01  0.00000000E+00
  9.10000000E+02  2.40000000E+01  0.00000000E+00
  9.20000000E+02  2.40000000E+01  0.00000000E+00
  9.30000000E+02  2.40000000E+01  0.00000000E+00
  9.40000000E+02  2.40000000E+01  0.00000000E+00
  9.50000000E+02  2.40000000E+01  0.00000000E+00
  9.60000000E+02  2.40000000E+01  0.00000000E+00
  9.70000000E+02  2.40000000E+01  0.00000000E+00
  9.80000000E+02  2.40000000E+01  0.00000000E+00
  9.90000000E+02  2.40000000E+01  0.00000000E+00
  1.00000000E+03  2.40000000E+01  0.00000000E+00
  0.00000000E+00  2.60000000E+01  0.00000000E+00
  1.00000000E+01  2.60000000E+01  0.00000000E+00
  2.00000000E+01  2.60000000E+01  0.00000000E+00
  3.00000000E+01  2.60000000E+01  0.00000000E+00
  4.00000000E+01  2.60000000E+01  0.00000000E+00
  5.00000000E+01  2.60000000E+01  0.00000000E+00
  6.00000000E+01  2.60000000E+01  0.00000000E+00
  7.00000000E+01  2.60000000E+01  0.00000000E+00
  8.00000000E+01  2.60000000E+01  0.00000000E+00
  9.00000000E+01  2.60000000E+01  0.00000000E+00
  1.00000000E+02  2.60000000E+01  0.00000000E+00
  1.10000000E+02  2.60000000E+01  0.00000000E+00
  1.20000000E+02  2.60000000E+01  0.00000000E+00
  1.30000000E+02  2.60000000E+01  0.00000000E+00
  1.40000000E+02  2.60000000E+01  0.00000000E+00
  1.50000000E+02  2.60000000E+01  0.00000000E+00
  1.60000000E+02  2.60000000E+01  0.00000000E+00
  1.70000000E+02  2.60000000E+01  0.00000000E+00
  1.80000000E+02  2.60000000E+01  0.00000000E+00
  1.90000000E+02  2.60000000E+01  0.00000000E+00
  2.00000000E+02  2.60000000E+01  0.00000000E+00
  2.10000000E+02  2.60000000E+01  0.00000000E+00
  2.20000000E+02  2.60000000E+01  0.00000000E+00
  2.30000000E+02  2.60000000E+01  0.00000000E+00
  2.40000000E+02  2.60000000E+01  0.00000000E+00
  2.50000000E+02  2.60000000E+01  0.00000000E+00
  2.60000000E+02  2.60000000E+01  0.00000000E+00
  2.70000000E+02  2.60000000E+01  0.00000000E+00
  2.80000000E+02  2.60000000E+01  0.00000000E+00
  2.90000000E+02  2.60000000E+01  0.00000000E+00
  3.00000000E+02  2.60000000E+01  0.00000000E+00
  3.10000000E+02  2.60000000E+01  0.00000000E+00
  3.20000000E+02  2.60000000E+01  0.00000000E+00
  3.30000000E+02  2.60000000E+01  0.00000000E+00
  3.40000000E+02  2.60000000E+01  0.00000000E+00
  3.50000000E+02  2.60000000E+01  0.00000000E+00
  3.60000000E+02  2.60000000E+01  0.00000000E+00
  3.70000000E+02  2.60000000E+01  0.00000000E+00
  3.80000000E+02  2.60000000E+01  0.00000000E+00
  3.90000000E+02  2.60000000E+01  0.00000000E+00
  4.00000000E+02  2.60000000E+01  0.00000000E+00
  4.10000000E+02  2.60000000E+01  0.00000000E+00
  4.20000000E+02  2.60000000E+01  0.00000000E+00
  4.30000000E+02  2.60000000E+01  0.00000000E+00
  4.40000000E+02  2.60000000E+01  0.00000000E+00
  4.50000000E+02  2.60000000E+01  0.00000000E+00
  4.60000000E+02  2.60000000E+01  0.00000000E+00
  4.70000000E+02  2.60000000E+01  0.00000000E+00
  4.80000000E+02  2.60000000E+01  0.00000000E+00
  4.90000000E+02  2.60000000E+01  0.00000000E+00
  5.00000000E+02  2.60000000E+01  0.00000000E+00
  5.10000000E+02  2.60000000E+01  0.00000000E+00
  5.20000000E+02  2.60000000E+01  0.00000000E+00
  5.30000000E+02  2.60000000E+01  0.00000000E+00
  5.40000000E+02  2.60000000E+01  0.00000000E+00
  5.50000000E+02  2.60000000E+01  0.00000000E+00
  5.60000000E+02  2.60000000E+01  0.00000000E+00
  5.70000000E+02  2.60000000E+01  0.00000000E+00
  5.80000000E+02  2.60000000E+01  0.00000000E+00
  5.90000000E+02  2.60000000E+01  0.00000000E+00
  6.00000000E+02  2.60000000E+01  0.00000000E+00
  6.10000000E+02  2.60000000E+01  0.00000000E+00
  6.20000000E+02  2.60000000E+01  0.00000000E+00
  6.30000000E+02  2.60000000E+01  0.00000000E+00
  6.40000000E+02  2.60000000E+01  0.00000000E+00
  6.50000000E+02  2.60000000E+01  0.00000000E+00
  6.60000000E+02  2.60000000E+01  0.00000000E+00
  6.70000000E+02  2.60000000E+01  0.00000000E+00
  6.80000000E+02  2.60000000E+01  0.00000000E+00
  6.90000000E+02  2.60000000E+01  0.00000000E+00
  7.00000000E+02  2.60000000E+01  0.00000000E+00
  7.10000000E+02  2.60000000E+01  0.00000000E+00
  7.20000000E+02  2.60000000E+01  0.00000000E+00
  7.30000000E+02  2.60000000E+01  0.00000000E+00
  7.40000000E+02  2.60000000E+01  0.00000000E+00
  7.50000000E+02  2.60000000E+01  0.00000000E+00
  7.60000000E+02  2.60000000E+01  0.00000000E+00
  7.70000000E+02  2.60000000E+01  0.00000000E+00
  7.80000000E+02  2.60000000E+01  0.00000000E+00
  7.90000000E+02  2.60000000E+01  0.00000000E+00
  8.00000000E+02  2.60000000E+01  0.00000000E+00
  8.10000000E+02  2.60000000E+01  0.00000000E+00
  8.20000000E+02  2.60000000E+01  0.00000000E+00
  8.30000000E+02  2.60000000E+01  0.00000000E+00
  8.40000000E+02  2.60000000E+01  0.00000000E+00
  8.50000000E+02  2.60000000E+01  0.00000000E+00
  8.60000000E+02  2.60000000E+01  0.00000000E+00
  8.70000000E+02  2.60000000E+01  0.00000000E+00
  8.80000000E+02  2.60000000E+01  0.00000000E+00
  8.90000000E+02  2.60000000E+01  0.00000000E+00
  9.00000000E+02  2.60000000E+01  0.00000000E+00
  9.10000000E+02  2.60000000E+01  0.00000000E+00
  9.20000000E+02  2.60000000E+01  0.00000000E+00
  9.30000000E+02  2.60000000E+01  0.00000000E+00
  9.40000000E+02  2.60000000E+01  0.00000000E+00
  9.50000000E+02  2.60000000E+01  0.00000000E+00
  9.60000000E+02  2.60000000E+01  0.00000000E+00
  9.70000000E+02  2.60000000E+01  0.00000000E+00
  9.80000000E+02  2.60000000E+01  0.00000000E+00
  9.90000000E+02  2.60000000E+01  0.00000000E+00
  1.00000000E+03  2.60000000E+01  0.00000000E+00
  0.00000000E+00  2.80000000E+01  0.00000000E+00
  1.00000000E+01  2.80000000E+01  0.00000000E+00
  2.00000000E+01  2.80000000E+01  0.00000000E+00
  3.00000000E+01  2.80000000E+01  0.00000000E+00
  4.00000000E+01  2.80000000E+01  0.00000000E+00
  5.00000000E+01  2.80000000E+01  0.00000000E+00
  6.00000000E+01  2.80000000E+01  0.00000000E+00
  7.00000000E+01  2.80000000E+01  0.00000000E+00
  8.00000000E+01  2.80000000E+01  0.00000000E+00
  9.00000000E+01  2.80000000E+01  0.00000000E+00
  1.00000000E+02  2.80000000E+01  0.00000000E+00
  1.10000000E+02  2.80000000E+01  0.00000000E+00
  1.20000000E+02  2.80000000E+01  0.00000000E+00
  1.30000000E+02  2.80000000E+01  0.00000000E+00
  1.40000000E+02  2.80000000E+01  0.00000000E+00
  1.50000000E+02  2.80000000E+01  0.00000000E+00
  1.60000000E+02  2.80000000E+01  0.00000000E+00
  1.70000000E+02  2.80000000E+01  0.00000000E+00
  1.80000000E+02  2.80000000E+01  0.00000000E+00
  1.90000000E+02  2.80000000E+01  0.00000000E+00
  2.00000000E+02  2.80000000E+01  0.00000000E+00
  2.10000000E+02  2.80000000E+01  0.00000000E+00
  2.20000000E+02  2.80000000E+01  0.00000000E+00
  2.30000000E+02  2.80000000E+01  0.00000000E+00
  2.40000000E+02  2.80000000E+01  0.00000000E+00
  2.50000000E+02  2.80000000E+01  0.00000000E+00
  2.60000000E+02  2.80000000E+01  0.00000000E+00
  2.70000000E+02  2.80000000E+01  0.00000000E+00
  2.80000000E+02  2.80000000E+01  0.00000000E+00
  2.90000000E+02  2.80000000E+01  0.00000000E+00
  3.00000000E+02  2.80000000E+01  0.00000000E+00
  3.10000000E+02  2.80000000E+01  0.00000000E+00
  3.20000000E+02  2.80000000E+01  0.00000000E+00
  3.30000000E+02  2.80000000E+01  0.00000000E+00
  3.40000000E+02  2.80000000E+01  0.00000000E+00
  3.50000000E+02  2.80000000E+01  0.00000000E+00
  3.60000000E+02  2.80000000E+01  0.00000000E+00
  3.70000000E+02  2.80000000E+01  0.00000000E+00
  3.80000000E+02  2.80000000E+01  0.00000000E+00
  3.90000000E+02  2.80000000E+01  0.00000000E+00
  4.00000000E+02  2.80000000E+01  0.00000000E+00
  4.10000000E+02  2.80000000E+01  0.00000000E+00
  4.20000000E+02  2.80000000E+01  0.00000000E+00
  4.30000000E+02  2.80000000E+01  0.00000000E+00
  4.40000000E+02  2.80000000E+01  0.00000000E+00
  4.50000000E+02  2.80000000E+01  0.00000000E+00
  4.60000000E+02  2.80000000E+01  0.00000000E+00
  4.70000000E+02  2.80000000E+01  0.00000000E+00
  4.80000000E+02  2.80000000E+01  0.00000000E+00
  4.90000000E+02  2.80000000E+01  0.00000000E+00
  5.00000000E+02  2.80000000E+01  0.00000000E+00
  5.10000000E+02  2.80000000E+01  0.00000000E+00
  5.20000000E+02  2.80000000E+01  0.00000000E+00
  5.30000000E+02  2.80000000E+01  0.00000000E+00
  5.40000000E+02  2.80000000E+01  0.00000000E+00
  5.50000000E+02  2.80000000E+01  0.00000000E+00
  5.60000000E+02  2.80000000E+01  0.00000000E+00
  5.70000000E+02  2.80000000E+01  0.00000000E+00
  5.80000000E+02  2.80000000E+01  0.00000000E+00
  5.90000000E+02  2.80000000E+01  0.00000000E+00
  6.00000000E+02  2.80000000E+01  0.00000000E+00
  6.10000000E+02  2.80000000E+01  0.00000000E+00
  6.20000000E+02  2.80000000E+01  0.00000000E+00
  6.30000000E+02  2.80000000E+01  0.00000000E+00
  6.40000000E+02  2.80000000E+01  0.00000000E+00
  6.50000000E+02  2.80000000E+01  0.00000000E+00
  6.60000000E+02  2.80000000E+01  0.00000000E+00
  6.70000000E+02  2.80000000E+01  0.00000000E+00
  6.80000000E+02  2.80000000E+01  0.00000000E+00
  6.90000000E+02  2.80000000E+01  0.00000000E+00
  7.00000000E+02  2.80000000E+01  0.00000000E+00
  7.10000000E+02  2.80000000E+01  0.00000000E+00
  7.20000000E+02  2.80000000E+01  0.00000000E+00
  7.30000000E+02  2.80000000E+01  0.00000000E+00
  7.40000000E+02  2.80000000E+01  0.00000000E+00
  7.50000000E+02  2.80000000E+01  0.00000000E+00
  7.60000000E+02  2.80000000E+01  0.00000000E+00
  7.70000000E+02  2.80000000E+01  0.00000000E+00
  7.80000000E+02  2.80000000E+01  0.00000000E+00
  7.90000000E+02  2.80000000E+01  0.00000000E+00
  8.00000000E+02  2.80000000E+01  0.00000000E+00
  8.10000000E+02  2.80000000E+01  0.00000000E+00
  8.20000000E+02  2.80000000E+01  0.00000000E+00
  8.30000000E+02  2.80000000E+01  0.00000000E+00
  8.40000000E+02  2.80000000E+01  0.00000000E+00
  8.50000000E+02  2.80000000E+01  0.00000000E+00
  8.60000000E+02  2.80000000E+01  0.00000000E+00
  8.70000000E+02  2.80000000E+01  0.00000000E+00
  8.80000000E+02  2.80000000E+01  0.00000000E+00
  8.90000000E+02  2.80000000E+01  0.00000000E+00
  9.00000000E+02  2.80000000E+01  0.00000000E+00
  9.10000000E+02  2.80000000E+01  0.00000000E+00
  9.20000000E+02  2.80000000E+01  0.00000000E+00
  9.30000000E+02  2.80000000E+01  0.00000000E+00
  9.40000000E+02  2.80000000E+01  0.00000000E+00
  9.50000000E+02  2.80000000E+01  0.00000000E+00
  9.60000000E+02  2.80000000E+01  0.00000000E+00
  9.70000000E+02  2.80000000E+01  0.00000000E+00
  9.80000000E+02  2.80000000E+01  0.00000000E+00
  9.90000000E+02  2.80000000E+01  0.00000000E+00
  1.00000000E+03  2.80000000E+01  0.00000000E+00
  0.00000000E+00  3.00000000E+01  0.00000000E+00
  1.00000000E+01  3.00000000E+01  0.00000000E+00
  2.00000000E+01  3.00000000E+01  0.00000000E+00
  3.00000000E+01  3.00000000E+01  0.00000000E+00
  4.00000000E+01  3.00000000E+01  0.00000000E+00
  5.00000000E+01  3.00000000E+01  0.00000000E+00
  6.00000000E+01  3.00000000E+01  0.00000000E+00
  7.00000000E+01  3.00000000E+01  0.00000000E+00
  8.00000000E+01  3.00000000E+01  0.00000000E+00
  9.00000000E+01  3.00000000E+01  0.00000000E+00
  1.00000000E+02  3.00000000E+01  0.00000000E+00
  1.10000000E+02  3.00000000E+01  0.00000000E+00
  1.20000000E+02  3.00000000E+01  0.00000000E+00
  1.30000000E+02  3.00000000E+01  0.00000000E+00
  1.40000000E+02  3.00000000E+01  0.00000000E+00
  1.50000000E+02  3.00000000E+01  0.00000000E+00
  1.60000000E+02  3.00000000E+01  0.00000000E+00
  1.70000000E+02  3.00000000E+01  0.00000000E+00
  1.80000000E+02  3.00000000E+01  0.00000000E+00
  1.90000000E+02  3.00000000E+01  0.00000000E+00
  2.00000000E+02  3.00000000E+01  0.00000000E+00
  2.10000000E+02  3.00000000E+01  0.00000000E+00
  2.20000000E+02  3.00000000E+01  0.00000000E+00
  2.30000000E+02  3.00000000E+01  0.00000000E+00
  2.40000000E+02  3.00000000E+01  0.00000000E+00
  2.50000000E+02  3.00000000E+01  0.00000000E+00
  2.60000000E+02  3.00000000E+01  0.00000000E+00
  2.70000000E+02  3.00000000E+01  0.00000000E+00
  2.80000000E+02  3.00000000E+01  0.00000000E+00
  2.90000000E+02  3.00000000E+01  0.00000000E+00
  3.00000000E+02  3.00000000E+01  0.00000000E+00
  3.10000000E+02  3.00000000E+01  0.00000000E+00
  3.20000000E+02  3.00000000E+01  0.00000000E+00
  3.30000000E+02  3.00000000E+01  0.00000000E+00
  3.40000000E+02  3.00000000E+01  0.00000000E+00
  3.50000000E+02  3.00000000E+01  0.00000000E+00
  3.60000000E+02  3.00000000E+01  0.00000000E+00
  3.70000000E+02  3.00000000E+01  0.00000000E+00
  3.80000000E+02  3.00000000E+01  0.00000000E+00
  3.90000000E+02  3.00000000E+01  0.00000000E+00
  4.00000000E+02  3.00000000E+01  0.00000000E+00
  4.10000000E+02  3.00000000E+01  0.00000000E+00
  4.20000000E+02  3.00000000E+01  0.00000000E+00
  4.30000000E+02  3.00000000E+01  0.00000000E+00
  4.40000000E+02  3.00000000E+01  0.00000000E+00
  4.50000000E+02  3.00000000E+01  0.00000000E+00
  4.60000000E+02  3.00000000E+01  0.00000000E+00
  4.70000000E+02  3.00000000E+01  0.00000000E+00
  4.80000000E+02  3.00000000E+01  0.00000000E+00
  4.90000000E+02  3.00000000E+01  0.00000000E+00
  5.00000000E+02  3.00000000E+01  0.00000000E+00
  5.10000000E+02  3.00000000E+01  0.00000000E+00
  5.20000000E+02  3.00000000E+01  0.00000000E+00
  5.30000000E+02  3.00000000E+01  0.00000000E+00
  5.40000000E+02  3.00000000E+01  0.00000000E+00
  5.50000000E+02  3.00000000E+01  0.00000000E+00
  5.60000000E+02  3.00000000E+01  0.00000000E+00
  5.70000000E+02  3.00000000E+01  0.00000000E+00
  5.80000000E+02  3.00000000E+01  0.00000000E+00
  5.90000000E+02  3.00000000E+01  0.00000000E+00
  6.00000000E+02  3.00000000E+01  0.00000000E+00
  6.10000000E+02  3.00000000E+01  0.00000000E+00
  6.20000000E+02  3.00000000E+01  0.00000000E+00
  6.30000000E+02  3.00000000E+01  0.00000000E+00
  6.40000000E+02  3.00000000E+01  0.00000000E+00
  6.50000000E+02  3.00000000E+01  0.00000000E+00
  6.60000000E+02  3.00000000E+01  0.00000000E+00
  6.70000000E+02  3.00000000E+01  0.00000000E+00
  6.80000000E+02  3.00000000E+01  0.00000000E+00
  6.90000000E+02  3.00000000E+01  0.00000000E+00
  7.00000000E+02  3.00000000E+01  0.00000000E+00
  7.10000000E+02  3.00000000E+01  0.00000000E+00
  7.20000000E+02  3.00000000E+01  0.00000000E+00
  7.30000000E+02  3.00000000E+01  0.00000000E+00
  7.40000000E+02  3.00000000E+01  0.00000000E+00
  7.50000000E+02  3.00000000E+01  0.00000000E+00
  7.60000000E+02  3.00000000E+01  0.00000000E+00
  7.70000000E+02  3.00000000E+01  0.00000000E+00
  7.80000000E+02  3.00000000E+01  0.00000000E+00
  7.90000000E+02  3.00000000E+01  0.00000000E+00
  8.00000000E+02  3.00000000E+01  0.00000000E+00
  8.10000000E+02  3.00000000E+01  0.00000000E+00
  8.20000000E+02  3.00000000E+01  0.00000000E+00
  8.30000000E+02  3.00000000E+01  0.00000000E+00
  8.40000000E+02  3.00000000E+01  0.00000000E+00
  8.50000000E+02  3.00000000E+01  0.00000000E+00
  8.60000000E+02  3.00000000E+01  0.00000000E+00
  8.70000000E+02  3.00000000E+01  0.00000000E+00
  8.80000000E+02  3.00000000E+01  0.00000000E+00
  8.90000000E+02  3.00000000E+01  0.00000000E+00
  9.00000000E+02  3.00000000E+01  0.00000000E+00
  9.10000000E+02  3.00000000E+01  0.00000000E+00
  9.20000000E+02  3.00000000E+01  0.00000000E+00
  9.30000000E+02  3.00000000E+01  0.00000000E+00
  9.40000000E+02  3.00000000E+01  0.00000000E+00
  9.50000000E+02  3.00000000E+01  0.00000000E+00
  9.60000000E+02  3.00000000E+01  0.00000000E+00
  9.70000000E+02  3.00000000E+01  0.00000000E+00
  9.80000000E+02  3.00000000E+01  0.00000000E+00
  9.90000000E+02  3.00000000E+01  0.00000000E+00
  1.00000000E+03  3.00000000E+01  0.00000000E+00
  0.00000000E+00  3.20000000E+01  0.00000000E+00
  1.00000000E+01  3.20000000E+01  0.00000000E+00
  2.00000000E+01  3.20000000E+01  0.00000000E+00
  3.00000000E+01  3.20000000E+01  0.00000000E+00
  4.00000000E+01  3.20000000E+01  0.00000000E+00
  5.00000000E+01  3.20000000E+01  0.00000000E+00
  6.00000000E+01  3.20000000E+01  0.00000000E+00
  7.00000000E+01  3.20000000E+01  0.00000000E+00
  8.00000000E+01  3.20000000E+01  0.00000000E+00
  9.00000000E+01  3.20000000E+01  0.00000000E+00
  1.00000000E+02  3.20000000E+01  0.00000000E+00
  1.10000000E+02  3.20000000E+01  0.00000000E+00
  1.20000000E+02  3.20000000E+01  0.00000000E+00
  1.30000000E+02  3.20000000E+01  0.00000000E+00
  1.40000000E+02  3.20000000E+01  0.00000000E+00
  1.50000000E+02  3.20000000E+01  0.00000000E+00
  1.60000000E+02  3.20000000E+01  0.00000000E+00
  1.70000000E+02  3.20000000E+01  0.00000000E+00
  1.80000000E+02  3.20000000E+01  0.00000000E+00
  1.90000000E+02  3.20000000E+01  0.00000000E+00
  2.00000000E+02  3.20000000E+01  0.00000000E+00
  2.10000000E+02  3.20000000E+01  0.00000000E+00
  2.20000000E+02  3.20000000E+01  0.00000000E+00
  2.30000000E+02  3.20000000E+01  0.00000000E+00
  2.40000000E+02  3.20000000E+01  0.00000000E+00
  2.50000000E+02  3.20000000E+01  0.00000000E+00
  2.60000000E+02  3.20000000E+01  0.00000000E+00
  2.70000000E+02  3.20000000E+01  0.00000000E+00
  2.80000000E+02  3.20000000E+01  0.00000000E+00
  2.90000000E+02  3.20000000E+01  0.00000000E+00
  3.00000000E+02  3.20000000E+01  0.00000000E+00
  3.10000000E+02  3.20000000E+01  0.00000000E+00
  3.20000000E+02  3.20000000E+01  0.00000000E+00
  3.30000000E+02  3.20000000E+01  0.00000000E+00
  3.40000000E+02  3.20000000E+01  0.00000000E+00
  3.50000000E+02  3.20000000E+01  0.00000000E+00
  3.60000000E+02  3.20000000E+01  0.00000000E+00
  3.70000000E+02  3.20000000E+01  0.00000000E+00
  3.80000000E+02  3.20000000E+01  0.00000000E+00
  3.90000000E+02  3.20000000E+01  0.00000000E+00
  4.00000000E+02  3.20000000E+01  0.00000000E+00
  4.10000000E+02  3.20000000E+01  0.00000000E+00
  4.20000000E+02  3.20000000E+01  0.00000000E+00
  4.30000000E+02  3.20000000E+01  0.00000000E+00
  4.40000000E+02  3.20000000E+01  0.00000000E+00
  4.50000000E+02  3.20000000E+01  0.00000000E+00
  4.60000000E+02  3.20000000E+01  0.00000000E+00
  4.70000000E+02  3.20000000E+01  0.00000000E+00
  4.80000000E+02  3.20000000E+01  0.00000000E+00
  4.90000000E+02  3.20000000E+01  0.00000000E+00
  5.00000000E+02  3.20000000E+01  0.00000000E+00
  5.10000000E+02  3.20000000E+01  0.00000000E+00
  5.20000000E+02  3.20000000E+01  0.00000000E+00
  5.30000000E+02  3.20000000E+01  0.00000000E+00
  5.40000000E+02  3.20000000E+01  0.00000000E+00
  5.50000000E+02  3.20000000E+01  0.00000000E+00
  5.60000000E+02  3.20000000E+01  0.00000000E+00
  5.70000000E+02  3.20000000E+01  0.00000000E+00
  5.80000000E+02  3.20000000E+01  0.00000000E+00
  5.90000000E+02  3.20000000E+01  0.00000000E+00
  6.00000000E+02  3.20000000E+01  0.00000000E+00
  6.10000000E+02  3.20000000E+01  0.00000000E+00
  6.20000000E+02  3.20000000E+01  0.00000000E+00
  6.30000000E+02  3.20000000E+01  0.00000000E+00
  6.40000000E+02  3.20000000E+01  0.00000000E+00
  6.50000000E+02  3.20000000E+01  0.00000000E+00
  6.60000000E+02  3.20000000E+01  0.00000000E+00
  6.70000000E+02  3.20000000E+01  0.00000000E+00
  6.80000000E+02  3.20000000E+01  0.00000000E+00
  6.90000000E+02  3.20000000E+01  0.00000000E+00
  7.00000000E+02  3.20000000E+01  0.00000000E+00
  7.10000000E+02  3.20000000E+01  0.00000000E+00
  7.20000000E+02  3.20000000E+01  0.00000000E+00
  7.30000000E+02  3.20000000E+01  0.00000000E+00
  7.40000000E+02  3.20000000E+01  0.00000000E+00
  7.50000000E+02  3.20000000E+01  0.00000000E+00
  7.60000000E+02  3.20000000E+01  0.00000000E+00
  7.70000000E+02  3.20000000E+01  0.00000000E+00
  7.80000000E+02  3.20000000E+01  0.00000000E+00
  7.90000000E+02  3.20000000E+01  0.00000000E+00
  8.00000000E+02  3.20000000E+01  0.00000000E+00
  8.10000000E+02  3.20000000E+01  0.00000000E+00
  8.20000000E+02  3.20000000E+01  0.00000000E+00
  8.30000000E+02  3.20000000E+01  0.00000000E+00
  8.40000000E+02  3.20000000E+01  0.00000000E+00
  8.50000000E+02  3.20000000E+01  0.00000000E+00
  8.60000000E+02  3.20000000E+01  0.00000000E+00
  8.70000000E+02  3.20000000E+01  0.00000000E+00
  8.80000000E+02  3.20000000E+01  0.00000000E+00
  8.90000000E+02  3.20000000E+01  0.00000000E+00
  9.00000000E+02  3.20000000E+01  0.00000000E+00
  9.10000000E+02  3.20000000E+01  0.00000000E+00
  9.20000000E+02  3.20000000E+01  0.00000000E+00
  9.30000000E+02  3.20000000E+01  0.00000000E+00
  9.40000000E+02  3.20000000E+01  0.00000000E+00
  9.50000000E+02  3.20000000E+01  0.00000000E+00
  9.60000000E+02  3.20000000E+01  0.00000000E+00
  9.70000000E+02  3.20000000E+01  0.00000000E+00
  9.80000000E+02  3.20000000E+01  0.00000000E+00
  9.90000000E+02  3.20000000E+01  0.00000000E+00
  1.00000000E+03  3.20000000E+01  0.00000000E+00
  0.00000000E+00  3.40000000E+01  0.00000000E+00
  1.00000000E+01  3.40000000E+01  0.00000000E+00
  2.00000000E+01  3.40000000E+01  0.00000000E+00
  3.00000000E+01  3.40000000E+01  0.00000000E+00
  4.00000000E+01  3.40000000E+01  0.00000000E+00
  5.00000000E+01  3.40000000E+01  0.00000000E+00
  6.00000000E+01  3.40000000E+01  0.00000000E+00
  7.00000000E+01  3.40000000E+01  0.00000000E+00
  8.00000000E+01  3.40000000E+01  0.00000000E+00
  9.00000000E+01  3.40000000E+01  0.00000000E+00
  1.00000000E+02  3.40000000E+01  0.00000000E+00
  1.10000000E+02  3.40000000E+01  0.00000000E+00
  1.20000000E+02  3.40000000E+01  0.00000000E+00
  1.30000000E+02  3.40000000E+01  0.00000000E+00
  1.40000000E+02  3.40000000E+01  0.00000000E+00
  1.50000000E+02  3.40000000E+01  0.00000000E+00
  1.60000000E+02  3.40000000E+01  0.00000000E+00
  1.70000000E+02  3.40000000E+01  0.00000000E+00
  1.80000000E+02  3.40000000E+01  0.00000000E+00
  1.90000000E+02  3.40000000E+01  0.00000000E+00
  2.00000000E+02  3.40000000E+01  0.00000000E+00
  2.10000000E+02  3.40000000E+01  0.00000000E+00
  2.20000000E+02  3.40000000E+01  0.00000000E+00
  2.30000000E+02  3.40000000E+01  0.00000000E+00
  2.40000000E+02  3.40000000E+01  0.00000000E+00
  2.50000000E+02  3.40000000E+01  0.00000000E+00
  2.60000000E+02  3.40000000E+01  0.00000000E+00
  2.70000000E+02  3.40000000E+01  0.00000000E+00
  2.80000000E+02  3.40000000E+01  0.00000000E+00
  2.90000000E+02  3.40000000E+01  0.00000000E+00
  3.00000000E+02  3.40000000E+01  0.00000000E+00
  3.10000000E+02  3.40000000E+01  0.00000000E+00
  3.20000000E+02  3.40000000E+01  0.00000000E+00
  3.30000000E+02  3.40000000E+01  0.00000000E+00
  3.40000000E+02  3.40000000E+01  0.00000000E+00
  3.50000000E+02  3.40000000E+01  0.00000000E+00
  3.60000000E+02  3.40000000E+01  0.00000000E+00
  3.70000000E+02  3.40000000E+01  0.00000000E+00
  3.80000000E+02  3.40000000E+01  0.00000000E+00
  3.90000000E+02  3.40000000E+01  0.00000000E+00
  4.00000000E+02  3.40000000E+01  0.00000000E+00
  4.10000000E+02  3.40000000E+01  0.00000000E+00
  4.20000000E+02  3.40000000E+01  0.00000000E+00
  4.30000000E+02  3.40000000E+01  0.00000000E+00
  4.40000000E+02  3.40000000E+01  0.00000000E+00
  4.50000000E+02  3.40000000E+01  0.00000000E+00
  4.60000000E+02  3.40000000E+01  0.00000000E+00
  4.70000000E+02  3.40000000E+01  0.00000000E+00
  4.80000000E+02  3.40000000E+01  0.00000000E+00
  4.90000000E+02  3.40000000E+01  0.00000000E+00
  5.00000000E+02  3.40000000E+01  0.00000000E+00
  5.10000000E+02  3.40000000E+01  0.00000000E+00
  5.20000000E+02  3.40000000E+01  0.00000000E+00
  5.30000000E+02  3.40000000E+01  0.00000000E+00
  5.40000000E+02  3.40000000E+01  0.00000000E+00
  5.50000000E+02  3.40000000E+01  0.00000000E+00
  5.60000000E+02  3.40000000E+01  0.00000000E+00
  5.70000000E+02  3.40000000E+01  0.00000000E+00
  5.80000000E+02  3.40000000E+01  0.00000000E+00
  5.90000000E+02  3.40000000E+01  0.00000000E+00
  6.00000000E+02  3.40000000E+01  0.00000000E+00
  6.10000000E+02  3.40000000E+01  0.00000000E+00
  6.20000000E+02  3.40000000E+01  0.00000000E+00
  6.30000000E+02  3.40000000E+01  0.00000000E+00
  6.40000000E+02  3.40000000E+01  0.00000000E+00
  6.50000000E+02  3.40000000E+01  0.00000000E+00
  6.60000000E+02  3.40000000E+01  0.00000000E+00
  6.70000000E+02  3.40000000E+01  0.00000000E+00
  6.80000000E+02  3.40000000E+01  0.00000000E+00
  6.90000000E+02  3.40000000E+01  0.00000000E+00
  7.00000000E+02  3.40000000E+01  0.00000000E+00
  7.10000000E+02  3.40000000E+01  0.00000000E+00
  7.20000000E+02  3.40000000E+01  0.00000000E+00
  7.30000000E+02  3.40000000E+01  0.00000000E+00
  7.40000000E+02  3.40000000E+01  0.00000000E+00
  7.50000000E+02  3.40000000E+01  0.00000000E+00
  7.60000000E+02  3.40000000E+01  0.00000000E+00
  7.70000000E+02  3.40000000E+01  0.00000000E+00
  7.80000000E+02  3.40000000E+01  0.00000000E+00
  7.90000000E+02  3.40000000E+01  0.00000000E+00
  8.00000000E+02  3.40000000E+01  0.00000000E+00
  8.10000000E+02  3.40000000E+01  0.00000000E+00
  8.20000000E+02  3.40000000E+01  0.00000000E+00
  8.30000000E+02  3.40000000E+01  0.00000000E+00
  8.40000000E+02  3.40000000E+01  0.00000000E+00
  8.50000000E+02  3.40000000E+01  0.00000000E+00
  8.60000000E+02  3.40000000E+01  0.00000000E+00
  8.70000000E+02  3.40000000E+01  0.00000000E+00
  8.80000000E+02  3.40000000E+01  0.00000000E+00
  8.90000000E+02  3.40000000E+01  0.00000000E+00
  9.00000000E+02  3.40000000E+01  0.00000000E+00
  9.10000000E+02  3.40000000E+01  0.00000000E+00
  9.20000000E+02  3.40000000E+01  0.00000000E+00
  9.30000000E+02  3.40000000E+01  0.00000000E+00
  9.40000000E+02  3.40000000E+01  0.00000000E+00
  9.50000000E+02  3.40000000E+01  0.00000000E+00
  9.60000000E+02  3.40000000E+01  0.00000000E+00
  9.70000000E+02  3.40000000E+01  0.00000000E+00
  9.80000000E+02  3.40000000E+01  0.00000000E+00
  9.90000000E+02  3.40000000E+01  0.00000000E+00
  1.00000000E+03  3.40000000E+01  0.00000000E+00
  0.00000000E+00  3.60000000E+01  0.00000000E+00
  1.00000000E+01  3.60000000E+01  0.00000000E+00
  2.00000000E+01  3.60000000E+01  0.00000000E+00
  3.00000000E+01  3.60000000E+01  0.00000000E+00
  4.00000000E+01  3.60000000E+01  0.00000000E+00
  5.00000000E+01  3.60000000E+01  0.00000000E+00
  6.00000000E+01  3.60000000E+01  0.00000000E+00
  7.00000000E+01  3.60000000E+01  0.00000000E+00
  8.00000000E+01  3.60000000E+01  0.00000000E+00
  9.00000000E+01  3.60000000E+01  0.00000000E+00
  1.00000000E+02  3.60000000E+01  0.00000000E+00
  1.10000000E+02  3.60000000E+01  0.00000000E+00
  1.20000000E+02  3.60000000E+01  0.00000000E+00
  1.30000000E+02  3.60000000E+01  0.00000000E+00
  1.40000000E+02  3.60000000E+01  0.00000000E+00
  1.50000000E+02  3.60000000E+01  0.00000000E+00
  1.60000000E+02  3.60000000E+01  0.00000000E+00
  1.70000000E+02  3.60000000E+01  0.00000000E+00
  1.80000000E+02  3.60000000E+01  0.00000000E+00
  1.90000000E+02  3.60000000E+01  0.00000000E+00
  2.00000000E+02  3.60000000E+01  0.00000000E+00
  2.10000000E+02  3.60000000E+01  0.00000000E+00
  2.20000000E+02  3.60000000E+01  0.00000000E+00
  2.30000000E+02  3.60000000E+01  0.00000000E+00
  2.40000000E+02  3.60000000E+01  0.00000000E+00
  2.50000000E+02  3.60000000E+01  0.00000000E+00
  2.60000000E+02  3.60000000E+01  0.00000000E+00
  2.70000000E+02  3.60000000E+01  0.00000000E+00
  2.80000000E+02  3.60000000E+01  0.00000000E+00
  2.90000000E+02  3.60000000E+01  0.00000000E+00
  3.00000000E+02  3.60000000E+01  0.00000000E+00
  3.10000000E+02  3.60000000E+01  0.00000000E+00
  3.20000000E+02  3.60000000E+01  0.00000000E+00
  3.30000000E+02  3.60000000E+01  0.00000000E+00
  3.40000000E+02  3.60000000E+01  0.00000000E+00
  3.50000000E+02  3.60000000E+01  0.00000000E+00
  3.60000000E+02  3.60000000E+01  0.00000000E+00
  3.70000000E+02  3.60000000E+01  0.00000000E+00
  3.80000000E+02  3.60000000E+01  0.00000000E+00
  3.90000000E+02  3.60000000E+01  0.00000000E+00
  4.00000000E+02  3.60000000E+01  0.00000000E+00
  4.10000000E+02  3.60000000E+01  0.00000000E+00
  4.20000000E+02  3.60000000E+01  0.00000000E+00
  4.30000000E+02  3.60000000E+01  0.00000000E+00
  4.40000000E+02  3.60000000E+01  0.00000000E+00
  4.50000000E+02  3.60000000E+01  0.00000000E+00
  4.60000000E+02  3.60000000E+01  0.00000000E+00
  4.70000000E+02  3.60000000E+01  0.00000000E+00
  4.80000000E+02  3.60000000E+01  0.00000000E+00
  4.90000000E+02  3.60000000E+01  0.00000000E+00
  5.00000000E+02  3.60000000E+01  0.00000000E+00
  5.10000000E+02  3.60000000E+01  0.00000000E+00
  5.20000000E+02  3.60000000E+01  0.00000000E+00
  5.30000000E+02  3.60000000E+01  0.00000000E+00
  5.40000000E+02  3.60000000E+01  0.00000000E+00
  5.50000000E+02  3.60000000E+01  0.00000000E+00
  5.60000000E+02  3.60000000E+01  0.00000000E+00
  5.70000000E+02  3.60000000E+01  0.00000000E+00
  5.80000000E+02  3.60000000E+01  0.00000000E+00
  5.90000000E+02  3.60000000E+01  0.00000000E+00
  6.00000000E+02  3.60000000E+01  0.00000000E+00
  6.10000000E+02  3.60000000E+01  0.00000000E+00
  6.20000000E+02  3.60000000E+01  0.00000000E+00
  6.30000000E+02  3.60000000E+01  0.00000000E+00
  6.40000000E+02  3.60000000E+01  0.00000000E+00
  6.50000000E+02  3.60000000E+01  0.00000000E+00
  6.60000000E+02  3.60000000E+01  0.00000000E+00
  6.70000000E+02  3.60000000E+01  0.00000000E+00
  6.80000000E+02  3.60000000E+01  0.00000000E+00
  6.90000000E+02  3.60000000E+01  0.00000000E+00
  7.00000000E+02  3.60000000E+01  0.00000000E+00
  7.10000000E+02  3.60000000E+01  0.00000000E+00
  7.20000000E+02  3.60000000E+01  0.00000000E+00
  7.30000000E+02  3.60000000E+01  0.00000000E+00
  7.40000000E+02  3.60000000E+01  0.00000000E+00
  7.50000000E+02  3.60000000E+01  0.00000000E+00
  7.60000000E+02  3.60000000E+01  0.00000000E+00
  7.70000000E+02  3.60000000E+01  0.00000000E+00
  7.80000000E+02  3.60000000E+01  0.00000000E+00
  7.90000000E+02  3.60000000E+01  0.00000000E+00
  8.00000000E+02  3.60000000E+01  0.00000000E+00
  8.10000000E+02  3.60000000E+01  0.00000000E+00
  8.20000000E+02  3.60000000E+01  0.00000000E+00
  8.30000000E+02  3.60000000E+01  0.00000000E+00
  8.40000000E+02  3.60000000E+01  0.00000000E+00
  8.50000000E+02  3.60000000E+01  0.00000000E+00
  8.60000000E+02  3.60000000E+01  0.00000000E+00
  8.70000000E+02  3.60000000E+01  0.00000000E+00
  8.80000000E+02  3.60000000E+01  0.00000000E+00
  8.90000000E+02  3.60000000E+01  0.00000000E+00
  9.00000000E+02  3.60000000E+01  0.00000000E+00
  9.10000000E+02  3.60000000E+01  0.00000000E+00
  9.20000000E+02  3.60000000E+01  0.00000000E+00
  9.30000000E+02  3.60000000E+01  0.00000000E+00
  9.40000000E+02  3.60000000E+01  0.00000000E+00
  9.50000000E+02  3.60000000E+01  0.00000000E+00
  9.60000000E+02  3.60000000E+01  0.00000000E+00
  9.70000000E+02  3.60000000E+01  0.00000000E+00
  9.80000000E+02  3.60000000E+01  0.00000000E+00
  9.90000000E+02  3.60000000E+01  0.00000000E+00
  1.00000000E+03  3.60000000E+01  0.00000000E+00
  0.00000000E+00  3.80000000E+01  0.00000000E+00
  1.00000000E+01  3.80000000E+01  0.00000000E+00
  2.00000000E+01  3.80000000E+01  0.00000000E+00
  3.00000000E+01  3.80000000E+01  0.00000000E+00
  4.00000000E+01  3.80000000E+01  0.00000000E+00
  5.00000000E+01  3.80000000E+01  0.00000000E+00
  6.00000000E+01  3.80000000E+01  0.00000000E+00
  7.00000000E+01  3.80000000E+01  0.00000000E+00
  8.00000000E+01  3.80000000E+01  0.00000000E+00
  9.00000000E+01  3.80000000E+01  0.00000000E+00
  1.00000000E+02  3.80000000E+01  0.00000000E+00
  1.10000000E+02  3.80000000E+01  0.00000000E+00
  1.20000000E+02  3.80000000E+01  0.00000000E+00
  1.30000000E+02  3.80000000E+01  0.00000000E+00
  1.40000000E+02  3.80000000E+01  0.00000000E+00
  1.50000000E+02  3.80000000E+01  0.00000000E+00
  1.60000000E+02  3.80000000E+01  0.00000000E+00
  1.70000000E+02  3.80000000E+01  0.00000000E+00
  1.80000000E+02  3.80000000E+01  0.00000000E+00
  1.90000000E+02  3.80000000E+01  0.00000000E+00
  2.00000000E+02  3.80000000E+01  0.00000000E+00
  2.10000000E+02  3.80000000E+01  0.00000000E+00
  2.20000000E+02  3.80000000E+01  0.00000000E+00
  2.30000000E+02  3.80000000E+01  0.00000000E+00
  2.40000000E+02  3.80000000E+01  0.00000000E+00
  2.50000000E+02  3.80000000E+01  0.00000000E+00
  2.60000000E+02  3.80000000E+01  0.00000000E+00
  2.70000000E+02  3.80000000E+01  0.00000000E+00
  2.80000000E+02  3.80000000E+01  0.00000000E+00
  2.90000000E+02  3.80000000E+01  0.00000000E+00
  3.00000000E+02  3.80000000E+01  0.00000000E+00
  3.10000000E+02  3.80000000E+01  0.00000000E+00
  3.20000000E+02  3.80000000E+01  0.00000000E+00
  3.30000000E+02  3.80000000E+01  0.00000000E+00
  3.40000000E+02  3.80000000E+01  0.00000000E+00
  3.50000000E+02  3.80000000E+01  0.00000000E+00
  3.60000000E+02  3.80000000E+01  0.00000000E+00
  3.70000000E+02  3.80000000E+01  0.00000000E+00
  3.80000000E+02  3.80000000E+01  0.00000000E+00
  3.90000000E+02  3.80000000E+01  0.00000000E+00
  4.00000000E+02  3.80000000E+01  0.00000000E+00
  4.10000000E+02  3.80000000E+01  0.00000000E+00
  4.20000000E+02  3.80000000E+01  0.00000000E+00
  4.30000000E+02  3.80000000E+01  0.00000000E+00
  4.40000000E+02  3.80000000E+01  0.00000000E+00
  4.50000000E+02  3.80000000E+01  0.00000000E+00
  4.60000000E+02  3.80000000E+01  0.00000000E+00
  4.70000000E+02  3.80000000E+01  0.00000000E+00
  4.80000000E+02  3.80000000E+01  0.00000000E+00
  4.90000000E+02  3.80000000E+01  0.00000000E+00
  5.00000000E+02  3.80000000E+01  0.00000000E+00
  5.10000000E+02  3.80000000E+01  0.00000000E+00
  5.20000000E+02  3.80000000E+01  0.00000000E+00
  5.30000000E+02  3.80000000E+01  0.00000000E+00
  5.40000000E+02  3.80000000E+01  0.00000000E+00
  5.50000000E+02  3.80000000E+01  0.00000000E+00
  5.60000000E+02  3.80000000E+01  0.00000000E+00
  5.70000000E+02  3.80000000E+01  0.00000000E+00
  5.80000000E+02  3.80000000E+01  0.00000000E+00
  5.90000000E+02  3.80000000E+01  0.00000000E+00
  6.00000000E+02  3.80000000E+01  0.00000000E+00
  6.10000000E+02  3.80000000E+01  0.00000000E+00
  6.20000000E+02  3.80000000E+01  0.00000000E+00
  6.30000000E+02  3.80000000E+01  0.00000000E+00
  6.40000000E+02  3.80000000E+01  0.00000000E+00
  6.50000000E+02  3.80000000E+01  0.00000000E+00
  6.60000000E+02  3.80000000E+01  0.00000000E+00
  6.70000000E+02  3.80000000E+01  0.00000000E+00
  6.80000000E+02  3.80000000E+01  0.00000000E+00
  6.90000000E+02  3.80000000E+01  0.00000000E+00
  7.00000000E+02  3.80000000E+01  0.00000000E+00
  7.10000000E+02  3.80000000E+01  0.00000000E+00
  7.20000000E+02  3.80000000E+01  0.00000000E+00
  7.30000000E+02  3.80000000E+01  0.00000000E+00
  7.40000000E+02  3.80000000E+01  0.00000000E+00
  7.50000000E+02  3.80000000E+01  0.00000000E+00
  7.60000000E+02  3.80000000E+01  0.00000000E+00
  7.70000000E+02  3.80000000E+01  0.00000000E+00
  7.80000000E+02  3.80000000E+01  0.00000000E+00
  7.90000000E+02  3.80000000E+01  0.00000000E+00
  8.00000000E+02  3.80000000E+01  0.00000000E+00
  8.10000000E+02  3.80000000E+01  0.00000000E+00
  8.20000000E+02  3.80000000E+01  0.00000000E+00
  8.30000000E+02  3.80000000E+01  0.00000000E+00
  8.40000000E+02  3.80000000E+01  0.00000000E+00
  8.50000000E+02  3.80000000E+01  0.00000000E+00
  8.60000000E+02  3.80000000E+01  0.00000000E+00
  8.70000000E+02  3.80000000E+01  0.00000000E+00
  8.80000000E+02  3.80000000E+01  0.00000000E+00
  8.90000000E+02  3.80000000E+01  0.00000000E+00
  9.00000000E+02  3.80000000E+01  0.00000000E+00
  9.10000000E+02  3.80000000E+01  0.00000000E+00
  9.20000000E+02  3.80000000E+01  0.00000000E+00
  9.30000000E+02  3.80000000E+01  0.00000000E+00
  9.40000000E+02  3.80000000E+01  0.00000000E+00
  9.50000000E+02  3.80000000E+01  0.00000000E+00
  9.60000000E+02  3.80000000E+01  0.00000000E+00
  9.70000000E+02  3.80000000E+01  0.00000000E+00
  9.80000000E+02  3.80000000E+01  0.00000000E+00
  9.90000000E+02  3.80000000E+01  0.00000000E+00
  1.00000000E+03  3.80000000E+01  0.00000000E+00
  0.00000000E+00  4.00000000E+01  0.00000000E+00
  1.00000000E+01  4.00000000E+01  0.00000000E+00
  2.00000000E+01  4.00000000E+01  0.00000000E+00
  3.00000000E+01  4.00000000E+01  0.00000000E+00
  4.00000000E+01  4.00000000E+01  0.00000000E+00
  5.00000000E+01  4.00000000E+01  0.00000000E+00
  6.00000000E+01  4.00000000E+01  0.00000000E+00
  7.00000000E+01  4.00000000E+01  0.00000000E+00
  8.00000000E+01  4.00000000E+01  0.00000000E+00
  9.00000000E+01  4.00000000E+01  0.00000000E+00
  1.00000000E+02  4.00000000E+01  0.00000000E+00
  1.10000000E+02  4.00000000E+01  0.00000000E+00
  1.20000000E+02  4.00000000E+01  0.00000000E+00
  1.30000000E+02  4.00000000E+01  0.00000000E+00
  1.40000000E+02  4.00000000E+01  0.00000000E+00
  1.50000000E+02  4.00000000E+01  0.00000000E+00
  1.60000000E+02  4.00000000E+01  0.00000000E+00
  1.70000000E+02  4.00000000E+01  0.00000000E+00
  1.80000000E+02  4.00000000E+01  0.00000000E+00
  1.90000000E+02  4.00000000E+01  0.00000000E+00
  2.00000000E+02  4.00000000E+01  0.00000000E+00
  2.10000000E+02  4.00000000E+01  0.00000000E+00
  2.20000000E+02  4.00000000E+01  0.00000000E+00
  2.30000000E+02  4.00000000E+01  0.00000000E+00
  2.40000000E+02  4.00000000E+01  0.00000000E+00
  2.50000000E+02  4.00000000E+01  0.00000000E+00
  2.60000000E+02  4.00000000E+01  0.00000000E+00
  2.70000000E+02  4.00000000E+01  0.00000000E+00
  2.80000000E+02  4.00000000E+01  0.00000000E+00
  2.90000000E+02  4.00000000E+01  0.00000000E+00
  3.00000000E+02  4.00000000E+01  0.00000000E+00
  3.10000000E+02  4.00000000E+01  0.00000000E+00
  3.20000000E+02  4.00000000E+01  0.00000000E+00
  3.30000000E+02  4.00000000E+01  0.00000000E+00
  3.40000000E+02  4.00000000E+01  0.00000000E+00
  3.50000000E+02  4.00000000E+01  0.00000000E+00
  3.60000000E+02  4.00000000E+01  0.00000000E+00
  3.70000000E+02  4.00000000E+01  0.00000000E+00
  3.80000000E+02  4.00000000E+01  0.00000000E+00
  3.90000000E+02  4.00000000E+01  0.00000000E+00
  4.00000000E+02  4.00000000E+01  0.00000000E+00
  4.10000000E+02  4.00000000E+01  0.00000000E+00
  4.20000000E+02  4.00000000E+01  0.00000000E+00
  4.30000000E+02  4.00000000E+01  0.00000000E+00
  4.40000000E+02  4.00000000E+01  0.00000000E+00
  4.50000000E+02  4.00000000E+01  0.00000000E+00
  4.60000000E+02  4.00000000E+01  0.00000000E+00
  4.70000000E+02  4.00000000E+01  0.00000000E+00
  4.80000000E+02  4.00000000E+01  0.00000000E+00
  4.90000000E+02  4.00000000E+01  0.00000000E+00
  5.00000000E+02  4.00000000E+01  0.00000000E+00
  5.10000000E+02  4.00000000E+01  0.00000000E+00
  5.20000000E+02  4.00000000E+01  0.00000000E+00
  5.30000000E+02  4.00000000E+01  0.00000000E+00
  5.40000000E+02  4.00000000E+01  0.00000000E+00
  5.50000000E+02  4.00000000E+01  0.00000000E+00
  5.60000000E+02  4.00000000E+01  0.00000000E+00
  5.70000000E+02  4.00000000E+01  0.00000000E+00
  5.80000000E+02  4.00000000E+01  0.00000000E+00
  5.90000000E+02  4.00000000E+01  0.00000000E+00
  6.00000000E+02  4.00000000E+01  0.00000000E+00
  6.10000000E+02  4.00000000E+01  0.00000000E+00
  6.20000000E+02  4.00000000E+01  0.00000000E+00
  6.30000000E+02  4.00000000E+01  0.00000000E+00
  6.40000000E+02  4.00000000E+01  0.00000000E+00
  6.50000000E+02  4.00000000E+01  0.00000000E+00
  6.60000000E+02  4.00000000E+01  0.00000000E+00
  6.70000000E+02  4.00000000E+01  0.00000000E+00
  6.80000000E+02  4.00000000E+01  0.00000000E+00
  6.90000000E+02  4.00000000E+01  0.00000000E+00
  7.00000000E+02  4.00000000E+01  0.00000000E+00
  7.10000000E+02  4.00000000E+01  0.00000000E+00
  7.20000000E+02  4.00000000E+01  0.00000000E+00
  7.30000000E+02  4.00000000E+01  0.00000000E+00
  7.40000000E+02  4.00000000E+01  0.00000000E+00
  7.50000000E+02  4.00000000E+01  0.00000000E+00
  7.60000000E+02  4.00000000E+01  0.00000000E+00
  7.70000000E+02  4.00000000E+01  0.00000000E+00
  7.80000000E+02  4.00000000E+01  0.00000000E+00
  7.90000000E+02  4.00000000E+01  0.00000000E+00
  8.00000000E+02  4.00000000E+01  0.00000000E+00
  8.10000000E+02  4.00000000E+01  0.00000000E+00
  8.20000000E+02  4.00000000E+01  0.00000000E+00
  8.30000000E+02  4.00000000E+01  0.00000000E+00
  8.40000000E+02  4.00000000E+01  0.00000000E+00
  8.50000000E+02  4.00000000E+01  0.00000000E+00
  8.60000000E+02  4.00000000E+01  0.00000000E+00
  8.70000000E+02  4.00000000E+01  0.00000000E+00
  8.80000000E+02  4.00000000E+01  0.00000000E+00
  8.90000000E+02  4.00000000E+01  0.00000000E+00
  9.00000000E+02  4.00000000E+01  0.00000000E+00
  9.10000000E+02  4.00000000E+01  0.00000000E+00
  9.20000000E+02  4.00000000E+01  0.00000000E+00
  9.30000000E+02  4.00000000E+01  0.00000000E+00
  9.40000000E+02  4.00000000E+01  0.00000000E+00
  9.50000000E+02  4.00000000E+01  0.00000000E+00
  9.60000000E+02  4.00000000E+01  0.00000000E+00
  9.70000000E+02  4.00000000E+01  0.00000000E+00
  9.80000000E+02  4.00000000E+01  0.00000000E+00
  9.90000000E+02  4.00000000E+01  0.00000000E+00
  1.00000000E+03  4.00000000E+01  0.00000000E+00
  0.00000000E+00  4.20000000E+01  0.00000000E+00
  1.00000000E+01  4.20000000E+01  0.00000000E+00
  2.00000000E+01  4.20000000E+01  0.00000000E+00
  3.00000000E+01  4.20000000E+01  0.00000000E+00
  4.00000000E+01  4.20000000E+01  0.00000000E+00
  5.00000000E+01  4.20000000E+01  0.00000000E+00
  6.00000000E+01  4.20000000E+01  0.00000000E+00
  7.00000000E+01  4.20000000E+01  0.00000000E+00
  8.00000000E+01  4.20000000E+01  0.00000000E+00
  9.00000000E+01  4.20000000E+01  0.00000000E+00
  1.00000000E+02  4.20000000E+01  0.00000000E+00
  1.10000000E+02  4.20000000E+01  0.00000000E+00
  1.20000000E+02  4.20000000E+01  0.00000000E+00
  1.30000000E+02  4.20000000E+01  0.00000000E+00
  1.40000000E+02  4.20000000E+01  0.00000000E+00
  1.50000000E+02  4.20000000E+01  0.00000000E+00
  1.60000000E+02  4.20000000E+01  0.00000000E+00
  1.70000000E+02  4.20000000E+01  0.00000000E+00
  1.80000000E+02  4.20000000E+01  0.00000000E+00
  1.90000000E+02  4.20000000E+01  0.00000000E+00
  2.00000000E+02  4.20000000E+01  0.00000000E+00
  2.10000000E+02  4.20000000E+01  0.00000000E+00
  2.20000000E+02  4.20000000E+01  0.00000000E+00
  2.30000000E+02  4.20000000E+01  0.00000000E+00
  2.40000000E+02  4.20000000E+01  0.00000000E+00
  2.50000000E+02  4.20000000E+01  0.00000000E+00
  2.60000000E+02  4.20000000E+01  0.00000000E+00
  2.70000000E+02  4.20000000E+01  0.00000000E+00
  2.80000000E+02  4.20000000E+01  0.00000000E+00
  2.90000000E+02  4.20000000E+01  0.00000000E+00
  3.00000000E+02  4.20000000E+01  0.00000000E+00
  3.10000000E+02  4.20000000E+01  0.00000000E+00
  3.20000000E+02  4.20000000E+01  0.00000000E+00
  3.30000000E+02  4.20000000E+01  0.00000000E+00
  3.40000000E+02  4.20000000E+01  0.00000000E+00
  3.50000000E+02  4.20000000E+01  0.00000000E+00
  3.60000000E+02  4.20000000E+01  0.00000000E+00
  3.70000000E+02  4.20000000E+01  0.00000000E+00
  3.80000000E+02  4.20000000E+01  0.00000000E+00
  3.90000000E+02  4.20000000E+01  0.00000000E+00
  4.00000000E+02  4.20000000E+01  0.00000000E+00
  4.10000000E+02  4.20000000E+01  0.00000000E+00
  4.20000000E+02  4.20000000E+01  0.00000000E+00
  4.30000000E+02  4.20000000E+01  0.00000000E+00
  4.40000000E+02  4.20000000E+01  0.00000000E+00
  4.50000000E+02  4.20000000E+01  0.00000000E+00
  4.60000000E+02  4.20000000E+01  0.00000000E+00
  4.70000000E+02  4.20000000E+01  0.00000000E+00
  4.80000000E+02  4.20000000E+01  0.00000000E+00
  4.90000000E+02  4.20000000E+01  0.00000000E+00
  5.00000000E+02  4.20000000E+01  0.00000000E+00
  5.10000000E+02  4.20000000E+01  0.00000000E+00
  5.20000000E+02  4.20000000E+01  0.00000000E+00
  5.30000000E+02  4.20000000E+01  0.00000000E+00
  5.40000000E+02  4.20000000E+01  0.00000000E+00
  5.50000000E+02  4.20000000E+01  0.00000000E+00
  5.60000000E+02  4.20000000E+01  0.00000000E+00
  5.70000000E+02  4.20000000E+01  0.00000000E+00
  5.80000000E+02  4.20000000E+01  0.00000000E+00
  5.90000000E+02  4.20000000E+01  0.00000000E+00
  6.00000000E+02  4.20000000E+01  0.00000000E+00
  6.10000000E+02  4.20000000E+01  0.00000000E+00
  6.20000000E+02  4.20000000E+01  0.00000000E+00
  6.30000000E+02  4.20000000E+01  0.00000000E+00
  6.40000000E+02  4.20000000E+01  0.00000000E+00
  6.50000000E+02  4.20000000E+01  0.00000000E+00
  6.60000000E+02  4.20000000E+01  0.00000000E+00
  6.70000000E+02  4.20000000E+01  0.00000000E+00
  6.80000000E+02  4.20000000E+01  0.00000000E+00
  6.90000000E+02  4.20000000E+01  0.00000000E+00
  7.00000000E+02  4.20000000E+01  0.00000000E+00
  7.10000000E+02  4.20000000E+01  0.00000000E+00
  7.20000000E+02  4.20000000E+01  0.00000000E+00
  7.30000000E+02  4.20000000E+01  0.00000000E+00
  7.40000000E+02  4.20000000E+01  0.00000000E+00
  7.50000000E+02  4.20000000E+01  0.00000000E+00
  7.60000000E+02  4.20000000E+01  0.00000000E+00
  7.70000000E+02  4.20000000E+01  0.00000000E+00
  7.80000000E+02  4.20000000E+01  0.00000000E+00
  7.90000000E+02  4.20000000E+01  0.00000000E+00
  8.00000000E+02  4.20000000E+01  0.00000000E+00
  8.10000000E+02  4.20000000E+01  0.00000000E+00
  8.20000000E+02  4.20000000E+01  0.00000000E+00
  8.30000000E+02  4.20000000E+01  0.00000000E+00
  8.40000000E+02  4.20000000E+01  0.00000000E+00
  8.50000000E+02  4.20000000E+01  0.00000000E+00
  8.60000000E+02  4.20000000E+01  0.00000000E+00
  8.70000000E+02  4.20000000E+01  0.00000000E+00
  8.80000000E+02  4.20000000E+01  0.00000000E+00
  8.90000000E+02  4.20000000E+01  0.00000000E+00
  9.00000000E+02  4.20000000E+01  0.00000000E+00
  9.10000000E+02  4.20000000E+01  0.00000000E+00
  9.20000000E+02  4.20000000E+01  0.00000000E+00
  9.30000000E+02  4.20000000E+01  0.00000000E+00
  9.40000000E+02  4.20000000E+01  0.00000000E+00
  9.50000000E+02  4.20000000E+01  0.00000000E+00
  9.60000000E+02  4.20000000E+01  0.00000000E+00
  9.70000000E+02  4.20000000E+01  0.00000000E+00
  9.80000000E+02  4.20000000E+01  0.00000000E+00
  9.90000000E+02  4.20000000E+01  0.00000000E+00
  1.00000000E+03  4.20000000E+01  0.00000000E+00
  0.00000000E+00  4.40000000E+01  0.00000000E+00
  1.00000000E+01  4.40000000E+01  0.00000000E+00
  2.00000000E+01  4.40000000E+01  0.00000000E+00
  3.00000000E+01  4.40000000E+01  0.00000000E+00
  4.00000000E+01  4.40000000E+01  0.00000000E+00
  5.00000000E+01  4.40000000E+01  0.00000000E+00
  6.00000000E+01  4.40000000E+01  0.00000000E+00
  7.00000000E+01  4.40000000E+01  0.00000000E+00
  8.00000000E+01  4.40000000E+01  0.00000000E+00
  9.00000000E+01  4.40000000E+01  0.00000000E+00
  1.00000000E+02  4.40000000E+01  0.00000000E+00
  1.10000000E+02  4.40000000E+01  0.00000000E+00
  1.20000000E+02  4.40000000E+01  0.00000000E+00
  1.30000000E+02  4.40000000E+01  0.00000000E+00
  1.40000000E+02  4.40000000E+01  0.00000000E+00
  1.50000000E+02  4.40000000E+01  0.00000000E+00
  1.60000000E+02  4.40000000E+01  0.00000000E+00
  1.70000000E+02  4.40000000E+01  0.00000000E+00
  1.80000000E+02  4.40000000E+01  0.00000000E+00
  1.90000000E+02  4.40000000E+01  0.00000000E+00
  2.00000000E+02  4.40000000E+01  0.00000000E+00
  2.10000000E+02  4.40000000E+01  0.00000000E+00
  2.20000000E+02  4.40000000E+01  0.00000000E+00
  2.30000000E+02  4.40000000E+01  0.00000000E+00
  2.40000000E+02  4.40000000E+01  0.00000000E+00
  2.50000000E+02  4.40000000E+01  0.00000000E+00
  2.60000000E+02  4.40000000E+01  0.00000000E+00
  2.70000000E+02  4.40000000E+01  0.00000000E+00
  2.80000000E+02  4.40000000E+01  0.00000000E+00
  2.90000000E+02  4.40000000E+01  0.00000000E+00
  3.00000000E+02  4.40000000E+01  0.00000000E+00
  3.10000000E+02  4.40000000E+01  0.00000000E+00
  3.20000000E+02  4.40000000E+01  0.00000000E+00
  3.30000000E+02  4.40000000E+01  0.00000000E+00
  3.40000000E+02  4.40000000E+01  0.00000000E+00
  3.50000000E+02  4.40000000E+01  0.00000000E+00
  3.60000000E+02  4.40000000E+01  0.00000000E+00
  3.70000000E+02  4.40000000E+01  0.00000000E+00
  3.80000000E+02  4.40000000E+01  0.00000000E+00
  3.90000000E+02  4.40000000E+01  0.00000000E+00
  4.00000000E+02  4.40000000E+01  0.00000000E+00
  4.10000000E+02  4.40000000E+01  0.00000000E+00
  4.20000000E+02  4.40000000E+01  0.00000000E+00
  4.30000000E+02  4.40000000E+01  0.00000000E+00
  4.40000000E+02  4.40000000E+01  0.00000000E+00
  4.50000000E+02  4.40000000E+01  0.00000000E+00
  4.60000000E+02  4.40000000E+01  0.00000000E+00
  4.70000000E+02  4.40000000E+01  0.00000000E+00
  4.80000000E+02  4.40000000E+01  0.00000000E+00
  4.90000000E+02  4.40000000E+01  0.00000000E+00
  5.00000000E+02  4.40000000E+01  0.00000000E+00
  5.10000000E+02  4.40000000E+01  0.00000000E+00
  5.20000000E+02  4.40000000E+01  0.00000000E+00
  5.30000000E+02  4.40000000E+01  0.00000000E+00
  5.40000000E+02  4.40000000E+01  0.00000000E+00
  5.50000000E+02  4.40000000E+01  0.00000000E+00
  5.60000000E+02  4.40000000E+01  0.00000000E+00
  5.70000000E+02  4.40000000E+01  0.00000000E+00
  5.80000000E+02  4.40000000E+01  0.00000000E+00
  5.90000000E+02  4.40000000E+01  0.00000000E+00
  6.00000000E+02  4.40000000E+01  0.00000000E+00
  6.10000000E+02  4.40000000E+01  0.00000000E+00
  6.20000000E+02  4.40000000E+01  0.00000000E+00
  6.30000000E+02  4.40000000E+01  0.00000000E+00
  6.40000000E+02  4.40000000E+01  0.00000000E+00
  6.50000000E+02  4.40000000E+01  0.00000000E+00
  6.60000000E+02  4.40000000E+01  0.00000000E+00
  6.70000000E+02  4.40000000E+01  0.00000000E+00
  6.80000000E+02  4.40000000E+01  0.00000000E+00
  6.90000000E+02  4.40000000E+01  0.00000000E+00
  7.00000000E+02  4.40000000E+01  0.00000000E+00
  7.10000000E+02  4.40000000E+01  0.00000000E+00
  7.20000000E+02  4.40000000E+01  0.00000000E+00
  7.30000000E+02  4.40000000E+01  0.00000000E+00
  7.40000000E+02  4.40000000E+01  0.00000000E+00
  7.50000000E+02  4.40000000E+01  0.00000000E+00
  7.60000000E+02  4.40000000E+01  0.00000000E+00
  7.70000000E+02  4.40000000E+01  0.00000000E+00
  7.80000000E+02  4.40000000E+01  0.00000000E+00
  7.90000000E+02  4.40000000E+01  0.00000000E+00
  8.00000000E+02  4.40000000E+01  0.00000000E+00
  8.10000000E+02  4.40000000E+01  0.00000000E+00
  8.20000000E+02  4.40000000E+01  0.00000000E+00
  8.30000000E+02  4.40000000E+01  0.00000000E+00
  8.40000000E+02  4.40000000E+01  0.00000000E+00
  8.50000000E+02  4.40000000E+01  0.00000000E+00
  8.60000000E+02  4.40000000E+01  0.00000000E+00
  8.70000000E+02  4.40000000E+01  0.00000000E+00
  8.80000000E+02  4.40000000E+01  0.00000000E+00
  8.90000000E+02  4.40000000E+01  0.00000000E+00
  9.00000000E+02  4.40000000E+01  0.00000000E+00
  9.10000000E+02  4.40000000E+01  0.00000000E+00
  9.20000000E+02  4.40000000E+01  0.00000000E+00
  9.30000000E+02  4.40000000E+01  0.00000000E+00
  9.40000000E+02  4.40000000E+01  0.00000000E+00
  9.50000000E+02  4.40000000E+01  0.00000000E+00
  9.60000000E+02  4.40000000E+01  0.00000000E+00
  9.70000000E+02  4.40000000E+01  0.00000000E+00
  9.80000000E+02  4.40000000E+01  0.00000000E+00
  9.90000000E+02  4.40000000E+01  0.00000000E+00
  1.00000000E+03  4.40000000E+01  0.00000000E+00
  0.00000000E+00  4.60000000E+01  0.00000000E+00
  1.00000000E+01  4.60000000E+01  0.00000000E+00
  2.00000000E+01  4.60000000E+01  0.00000000E+00
  3.00000000E+01  4.60000000E+01  0.00000000E+00
  4.00000000E+01  4.60000000E+01  0.00000000E+00
  5.00000000E+01  4.60000000E+01  0.00000000E+00
  6.00000000E+01  4.60000000E+01  0.00000000E+00
  7.00000000E+01  4.60000000E+01  0.00000000E+00
  8.00000000E+01  4.60000000E+01  0.00000000E+00
  9.00000000E+01  4.60000000E+01  0.00000000E+00
  1.00000000E+02  4.60000000E+01  0.00000000E+00
  1.10000000E+02  4.60000000E+01  0.00000000E+00
  1.20000000E+02  4.60000000E+01  0.00000000E+00
  1.30000000E+02  4.60000000E+01  0.00000000E+00
  1.40000000E+02  4.60000000E+01  0.00000000E+00
  1.50000000E+02  4.60000000E+01  0.00000000E+00
  1.60000000E+02  4.60000000E+01  0.00000000E+00
  1.70000000E+02  4.60000000E+01  0.00000000E+00
  1.80000000E+02  4.60000000E+01  0.00000000E+00
  1.90000000E+02  4.60000000E+01  0.00000000E+00
  2.00000000E+02  4.60000000E+01  0.00000000E+00
  2.10000000E+02  4.60000000E+01  0.00000000E+00
  2.20000000E+02  4.60000000E+01  0.00000000E+00
  2.30000000E+02  4.60000000E+01  0.00000000E+00
  2.40000000E+02  4.60000000E+01  0.00000000E+00
  2.50000000E+02  4.60000000E+01  0.00000000E+00
  2.60000000E+02  4.60000000E+01  0.00000000E+00
  2.70000000E+02  4.60000000E+01  0.00000000E+00
  2.80000000E+02  4.60000000E+01  0.00000000E+00
  2.90000000E+02  4.60000000E+01  0.00000000E+00
  3.00000000E+02  4.60000000E+01  0.00000000E+00
  3.10000000E+02  4.60000000E+01  0.00000000E+00
  3.20000000E+02  4.60000000E+01  0.00000000E+00
  3.30000000E+02  4.60000000E+01  0.00000000E+00
  3.40000000E+02  4.60000000E+01  0.00000000E+00
  3.50000000E+02  4.60000000E+01  0.00000000E+00
  3.60000000E+02  4.60000000E+01  0.00000000E+00
  3.70000000E+02  4.60000000E+01  0.00000000E+00
  3.80000000E+02  4.60000000E+01  0.00000000E+00
  3.90000000E+02  4.60000000E+01  0.00000000E+00
  4.00000000E+02  4.60000000E+01  0.00000000E+00
  4.10000000E+02  4.60000000E+01  0.00000000E+00
  4.20000000E+02  4.60000000E+01  0.00000000E+00
  4.30000000E+02  4.60000000E+01  0.00000000E+00
  4.40000000E+02  4.60000000E+01  0.00000000E+00
  4.50000000E+02  4.60000000E+01  0.00000000E+00
  4.60000000E+02  4.60000000E+01  0.00000000E+00
  4.70000000E+02  4.60000000E+01  0.00000000E+00
  4.80000000E+02  4.60000000E+01  0.00000000E+00
  4.90000000E+02  4.60000000E+01  0.00000000E+00
  5.00000000E+02  4.60000000E+01  0.00000000E+00
  5.10000000E+02  4.60000000E+01  0.00000000E+00
  5.20000000E+02  4.60000000E+01  0.00000000E+00
  5.30000000E+02  4.60000000E+01  0.00000000E+00
  5.40000000E+02  4.60000000E+01  0.00000000E+00
  5.50000000E+02  4.60000000E+01  0.00000000E+00
  5.60000000E+02  4.60000000E+01  0.00000000E+00
  5.70000000E+02  4.60000000E+01  0.00000000E+00
  5.80000000E+02  4.60000000E+01  0.00000000E+00
  5.90000000E+02  4.60000000E+01  0.00000000E+00
  6.00000000E+02  4.60000000E+01  0.00000000E+00
  6.10000000E+02  4.60000000E+01  0.00000000E+00
  6.20000000E+02  4.60000000E+01  0.00000000E+00
  6.30000000E+02  4.60000000E+01  0.00000000E+00
  6.40000000E+02  4.60000000E+01  0.00000000E+00
  6.50000000E+02  4.60000000E+01  0.00000000E+00
  6.60000000E+02  4.60000000E+01  0.00000000E+00
  6.70000000E+02  4.60000000E+01  0.00000000E+00
  6.80000000E+02  4.60000000E+01  0.00000000E+00
  6.90000000E+02  4.60000000E+01  0.00000000E+00
  7.00000000E+02  4.60000000E+01  0.00000000E+00
  7.10000000E+02  4.60000000E+01  0.00000000E+00
  7.20000000E+02  4.60000000E+01  0.00000000E+00
  7.30000000E+02  4.60000000E+01  0.00000000E+00
  7.40000000E+02  4.60000000E+01  0.00000000E+00
  7.50000000E+02  4.60000000E+01  0.00000000E+00
  7.60000000E+02  4.60000000E+01  0.00000000E+00
  7.70000000E+02  4.60000000E+01  0.00000000E+00
  7.80000000E+02  4.60000000E+01  0.00000000E+00
  7.90000000E+02  4.60000000E+01  0.00000000E+00
  8.00000000E+02  4.60000000E+01  0.00000000E+00
  8.10000000E+02  4.60000000E+01  0.00000000E+00
  8.20000000E+02  4.60000000E+01  0.00000000E+00
  8.30000000E+02  4.60000000E+01  0.00000000E+00
  8.40000000E+02  4.60000000E+01  0.00000000E+00
  8.50000000E+02  4.60000000E+01  0.00000000E+00
  8.60000000E+02  4.60000000E+01  0.00000000E+00
  8.70000000E+02  4.60000000E+01  0.00000000E+00
  8.80000000E+02  4.60000000E+01  0.00000000E+00
  8.90000000E+02  4.60000000E+01  0.00000000E+00
  9.00000000E+02  4.60000000E+01  0.00000000E+00
  9.10000000E+02  4.60000000E+01  0.00000000E+00
  9.20000000E+02  4.60000000E+01  0.00000000E+00
  9.30000000E+02  4.60000000E+01  0.00000000E+00
  9.40000000E+02  4.60000000E+01  0.00000000E+00
  9.50000000E+02  4.60000000E+01  0.00000000E+00
  9.60000000E+02  4.60000000E+01  0.00000000E+00
  9.70000000E+02  4.60000000E+01  0.00000000E+00
  9.80000000E+02  4.60000000E+01  0.00000000E+00
  9.90000000E+02  4.60000000E+01  0.00000000E+00
  1.00000000E+03  4.60000000E+01  0.00000000E+00
  0.00000000E+00  4.80000000E+01  0.00000000E+00
  1.00000000E+01  4.80000000E+01  0.00000000E+00
  2.00000000E+01  4.80000000E+01  0.00000000E+00
  3.00000000E+01  4.80000000E+01  0.00000000E+00
  4.00000000E+01  4.80000000E+01  0.00000000E+00
  5.00000000E+01  4.80000000E+01  0.00000000E+00
  6.00000000E+01  4.80000000E+01  0.00000000E+00
  7.00000000E+01  4.80000000E+01  0.00000000E+00
  8.00000000E+01  4.80000000E+01  0.00000000E+00
  9.00000000E+01  4.80000000E+01  0.00000000E+00
  1.00000000E+02  4.80000000E+01  0.00000000E+00
  1.10000000E+02  4.80000000E+01  0.00000000E+00
  1.20000000E+02  4.80000000E+01  0.00000000E+00
  1.30000000E+02  4.80000000E+01  0.00000000E+00
  1.40000000E+02  4.80000000E+01  0.00000000E+00
  1.50000000E+02  4.80000000E+01  0.00000000E+00
  1.60000000E+02  4.80000000E+01  0.00000000E+00
  1.70000000E+02  4.80000000E+01  0.00000000E+00
  1.80000000E+02  4.80000000E+01  0.00000000E+00
  1.90000000E+02  4.80000000E+01  0.00000000E+00
  2.00000000E+02  4.80000000E+01  0.00000000E+00
  2.10000000E+02  4.80000000E+01  0.00000000E+00
  2.20000000E+02  4.80000000E+01  0.00000000E+00
  2.30000000E+02  4.80000000E+01  0.00000000E+00
  2.40000000E+02  4.80000000E+01  0.00000000E+00
  2.50000000E+02  4.80000000E+01  0.00000000E+00
  2.60000000E+02  4.80000000E+01  0.00000000E+00
  2.70000000E+02  4.80000000E+01  0.00000000E+00
  2.80000000E+02  4.80000000E+01  0.00000000E+00
  2.90000000E+02  4.80000000E+01  0.00000000E+00
  3.00000000E+02  4.80000000E+01  0.00000000E+00
  3.10000000E+02  4.80000000E+01  0.00000000E+00
  3.20000000E+02  4.80000000E+01  0.00000000E+00
  3.30000000E+02  4.80000000E+01  0.00000000E+00
  3.40000000E+02  4.80000000E+01  0.00000000E+00
  3.50000000E+02  4.80000000E+01  0.00000000E+00
  3.60000000E+02  4.80000000E+01  0.00000000E+00
  3.70000000E+02  4.80000000E+01  0.00000000E+00
  3.80000000E+02  4.80000000E+01  0.00000000E+00
  3.90000000E+02  4.80000000E+01  0.00000000E+00
  4.00000000E+02  4.80000000E+01  0.00000000E+00
  4.10000000E+02  4.80000000E+01  0.00000000E+00
  4.20000000E+02  4.80000000E+01  0.00000000E+00
  4.30000000E+02  4.80000000E+01  0.00000000E+00
  4.40000000E+02  4.80000000E+01  0.00000000E+00
  4.50000000E+02  4.80000000E+01  0.00000000E+00
  4.60000000E+02  4.80000000E+01  0.00000000E+00
  4.70000000E+02  4.80000000E+01  0.00000000E+00
  4.80000000E+02  4.80000000E+01  0.00000000E+00
  4.90000000E+02  4.80000000E+01  0.00000000E+00
  5.00000000E+02  4.80000000E+01  0.00000000E+00
  5.10000000E+02  4.80000000E+01  0.00000000E+00
  5.20000000E+02  4.80000000E+01  0.00000000E+00
  5.30000000E+02  4.80000000E+01  0.00000000E+00
  5.40000000E+02  4.80000000E+01  0.00000000E+00
  5.50000000E+02  4.80000000E+01  0.00000000E+00
  5.60000000E+02  4.80000000E+01  0.00000000E+00
  5.70000000E+02  4.80000000E+01  0.00000000E+00
  5.80000000E+02  4.80000000E+01  0.00000000E+00
  5.90000000E+02  4.80000000E+01  0.00000000E+00
  6.00000000E+02  4.80000000E+01  0.00000000E+00
  6.10000000E+02  4.80000000E+01  0.00000000E+00
  6.20000000E+02  4.80000000E+01  0.00000000E+00
  6.30000000E+02  4.80000000E+01  0.00000000E+00
  6.40000000E+02  4.80000000E+01  0.00000000E+00
  6.50000000E+02  4.80000000E+01  0.00000000E+00
  6.60000000E+02  4.80000000E+01  0.00000000E+00
  6.70000000E+02  4.80000000E+01  0.00000000E+00
  6.80000000E+02  4.80000000E+01  0.00000000E+00
  6.90000000E+02  4.80000000E+01  0.00000000E+00
  7.00000000E+02  4.80000000E+01  0.00000000E+00
  7.10000000E+02  4.80000000E+01  0.00000000E+00
  7.20000000E+02  4.80000000E+01  0.00000000E+00
  7.30000000E+02  4.80000000E+01  0.00000000E+00
  7.40000000E+02  4.80000000E+01  0.00000000E+00
  7.50000000E+02  4.80000000E+01  0.00000000E+00
  7.60000000E+02  4.80000000E+01  0.00000000E+00
  7.70000000E+02  4.80000000E+01  0.00000000E+00
  7.80000000E+02  4.80000000E+01  0.00000000E+00
  7.90000000E+02  4.80000000E+01  0.00000000E+00
  8.00000000E+02  4.80000000E+01  0.00000000E+00
  8.10000000E+02  4.80000000E+01  0.00000000E+00
  8.20000000E+02  4.80000000E+01  0.00000000E+00
  8.30000000E+02  4.80000000E+01  0.00000000E+00
  8.40000000E+02  4.80000000E+01  0.00000000E+00
  8.50000000E+02  4.80000000E+01  0.00000000E+00
  8.60000000E+02  4.80000000E+01  0.00000000E+00
  8.70000000E+02  4.80000000E+01  0.00000000E+00
  8.80000000E+02  4.80000000E+01  0.00000000E+00
  8.90000000E+02  4.80000000E+01  0.00000000E+00
  9.00000000E+02  4.80000000E+01  0.00000000E+00
  9.10000000E+02  4.80000000E+01  0.00000000E+00
  9.20000000E+02  4.80000000E+01  0.00000000E+00
  9.30000000E+02  4.80000000E+01  0.00000000E+00
  9.40000000E+02  4.80000000E+01  0.00000000E+00
  9.50000000E+02  4.80000000E+01  0.00000000E+00
  9.60000000E+02  4.80000000E+01  0.00000000E+00
  9.70000000E+02  4.80000000E+01  0.00000000E+00
  9.80000000E+02  4.80000000E+01  0.00000000E+00
  9.90000000E+02  4.80000000E+01  0.00000000E+00
  1.00000000E+03  4.80000000E+01  0.00000000E+00
  0.00000000E+00  5.00000000E+01  0.00000000E+00
  1.00000000E+01  5.00000000E+01  0.00000000E+00
  2.00000000E+01  5.00000000E+01  0.00000000E+00
  3.00000000E+01  5.00000000E+01  0.00000000E+00
  4.00000000E+01  5.00000000E+01  0.00000000E+00
  5.00000000E+01  5.00000000E+01  0.00000000E+00
  6.00000000E+01  5.00000000E+01  0.00000000E+00
  7.00000000E+01  5.00000000E+01  0.00000000E+00
  8.00000000E+01  5.00000000E+01  0.00000000E+00
  9.00000000E+01  5.00000000E+01  0.00000000E+00
  1.00000000E+02  5.00000000E+01  0.00000000E+00
  1.10000000E+02  5.00000000E+01  0.00000000E+00
  1.20000000E+02  5.00000000E+01  0.00000000E+00
  1.30000000E+02  5.00000000E+01  0.00000000E+00
  1.40000000E+02  5.00000000E+01  0.00000000E+00
  1.50000000E+02  5.00000000E+01  0.00000000E+00
  1.60000000E+02  5.00000000E+01  0.00000000E+00
  1.70000000E+02  5.00000000E+01  0.00000000E+00
  1.80000000E+02  5.00000000E+01  0.00000000E+00
  1.90000000E+02  5.00000000E+01  0.00000000E+00
  2.00000000E+02  5.00000000E+01  0.00000000E+00
  2.10000000E+02  5.00000000E+01  0.00000000E+00
  2.20000000E+02  5.00000000E+01  0.00000000E+00
  2.30000000E+02  5.00000000E+01  0.00000000E+00
  2.40000000E+02  5.00000000E+01  0.00000000E+00
  2.50000000E+02  5.00000000E+01  0.00000000E+00
  2.60000000E+02  5.00000000E+01  0.00000000E+00
  2.70000000E+02  5.00000000E+01  0.00000000E+00
  2.80000000E+02  5.00000000E+01  0.00000000E+00
  2.90000000E+02  5.00000000E+01  0.00000000E+00
  3.00000000E+02  5.00000000E+01  0.00000000E+00
  3.10000000E+02  5.00000000E+01  0.00000000E+00
  3.20000000E+02  5.00000000E+01  0.00000000E+00
  3.30000000E+02  5.00000000E+01  0.00000000E+00
  3.40000000E+02  5.00000000E+01  0.00000000E+00
  3.50000000E+02  5.00000000E+01  0.00000000E+00
  3.60000000E+02  5.00000000E+01  0.00000000E+00
  3.70000000E+02  5.00000000E+01  0.00000000E+00
  3.80000000E+02  5.00000000E+01  0.00000000E+00
  3.90000000E+02  5.00000000E+01  0.00000000E+00
  4.00000000E+02  5.00000000E+01  0.00000000E+00
  4.10000000E+02  5.00000000E+01  0.00000000E+00
  4.20000000E+02  5.00000000E+01  0.00000000E+00
  4.30000000E+02  5.00000000E+01  0.00000000E+00
  4.40000000E+02  5.00000000E+01  0.00000000E+00
  4.50000000E+02  5.00000000E+01  0.00000000E+00
  4.60000000E+02  5.00000000E+01  0.00000000E+00
  4.70000000E+02  5.00000000E+01  0.00000000E+00
  4.80000000E+02  5.00000000E+01  0.00000000E+00
  4.90000000E+02  5.00000000E+01  0.00000000E+00
  5.00000000E+02  5.00000000E+01  0.00000000E+00
  5.10000000E+02  5.00000000E+01  0.00000000E+00
  5.20000000E+02  5.00000000E+01  0.00000000E+00
  5.30000000E+02  5.00000000E+01  0.00000000E+00
  5.40000000E+02  5.00000000E+01  0.00000000E+00
  5.50000000E+02  5.00000000E+01  0.00000000E+00
  5.60000000E+02  5.00000000E+01  0.00000000E+00
  5.70000000E+02  5.00000000E+01  0.00000000E+00
  5.80000000E+02  5.00000000E+01  0.00000000E+00
  5.90000000E+02  5.00000000E+01  0.00000000E+00
  6.00000000E+02  5.00000000E+01  0.00000000E+00
  6.10000000E+02  5.00000000E+01  0.00000000E+00
  6.20000000E+02  5.00000000E+01  0.00000000E+00
  6.30000000E+02  5.00000000E+01  0.00000000E+00
  6.40000000E+02  5.00000000E+01  0.00000000E+00
  6.50000000E+02  5.00000000E+01  0.00000000E+00
  6.60000000E+02  5.00000000E+01  0.00000000E+00
  6.70000000E+02  5.00000000E+01  0.00000000E+00
  6.80000000E+02  5.00000000E+01  0.00000000E+00
  6.90000000E+02  5.00000000E+01  0.00000000E+00
  7.00000000E+02  5.00000000E+01  0.00000000E+00
  7.10000000E+02  5.00000000E+01  0.00000000E+00
  7.20000000E+02  5.00000000E+01  0.00000000E+00
  7.30000000E+02  5.00000000E+01  0.00000000E+00
  7.40000000E+02  5.00000000E+01  0.00000000E+00
  7.50000000E+02  5.00000000E+01  0.00000000E+00
  7.60000000E+02  5.00000000E+01  0.00000000E+00
  7.70000000E+02  5.00000000E+01  0.00000000E+00
  7.80000000E+02  5.00000000E+01  0.00000000E+00
  7.90000000E+02  5.00000000E+01  0.00000000E+00
  8.00000000E+02  5.00000000E+01  0.00000000E+00
  8.10000000E+02  5.00000000E+01  0.00000000E+00
  8.20000000E+02  5.00000000E+01  0.00000000E+00
  8.30000000E+02  5.00000000E+01  0.00000000E+00
  8.40000000E+02  5.00000000E+01  0.00000000E+00
  8.50000000E+02  5.00000000E+01  0.00000000E+00
  8.60000000E+02  5.00000000E+01  0.00000000E+00
  8.70000000E+02  5.00000000E+01  0.00000000E+00
  8.80000000E+02  5.00000000E+01  0.00000000E+00
  8.90000000E+02  5.00000000E+01  0.00000000E+00
  9.00000000E+02  5.00000000E+01  0.00000000E+00
  9.10000000E+02  5.00000000E+01  0.00000000E+00
  9.20000000E+02  5.00000000E+01  0.00000000E+00
  9.30000000E+02  5.00000000E+01  0.00000000E+00
  9.40000000E+02  5.00000000E+01  0.00000000E+00
  9.50000000E+02  5.00000000E+01  0.00000000E+00
  9.60000000E+02  5.00000000E+01  0.00000000E+00
  9.70000000E+02  5.00000000E+01  0.00000000E+00
  9.80000000E+02  5.00000000E+01  0.00000000E+00
  9.90000000E+02  5.00000000E+01  0.00000000E+00
  1.00000000E+03  5.00000000E+01  0.00000000E+00
  0.00000000E+00  5.20000000E+01  0.00000000E+00
  1.00000000E+01  5.20000000E+01  0.00000000E+00
  2.00000000E+01  5.20000000E+01  0.00000000E+00
  3.00000000E+01  5.20000000E+01  0.00000000E+00
  4.00000000E+01  5.20000000E+01  0.00000000E+00
  5.00000000E+01  5.20000000E+01  0.00000000E+00
  6.00000000E+01  5.20000000E+01  0.00000000E+00
  7.00000000E+01  5.20000000E+01  0.00000000E+00
  8.00000000E+01  5.20000000E+01  0.00000000E+00
  9.00000000E+01  5.20000000E+01  0.00000000E+00
  1.00000000E+02  5.20000000E+01  0.00000000E+00
  1.10000000E+02  5.20000000E+01  0.00000000E+00
  1.20000000E+02  5.20000000E+01  0.00000000E+00
  1.30000000E+02  5.20000000E+01  0.00000000E+00
  1.40000000E+02  5.20000000E+01  0.00000000E+00
  1.50000000E+02  5.20000000E+01  0.00000000E+00
  1.60000000E+02  5.20000000E+01  0.00000000E+00
  1.70000000E+02  5.20000000E+01  0.00000000E+00
  1.80000000E+02  5.20000000E+01  0.00000000E+00
  1.90000000E+02  5.20000000E+01  0.00000000E+00
  2.00000000E+02  5.20000000E+01  0.00000000E+00
  2.10000000E+02  5.20000000E+01  0.00000000E+00
  2.20000000E+02  5.20000000E+01  0.00000000E+00
  2.30000000E+02  5.20000000E+01  0.00000000E+00
  2.40000000E+02  5.20000000E+01  0.00000000E+00
  2.50000000E+02  5.20000000E+01  0.00000000E+00
  2.60000000E+02  5.20000000E+01  0.00000000E+00
  2.70000000E+02  5.20000000E+01  0.00000000E+00
  2.80000000E+02  5.20000000E+01  0.00000000E+00
  2.90000000E+02  5.20000000E+01  0.00000000E+00
  3.00000000E+02  5.20000000E+01  0.00000000E+00
  3.10000000E+02  5.20000000E+01  0.00000000E+00
  3.20000000E+02  5.20000000E+01  0.00000000E+00
  3.30000000E+02  5.20000000E+01  0.00000000E+00
  3.40000000E+02  5.20000000E+01  0.00000000E+00
  3.50000000E+02  5.20000000E+01  0.00000000E+00
  3.60000000E+02  5.20000000E+01  0.00000000E+00
  3.70000000E+02  5.20000000E+01  0.00000000E+00
  3.80000000E+02  5.20000000E+01  0.00000000E+00
  3.90000000E+02  5.20000000E+01  0.00000000E+00
  4.00000000E+02  5.20000000E+01  0.00000000E+00
  4.10000000E+02  5.20000000E+01  0.00000000E+00
  4.20000000E+02  5.20000000E+01  0.00000000E+00
  4.30000000E+02  5.20000000E+01  0.00000000E+00
  4.40000000E+02  5.20000000E+01  0.00000000E+00
  4.50000000E+02  5.20000000E+01  0.00000000E+00
  4.60000000E+02  5.20000000E+01  0.00000000E+00
  4.70000000E+02  5.20000000E+01  0.00000000E+00
  4.80000000E+02  5.20000000E+01  0.00000000E+00
  4.90000000E+02  5.20000000E+01  0.00000000E+00
  5.00000000E+02  5.20000000E+01  0.00000000E+00
  5.10000000E+02  5.20000000E+01  0.00000000E+00
  5.20000000E+02  5.20000000E+01  0.00000000E+00
  5.30000000E+02  5.20000000E+01  0.00000000E+00
  5.40000000E+02  5.20000000E+01  0.00000000E+00
  5.50000000E+02  5.20000000E+01  0.00000000E+00
  5.60000000E+02  5.20000000E+01  0.00000000E+00
  5.70000000E+02  5.20000000E+01  0.00000000E+00
  5.80000000E+02  5.20000000E+01  0.00000000E+00
  5.90000000E+02  5.20000000E+01  0.00000000E+00
  6.00000000E+02  5.20000000E+01  0.00000000E+00
  6.10000000E+02  5.20000000E+01  0.00000000E+00
  6.20000000E+02  5.20000000E+01  0.00000000E+00
  6.30000000E+02  5.20000000E+01  0.00000000E+00
  6.40000000E+02  5.20000000E+01  0.00000000E+00
  6.50000000E+02  5.20000000E+01  0.00000000E+00
  6.60000000E+02  5.20000000E+01  0.00000000E+00
  6.70000000E+02  5.20000000E+01  0.00000000E+00
  6.80000000E+02  5.20000000E+01  0.00000000E+00
  6.90000000E+02  5.20000000E+01  0.00000000E+00
  7.00000000E+02  5.20000000E+01  0.00000000E+00
  7.10000000E+02  5.20000000E+01  0.00000000E+00
  7.20000000E+02  5.20000000E+01  0.00000000E+00
  7.30000000E+02  5.20000000E+01  0.00000000E+00
  7.40000000E+02  5.20000000E+01  0.00000000E+00
  7.50000000E+02  5.20000000E+01  0.00000000E+00
  7.60000000E+02  5.20000000E+01  0.00000000E+00
  7.70000000E+02  5.20000000E+01  0.00000000E+00
  7.80000000E+02  5.20000000E+01  0.00000000E+00
  7.90000000E+02  5.20000000E+01  0.00000000E+00
  8.00000000E+02  5.20000000E+01  0.00000000E+00
  8.10000000E+02  5.20000000E+01  0.00000000E+00
  8.20000000E+02  5.20000000E+01  0.00000000E+00
  8.30000000E+02  5.20000000E+01  0.00000000E+00
  8.40000000E+02  5.20000000E+01  0.00000000E+00
  8.50000000E+02  5.20000000E+01  0.00000000E+00
  8.60000000E+02  5.20000000E+01  0.00000000E+00
  8.70000000E+02  5.20000000E+01  0.00000000E+00
  8.80000000E+02  5.20000000E+01  0.00000000E+00
  8.90000000E+02  5.20000000E+01  0.00000000E+00
  9.00000000E+02  5.20000000E+01  0.00000000E+00
  9.10000000E+02  5.20000000E+01  0.00000000E+00
  9.20000000E+02  5.20000000E+01  0.00000000E+00
  9.30000000E+02  5.20000000E+01  0.00000000E+00
  9.40000000E+02  5.20000000E+01  0.00000000E+00
  9.50000000E+02  5.20000000E+01  0.00000000E+00
  9.60000000E+02  5.20000000E+01  0.00000000E+00
  9.70000000E+02  5.20000000E+01  0.00000000E+00
  9.80000000E+02  5.20000000E+01  0.00000000E+00
  9.90000000E+02  5.20000000E+01  0.00000000E+00
  1.00000000E+03  5.20000000E+01  0.00000000E+00
  0.00000000E+00  5.40000000E+01  0.00000000E+00
  1.00000000E+01  5.40000000E+01  0.00000000E+00
  2.00000000E+01  5.40000000E+01  0.00000000E+00
  3.00000000E+01  5.40000000E+01  0.00000000E+00
  4.00000000E+01  5.40000000E+01  0.00000000E+00
  5.00000000E+01  5.40000000E+01  0.00000000E+00
  6.00000000E+01  5.40000000E+01  0.00000000E+00
  7.00000000E+01  5.40000000E+01  0.00000000E+00
  8.00000000E+01  5.40000000E+01  0.00000000E+00
  9.00000000E+01  5.40000000E+01  0.00000000E+00
  1.00000000E+02  5.40000000E+01  0.00000000E+00
  1.10000000E+02  5.40000000E+01  0.00000000E+00
  1.20000000E+02  5.40000000E+01  0.00000000E+00
  1.30000000E+02  5.40000000E+01  0.00000000E+00
  1.40000000E+02  5.40000000E+01  0.00000000E+00
  1.50000000E+02  5.40000000E+01  0.00000000E+00
  1.60000000E+02  5.40000000E+01  0.00000000E+00
  1.70000000E+02  5.40000000E+01  0.00000000E+00
  1.80000000E+02  5.40000000E+01  0.00000000E+00
  1.90000000E+02  5.40000000E+01  0.00000000E+00
  2.00000000E+02  5.40000000E+01  0.00000000E+00
  2.10000000E+02  5.40000000E+01  0.00000000E+00
  2.20000000E+02  5.40000000E+01  0.00000000E+00
  2.30000000E+02  5.40000000E+01  0.00000000E+00
  2.40000000E+02  5.40000000E+01  0.00000000E+00
  2.50000000E+02  5.40000000E+01  0.00000000E+00
  2.60000000E+02  5.40000000E+01  0.00000000E+00
  2.70000000E+02  5.40000000E+01  0.00000000E+00
  2.80000000E+02  5.40000000E+01  0.00000000E+00
  2.90000000E+02  5.40000000E+01  0.00000000E+00
  3.00000000E+02  5.40000000E+01  0.00000000E+00
  3.10000000E+02  5.40000000E+01  0.00000000E+00
  3.20000000E+02  5.40000000E+01  0.00000000E+00
  3.30000000E+02  5.40000000E+01  0.00000000E+00
  3.40000000E+02  5.40000000E+01  0.00000000E+00
  3.50000000E+02  5.40000000E+01  0.00000000E+00
  3.60000000E+02  5.40000000E+01  0.00000000E+00
  3.70000000E+02  5.40000000E+01  0.00000000E+00
  3.80000000E+02  5.40000000E+01  0.00000000E+00
  3.90000000E+02  5.40000000E+01  0.00000000E+00
  4.00000000E+02  5.40000000E+01  0.00000000E+00
  4.10000000E+02  5.40000000E+01  0.00000000E+00
  4.20000000E+02  5.40000000E+01  0.00000000E+00
  4.30000000E+02  5.40000000E+01  0.00000000E+00
  4.40000000E+02  5.40000000E+01  0.00000000E+00
  4.50000000E+02  5.40000000E+01  0.00000000E+00
  4.60000000E+02  5.40000000E+01  0.00000000E+00
  4.70000000E+02  5.40000000E+01  0.00000000E+00
  4.80000000E+02  5.40000000E+01  0.00000000E+00
  4.90000000E+02  5.40000000E+01  0.00000000E+00
  5.00000000E+02  5.40000000E+01  0.00000000E+00
  5.10000000E+02  5.40000000E+01  0.00000000E+00
  5.20000000E+02  5.40000000E+01  0.00000000E+00
  5.30000000E+02  5.40000000E+01  0.00000000E+00
  5.40000000E+02  5.40000000E+01  0.00000000E+00
  5.50000000E+02  5.40000000E+01  0.00000000E+00
  5.60000000E+02  5.40000000E+01  0.00000000E+00
  5.70000000E+02  5.40000000E+01  0.00000000E+00
  5.80000000E+02  5.40000000E+01  0.00000000E+00
  5.90000000E+02  5.40000000E+01  0.00000000E+00
  6.00000000E+02  5.40000000E+01  0.00000000E+00
  6.10000000E+02  5.40000000E+01  0.00000000E+00
  6.20000000E+02  5.40000000E+01  0.00000000E+00
  6.30000000E+02  5.40000000E+01  0.00000000E+00
  6.40000000E+02  5.40000000E+01  0.00000000E+00
  6.50000000E+02  5.40000000E+01  0.00000000E+00
  6.60000000E+02  5.40000000E+01  0.00000000E+00
  6.70000000E+02  5.40000000E+01  0.00000000E+00
  6.80000000E+02  5.40000000E+01  0.00000000E+00
  6.90000000E+02  5.40000000E+01  0.00000000E+00
  7.00000000E+02  5.40000000E+01  0.00000000E+00
  7.10000000E+02  5.40000000E+01  0.00000000E+00
  7.20000000E+02  5.40000000E+01  0.00000000E+00
  7.30000000E+02  5.40000000E+01  0.00000000E+00
  7.40000000E+02  5.40000000E+01  0.00000000E+00
  7.50000000E+02  5.40000000E+01  0.00000000E+00
  7.60000000E+02  5.40000000E+01  0.00000000E+00
  7.70000000E+02  5.40000000E+01  0.00000000E+00
  7.80000000E+02  5.40000000E+01  0.00000000E+00
  7.90000000E+02  5.40000000E+01  0.00000000E+00
  8.00000000E+02  5.40000000E+01  0.00000000E+00
  8.10000000E+02  5.40000000E+01  0.00000000E+00
  8.20000000E+02  5.40000000E+01  0.00000000E+00
  8.30000000E+02  5.40000000E+01  0.00000000E+00
  8.40000000E+02  5.40000000E+01  0.00000000E+00
  8.50000000E+02  5.40000000E+01  0.00000000E+00
  8.60000000E+02  5.40000000E+01  0.00000000E+00
  8.70000000E+02  5.40000000E+01  0.00000000E+00
  8.80000000E+02  5.40000000E+01  0.00000000E+00
  8.90000000E+02  5.40000000E+01  0.00000000E+00
  9.00000000E+02  5.40000000E+01  0.00000000E+00
  9.10000000E+02  5.40000000E+01  0.00000000E+00
  9.20000000E+02  5.40000000E+01  0.00000000E+00
  9.30000000E+02  5.40000000E+01  0.00000000E+00
  9.40000000E+02  5.40000000E+01  0.00000000E+00
  9.50000000E+02  5.40000000E+01  0.00000000E+00
  9.60000000E+02  5.40000000E+01  0.00000000E+00
  9.70000000E+02  5.40000000E+01  0.00000000E+00
  9.80000000E+02  5.40000000E+01  0.00000000E+00
  9.90000000E+02  5.40000000E+01  0.00000000E+00
  1.00000000E+03  5.40000000E+01  0.00000000E+00
  0.00000000E+00  5.60000000E+01  0.00000000E+00
  1.00000000E+01  5.60000000E+01  0.00000000E+00
  2.00000000E+01  5.60000000E+01  0.00000000E+00
  3.00000000E+01  5.60000000E+01  0.00000000E+00
  4.00000000E+01  5.60000000E+01  0.00000000E+00
  5.00000000E+01  5.60000000E+01  0.00000000E+00
  6.00000000E+01  5.60000000E+01  0.00000000E+00
  7.00000000E+01  5.60000000E+01  0.00000000E+00
  8.00000000E+01  5.60000000E+01  0.00000000E+00
  9.00000000E+01  5.60000000E+01  0.00000000E+00
  1.00000000E+02  5.60000000E+01  0.00000000E+00
  1.10000000E+02  5.60000000E+01  0.00000000E+00
  1.20000000E+02  5.60000000E+01  0.00000000E+00
  1.30000000E+02  5.60000000E+01  0.00000000E+00
  1.40000000E+02  5.60000000E+01  0.00000000E+00
  1.50000000E+02  5.60000000E+01  0.00000000E+00
  1.60000000E+02  5.60000000E+01  0.00000000E+00
  1.70000000E+02  5.60000000E+01  0.00000000E+00
  1.80000000E+02  5.60000000E+01  0.00000000E+00
  1.90000000E+02  5.60000000E+01  0.00000000E+00
  2.00000000E+02  5.60000000E+01  0.00000000E+00
  2.10000000E+02  5.60000000E+01  0.00000000E+00
  2.20000000E+02  5.60000000E+01  0.00000000E+00
  2.30000000E+02  5.60000000E+01  0.00000000E+00
  2.40000000E+02  5.60000000E+01  0.00000000E+00
  2.50000000E+02  5.60000000E+01  0.00000000E+00
  2.60000000E+02  5.60000000E+01  0.00000000E+00
  2.70000000E+02  5.60000000E+01  0.00000000E+00
  2.80000000E+02  5.60000000E+01  0.00000000E+00
  2.90000000E+02  5.60000000E+01  0.00000000E+00
  3.00000000E+02  5.60000000E+01  0.00000000E+00
  3.10000000E+02  5.60000000E+01  0.00000000E+00
  3.20000000E+02  5.60000000E+01  0.00000000E+00
  3.30000000E+02  5.60000000E+01  0.00000000E+00
  3.40000000E+02  5.60000000E+01  0.00000000E+00
  3.50000000E+02  5.60000000E+01  0.00000000E+00
  3.60000000E+02  5.60000000E+01  0.00000000E+00
  3.70000000E+02  5.60000000E+01  0.00000000E+00
  3.80000000E+02  5.60000000E+01  0.00000000E+00
  3.90000000E+02  5.60000000E+01  0.00000000E+00
  4.00000000E+02  5.60000000E+01  0.00000000E+00
  4.10000000E+02  5.60000000E+01  0.00000000E+00
  4.20000000E+02  5.60000000E+01  0.00000000E+00
  4.30000000E+02  5.60000000E+01  0.00000000E+00
  4.40000000E+02  5.60000000E+01  0.00000000E+00
  4.50000000E+02  5.60000000E+01  0.00000000E+00
  4.60000000E+02  5.60000000E+01  0.00000000E+00
  4.70000000E+02  5.60000000E+01  0.00000000E+00
  4.80000000E+02  5.60000000E+01  0.00000000E+00
  4.90000000E+02  5.60000000E+01  0.00000000E+00
  5.00000000E+02  5.60000000E+01  0.00000000E+00
  5.10000000E+02  5.60000000E+01  0.00000000E+00
  5.20000000E+02  5.60000000E+01  0.00000000E+00
  5.30000000E+02  5.60000000E+01  0.00000000E+00
  5.40000000E+02  5.60000000E+01  0.00000000E+00
  5.50000000E+02  5.60000000E+01  0.00000000E+00
  5.60000000E+02  5.60000000E+01  0.00000000E+00
  5.70000000E+02  5.60000000E+01  0.00000000E+00
  5.80000000E+02  5.60000000E+01  0.00000000E+00
  5.90000000E+02  5.60000000E+01  0.00000000E+00
  6.00000000E+02  5.60000000E+01  0.00000000E+00
  6.10000000E+02  5.60000000E+01  0.00000000E+00
  6.20000000E+02  5.60000000E+01  0.00000000E+00
  6.30000000E+02  5.60000000E+01  0.00000000E+00
  6.40000000E+02  5.60000000E+01  0.00000000E+00
  6.50000000E+02  5.60000000E+01  0.00000000E+00
  6.60000000E+02  5.60000000E+01  0.00000000E+00
  6.70000000E+02  5.60000000E+01  0.00000000E+00
  6.80000000E+02  5.60000000E+01  0.00000000E+00
  6.90000000E+02  5.60000000E+01  0.00000000E+00
  7.00000000E+02  5.60000000E+01  0.00000000E+00
  7.10000000E+02  5.60000000E+01  0.00000000E+00
  7.20000000E+02  5.60000000E+01  0.00000000E+00
  7.30000000E+02  5.60000000E+01  0.00000000E+00
  7.40000000E+02  5.60000000E+01  0.00000000E+00
  7.50000000E+02  5.60000000E+01  0.00000000E+00
  7.60000000E+02  5.60000000E+01  0.00000000E+00
  7.70000000E+02  5.60000000E+01  0.00000000E+00
  7.80000000E+02  5.60000000E+01  0.00000000E+00
  7.90000000E+02  5.60000000E+01  0.00000000E+00
  8.00000000E+02  5.60000000E+01  0.00000000E+00
  8.10000000E+02  5.60000000E+01  0.00000000E+00
  8.20000000E+02  5.60000000E+01  0.00000000E+00
  8.30000000E+02  5.60000000E+01  0.00000000E+00
  8.40000000E+02  5.60000000E+01  0.00000000E+00
  8.50000000E+02  5.60000000E+01  0.00000000E+00
  8.60000000E+02  5.60000000E+01  0.00000000E+00
  8.70000000E+02  5.60000000E+01  0.00000000E+00
  8.80000000E+02  5.60000000E+01  0.00000000E+00
  8.90000000E+02  5.60000000E+01  0.00000000E+00
  9.00000000E+02  5.60000000E+01  0.00000000E+00
  9.10000000E+02  5.60000000E+01  0.00000000E+00
  9.20000000E+02  5.60000000E+01  0.00000000E+00
  9.30000000E+02  5.60000000E+01  0.00000000E+00
  9.40000000E+02  5.60000000E+01  0.00000000E+00
  9.50000000E+02  5.60000000E+01  0.00000000E+00
  9.60000000E+02  5.60000000E+01  0.00000000E+00
  9.70000000E+02  5.60000000E+01  0.00000000E+00
  9.80000000E+02  5.60000000E+01  0.00000000E+00
  9.90000000E+02  5.60000000E+01  0.00000000E+00
  1.00000000E+03  5.60000000E+01  0.00000000E+00
  0.00000000E+00  5.80000000E+01  0.00000000E+00
  1.00000000E+01  5.80000000E+01  0.00000000E+00
  2.00000000E+01  5.80000000E+01  0.00000000E+00
  3.00000000E+01  5.80000000E+01  0.00000000E+00
  4.00000000E+01  5.80000000E+01  0.00000000E+00
  5.00000000E+01  5.80000000E+01  0.00000000E+00
  6.00000000E+01  5.80000000E+01  0.00000000E+00
  7.00000000E+01  5.80000000E+01  0.00000000E+00
  8.00000000E+01  5.80000000E+01  0.00000000E+00
  9.00000000E+01  5.80000000E+01  0.00000000E+00
  1.00000000E+02  5.80000000E+01  0.00000000E+00
  1.10000000E+02  5.80000000E+01  0.00000000E+00
  1.20000000E+02  5.80000000E+01  0.00000000E+00
  1.30000000E+02  5.80000000E+01  0.00000000E+00
  1.40000000E+02  5.80000000E+01  0.00000000E+00
  1.50000000E+02  5.80000000E+01  0.00000000E+00
  1.60000000E+02  5.80000000E+01  0.00000000E+00
  1.70000000E+02  5.80000000E+01  0.00000000E+00
  1.80000000E+02  5.80000000E+01  0.00000000E+00
  1.90000000E+02  5.80000000E+01  0.00000000E+00
  2.00000000E+02  5.80000000E+01  0.00000000E+00
  2.10000000E+02  5.80000000E+01  0.00000000E+00
  2.20000000E+02  5.80000000E+01  0.00000000E+00
  2.30000000E+02  5.80000000E+01  0.00000000E+00
  2.40000000E+02  5.80000000E+01  0.00000000E+00
  2.50000000E+02  5.80000000E+01  0.00000000E+00
  2.60000000E+02  5.80000000E+01  0.00000000E+00
  2.70000000E+02  5.80000000E+01  0.00000000E+00
  2.80000000E+02  5.80000000E+01  0.00000000E+00
  2.90000000E+02  5.80000000E+01  0.00000000E+00
  3.00000000E+02  5.80000000E+01  0.00000000E+00
  3.10000000E+02  5.80000000E+01  0.00000000E+00
  3.20000000E+02  5.80000000E+01  0.00000000E+00
  3.30000000E+02  5.80000000E+01  0.00000000E+00
  3.40000000E+02  5.80000000E+01  0.00000000E+00
  3.50000000E+02  5.80000000E+01  0.00000000E+00
  3.60000000E+02  5.80000000E+01  0.00000000E+00
  3.70000000E+02  5.80000000E+01  0.00000000E+00
  3.80000000E+02  5.80000000E+01  0.00000000E+00
  3.90000000E+02  5.80000000E+01  0.00000000E+00
  4.00000000E+02  5.80000000E+01  0.00000000E+00
  4.10000000E+02  5.80000000E+01  0.00000000E+00
  4.20000000E+02  5.80000000E+01  0.00000000E+00
  4.30000000E+02  5.80000000E+01  0.00000000E+00
  4.40000000E+02  5.80000000E+01  0.00000000E+00
  4.50000000E+02  5.80000000E+01  0.00000000E+00
  4.60000000E+02  5.80000000E+01  0.00000000E+00
  4.70000000E+02  5.80000000E+01  0.00000000E+00
  4.80000000E+02  5.80000000E+01  0.00000000E+00
  4.90000000E+02  5.80000000E+01  0.00000000E+00
  5.00000000E+02  5.80000000E+01  0.00000000E+00
  5.10000000E+02  5.80000000E+01  0.00000000E+00
  5.20000000E+02  5.80000000E+01  0.00000000E+00
  5.30000000E+02  5.80000000E+01  0.00000000E+00
  5.40000000E+02  5.80000000E+01  0.00000000E+00
  5.50000000E+02  5.80000000E+01  0.00000000E+00
  5.60000000E+02  5.80000000E+01  0.00000000E+00
  5.70000000E+02  5.80000000E+01  0.00000000E+00
  5.80000000E+02  5.80000000E+01  0.00000000E+00
  5.90000000E+02  5.80000000E+01  0.00000000E+00
  6.00000000E+02  5.80000000E+01  0.00000000E+00
  6.10000000E+02  5.80000000E+01  0.00000000E+00
  6.20000000E+02  5.80000000E+01  0.00000000E+00
  6.30000000E+02  5.80000000E+01  0.00000000E+00
  6.40000000E+02  5.80000000E+01  0.00000000E+00
  6.50000000E+02  5.80000000E+01  0.00000000E+00
  6.60000000E+02  5.80000000E+01  0.00000000E+00
  6.70000000E+02  5.80000000E+01  0.00000000E+00
  6.80000000E+02  5.80000000E+01  0.00000000E+00
  6.90000000E+02  5.80000000E+01  0.00000000E+00
  7.00000000E+02  5.80000000E+01  0.00000000E+00
  7.10000000E+02  5.80000000E+01  0.00000000E+00
  7.20000000E+02  5.80000000E+01  0.00000000E+00
  7.30000000E+02  5.80000000E+01  0.00000000E+00
  7.40000000E+02  5.80000000E+01  0.00000000E+00
  7.50000000E+02  5.80000000E+01  0.00000000E+00
  7.60000000E+02  5.80000000E+01  0.00000000E+00
  7.70000000E+02  5.80000000E+01  0.00000000E+00
  7.80000000E+02  5.80000000E+01  0.00000000E+00
  7.90000000E+02  5.80000000E+01  0.00000000E+00
  8.00000000E+02  5.80000000E+01  0.00000000E+00
  8.10000000E+02  5.80000000E+01  0.00000000E+00
  8.20000000E+02  5.80000000E+01  0.00000000E+00
  8.30000000E+02  5.80000000E+01  0.00000000E+00
  8.40000000E+02  5.80000000E+01  0.00000000E+00
  8.50000000E+02  5.80000000E+01  0.00000000E+00
  8.60000000E+02  5.80000000E+01  0.00000000E+00
  8.70000000E+02  5.80000000E+01  0.00000000E+00
  8.80000000E+02  5.80000000E+01  0.00000000E+00
  8.90000000E+02  5.80000000E+01  0.00000000E+00
  9.00000000E+02  5.80000000E+01  0.00000000E+00
  9.10000000E+02  5.80000000E+01  0.00000000E+00
  9.20000000E+02  5.80000000E+01  0.00000000E+00
  9.30000000E+02  5.80000000E+01  0.00000000E+00
  9.40000000E+02  5.80000000E+01  0.00000000E+00
  9.50000000E+02  5.80000000E+01  0.00000000E+00
  9.60000000E+02  5.80000000E+01  0.00000000E+00
  9.70000000E+02  5.80000000E+01  0.00000000E+00
  9.80000000E+02  5.80000000E+01  0.00000000E+00
  9.90000000E+02  5.80000000E+01  0.00000000E+00
  1.00000000E+03  5.80000000E+01  0.00000000E+00
  0.00000000E+00  6.00000000E+01  0.00000000E+00
  1.00000000E+01  6.00000000E+01  0.00000000E+00
  2.00000000E+01  6.00000000E+01  0.00000000E+00
  3.00000000E+01  6.00000000E+01  0.00000000E+00
  4.00000000E+01  6.00000000E+01  0.00000000E+00
  5.00000000E+01  6.00000000E+01  0.00000000E+00
  6.00000000E+01  6.00000000E+01  0.00000000E+00
  7.00000000E+01  6.00000000E+01  0.00000000E+00
  8.00000000E+01  6.00000000E+01  0.00000000E+00
  9.00000000E+01  6.00000000E+01  0.00000000E+00
  1.00000000E+02  6.00000000E+01  0.00000000E+00
  1.10000000E+02  6.00000000E+01  0.00000000E+00
  1.20000000E+02  6.00000000E+01  0.00000000E+00
  1.30000000E+02  6.00000000E+01  0.00000000E+00
  1.40000000E+02  6.00000000E+01  0.00000000E+00
  1.50000000E+02  6.00000000E+01  0.00000000E+00
  1.60000000E+02  6.00000000E+01  0.00000000E+00
  1.70000000E+02  6.00000000E+01  0.00000000E+00
  1.80000000E+02  6.00000000E+01  0.00000000E+00
  1.90000000E+02  6.00000000E+01  0.00000000E+00
  2.00000000E+02  6.00000000E+01  0.00000000E+00
  2.10000000E+02  6.00000000E+01  0.00000000E+00
  2.20000000E+02  6.00000000E+01  0.00000000E+00
  2.30000000E+02  6.00000000E+01  0.00000000E+00
  2.40000000E+02  6.00000000E+01  0.00000000E+00
  2.50000000E+02  6.00000000E+01  0.00000000E+00
  2.60000000E+02  6.00000000E+01  0.00000000E+00
  2.70000000E+02  6.00000000E+01  0.00000000E+00
  2.80000000E+02  6.00000000E+01  0.00000000E+00
  2.90000000E+02  6.00000000E+01  0.00000000E+00
  3.00000000E+02  6.00000000E+01  0.00000000E+00
  3.10000000E+02  6.00000000E+01  0.00000000E+00
  3.20000000E+02  6.00000000E+01  0.00000000E+00
  3.30000000E+02  6.00000000E+01  0.00000000E+00
  3.40000000E+02  6.00000000E+01  0.00000000E+00
  3.50000000E+02  6.00000000E+01  0.00000000E+00
  3.60000000E+02  6.00000000E+01  0.00000000E+00
  3.70000000E+02  6.00000000E+01  0.00000000E+00
  3.80000000E+02  6.00000000E+01  0.00000000E+00
  3.90000000E+02  6.00000000E+01  0.00000000E+00
  4.00000000E+02  6.00000000E+01  0.00000000E+00
  4.10000000E+02  6.00000000E+01  0.00000000E+00
  4.20000000E+02  6.00000000E+01  0.00000000E+00
  4.30000000E+02  6.00000000E+01  0.00000000E+00
  4.40000000E+02  6.00000000E+01  0.00000000E+00
  4.50000000E+02  6.00000000E+01  0.00000000E+00
  4.60000000E+02  6.00000000E+01  0.00000000E+00
  4.70000000E+02  6.00000000E+01  0.00000000E+00
  4.80000000E+02  6.00000000E+01  0.00000000E+00
  4.90000000E+02  6.00000000E+01  0.00000000E+00
  5.00000000E+02  6.00000000E+01  0.00000000E+00
  5.10000000E+02  6.00000000E+01  0.00000000E+00
  5.20000000E+02  6.00000000E+01  0.00000000E+00
  5.30000000E+02  6.00000000E+01  0.00000000E+00
  5.40000000E+02  6.00000000E+01  0.00000000E+00
  5.50000000E+02  6.00000000E+01  0.00000000E+00
  5.60000000E+02  6.00000000E+01  0.00000000E+00
  5.70000000E+02  6.00000000E+01  0.00000000E+00
  5.80000000E+02  6.00000000E+01  0.00000000E+00
  5.90000000E+02  6.00000000E+01  0.00000000E+00
  6.00000000E+02  6.00000000E+01  0.00000000E+00
  6.10000000E+02  6.00000000E+01  0.00000000E+00
  6.20000000E+02  6.00000000E+01  0.00000000E+00
  6.30000000E+02  6.00000000E+01  0.00000000E+00
  6.40000000E+02  6.00000000E+01  0.00000000E+00
  6.50000000E+02  6.00000000E+01  0.00000000E+00
  6.60000000E+02  6.00000000E+01  0.00000000E+00
  6.70000000E+02  6.00000000E+01  0.00000000E+00
  6.80000000E+02  6.00000000E+01  0.00000000E+00
  6.90000000E+02  6.00000000E+01  0.00000000E+00
  7.00000000E+02  6.00000000E+01  0.00000000E+00
  7.10000000E+02  6.00000000E+01  0.00000000E+00
  7.20000000E+02  6.00000000E+01  0.00000000E+00
  7.30000000E+02  6.00000000E+01  0.00000000E+00
  7.40000000E+02  6.00000000E+01  0.00000000E+00
  7.50000000E+02  6.00000000E+01  0.00000000E+00
  7.60000000E+02  6.00000000E+01  0.00000000E+00
  7.70000000E+02  6.00000000E+01  0.00000000E+00
  7.80000000E+02  6.00000000E+01  0.00000000E+00
  7.90000000E+02  6.00000000E+01  0.00000000E+00
  8.00000000E+02  6.00000000E+01  0.00000000E+00
  8.10000000E+02  6.00000000E+01  0.00000000E+00
  8.20000000E+02  6.00000000E+01  0.00000000E+00
  8.30000000E+02  6.00000000E+01  0.00000000E+00
  8.40000000E+02  6.00000000E+01  0.00000000E+00
  8.50000000E+02  6.00000000E+01  0.00000000E+00
  8.60000000E+02  6.00000000E+01  0.00000000E+00
  8.70000000E+02  6.00000000E+01  0.00000000E+00
  8.80000000E+02  6.00000000E+01  0.00000000E+00
  8.90000000E+02  6.00000000E+01  0.00000000E+00
  9.00000000E+02  6.00000000E+01  0.00000000E+00
  9.10000000E+02  6.00000000E+01  0.00000000E+00
  9.20000000E+02  6.00000000E+01  0.00000000E+00
  9.30000000E+02  6.00000000E+01  0.00000000E+00
  9.40000000E+02  6.00000000E+01  0.00000000E+00
  9.50000000E+02  6.00000000E+01  0.00000000E+00
  9.60000000E+02  6.00000000E+01  0.00000000E+00
  9.70000000E+02  6.00000000E+01  0.00000000E+00
  9.80000000E+02  6.00000000E+01  0.00000000E+00
  9.90000000E+02  6.00000000E+01  0.00000000E+00
  1.00000000E+03  6.00000000E+01  0.00000000E+00
  0.00000000E+00  6.20000000E+01  0.00000000E+00
  1.00000000E+01  6.20000000E+01  0.00000000E+00
  2.00000000E+01  6.20000000E+01  0.00000000E+00
  3.00000000E+01  6.20000000E+01  0.00000000E+00
  4.00000000E+01  6.20000000E+01  0.00000000E+00
  5.00000000E+01  6.20000000E+01  0.00000000E+00
  6.00000000E+01  6.20000000E+01  0.00000000E+00
  7.00000000E+01  6.20000000E+01  0.00000000E+00
  8.00000000E+01  6.20000000E+01  0.00000000E+00
  9.00000000E+01  6.20000000E+01  0.00000000E+00
  1.00000000E+02  6.20000000E+01  0.00000000E+00
  1.10000000E+02  6.20000000E+01  0.00000000E+00
  1.20000000E+02  6.20000000E+01  0.00000000E+00
  1.30000000E+02  6.20000000E+01  0.00000000E+00
  1.40000000E+02  6.20000000E+01  0.00000000E+00
  1.50000000E+02  6.20000000E+01  0.00000000E+00
  1.60000000E+02  6.20000000E+01  0.00000000E+00
  1.70000000E+02  6.20000000E+01  0.00000000E+00
  1.80000000E+02  6.20000000E+01  0.00000000E+00
  1.90000000E+02  6.20000000E+01  0.00000000E+00
  2.00000000E+02  6.20000000E+01  0.00000000E+00
  2.10000000E+02  6.20000000E+01  0.00000000E+00
  2.20000000E+02  6.20000000E+01  0.00000000E+00
  2.30000000E+02  6.20000000E+01  0.00000000E+00
  2.40000000E+02  6.20000000E+01  0.00000000E+00
  2.50000000E+02  6.20000000E+01  0.00000000E+00
  2.60000000E+02  6.20000000E+01  0.00000000E+00
  2.70000000E+02  6.20000000E+01  0.00000000E+00
  2.80000000E+02  6.20000000E+01  0.00000000E+00
  2.90000000E+02  6.20000000E+01  0.00000000E+00
  3.00000000E+02  6.20000000E+01  0.00000000E+00
  3.10000000E+02  6.20000000E+01  0.00000000E+00
  3.20000000E+02  6.20000000E+01  0.00000000E+00
  3.30000000E+02  6.20000000E+01  0.00000000E+00
  3.40000000E+02  6.20000000E+01  0.00000000E+00
  3.50000000E+02  6.20000000E+01  0.00000000E+00
  3.60000000E+02  6.20000000E+01  0.00000000E+00
  3.70000000E+02  6.20000000E+01  0.00000000E+00
  3.80000000E+02  6.20000000E+01  0.00000000E+00
  3.90000000E+02  6.20000000E+01  0.00000000E+00
  4.00000000E+02  6.20000000E+01  0.00000000E+00
  4.10000000E+02  6.20000000E+01  0.00000000E+00
  4.20000000E+02  6.20000000E+01  0.00000000E+00
  4.30000000E+02  6.20000000E+01  0.00000000E+00
  4.40000000E+02  6.20000000E+01  0.00000000E+00
  4.50000000E+02  6.20000000E+01  0.00000000E+00
  4.60000000E+02  6.20000000E+01  0.00000000E+00
  4.70000000E+02  6.20000000E+01  0.00000000E+00
  4.80000000E+02  6.20000000E+01  0.00000000E+00
  4.90000000E+02  6.20000000E+01  0.00000000E+00
  5.00000000E+02  6.20000000E+01  0.00000000E+00
  5.10000000E+02  6.20000000E+01  0.00000000E+00
  5.20000000E+02  6.20000000E+01  0.00000000E+00
  5.30000000E+02  6.20000000E+01  0.00000000E+00
  5.40000000E+02  6.20000000E+01  0.00000000E+00
  5.50000000E+02  6.20000000E+01  0.00000000E+00
  5.60000000E+02  6.20000000E+01  0.00000000E+00
  5.70000000E+02  6.20000000E+01  0.00000000E+00
  5.80000000E+02  6.20000000E+01  0.00000000E+00
  5.90000000E+02  6.20000000E+01  0.00000000E+00
  6.00000000E+02  6.20000000E+01  0.00000000E+00
  6.10000000E+02  6.20000000E+01  0.00000000E+00
  6.20000000E+02  6.20000000E+01  0.00000000E+00
  6.30000000E+02  6.20000000E+01  0.00000000E+00
  6.40000000E+02  6.20000000E+01  0.00000000E+00
  6.50000000E+02  6.20000000E+01  0.00000000E+00
  6.60000000E+02  6.20000000E+01  0.00000000E+00
  6.70000000E+02  6.20000000E+01  0.00000000E+00
  6.80000000E+02  6.20000000E+01  0.00000000E+00
  6.90000000E+02  6.20000000E+01  0.00000000E+00
  7.00000000E+02  6.20000000E+01  0.00000000E+00
  7.10000000E+02  6.20000000E+01  0.00000000E+00
  7.20000000E+02  6.20000000E+01  0.00000000E+00
  7.30000000E+02  6.20000000E+01  0.00000000E+00
  7.40000000E+02  6.20000000E+01  0.00000000E+00
  7.50000000E+02  6.20000000E+01  0.00000000E+00
  7.60000000E+02  6.20000000E+01  0.00000000E+00
  7.70000000E+02  6.20000000E+01  0.00000000E+00
  7.80000000E+02  6.20000000E+01  0.00000000E+00
  7.90000000E+02  6.20000000E+01  0.00000000E+00
  8.00000000E+02  6.20000000E+01  0.00000000E+00
  8.10000000E+02  6.20000000E+01  0.00000000E+00
  8.20000000E+02  6.20000000E+01  0.00000000E+00
  8.30000000E+02  6.20000000E+01  0.00000000E+00
  8.40000000E+02  6.20000000E+01  0.00000000E+00
  8.50000000E+02  6.20000000E+01  0.00000000E+00
  8.60000000E+02  6.20000000E+01  0.00000000E+00
  8.70000000E+02  6.20000000E+01  0.00000000E+00
  8.80000000E+02  6.20000000E+01  0.00000000E+00
  8.90000000E+02  6.20000000E+01  0.00000000E+00
  9.00000000E+02  6.20000000E+01  0.00000000E+00
  9.10000000E+02  6.20000000E+01  0.00000000E+00
  9.20000000E+02  6.20000000E+01  0.00000000E+00
  9.30000000E+02  6.20000000E+01  0.00000000E+00
  9.40000000E+02  6.20000000E+01  0.00000000E+00
  9.50000000E+02  6.20000000E+01  0.00000000E+00
  9.60000000E+02  6.20000000E+01  0.00000000E+00
  9.70000000E+02  6.20000000E+01  0.00000000E+00
  9.80000000E+02  6.20000000E+01  0.00000000E+00
  9.90000000E+02  6.20000000E+01  0.00000000E+00
  1.00000000E+03  6.20000000E+01  0.00000000E+00
  0.00000000E+00  6.40000000E+01  0.00000000E+00
  1.00000000E+01  6.40000000E+01  0.00000000E+00
  2.00000000E+01  6.40000000E+01  0.00000000E+00
  3.00000000E+01  6.40000000E+01  0.00000000E+00
  4.00000000E+01  6.40000000E+01  0.00000000E+00
  5.00000000E+01  6.40000000E+01  0.00000000E+00
  6.00000000E+01  6.40000000E+01  0.00000000E+00
  7.00000000E+01  6.40000000E+01  0.00000000E+00
  8.00000000E+01  6.40000000E+01  0.00000000E+00
  9.00000000E+01  6.40000000E+01  0.00000000E+00
  1.00000000E+02  6.40000000E+01  0.00000000E+00
  1.10000000E+02  6.40000000E+01  0.00000000E+00
  1.20000000E+02  6.40000000E+01  0.00000000E+00
  1.30000000E+02  6.40000000E+01  0.00000000E+00
  1.40000000E+02  6.40000000E+01  0.00000000E+00
  1.50000000E+02  6.40000000E+01  0.00000000E+00
  1.60000000E+02  6.40000000E+01  0.00000000E+00
  1.70000000E+02  6.40000000E+01  0.00000000E+00
  1.80000000E+02  6.40000000E+01  0.00000000E+00
  1.90000000E+02  6.40000000E+01  0.00000000E+00
  2.00000000E+02  6.40000000E+01  0.00000000E+00
  2.10000000E+02  6.40000000E+01  0.00000000E+00
  2.20000000E+02  6.40000000E+01  0.00000000E+00
  2.30000000E+02  6.40000000E+01  0.00000000E+00
  2.40000000E+02  6.40000000E+01  0.00000000E+00
  2.50000000E+02  6.40000000E+01  0.00000000E+00
  2.60000000E+02  6.40000000E+01  0.00000000E+00
  2.70000000E+02  6.40000000E+01  0.00000000E+00
  2.80000000E+02  6.40000000E+01  0.00000000E+00
  2.90000000E+02  6.40000000E+01  0.00000000E+00
  3.00000000E+02  6.40000000E+01  0.00000000E+00
  3.10000000E+02  6.40000000E+01  0.00000000E+00
  3.20000000E+02  6.40000000E+01  0.00000000E+00
  3.30000000E+02  6.40000000E+01  0.00000000E+00
  3.40000000E+02  6.40000000E+01  0.00000000E+00
  3.50000000E+02  6.40000000E+01  0.00000000E+00
  3.60000000E+02  6.40000000E+01  0.00000000E+00
  3.70000000E+02  6.40000000E+01  0.00000000E+00
  3.80000000E+02  6.40000000E+01  0.00000000E+00
  3.90000000E+02  6.40000000E+01  0.00000000E+00
  4.00000000E+02  6.40000000E+01  0.00000000E+00
  4.10000000E+02  6.40000000E+01  0.00000000E+00
  4.20000000E+02  6.40000000E+01  0.00000000E+00
  4.30000000E+02  6.40000000E+01  0.00000000E+00
  4.40000000E+02  6.40000000E+01  0.00000000E+00
  4.50000000E+02  6.40000000E+01  0.00000000E+00
  4.60000000E+02  6.40000000E+01  0.00000000E+00
  4.70000000E+02  6.40000000E+01  0.00000000E+00
  4.80000000E+02  6.40000000E+01  0.00000000E+00
  4.90000000E+02  6.40000000E+01  0.00000000E+00
  5.00000000E+02  6.40000000E+01  0.00000000E+00
  5.10000000E+02  6.40000000E+01  0.00000000E+00
  5.20000000E+02  6.40000000E+01  0.00000000E+00
  5.30000000E+02  6.40000000E+01  0.00000000E+00
  5.40000000E+02  6.40000000E+01  0.00000000E+00
  5.50000000E+02  6.40000000E+01  0.00000000E+00
  5.60000000E+02  6.40000000E+01  0.00000000E+00
  5.70000000E+02  6.40000000E+01  0.00000000E+00
  5.80000000E+02  6.40000000E+01  0.00000000E+00
  5.90000000E+02  6.40000000E+01  0.00000000E+00
  6.00000000E+02  6.40000000E+01  0.00000000E+00
  6.10000000E+02  6.40000000E+01  0.00000000E+00
  6.20000000E+02  6.40000000E+01  0.00000000E+00
  6.30000000E+02  6.40000000E+01  0.00000000E+00
  6.40000000E+02  6.40000000E+01  0.00000000E+00
  6.50000000E+02  6.40000000E+01  0.00000000E+00
  6.60000000E+02  6.40000000E+01  0.00000000E+00
  6.70000000E+02  6.40000000E+01  0.00000000E+00
  6.80000000E+02  6.40000000E+01  0.00000000E+00
  6.90000000E+02  6.40000000E+01  0.00000000E+00
  7.00000000E+02  6.40000000E+01  0.00000000E+00
  7.10000000E+02  6.40000000E+01  0.00000000E+00
  7.20000000E+02  6.40000000E+01  0.00000000E+00
  7.30000000E+02  6.40000000E+01  0.00000000E+00
  7.40000000E+02  6.40000000E+01  0.00000000E+00
  7.50000000E+02  6.40000000E+01  0.00000000E+00
  7.60000000E+02  6.40000000E+01  0.00000000E+00
  7.70000000E+02  6.40000000E+01  0.00000000E+00
  7.80000000E+02  6.40000000E+01  0.00000000E+00
  7.90000000E+02  6.40000000E+01  0.00000000E+00
  8.00000000E+02  6.40000000E+01  0.00000000E+00
  8.10000000E+02  6.40000000E+01  0.00000000E+00
  8.20000000E+02  6.40000000E+01  0.00000000E+00
  8.30000000E+02  6.40000000E+01  0.00000000E+00
  8.40000000E+02  6.40000000E+01  0.00000000E+00
  8.50000000E+02  6.40000000E+01  0.00000000E+00
  8.60000000E+02  6.40000000E+01  0.00000000E+00
  8.70000000E+02  6.40000000E+01  0.00000000E+00
  8.80000000E+02  6.40000000E+01  0.00000000E+00
  8.90000000E+02  6.40000000E+01  0.00000000E+00
  9.00000000E+02  6.40000000E+01  0.00000000E+00
  9.10000000E+02  6.40000000E+01  0.00000000E+00
  9.20000000E+02  6.40000000E+01  0.00000000E+00
  9.30000000E+02  6.40000000E+01  0.00000000E+00
  9.40000000E+02  6.40000000E+01  0.00000000E+00
  9.50000000E+02  6.40000000E+01  0.00000000E+00
  9.60000000E+02  6.40000000E+01  0.00000000E+00
  9.70000000E+02  6.40000000E+01  0.00000000E+00
  9.80000000E+02  6.40000000E+01  0.00000000E+00
  9.90000000E+02  6.40000000E+01  0.00000000E+00
  1.00000000E+03  6.40000000E+01  0.00000000E+00
  0.00000000E+00  6.60000000E+01  0.00000000E+00
  1.00000000E+01  6.60000000E+01  0.00000000E+00
  2.00000000E+01  6.60000000E+01  0.00000000E+00
  3.00000000E+01  6.60000000E+01  0.00000000E+00
  4.00000000E+01  6.60000000E+01  0.00000000E+00
  5.00000000E+01  6.60000000E+01  0.00000000E+00
  6.00000000E+01  6.60000000E+01  0.00000000E+00
  7.00000000E+01  6.60000000E+01  0.00000000E+00
  8.00000000E+01  6.60000000E+01  0.00000000E+00
  9.00000000E+01  6.60000000E+01  0.00000000E+00
  1.00000000E+02  6.60000000E+01  0.00000000E+00
  1.10000000E+02  6.60000000E+01  0.00000000E+00
  1.20000000E+02  6.60000000E+01  0.00000000E+00
  1.30000000E+02  6.60000000E+01  0.00000000E+00
  1.40000000E+02  6.60000000E+01  0.00000000E+00
  1.50000000E+02  6.60000000E+01  0.00000000E+00
  1.60000000E+02  6.60000000E+01  0.00000000E+00
  1.70000000E+02  6.60000000E+01  0.00000000E+00
  1.80000000E+02  6.60000000E+01  0.00000000E+00
  1.90000000E+02  6.60000000E+01  0.00000000E+00
  2.00000000E+02  6.60000000E+01  0.00000000E+00
  2.10000000E+02  6.60000000E+01  0.00000000E+00
  2.20000000E+02  6.60000000E+01  0.00000000E+00
  2.30000000E+02  6.60000000E+01  0.00000000E+00
  2.40000000E+02  6.60000000E+01  0.00000000E+00
  2.50000000E+02  6.60000000E+01  0.00000000E+00
  2.60000000E+02  6.60000000E+01  0.00000000E+00
  2.70000000E+02  6.60000000E+01  0.00000000E+00
  2.80000000E+02  6.60000000E+01  0.00000000E+00
  2.90000000E+02  6.60000000E+01  0.00000000E+00
  3.00000000E+02  6.60000000E+01  0.00000000E+00
  3.10000000E+02  6.60000000E+01  0.00000000E+00
  3.20000000E+02  6.60000000E+01  0.00000000E+00
  3.30000000E+02  6.60000000E+01  0.00000000E+00
  3.40000000E+02  6.60000000E+01  0.00000000E+00
  3.50000000E+02  6.60000000E+01  0.00000000E+00
  3.60000000E+02  6.60000000E+01  0.00000000E+00
  3.70000000E+02  6.60000000E+01  0.00000000E+00
  3.80000000E+02  6.60000000E+01  0.00000000E+00
  3.90000000E+02  6.60000000E+01  0.00000000E+00
  4.00000000E+02  6.60000000E+01  0.00000000E+00
  4.10000000E+02  6.60000000E+01  0.00000000E+00
  4.20000000E+02  6.60000000E+01  0.00000000E+00
  4.30000000E+02  6.60000000E+01  0.00000000E+00
  4.40000000E+02  6.60000000E+01  0.00000000E+00
  4.50000000E+02  6.60000000E+01  0.00000000E+00
  4.60000000E+02  6.60000000E+01  0.00000000E+00
  4.70000000E+02  6.60000000E+01  0.00000000E+00
  4.80000000E+02  6.60000000E+01  0.00000000E+00
  4.90000000E+02  6.60000000E+01  0.00000000E+00
  5.00000000E+02  6.60000000E+01  0.00000000E+00
  5.10000000E+02  6.60000000E+01  0.00000000E+00
  5.20000000E+02  6.60000000E+01  0.00000000E+00
  5.30000000E+02  6.60000000E+01  0.00000000E+00
  5.40000000E+02  6.60000000E+01  0.00000000E+00
  5.50000000E+02  6.60000000E+01  0.00000000E+00
  5.60000000E+02  6.60000000E+01  0.00000000E+00
  5.70000000E+02  6.60000000E+01  0.00000000E+00
  5.80000000E+02  6.60000000E+01  0.00000000E+00
  5.90000000E+02  6.60000000E+01  0.00000000E+00
  6.00000000E+02  6.60000000E+01  0.00000000E+00
  6.10000000E+02  6.60000000E+01  0.00000000E+00
  6.20000000E+02  6.60000000E+01  0.00000000E+00
  6.30000000E+02  6.60000000E+01  0.00000000E+00
  6.40000000E+02  6.60000000E+01  0.00000000E+00
  6.50000000E+02  6.60000000E+01  0.00000000E+00
  6.60000000E+02  6.60000000E+01  0.00000000E+00
  6.70000000E+02  6.60000000E+01  0.00000000E+00
  6.80000000E+02  6.60000000E+01  0.00000000E+00
  6.90000000E+02  6.60000000E+01  0.00000000E+00
  7.00000000E+02  6.60000000E+01  0.00000000E+00
  7.10000000E+02  6.60000000E+01  0.00000000E+00
  7.20000000E+02  6.60000000E+01  0.00000000E+00
  7.30000000E+02  6.60000000E+01  0.00000000E+00
  7.40000000E+02  6.60000000E+01  0.00000000E+00
  7.50000000E+02  6.60000000E+01  0.00000000E+00
  7.60000000E+02  6.60000000E+01  0.00000000E+00
  7.70000000E+02  6.60000000E+01  0.00000000E+00
  7.80000000E+02  6.60000000E+01  0.00000000E+00
  7.90000000E+02  6.60000000E+01  0.00000000E+00
  8.00000000E+02  6.60000000E+01  0.00000000E+00
  8.10000000E+02  6.60000000E+01  0.00000000E+00
  8.20000000E+02  6.60000000E+01  0.00000000E+00
  8.30000000E+02  6.60000000E+01  0.00000000E+00
  8.40000000E+02  6.60000000E+01  0.00000000E+00
  8.50000000E+02  6.60000000E+01  0.00000000E+00
  8.60000000E+02  6.60000000E+01  0.00000000E+00
  8.70000000E+02  6.60000000E+01  0.00000000E+00
  8.80000000E+02  6.60000000E+01  0.00000000E+00
  8.90000000E+02  6.60000000E+01  0.00000000E+00
  9.00000000E+02  6.60000000E+01  0.00000000E+00
  9.10000000E+02  6.60000000E+01  0.00000000E+00
  9.20000000E+02  6.60000000E+01  0.00000000E+00
  9.30000000E+02  6.60000000E+01  0.00000000E+00
  9.40000000E+02  6.60000000E+01  0.00000000E+00
  9.50000000E+02  6.60000000E+01  0.00000000E+00
  9.60000000E+02  6.60000000E+01  0.00000000E+00
  9.70000000E+02  6.60000000E+01  0.00000000E+00
  9.80000000E+02  6.60000000E+01  0.00000000E+00
  9.90000000E+02  6.60000000E+01  0.00000000E+00
  1.00000000E+03  6.60000000E+01  0.00000000E+00
  0.00000000E+00  6.80000000E+01  0.00000000E+00
  1.00000000E+01  6.80000000E+01  0.00000000E+00
  2.00000000E+01  6.80000000E+01  0.00000000E+00
  3.00000000E+01  6.80000000E+01  0.00000000E+00
  4.00000000E+01  6.80000000E+01  0.00000000E+00
  5.00000000E+01  6.80000000E+01  0.00000000E+00
  6.00000000E+01  6.80000000E+01  0.00000000E+00
  7.00000000E+01  6.80000000E+01  0.00000000E+00
  8.00000000E+01  6.80000000E+01  0.00000000E+00
  9.00000000E+01  6.80000000E+01  0.00000000E+00
  1.00000000E+02  6.80000000E+01  0.00000000E+00
  1.10000000E+02  6.80000000E+01  0.00000000E+00
  1.20000000E+02  6.80000000E+01  0.00000000E+00
  1.30000000E+02  6.80000000E+01  0.00000000E+00
  1.40000000E+02  6.80000000E+01  0.00000000E+00
  1.50000000E+02  6.80000000E+01  0.00000000E+00
  1.60000000E+02  6.80000000E+01  0.00000000E+00
  1.70000000E+02  6.80000000E+01  0.00000000E+00
  1.80000000E+02  6.80000000E+01  0.00000000E+00
  1.90000000E+02  6.80000000E+01  0.00000000E+00
  2.00000000E+02  6.80000000E+01  0.00000000E+00
  2.10000000E+02  6.80000000E+01  0.00000000E+00
  2.20000000E+02  6.80000000E+01  0.00000000E+00
  2.30000000E+02  6.80000000E+01  0.00000000E+00
  2.40000000E+02  6.80000000E+01  0.00000000E+00
  2.50000000E+02  6.80000000E+01  0.00000000E+00
  2.60000000E+02  6.80000000E+01  0.00000000E+00
  2.70000000E+02  6.80000000E+01  0.00000000E+00
  2.80000000E+02  6.80000000E+01  0.00000000E+00
  2.90000000E+02  6.80000000E+01  0.00000000E+00
  3.00000000E+02  6.80000000E+01  0.00000000E+00
  3.10000000E+02  6.80000000E+01  0.00000000E+00
  3.20000000E+02  6.80000000E+01  0.00000000E+00
  3.30000000E+02  6.80000000E+01  0.00000000E+00
  3.40000000E+02  6.80000000E+01  0.00000000E+00
  3.50000000E+02  6.80000000E+01  0.00000000E+00
  3.60000000E+02  6.80000000E+01  0.00000000E+00
  3.70000000E+02  6.80000000E+01  0.00000000E+00
  3.80000000E+02  6.80000000E+01  0.00000000E+00
  3.90000000E+02  6.80000000E+01  0.00000000E+00
  4.00000000E+02  6.80000000E+01  0.00000000E+00
  4.10000000E+02  6.80000000E+01  0.00000000E+00
  4.20000000E+02  6.80000000E+01  0.00000000E+00
  4.30000000E+02  6.80000000E+01  0.00000000E+00
  4.40000000E+02  6.80000000E+01  0.00000000E+00
  4.50000000E+02  6.80000000E+01  0.00000000E+00
  4.60000000E+02  6.80000000E+01  0.00000000E+00
  4.70000000E+02  6.80000000E+01  0.00000000E+00
  4.80000000E+02  6.80000000E+01  0.00000000E+00
  4.90000000E+02  6.80000000E+01  0.00000000E+00
  5.00000000E+02  6.80000000E+01  0.00000000E+00
  5.10000000E+02  6.80000000E+01  0.00000000E+00
  5.20000000E+02  6.80000000E+01  0.00000000E+00
  5.30000000E+02  6.80000000E+01  0.00000000E+00
  5.40000000E+02  6.80000000E+01  0.00000000E+00
  5.50000000E+02  6.80000000E+01  0.00000000E+00
  5.60000000E+02  6.80000000E+01  0.00000000E+00
  5.70000000E+02  6.80000000E+01  0.00000000E+00
  5.80000000E+02  6.80000000E+01  0.00000000E+00
  5.90000000E+02  6.80000000E+01  0.00000000E+00
  6.00000000E+02  6.80000000E+01  0.00000000E+00
  6.10000000E+02  6.80000000E+01  0.00000000E+00
  6.20000000E+02  6.80000000E+01  0.00000000E+00
  6.30000000E+02  6.80000000E+01  0.00000000E+00
  6.40000000E+02  6.80000000E+01  0.00000000E+00
  6.50000000E+02  6.80000000E+01  0.00000000E+00
  6.60000000E+02  6.80000000E+01  0.00000000E+00
  6.70000000E+02  6.80000000E+01  0.00000000E+00
  6.80000000E+02  6.80000000E+01  0.00000000E+00
  6.90000000E+02  6.80000000E+01  0.00000000E+00
  7.00000000E+02  6.80000000E+01  0.00000000E+00
  7.10000000E+02  6.80000000E+01  0.00000000E+00
  7.20000000E+02  6.80000000E+01  0.00000000E+00
  7.30000000E+02  6.80000000E+01  0.00000000E+00
  7.40000000E+02  6.80000000E+01  0.00000000E+00
  7.50000000E+02  6.80000000E+01  0.00000000E+00
  7.60000000E+02  6.80000000E+01  0.00000000E+00
  7.70000000E+02  6.80000000E+01  0.00000000E+00
  7.80000000E+02  6.80000000E+01  0.00000000E+00
  7.90000000E+02  6.80000000E+01  0.00000000E+00
  8.00000000E+02  6.80000000E+01  0.00000000E+00
  8.10000000E+02  6.80000000E+01  0.00000000E+00
  8.20000000E+02  6.80000000E+01  0.00000000E+00
  8.30000000E+02  6.80000000E+01  0.00000000E+00
  8.40000000E+02  6.80000000E+01  0.00000000E+00
  8.50000000E+02  6.80000000E+01  0.00000000E+00
  8.60000000E+02  6.80000000E+01  0.00000000E+00
  8.70000000E+02  6.80000000E+01  0.00000000E+00
  8.80000000E+02  6.80000000E+01  0.00000000E+00
  8.90000000E+02  6.80000000E+01  0.00000000E+00
  9.00000000E+02  6.80000000E+01  0.00000000E+00
  9.10000000E+02  6.80000000E+01  0.00000000E+00
  9.20000000E+02  6.80000000E+01  0.00000000E+00
  9.30000000E+02  6.80000000E+01  0.00000000E+00
  9.40000000E+02  6.80000000E+01  0.00000000E+00
  9.50000000E+02  6.80000000E+01  0.00000000E+00
  9.60000000E+02  6.80000000E+01  0.00000000E+00
  9.70000000E+02  6.80000000E+01  0.00000000E+00
  9.80000000E+02  6.80000000E+01  0.00000000E+00
  9.90000000E+02  6.80000000E+01  0.00000000E+00
  1.00000000E+03  6.80000000E+01  0.00000000E+00
  0.00000000E+00  7.00000000E+01  0.00000000E+00
  1.00000000E+01  7.00000000E+01  0.00000000E+00
  2.00000000E+01  7.00000000E+01  0.00000000E+00
  3.00000000E+01  7.00000000E+01  0.00000000E+00
  4.00000000E+01  7.00000000E+01  0.00000000E+00
  5.00000000E+01  7.00000000E+01  0.00000000E+00
  6.00000000E+01  7.00000000E+01  0.00000000E+00
  7.00000000E+01  7.00000000E+01  0.00000000E+00
  8.00000000E+01  7.00000000E+01  0.00000000E+00
  9.00000000E+01  7.00000000E+01  0.00000000E+00
  1.00000000E+02  7.00000000E+01  0.00000000E+00
  1.10000000E+02  7.00000000E+01  0.00000000E+00
  1.20000000E+02  7.00000000E+01  0.00000000E+00
  1.30000000E+02  7.00000000E+01  0.00000000E+00
  1.40000000E+02  7.00000000E+01  0.00000000E+00
  1.50000000E+02  7.00000000E+01  0.00000000E+00
  1.60000000E+02  7.00000000E+01  0.00000000E+00
  1.70000000E+02  7.00000000E+01  0.00000000E+00
  1.80000000E+02  7.00000000E+01  0.00000000E+00
  1.90000000E+02  7.00000000E+01  0.00000000E+00
  2.00000000E+02  7.00000000E+01  0.00000000E+00
  2.10000000E+02  7.00000000E+01  0.00000000E+00
  2.20000000E+02  7.00000000E+01  0.00000000E+00
  2.30000000E+02  7.00000000E+01  0.00000000E+00
  2.40000000E+02  7.00000000E+01  0.00000000E+00
  2.50000000E+02  7.00000000E+01  0.00000000E+00
  2.60000000E+02  7.00000000E+01  0.00000000E+00
  2.70000000E+02  7.00000000E+01  0.00000000E+00
  2.80000000E+02  7.00000000E+01  0.00000000E+00
  2.90000000E+02  7.00000000E+01  0.00000000E+00
  3.00000000E+02  7.00000000E+01  0.00000000E+00
  3.10000000E+02  7.00000000E+01  0.00000000E+00
  3.20000000E+02  7.00000000E+01  0.00000000E+00
  3.30000000E+02  7.00000000E+01  0.00000000E+00
  3.40000000E+02  7.00000000E+01  0.00000000E+00
  3.50000000E+02  7.00000000E+01  0.00000000E+00
  3.60000000E+02  7.00000000E+01  0.00000000E+00
  3.70000000E+02  7.00000000E+01  0.00000000E+00
  3.80000000E+02  7.00000000E+01  0.00000000E+00
  3.90000000E+02  7.00000000E+01  0.00000000E+00
  4.00000000E+02  7.00000000E+01  0.00000000E+00
  4.10000000E+02  7.00000000E+01  0.00000000E+00
  4.20000000E+02  7.00000000E+01  0.00000000E+00
  4.30000000E+02  7.00000000E+01  0.00000000E+00
  4.40000000E+02  7.00000000E+01  0.00000000E+00
  4.50000000E+02  7.00000000E+01  0.00000000E+00
  4.60000000E+02  7.00000000E+01  0.00000000E+00
  4.70000000E+02  7.00000000E+01  0.00000000E+00
  4.80000000E+02  7.00000000E+01  0.00000000E+00
  4.90000000E+02  7.00000000E+01  0.00000000E+00
  5.00000000E+02  7.00000000E+01  0.00000000E+00
  5.10000000E+02  7.00000000E+01  0.00000000E+00
  5.20000000E+02  7.00000000E+01  0.00000000E+00
  5.30000000E+02  7.00000000E+01  0.00000000E+00
  5.40000000E+02  7.00000000E+01  0.00000000E+00
  5.50000000E+02  7.00000000E+01  0.00000000E+00
  5.60000000E+02  7.00000000E+01  0.00000000E+00
  5.70000000E+02  7.00000000E+01  0.00000000E+00
  5.80000000E+02  7.00000000E+01  0.00000000E+00
  5.90000000E+02  7.00000000E+01  0.00000000E+00
  6.00000000E+02  7.00000000E+01  0.00000000E+00
  6.10000000E+02  7.00000000E+01  0.00000000E+00
  6.20000000E+02  7.00000000E+01  0.00000000E+00
  6.30000000E+02  7.00000000E+01  0.00000000E+00
  6.40000000E+02  7.00000000E+01  0.00000000E+00
  6.50000000E+02  7.00000000E+01  0.00000000E+00
  6.60000000E+02  7.00000000E+01  0.00000000E+00
  6.70000000E+02  7.00000000E+01  0.00000000E+00
  6.80000000E+02  7.00000000E+01  0.00000000E+00
  6.90000000E+02  7.00000000E+01  0.00000000E+00
  7.00000000E+02  7.00000000E+01  0.00000000E+00
  7.10000000E+02  7.00000000E+01  0.00000000E+00
  7.20000000E+02  7.00000000E+01  0.00000000E+00
  7.30000000E+02  7.00000000E+01  0.00000000E+00
  7.40000000E+02  7.00000000E+01  0.00000000E+00
  7.50000000E+02  7.00000000E+01  0.00000000E+00
  7.60000000E+02  7.00000000E+01  0.00000000E+00
  7.70000000E+02  7.00000000E+01  0.00000000E+00
  7.80000000E+02  7.00000000E+01  0.00000000E+00
  7.90000000E+02  7.00000000E+01  0.00000000E+00
  8.00000000E+02  7.00000000E+01  0.00000000E+00
  8.10000000E+02  7.00000000E+01  0.00000000E+00
  8.20000000E+02  7.00000000E+01  0.00000000E+00
  8.30000000E+02  7.00000000E+01  0.00000000E+00
  8.40000000E+02  7.00000000E+01  0.00000000E+00
  8.50000000E+02  7.00000000E+01  0.00000000E+00
  8.60000000E+02  7.00000000E+01  0.00000000E+00
  8.70000000E+02  7.00000000E+01  0.00000000E+00
  8.80000000E+02  7.00000000E+01  0.00000000E+00
  8.90000000E+02  7.00000000E+01  0.00000000E+00
  9.00000000E+02  7.00000000E+01  0.00000000E+00
  9.10000000E+02  7.00000000E+01  0.00000000E+00
  9.20000000E+02  7.00000000E+01  0.00000000E+00
  9.30000000E+02  7.00000000E+01  0.00000000E+00
  9.40000000E+02  7.00000000E+01  0.00000000E+00
  9.50000000E+02  7.00000000E+01  0.00000000E+00
  9.60000000E+02  7.00000000E+01  0.00000000E+00
  9.70000000E+02  7.00000000E+01  0.00000000E+00
  9.80000000E+02  7.00000000E+01  0.00000000E+00
  9.90000000E+02  7.00000000E+01  0.00000000E+00
  1.00000000E+03  7.00000000E+01  0.00000000E+00
  0.00000000E+00  7.20000000E+01  0.00000000E+00
  1.00000000E+01  7.20000000E+01  0.00000000E+00
  2.00000000E+01  7.20000000E+01  0.00000000E+00
  3.00000000E+01  7.20000000E+01  0.00000000E+00
  4.00000000E+01  7.20000000E+01  0.00000000E+00
  5.00000000E+01  7.20000000E+01  0.00000000E+00
  6.00000000E+01  7.20000000E+01  0.00000000E+00
  7.00000000E+01  7.20000000E+01  0.00000000E+00
  8.00000000E+01  7.20000000E+01  0.00000000E+00
  9.00000000E+01  7.20000000E+01  0.00000000E+00
  1.00000000E+02  7.20000000E+01  0.00000000E+00
  1.10000000E+02  7.20000000E+01  0.00000000E+00
  1.20000000E+02  7.20000000E+01  0.00000000E+00
  1.30000000E+02  7.20000000E+01  0.00000000E+00
  1.40000000E+02  7.20000000E+01  0.00000000E+00
  1.50000000E+02  7.20000000E+01  0.00000000E+00
  1.60000000E+02  7.20000000E+01  0.00000000E+00
  1.70000000E+02  7.20000000E+01  0.00000000E+00
  1.80000000E+02  7.20000000E+01  0.00000000E+00
  1.90000000E+02  7.20000000E+01  0.00000000E+00
  2.00000000E+02  7.20000000E+01  0.00000000E+00
  2.10000000E+02  7.20000000E+01  0.00000000E+00
  2.20000000E+02  7.20000000E+01  0.00000000E+00
  2.30000000E+02  7.20000000E+01  0.00000000E+00
  2.40000000E+02  7.20000000E+01  0.00000000E+00
  2.50000000E+02  7.20000000E+01  0.00000000E+00
  2.60000000E+02  7.20000000E+01  0.00000000E+00
  2.70000000E+02  7.20000000E+01  0.00000000E+00
  2.80000000E+02  7.20000000E+01  0.00000000E+00
  2.90000000E+02  7.20000000E+01  0.00000000E+00
  3.00000000E+02  7.20000000E+01  0.00000000E+00
  3.10000000E+02  7.20000000E+01  0.00000000E+00
  3.20000000E+02  7.20000000E+01  0.00000000E+00
  3.30000000E+02  7.20000000E+01  0.00000000E+00
  3.40000000E+02  7.20000000E+01  0.00000000E+00
  3.50000000E+02  7.20000000E+01  0.00000000E+00
  3.60000000E+02  7.20000000E+01  0.00000000E+00
  3.70000000E+02  7.20000000E+01  0.00000000E+00
  3.80000000E+02  7.20000000E+01  0.00000000E+00
  3.90000000E+02  7.20000000E+01  0.00000000E+00
  4.00000000E+02  7.20000000E+01  0.00000000E+00
  4.10000000E+02  7.20000000E+01  0.00000000E+00
  4.20000000E+02  7.20000000E+01  0.00000000E+00
  4.30000000E+02  7.20000000E+01  0.00000000E+00
  4.40000000E+02  7.20000000E+01  0.00000000E+00
  4.50000000E+02  7.20000000E+01  0.00000000E+00
  4.60000000E+02  7.20000000E+01  0.00000000E+00
  4.70000000E+02  7.20000000E+01  0.00000000E+00
  4.80000000E+02  7.20000000E+01  0.00000000E+00
  4.90000000E+02  7.20000000E+01  0.00000000E+00
  5.00000000E+02  7.20000000E+01  0.00000000E+00
  5.10000000E+02  7.20000000E+01  0.00000000E+00
  5.20000000E+02  7.20000000E+01  0.00000000E+00
  5.30000000E+02  7.20000000E+01  0.00000000E+00
  5.40000000E+02  7.20000000E+01  0.00000000E+00
  5.50000000E+02  7.20000000E+01  0.00000000E+00
  5.60000000E+02  7.20000000E+01  0.00000000E+00
  5.70000000E+02  7.20000000E+01  0.00000000E+00
  5.80000000E+02  7.20000000E+01  0.00000000E+00
  5.90000000E+02  7.20000000E+01  0.00000000E+00
  6.00000000E+02  7.20000000E+01  0.00000000E+00
  6.10000000E+02  7.20000000E+01  0.00000000E+00
  6.20000000E+02  7.20000000E+01  0.00000000E+00
  6.30000000E+02  7.20000000E+01  0.00000000E+00
  6.40000000E+02  7.20000000E+01  0.00000000E+00
  6.50000000E+02  7.20000000E+01  0.00000000E+00
  6.60000000E+02  7.20000000E+01  0.00000000E+00
  6.70000000E+02  7.20000000E+01  0.00000000E+00
  6.80000000E+02  7.20000000E+01  0.00000000E+00
  6.90000000E+02  7.20000000E+01  0.00000000E+00
  7.00000000E+02  7.20000000E+01  0.00000000E+00
  7.10000000E+02  7.20000000E+01  0.00000000E+00
  7.20000000E+02  7.20000000E+01  0.00000000E+00
  7.30000000E+02  7.20000000E+01  0.00000000E+00
  7.40000000E+02  7.20000000E+01  0.00000000E+00
  7.50000000E+02  7.20000000E+01  0.00000000E+00
  7.60000000E+02  7.20000000E+01  0.00000000E+00
  7.70000000E+02  7.20000000E+01  0.00000000E+00
  7.80000000E+02  7.20000000E+01  0.00000000E+00
  7.90000000E+02  7.20000000E+01  0.00000000E+00
  8.00000000E+02  7.20000000E+01  0.00000000E+00
  8.10000000E+02  7.20000000E+01  0.00000000E+00
  8.20000000E+02  7.20000000E+01  0.00000000E+00
  8.30000000E+02  7.20000000E+01  0.00000000E+00
  8.40000000E+02  7.20000000E+01  0.00000000E+00
  8.50000000E+02  7.20000000E+01  0.00000000E+00
  8.60000000E+02  7.20000000E+01  0.00000000E+00
  8.70000000E+02  7.20000000E+01  0.00000000E+00
  8.80000000E+02  7.20000000E+01  0.00000000E+00
  8.90000000E+02  7.20000000E+01  0.00000000E+00
  9.00000000E+02  7.20000000E+01  0.00000000E+00
  9.10000000E+02  7.20000000E+01  0.00000000E+00
  9.20000000E+02  7.20000000E+01  0.00000000E+00
  9.30000000E+02  7.20000000E+01  0.00000000E+00
  9.40000000E+02  7.20000000E+01  0.00000000E+00
  9.50000000E+02  7.20000000E+01  0.00000000E+00
  9.60000000E+02  7.20000000E+01  0.00000000E+00
  9.70000000E+02  7.20000000E+01  0.00000000E+00
  9.80000000E+02  7.20000000E+01  0.00000000E+00
  9.90000000E+02  7.20000000E+01  0.00000000E+00
  1.00000000E+03  7.20000000E+01  0.00000000E+00
  0.00000000E+00  7.40000000E+01  0.00000000E+00
  1.00000000E+01  7.40000000E+01  0.00000000E+00
  2.00000000E+01  7.40000000E+01  0.00000000E+00
  3.00000000E+01  7.40000000E+01  0.00000000E+00
  4.00000000E+01  7.40000000E+01  0.00000000E+00
  5.00000000E+01  7.40000000E+01  0.00000000E+00
  6.00000000E+01  7.40000000E+01  0.00000000E+00
  7.00000000E+01  7.40000000E+01  0.00000000E+00
  8.00000000E+01  7.40000000E+01  0.00000000E+00
  9.00000000E+01  7.40000000E+01  0.00000000E+00
  1.00000000E+02  7.40000000E+01  0.00000000E+00
  1.10000000E+02  7.40000000E+01  0.00000000E+00
  1.20000000E+02  7.40000000E+01  0.00000000E+00
  1.30000000E+02  7.40000000E+01  0.00000000E+00
  1.40000000E+02  7.40000000E+01  0.00000000E+00
  1.50000000E+02  7.40000000E+01  0.00000000E+00
  1.60000000E+02  7.40000000E+01  0.00000000E+00
  1.70000000E+02  7.40000000E+01  0.00000000E+00
  1.80000000E+02  7.40000000E+01  0.00000000E+00
  1.90000000E+02  7.40000000E+01  0.00000000E+00
  2.00000000E+02  7.40000000E+01  0.00000000E+00
  2.10000000E+02  7.40000000E+01  0.00000000E+00
  2.20000000E+02  7.40000000E+01  0.00000000E+00
  2.30000000E+02  7.40000000E+01  0.00000000E+00
  2.40000000E+02  7.40000000E+01  0.00000000E+00
  2.50000000E+02  7.40000000E+01  0.00000000E+00
  2.60000000E+02  7.40000000E+01  0.00000000E+00
  2.70000000E+02  7.40000000E+01  0.00000000E+00
  2.80000000E+02  7.40000000E+01  0.00000000E+00
  2.90000000E+02  7.40000000E+01  0.00000000E+00
  3.00000000E+02  7.40000000E+01  0.00000000E+00
  3.10000000E+02  7.40000000E+01  0.00000000E+00
  3.20000000E+02  7.40000000E+01  0.00000000E+00
  3.30000000E+02  7.40000000E+01  0.00000000E+00
  3.40000000E+02  7.40000000E+01  0.00000000E+00
  3.50000000E+02  7.40000000E+01  0.00000000E+00
  3.60000000E+02  7.40000000E+01  0.00000000E+00
  3.70000000E+02  7.40000000E+01  0.00000000E+00
  3.80000000E+02  7.40000000E+01  0.00000000E+00
  3.90000000E+02  7.40000000E+01  0.00000000E+00
  4.00000000E+02  7.40000000E+01  0.00000000E+00
  4.10000000E+02  7.40000000E+01  0.00000000E+00
  4.20000000E+02  7.40000000E+01  0.00000000E+00
  4.30000000E+02  7.40000000E+01  0.00000000E+00
  4.40000000E+02  7.40000000E+01  0.00000000E+00
  4.50000000E+02  7.40000000E+01  0.00000000E+00
  4.60000000E+02  7.40000000E+01  0.00000000E+00
  4.70000000E+02  7.40000000E+01  0.00000000E+00
  4.80000000E+02  7.40000000E+01  0.00000000E+00
  4.90000000E+02  7.40000000E+01  0.00000000E+00
  5.00000000E+02  7.40000000E+01  0.00000000E+00
  5.10000000E+02  7.40000000E+01  0.00000000E+00
  5.20000000E+02  7.40000000E+01  0.00000000E+00
  5.30000000E+02  7.40000000E+01  0.00000000E+00
  5.40000000E+02  7.40000000E+01  0.00000000E+00
  5.50000000E+02  7.40000000E+01  0.00000000E+00
  5.60000000E+02  7.40000000E+01  0.00000000E+00
  5.70000000E+02  7.40000000E+01  0.00000000E+00
  5.80000000E+02  7.40000000E+01  0.00000000E+00
  5.90000000E+02  7.40000000E+01  0.00000000E+00
  6.00000000E+02  7.40000000E+01  0.00000000E+00
  6.10000000E+02  7.40000000E+01  0.00000000E+00
  6.20000000E+02  7.40000000E+01  0.00000000E+00
  6.30000000E+02  7.40000000E+01  0.00000000E+00
  6.40000000E+02  7.40000000E+01  0.00000000E+00
  6.50000000E+02  7.40000000E+01  0.00000000E+00
  6.60000000E+02  7.40000000E+01  0.00000000E+00
  6.70000000E+02  7.40000000E+01  0.00000000E+00
  6.80000000E+02  7.40000000E+01  0.00000000E+00
  6.90000000E+02  7.40000000E+01  0.00000000E+00
  7.00000000E+02  7.40000000E+01  0.00000000E+00
  7.10000000E+02  7.40000000E+01  0.00000000E+00
  7.20000000E+02  7.40000000E+01  0.00000000E+00
  7.30000000E+02  7.40000000E+01  0.00000000E+00
  7.40000000E+02  7.40000000E+01  0.00000000E+00
  7.50000000E+02  7.40000000E+01  0.00000000E+00
  7.60000000E+02  7.40000000E+01  0.00000000E+00
  7.70000000E+02  7.40000000E+01  0.00000000E+00
  7.80000000E+02  7.40000000E+01  0.00000000E+00
  7.90000000E+02  7.40000000E+01  0.00000000E+00
  8.00000000E+02  7.40000000E+01  0.00000000E+00
  8.10000000E+02  7.40000000E+01  0.00000000E+00
  8.20000000E+02  7.40000000E+01  0.00000000E+00
  8.30000000E+02  7.40000000E+01  0.00000000E+00
  8.40000000E+02  7.40000000E+01  0.00000000E+00
  8.50000000E+02  7.40000000E+01  0.00000000E+00
  8.60000000E+02  7.40000000E+01  0.00000000E+00
  8.70000000E+02  7.40000000E+01  0.00000000E+00
  8.80000000E+02  7.40000000E+01  0.00000000E+00
  8.90000000E+02  7.40000000E+01  0.00000000E+00
  9.00000000E+02  7.40000000E+01  0.00000000E+00
  9.10000000E+02  7.40000000E+01  0.00000000E+00
  9.20000000E+02  7.40000000E+01  0.00000000E+00
  9.30000000E+02  7.40000000E+01  0.00000000E+00
  9.40000000E+02  7.40000000E+01  0.00000000E+00
  9.50000000E+02  7.40000000E+01  0.00000000E+00
  9.60000000E+02  7.40000000E+01  0.00000000E+00
  9.70000000E+02  7.40000000E+01  0.00000000E+00
  9.80000000E+02  7.40000000E+01  0.00000000E+00
  9.90000000E+02  7.40000000E+01  0.00000000E+00
  1.00000000E+03  7.40000000E+01  0.00000000E+00
  0.00000000E+00  7.60000000E+01  0.00000000E+00
  1.00000000E+01  7.60000000E+01  0.00000000E+00
  2.00000000E+01  7.60000000E+01  0.00000000E+00
  3.00000000E+01  7.60000000E+01  0.00000000E+00
  4.00000000E+01  7.60000000E+01  0.00000000E+00
  5.00000000E+01  7.60000000E+01  0.00000000E+00
  6.00000000E+01  7.60000000E+01  0.00000000E+00
  7.00000000E+01  7.60000000E+01  0.00000000E+00
  8.00000000E+01  7.60000000E+01  0.00000000E+00
  9.00000000E+01  7.60000000E+01  0.00000000E+00
  1.00000000E+02  7.60000000E+01  0.00000000E+00
  1.10000000E+02  7.60000000E+01  0.00000000E+00
  1.20000000E+02  7.60000000E+01  0.00000000E+00
  1.30000000E+02  7.60000000E+01  0.00000000E+00
  1.40000000E+02  7.60000000E+01  0.00000000E+00
  1.50000000E+02  7.60000000E+01  0.00000000E+00
  1.60000000E+02  7.60000000E+01  0.00000000E+00
  1.70000000E+02  7.60000000E+01  0.00000000E+00
  1.80000000E+02  7.60000000E+01  0.00000000E+00
  1.90000000E+02  7.60000000E+01  0.00000000E+00
  2.00000000E+02  7.60000000E+01  0.00000000E+00
  2.10000000E+02  7.60000000E+01  0.00000000E+00
  2.20000000E+02  7.60000000E+01  0.00000000E+00
  2.30000000E+02  7.60000000E+01  0.00000000E+00
  2.40000000E+02  7.60000000E+01  0.00000000E+00
  2.50000000E+02  7.60000000E+01  0.00000000E+00
  2.60000000E+02  7.60000000E+01  0.00000000E+00
  2.70000000E+02  7.60000000E+01  0.00000000E+00
  2.80000000E+02  7.60000000E+01  0.00000000E+00
  2.90000000E+02  7.60000000E+01  0.00000000E+00
  3.00000000E+02  7.60000000E+01  0.00000000E+00
  3.10000000E+02  7.60000000E+01  0.00000000E+00
  3.20000000E+02  7.60000000E+01  0.00000000E+00
  3.30000000E+02  7.60000000E+01  0.00000000E+00
  3.40000000E+02  7.60000000E+01  0.00000000E+00
  3.50000000E+02  7.60000000E+01  0.00000000E+00
  3.60000000E+02  7.60000000E+01  0.00000000E+00
  3.70000000E+02  7.60000000E+01  0.00000000E+00
  3.80000000E+02  7.60000000E+01  0.00000000E+00
  3.90000000E+02  7.60000000E+01  0.00000000E+00
  4.00000000E+02  7.60000000E+01  0.00000000E+00
  4.10000000E+02  7.60000000E+01  0.00000000E+00
  4.20000000E+02  7.60000000E+01  0.00000000E+00
  4.30000000E+02  7.60000000E+01  0.00000000E+00
  4.40000000E+02  7.60000000E+01  0.00000000E+00
  4.50000000E+02  7.60000000E+01  0.00000000E+00
  4.60000000E+02  7.60000000E+01  0.00000000E+00
  4.70000000E+02  7.60000000E+01  0.00000000E+00
  4.80000000E+02  7.60000000E+01  0.00000000E+00
  4.90000000E+02  7.60000000E+01  0.00000000E+00
  5.00000000E+02  7.60000000E+01  0.00000000E+00
  5.10000000E+02  7.60000000E+01  0.00000000E+00
  5.20000000E+02  7.60000000E+01  0.00000000E+00
  5.30000000E+02  7.60000000E+01  0.00000000E+00
  5.40000000E+02  7.60000000E+01  0.00000000E+00
  5.50000000E+02  7.60000000E+01  0.00000000E+00
  5.60000000E+02  7.60000000E+01  0.00000000E+00
  5.70000000E+02  7.60000000E+01  0.00000000E+00
  5.80000000E+02  7.60000000E+01  0.00000000E+00
  5.90000000E+02  7.60000000E+01  0.00000000E+00
  6.00000000E+02  7.60000000E+01  0.00000000E+00
  6.10000000E+02  7.60000000E+01  0.00000000E+00
  6.20000000E+02  7.60000000E+01  0.00000000E+00
  6.30000000E+02  7.60000000E+01  0.00000000E+00
  6.40000000E+02  7.60000000E+01  0.00000000E+00
  6.50000000E+02  7.60000000E+01  0.00000000E+00
  6.60000000E+02  7.60000000E+01  0.00000000E+00
  6.70000000E+02  7.60000000E+01  0.00000000E+00
  6.80000000E+02  7.60000000E+01  0.00000000E+00
  6.90000000E+02  7.60000000E+01  0.00000000E+00
  7.00000000E+02  7.60000000E+01  0.00000000E+00
  7.10000000E+02  7.60000000E+01  0.00000000E+00
  7.20000000E+02  7.60000000E+01  0.00000000E+00
  7.30000000E+02  7.60000000E+01  0.00000000E+00
  7.40000000E+02  7.60000000E+01  0.00000000E+00
  7.50000000E+02  7.60000000E+01  0.00000000E+00
  7.60000000E+02  7.60000000E+01  0.00000000E+00
  7.70000000E+02  7.60000000E+01  0.00000000E+00
  7.80000000E+02  7.60000000E+01  0.00000000E+00
  7.90000000E+02  7.60000000E+01  0.00000000E+00
  8.00000000E+02  7.60000000E+01  0.00000000E+00
  8.10000000E+02  7.60000000E+01  0.00000000E+00
  8.20000000E+02  7.60000000E+01  0.00000000E+00
  8.30000000E+02  7.60000000E+01  0.00000000E+00
  8.40000000E+02  7.60000000E+01  0.00000000E+00
  8.50000000E+02  7.60000000E+01  0.00000000E+00
  8.60000000E+02  7.60000000E+01  0.00000000E+00
  8.70000000E+02  7.60000000E+01  0.00000000E+00
  8.80000000E+02  7.60000000E+01  0.00000000E+00
  8.90000000E+02  7.60000000E+01  0.00000000E+00
  9.00000000E+02  7.60000000E+01  0.00000000E+00
  9.10000000E+02  7.60000000E+01  0.00000000E+00
  9.20000000E+02  7.60000000E+01  0.00000000E+00
  9.30000000E+02  7.60000000E+01  0.00000000E+00
  9.40000000E+02  7.60000000E+01  0.00000000E+00
  9.50000000E+02  7.60000000E+01  0.00000000E+00
  9.60000000E+02  7.60000000E+01  0.00000000E+00
  9.70000000E+02  7.60000000E+01  0.00000000E+00
  9.80000000E+02  7.60000000E+01  0.00000000E+00
  9.90000000E+02  7.60000000E+01  0.00000000E+00
  1.00000000E+03  7.60000000E+01  0.00000000E+00
  0.00000000E+00  7.80000000E+01  0.00000000E+00
  1.00000000E+01  7.80000000E+01  0.00000000E+00
  2.00000000E+01  7.80000000E+01  0.00000000E+00
  3.00000000E+01  7.80000000E+01  0.00000000E+00
  4.00000000E+01  7.80000000E+01  0.00000000E+00
  5.00000000E+01  7.80000000E+01  0.00000000E+00
  6.00000000E+01  7.80000000E+01  0.00000000E+00
  7.00000000E+01  7.80000000E+01  0.00000000E+00
  8.00000000E+01  7.80000000E+01  0.00000000E+00
  9.00000000E+01  7.80000000E+01  0.00000000E+00
  1.00000000E+02  7.80000000E+01  0.00000000E+00
  1.10000000E+02  7.80000000E+01  0.00000000E+00
  1.20000000E+02  7.80000000E+01  0.00000000E+00
  1.30000000E+02  7.80000000E+01  0.00000000E+00
  1.40000000E+02  7.80000000E+01  0.00000000E+00
  1.50000000E+02  7.80000000E+01  0.00000000E+00
  1.60000000E+02  7.80000000E+01  0.00000000E+00
  1.70000000E+02  7.80000000E+01  0.00000000E+00
  1.80000000E+02  7.80000000E+01  0.00000000E+00
  1.90000000E+02  7.80000000E+01  0.00000000E+00
  2.00000000E+02  7.80000000E+01  0.00000000E+00
  2.10000000E+02  7.80000000E+01  0.00000000E+00
  2.20000000E+02  7.80000000E+01  0.00000000E+00
  2.30000000E+02  7.80000000E+01  0.00000000E+00
  2.40000000E+02  7.80000000E+01  0.00000000E+00
  2.50000000E+02  7.80000000E+01  0.00000000E+00
  2.60000000E+02  7.80000000E+01  0.00000000E+00
  2.70000000E+02  7.80000000E+01  0.00000000E+00
  2.80000000E+02  7.80000000E+01  0.00000000E+00
  2.90000000E+02  7.80000000E+01  0.00000000E+00
  3.00000000E+02  7.80000000E+01  0.00000000E+00
  3.10000000E+02  7.80000000E+01  0.00000000E+00
  3.20000000E+02  7.80000000E+01  0.00000000E+00
  3.30000000E+02  7.80000000E+01  0.00000000E+00
  3.40000000E+02  7.80000000E+01  0.00000000E+00
  3.50000000E+02  7.80000000E+01  0.00000000E+00
  3.60000000E+02  7.80000000E+01  0.00000000E+00
  3.70000000E+02  7.80000000E+01  0.00000000E+00
  3.80000000E+02  7.80000000E+01  0.00000000E+00
  3.90000000E+02  7.80000000E+01  0.00000000E+00
  4.00000000E+02  7.80000000E+01  0.00000000E+00
  4.10000000E+02  7.80000000E+01  0.00000000E+00
  4.20000000E+02  7.80000000E+01  0.00000000E+00
  4.30000000E+02  7.80000000E+01  0.00000000E+00
  4.40000000E+02  7.80000000E+01  0.00000000E+00
  4.50000000E+02  7.80000000E+01  0.00000000E+00
  4.60000000E+02  7.80000000E+01  0.00000000E+00
  4.70000000E+02  7.80000000E+01  0.00000000E+00
  4.80000000E+02  7.80000000E+01  0.00000000E+00
  4.90000000E+02  7.80000000E+01  0.00000000E+00
  5.00000000E+02  7.80000000E+01  0.00000000E+00
  5.10000000E+02  7.80000000E+01  0.00000000E+00
  5.20000000E+02  7.80000000E+01  0.00000000E+00
  5.30000000E+02  7.80000000E+01  0.00000000E+00
  5.40000000E+02  7.80000000E+01  0.00000000E+00
  5.50000000E+02  7.80000000E+01  0.00000000E+00
  5.60000000E+02  7.80000000E+01  0.00000000E+00
  5.70000000E+02  7.80000000E+01  0.00000000E+00
  5.80000000E+02  7.80000000E+01  0.00000000E+00
  5.90000000E+02  7.80000000E+01  0.00000000E+00
  6.00000000E+02  7.80000000E+01  0.00000000E+00
  6.10000000E+02  7.80000000E+01  0.00000000E+00
  6.20000000E+02  7.80000000E+01  0.00000000E+00
  6.30000000E+02  7.80000000E+01  0.00000000E+00
  6.40000000E+02  7.80000000E+01  0.00000000E+00
  6.50000000E+02  7.80000000E+01  0.00000000E+00
  6.60000000E+02  7.80000000E+01  0.00000000E+00
  6.70000000E+02  7.80000000E+01  0.00000000E+00
  6.80000000E+02  7.80000000E+01  0.00000000E+00
  6.90000000E+02  7.80000000E+01  0.00000000E+00
  7.00000000E+02  7.80000000E+01  0.00000000E+00
  7.10000000E+02  7.80000000E+01  0.00000000E+00
  7.20000000E+02  7.80000000E+01  0.00000000E+00
  7.30000000E+02  7.80000000E+01  0.00000000E+00
  7.40000000E+02  7.80000000E+01  0.00000000E+00
  7.50000000E+02  7.80000000E+01  0.00000000E+00
  7.60000000E+02  7.80000000E+01  0.00000000E+00
  7.70000000E+02  7.80000000E+01  0.00000000E+00
  7.80000000E+02  7.80000000E+01  0.00000000E+00
  7.90000000E+02  7.80000000E+01  0.00000000E+00
  8.00000000E+02  7.80000000E+01  0.00000000E+00
  8.10000000E+02  7.80000000E+01  0.00000000E+00
  8.20000000E+02  7.80000000E+01  0.00000000E+00
  8.30000000E+02  7.80000000E+01  0.00000000E+00
  8.40000000E+02  7.80000000E+01  0.00000000E+00
  8.50000000E+02  7.80000000E+01  0.00000000E+00
  8.60000000E+02  7.80000000E+01  0.00000000E+00
  8.70000000E+02  7.80000000E+01  0.00000000E+00
  8.80000000E+02  7.80000000E+01  0.00000000E+00
  8.90000000E+02  7.80000000E+01  0.00000000E+00
  9.00000000E+02  7.80000000E+01  0.00000000E+00
  9.10000000E+02  7.80000000E+01  0.00000000E+00
  9.20000000E+02  7.80000000E+01  0.00000000E+00
  9.30000000E+02  7.80000000E+01  0.00000000E+00
  9.40000000E+02  7.80000000E+01  0.00000000E+00
  9.50000000E+02  7.80000000E+01  0.00000000E+00
  9.60000000E+02  7.80000000E+01  0.00000000E+00
  9.70000000E+02  7.80000000E+01  0.00000000E+00
  9.80000000E+02  7.80000000E+01  0.00000000E+00
  9.90000000E+02  7.80000000E+01  0.00000000E+00
  1.00000000E+03  7.80000000E+01  0.00000000E+00
  0.00000000E+00  8.00000000E+01  0.00000000E+00
  1.00000000E+01  8.00000000E+01  0.00000000E+00
  2.00000000E+01  8.00000000E+01  0.00000000E+00
  3.00000000E+01  8.00000000E+01  0.00000000E+00
  4.00000000E+01  8.00000000E+01  0.00000000E+00
  5.00000000E+01  8.00000000E+01  0.00000000E+00
  6.00000000E+01  8.00000000E+01  0.00000000E+00
  7.00000000E+01  8.00000000E+01  0.00000000E+00
  8.00000000E+01  8.00000000E+01  0.00000000E+00
  9.00000000E+01  8.00000000E+01  0.00000000E+00
  1.00000000E+02  8.00000000E+01  0.00000000E+00
  1.10000000E+02  8.00000000E+01  0.00000000E+00
  1.20000000E+02  8.00000000E+01  0.00000000E+00
  1.30000000E+02  8.00000000E+01  0.00000000E+00
  1.40000000E+02  8.00000000E+01  0.00000000E+00
  1.50000000E+02  8.00000000E+01  0.00000000E+00
  1.60000000E+02  8.00000000E+01  0.00000000E+00
  1.70000000E+02  8.00000000E+01  0.00000000E+00
  1.80000000E+02  8.00000000E+01  0.00000000E+00
  1.90000000E+02  8.00000000E+01  0.00000000E+00
  2.00000000E+02  8.00000000E+01  0.00000000E+00
  2.10000000E+02  8.00000000E+01  0.00000000E+00
  2.20000000E+02  8.00000000E+01  0.00000000E+00
  2.30000000E+02  8.00000000E+01  0.00000000E+00
  2.40000000E+02  8.00000000E+01  0.00000000E+00
  2.50000000E+02  8.00000000E+01  0.00000000E+00
  2.60000000E+02  8.00000000E+01  0.00000000E+00
  2.70000000E+02  8.00000000E+01  0.00000000E+00
  2.80000000E+02  8.00000000E+01  0.00000000E+00
  2.90000000E+02  8.00000000E+01  0.00000000E+00
  3.00000000E+02  8.00000000E+01  0.00000000E+00
  3.10000000E+02  8.00000000E+01  0.00000000E+00
  3.20000000E+02  8.00000000E+01  0.00000000E+00
  3.30000000E+02  8.00000000E+01  0.00000000E+00
  3.40000000E+02  8.00000000E+01  0.00000000E+00
  3.50000000E+02  8.00000000E+01  0.00000000E+00
  3.60000000E+02  8.00000000E+01  0.00000000E+00
  3.70000000E+02  8.00000000E+01  0.00000000E+00
  3.80000000E+02  8.00000000E+01  0.00000000E+00
  3.90000000E+02  8.00000000E+01  0.00000000E+00
  4.00000000E+02  8.00000000E+01  0.00000000E+00
  4.10000000E+02  8.00000000E+01  0.00000000E+00
  4.20000000E+02  8.00000000E+01  0.00000000E+00
  4.30000000E+02  8.00000000E+01  0.00000000E+00
  4.40000000E+02  8.00000000E+01  0.00000000E+00
  4.50000000E+02  8.00000000E+01  0.00000000E+00
  4.60000000E+02  8.00000000E+01  0.00000000E+00
  4.70000000E+02  8.00000000E+01  0.00000000E+00
  4.80000000E+02  8.00000000E+01  0.00000000E+00
  4.90000000E+02  8.00000000E+01  0.00000000E+00
  5.00000000E+02  8.00000000E+01  0.00000000E+00
  5.10000000E+02  8.00000000E+01  0.00000000E+00
  5.20000000E+02  8.00000000E+01  0.00000000E+00
  5.30000000E+02  8.00000000E+01  0.00000000E+00
  5.40000000E+02  8.00000000E+01  0.00000000E+00
  5.50000000E+02  8.00000000E+01  0.00000000E+00
  5.60000000E+02  8.00000000E+01  0.00000000E+00
  5.70000000E+02  8.00000000E+01  0.00000000E+00
  5.80000000E+02  8.00000000E+01  0.00000000E+00
  5.90000000E+02  8.00000000E+01  0.00000000E+00
  6.00000000E+02  8.00000000E+01  0.00000000E+00
  6.10000000E+02  8.00000000E+01  0.00000000E+00
  6.20000000E+02  8.00000000E+01  0.00000000E+00
  6.30000000E+02  8.00000000E+01  0.00000000E+00
  6.40000000E+02  8.00000000E+01  0.00000000E+00
  6.50000000E+02  8.00000000E+01  0.00000000E+00
  6.60000000E+02  8.00000000E+01  0.00000000E+00
  6.70000000E+02  8.00000000E+01  0.00000000E+00
  6.80000000E+02  8.00000000E+01  0.00000000E+00
  6.90000000E+02  8.00000000E+01  0.00000000E+00
  7.00000000E+02  8.00000000E+01  0.00000000E+00
  7.10000000E+02  8.00000000E+01  0.00000000E+00
  7.20000000E+02  8.00000000E+01  0.00000000E+00
  7.30000000E+02  8.00000000E+01  0.00000000E+00
  7.40000000E+02  8.00000000E+01  0.00000000E+00
  7.50000000E+02  8.00000000E+01  0.00000000E+00
  7.60000000E+02  8.00000000E+01  0.00000000E+00
  7.70000000E+02  8.00000000E+01  0.00000000E+00
  7.80000000E+02  8.00000000E+01  0.00000000E+00
  7.90000000E+02  8.00000000E+01  0.00000000E+00
  8.00000000E+02  8.00000000E+01  0.00000000E+00
  8.10000000E+02  8.00000000E+01  0.00000000E+00
  8.20000000E+02  8.00000000E+01  0.00000000E+00
  8.30000000E+02  8.00000000E+01  0.00000000E+00
  8.40000000E+02  8.00000000E+01  0.00000000E+00
  8.50000000E+02  8.00000000E+01  0.00000000E+00
  8.60000000E+02  8.00000000E+01  0.00000000E+00
  8.70000000E+02  8.00000000E+01  0.00000000E+00
  8.80000000E+02  8.00000000E+01  0.00000000E+00
  8.90000000E+02  8.00000000E+01  0.00000000E+00
  9.00000000E+02  8.00000000E+01  0.00000000E+00
  9.10000000E+02  8.00000000E+01  0.00000000E+00
  9.20000000E+02  8.00000000E+01  0.00000000E+00
  9.30000000E+02  8.00000000E+01  0.00000000E+00
  9.40000000E+02  8.00000000E+01  0.00000000E+00
  9.50000000E+02  8.00000000E+01  0.00000000E+00
  9.60000000E+02  8.00000000E+01  0.00000000E+00
  9.70000000E+02  8.00000000E+01  0.00000000E+00
  9.80000000E+02  8.00000000E+01  0.00000000E+00
  9.90000000E+02  8.00000000E+01  0.00000000E+00
  1.00000000E+03  8.00000000E+01  0.00000000E+00
  0.00000000E+00  8.20000000E+01  0.00000000E+00
  1.00000000E+01  8.20000000E+01  0.00000000E+00
  2.00000000E+01  8.20000000E+01  0.00000000E+00
  3.00000000E+01  8.20000000E+01  0.00000000E+00
  4.00000000E+01  8.20000000E+01  0.00000000E+00
  5.00000000E+01  8.20000000E+01  0.00000000E+00
  6.00000000E+01  8.20000000E+01  0.00000000E+00
  7.00000000E+01  8.20000000E+01  0.00000000E+00
  8.00000000E+01  8.20000000E+01  0.00000000E+00
  9.00000000E+01  8.20000000E+01  0.00000000E+00
  1.00000000E+02  8.20000000E+01  0.00000000E+00
  1.10000000E+02  8.20000000E+01  0.00000000E+00
  1.20000000E+02  8.20000000E+01  0.00000000E+00
  1.30000000E+02  8.20000000E+01  0.00000000E+00
  1.40000000E+02  8.20000000E+01  0.00000000E+00
  1.50000000E+02  8.20000000E+01  0.00000000E+00
  1.60000000E+02  8.20000000E+01  0.00000000E+00
  1.70000000E+02  8.20000000E+01  0.00000000E+00
  1.80000000E+02  8.20000000E+01  0.00000000E+00
  1.90000000E+02  8.20000000E+01  0.00000000E+00
  2.00000000E+02  8.20000000E+01  0.00000000E+00
  2.10000000E+02  8.20000000E+01  0.00000000E+00
  2.20000000E+02  8.20000000E+01  0.00000000E+00
  2.30000000E+02  8.20000000E+01  0.00000000E+00
  2.40000000E+02  8.20000000E+01  0.00000000E+00
  2.50000000E+02  8.20000000E+01  0.00000000E+00
  2.60000000E+02  8.20000000E+01  0.00000000E+00
  2.70000000E+02  8.20000000E+01  0.00000000E+00
  2.80000000E+02  8.20000000E+01  0.00000000E+00
  2.90000000E+02  8.20000000E+01  0.00000000E+00
  3.00000000E+02  8.20000000E+01  0.00000000E+00
  3.10000000E+02  8.20000000E+01  0.00000000E+00
  3.20000000E+02  8.20000000E+01  0.00000000E+00
  3.30000000E+02  8.20000000E+01  0.00000000E+00
  3.40000000E+02  8.20000000E+01  0.00000000E+00
  3.50000000E+02  8.20000000E+01  0.00000000E+00
  3.60000000E+02  8.20000000E+01  0.00000000E+00
  3.70000000E+02  8.20000000E+01  0.00000000E+00
  3.80000000E+02  8.20000000E+01  0.00000000E+00
  3.90000000E+02  8.20000000E+01  0.00000000E+00
  4.00000000E+02  8.20000000E+01  0.00000000E+00
  4.10000000E+02  8.20000000E+01  0.00000000E+00
  4.20000000E+02  8.20000000E+01  0.00000000E+00
  4.30000000E+02  8.20000000E+01  0.00000000E+00
  4.40000000E+02  8.20000000E+01  0.00000000E+00
  4.50000000E+02  8.20000000E+01  0.00000000E+00
  4.60000000E+02  8.20000000E+01  0.00000000E+00
  4.70000000E+02  8.20000000E+01  0.00000000E+00
  4.80000000E+02  8.20000000E+01  0.00000000E+00
  4.90000000E+02  8.20000000E+01  0.00000000E+00
  5.00000000E+02  8.20000000E+01  0.00000000E+00
  5.10000000E+02  8.20000000E+01  0.00000000E+00
  5.20000000E+02  8.20000000E+01  0.00000000E+00
  5.30000000E+02  8.20000000E+01  0.00000000E+00
  5.40000000E+02  8.20000000E+01  0.00000000E+00
  5.50000000E+02  8.20000000E+01  0.00000000E+00
  5.60000000E+02  8.20000000E+01  0.00000000E+00
  5.70000000E+02  8.20000000E+01  0.00000000E+00
  5.80000000E+02  8.20000000E+01  0.00000000E+00
  5.90000000E+02  8.20000000E+01  0.00000000E+00
  6.00000000E+02  8.20000000E+01  0.00000000E+00
  6.10000000E+02  8.20000000E+01  0.00000000E+00
  6.20000000E+02  8.20000000E+01  0.00000000E+00
  6.30000000E+02  8.20000000E+01  0.00000000E+00
  6.40000000E+02  8.20000000E+01  0.00000000E+00
  6.50000000E+02  8.20000000E+01  0.00000000E+00
  6.60000000E+02  8.20000000E+01  0.00000000E+00
  6.70000000E+02  8.20000000E+01  0.00000000E+00
  6.80000000E+02  8.20000000E+01  0.00000000E+00
  6.90000000E+02  8.20000000E+01  0.00000000E+00
  7.00000000E+02  8.20000000E+01  0.00000000E+00
  7.10000000E+02  8.20000000E+01  0.00000000E+00
  7.20000000E+02  8.20000000E+01  0.00000000E+00
  7.30000000E+02  8.20000000E+01  0.00000000E+00
  7.40000000E+02  8.20000000E+01  0.00000000E+00
  7.50000000E+02  8.20000000E+01  0.00000000E+00
  7.60000000E+02  8.20000000E+01  0.00000000E+00
  7.70000000E+02  8.20000000E+01  0.00000000E+00
  7.80000000E+02  8.20000000E+01  0.00000000E+00
  7.90000000E+02  8.20000000E+01  0.00000000E+00
  8.00000000E+02  8.20000000E+01  0.00000000E+00
  8.10000000E+02  8.20000000E+01  0.00000000E+00
  8.20000000E+02  8.20000000E+01  0.00000000E+00
  8.30000000E+02  8.20000000E+01  0.00000000E+00
  8.40000000E+02  8.20000000E+01  0.00000000E+00
  8.50000000E+02  8.20000000E+01  0.00000000E+00
  8.60000000E+02  8.20000000E+01  0.00000000E+00
  8.70000000E+02  8.20000000E+01  0.00000000E+00
  8.80000000E+02  8.20000000E+01  0.00000000E+00
  8.90000000E+02  8.20000000E+01  0.00000000E+00
  9.00000000E+02  8.20000000E+01  0.00000000E+00
  9.10000000E+02  8.20000000E+01  0.00000000E+00
  9.20000000E+02  8.20000000E+01  0.00000000E+00
  9.30000000E+02  8.20000000E+01  0.00000000E+00
  9.40000000E+02  8.20000000E+01  0.00000000E+00
  9.50000000E+02  8.20000000E+01  0.00000000E+00
  9.60000000E+02  8.20000000E+01  0.00000000E+00
  9.70000000E+02  8.20000000E+01  0.00000000E+00
  9.80000000E+02  8.20000000E+01  0.00000000E+00
  9.90000000E+02  8.20000000E+01  0.00000000E+00
  1.00000000E+03  8.20000000E+01  0.00000000E+00
  0.00000000E+00  8.40000000E+01  0.00000000E+00
  1.00000000E+01  8.40000000E+01  0.00000000E+00
  2.00000000E+01  8.40000000E+01  0.00000000E+00
  3.00000000E+01  8.40000000E+01  0.00000000E+00
  4.00000000E+01  8.40000000E+01  0.00000000E+00
  5.00000000E+01  8.40000000E+01  0.00000000E+00
  6.00000000E+01  8.40000000E+01  0.00000000E+00
  7.00000000E+01  8.40000000E+01  0.00000000E+00
  8.00000000E+01  8.40000000E+01  0.00000000E+00
  9.00000000E+01  8.40000000E+01  0.00000000E+00
  1.00000000E+02  8.40000000E+01  0.00000000E+00
  1.10000000E+02  8.40000000E+01  0.00000000E+00
  1.20000000E+02  8.40000000E+01  0.00000000E+00
  1.30000000E+02  8.40000000E+01  0.00000000E+00
  1.40000000E+02  8.40000000E+01  0.00000000E+00
  1.50000000E+02  8.40000000E+01  0.00000000E+00
  1.60000000E+02  8.40000000E+01  0.00000000E+00
  1.70000000E+02  8.40000000E+01  0.00000000E+00
  1.80000000E+02  8.40000000E+01  0.00000000E+00
  1.90000000E+02  8.40000000E+01  0.00000000E+00
  2.00000000E+02  8.40000000E+01  0.00000000E+00
  2.10000000E+02  8.40000000E+01  0.00000000E+00
  2.20000000E+02  8.40000000E+01  0.00000000E+00
  2.30000000E+02  8.40000000E+01  0.00000000E+00
  2.40000000E+02  8.40000000E+01  0.00000000E+00
  2.50000000E+02  8.40000000E+01  0.00000000E+00
  2.60000000E+02  8.40000000E+01  0.00000000E+00
  2.70000000E+02  8.40000000E+01  0.00000000E+00
  2.80000000E+02  8.40000000E+01  0.00000000E+00
  2.90000000E+02  8.40000000E+01  0.00000000E+00
  3.00000000E+02  8.40000000E+01  0.00000000E+00
  3.10000000E+02  8.40000000E+01  0.00000000E+00
  3.20000000E+02  8.40000000E+01  0.00000000E+00
  3.30000000E+02  8.40000000E+01  0.00000000E+00
  3.40000000E+02  8.40000000E+01  0.00000000E+00
  3.50000000E+02  8.40000000E+01  0.00000000E+00
  3.60000000E+02  8.40000000E+01  0.00000000E+00
  3.70000000E+02  8.40000000E+01  0.00000000E+00
  3.80000000E+02  8.40000000E+01  0.00000000E+00
  3.90000000E+02  8.40000000E+01  0.00000000E+00
  4.00000000E+02  8.40000000E+01  0.00000000E+00
  4.10000000E+02  8.40000000E+01  0.00000000E+00
  4.20000000E+02  8.40000000E+01  0.00000000E+00
  4.30000000E+02  8.40000000E+01  0.00000000E+00
  4.40000000E+02  8.40000000E+01  0.00000000E+00
  4.50000000E+02  8.40000000E+01  0.00000000E+00
  4.60000000E+02  8.40000000E+01  0.00000000E+00
  4.70000000E+02  8.40000000E+01  0.00000000E+00
  4.80000000E+02  8.40000000E+01  0.00000000E+00
  4.90000000E+02  8.40000000E+01  0.00000000E+00
  5.00000000E+02  8.40000000E+01  0.00000000E+00
  5.10000000E+02  8.40000000E+01  0.00000000E+00
  5.20000000E+02  8.40000000E+01  0.00000000E+00
  5.30000000E+02  8.40000000E+01  0.00000000E+00
  5.40000000E+02  8.40000000E+01  0.00000000E+00
  5.50000000E+02  8.40000000E+01  0.00000000E+00
  5.60000000E+02  8.40000000E+01  0.00000000E+00
  5.70000000E+02  8.40000000E+01  0.00000000E+00
  5.80000000E+02  8.40000000E+01  0.00000000E+00
  5.90000000E+02  8.40000000E+01  0.00000000E+00
  6.00000000E+02  8.40000000E+01  0.00000000E+00
  6.10000000E+02  8.40000000E+01  0.00000000E+00
  6.20000000E+02  8.40000000E+01  0.00000000E+00
  6.30000000E+02  8.40000000E+01  0.00000000E+00
  6.40000000E+02  8.40000000E+01  0.00000000E+00
  6.50000000E+02  8.40000000E+01  0.00000000E+00
  6.60000000E+02  8.40000000E+01  0.00000000E+00
  6.70000000E+02  8.40000000E+01  0.00000000E+00
  6.80000000E+02  8.40000000E+01  0.00000000E+00
  6.90000000E+02  8.40000000E+01  0.00000000E+00
  7.00000000E+02  8.40000000E+01  0.00000000E+00
  7.10000000E+02  8.40000000E+01  0.00000000E+00
  7.20000000E+02  8.40000000E+01  0.00000000E+00
  7.30000000E+02  8.40000000E+01  0.00000000E+00
  7.40000000E+02  8.40000000E+01  0.00000000E+00
  7.50000000E+02  8.40000000E+01  0.00000000E+00
  7.60000000E+02  8.40000000E+01  0.00000000E+00
  7.70000000E+02  8.40000000E+01  0.00000000E+00
  7.80000000E+02  8.40000000E+01  0.00000000E+00
  7.90000000E+02  8.40000000E+01  0.00000000E+00
  8.00000000E+02  8.40000000E+01  0.00000000E+00
  8.10000000E+02  8.40000000E+01  0.00000000E+00
  8.20000000E+02  8.40000000E+01  0.00000000E+00
  8.30000000E+02  8.40000000E+01  0.00000000E+00
  8.40000000E+02  8.40000000E+01  0.00000000E+00
  8.50000000E+02  8.40000000E+01  0.00000000E+00
  8.60000000E+02  8.40000000E+01  0.00000000E+00
  8.70000000E+02  8.40000000E+01  0.00000000E+00
  8.80000000E+02  8.40000000E+01  0.00000000E+00
  8.90000000E+02  8.40000000E+01  0.00000000E+00
  9.00000000E+02  8.40000000E+01  0.00000000E+00
  9.10000000E+02  8.40000000E+01  0.00000000E+00
  9.20000000E+02  8.40000000E+01  0.00000000E+00
  9.30000000E+02  8.40000000E+01  0.00000000E+00
  9.40000000E+02  8.40000000E+01  0.00000000E+00
  9.50000000E+02  8.40000000E+01  0.00000000E+00
  9.60000000E+02  8.40000000E+01  0.00000000E+00
  9.70000000E+02  8.40000000E+01  0.00000000E+00
  9.80000000E+02  8.40000000E+01  0.00000000E+00
  9.90000000E+02  8.40000000E+01  0.00000000E+00
  1.00000000E+03  8.40000000E+01  0.00000000E+00
  0.00000000E+00  8.60000000E+01  0.00000000E+00
  1.00000000E+01  8.60000000E+01  0.00000000E+00
  2.00000000E+01  8.60000000E+01  0.00000000E+00
  3.00000000E+01  8.60000000E+01  0.00000000E+00
  4.00000000E+01  8.60000000E+01  0.00000000E+00
  5.00000000E+01  8.60000000E+01  0.00000000E+00
  6.00000000E+01  8.60000000E+01  0.00000000E+00
  7.00000000E+01  8.60000000E+01  0.00000000E+00
  8.00000000E+01  8.60000000E+01  0.00000000E+00
  9.00000000E+01  8.60000000E+01  0.00000000E+00
  1.00000000E+02  8.60000000E+01  0.00000000E+00
  1.10000000E+02  8.60000000E+01  0.00000000E+00
  1.20000000E+02  8.60000000E+01  0.00000000E+00
  1.30000000E+02  8.60000000E+01  0.00000000E+00
  1.40000000E+02  8.60000000E+01  0.00000000E+00
  1.50000000E+02  8.60000000E+01  0.00000000E+00
  1.60000000E+02  8.60000000E+01  0.00000000E+00
  1.70000000E+02  8.60000000E+01  0.00000000E+00
  1.80000000E+02  8.60000000E+01  0.00000000E+00
  1.90000000E+02  8.60000000E+01  0.00000000E+00
  2.00000000E+02  8.60000000E+01  0.00000000E+00
  2.10000000E+02  8.60000000E+01  0.00000000E+00
  2.20000000E+02  8.60000000E+01  0.00000000E+00
  2.30000000E+02  8.60000000E+01  0.00000000E+00
  2.40000000E+02  8.60000000E+01  0.00000000E+00
  2.50000000E+02  8.60000000E+01  0.00000000E+00
  2.60000000E+02  8.60000000E+01  0.00000000E+00
  2.70000000E+02  8.60000000E+01  0.00000000E+00
  2.80000000E+02  8.60000000E+01  0.00000000E+00
  2.90000000E+02  8.60000000E+01  0.00000000E+00
  3.00000000E+02  8.60000000E+01  0.00000000E+00
  3.10000000E+02  8.60000000E+01  0.00000000E+00
  3.20000000E+02  8.60000000E+01  0.00000000E+00
  3.30000000E+02  8.60000000E+01  0.00000000E+00
  3.40000000E+02  8.60000000E+01  0.00000000E+00
  3.50000000E+02  8.60000000E+01  0.00000000E+00
  3.60000000E+02  8.60000000E+01  0.00000000E+00
  3.70000000E+02  8.60000000E+01  0.00000000E+00
  3.80000000E+02  8.60000000E+01  0.00000000E+00
  3.90000000E+02  8.60000000E+01  0.00000000E+00
  4.00000000E+02  8.60000000E+01  0.00000000E+00
  4.10000000E+02  8.60000000E+01  0.00000000E+00
  4.20000000E+02  8.60000000E+01  0.00000000E+00
  4.30000000E+02  8.60000000E+01  0.00000000E+00
  4.40000000E+02  8.60000000E+01  0.00000000E+00
  4.50000000E+02  8.60000000E+01  0.00000000E+00
  4.60000000E+02  8.60000000E+01  0.00000000E+00
  4.70000000E+02  8.60000000E+01  0.00000000E+00
  4.80000000E+02  8.60000000E+01  0.00000000E+00
  4.90000000E+02  8.60000000E+01  0.00000000E+00
  5.00000000E+02  8.60000000E+01  0.00000000E+00
  5.10000000E+02  8.60000000E+01  0.00000000E+00
  5.20000000E+02  8.60000000E+01  0.00000000E+00
  5.30000000E+02  8.60000000E+01  0.00000000E+00
  5.40000000E+02  8.60000000E+01  0.00000000E+00
  5.50000000E+02  8.60000000E+01  0.00000000E+00
  5.60000000E+02  8.60000000E+01  0.00000000E+00
  5.70000000E+02  8.60000000E+01  0.00000000E+00
  5.80000000E+02  8.60000000E+01  0.00000000E+00
  5.90000000E+02  8.60000000E+01  0.00000000E+00
  6.00000000E+02  8.60000000E+01  0.00000000E+00
  6.10000000E+02  8.60000000E+01  0.00000000E+00
  6.20000000E+02  8.60000000E+01  0.00000000E+00
  6.30000000E+02  8.60000000E+01  0.00000000E+00
  6.40000000E+02  8.60000000E+01  0.00000000E+00
  6.50000000E+02  8.60000000E+01  0.00000000E+00
  6.60000000E+02  8.60000000E+01  0.00000000E+00
  6.70000000E+02  8.60000000E+01  0.00000000E+00
  6.80000000E+02  8.60000000E+01  0.00000000E+00
  6.90000000E+02  8.60000000E+01  0.00000000E+00
  7.00000000E+02  8.60000000E+01  0.00000000E+00
  7.10000000E+02  8.60000000E+01  0.00000000E+00
  7.20000000E+02  8.60000000E+01  0.00000000E+00
  7.30000000E+02  8.60000000E+01  0.00000000E+00
  7.40000000E+02  8.60000000E+01  0.00000000E+00
  7.50000000E+02  8.60000000E+01  0.00000000E+00
  7.60000000E+02  8.60000000E+01  0.00000000E+00
  7.70000000E+02  8.60000000E+01  0.00000000E+00
  7.80000000E+02  8.60000000E+01  0.00000000E+00
  7.90000000E+02  8.60000000E+01  0.00000000E+00
  8.00000000E+02  8.60000000E+01  0.00000000E+00
  8.10000000E+02  8.60000000E+01  0.00000000E+00
  8.20000000E+02  8.60000000E+01  0.00000000E+00
  8.30000000E+02  8.60000000E+01  0.00000000E+00
  8.40000000E+02  8.60000000E+01  0.00000000E+00
  8.50000000E+02  8.60000000E+01  0.00000000E+00
  8.60000000E+02  8.60000000E+01  0.00000000E+00
  8.70000000E+02  8.60000000E+01  0.00000000E+00
  8.80000000E+02  8.60000000E+01  0.00000000E+00
  8.90000000E+02  8.60000000E+01  0.00000000E+00
  9.00000000E+02  8.60000000E+01  0.00000000E+00
  9.10000000E+02  8.60000000E+01  0.00000000E+00
  9.20000000E+02  8.60000000E+01  0.00000000E+00
  9.30000000E+02  8.60000000E+01  0.00000000E+00
  9.40000000E+02  8.60000000E+01  0.00000000E+00
  9.50000000E+02  8.60000000E+01  0.00000000E+00
  9.60000000E+02  8.60000000E+01  0.00000000E+00
  9.70000000E+02  8.60000000E+01  0.00000000E+00
  9.80000000E+02  8.60000000E+01  0.00000000E+00
  9.90000000E+02  8.60000000E+01  0.00000000E+00
  1.00000000E+03  8.60000000E+01  0.00000000E+00
  0.00000000E+00  8.80000000E+01  0.00000000E+00
  1.00000000E+01  8.80000000E+01  0.00000000E+00
  2.00000000E+01  8.80000000E+01  0.00000000E+00
  3.00000000E+01  8.80000000E+01  0.00000000E+00
  4.00000000E+01  8.80000000E+01  0.00000000E+00
  5.00000000E+01  8.80000000E+01  0.00000000E+00
  6.00000000E+01  8.80000000E+01  0.00000000E+00
  7.00000000E+01  8.80000000E+01  0.00000000E+00
  8.00000000E+01  8.80000000E+01  0.00000000E+00
  9.00000000E+01  8.80000000E+01  0.00000000E+00
  1.00000000E+02  8.80000000E+01  0.00000000E+00
  1.10000000E+02  8.80000000E+01  0.00000000E+00
  1.20000000E+02  8.80000000E+01  0.00000000E+00
  1.30000000E+02  8.80000000E+01  0.00000000E+00
  1.40000000E+02  8.80000000E+01  0.00000000E+00
  1.50000000E+02  8.80000000E+01  0.00000000E+00
  1.60000000E+02  8.80000000E+01  0.00000000E+00
  1.70000000E+02  8.80000000E+01  0.00000000E+00
  1.80000000E+02  8.80000000E+01  0.00000000E+00
  1.90000000E+02  8.80000000E+01  0.00000000E+00
  2.00000000E+02  8.80000000E+01  0.00000000E+00
  2.10000000E+02  8.80000000E+01  0.00000000E+00
  2.20000000E+02  8.80000000E+01  0.00000000E+00
  2.30000000E+02  8.80000000E+01  0.00000000E+00
  2.40000000E+02  8.80000000E+01  0.00000000E+00
  2.50000000E+02  8.80000000E+01  0.00000000E+00
  2.60000000E+02  8.80000000E+01  0.00000000E+00
  2.70000000E+02  8.80000000E+01  0.00000000E+00
  2.80000000E+02  8.80000000E+01  0.00000000E+00
  2.90000000E+02  8.80000000E+01  0.00000000E+00
  3.00000000E+02  8.80000000E+01  0.00000000E+00
  3.10000000E+02  8.80000000E+01  0.00000000E+00
  3.20000000E+02  8.80000000E+01  0.00000000E+00
  3.30000000E+02  8.80000000E+01  0.00000000E+00
  3.40000000E+02  8.80000000E+01  0.00000000E+00
  3.50000000E+02  8.80000000E+01  0.00000000E+00
  3.60000000E+02  8.80000000E+01  0.00000000E+00
  3.70000000E+02  8.80000000E+01  0.00000000E+00
  3.80000000E+02  8.80000000E+01  0.00000000E+00
  3.90000000E+02  8.80000000E+01  0.00000000E+00
  4.00000000E+02  8.80000000E+01  0.00000000E+00
  4.10000000E+02  8.80000000E+01  0.00000000E+00
  4.20000000E+02  8.80000000E+01  0.00000000E+00
  4.30000000E+02  8.80000000E+01  0.00000000E+00
  4.40000000E+02  8.80000000E+01  0.00000000E+00
  4.50000000E+02  8.80000000E+01  0.00000000E+00
  4.60000000E+02  8.80000000E+01  0.00000000E+00
  4.70000000E+02  8.80000000E+01  0.00000000E+00
  4.80000000E+02  8.80000000E+01  0.00000000E+00
  4.90000000E+02  8.80000000E+01  0.00000000E+00
  5.00000000E+02  8.80000000E+01  0.00000000E+00
  5.10000000E+02  8.80000000E+01  0.00000000E+00
  5.20000000E+02  8.80000000E+01  0.00000000E+00
  5.30000000E+02  8.80000000E+01  0.00000000E+00
  5.40000000E+02  8.80000000E+01  0.00000000E+00
  5.50000000E+02  8.80000000E+01  0.00000000E+00
  5.60000000E+02  8.80000000E+01  0.00000000E+00
  5.70000000E+02  8.80000000E+01  0.00000000E+00
  5.80000000E+02  8.80000000E+01  0.00000000E+00
  5.90000000E+02  8.80000000E+01  0.00000000E+00
  6.00000000E+02  8.80000000E+01  0.00000000E+00
  6.10000000E+02  8.80000000E+01  0.00000000E+00
  6.20000000E+02  8.80000000E+01  0.00000000E+00
  6.30000000E+02  8.80000000E+01  0.00000000E+00
  6.40000000E+02  8.80000000E+01  0.00000000E+00
  6.50000000E+02  8.80000000E+01  0.00000000E+00
  6.60000000E+02  8.80000000E+01  0.00000000E+00
  6.70000000E+02  8.80000000E+01  0.00000000E+00
  6.80000000E+02  8.80000000E+01  0.00000000E+00
  6.90000000E+02  8.80000000E+01  0.00000000E+00
  7.00000000E+02  8.80000000E+01  0.00000000E+00
  7.10000000E+02  8.80000000E+01  0.00000000E+00
  7.20000000E+02  8.80000000E+01  0.00000000E+00
  7.30000000E+02  8.80000000E+01  0.00000000E+00
  7.40000000E+02  8.80000000E+01  0.00000000E+00
  7.50000000E+02  8.80000000E+01  0.00000000E+00
  7.60000000E+02  8.80000000E+01  0.00000000E+00
  7.70000000E+02  8.80000000E+01  0.00000000E+00
  7.80000000E+02  8.80000000E+01  0.00000000E+00
  7.90000000E+02  8.80000000E+01  0.00000000E+00
  8.00000000E+02  8.80000000E+01  0.00000000E+00
  8.10000000E+02  8.80000000E+01  0.00000000E+00
  8.20000000E+02  8.80000000E+01  0.00000000E+00
  8.30000000E+02  8.80000000E+01  0.00000000E+00
  8.40000000E+02  8.80000000E+01  0.00000000E+00
  8.50000000E+02  8.80000000E+01  0.00000000E+00
  8.60000000E+02  8.80000000E+01  0.00000000E+00
  8.70000000E+02  8.80000000E+01  0.00000000E+00
  8.80000000E+02  8.80000000E+01  0.00000000E+00
  8.90000000E+02  8.80000000E+01  0.00000000E+00
  9.00000000E+02  8.80000000E+01  0.00000000E+00
  9.10000000E+02  8.80000000E+01  0.00000000E+00
  9.20000000E+02  8.80000000E+01  0.00000000E+00
  9.30000000E+02  8.80000000E+01  0.00000000E+00
  9.40000000E+02  8.80000000E+01  0.00000000E+00
  9.50000000E+02  8.80000000E+01  0.00000000E+00
  9.60000000E+02  8.80000000E+01  0.00000000E+00
  9.70000000E+02  8.80000000E+01  0.00000000E+00
  9.80000000E+02  8.80000000E+01  0.00000000E+00
  9.90000000E+02  8.80000000E+01  0.00000000E+00
  1.00000000E+03  8.80000000E+01  0.00000000E+00
  0.00000000E+00  9.00000000E+01  0.00000000E+00
  1.00000000E+01  9.00000000E+01  0.00000000E+00
  2.00000000E+01  9.00000000E+01  0.00000000E+00
  3.00000000E+01  9.00000000E+01  0.00000000E+00
  4.00000000E+01  9.00000000E+01  0.00000000E+00
  5.00000000E+01  9.00000000E+01  0.00000000E+00
  6.00000000E+01  9.00000000E+01  0.00000000E+00
  7.00000000E+01  9.00000000E+01  0.00000000E+00
  8.00000000E+01  9.00000000E+01  0.00000000E+00
  9.00000000E+01  9.00000000E+01  0.00000000E+00
  1.00000000E+02  9.00000000E+01  0.00000000E+00
  1.10000000E+02  9.00000000E+01  0.00000000E+00
  1.20000000E+02  9.00000000E+01  0.00000000E+00
  1.30000000E+02  9.00000000E+01  0.00000000E+00
  1.40000000E+02  9.00000000E+01  0.00000000E+00
  1.50000000E+02  9.00000000E+01  0.00000000E+00
  1.60000000E+02  9.00000000E+01  0.00000000E+00
  1.70000000E+02  9.00000000E+01  0.00000000E+00
  1.80000000E+02  9.00000000E+01  0.00000000E+00
  1.90000000E+02  9.00000000E+01  0.00000000E+00
  2.00000000E+02  9.00000000E+01  0.00000000E+00
  2.10000000E+02  9.00000000E+01  0.00000000E+00
  2.20000000E+02  9.00000000E+01  0.00000000E+00
  2.30000000E+02  9.00000000E+01  0.00000000E+00
  2.40000000E+02  9.00000000E+01  0.00000000E+00
  2.50000000E+02  9.00000000E+01  0.00000000E+00
  2.60000000E+02  9.00000000E+01  0.00000000E+00
  2.70000000E+02  9.00000000E+01  0.00000000E+00
  2.80000000E+02  9.00000000E+01  0.00000000E+00
  2.90000000E+02  9.00000000E+01  0.00000000E+00
  3.00000000E+02  9.00000000E+01  0.00000000E+00
  3.10000000E+02  9.00000000E+01  0.00000000E+00
  3.20000000E+02  9.00000000E+01  0.00000000E+00
  3.30000000E+02  9.00000000E+01  0.00000000E+00
  3.40000000E+02  9.00000000E+01  0.00000000E+00
  3.50000000E+02  9.00000000E+01  0.00000000E+00
  3.60000000E+02  9.00000000E+01  0.00000000E+00
  3.70000000E+02  9.00000000E+01  0.00000000E+00
  3.80000000E+02  9.00000000E+01  0.00000000E+00
  3.90000000E+02  9.00000000E+01  0.00000000E+00
  4.00000000E+02  9.00000000E+01  0.00000000E+00
  4.10000000E+02  9.00000000E+01  0.00000000E+00
  4.20000000E+02  9.00000000E+01  0.00000000E+00
  4.30000000E+02  9.00000000E+01  0.00000000E+00
  4.40000000E+02  9.00000000E+01  0.00000000E+00
  4.50000000E+02  9.00000000E+01  0.00000000E+00
  4.60000000E+02  9.00000000E+01  0.00000000E+00
  4.70000000E+02  9.00000000E+01  0.00000000E+00
  4.80000000E+02  9.00000000E+01  0.00000000E+00
  4.90000000E+02  9.00000000E+01  0.00000000E+00
  5.00000000E+02  9.00000000E+01  0.00000000E+00
  5.10000000E+02  9.00000000E+01  0.00000000E+00
  5.20000000E+02  9.00000000E+01  0.00000000E+00
  5.30000000E+02  9.00000000E+01  0.00000000E+00
  5.40000000E+02  9.00000000E+01  0.00000000E+00
  5.50000000E+02  9.00000000E+01  0.00000000E+00
  5.60000000E+02  9.00000000E+01  0.00000000E+00
  5.70000000E+02  9.00000000E+01  0.00000000E+00
  5.80000000E+02  9.00000000E+01  0.00000000E+00
  5.90000000E+02  9.00000000E+01  0.00000000E+00
  6.00000000E+02  9.00000000E+01  0.00000000E+00
  6.10000000E+02  9.00000000E+01  0.00000000E+00
  6.20000000E+02  9.00000000E+01  0.00000000E+00
  6.30000000E+02  9.00000000E+01  0.00000000E+00
  6.40000000E+02  9.00000000E+01  0.00000000E+00
  6.50000000E+02  9.00000000E+01  0.00000000E+00
  6.60000000E+02  9.00000000E+01  0.00000000E+00
  6.70000000E+02  9.00000000E+01  0.00000000E+00
  6.80000000E+02  9.00000000E+01  0.00000000E+00
  6.90000000E+02  9.00000000E+01  0.00000000E+00
  7.00000000E+02  9.00000000E+01  0.00000000E+00
  7.10000000E+02  9.00000000E+01  0.00000000E+00
  7.20000000E+02  9.00000000E+01  0.00000000E+00
  7.30000000E+02  9.00000000E+01  0.00000000E+00
  7.40000000E+02  9.00000000E+01  0.00000000E+00
  7.50000000E+02  9.00000000E+01  0.00000000E+00
  7.60000000E+02  9.00000000E+01  0.00000000E+00
  7.70000000E+02  9.00000000E+01  0.00000000E+00
  7.80000000E+02  9.00000000E+01  0.00000000E+00
  7.90000000E+02  9.00000000E+01  0.00000000E+00
  8.00000000E+02  9.00000000E+01  0.00000000E+00
  8.10000000E+02  9.00000000E+01  0.00000000E+00
  8.20000000E+02  9.00000000E+01  0.00000000E+00
  8.30000000E+02  9.00000000E+01  0.00000000E+00
  8.40000000E+02  9.00000000E+01  0.00000000E+00
  8.50000000E+02  9.00000000E+01  0.00000000E+00
  8.60000000E+02  9.00000000E+01  0.00000000E+00
  8.70000000E+02  9.00000000E+01  0.00000000E+00
  8.80000000E+02  9.00000000E+01  0.00000000E+00
  8.90000000E+02  9.00000000E+01  0.00000000E+00
  9.00000000E+02  9.00000000E+01  0.00000000E+00
  9.10000000E+02  9.00000000E+01  0.00000000E+00
  9.20000000E+02  9.00000000E+01  0.00000000E+00
  9.30000000E+02  9.00000000E+01  0.00000000E+00
  9.40000000E+02  9.00000000E+01  0.00000000E+00
  9.50000000E+02  9.00000000E+01  0.00000000E+00
  9.60000000E+02  9.00000000E+01  0.00000000E+00
  9.70000000E+02  9.00000000E+01  0.00000000E+00
  9.80000000E+02  9.00000000E+01  0.00000000E+00
  9.90000000E+02  9.00000000E+01  0.00000000E+00
  1.00000000E+03  9.00000000E+01  0.00000000E+00
  0.00000000E+00  9.20000000E+01  0.00000000E+00
  1.00000000E+01  9.20000000E+01  0.00000000E+00
  2.00000000E+01  9.20000000E+01  0.00000000E+00
  3.00000000E+01  9.20000000E+01  0.00000000E+00
  4.00000000E+01  9.20000000E+01  0.00000000E+00
  5.00000000E+01  9.20000000E+01  0.00000000E+00
  6.00000000E+01  9.20000000E+01  0.00000000E+00
  7.00000000E+01  9.20000000E+01  0.00000000E+00
  8.00000000E+01  9.20000000E+01  0.00000000E+00
  9.00000000E+01  9.20000000E+01  0.00000000E+00
  1.00000000E+02  9.20000000E+01  0.00000000E+00
  1.10000000E+02  9.20000000E+01  0.00000000E+00
  1.20000000E+02  9.20000000E+01  0.00000000E+00
  1.30000000E+02  9.20000000E+01  0.00000000E+00
  1.40000000E+02  9.20000000E+01  0.00000000E+00
  1.50000000E+02  9.20000000E+01  0.00000000E+00
  1.60000000E+02  9.20000000E+01  0.00000000E+00
  1.70000000E+02  9.20000000E+01  0.00000000E+00
  1.80000000E+02  9.20000000E+01  0.00000000E+00
  1.90000000E+02  9.20000000E+01  0.00000000E+00
  2.00000000E+02  9.20000000E+01  0.00000000E+00
  2.10000000E+02  9.20000000E+01  0.00000000E+00
  2.20000000E+02  9.20000000E+01  0.00000000E+00
  2.30000000E+02  9.20000000E+01  0.00000000E+00
  2.40000000E+02  9.20000000E+01  0.00000000E+00
  2.50000000E+02  9.20000000E+01  0.00000000E+00
  2.60000000E+02  9.20000000E+01  0.00000000E+00
  2.70000000E+02  9.20000000E+01  0.00000000E+00
  2.80000000E+02  9.20000000E+01  0.00000000E+00
  2.90000000E+02  9.20000000E+01  0.00000000E+00
  3.00000000E+02  9.20000000E+01  0.00000000E+00
  3.10000000E+02  9.20000000E+01  0.00000000E+00
  3.20000000E+02  9.20000000E+01  0.00000000E+00
  3.30000000E+02  9.20000000E+01  0.00000000E+00
  3.40000000E+02  9.20000000E+01  0.00000000E+00
  3.50000000E+02  9.20000000E+01  0.00000000E+00
  3.60000000E+02  9.20000000E+01  0.00000000E+00
  3.70000000E+02  9.20000000E+01  0.00000000E+00
  3.80000000E+02  9.20000000E+01  0.00000000E+00
  3.90000000E+02  9.20000000E+01  0.00000000E+00
  4.00000000E+02  9.20000000E+01  0.00000000E+00
  4.10000000E+02  9.20000000E+01  0.00000000E+00
  4.20000000E+02  9.20000000E+01  0.00000000E+00
  4.30000000E+02  9.20000000E+01  0.00000000E+00
  4.40000000E+02  9.20000000E+01  0.00000000E+00
  4.50000000E+02  9.20000000E+01  0.00000000E+00
  4.60000000E+02  9.20000000E+01  0.00000000E+00
  4.70000000E+02  9.20000000E+01  0.00000000E+00
  4.80000000E+02  9.20000000E+01  0.00000000E+00
  4.90000000E+02  9.20000000E+01  0.00000000E+00
  5.00000000E+02  9.20000000E+01  0.00000000E+00
  5.10000000E+02  9.20000000E+01  0.00000000E+00
  5.20000000E+02  9.20000000E+01  0.00000000E+00
  5.30000000E+02  9.20000000E+01  0.00000000E+00
  5.40000000E+02  9.20000000E+01  0.00000000E+00
  5.50000000E+02  9.20000000E+01  0.00000000E+00
  5.60000000E+02  9.20000000E+01  0.00000000E+00
  5.70000000E+02  9.20000000E+01  0.00000000E+00
  5.80000000E+02  9.20000000E+01  0.00000000E+00
  5.90000000E+02  9.20000000E+01  0.00000000E+00
  6.00000000E+02  9.20000000E+01  0.00000000E+00
  6.10000000E+02  9.20000000E+01  0.00000000E+00
  6.20000000E+02  9.20000000E+01  0.00000000E+00
  6.30000000E+02  9.20000000E+01  0.00000000E+00
  6.40000000E+02  9.20000000E+01  0.00000000E+00
  6.50000000E+02  9.20000000E+01  0.00000000E+00
  6.60000000E+02  9.20000000E+01  0.00000000E+00
  6.70000000E+02  9.20000000E+01  0.00000000E+00
  6.80000000E+02  9.20000000E+01  0.00000000E+00
  6.90000000E+02  9.20000000E+01  0.00000000E+00
  7.00000000E+02  9.20000000E+01  0.00000000E+00
  7.10000000E+02  9.20000000E+01  0.00000000E+00
  7.20000000E+02  9.20000000E+01  0.00000000E+00
  7.30000000E+02  9.20000000E+01  0.00000000E+00
  7.40000000E+02  9.20000000E+01  0.00000000E+00
  7.50000000E+02  9.20000000E+01  0.00000000E+00
  7.60000000E+02  9.20000000E+01  0.00000000E+00
  7.70000000E+02  9.20000000E+01  0.00000000E+00
  7.80000000E+02  9.20000000E+01  0.00000000E+00
  7.90000000E+02  9.20000000E+01  0.00000000E+00
  8.00000000E+02  9.20000000E+01  0.00000000E+00
  8.10000000E+02  9.20000000E+01  0.00000000E+00
  8.20000000E+02  9.20000000E+01  0.00000000E+00
  8.30000000E+02  9.20000000E+01  0.00000000E+00
  8.40000000E+02  9.20000000E+01  0.00000000E+00
  8.50000000E+02  9.20000000E+01  0.00000000E+00
  8.60000000E+02  9.20000000E+01  0.00000000E+00
  8.70000000E+02  9.20000000E+01  0.00000000E+00
  8.80000000E+02  9.20000000E+01  0.00000000E+00
  8.90000000E+02  9.20000000E+01  0.00000000E+00
  9.00000000E+02  9.20000000E+01  0.00000000E+00
  9.10000000E+02  9.20000000E+01  0.00000000E+00
  9.20000000E+02  9.20000000E+01  0.00000000E+00
  9.30000000E+02  9.20000000E+01  0.00000000E+00
  9.40000000E+02  9.20000000E+01  0.00000000E+00
  9.50000000E+02  9.20000000E+01  0.00000000E+00
  9.60000000E+02  9.20000000E+01  0.00000000E+00
  9.70000000E+02  9.20000000E+01  0.00000000E+00
  9.80000000E+02  9.20000000E+01  0.00000000E+00
  9.90000000E+02  9.20000000E+01  0.00000000E+00
  1.00000000E+03  9.20000000E+01  0.00000000E+00
  0.00000000E+00  9.40000000E+01  0.00000000E+00
  1.00000000E+01  9.40000000E+01  0.00000000E+00
  2.00000000E+01  9.40000000E+01  0.00000000E+00
  3.00000000E+01  9.40000000E+01  0.00000000E+00
  4.00000000E+01  9.40000000E+01  0.00000000E+00
  5.00000000E+01  9.40000000E+01  0.00000000E+00
  6.00000000E+01  9.40000000E+01  0.00000000E+00
  7.00000000E+01  9.40000000E+01  0.00000000E+00
  8.00000000E+01  9.40000000E+01  0.00000000E+00
  9.00000000E+01  9.40000000E+01  0.00000000E+00
  1.00000000E+02  9.40000000E+01  0.00000000E+00
  1.10000000E+02  9.40000000E+01  0.00000000E+00
  1.20000000E+02  9.40000000E+01  0.00000000E+00
  1.30000000E+02  9.40000000E+01  0.00000000E+00
  1.40000000E+02  9.40000000E+01  0.00000000E+00
  1.50000000E+02  9.40000000E+01  0.00000000E+00
  1.60000000E+02  9.40000000E+01  0.00000000E+00
  1.70000000E+02  9.40000000E+01  0.00000000E+00
  1.80000000E+02  9.40000000E+01  0.00000000E+00
  1.90000000E+02  9.40000000E+01  0.00000000E+00
  2.00000000E+02  9.40000000E+01  0.00000000E+00
  2.10000000E+02  9.40000000E+01  0.00000000E+00
  2.20000000E+02  9.40000000E+01  0.00000000E+00
  2.30000000E+02  9.40000000E+01  0.00000000E+00
  2.40000000E+02  9.40000000E+01  0.00000000E+00
  2.50000000E+02  9.40000000E+01  0.00000000E+00
  2.60000000E+02  9.40000000E+01  0.00000000E+00
  2.70000000E+02  9.40000000E+01  0.00000000E+00
  2.80000000E+02  9.40000000E+01  0.00000000E+00
  2.90000000E+02  9.40000000E+01  0.00000000E+00
  3.00000000E+02  9.40000000E+01  0.00000000E+00
  3.10000000E+02  9.40000000E+01  0.00000000E+00
  3.20000000E+02  9.40000000E+01  0.00000000E+00
  3.30000000E+02  9.40000000E+01  0.00000000E+00
  3.40000000E+02  9.40000000E+01  0.00000000E+00
  3.50000000E+02  9.40000000E+01  0.00000000E+00
  3.60000000E+02  9.40000000E+01  0.00000000E+00
  3.70000000E+02  9.40000000E+01  0.00000000E+00
  3.80000000E+02  9.40000000E+01  0.00000000E+00
  3.90000000E+02  9.40000000E+01  0.00000000E+00
  4.00000000E+02  9.40000000E+01  0.00000000E+00
  4.10000000E+02  9.40000000E+01  0.00000000E+00
  4.20000000E+02  9.40000000E+01  0.00000000E+00
  4.30000000E+02  9.40000000E+01  0.00000000E+00
  4.40000000E+02  9.40000000E+01  0.00000000E+00
  4.50000000E+02  9.40000000E+01  0.00000000E+00
  4.60000000E+02  9.40000000E+01  0.00000000E+00
  4.70000000E+02  9.40000000E+01  0.00000000E+00
  4.80000000E+02  9.40000000E+01  0.00000000E+00
  4.90000000E+02  9.40000000E+01  0.00000000E+00
  5.00000000E+02  9.40000000E+01  0.00000000E+00
  5.10000000E+02  9.40000000E+01  0.00000000E+00
  5.20000000E+02  9.40000000E+01  0.00000000E+00
  5.30000000E+02  9.40000000E+01  0.00000000E+00
  5.40000000E+02  9.40000000E+01  0.00000000E+00
  5.50000000E+02  9.40000000E+01  0.00000000E+00
  5.60000000E+02  9.40000000E+01  0.00000000E+00
  5.70000000E+02  9.40000000E+01  0.00000000E+00
  5.80000000E+02  9.40000000E+01  0.00000000E+00
  5.90000000E+02  9.40000000E+01  0.00000000E+00
  6.00000000E+02  9.40000000E+01  0.00000000E+00
  6.10000000E+02  9.40000000E+01  0.00000000E+00
  6.20000000E+02  9.40000000E+01  0.00000000E+00
  6.30000000E+02  9.40000000E+01  0.00000000E+00
  6.40000000E+02  9.40000000E+01  0.00000000E+00
  6.50000000E+02  9.40000000E+01  0.00000000E+00
  6.60000000E+02  9.40000000E+01  0.00000000E+00
  6.70000000E+02  9.40000000E+01  0.00000000E+00
  6.80000000E+02  9.40000000E+01  0.00000000E+00
  6.90000000E+02  9.40000000E+01  0.00000000E+00
  7.00000000E+02  9.40000000E+01  0.00000000E+00
  7.10000000E+02  9.40000000E+01  0.00000000E+00
  7.20000000E+02  9.40000000E+01  0.00000000E+00
  7.30000000E+02  9.40000000E+01  0.00000000E+00
  7.40000000E+02  9.40000000E+01  0.00000000E+00
  7.50000000E+02  9.40000000E+01  0.00000000E+00
  7.60000000E+02  9.40000000E+01  0.00000000E+00
  7.70000000E+02  9.40000000E+01  0.00000000E+00
  7.80000000E+02  9.40000000E+01  0.00000000E+00
  7.90000000E+02  9.40000000E+01  0.00000000E+00
  8.00000000E+02  9.40000000E+01  0.00000000E+00
  8.10000000E+02  9.40000000E+01  0.00000000E+00
  8.20000000E+02  9.40000000E+01  0.00000000E+00
  8.30000000E+02  9.40000000E+01  0.00000000E+00
  8.40000000E+02  9.40000000E+01  0.00000000E+00
  8.50000000E+02  9.40000000E+01  0.00000000E+00
  8.60000000E+02  9.40000000E+01  0.00000000E+00
  8.70000000E+02  9.40000000E+01  0.00000000E+00
  8.80000000E+02  9.40000000E+01  0.00000000E+00
  8.90000000E+02  9.40000000E+01  0.00000000E+00
  9.00000000E+02  9.40000000E+01  0.00000000E+00
  9.10000000E+02  9.40000000E+01  0.00000000E+00
  9.20000000E+02  9.40000000E+01  0.00000000E+00
  9.30000000E+02  9.40000000E+01  0.00000000E+00
  9.40000000E+02  9.40000000E+01  0.00000000E+00
  9.50000000E+02  9.40000000E+01  0.00000000E+00
  9.60000000E+02  9.40000000E+01  0.00000000E+00
  9.70000000E+02  9.40000000E+01  0.00000000E+00
  9.80000000E+02  9.40000000E+01  0.00000000E+00
  9.90000000E+02  9.40000000E+01  0.00000000E+00
  1.00000000E+03  9.40000000E+01  0.00000000E+00
  0.00000000E+00  9.60000000E+01  0.00000000E+00
  1.00000000E+01  9.60000000E+01  0.00000000E+00
  2.00000000E+01  9.60000000E+01  0.00000000E+00
  3.00000000E+01  9.60000000E+01  0.00000000E+00
  4.00000000E+01  9.60000000E+01  0.00000000E+00
  5.00000000E+01  9.60000000E+01  0.00000000E+00
  6.00000000E+01  9.60000000E+01  0.00000000E+00
  7.00000000E+01  9.60000000E+01  0.00000000E+00
  8.00000000E+01  9.60000000E+01  0.00000000E+00
  9.00000000E+01  9.60000000E+01  0.00000000E+00
  1.00000000E+02  9.60000000E+01  0.00000000E+00
  1.10000000E+02  9.60000000E+01  0.00000000E+00
  1.20000000E+02  9.60000000E+01  0.00000000E+00
  1.30000000E+02  9.60000000E+01  0.00000000E+00
  1.40000000E+02  9.60000000E+01  0.00000000E+00
  1.50000000E+02  9.60000000E+01  0.00000000E+00
  1.60000000E+02  9.60000000E+01  0.00000000E+00
  1.70000000E+02  9.60000000E+01  0.00000000E+00
  1.80000000E+02  9.60000000E+01  0.00000000E+00
  1.90000000E+02  9.60000000E+01  0.00000000E+00
  2.00000000E+02  9.60000000E+01  0.00000000E+00
  2.10000000E+02  9.60000000E+01  0.00000000E+00
  2.20000000E+02  9.60000000E+01  0.00000000E+00
  2.30000000E+02  9.60000000E+01  0.00000000E+00
  2.40000000E+02  9.60000000E+01  0.00000000E+00
  2.50000000E+02  9.60000000E+01  0.00000000E+00
  2.60000000E+02  9.60000000E+01  0.00000000E+00
  2.70000000E+02  9.60000000E+01  0.00000000E+00
  2.80000000E+02  9.60000000E+01  0.00000000E+00
  2.90000000E+02  9.60000000E+01  0.00000000E+00
  3.00000000E+02  9.60000000E+01  0.00000000E+00
  3.10000000E+02  9.60000000E+01  0.00000000E+00
  3.20000000E+02  9.60000000E+01  0.00000000E+00
  3.30000000E+02  9.60000000E+01  0.00000000E+00
  3.40000000E+02  9.60000000E+01  0.00000000E+00
  3.50000000E+02  9.60000000E+01  0.00000000E+00
  3.60000000E+02  9.60000000E+01  0.00000000E+00
  3.70000000E+02  9.60000000E+01  0.00000000E+00
  3.80000000E+02  9.60000000E+01  0.00000000E+00
  3.90000000E+02  9.60000000E+01  0.00000000E+00
  4.00000000E+02  9.60000000E+01  0.00000000E+00
  4.10000000E+02  9.60000000E+01  0.00000000E+00
  4.20000000E+02  9.60000000E+01  0.00000000E+00
  4.30000000E+02  9.60000000E+01  0.00000000E+00
  4.40000000E+02  9.60000000E+01  0.00000000E+00
  4.50000000E+02  9.60000000E+01  0.00000000E+00
  4.60000000E+02  9.60000000E+01  0.00000000E+00
  4.70000000E+02  9.60000000E+01  0.00000000E+00
  4.80000000E+02  9.60000000E+01  0.00000000E+00
  4.90000000E+02  9.60000000E+01  0.00000000E+00
  5.00000000E+02  9.60000000E+01  0.00000000E+00
  5.10000000E+02  9.60000000E+01  0.00000000E+00
  5.20000000E+02  9.60000000E+01  0.00000000E+00
  5.30000000E+02  9.60000000E+01  0.00000000E+00
  5.40000000E+02  9.60000000E+01  0.00000000E+00
  5.50000000E+02  9.60000000E+01  0.00000000E+00
  5.60000000E+02  9.60000000E+01  0.00000000E+00
  5.70000000E+02  9.60000000E+01  0.00000000E+00
  5.80000000E+02  9.60000000E+01  0.00000000E+00
  5.90000000E+02  9.60000000E+01  0.00000000E+00
  6.00000000E+02  9.60000000E+01  0.00000000E+00
  6.10000000E+02  9.60000000E+01  0.00000000E+00
  6.20000000E+02  9.60000000E+01  0.00000000E+00
  6.30000000E+02  9.60000000E+01  0.00000000E+00
  6.40000000E+02  9.60000000E+01  0.00000000E+00
  6.50000000E+02  9.60000000E+01  0.00000000E+00
  6.60000000E+02  9.60000000E+01  0.00000000E+00
  6.70000000E+02  9.60000000E+01  0.00000000E+00
  6.80000000E+02  9.60000000E+01  0.00000000E+00
  6.90000000E+02  9.60000000E+01  0.00000000E+00
  7.00000000E+02  9.60000000E+01  0.00000000E+00
  7.10000000E+02  9.60000000E+01  0.00000000E+00
  7.20000000E+02  9.60000000E+01  0.00000000E+00
  7.30000000E+02  9.60000000E+01  0.00000000E+00
  7.40000000E+02  9.60000000E+01  0.00000000E+00
  7.50000000E+02  9.60000000E+01  0.00000000E+00
  7.60000000E+02  9.60000000E+01  0.00000000E+00
  7.70000000E+02  9.60000000E+01  0.00000000E+00
  7.80000000E+02  9.60000000E+01  0.00000000E+00
  7.90000000E+02  9.60000000E+01  0.00000000E+00
  8.00000000E+02  9.60000000E+01  0.00000000E+00
  8.10000000E+02  9.60000000E+01  0.00000000E+00
  8.20000000E+02  9.60000000E+01  0.00000000E+00
  8.30000000E+02  9.60000000E+01  0.00000000E+00
  8.40000000E+02  9.60000000E+01  0.00000000E+00
  8.50000000E+02  9.60000000E+01  0.00000000E+00
  8.60000000E+02  9.60000000E+01  0.00000000E+00
  8.70000000E+02  9.60000000E+01  0.00000000E+00
  8.80000000E+02  9.60000000E+01  0.00000000E+00
  8.90000000E+02  9.60000000E+01  0.00000000E+00
  9.00000000E+02  9.60000000E+01  0.00000000E+00
  9.10000000E+02  9.60000000E+01  0.00000000E+00
  9.20000000E+02  9.60000000E+01  0.00000000E+00
  9.30000000E+02  9.60000000E+01  0.00000000E+00
  9.40000000E+02  9.60000000E+01  0.00000000E+00
  9.50000000E+02  9.60000000E+01  0.00000000E+00
  9.60000000E+02  9.60000000E+01  0.00000000E+00
  9.70000000E+02  9.60000000E+01  0.00000000E+00
  9.80000000E+02  9.60000000E+01  0.00000000E+00
  9.90000000E+02  9.60000000E+01  0.00000000E+00
  1.00000000E+03  9.60000000E+01  0.00000000E+00
  0.00000000E+00  9.80000000E+01  0.00000000E+00
  1.00000000E+01  9.80000000E+01  0.00000000E+00
  2.00000000E+01  9.80000000E+01  0.00000000E+00
  3.00000000E+01  9.80000000E+01  0.00000000E+00
  4.00000000E+01  9.80000000E+01  0.00000000E+00
  5.00000000E+01  9.80000000E+01  0.00000000E+00
  6.00000000E+01  9.80000000E+01  0.00000000E+00
  7.00000000E+01  9.80000000E+01  0.00000000E+00
  8.00000000E+01  9.80000000E+01  0.00000000E+00
  9.00000000E+01  9.80000000E+01  0.00000000E+00
  1.00000000E+02  9.80000000E+01  0.00000000E+00
  1.10000000E+02  9.80000000E+01  0.00000000E+00
  1.20000000E+02  9.80000000E+01  0.00000000E+00
  1.30000000E+02  9.80000000E+01  0.00000000E+00
  1.40000000E+02  9.80000000E+01  0.00000000E+00
  1.50000000E+02  9.80000000E+01  0.00000000E+00
  1.60000000E+02  9.80000000E+01  0.00000000E+00
  1.70000000E+02  9.80000000E+01  0.00000000E+00
  1.80000000E+02  9.80000000E+01  0.00000000E+00
  1.90000000E+02  9.80000000E+01  0.00000000E+00
  2.00000000E+02  9.80000000E+01  0.00000000E+00
  2.10000000E+02  9.80000000E+01  0.00000000E+00
  2.20000000E+02  9.80000000E+01  0.00000000E+00
  2.30000000E+02  9.80000000E+01  0.00000000E+00
  2.40000000E+02  9.80000000E+01  0.00000000E+00
  2.50000000E+02  9.80000000E+01  0.00000000E+00
  2.60000000E+02  9.80000000E+01  0.00000000E+00
  2.70000000E+02  9.80000000E+01  0.00000000E+00
  2.80000000E+02  9.80000000E+01  0.00000000E+00
  2.90000000E+02  9.80000000E+01  0.00000000E+00
  3.00000000E+02  9.80000000E+01  0.00000000E+00
  3.10000000E+02  9.80000000E+01  0.00000000E+00
  3.20000000E+02  9.80000000E+01  0.00000000E+00
  3.30000000E+02  9.80000000E+01  0.00000000E+00
  3.40000000E+02  9.80000000E+01  0.00000000E+00
  3.50000000E+02  9.80000000E+01  0.00000000E+00
  3.60000000E+02  9.80000000E+01  0.00000000E+00
  3.70000000E+02  9.80000000E+01  0.00000000E+00
  3.80000000E+02  9.80000000E+01  0.00000000E+00
  3.90000000E+02  9.80000000E+01  0.00000000E+00
  4.00000000E+02  9.80000000E+01  0.00000000E+00
  4.10000000E+02  9.80000000E+01  0.00000000E+00
  4.20000000E+02  9.80000000E+01  0.00000000E+00
  4.30000000E+02  9.80000000E+01  0.00000000E+00
  4.40000000E+02  9.80000000E+01  0.00000000E+00
  4.50000000E+02  9.80000000E+01  0.00000000E+00
  4.60000000E+02  9.80000000E+01  0.00000000E+00
  4.70000000E+02  9.80000000E+01  0.00000000E+00
  4.80000000E+02  9.80000000E+01  0.00000000E+00
  4.90000000E+02  9.80000000E+01  0.00000000E+00
  5.00000000E+02  9.80000000E+01  0.00000000E+00
  5.10000000E+02  9.80000000E+01  0.00000000E+00
  5.20000000E+02  9.80000000E+01  0.00000000E+00
  5.30000000E+02  9.80000000E+01  0.00000000E+00
  5.40000000E+02  9.80000000E+01  0.00000000E+00
  5.50000000E+02  9.80000000E+01  0.00000000E+00
  5.60000000E+02  9.80000000E+01  0.00000000E+00
  5.70000000E+02  9.80000000E+01  0.00000000E+00
  5.80000000E+02  9.80000000E+01  0.00000000E+00
  5.90000000E+02  9.80000000E+01  0.00000000E+00
  6.00000000E+02  9.80000000E+01  0.00000000E+00
  6.10000000E+02  9.80000000E+01  0.00000000E+00
  6.20000000E+02  9.80000000E+01  0.00000000E+00
  6.30000000E+02  9.80000000E+01  0.00000000E+00
  6.40000000E+02  9.80000000E+01  0.00000000E+00
  6.50000000E+02  9.80000000E+01  0.00000000E+00
  6.60000000E+02  9.80000000E+01  0.00000000E+00
  6.70000000E+02  9.80000000E+01  0.00000000E+00
  6.80000000E+02  9.80000000E+01  0.00000000E+00
  6.90000000E+02  9.80000000E+01  0.00000000E+00
  7.00000000E+02  9.80000000E+01  0.00000000E+00
  7.10000000E+02  9.80000000E+01  0.00000000E+00
  7.20000000E+02  9.80000000E+01  0.00000000E+00
  7.30000000E+02  9.80000000E+01  0.00000000E+00
  7.40000000E+02  9.80000000E+01  0.00000000E+00
  7.50000000E+02  9.80000000E+01  0.00000000E+00
  7.60000000E+02  9.80000000E+01  0.00000000E+00
  7.70000000E+02  9.80000000E+01  0.00000000E+00
  7.80000000E+02  9.80000000E+01  0.00000000E+00
  7.90000000E+02  9.80000000E+01  0.00000000E+00
  8.00000000E+02  9.80000000E+01  0.00000000E+00
  8.10000000E+02  9.80000000E+01  0.00000000E+00
  8.20000000E+02  9.80000000E+01  0.00000000E+00
  8.30000000E+02  9.80000000E+01  0.00000000E+00
  8.40000000E+02  9.80000000E+01  0.00000000E+00
  8.50000000E+02  9.80000000E+01  0.00000000E+00
  8.60000000E+02  9.80000000E+01  0.00000000E+00
  8.70000000E+02  9.80000000E+01  0.00000000E+00
  8.80000000E+02  9.80000000E+01  0.00000000E+00
  8.90000000E+02  9.80000000E+01  0.00000000E+00
  9.00000000E+02  9.80000000E+01  0.00000000E+00
  9.10000000E+02  9.80000000E+01  0.00000000E+00
  9.20000000E+02  9.80000000E+01  0.00000000E+00
  9.30000000E+02  9.80000000E+01  0.00000000E+00
  9.40000000E+02  9.80000000E+01  0.00000000E+00
  9.50000000E+02  9.80000000E+01  0.00000000E+00
  9.60000000E+02  9.80000000E+01  0.00000000E+00
  9.70000000E+02  9.80000000E+01  0.00000000E+00
  9.80000000E+02  9.80000000E+01  0.00000000E+00
  9.90000000E+02  9.80000000E+01  0.00000000E+00
  1.00000000E+03  9.80000000E+01  0.00000000E+00
  0.00000000E+00  1.00000000E+02  0.00000000E+00
  1.00000000E+01  1.00000000E+02  0.00000000E+00
  2.00000000E+01  1.00000000E+02  0.00000000E+00
  3.00000000E+01  1.00000000E+02  0.00000000E+00
  4.00000000E+01  1.00000000E+02  0.00000000E+00
  5.00000000E+01  1.00000000E+02  0.00000000E+00
  6.00000000E+01  1.00000000E+02  0.00000000E+00
  7.00000000E+01  1.00000000E+02  0.00000000E+00
  8.00000000E+01  1.00000000E+02  0.00000000E+00
  9.00000000E+01  1.00000000E+02  0.00000000E+00
  1.00000000E+02  1.00000000E+02  0.00000000E+00
  1.10000000E+02  1.00000000E+02  0.00000000E+00
  1.20000000E+02  1.00000000E+02  0.00000000E+00
  1.30000000E+02  1.00000000E+02  0.00000000E+00
  1.40000000E+02  1.00000000E+02  0.00000000E+00
  1.50000000E+02  1.00000000E+02  0.00000000E+00
  1.60000000E+02  1.00000000E+02  0.00000000E+00
  1.70000000E+02  1.00000000E+02  0.00000000E+00
  1.80000000E+02  1.00000000E+02  0.00000000E+00
  1.90000000E+02  1.00000000E+02  0.00000000E+00
  2.00000000E+02  1.00000000E+02  0.00000000E+00
  2.10000000E+02  1.00000000E+02  0.00000000E+00
  2.20000000E+02  1.00000000E+02  0.00000000E+00
  2.30000000E+02  1.00000000E+02  0.00000000E+00
  2.40000000E+02  1.00000000E+02  0.00000000E+00
  2.50000000E+02  1.00000000E+02  0.00000000E+00
  2.60000000E+02  1.00000000E+02  0.00000000E+00
  2.70000000E+02  1.00000000E+02  0.00000000E+00
  2.80000000E+02  1.00000000E+02  0.00000000E+00
  2.90000000E+02  1.00000000E+02  0.00000000E+00
  3.00000000E+02  1.00000000E+02  0.00000000E+00
  3.10000000E+02  1.00000000E+02  0.00000000E+00
  3.20000000E+02  1.00000000E+02  0.00000000E+00
  3.30000000E+02  1.00000000E+02  0.00000000E+00
  3.40000000E+02  1.00000000E+02  0.00000000E+00
  3.50000000E+02  1.00000000E+02  0.00000000E+00
  3.60000000E+02  1.00000000E+02  0.00000000E+00
  3.70000000E+02  1.00000000E+02  0.00000000E+00
  3.80000000E+02  1.00000000E+02  0.00000000E+00
  3.90000000E+02  1.00000000E+02  0.00000000E+00
  4.00000000E+02  1.00000000E+02  0.00000000E+00
  4.10000000E+02  1.00000000E+02  0.00000000E+00
  4.20000000E+02  1.00000000E+02  0.00000000E+00
  4.30000000E+02  1.00000000E+02  0.00000000E+00
  4.40000000E+02  1.00000000E+02  0.00000000E+00
  4.50000000E+02  1.00000000E+02  0.00000000E+00
  4.60000000E+02  1.00000000E+02  0.00000000E+00
  4.70000000E+02  1.00000000E+02  0.00000000E+00
  4.80000000E+02  1.00000000E+02  0.00000000E+00
  4.90000000E+02  1.00000000E+02  0.00000000E+00
  5.00000000E+02  1.00000000E+02  0.00000000E+00
  5.10000000E+02  1.00000000E+02  0.00000000E+00
  5.20000000E+02  1.00000000E+02  0.00000000E+00
  5.30000000E+02  1.00000000E+02  0.00000000E+00
  5.40000000E+02  1.00000000E+02  0.00000000E+00
  5.50000000E+02  1.00000000E+02  0.00000000E+00
  5.60000000E+02  1.00000000E+02  0.00000000E+00
  5.70000000E+02  1.00000000E+02  0.00000000E+00
  5.80000000E+02  1.00000000E+02  0.00000000E+00
  5.90000000E+02  1.00000000E+02  0.00000000E+00
  6.00000000E+02  1.00000000E+02  0.00000000E+00
  6.10000000E+02  1.00000000E+02  0.00000000E+00
  6.20000000E+02  1.00000000E+02  0.00000000E+00
  6.30000000E+02  1.00000000E+02  0.00000000E+00
  6.40000000E+02  1.00000000E+02  0.00000000E+00
  6.50000000E+02  1.00000000E+02  0.00000000E+00
  6.60000000E+02  1.00000000E+02  0.00000000E+00
  6.70000000E+02  1.00000000E+02  0.00000000E+00
  6.80000000E+02  1.00000000E+02  0.00000000E+00
  6.90000000E+02  1.00000000E+02  0.00000000E+00
  7.00000000E+02  1.00000000E+02  0.00000000E+00
  7.10000000E+02  1.00000000E+02  0.00000000E+00
  7.20000000E+02  1.00000000E+02  0.00000000E+00
  7.30000000E+02  1.00000000E+02  0.00000000E+00
  7.40000000E+02  1.00000000E+02  0.00000000E+00
  7.50000000E+02  1.00000000E+02  0.00000000E+00
  7.60000000E+02  1.00000000E+02  0.00000000E+00
  7.70000000E+02  1.00000000E+02  0.00000000E+00
  7.80000000E+02  1.00000000E+02  0.00000000E+00
  7.90000000E+02  1.00000000E+02  0.00000000E+00
  8.00000000E+02  1.00000000E+02  0.00000000E+00
  8.10000000E+02  1.00000000E+02  0.00000000E+00
  8.20000000E+02  1.00000000E+02  0.00000000E+00
  8.30000000E+02  1.00000000E+02  0.00000000E+00
  8.40000000E+02  1.00000000E+02  0.00000000E+00
  8.50000000E+02  1.00000000E+02  0.00000000E+00
  8.60000000E+02  1.00000000E+02  0.00000000E+00
  8.70000000E+02  1.00000000E+02  0.00000000E+00
  8.80000000E+02  1.00000000E+02  0.00000000E+00
  8.90000000E+02  1.00000000E+02  0.00000000E+00
  9.00000000E+02  1.00000000E+02  0.00000000E+00
  9.10000000E+02  1.00000000E+02  0.00000000E+00
  9.20000000E+02  1.00000000E+02  0.00000000E+00
  9.30000000E+02  1.00000000E+02  0.00000000E+00
  9.40000000E+02  1.00000000E+02  0.00000000E+00
  9.50000000E+02  1.00000000E+02  0.00000000E+00
  9.60000000E+02  1.00000000E+02  0.00000000E+00
  9.70000000E+02  1.00000000E+02  0.00000000E+00
  9.80000000E+02  1.00000000E+02  0.00000000E+00
  9.90000000E+02  1.00000000E+02  0.00000000E+00
  1.00000000E+03  1.00000000E+02  0.00000000E+00
CELLS      5000     25000
         4           0           1         102         101
         4           1           2         103         102
         4           2           3         104         103
         4           3           4         105         104
         4           4           5         106         105
         4           5           6         107         106
         4           6           7         108         107
         4           7           8         109         108
         4           8           9         110         109
         4           9          10         111         110
         4          10          11         112         111
         4          11          12         113         112
         4          12          13         114         113
         4          13          14         115         114
         4          14          15         116         115
         4          15          16         117         116
         4          16          17         118         117
         4          17          18         119         118
         4          18          19         120         119
         4          19          20         121         120
         4          20          21         122         121
         4          21          22         123         122
         4          22          23         124         123
         4          23          24         125         124
         4          24          25         126         125
         4          25          26         127         126
         4          26          27         128         127
         4          27          28         129         128
         4          28          29         130         129
         4          29          30         131         130
         4          30          31         132         131
         4          31          32         133         132
         4          32          33         134         133
         4          33          34         135         134
         4          34          35         136         135
         4          35          36         137         136
         4          36          37         138         137
         4          37          38         139         138
         4          38          39         140         139
         4          39          40         141         140
         4          40          41         142         141
         4          41          42         143         142
         4          42          43         144         143
         4          43          44         145         144
         4          44          45         146         145
         4          45          46         147         146
         4          46          47         148         147
         4          47          48         149         148
         4          48          49         150         149
         4          49          50         151         150
         4          50          51         152         151
         4          51          52         153         152
         4          52          53         154         153
         4          53          54         155         154
         4          54          55         156         155
         4          55          56         157         156
         4          56          57         158         157
         4          57          58         159         158
         4          58          59         160         159
         4          59          60         161         160
         4          60          61         162         161
         4          61          62         163         162
         4          62          63         164         163
         4          63          64         165         164
         4          64          65         166         165
         4          65          66         167         166
         4          66          67         168         167
         4          67          68         169         168
         4          68          69         170         169
         4          69          70         171         170
         4          70          71         172         171
         4          71          72         173         172
         4          72          73         174         173
         4          73          74         175         174
         4          74          75         176         175
         4          75          76         177         176
         4          76          77         178         177
         4          77          78         179         178
         4          78          79         180         179
         4          79          80         181         180
         4          80          81         182         181
         4          81          82         183         182
         4          82          83         184         183
         4          83          84         185         184
         4          84          85         186         185
         4          85          86         187         186
         4          86          87         188         187
         4          87          88         189         188
         4          88          89         190         189
         4          89          90         191         190
         4          90          91         192         191
         4          91          92         193         192
         4          92          93         194         193
         4          93          94         195         194
         4          94          95         196         195
         4          95          96         197         196
         4          96          97         198         197
         4          97          98         199         198
         4          98          99         200         199
         4          99         100         201         200
         4         101         102         203         202
         4         102         103         204         203
         4         103         104         205         204
         4         104         105         206         205
         4         105         106         207         206
         4         106         107         208         207
         4         107         108         209         208
         4         108         109         210         209
         4         109         110         211         210
         4         110         111         212         211
         4         111         112         213         212
         4         112         113         214         213
         4         113         114         215         214
         4         114         115         216         215
         4         115         116         217         216
         4         116         117         218         217
         4         117         118         219         218
         4         118         119         220         219
         4         119         120         221         220
         4         120         121         222         221
         4         121         122         223         222
         4         122         123         224         223
         4         123         124         225         224
         4         124         125         226         225
         4         125         126         227         226
         4         126         127         228         227
         4         127         128         229         228
         4         128         129         230         229
         4         129         130         231         230
         4         130         131         232         231
         4         131         132         233         232
         4         132         133         234         233
         4         133         134         235         234
         4         134         135         236         235
         4         135         136         237         236
         4         136         137         238         237
         4         137         138         239         238
         4         138         139         240         239
         4         139         140         241         240
         4         140         141         242         241
         4         141         142         243         242
         4         142         143         244         243
         4         143         144         245         244
         4         144         145         246         245
         4         145         146         247         246
         4         146         147         248         247
         4         147         148         249         248
         4         148         149         250         249
         4         149         150         251         250
         4         150         151         252         251
         4         151         152         253         252
         4         152         153         254         253
         4         153         154         255         254
         4         154         155         256         255
         4         155         156         257         256
         4         156         157         258         257
         4         157         158         259         258
         4         158         159         260         259
         4         159         160         261         260
         4         160         161         262         261
         4         161         162         263         262
         4         162         163         264         263
         4         163         164         265         264
         4         164         165         266         265
         4         165         166         267         266
         4         166         167         268         267
         4         167         168         269         268
         4         168         169         270         269
         4         169         170         271         270
         4         170         171         272         271
         4         171         172         273         272
         4         172         173         274         273
         4         173         174         275         274
         4         174         175         276         275
         4         175         176         277         276
         4         176         177         278         277
         4         177         178         279         278
         4         178         179         280         279
         4         179         180         281         280
         4         180         181         282         281
         4         181         182         283         282
         4         182         183         284         283
         4         183         184         285         284
         4         184         185         286         285
         4         185         186         287         286
         4         186         187         288         287
         4         187         188         289         288
         4         188         189         290         289
         4         189         190         291         290
         4         190         191         292         291
         4         191         192         293         292
         4         192         193         294         293
         4         193         194         295         294
         4         194         195         296         295
         4         195         196         297         296
         4         196         197         298         297
         4         197         198         299         298
         4         198         199         300         299
         4         199         200         301         300
         4         200         201         302         301
         4         202         203         304         303
         4         203         204         305         304
         4         204         205         306         305
         4         205         206         307         306
         4         206         207         308         307
         4         207         208         309         308
         4         208         209         310         309
         4         209         210         311         310
         4         210         211         312         311
         4         211         212         313         312
         4         212         213         314         313
         4         213         214         315         314
         4         214         215         316         315
         4         215         216         317         316
         4         216         217         318         317
         4         217         218         319         318
         4         218         219         320         319
         4         219         220         321         320
         4         220         221         322         321
         4         221         222         323         322
         4         222         223         324         323
         4         223         224         325         324
         4         224         225         326         325
         4         225         226         327         326
         4         226         227         328         327
         4         227         228         329         328
         4         228         229         330         329
         4         229         230         331         330
         4         230         231         332         331
         4         231         232         333         332
         4         232         233         334         333
         4         233         234         335         334
         4         234         235         336         335
         4         235         236         337         336
         4         236         237         338         337
         4         237         238         339         338
         4         238         239         340         339
         4         239         240         341         340
         4         240         241         342         341
         4         241         242         343         342
         4         242         243         344         343
         4         243         244         345         344
         4         244         245         346         345
         4         245         246         347         346
         4         246         247         348         347
         4         247         248         349         348
         4         248         249         350         349
         4         249         250         351         350
         4         250         251         352         351
         4         251         252         353         352
         4         252         253         354         353
         4         253         254         355         354
         4         254         255         356         355
         4         255         256         357         356
         4         256         257         358         357
         4         257         258         359         358
         4         258         259         360         359
         4         259         260         361         360
         4         260         261         362         361
         4         261         262         363         362
         4         262         263         364         363
         4         263         264         365         364
         4         264         265         366         365
         4         265         266         367         366
         4         266         267         368         367
         4         267         268         369         368
         4         268         269         370         369
         4         269         270         371         370
         4         270         271         372         371
         4         271         272         373         372
         4         272         273         374         373
         4         273         274         375         374
         4         274         275         376         375
         4         275         276         377         376
         4         276         277         378         377
         4         277         278         379         378
         4         278         279         380         379
         4         279         280         381         380
         4         280         281         382         381
         4         281         282         383         382
         4         282         283         384         383
         4         283         284         385         384
         4         284         285         386         385
         4         285         286         387         386
         4         286         287         388         387
         4         287         288         389         388
         4         288         289         390         389
         4         289         290         391         390
         4         290         291         392         391
         4         291         292         393         392
         4         292         293         394         393
         4         293         294         395         394
         4         294         295         396         395
         4         295         296         397         396
         4         296         297         398         397
         4         297         298         399         398
         4         298         299         400         399
         4         299         300         401         400
         4         300         301         402         401
         4         301         302         403         402
         4         303         304         405         404
         4         304         305         406         405
         4         305         306         407         406
         4         306         307         408         407
         4         307         308         409         408
         4         308         309         410         409
         4         309         310         411         410
         4         310         311         412         411
         4         311         312         413         412
         4         312         313         414         413
         4         313         314         415         414
         4         314         315         416         415
         4         315         316         417         416
         4         316         317         418         417
         4         317         318         419         418
         4         318         319         420         419
         4         319         320         421         420
         4         320         321         422         421
         4         321         322         423         422
         4         322         323         424         423
         4         323         324         425         424
         4         324         325         426         425
         4         325         326         427         426
         4         326         327         428         427
         4         327         328         429         428
         4         328         329         430         429
         4         329         330         431         430
         4         330         331         432         431
         4         331         332         433         432
         4         332         333         434         433
         4         333         334         435         434
         4         334         335         436         435
         4         335         336         437         436
         4         336         337         438         437
         4         337         338         439         438
         4         338         339         440         439
         4         339         340         441         440
         4         340         341         442         441
         4         341         342         443         442
         4         342         343         444         443
         4         343         344         445         444
         4         344         345         446         445
         4         345         346         447         446
         4         346         347         448         447
         4         347         348         449         448
         4         348         349         450         449
         4         349         350         451         450
         4         350         351         452         451
         4         351         352         453         452
         4         352         353         454         453
         4         353         354         455         454
         4         354         355         456         455
         4         355         356         457         456
         4         356         357         458         457
         4         357         358         459         458
         4         358         359         460         459
         4         359         360         461         460
         4         360         361         462         461
         4         361         362         463         462
         4         362         363         464         463
         4         363         364         465         464
         4         364         365         466         465
         4         365         366         467         466
         4         366         367         468         467
         4         367         368         469         468
         4         368         369         470         469
         4         369         370         471         470
         4         370         371         472         471
         4         371         372         473         472
         4         372         373         474         473
         4         373         374         475         474
         4         374         375         476         475
         4         375         376         477         476
         4         376         377         478         477
         4         377         378         479         478
         4         378         379         480         479
         4         379         380         481         480
         4         380         381         482         481
         4         381         382         483         482
         4         382         383         484         483
         4         383         384         485         484
         4         384         385         486         485
         4         385         386         487         486
         4         386         387         488         487
         4         387         388         489         488
         4         388         389         490         489
         4         389         390         491         490
         4         390         391         492         491
         4         391         392         493         492
         4         392         393         494         493
         4         393         394         495         494
         4         394         395         496         495
         4         395         396         497         496
         4         396         397         498         497
         4         397         398         499         498
         4         398         399         500         499
         4         399         400         501         500
         4         400         401         502         501
         4         401         402         503         502
         4         402         403         504         503
         4         404         405         506         505
         4         405         406         507         506
         4         406         407         508         507
         4         407         408         509         508
         4         408         409         510         509
         4         409         410         511         510
         4         410         411         512         511
         4         411         412         513         512
         4         412         413         514         513
         4         413         414         515         514
         4         414         415         516         515
         4         415         416         517         516
         4         416         417         518         517
         4         417         418         519         518
         4         418         419         520         519
         4         419         420         521         520
         4         420         421         522         521
         4         421         422         523         522
         4         422         423         524         523
         4         423         424         525         524
         4         424         425         526         525
         4         425         426         527         526
         4         426         427         528         527
         4         427         428         529         528
         4         428         429         530         529
         4         429         430         531         530
         4         430         431         532         531
         4         431         432         533         532
         4         432         433         534         533
         4         433         434         535         534
         4         434         435         536         535
         4         435         436         537         536
         4         436         437         538         537
         4         437         438         539         538
         4         438         439         540         539
         4         439         440         541         540
         4         440         441         542         541
         4         441         442         543         542
         4         442         443         544         543
         4         443         444         545         544
         4         444         445         546         545
         4         445         446         547         546
         4         446         447         548         547
         4         447         448         549         548
         4         448         449         550         549
         4         449         450         551         550
         4         450         451         552         551
         4         451         452         553         552
         4         452         453         554         553
         4         453         454         555         554
         4         454         455         556         555
         4         455         456         557         556
         4         456         457         558         557
         4         457         458         559         558
         4         458         459         560         559
         4         459         460         561         560
         4         460         461         562         561
         4         461         462         563         562
         4         462         463         564         563
         4         463         464         565         564
         4         464         465         566         565
         4         465         466         567         566
         4         466         467         568         567
         4         467         468         569         568
         4         468         469         570         569
         4         469         470         571         570
         4         470         471         572         571
         4         471         472         573         572
         4         472         473         574         573
         4         473         474         575         574
         4         474         475         576         575
         4         475         476         577         576
         4         476         477         578         577
         4         477         478         579         578
         4         478         479         580         579
         4         479         480         581         580
         4         480         481         582         581
         4         481         482         583         582
         4         482         483         584         583
         4         483         484         585         584
         4         484         485         586         585
         4         485         486         587         586
         4         486         487         588         587
         4         487         488         589         588
         4         488         489         590         589
         4         489         490         591         590
         4         490         491         592         591
         4         491         492         593         592
         4         492         493         594         593
         4         493         494         595         594
         4         494         495         596         595
         4         495         496         597         596
         4         496         497         598         597
         4         497         498         599         598
         4         498         499         600         599
         4         499         500         601         600
         4         500         501         602         601
         4         501         502         603         602
         4         502         503         604         603
         4         503         504         605         604
         4         505         506         607         606
         4         506         507         608         607
         4         507         508         609         608
         4         508         509         610         609
         4         509         510         611         610
         4         510         511         612         611
         4         511         512         613         612
         4         512         513         614         613
         4         513         514         615         614
         4         514         515         616         615
         4         515         516         617         616
         4         516         517         618         617
         4         517         518         619         618
         4         518         519         620         619
         4         519         520         621         620
         4         520         521         622         621
         4         521         522         623         622
         4         522         523         624         623
         4         523         524         625         624
         4         524         525         626         625
         4         525         526         627         626
         4         526         527         628         627
         4         527         528         629         628
         4         528         529         630         629
         4         529         530         631         630
         4         530         531         632         631
         4         531         532         633         632
         4         532         533         634         633
         4         533         534         635         634
         4         534         535         636         635
         4         535         536         637         636
         4         536         537         638         637
         4         537         538         639         638
         4         538         539         640         639
         4         539         540         641         640
         4         540         541         642         641
         4         541         542         643         642
         4         542         543         644         643
         4         543         544         645         644
         4         544         545         646         645
         4         545         546         647         646
         4         546         547         648         647
         4         547         548         649         648
         4         548         549         650         649
         4         549         550         651         650
         4         550         551         652         651
         4         551         552         653         652
         4         552         553         654         653
         4         553         554         655         654
         4         554         555         656         655
         4         555         556         657         656
         4         556         557         658         657
         4         557         558         659         658
         4         558         559         660         659
         4         559         560         661         660
         4         560         561         662         661
         4         561         562         663         662
         4         562         563         664         663
         4         563         564         665         664
         4         564         565         666         665
         4         565         566         667         666
         4         566         567         668         667
         4         567         568         669         668
         4         568         569         670         669
         4         569         570         671         670
         4         570         571         672         671
         4         571         572         673         672
         4         572         573         674         673
         4         573         574         675         674
         4         574         575         676         675
         4         575         576         677         676
         4         576         577         678         677
         4         577         578         679         678
         4         578         579         680         679
         4         579         580         681         680
         4         580         581         682         681
         4         581         582         683         682
         4         582         583         684         683
         4         583         584         685         684
         4         584         585         686         685
         4         585         586         687         686
         4         586         587         688         687
         4         587         588         689         688
         4         588         589         690         689
         4         589         590         691         690
         4         590         591         692         691
         4         591         592         693         692
         4         592         593         694         693
         4         593         594         695         694
         4         594         595         696         695
         4         595         596         697         696
         4         596         597         698         697
         4         597         598         699         698
         4         598         599         700         699
         4         599         600         701         700
         4         600         601         702         701
         4         601         602         703         702
         4         602         603         704         703
         4         603         604         705         704
         4         604         605         706         705
         4         606         607         708         707
         4         607         608         709         708
         4         608         609         710         709
         4         609         610         711         710
         4         610         611         712         711
         4         611         612         713         712
         4         612         613         714         713
         4         613         614         715         714
         4         614         615         716         715
         4         615         616         717         716
         4         616         617         718         717
         4         617         618         719         718
         4         618         619         720         719
         4         619         620         721         720
         4         620         621         722         721
         4         621         622         723         722
         4         622         623         724         723
         4         623         624         725         724
         4         624         625         726         725
         4         625         626         727         726
         4         626         627         728         727
         4         627         628         729         728
         4         628         629         730         729
         4         629         630         731         730
         4         630         631         732         731
         4         631         632         733         732
         4         632         633         734         733
         4         633         634         735         734
         4         634         635         736         735
         4         635         636         737         736
         4         636         637         738         737
         4         637         638         739         738
         4         638         639         740         739
         4         639         640         741         740
         4         640         641         742         741
         4         641         642         743         742
         4         642         643         744         743
         4         643         644         745         744
         4         644         645         746         745
         4         645         646         747         746
         4         646         647         748         747
         4         647         648         749         748
         4         648         649         750         749
         4         649         650         751         750
         4         650         651         752         751
         4         651         652         753         752
         4         652         653         754         753
         4         653         654         755         754
         4         654         655         756         755
         4         655         656         757         756
         4         656         657         758         757
         4         657         658         759         758
         4         658         659         760         759
         4         659         660         761         760
         4         660         661         762         761
         4         661         662         763         762
         4         662         663         764         763
         4         663         664         765         764
         4         664         665         766         765
         4         665         666         767         766
         4         666         667         768         767
         4         667         668         769         768
         4         668         669         770         769
         4         669         670         771         770
         4         670         671         772         771
         4         671         672         773         772
         4         672         673         774         773
         4         673         674         775         774
         4         674         675         776         775
         4         675         676         777         776
         4         676         677         778         777
         4         677         678         779         778
         4         678         679         780         779
         4         679         680         781         780
         4         680         681         782         781
         4         681         682         783         782
         4         682         683         784         783
         4         683         684         785         784
         4         684         685         786         785
         4         685         686         787         786
         4         686         687         788         787
         4         687         688         789         788
         4         688         689         790         789
         4         689         690         791         790
         4         690         691         792         791
         4         691         692         793         792
         4         692         693         794         793
         4         693         694         795         794
         4         694         695         796         795
         4         695         696         797         796
         4         696         697         798         797
         4         697         698         799         798
         4         698         699         800         799
         4         699         700         801         800
         4         700         701         802         801
         4         701         702         803         802
         4         702         703         804         803
         4         703         704         805         804
         4         704         705         806         805
         4         705         706         807         806
         4         707         708         809         808
         4         708         709         810         809
         4         709         710         811         810
         4         710         711         812         811
         4         711         712         813         812
         4         712         713         814         813
         4         713         714         815         814
         4         714         715         816         815
         4         715         716         817         816
         4         716         717         818         817
         4         717         718         819         818
         4         718         719         820         819
         4         719         720         821         820
         4         720         721         822         821
         4         721         722         823         822
         4         722         723         824         823
         4         723         724         825         824
         4         724         725         826         825
         4         725         726         827         826
         4         726         727         828         827
         4         727         728         829         828
         4         728         729         830         829
         4         729         730         831         830
         4         730         731         832         831
         4         731         732         833         832
         4         732         733         834         833
         4         733         734         835         834
         4         734         735         836         835
         4         735         736         837         836
         4         736         737         838         837
         4         737         738         839         838
         4         738         739         840         839
         4         739         740         841         840
         4         740         741         842         841
         4         741         742         843         842
         4         742         743         844         843
         4         743         744         845         844
         4         744         745         846         845
         4         745         746         847         846
         4         746         747         848         847
         4         747         748         849         848
         4         748         749         850         849
         4         749         750         851         850
         4         750         751         852         851
         4         751         752         853         852
         4         752         753         854         853
         4         753         754         855         854
         4         754         755         856         855
         4         755         756         857         856
         4         756         757         858         857
         4         757         758         859         858
         4         758         759         860         859
         4         759         760         861         860
         4         760         761         862         861
         4         761         762         863         862
         4         762         763         864         863
         4         763         764         865         864
         4         764         765         866         865
         4         765         766         867         866
         4         766         767         868         867
         4         767         768         869         868
         4         768         769         870         869
         4         769         770         871         870
         4         770         771         872         871
         4         771         772         873         872
         4         772         773         874         873
         4         773         774         875         874
         4         774         775         876         875
         4         775         776         877         876
         4         776         777         878         877
         4         777         778         879         878
         4         778         779         880         879
         4         779         780         881         880
         4         780         781         882         881
         4         781         782         883         882
         4         782         783         884         883
         4         783         784         885         884
         4         784         785         886         885
         4         785         786         887         886
         4         786         787         888         887
         4         787         788         889         888
         4         788         789         890         889
         4         789         790         891         890
         4         790         791         892         891
         4         791         792         893         892
         4         792         793         894         893
         4         793         794         895         894
         4         794         795         896         895
         4         795         796         897         896
         4         796         797         898         897
         4         797         798         899         898
         4         798         799         900         899
         4         799         800         901         900
         4         800         801         902         901
         4         801         802         903         902
         4         802         803         904         903
         4         803         804         905         904
         4         804         805         906         905
         4         805         806         907         906
         4         806         807         908         907
         4         808         809         910         909
         4         809         810         911         910
         4         810         811         912         911
         4         811         812         913         912
         4         812         813         914         913
         4         813         814         915         914
         4         814         815         916         915
         4         815         816         917         916
         4         816         817         918         917
         4         817         818         919         918
         4         818         819         920         919
         4         819         820         921         920
         4         820         821         922         921
         4         821         822         923         922
         4         822         823         924         923
         4         823         824         925         924
         4         824         825         926         925
         4         825         826         927         926
         4         826         827         928         927
         4         827         828         929         928
         4         828         829         930         929
         4         829         830         931         930
         4         830         831         932         931
         4         831         832         933         932
         4         832         833         934         933
         4         833         834         935         934
         4         834         835         936         935
         4         835         836         937         936
         4         836         837         938         937
         4         837         838         939         938
         4         838         839         940         939
         4         839         840         941         940
         4         840         841         942         941
         4         841         842         943         942
         4         842         843         944         943
         4         843         844         945         944
         4         844         845         946         945
         4         845         846         947         946
         4         846         847         948         947
         4         847         848         949         948
         4         848         849         950         949
         4         849         850         951         950
         4         850         851         952         951
         4         851         852         953         952
         4         852         853         954         953
         4         853         854         955         954
         4         854         855         956         955
         4         855         856         957         956
         4         856         857         958         957
         4         857         858         959         958
         4         858         859         960         959
         4         859         860         961         960
         4         860         861         962         961
         4         861         862         963         962
         4         862         863         964         963
         4         863         864         965         964
         4         864         865         966         965
         4         865         866         967         966
         4         866         867         968         967
         4         867         868         969         968
         4         868         869         970         969
         4         869         870         971         970
         4         870         871         972         971
         4         871         872         973         972
         4         872         873         974         973
         4         873         874         975         974
         4         874         875         976         975
         4         875         876         977         976
         4         876         877         978         977
         4         877         878         979         978
         4         878         879         980         979
         4         879         880         981         980
         4         880         881         982         981
         4         881         882         983         982
         4         882         883         984         983
         4         883         884         985         984
         4         884         885         986         985
         4         885         886         987         986
         4         886         887         988         987
         4         887         888         989         988
         4         888         889         990         989
         4         889         890         991         990
         4         890         891         992         991
         4         891         892         993         992
         4         892         893         994         993
         4         893         894         995         994
         4         894         895         996         995
         4         895         896         997         996
         4         896         897         998         997
         4         897         898         999         998
         4         898         899        1000         999
         4         899         900        1001        1000
         4         900         901        1002        1001
         4         901         902        1003        1002
         4         902         903        1004        1003
         4         903         904        1005        1004
         4         904         905        1006        1005
         4         905         906        1007        1006
         4         906         907        1008        1007
         4         907         908        1009        1008
         4         909         910        1011        1010
         4         910         911        1012        1011
         4         911         912        1013        1012
         4         912         913        1014        1013
         4         913         914        1015        1014
         4         914         915        1016        1015
         4         915         916        1017        1016
         4         916         917        1018        1017
         4         917         918        1019        1018
         4         918         919        1020        1019
         4         919         920        1021        1020
         4         920         921        1022        1021
         4         921         922        1023        1022
         4         922         923        1024        1023
         4         923         924        1025        1024
         4         924         925        1026        1025
         4         925         926        1027        1026
         4         926         927        1028        1027
         4         927         928        1029        1028
         4         928         929        1030        1029
         4         929         930        1031        1030
         4         930         931        1032        1031
         4         931         932        1033        1032
         4         932         933        1034        1033
         4         933         934        1035        1034
         4         934         935        1036        1035
         4         935         936        1037        1036
         4         936         937        1038        1037
         4         937         938        1039        1038
         4         938         939        1040        1039
         4         939         940        1041        1040
         4         940         941        1042        1041
         4         941         942        1043        1042
         4         942         943        1044        1043
         4         943         944        1045        1044
         4         944         945        1046        1045
         4         945         946        1047        1046
         4         946         947        1048        1047
         4         947         948        1049        1048
         4         948         949        1050        1049
         4         949         950        1051        1050
         4         950         951        1052        1051
         4         951         952        1053        1052
         4         952         953        1054        1053
         4         953         954        1055        1054
         4         954         955        1056        1055
         4         955         956        1057        1056
         4         956         957        1058        1057
         4         957         958        1059        1058
         4         958         959        1060        1059
         4         959         960        1061        1060
         4         960         961        1062        1061
         4         961         962        1063        1062
         4         962         963        1064        1063
         4         963         964        1065        1064
         4         964         965        1066        1065
         4         965         966        1067        1066
         4         966         967        1068        1067
         4         967         968        1069        1068
         4         968         969        1070        1069
         4         969         970        1071        1070
         4         970         971        1072        1071
         4         971         972        1073        1072
         4         972         973        1074        1073
         4         973         974        1075        1074
         4         974         975        1076        1075
         4         975         976        1077        1076
         4         976         977        1078        1077
         4         977         978        1079        1078
         4         978         979        1080        1079
         4         979         980        1081        1080
         4         980         981        1082        1081
         4         981         982        1083        1082
         4         982         983        1084        1083
         4         983         984        1085        1084
         4         984         985        1086        1085
         4         985         986        1087        1086
         4         986         987        1088        1087
         4         987         988        1089        1088
         4         988         989        1090        1089
         4         989         990        1091        1090
         4         990         991        1092        1091
         4         991         992        1093        1092
         4         992         993        1094        1093
         4         993         994        1095        1094
         4         994         995        1096        1095
         4         995         996        1097        1096
         4         996         997        1098        1097
         4         997         998        1099        1098
         4         998         999        1100        1099
         4         999        1000        1101        1100
         4        1000        1001        1102        1101
         4        1001        1002        1103        1102
         4        1002        1003        1104        1103
         4        1003        1004        1105        1104
         4        1004        1005        1106        1105
         4        1005        1006        1107        1106
         4        1006        1007        1108        1107
         4        1007        1008        1109        1108
         4        1008        1009        1110        1109
         4        1010        1011        1112        1111
         4        1011        1012        1113        1112
         4        1012        1013        1114        1113
         4        1013        1014        1115        1114
         4        1014        1015        1116        1115
         4        1015        1016        1117        1116
         4        1016        1017        1118        1117
         4        1017        1018        1119        1118
         4        1018        1019        1120        1119
         4        1019        1020        1121        1120
         4        1020        1021        1122        1121
         4        1021        1022        1123        1122
         4        1022        1023        1124        1123
         4        1023        1024        1125        1124
         4        1024        1025        1126        1125
         4        1025        1026        1127        1126
         4        1026        1027        1128        1127
         4        1027        1028        1129        1128
         4        1028        1029        1130        1129
         4        1029        1030        1131        1130
         4        1030        1031        1132        1131
         4        1031        1032        1133        1132
         4        1032        1033        1134        1133
         4        1033        1034        1135        1134
         4        1034        1035        1136        1135
         4        1035        1036        1137        1136
         4        1036        1037        1138        1137
         4        1037        1038        1139        1138
         4        1038        1039        1140        1139
         4        1039        1040        1141        1140
         4        1040        1041        1142        1141
         4        1041        1042        1143        1142
         4        1042        1043        1144        1143
         4        1043        1044        1145        1144
         4        1044        1045        1146        1145
         4        1045        1046        1147        1146
         4        1046        1047        1148        1147
         4        1047        1048        1149        1148
         4        1048        1049        1150        1149
         4        1049        1050        1151        1150
         4        1050        1051        1152        1151
         4        1051        1052        1153        1152
         4        1052        1053        1154        1153
         4        1053        1054        1155        1154
         4        1054        1055        1156        1155
         4        1055        1056        1157        1156
         4        1056        1057        1158        1157
         4        1057        1058        1159        1158
         4        1058        1059        1160        1159
         4        1059        1060        1161        1160
         4        1060        1061        1162        1161
         4        1061        1062        1163        1162
         4        1062        1063        1164        1163
         4        1063        1064        1165        1164
         4        1064        1065        1166        1165
         4        1065        1066        1167        1166
         4        1066        1067        1168        1167
         4        1067        1068        1169        1168
         4        1068        1069        1170        1169
         4        1069        1070        1171        1170
         4        1070        1071        1172        1171
         4        1071        1072        1173        1172
         4        1072        1073        1174        1173
         4        1073        1074        1175        1174
         4        1074        1075        1176        1175
         4        1075        1076        1177        1176
         4        1076        1077        1178        1177
         4        1077        1078        1179        1178
         4        1078        1079        1180        1179
         4        1079        1080        1181        1180
         4        1080        1081        1182        1181
         4        1081        1082        1183        1182
         4        1082        1083        1184        1183
         4        1083        1084        1185        1184
         4        1084        1085        1186        1185
         4        1085        1086        1187        1186
         4        1086        1087        1188        1187
         4        1087        1088        1189        1188
         4        1088        1089        1190        1189
         4        1089        1090        1191        1190
         4        1090        1091        1192        1191
         4        1091        1092        1193        1192
         4        1092        1093        1194        1193
         4        1093        1094        1195        1194
         4        1094        1095        1196        1195
         4        1095        1096        1197        1196
         4        1096        1097        1198        1197
         4        1097        1098        1199        1198
         4        1098        1099        1200        1199
         4        1099        1100        1201        1200
         4        1100        1101        1202        1201
         4        1101        1102        1203        1202
         4        1102        1103        1204        1203
         4        1103        1104        1205        1204
         4        1104        1105        1206        1205
         4        1105        1106        1207        1206
         4        1106        1107        1208        1207
         4        1107        1108        1209        1208
         4        1108        1109        1210        1209
         4        1109        1110        1211        1210
         4        1111        1112        1213        1212
         4        1112        1113        1214        1213
         4        1113        1114        1215        1214
         4        1114        1115        1216        1215
         4        1115        1116        1217        1216
         4        1116        1117        1218        1217
         4        1117        1118        1219        1218
         4        1118        1119        1220        1219
         4        1119        1120        1221        1220
         4        1120        1121        1222        1221
         4        1121        1122        1223        1222
         4        1122        1123        1224        1223
         4        1123        1124        1225        1224
         4        1124        1125        1226        1225
         4        1125        1126        1227        1226
         4        1126        1127        1228        1227
         4        1127        1128        1229        1228
         4        1128        1129        1230        1229
         4        1129        1130        1231        1230
         4        1130        1131        1232        1231
         4        1131        1132        1233        1232
         4        1132        1133        1234        1233
         4        1133        1134        1235        1234
         4        1134        1135        1236        1235
         4        1135        1136        1237        1236
         4        1136        1137        1238        1237
         4        1137        1138        1239        1238
         4        1138        1139        1240        1239
         4        1139        1140        1241        1240
         4        1140        1141        1242        1241
         4        1141        1142        1243        1242
         4        1142        1143        1244        1243
         4        1143        1144        1245        1244
         4        1144        1145        1246        1245
         4        1145        1146        1247        1246
         4        1146        1147        1248        1247
         4        1147        1148        1249        1248
         4        1148        1149        1250        1249
         4        1149        1150        1251        1250
         4        1150        1151        1252        1251
         4        1151        1152        1253        1252
         4        1152        1153        1254        1253
         4        1153        1154        1255        1254
         4        1154        1155        1256        1255
         4        1155        1156        1257        1256
         4        1156        1157        1258        1257
         4        1157        1158        1259        1258
         4        1158        1159        1260        1259
         4        1159        1160        1261        1260
         4        1160        1161        1262        1261
         4        1161        1162        1263        1262
         4        1162        1163        1264        1263
         4        1163        1164        1265        1264
         4        1164        1165        1266        1265
         4        1165        1166        1267        1266
         4        1166        1167        1268        1267
         4        1167        1168        1269        1268
         4        1168        1169        1270        1269
         4        1169        1170        1271        1270
         4        1170        1171        1272        1271
         4        1171        1172        1273        1272
         4        1172        1173        1274        1273
         4        1173        1174        1275        1274
         4        1174        1175        1276        1275
         4        1175        1176        1277        1276
         4        1176        1177        1278        1277
         4        1177        1178        1279        1278
         4        1178        1179        1280        1279
         4        1179        1180        1281        1280
         4        1180        1181        1282        1281
         4        1181        1182        1283        1282
         4        1182        1183        1284        1283
         4        1183        1184        1285        1284
         4        1184        1185        1286        1285
         4        1185        1186        1287        1286
         4        1186        1187        1288        1287
         4        1187        1188        1289        1288
         4        1188        1189        1290        1289
         4        1189        1190        1291        1290
         4        1190        1191        1292        1291
         4        1191        1192        1293        1292
         4        1192        1193        1294        1293
         4        1193        1194        1295        1294
         4        1194        1195        1296        1295
         4        1195        1196        1297        1296
         4        1196        1197        1298        1297
         4        1197        1198        1299        1298
         4        1198        1199        1300        1299
         4        1199        1200        1301        1300
         4        1200        1201        1302        1301
         4        1201        1202        1303        1302
         4        1202        1203        1304        1303
         4        1203        1204        1305        1304
         4        1204        1205        1306        1305
         4        1205        1206        1307        1306
         4        1206        1207        1308        1307
         4        1207        1208        1309        1308
         4        1208        1209        1310        1309
         4        1209        1210        1311        1310
         4        1210        1211        1312        1311
         4        1212        1213        1314        1313
         4        1213        1214        1315        1314
         4        1214        1215        1316        1315
         4        1215        1216        1317        1316
         4        1216        1217        1318        1317
         4        1217        1218        1319        1318
         4        1218        1219        1320        1319
         4        1219        1220        1321        1320
         4        1220        1221        1322        1321
         4        1221        1222        1323        1322
         4        1222        1223        1324        1323
         4        1223        1224        1325        1324
         4        1224        1225        1326        1325
         4        1225        1226        1327        1326
         4        1226        1227        1328        1327
         4        1227        1228        1329        1328
         4        1228        1229        1330        1329
         4        1229        1230        1331        1330
         4        1230        1231        1332        1331
         4        1231        1232        1333        1332
         4        1232        1233        1334        1333
         4        1233        1234        1335        1334
         4        1234        1235        1336        1335
         4        1235        1236        1337        1336
         4        1236        1237        1338        1337
         4        1237        1238        1339        1338
         4        1238        1239        1340        1339
         4        1239        1240        1341        1340
         4        1240        1241        1342        1341
         4        1241        1242        1343        1342
         4        1242        1243        1344        1343
         4        1243        1244        1345        1344
         4        1244        1245        1346        1345
         4        1245        1246        1347        1346
         4        1246        1247        1348        1347
         4        1247        1248        1349        1348
         4        1248        1249        1350        1349
         4        1249        1250        1351        1350
         4        1250        1251        1352        1351
         4        1251        1252        1353        1352
         4        1252        1253        1354        1353
         4        1253        1254        1355        1354
         4        1254        1255        1356        1355
         4        1255        1256        1357        1356
         4        1256        1257        1358        1357
         4        1257        1258        1359        1358
         4        1258        1259        1360        1359
         4        1259        1260        1361        1360
         4        1260        1261        1362        1361
         4        1261        1262        1363        1362
         4        1262        1263        1364        1363
         4        1263        1264        1365        1364
         4        1264        1265        1366        1365
         4        1265        1266        1367        1366
         4        1266        1267        1368        1367
         4        1267        1268        1369        1368
         4        1268        1269        1370        1369
         4        1269        1270        1371        1370
         4        1270        1271        1372        1371
         4        1271        1272        1373        1372
         4        1272        1273        1374        1373
         4        1273        1274        1375        1374
         4        1274        1275        1376        1375
         4        1275        1276        1377        1376
         4        1276        1277        1378        1377
         4        1277        1278        1379        1378
         4        1278        1279        1380        1379
         4        1279        1280        1381        1380
         4        1280        1281        1382        1381
         4        1281        1282        1383        1382
         4        1282        1283        1384        1383
         4        1283        1284        1385        1384
         4        1284        1285        1386        1385
         4        1285        1286        1387        1386
         4        1286        1287        1388        1387
         4        1287        1288        1389        1388
         4        1288        1289        1390        1389
         4        1289        1290        1391        1390
         4        1290        1291        1392        1391
         4        1291        1292        1393        1392
         4        1292        1293        1394        1393
         4        1293        1294        1395        1394
         4        1294        1295        1396        1395
         4        1295        1296        1397        1396
         4        1296        1297        1398        1397
         4        1297        1298        1399        1398
         4        1298        1299        1400        1399
         4        1299        1300        1401        1400
         4        1300        1301        1402        1401
         4        1301        1302        1403        1402
         4        1302        1303        1404        1403
         4        1303        1304        1405        1404
         4        1304        1305        1406        1405
         4        1305        1306        1407        1406
         4        1306        1307        1408        1407
         4        1307        1308        1409        1408
         4        1308        1309        1410        1409
         4        1309        1310        1411        1410
         4        1310        1311        1412        1411
         4        1311        1312        1413        1412
         4        1313        1314        1415        1414
         4        1314        1315        1416        1415
         4        1315        1316        1417        1416
         4        1316        1317        1418        1417
         4        1317        1318        1419        1418
         4        1318        1319        1420        1419
         4        1319        1320        1421        1420
         4        1320        1321        1422        1421
         4        1321        1322        1423        1422
         4        1322        1323        1424        1423
         4        1323        1324        1425        1424
         4        1324        1325        1426        1425
         4        1325        1326        1427        1426
         4        1326        1327        1428        1427
         4        1327        1328        1429        1428
         4        1328        1329        1430        1429
         4        1329        1330        1431        1430
         4        1330        1331        1432        1431
         4        1331        1332        1433        1432
         4        1332        1333        1434        1433
         4        1333        1334        1435        1434
         4        1334        1335        1436        1435
         4        1335        1336        1437        1436
         4        1336        1337        1438        1437
         4        1337        1338        1439        1438
         4        1338        1339        1440        1439
         4        1339        1340        1441        1440
         4        1340        1341        1442        1441
         4        1341        1342        1443        1442
         4        1342        1343        1444        1443
         4        1343        1344        1445        1444
         4        1344        1345        1446        1445
         4        1345        1346        1447        1446
         4        1346        1347        1448        1447
         4        1347        1348        1449        1448
         4        1348        1349        1450        1449
         4        1349        1350        1451        1450
         4        1350        1351        1452        1451
         4        1351        1352        1453        1452
         4        1352        1353        1454        1453
         4        1353        1354        1455        1454
         4        1354        1355        1456        1455
         4        1355        1356        1457        1456
         4        1356        1357        1458        1457
         4        1357        1358        1459        1458
         4        1358        1359        1460        1459
         4        1359        1360        1461        1460
         4        1360        1361        1462        1461
         4        1361        1362        1463        1462
         4        1362        1363        1464        1463
         4        1363        1364        1465        1464
         4        1364        1365        1466        1465
         4        1365        1366        1467        1466
         4        1366        1367        1468        1467
         4        1367        1368        1469        1468
         4        1368        1369        1470        1469
         4        1369        1370        1471        1470
         4        1370        1371        1472        1471
         4        1371        1372        1473        1472
         4        1372        1373        1474        1473
         4        1373        1374        1475        1474
         4        1374        1375        1476        1475
         4        1375        1376        1477        1476
         4        1376        1377        1478        1477
         4        1377        1378        1479        1478
         4        1378        1379        1480        1479
         4        1379        1380        1481        1480
         4        1380        1381        1482        1481
         4        1381        1382        1483        1482
         4        1382        1383        1484        1483
         4        1383        1384        1485        1484
         4        1384        1385        1486        1485
         4        1385        1386        1487        1486
         4        1386        1387        1488        1487
         4        1387        1388        1489        1488
         4        1388        1389        1490        1489
         4        1389        1390        1491        1490
         4        1390        1391        1492        1491
         4        1391        1392        1493        1492
         4        1392        1393        1494        1493
         4        1393        1394        1495        1494
         4        1394        1395        1496        1495
         4        1395        1396        1497        1496
         4        1396        1397        1498        1497
         4        1397        1398        1499        1498
         4        1398        1399        1500        1499
         4        1399        1400        1501        1500
         4        1400        1401        1502        1501
         4        1401        1402        1503        1502
         4        1402        1403        1504        1503
         4        1403        1404        1505        1504
         4        1404        1405        1506        1505
         4        1405        1406        1507        1506
         4        1406        1407        1508        1507
         4        1407        1408        1509        1508
         4        1408        1409        1510        1509
         4        1409        1410        1511        1510
         4        1410        1411        1512        1511
         4        1411        1412        1513        1512
         4        1412        1413        1514        1513
         4        1414        1415        1516        1515
         4        1415        1416        1517        1516
         4        1416        1417        1518        1517
         4        1417        1418        1519        1518
         4        1418        1419        1520        1519
         4        1419        1420        1521        1520
         4        1420        1421        1522        1521
         4        1421        1422        1523        1522
         4        1422        1423        1524        1523
         4        1423        1424        1525        1524
         4        1424        1425        1526        1525
         4        1425        1426        1527        1526
         4        1426        1427        1528        1527
         4        1427        1428        1529        1528
         4        1428        1429        1530        1529
         4        1429        1430        1531        1530
         4        1430        1431        1532        1531
         4        1431        1432        1533        1532
         4        1432        1433        1534        1533
         4        1433        1434        1535        1534
         4        1434        1435        1536        1535
         4        1435        1436        1537        1536
         4        1436        1437        1538        1537
         4        1437        1438        1539        1538
         4        1438        1439        1540        1539
         4        1439        1440        1541        1540
         4        1440        1441        1542        1541
         4        1441        1442        1543        1542
         4        1442        1443        1544        1543
         4        1443        1444        1545        1544
         4        1444        1445        1546        1545
         4        1445        1446        1547        1546
         4        1446        1447        1548        1547
         4        1447        1448        1549        1548
         4        1448        1449        1550        1549
         4        1449        1450        1551        1550
         4        1450        1451        1552        1551
         4        1451        1452        1553        1552
         4        1452        1453        1554        1553
         4        1453        1454        1555        1554
         4        1454        1455        1556        1555
         4        1455        1456        1557        1556
         4        1456        1457        1558        1557
         4        1457        1458        1559        1558
         4        1458        1459        1560        1559
         4        1459        1460        1561        1560
         4        1460        1461        1562        1561
         4        1461        1462        1563        1562
         4        1462        1463        1564        1563
         4        1463        1464        1565        1564
         4        1464        1465        1566        1565
         4        1465        1466        1567        1566
         4        1466        1467        1568        1567
         4        1467        1468        1569        1568
         4        1468        1469        1570        1569
         4        1469        1470        1571        1570
         4        1470        1471        1572        1571
         4        1471        1472        1573        1572
         4        1472        1473        1574        1573
         4        1473        1474        1575        1574
         4        1474        1475        1576        1575
         4        1475        1476        1577        1576
         4        1476        1477        1578        1577
         4        1477        1478        1579        1578
         4        1478        1479        1580        1579
         4        1479        1480        1581        1580
         4        1480        1481        1582        1581
         4        1481        1482        1583        1582
         4        1482        1483        1584        1583
         4        1483        1484        1585        1584
         4        1484        1485        1586        1585
         4        1485        1486        1587        1586
         4        1486        1487        1588        1587
         4        1487        1488        1589        1588
         4        1488        1489        1590        1589
         4        1489        1490        1591        1590
         4        1490        1491        1592        1591
         4        1491        1492        1593        1592
         4        1492        1493        1594        1593
         4        1493        1494        1595        1594
         4        1494        1495        1596        1595
         4        1495        1496        1597        1596
         4        1496        1497        1598        1597
         4        1497        1498        1599        1598
         4        1498        1499        1600        1599
         4        1499        1500        1601        1600
         4        1500        1501        1602        1601
         4        1501        1502        1603        1602
         4        1502        1503        1604        1603
         4        1503        1504        1605        1604
         4        1504        1505        1606        1605
         4        1505        1506        1607        1606
         4        1506        1507        1608        1607
         4        1507        1508        1609        1608
         4        1508        1509        1610        1609
         4        1509        1510        1611        1610
         4        1510        1511        1612        1611
         4        1511        1512        1613        1612
         4        1512        1513        1614        1613
         4        1513        1514        1615        1614
         4        1515        1516        1617        1616
         4        1516        1517        1618        1617
         4        1517        1518        1619        1618
         4        1518        1519        1620        1619
         4        1519        1520        1621        1620
         4        1520        1521        1622        1621
         4        1521        1522        1623        1622
         4        1522        1523        1624        1623
         4        1523        1524        1625        1624
         4        1524        1525        1626        1625
         4        1525        1526        1627        1626
         4        1526        1527        1628        1627
         4        1527        1528        1629        1628
         4        1528        1529        1630        1629
         4        1529        1530        1631        1630
         4        1530        1531        1632        1631
         4        1531        1532        1633        1632
         4        1532        1533        1634        1633
         4        1533        1534        1635        1634
         4        1534        1535        1636        1635
         4        1535        1536        1637        1636
         4        1536        1537        1638        1637
         4        1537        1538        1639        1638
         4        1538        1539        1640        1639
         4        1539        1540        1641        1640
         4        1540        1541        1642        1641
         4        1541        1542        1643        1642
         4        1542        1543        1644        1643
         4        1543        1544        1645        1644
         4        1544        1545        1646        1645
         4        1545        1546        1647        1646
         4        1546        1547        1648        1647
         4        1547        1548        1649        1648
         4        1548        1549        1650        1649
         4        1549        1550        1651        1650
         4        1550        1551        1652        1651
         4        1551        1552        1653        1652
         4        1552        1553        1654        1653
         4        1553        1554        1655        1654
         4        1554        1555        1656        1655
         4        1555        1556        1657        1656
         4        1556        1557        1658        1657
         4        1557        1558        1659        1658
         4        1558        1559        1660        1659
         4        1559        1560        1661        1660
         4        1560        1561        1662        1661
         4        1561        1562        1663        1662
         4        1562        1563        1664        1663
         4        1563        1564        1665        1664
         4        1564        1565        1666        1665
         4        1565        1566        1667        1666
         4        1566        1567        1668        1667
         4        1567        1568        1669        1668
         4        1568        1569        1670        1669
         4        1569        1570        1671        1670
         4        1570        1571        1672        1671
         4        1571        1572        1673        1672
         4        1572        1573        1674        1673
         4        1573        1574        1675        1674
         4        1574        1575        1676        1675
         4        1575        1576        1677        1676
         4        1576        1577        1678        1677
         4        1577        1578        1679        1678
         4        1578        1579        1680        1679
         4        1579        1580        1681        1680
         4        1580        1581        1682        1681
         4        1581        1582        1683        1682
         4        1582        1583        1684        1683
         4        1583        1584        1685        1684
         4        1584        1585        1686        1685
         4        1585        1586        1687        1686
         4        1586        1587        1688        1687
         4        1587        1588        1689        1688
         4        1588        1589        1690        1689
         4        1589        1590        1691        1690
         4        1590        1591        1692        1691
         4        1591        1592        1693        1692
         4        1592        1593        1694        1693
         4        1593        1594        1695        1694
         4        1594        1595        1696        1695
         4        1595        1596        1697        1696
         4        1596        1597        1698        1697
         4        1597        1598        1699        1698
         4        1598        1599        1700        1699
         4        1599        1600        1701        1700
         4        1600        1601        1702        1701
         4        1601        1602        1703        1702
         4        1602        1603        1704        1703
         4        1603        1604        1705        1704
         4        1604        1605        1706        1705
         4        1605        1606        1707        1706
         4        1606        1607        1708        1707
         4        1607        1608        1709        1708
         4        1608        1609        1710        1709
         4        1609        1610        1711        1710
         4        1610        1611        1712        1711
         4        1611        1612        1713        1712
         4        1612        1613        1714        1713
         4        1613        1614        1715        1714
         4        1614        1615        1716        1715
         4        1616        1617        1718        1717
         4        1617        1618        1719        1718
         4        1618        1619        1720        1719
         4        1619        1620        1721        1720
         4        1620        1621        1722        1721
         4        1621        1622        1723        1722
         4        1622        1623        1724        1723
         4        1623        1624        1725        1724
         4        1624        1625        1726        1725
         4        1625        1626        1727        1726
         4        1626        1627        1728        1727
         4        1627        1628        1729        1728
         4        1628        1629        1730        1729
         4        1629        1630        1731        1730
         4        1630        1631        1732        1731
         4        1631        1632        1733        1732
         4        1632        1633        1734        1733
         4        1633        1634        1735        1734
         4        1634        1635        1736        1735
         4        1635        1636        1737        1736
         4        1636        1637        1738        1737
         4        1637        1638        1739        1738
         4        1638        1639        1740        1739
         4        1639        1640        1741        1740
         4        1640        1641        1742        1741
         4        1641        1642        1743        1742
         4        1642        1643        1744        1743
         4        1643        1644        1745        1744
         4        1644        1645        1746        1745
         4        1645        1646        1747        1746
         4        1646        1647        1748        1747
         4        1647        1648        1749        1748
         4        1648        1649        1750        1749
         4        1649        1650        1751        1750
         4        1650        1651        1752        1751
         4        1651        1652        1753        1752
         4        1652        1653        1754        1753
         4        1653        1654        1755        1754
         4        1654        1655        1756        1755
         4        1655        1656        1757        1756
         4        1656        1657        1758        1757
         4        1657        1658        1759        1758
         4        1658        1659        1760        1759
         4        1659        1660        1761        1760
         4        1660        1661        1762        1761
         4        1661        1662        1763        1762
         4        1662        1663        1764        1763
         4        1663        1664        1765        1764
         4        1664        1665        1766        1765
         4        1665        1666        1767        1766
         4        1666        1667        1768        1767
         4        1667        1668        1769        1768
         4        1668        1669        1770        1769
         4        1669        1670        1771        1770
         4        1670        1671        1772        1771
         4        1671        1672        1773        1772
         4        1672        1673        1774        1773
         4        1673        1674        1775        1774
         4        1674        1675        1776        1775
         4        1675        1676        1777        1776
         4        1676        1677        1778        1777
         4        1677        1678        1779        1778
         4        1678        1679        1780        1779
         4        1679        1680        1781        1780
         4        1680        1681        1782        1781
         4        1681        1682        1783        1782
         4        1682        1683        1784        1783
         4        1683        1684        1785        1784
         4        1684        1685        1786        1785
         4        1685        1686        1787        1786
         4        1686        1687        1788        1787
         4        1687        1688        1789        1788
         4        1688        1689        1790        1789
         4        1689        1690        1791        1790
         4        1690        1691        1792        1791
         4        1691        1692        1793        1792
         4        1692        1693        1794        1793
         4        1693        1694        1795        1794
         4        1694        1695        1796        1795
         4        1695        1696        1797        1796
         4        1696        1697        1798        1797
         4        1697        1698        1799        1798
         4        1698        1699        1800        1799
         4        1699        1700        1801        1800
         4        1700        1701        1802        1801
         4        1701        1702        1803        1802
         4        1702        1703        1804        1803
         4        1703        1704        1805        1804
         4        1704        1705        1806        1805
         4        1705        1706        1807        1806
         4        1706        1707        1808        1807
         4        1707        1708        1809        1808
         4        1708        1709        1810        1809
         4        1709        1710        1811        1810
         4        1710        1711        1812        1811
         4        1711        1712        1813        1812
         4        1712        1713        1814        1813
         4        1713        1714        1815        1814
         4        1714        1715        1816        1815
         4        1715        1716        1817        1816
         4        1717        1718        1819        1818
         4        1718        1719        1820        1819
         4        1719        1720        1821        1820
         4        1720        1721        1822        1821
         4        1721        1722        1823        1822
         4        1722        1723        1824        1823
         4        1723        1724        1825        1824
         4        1724        1725        1826        1825
         4        1725        1726        1827        1826
         4        1726        1727        1828        1827
         4        1727        1728        1829        1828
         4        1728        1729        1830        1829
         4        1729        1730        1831        1830
         4        1730        1731        1832        1831
         4        1731        1732        1833        1832
         4        1732        1733        1834        1833
         4        1733        1734        1835        1834
         4        1734        1735        1836        1835
         4        1735        1736        1837        1836
         4        1736        1737        1838        1837
         4        1737        1738        1839        1838
         4        1738        1739        1840        1839
         4        1739        1740        1841        1840
         4        1740        1741        1842        1841
         4        1741        1742        1843        1842
         4        1742        1743        1844        1843
         4        1743        1744        1845        1844
         4        1744        1745        1846        1845
         4        1745        1746        1847        1846
         4        1746        1747        1848        1847
         4        1747        1748        1849        1848
         4        1748        1749        1850        1849
         4        1749        1750        1851        1850
         4        1750        1751        1852        1851
         4        1751        1752        1853        1852
         4        1752        1753        1854        1853
         4        1753        1754        1855        1854
         4        1754        1755        1856        1855
         4        1755        1756        1857        1856
         4        1756        1757        1858        1857
         4        1757        1758        1859        1858
         4        1758        1759        1860        1859
         4        1759        1760        1861        1860
         4        1760        1761        1862        1861
         4        1761        1762        1863        1862
         4        1762        1763        1864        1863
         4        1763        1764        1865        1864
         4        1764        1765        1866        1865
         4        1765        1766        1867        1866
         4        1766        1767        1868        1867
         4        1767        1768        1869        1868
         4        1768        1769        1870        1869
         4        1769        1770        1871        1870
         4        1770        1771        1872        1871
         4        1771        1772        1873        1872
         4        1772        1773        1874        1873
         4        1773        1774        1875        1874
         4        1774        1775        1876        1875
         4        1775        1776        1877        1876
         4        1776        1777        1878        1877
         4        1777        1778        1879        1878
         4        1778        1779        1880        1879
         4        1779        1780        1881        1880
         4        1780        1781        1882        1881
         4        1781        1782        1883        1882
         4        1782        1783        1884        1883
         4        1783        1784        1885        1884
         4        1784        1785        1886        1885
         4        1785        1786        1887        1886
         4        1786        1787        1888        1887
         4        1787        1788        1889        1888
         4        1788        1789        1890        1889
         4        1789        1790        1891        1890
         4        1790        1791        1892        1891
         4        1791        1792        1893        1892
         4        1792        1793        1894        1893
         4        1793        1794        1895        1894
         4        1794        1795        1896        1895
         4        1795        1796        1897        1896
         4        1796        1797        1898        1897
         4        1797        1798        1899        1898
         4        1798        1799        1900        1899
         4        1799        1800        1901        1900
         4        1800        1801        1902        1901
         4        1801        1802        1903        1902
         4        1802        1803        1904        1903
         4        1803        1804        1905        1904
         4        1804        1805        1906        1905
         4        1805        1806        1907        1906
         4        1806        1807        1908        1907
         4        1807        1808        1909        1908
         4        1808        1809        1910        1909
         4        1809        1810        1911        1910
         4        1810        1811        1912        1911
         4        1811        1812        1913        1912
         4        1812        1813        1914        1913
         4        1813        1814        1915        1914
         4        1814        1815        1916        1915
         4        1815        1816        1917        1916
         4        1816        1817        1918        1917
         4        1818        1819        1920        1919
         4        1819        1820        1921        1920
         4        1820        1821        1922        1921
         4        1821        1822        1923        1922
         4        1822        1823        1924        1923
         4        1823        1824        1925        1924
         4        1824        1825        1926        1925
         4        1825        1826        1927        1926
         4        1826        1827        1928        1927
         4        1827        1828        1929        1928
         4        1828        1829        1930        1929
         4        1829        1830        1931        1930
         4        1830        1831        1932        1931
         4        1831        1832        1933        1932
         4        1832        1833        1934        1933
         4        1833        1834        1935        1934
         4        1834        1835        1936        1935
         4        1835        1836        1937        1936
         4        1836        1837        1938        1937
         4        1837        1838        1939        1938
         4        1838        1839        1940        1939
         4        1839        1840        1941        1940
         4        1840        1841        1942        1941
         4        1841        1842        1943        1942
         4        1842        1843        1944        1943
         4        1843        1844        1945        1944
         4        1844        1845        1946        1945
         4        1845        1846        1947        1946
         4        1846        1847        1948        1947
         4        1847        1848        1949        1948
         4        1848        1849        1950        1949
         4        1849        1850        1951        1950
         4        1850        1851        1952        1951
         4        1851        1852        1953        1952
         4        1852        1853        1954        1953
         4        1853        1854        1955        1954
         4        1854        1855        1956        1955
         4        1855        1856        1957        1956
         4        1856        1857        1958        1957
         4        1857        1858        1959        1958
         4        1858        1859        1960        1959
         4        1859        1860        1961        1960
         4        1860        1861        1962        1961
         4        1861        1862        1963        1962
         4        1862        1863        1964        1963
         4        1863        1864        1965        1964
         4        1864        1865        1966        1965
         4        1865        1866        1967        1966
         4        1866        1867        1968        1967
         4        1867        1868        1969        1968
         4        1868        1869        1970        1969
         4        1869        1870        1971        1970
         4        1870        1871        1972        1971
         4        1871        1872        1973        1972
         4        1872        1873        1974        1973
         4        1873        1874        1975        1974
         4        1874        1875        1976        1975
         4        1875        1876        1977        1976
         4        1876        1877        1978        1977
         4        1877        1878        1979        1978
         4        1878        1879        1980        1979
         4        1879        1880        1981        1980
         4        1880        1881        1982        1981
         4        1881        1882        1983        1982
         4        1882        1883        1984        1983
         4        1883        1884        1985        1984
         4        1884        1885        1986        1985
         4        1885        1886        1987        1986
         4        1886        1887        1988        1987
         4        1887        1888        1989        1988
         4        1888        1889        1990        1989
         4        1889        1890        1991        1990
         4        1890        1891        1992        1991
         4        1891        1892        1993        1992
         4        1892        1893        1994        1993
         4        1893        1894        1995        1994
         4        1894        1895        1996        1995
         4        1895        1896        1997        1996
         4        1896        1897        1998        1997
         4        1897        1898        1999        1998
         4        1898        1899        2000        1999
         4        1899        1900        2001        2000
         4        1900        1901        2002        2001
         4        1901        1902        2003        2002
         4        1902        1903        2004        2003
         4        1903        1904        2005        2004
         4        1904        1905        2006        2005
         4        1905        1906        2007        2006
         4        1906        1907        2008        2007
         4        1907        1908        2009        2008
         4        1908        1909        2010        2009
         4        1909        1910        2011        2010
         4        1910        1911        2012        2011
         4        1911        1912        2013        2012
         4        1912        1913        2014        2013
         4        1913        1914        2015        2014
         4        1914        1915        2016        2015
         4        1915        1916        2017        2016
         4        1916        1917        2018        2017
         4        1917        1918        2019        2018
         4        1919        1920        2021        2020
         4        1920        1921        2022        2021
         4        1921        1922        2023        2022
         4        1922        1923        2024        2023
         4        1923        1924        2025        2024
         4        1924        1925        2026        2025
         4        1925        1926        2027        2026
         4        1926        1927        2028        2027
         4        1927        1928        2029        2028
         4        1928        1929        2030        2029
         4        1929        1930        2031        2030
         4        1930        1931        2032        2031
         4        1931        1932        2033        2032
         4        1932        1933        2034        2033
         4        1933        1934        2035        2034
         4        1934        1935        2036        2035
         4        1935        1936        2037        2036
         4        1936        1937        2038        2037
         4        1937        1938        2039        2038
         4        1938        1939        2040        2039
         4        1939        1940        2041        2040
         4        1940        1941        2042        2041
         4        1941        1942        2043        2042
         4        1942        1943        2044        2043
         4        1943        1944        2045        2044
         4        1944        1945        2046        2045
         4        1945        1946        2047        2046
         4        1946        1947        2048        2047
         4        1947        1948        2049        2048
         4        1948        1949        2050        2049
         4        1949        1950        2051        2050
         4        1950        1951        2052        2051
         4        1951        1952        2053        2052
         4        1952        1953        2054        2053
         4        1953        1954        2055        2054
         4        1954        1955        2056        2055
         4        1955        1956        2057        2056
         4        1956        1957        2058        2057
         4        1957        1958        2059        2058
         4        1958        1959        2060        2059
         4        1959        1960        2061        2060
         4        1960        1961        2062        2061
         4        1961        1962        2063        2062
         4        1962        1963        2064        2063
         4        1963        1964        2065        2064
         4        1964        1965        2066        2065
         4        1965        1966        2067        2066
         4        1966        1967        2068        2067
         4        1967        1968        2069        2068
         4        1968        1969        2070        2069
         4        1969        1970        2071        2070
         4        1970        1971        2072        2071
         4        1971        1972        2073        2072
         4        1972        1973        2074        2073
         4        1973        1974        2075        2074
         4        1974        1975        2076        2075
         4        1975        1976        2077        2076
         4        1976        1977        2078        2077
         4        1977        1978        2079        2078
         4        1978        1979        2080        2079
         4        1979        1980        2081        2080
         4        1980        1981        2082        2081
         4        1981        1982        2083        2082
         4        1982        1983        2084        2083
         4        1983        1984        2085        2084
         4        1984        1985        2086        2085
         4        1985        1986        2087        2086
         4        1986        1987        2088        2087
         4        1987        1988        2089        2088
         4        1988        1989        2090        2089
         4        1989        1990        2091        2090
         4        1990        1991        2092        2091
         4        1991        1992        2093        2092
         4        1992        1993        2094        2093
         4        1993        1994        2095        2094
         4        1994        1995        2096        2095
         4        1995        1996        2097        2096
         4        1996        1997        2098        2097
         4        1997        1998        2099        2098
         4        1998        1999        2100        2099
         4        1999        2000        2101        2100
         4        2000        2001        2102        2101
         4        2001        2002        2103        2102
         4        2002        2003        2104        2103
         4        2003        2004        2105        2104
         4        2004        2005        2106        2105
         4        2005        2006        2107        2106
         4        2006        2007        2108        2107
         4        2007        2008        2109        2108
         4        2008        2009        2110        2109
         4        2009        2010        2111        2110
         4        2010        2011        2112        2111
         4        2011        2012        2113        2112
         4        2012        2013        2114        2113
         4        2013        2014        2115        2114
         4        2014        2015        2116        2115
         4        2015        2016        2117        2116
         4        2016        2017        2118        2117
         4        2017        2018        2119        2118
         4        2018        2019        2120        2119
         4        2020        2021        2122        2121
         4        2021        2022        2123        2122
         4        2022        2023        2124        2123
         4        2023        2024        2125        2124
         4        2024        2025        2126        2125
         4        2025        2026        2127        2126
         4        2026        2027        2128        2127
         4        2027        2028        2129        2128
         4        2028        2029        2130        2129
         4        2029        2030        2131        2130
         4        2030        2031        2132        2131
         4        2031        2032        2133        2132
         4        2032        2033        2134        2133
         4        2033        2034        2135        2134
         4        2034        2035        2136        2135
         4        2035        2036        2137        2136
         4        2036        2037        2138        2137
         4        2037        2038        2139        2138
         4        2038        2039        2140        2139
         4        2039        2040        2141        2140
         4        2040        2041        2142        2141
         4        2041        2042        2143        2142
         4        2042        2043        2144        2143
         4        2043        2044        2145        2144
         4        2044        2045        2146        2145
         4        2045        2046        2147        2146
         4        2046        2047        2148        2147
         4        2047        2048        2149        2148
         4        2048        2049        2150        2149
         4        2049        2050        2151        2150
         4        2050        2051        2152        2151
         4        2051        2052        2153        2152
         4        2052        2053        2154        2153
         4        2053        2054        2155        2154
         4        2054        2055        2156        2155
         4        2055        2056        2157        2156
         4        2056        2057        2158        2157
         4        2057        2058        2159        2158
         4        2058        2059        2160        2159
         4        2059        2060        2161        2160
         4        2060        2061        2162        2161
         4        2061        2062        2163        2162
         4        2062        2063        2164        2163
         4        2063        2064        2165        2164
         4        2064        2065        2166        2165
         4        2065        2066        2167        2166
         4        2066        2067        2168        2167
         4        2067        2068        2169        2168
         4        2068        2069        2170        2169
         4        2069        2070        2171        2170
         4        2070        2071        2172        2171
         4        2071        2072        2173        2172
         4        2072        2073        2174        2173
         4        2073        2074        2175        2174
         4        2074        2075        2176        2175
         4        2075        2076        2177        2176
         4        2076        2077        2178        2177
         4        2077        2078        2179        2178
         4        2078        2079        2180        2179
         4        2079        2080        2181        2180
         4        2080        2081        2182        2181
         4        2081        2082        2183        2182
         4        2082        2083        2184        2183
         4        2083        2084        2185        2184
         4        2084        2085        2186        2185
         4        2085        2086        2187        2186
         4        2086        2087        2188        2187
         4        2087        2088        2189        2188
         4        2088        2089        2190        2189
         4        2089        2090        2191        2190
         4        2090        2091        2192        2191
         4        2091        2092        2193        2192
         4        2092        2093        2194        2193
         4        2093        2094        2195        2194
         4        2094        2095        2196        2195
         4        2095        2096        2197        2196
         4        2096        2097        2198        2197
         4        2097        2098        2199        2198
         4        2098        2099        2200        2199
         4        2099        2100        2201        2200
         4        2100        2101        2202        2201
         4        2101        2102        2203        2202
         4        2102        2103        2204        2203
         4        2103        2104        2205        2204
         4        2104        2105        2206        2205
         4        2105        2106        2207        2206
         4        2106        2107        2208        2207
         4        2107        2108        2209        2208
         4        2108        2109        2210        2209
         4        2109        2110        2211        2210
         4        2110        2111        2212        2211
         4        2111        2112        2213        2212
         4        2112        2113        2214        2213
         4        2113        2114        2215        2214
         4        2114        2115        2216        2215
         4        2115        2116        2217        2216
         4        2116        2117        2218        2217
         4        2117        2118        2219        2218
         4        2118        2119        2220        2219
         4        2119        2120        2221        2220
         4        2121        2122        2223        2222
         4        2122        2123        2224        2223
         4        2123        2124        2225        2224
         4        2124        2125        2226        2225
         4        2125        2126        2227        2226
         4        2126        2127        2228        2227
         4        2127        2128        2229        2228
         4        2128        2129        2230        2229
         4        2129        2130        2231        2230
         4        2130        2131        2232        2231
         4        2131        2132        2233        2232
         4        2132        2133        2234        2233
         4        2133        2134        2235        2234
         4        2134        2135        2236        2235
         4        2135        2136        2237        2236
         4        2136        2137        2238        2237
         4        2137        2138        2239        2238
         4        2138        2139        2240        2239
         4        2139        2140        2241        2240
         4        2140        2141        2242        2241
         4        2141        2142        2243        2242
         4        2142        2143        2244        2243
         4        2143        2144        2245        2244
         4        2144        2145        2246        2245
         4        2145        2146        2247        2246
         4        2146        2147        2248        2247
         4        2147        2148        2249        2248
         4        2148        2149        2250        2249
         4        2149        2150        2251        2250
         4        2150        2151        2252        2251
         4        2151        2152        2253        2252
         4        2152        2153        2254        2253
         4        2153        2154        2255        2254
         4        2154        2155        2256        2255
         4        2155        2156        2257        2256
         4        2156        2157        2258        2257
         4        2157        2158        2259        2258
         4        2158        2159        2260        2259
         4        2159        2160        2261        2260
         4        2160        2161        2262        2261
         4        2161        2162        2263        2262
         4        2162        2163        2264        2263
         4        2163        2164        2265        2264
         4        2164        2165        2266        2265
         4        2165        2166        2267        2266
         4        2166        2167        2268        2267
         4        2167        2168        2269        2268
         4        2168        2169        2270        2269
         4        2169        2170        2271        2270
         4        2170        2171        2272        2271
         4        2171        2172        2273        2272
         4        2172        2173        2274        2273
         4        2173        2174        2275        2274
         4        2174        2175        2276        2275
         4        2175        2176        2277        2276
         4        2176        2177        2278        2277
         4        2177        2178        2279        2278
         4        2178        2179        2280        2279
         4        2179        2180        2281        2280
         4        2180        2181        2282        2281
         4        2181        2182        2283        2282
         4        2182        2183        2284        2283
         4        2183        2184        2285        2284
         4        2184        2185        2286        2285
         4        2185        2186        2287        2286
         4        2186        2187        2288        2287
         4        2187        2188        2289        2288
         4        2188        2189        2290        2289
         4        2189        2190        2291        2290
         4        2190        2191        2292        2291
         4        2191        2192        2293        2292
         4        2192        2193        2294        2293
         4        2193        2194        2295        2294
         4        2194        2195        2296        2295
         4        2195        2196        2297        2296
         4        2196        2197        2298        2297
         4        2197        2198        2299        2298
         4        2198        2199        2300        2299
         4        2199        2200        2301        2300
         4        2200        2201        2302        2301
         4        2201        2202        2303        2302
         4        2202        2203        2304        2303
         4        2203        2204        2305        2304
         4        2204        2205        2306        2305
         4        2205        2206        2307        2306
         4        2206        2207        2308        2307
         4        2207        2208        2309        2308
         4        2208        2209        2310        2309
         4        2209        2210        2311        2310
         4        2210        2211        2312        2311
         4        2211        2212        2313        2312
         4        2212        2213        2314        2313
         4        2213        2214        2315        2314
         4        2214        2215        2316        2315
         4        2215        2216        2317        2316
         4        2216        2217        2318        2317
         4        2217        2218        2319        2318
         4        2218        2219        2320        2319
         4        2219        2220        2321        2320
         4        2220        2221        2322        2321
         4        2222        2223        2324        2323
         4        2223        2224        2325        2324
         4        2224        2225        2326        2325
         4        2225        2226        2327        2326
         4        2226        2227        2328        2327
         4        2227        2228        2329        2328
         4        2228        2229        2330        2329
         4        2229        2230        2331        2330
         4        2230        2231        2332        2331
         4        2231        2232        2333        2332
         4        2232        2233        2334        2333
         4        2233        2234        2335        2334
         4        2234        2235        2336        2335
         4        2235        2236        2337        2336
         4        2236        2237        2338        2337
         4        2237        2238        2339        2338
         4        2238        2239        2340        2339
         4        2239        2240        2341        2340
         4        2240        2241        2342        2341
         4        2241        2242        2343        2342
         4        2242        2243        2344        2343
         4        2243        2244        2345        2344
         4        2244        2245        2346        2345
         4        2245        2246        2347        2346
         4        2246        2247        2348        2347
         4        2247        2248        2349        2348
         4        2248        2249        2350        2349
         4        2249        2250        2351        2350
         4        2250        2251        2352        2351
         4        2251        2252        2353        2352
         4        2252        2253        2354        2353
         4        2253        2254        2355        2354
         4        2254        2255        2356        2355
         4        2255        2256        2357        2356
         4        2256        2257        2358        2357
         4        2257        2258        2359        2358
         4        2258        2259        2360        2359
         4        2259        2260        2361        2360
         4        2260        2261        2362        2361
         4        2261        2262        2363        2362
         4        2262        2263        2364        2363
         4        2263        2264        2365        2364
         4        2264        2265        2366        2365
         4        2265        2266        2367        2366
         4        2266        2267        2368        2367
         4        2267        2268        2369        2368
         4        2268        2269        2370        2369
         4        2269        2270        2371        2370
         4        2270        2271        2372        2371
         4        2271        2272        2373        2372
         4        2272        2273        2374        2373
         4        2273        2274        2375        2374
         4        2274        2275        2376        2375
         4        2275        2276        2377        2376
         4        2276        2277        2378        2377
         4        2277        2278        2379        2378
         4        2278        2279        2380        2379
         4        2279        2280        2381        2380
         4        2280        2281        2382        2381
         4        2281        2282        2383        2382
         4        2282        2283        2384        2383
         4        2283        2284        2385        2384
         4        2284        2285        2386        2385
         4        2285        2286        2387        2386
         4        2286        2287        2388        2387
         4        2287        2288        2389        2388
         4        2288        2289        2390        2389
         4        2289        2290        2391        2390
         4        2290        2291        2392        2391
         4        2291        2292        2393        2392
         4        2292        2293        2394        2393
         4        2293        2294        2395        2394
         4        2294        2295        2396        2395
         4        2295        2296        2397        2396
         4        2296        2297        2398        2397
         4        2297        2298        2399        2398
         4        2298        2299        2400        2399
         4        2299        2300        2401        2400
         4        2300        2301        2402        2401
         4        2301        2302        2403        2402
         4        2302        2303        2404        2403
         4        2303        2304        2405        2404
         4        2304        2305        2406        2405
         4        2305        2306        2407        2406
         4        2306        2307        2408        2407
         4        2307        2308        2409        2408
         4        2308        2309        2410        2409
         4        2309        2310        2411        2410
         4        2310        2311        2412        2411
         4        2311        2312        2413        2412
         4        2312        2313        2414        2413
         4        2313        2314        2415        2414
         4        2314        2315        2416        2415
         4        2315        2316        2417        2416
         4        2316        2317        2418        2417
         4        2317        2318        2419        2418
         4        2318        2319        2420        2419
         4        2319        2320        2421        2420
         4        2320        2321        2422        2421
         4        2321        2322        2423        2422
         4        2323        2324        2425        2424
         4        2324        2325        2426        2425
         4        2325        2326        2427        2426
         4        2326        2327        2428        2427
         4        2327        2328        2429        2428
         4        2328        2329        2430        2429
         4        2329        2330        2431        2430
         4        2330        2331        2432        2431
         4        2331        2332        2433        2432
         4        2332        2333        2434        2433
         4        2333        2334        2435        2434
         4        2334        2335        2436        2435
         4        2335        2336        2437        2436
         4        2336        2337        2438        2437
         4        2337        2338        2439        2438
         4        2338        2339        2440        2439
         4        2339        2340        2441        2440
         4        2340        2341        2442        2441
         4        2341        2342        2443        2442
         4        2342        2343        2444        2443
         4        2343        2344        2445        2444
         4        2344        2345        2446        2445
         4        2345        2346        2447        2446
         4        2346        2347        2448        2447
         4        2347        2348        2449        2448
         4        2348        2349        2450        2449
         4        2349        2350        2451        2450
         4        2350        2351        2452        2451
         4        2351        2352        2453        2452
         4        2352        2353        2454        2453
         4        2353        2354        2455        2454
         4        2354        2355        2456        2455
         4        2355        2356        2457        2456
         4        2356        2357        2458        2457
         4        2357        2358        2459        2458
         4        2358        2359        2460        2459
         4        2359        2360        2461        2460
         4        2360        2361        2462        2461
         4        2361        2362        2463        2462
         4        2362        2363        2464        2463
         4        2363        2364        2465        2464
         4        2364        2365        2466        2465
         4        2365        2366        2467        2466
         4        2366        2367        2468        2467
         4        2367        2368        2469        2468
         4        2368        2369        2470        2469
         4        2369        2370        2471        2470
         4        2370        2371        2472        2471
         4        2371        2372        2473        2472
         4        2372        2373        2474        2473
         4        2373        2374        2475        2474
         4        2374        2375        2476        2475
         4        2375        2376        2477        2476
         4        2376        2377        2478        2477
         4        2377        2378        2479        2478
         4        2378        2379        2480        2479
         4        2379        2380        2481        2480
         4        2380        2381        2482        2481
         4        2381        2382        2483        2482
         4        2382        2383        2484        2483
         4        2383        2384        2485        2484
         4        2384        2385        2486        2485
         4        2385        2386        2487        2486
         4        2386        2387        2488        2487
         4        2387        2388        2489        2488
         4        2388        2389        2490        2489
         4        2389        2390        2491        2490
         4        2390        2391        2492        2491
         4        2391        2392        2493        2492
         4        2392        2393        2494        2493
         4        2393        2394        2495        2494
         4        2394        2395        2496        2495
         4        2395        2396        2497        2496
         4        2396        2397        2498        2497
         4        2397        2398        2499        2498
         4        2398        2399        2500        2499
         4        2399        2400        2501        2500
         4        2400        2401        2502        2501
         4        2401        2402        2503        2502
         4        2402        2403        2504        2503
         4        2403        2404        2505        2504
         4        2404        2405        2506        2505
         4        2405        2406        2507        2506
         4        2406        2407        2508        2507
         4        2407        2408        2509        2508
         4        2408        2409        2510        2509
         4        2409        2410        2511        2510
         4        2410        2411        2512        2511
         4        2411        2412        2513        2512
         4        2412        2413        2514        2513
         4        2413        2414        2515        2514
         4        2414        2415        2516        2515
         4        2415        2416        2517        2516
         4        2416        2417        2518        2517
         4        2417        2418        2519        2518
         4        2418        2419        2520        2519
         4        2419        2420        2521        2520
         4        2420        2421        2522        2521
         4        2421        2422        2523        2522
         4        2422        2423        2524        2523
         4        2424        2425        2526        2525
         4        2425        2426        2527        2526
         4        2426        2427        2528        2527
         4        2427        2428        2529        2528
         4        2428        2429        2530        2529
         4        2429        2430        2531        2530
         4        2430        2431        2532        2531
         4        2431        2432        2533        2532
         4        2432        2433        2534        2533
         4        2433        2434        2535        2534
         4        2434        2435        2536        2535
         4        2435        2436        2537        2536
         4        2436        2437        2538        2537
         4        2437        2438        2539        2538
         4        2438        2439        2540        2539
         4        2439        2440        2541        2540
         4        2440        2441        2542        2541
         4        2441        2442        2543        2542
         4        2442        2443        2544        2543
         4        2443        2444        2545        2544
         4        2444        2445        2546        2545
         4        2445        2446        2547        2546
         4        2446        2447        2548        2547
         4        2447        2448        2549        2548
         4        2448        2449        2550        2549
         4        2449        2450        2551        2550
         4        2450        2451        2552        2551
         4        2451        2452        2553        2552
         4        2452        2453        2554        2553
         4        2453        2454        2555        2554
         4        2454        2455        2556        2555
         4        2455        2456        2557        2556
         4        2456        2457        2558        2557
         4        2457        2458        2559        2558
         4        2458        2459        2560        2559
         4        2459        2460        2561        2560
         4        2460        2461        2562        2561
         4        2461        2462        2563        2562
         4        2462        2463        2564        2563
         4        2463        2464        2565        2564
         4        2464        2465        2566        2565
         4        2465        2466        2567        2566
         4        2466        2467        2568        2567
         4        2467        2468        2569        2568
         4        2468        2469        2570        2569
         4        2469        2470        2571        2570
         4        2470        2471        2572        2571
         4        2471        2472        2573        2572
         4        2472        2473        2574        2573
         4        2473        2474        2575        2574
         4        2474        2475        2576        2575
         4        2475        2476        2577        2576
         4        2476        2477        2578        2577
         4        2477        2478        2579        2578
         4        2478        2479        2580        2579
         4        2479        2480        2581        2580
         4        2480        2481        2582        2581
         4        2481        2482        2583        2582
         4        2482        2483        2584        2583
         4        2483        2484        2585        2584
         4        2484        2485        2586        2585
         4        2485        2486        2587        2586
         4        2486        2487        2588        2587
         4        2487        2488        2589        2588
         4        2488        2489        2590        2589
         4        2489        2490        2591        2590
         4        2490        2491        2592        2591
         4        2491        2492        2593        2592
         4        2492        2493        2594        2593
         4        2493        2494        2595        2594
         4        2494        2495        2596        2595
         4        2495        2496        2597        2596
         4        2496        2497        2598        2597
         4        2497        2498        2599        2598
         4        2498        2499        2600        2599
         4        2499        2500        2601        2600
         4        2500        2501        2602        2601
         4        2501        2502        2603        2602
         4        2502        2503        2604        2603
         4        2503        2504        2605        2604
         4        2504        2505        2606        2605
         4        2505        2506        2607        2606
         4        2506        2507        2608        2607
         4        2507        2508        2609        2608
         4        2508        2509        2610        2609
         4        2509        2510        2611        2610
         4        2510        2511        2612        2611
         4        2511        2512        2613        2612
         4        2512        2513        2614        2613
         4        2513        2514        2615        2614
         4        2514        2515        2616        2615
         4        2515        2516        2617        2616
         4        2516        2517        2618        2617
         4        2517        2518        2619        2618
         4        2518        2519        2620        2619
         4        2519        2520        2621        2620
         4        2520        2521        2622        2621
         4        2521        2522        2623        2622
         4        2522        2523        2624        2623
         4        2523        2524        2625        2624
         4        2525        2526        2627        2626
         4        2526        2527        2628        2627
         4        2527        2528        2629        2628
         4        2528        2529        2630        2629
         4        2529        2530        2631        2630
         4        2530        2531        2632        2631
         4        2531        2532        2633        2632
         4        2532        2533        2634        2633
         4        2533        2534        2635        2634
         4        2534        2535        2636        2635
         4        2535        2536        2637        2636
         4        2536        2537        2638        2637
         4        2537        2538        2639        2638
         4        2538        2539        2640        2639
         4        2539        2540        2641        2640
         4        2540        2541        2642        2641
         4        2541        2542        2643        2642
         4        2542        2543        2644        2643
         4        2543        2544        2645        2644
         4        2544        2545        2646        2645
         4        2545        2546        2647        2646
         4        2546        2547        2648        2647
         4        2547        2548        2649        2648
         4        2548        2549        2650        2649
         4        2549        2550        2651        2650
         4        2550        2551        2652        2651
         4        2551        2552        2653        2652
         4        2552        2553        2654        2653
         4        2553        2554        2655        2654
         4        2554        2555        2656        2655
         4        2555        2556        2657        2656
         4        2556        2557        2658        2657
         4        2557        2558        2659        2658
         4        2558        2559        2660        2659
         4        2559        2560        2661        2660
         4        2560        2561        2662        2661
         4        2561        2562        2663        2662
         4        2562        2563        2664        2663
         4        2563        2564        2665        2664
         4        2564        2565        2666        2665
         4        2565        2566        2667        2666
         4        2566        2567        2668        2667
         4        2567        2568        2669        2668
         4        2568        2569        2670        2669
         4        2569        2570        2671        2670
         4        2570        2571        2672        2671
         4        2571        2572        2673        2672
         4        2572        2573        2674        2673
         4        2573        2574        2675        2674
         4        2574        2575        2676        2675
         4        2575        2576        2677        2676
         4        2576        2577        2678        2677
         4        2577        2578        2679        2678
         4        2578        2579        2680        2679
         4        2579        2580        2681        2680
         4        2580        2581        2682        2681
         4        2581        2582        2683        2682
         4        2582        2583        2684        2683
         4        2583        2584        2685        2684
         4        2584        2585        2686        2685
         4        2585        2586        2687        2686
         4        2586        2587        2688        2687
         4        2587        2588        2689        2688
         4        2588        2589        2690        2689
         4        2589        2590        2691        2690
         4        2590        2591        2692        2691
         4        2591        2592        2693        2692
         4        2592        2593        2694        2693
         4        2593        2594        2695        2694
         4        2594        2595        2696        2695
         4        2595        2596        2697        2696
         4        2596        2597        2698        2697
         4        2597        2598        2699        2698
         4        2598        2599        2700        2699
         4        2599        2600        2701        2700
         4        2600        2601        2702        2701
         4        2601        2602        2703        2702
         4        2602        2603        2704        2703
         4        2603        2604        2705        2704
         4        2604        2605        2706        2705
         4        2605        2606        2707        2706
         4        2606        2607        2708        2707
         4        2607        2608        2709        2708
         4        2608        2609        2710        2709
         4        2609        2610        2711        2710
         4        2610        2611        2712        2711
         4        2611        2612        2713        2712
         4        2612        2613        2714        2713
         4        2613        2614        2715        2714
         4        2614        2615        2716        2715
         4        2615        2616        2717        2716
         4        2616        2617        2718        2717
         4        2617        2618        2719        2718
         4        2618        2619        2720        2719
         4        2619        2620        2721        2720
         4        2620        2621        2722        2721
         4        2621        2622        2723        2722
         4        2622        2623        2724        2723
         4        2623        2624        2725        2724
         4        2624        2625        2726        2725
         4        2626        2627        2728        2727
         4        2627        2628        2729        2728
         4        2628        2629        2730        2729
         4        2629        2630        2731        2730
         4        2630        2631        2732        2731
         4        2631        2632        2733        2732
         4        2632        2633        2734        2733
         4        2633        2634        2735        2734
         4        2634        2635        2736        2735
         4        2635        2636        2737        2736
         4        2636        2637        2738        2737
         4        2637        2638        2739        2738
         4        2638        2639        2740        2739
         4        2639        2640        2741        2740
         4        2640        2641        2742        2741
         4        2641        2642        2743        2742
         4        2642        2643        2744        2743
         4        2643        2644        2745        2744
         4        2644        2645        2746        2745
         4        2645        2646        2747        2746
         4        2646        2647        2748        2747
         4        2647        2648        2749        2748
         4        2648        2649        2750        2749
         4        2649        2650        2751        2750
         4        2650        2651        2752        2751
         4        2651        2652        2753        2752
         4        2652        2653        2754        2753
         4        2653        2654        2755        2754
         4        2654        2655        2756        2755
         4        2655        2656        2757        2756
         4        2656        2657        2758        2757
         4        2657        2658        2759        2758
         4        2658        2659        2760        2759
         4        2659        2660        2761        2760
         4        2660        2661        2762        2761
         4        2661        2662        2763        2762
         4        2662        2663        2764        2763
         4        2663        2664        2765        2764
         4        2664        2665        2766        2765
         4        2665        2666        2767        2766
         4        2666        2667        2768        2767
         4        2667        2668        2769        2768
         4        2668        2669        2770        2769
         4        2669        2670        2771        2770
         4        2670        2671        2772        2771
         4        2671        2672        2773        2772
         4        2672        2673        2774        2773
         4        2673        2674        2775        2774
         4        2674        2675        2776        2775
         4        2675        2676        2777        2776
         4        2676        2677        2778        2777
         4        2677        2678        2779        2778
         4        2678        2679        2780        2779
         4        2679        2680        2781        2780
         4        2680        2681        2782        2781
         4        2681        2682        2783        2782
         4        2682        2683        2784        2783
         4        2683        2684        2785        2784
         4        2684        2685        2786        2785
         4        2685        2686        2787        2786
         4        2686        2687        2788        2787
         4        2687        2688        2789        2788
         4        2688        2689        2790        2789
         4        2689        2690        2791        2790
         4        2690        2691        2792        2791
         4        2691        2692        2793        2792
         4        2692        2693        2794        2793
         4        2693        2694        2795        2794
         4        2694        2695        2796        2795
         4        2695        2696        2797        2796
         4        2696        2697        2798        2797
         4        2697        2698        2799        2798
         4        2698        2699        2800        2799
         4        2699        2700        2801        2800
         4        2700        2701        2802        2801
         4        2701        2702        2803        2802
         4        2702        2703        2804        2803
         4        2703        2704        2805        2804
         4        2704        2705        2806        2805
         4        2705        2706        2807        2806
         4        2706        2707        2808        2807
         4        2707        2708        2809        2808
         4        2708        2709        2810        2809
         4        2709        2710        2811        2810
         4        2710        2711        2812        2811
         4        2711        2712        2813        2812
         4        2712        2713        2814        2813
         4        2713        2714        2815        2814
         4        2714        2715        2816        2815
         4        2715        2716        2817        2816
         4        2716        2717        2818        2817
         4        2717        2718        2819        2818
         4        2718        2719        2820        2819
         4        2719        2720        2821        2820
         4        2720        2721        2822        2821
         4        2721        2722        2823        2822
         4        2722        2723        2824        2823
         4        2723        2724        2825        2824
         4        2724        2725        2826        2825
         4        2725        2726        2827        2826
         4        2727        2728        2829        2828
         4        2728        2729        2830        2829
         4        2729        2730        2831        2830
         4        2730        2731        2832        2831
         4        2731        2732        2833        2832
         4        2732        2733        2834        2833
         4        2733        2734        2835        2834
         4        2734        2735        2836        2835
         4        2735        2736        2837        2836
         4        2736        2737        2838        2837
         4        2737        2738        2839        2838
         4        2738        2739        2840        2839
         4        2739        2740        2841        2840
         4        2740        2741        2842        2841
         4        2741        2742        2843        2842
         4        2742        2743        2844        2843
         4        2743        2744        2845        2844
         4        2744        2745        2846        2845
         4        2745        2746        2847        2846
         4        2746        2747        2848        2847
         4        2747        2748        2849        2848
         4        2748        2749        2850        2849
         4        2749        2750        2851        2850
         4        2750        2751        2852        2851
         4        2751        2752        2853        2852
         4        2752        2753        2854        2853
         4        2753        2754        2855        2854
         4        2754        2755        2856        2855
         4        2755        2756        2857        2856
         4        2756        2757        2858        2857
         4        2757        2758        2859        2858
         4        2758        2759        2860        2859
         4        2759        2760        2861        2860
         4        2760        2761        2862        2861
         4        2761        2762        2863        2862
         4        2762        2763        2864        2863
         4        2763        2764        2865        2864
         4        2764        2765        2866        2865
         4        2765        2766        2867        2866
         4        2766        2767        2868        2867
         4        2767        2768        2869        2868
         4        2768        2769        2870        2869
         4        2769        2770        2871        2870
         4        2770        2771        2872        2871
         4        2771        2772        2873        2872
         4        2772        2773        2874        2873
         4        2773        2774        2875        2874
         4        2774        2775        2876        2875
         4        2775        2776        2877        2876
         4        2776        2777        2878        2877
         4        2777        2778        2879        2878
         4        2778        2779        2880        2879
         4        2779        2780        2881        2880
         4        2780        2781        2882        2881
         4        2781        2782        2883        2882
         4        2782        2783        2884        2883
         4        2783        2784        2885        2884
         4        2784        2785        2886        2885
         4        2785        2786        2887        2886
         4        2786        2787        2888        2887
         4        2787        2788        2889        2888
         4        2788        2789        2890        2889
         4        2789        2790        2891        2890
         4        2790        2791        2892        2891
         4        2791        2792        2893        2892
         4        2792        2793        2894        2893
         4        2793        2794        2895        2894
         4        2794        2795        2896        2895
         4        2795        2796        2897        2896
         4        2796        2797        2898        2897
         4        2797        2798        2899        2898
         4        2798        2799        2900        2899
         4        2799        2800        2901        2900
         4        2800        2801        2902        2901
         4        2801        2802        2903        2902
         4        2802        2803        2904        2903
         4        2803        2804        2905        2904
         4        2804        2805        2906        2905
         4        2805        2806        2907        2906
         4        2806        2807        2908        2907
         4        2807        2808        2909        2908
         4        2808        2809        2910        2909
         4        2809        2810        2911        2910
         4        2810        2811        2912        2911
         4        2811        2812        2913        2912
         4        2812        2813        2914        2913
         4        2813        2814        2915        2914
         4        2814        2815        2916        2915
         4        2815        2816        2917        2916
         4        2816        2817        2918        2917
         4        2817        2818        2919        2918
         4        2818        2819        2920        2919
         4        2819        2820        2921        2920
         4        2820        2821        2922        2921
         4        2821        2822        2923        2922
         4        2822        2823        2924        2923
         4        2823        2824        2925        2924
         4        2824        2825        2926        2925
         4        2825        2826        2927        2926
         4        2826        2827        2928        2927
         4        2828        2829        2930        2929
         4        2829        2830        2931        2930
         4        2830        2831        2932        2931
         4        2831        2832        2933        2932
         4        2832        2833        2934        2933
         4        2833        2834        2935        2934
         4        2834        2835        2936        2935
         4        2835        2836        2937        2936
         4        2836        2837        2938        2937
         4        2837        2838        2939        2938
         4        2838        2839        2940        2939
         4        2839        2840        2941        2940
         4        2840        2841        2942        2941
         4        2841        2842        2943        2942
         4        2842        2843        2944        2943
         4        2843        2844        2945        2944
         4        2844        2845        2946        2945
         4        2845        2846        2947        2946
         4        2846        2847        2948        2947
         4        2847        2848        2949        2948
         4        2848        2849        2950        2949
         4        2849        2850        2951        2950
         4        2850        2851        2952        2951
         4        2851        2852        2953        2952
         4        2852        2853        2954        2953
         4        2853        2854        2955        2954
         4        2854        2855        2956        2955
         4        2855        2856        2957        2956
         4        2856        2857        2958        2957
         4        2857        2858        2959        2958
         4        2858        2859        2960        2959
         4        2859        2860        2961        2960
         4        2860        2861        2962        2961
         4        2861        2862        2963        2962
         4        2862        2863        2964        2963
         4        2863        2864        2965        2964
         4        2864        2865        2966        2965
         4        2865        2866        2967        2966
         4        2866        2867        2968        2967
         4        2867        2868        2969        2968
         4        2868        2869        2970        2969
         4        2869        2870        2971        2970
         4        2870        2871        2972        2971
         4        2871        2872        2973        2972
         4        2872        2873        2974        2973
         4        2873        2874        2975        2974
         4        2874        2875        2976        2975
         4        2875        2876        2977        2976
         4        2876        2877        2978        2977
         4        2877        2878        2979        2978
         4        2878        2879        2980        2979
         4        2879        2880        2981        2980
         4        2880        2881        2982        2981
         4        2881        2882        2983        2982
         4        2882        2883        2984        2983
         4        2883        2884        2985        2984
         4        2884        2885        2986        2985
         4        2885        2886        2987        2986
         4        2886        2887        2988        2987
         4        2887        2888        2989        2988
         4        2888        2889        2990        2989
         4        2889        2890        2991        2990
         4        2890        2891        2992        2991
         4        2891        2892        2993        2992
         4        2892        2893        2994        2993
         4        2893        2894        2995        2994
         4        2894        2895        2996        2995
         4        2895        2896        2997        2996
         4        2896        2897        2998        2997
         4        2897        2898        2999        2998
         4        2898        2899        3000        2999
         4        2899        2900        3001        3000
         4        2900        2901        3002        3001
         4        2901        2902        3003        3002
         4        2902        2903        3004        3003
         4        2903        2904        3005        3004
         4        2904        2905        3006        3005
         4        2905        2906        3007        3006
         4        2906        2907        3008        3007
         4        2907        2908        3009        3008
         4        2908        2909        3010        3009
         4        2909        2910        3011        3010
         4        2910        2911        3012        3011
         4        2911        2912        3013        3012
         4        2912        2913        3014        3013
         4        2913        2914        3015        3014
         4        2914        2915        3016        3015
         4        2915        2916        3017        3016
         4        2916        2917        3018        3017
         4        2917        2918        3019        3018
         4        2918        2919        3020        3019
         4        2919        2920        3021        3020
         4        2920        2921        3022        3021
         4        2921        2922        3023        3022
         4        2922        2923        3024        3023
         4        2923        2924        3025        3024
         4        2924        2925        3026        3025
         4        2925        2926        3027        3026
         4        2926        2927        3028        3027
         4        2927        2928        3029        3028
         4        2929        2930        3031        3030
         4        2930        2931        3032        3031
         4        2931        2932        3033        3032
         4        2932        2933        3034        3033
         4        2933        2934        3035        3034
         4        2934        2935        3036        3035
         4        2935        2936        3037        3036
         4        2936        2937        3038        3037
         4        2937        2938        3039        3038
         4        2938        2939        3040        3039
         4        2939        2940        3041        3040
         4        2940        2941        3042        3041
         4        2941        2942        3043        3042
         4        2942        2943        3044        3043
         4        2943        2944        3045        3044
         4        2944        2945        3046        3045
         4        2945        2946        3047        3046
         4        2946        2947        3048        3047
         4        2947        2948        3049        3048
         4        2948        2949        3050        3049
         4        2949        2950        3051        3050
         4        2950        2951        3052        3051
         4        2951        2952        3053        3052
         4        2952        2953        3054        3053
         4        2953        2954        3055        3054
         4        2954        2955        3056        3055
         4        2955        2956        3057        3056
         4        2956        2957        3058        3057
         4        2957        2958        3059        3058
         4        2958        2959        3060        3059
         4        2959        2960        3061        3060
         4        2960        2961        3062        3061
         4        2961        2962        3063        3062
         4        2962        2963        3064        3063
         4        2963        2964        3065        3064
         4        2964        2965        3066        3065
         4        2965        2966        3067        3066
         4        2966        2967        3068        3067
         4        2967        2968        3069        3068
         4        2968        2969        3070        3069
         4        2969        2970        3071        3070
         4        2970        2971        3072        3071
         4        2971        2972        3073        3072
         4        2972        2973        3074        3073
         4        2973        2974        3075        3074
         4        2974        2975        3076        3075
         4        2975        2976        3077        3076
         4        2976        2977        3078        3077
         4        2977        2978        3079        3078
         4        2978        2979        3080        3079
         4        2979        2980        3081        3080
         4        2980        2981        3082        3081
         4        2981        2982        3083        3082
         4        2982        2983        3084        3083
         4        2983        2984        3085        3084
         4        2984        2985        3086        3085
         4        2985        2986        3087        3086
         4        2986        2987        3088        3087
         4        2987        2988        3089        3088
         4        2988        2989        3090        3089
         4        2989        2990        3091        3090
         4        2990        2991        3092        3091
         4        2991        2992        3093        3092
         4        2992        2993        3094        3093
         4        2993        2994        3095        3094
         4        2994        2995        3096        3095
         4        2995        2996        3097        3096
         4        2996        2997        3098        3097
         4        2997        2998        3099        3098
         4        2998        2999        3100        3099
         4        2999        3000        3101        3100
         4        3000        3001        3102        3101
         4        3001        3002        3103        3102
         4        3002        3003        3104        3103
         4        3003        3004        3105        3104
         4        3004        3005        3106        3105
         4        3005        3006        3107        3106
         4        3006        3007        3108        3107
         4        3007        3008        3109        3108
         4        3008        3009        3110        3109
         4        3009        3010        3111        3110
         4        3010        3011        3112        3111
         4        3011        3012        3113        3112
         4        3012        3013        3114        3113
         4        3013        3014        3115        3114
         4        3014        3015        3116        3115
         4        3015        3016        3117        3116
         4        3016        3017        3118        3117
         4        3017        3018        3119        3118
         4        3018        3019        3120        3119
         4        3019        3020        3121        3120
         4        3020        3021        3122        3121
         4        3021        3022        3123        3122
         4        3022        3023        3124        3123
         4        3023        3024        3125        3124
         4        3024        3025        3126        3125
         4        3025        3026        3127        3126
         4        3026        3027        3128        3127
         4        3027        3028        3129        3128
         4        3028        3029        3130        3129
         4        3030        3031        3132        3131
         4        3031        3032        3133        3132
         4        3032        3033        3134        3133
         4        3033        3034        3135        3134
         4        3034        3035        3136        3135
         4        3035        3036        3137        3136
         4        3036        3037        3138        3137
         4        3037        3038        3139        3138
         4        3038        3039        3140        3139
         4        3039        3040        3141        3140
         4        3040        3041        3142        3141
         4        3041        3042        3143        3142
         4        3042        3043        3144        3143
         4        3043        3044        3145        3144
         4        3044        3045        3146        3145
         4        3045        3046        3147        3146
         4        3046        3047        3148        3147
         4        3047        3048        3149        3148
         4        3048        3049        3150        3149
         4        3049        3050        3151        3150
         4        3050        3051        3152        3151
         4        3051        3052        3153        3152
         4        3052        3053        3154        3153
         4        3053        3054        3155        3154
         4        3054        3055        3156        3155
         4        3055        3056        3157        3156
         4        3056        3057        3158        3157
         4        3057        3058        3159        3158
         4        3058        3059        3160        3159
         4        3059        3060        3161        3160
         4        3060        3061        3162        3161
         4        3061        3062        3163        3162
         4        3062        3063        3164        3163
         4        3063        3064        3165        3164
         4        3064        3065        3166        3165
         4        3065        3066        3167        3166
         4        3066        3067        3168        3167
         4        3067        3068        3169        3168
         4        3068        3069        3170        3169
         4        3069        3070        3171        3170
         4        3070        3071        3172        3171
         4        3071        3072        3173        3172
         4        3072        3073        3174        3173
         4        3073        3074        3175        3174
         4        3074        3075        3176        3175
         4        3075        3076        3177        3176
         4        3076        3077        3178        3177
         4        3077        3078        3179        3178
         4        3078        3079        3180        3179
         4        3079        3080        3181        3180
         4        3080        3081        3182        3181
         4        3081        3082        3183        3182
         4        3082        3083        3184        3183
         4        3083        3084        3185        3184
         4        3084        3085        3186        3185
         4        3085        3086        3187        3186
         4        3086        3087        3188        3187
         4        3087        3088        3189        3188
         4        3088        3089        3190        3189
         4        3089        3090        3191        3190
         4        3090        3091        3192        3191
         4        3091        3092        3193        3192
         4        3092        3093        3194        3193
         4        3093        3094        3195        3194
         4        3094        3095        3196        3195
         4        3095        3096        3197        3196
         4        3096        3097        3198        3197
         4        3097        3098        3199        3198
         4        3098        3099        3200        3199
         4        3099        3100        3201        3200
         4        3100        3101        3202        3201
         4        3101        3102        3203        3202
         4        3102        3103        3204        3203
         4        3103        3104        3205        3204
         4        3104        3105        3206        3205
         4        3105        3106        3207        3206
         4        3106        3107        3208        3207
         4        3107        3108        3209        3208
         4        3108        3109        3210        3209
         4        3109        3110        3211        3210
         4        3110        3111        3212        3211
         4        3111        3112        3213        3212
         4        3112        3113        3214        3213
         4        3113        3114        3215        3214
         4        3114        3115        3216        3215
         4        3115        3116        3217        3216
         4        3116        3117        3218        3217
         4        3117        3118        3219        3218
         4        3118        3119        3220        3219
         4        3119        3120        3221        3220
         4        3120        3121        3222        3221
         4        3121        3122        3223        3222
         4        3122        3123        3224        3223
         4        3123        3124        3225        3224
         4        3124        3125        3226        3225
         4        3125        3126        3227        3226
         4        3126        3127        3228        3227
         4        3127        3128        3229        3228
         4        3128        3129        3230        3229
         4        3129        3130        3231        3230
         4        3131        3132        3233        3232
         4        3132        3133        3234        3233
         4        3133        3134        3235        3234
         4        3134        3135        3236        3235
         4        3135        3136        3237        3236
         4        3136        3137        3238        3237
         4        3137        3138        3239        3238
         4        3138        3139        3240        3239
         4        3139        3140        3241        3240
         4        3140        3141        3242        3241
         4        3141        3142        3243        3242
         4        3142        3143        3244        3243
         4        3143        3144        3245        3244
         4        3144        3145        3246        3245
         4        3145        3146        3247        3246
         4        3146        3147        3248        3247
         4        3147        3148        3249        3248
         4        3148        3149        3250        3249
         4        3149        3150        3251        3250
         4        3150        3151        3252        3251
         4        3151        3152        3253        3252
         4        3152        3153        3254        3253
         4        3153        3154        3255        3254
         4        3154        3155        3256        3255
         4        3155        3156        3257        3256
         4        3156        3157        3258        3257
         4        3157        3158        3259        3258
         4        3158        3159        3260        3259
         4        3159        3160        3261        3260
         4        3160        3161        3262        3261
         4        3161        3162        3263        3262
         4        3162        3163        3264        3263
         4        3163        3164        3265        3264
         4        3164        3165        3266        3265
         4        3165        3166        3267        3266
         4        3166        3167        3268        3267
         4        3167        3168        3269        3268
         4        3168        3169        3270        3269
         4        3169        3170        3271        3270
         4        3170        3171        3272        3271
         4        3171        3172        3273        3272
         4        3172        3173        3274        3273
         4        3173        3174        3275        3274
         4        3174        3175        3276        3275
         4        3175        3176        3277        3276
         4        3176        3177        3278        3277
         4        3177        3178        3279        3278
         4        3178        3179        3280        3279
         4        3179        3180        3281        3280
         4        3180        3181        3282        3281
         4        3181        3182        3283        3282
         4        3182        3183        3284        3283
         4        3183        3184        3285        3284
         4        3184        3185        3286        3285
         4        3185        3186        3287        3286
         4        3186        3187        3288        3287
         4        3187        3188        3289        3288
         4        3188        3189        3290        3289
         4        3189        3190        3291        3290
         4        3190        3191        3292        3291
         4        3191        3192        3293        3292
         4        3192        3193        3294        3293
         4        3193        3194        3295        3294
         4        3194        3195        3296        3295
         4        3195        3196        3297        3296
         4        3196        3197        3298        3297
         4        3197        3198        3299        3298
         4        3198        3199        3300        3299
         4        3199        3200        3301        3300
         4        3200        3201        3302        3301
         4        3201        3202        3303        3302
         4        3202        3203        3304        3303
         4        3203        3204        3305        3304
         4        3204        3205        3306        3305
         4        3205        3206        3307        3306
         4        3206        3207        3308        3307
         4        3207        3208        3309        3308
         4        3208        3209        3310        3309
         4        3209        3210        3311        3310
         4        3210        3211        3312        3311
         4        3211        3212        3313        3312
         4        3212        3213        3314        3313
         4        3213        3214        3315        3314
         4        3214        3215        3316        3315
         4        3215        3216        3317        3316
         4        3216        3217        3318        3317
         4        3217        3218        3319        3318
         4        3218        3219        3320        3319
         4        3219        3220        3321        3320
         4        3220        3221        3322        3321
         4        3221        3222        3323        3322
         4        3222        3223        3324        3323
         4        3223        3224        3325        3324
         4        3224        3225        3326        3325
         4        3225        3226        3327        3326
         4        3226        3227        3328        3327
         4        3227        3228        3329        3328
         4        3228        3229        3330        3329
         4        3229        3230        3331        3330
         4        3230        3231        3332        3331
         4        3232        3233        3334        3333
         4        3233        3234        3335        3334
         4        3234        3235        3336        3335
         4        3235        3236        3337        3336
         4        3236        3237        3338        3337
         4        3237        3238        3339        3338
         4        3238        3239        3340        3339
         4        3239        3240        3341        3340
         4        3240        3241        3342        3341
         4        3241        3242        3343        3342
         4        3242        3243        3344        3343
         4        3243        3244        3345        3344
         4        3244        3245        3346        3345
         4        3245        3246        3347        3346
         4        3246        3247        3348        3347
         4        3247        3248        3349        3348
         4        3248        3249        3350        3349
         4        3249        3250        3351        3350
         4        3250        3251        3352        3351
         4        3251        3252        3353        3352
         4        3252        3253        3354        3353
         4        3253        3254        3355        3354
         4        3254        3255        3356        3355
         4        3255        3256        3357        3356
         4        3256        3257        3358        3357
         4        3257        3258        3359        3358
         4        3258        3259        3360        3359
         4        3259        3260        3361        3360
         4        3260        3261        3362        3361
         4        3261        3262        3363        3362
         4        3262        3263        3364        3363
         4        3263        3264        3365        3364
         4        3264        3265        3366        3365
         4        3265        3266        3367        3366
         4        3266        3267        3368        3367
         4        3267        3268        3369        3368
         4        3268        3269        3370        3369
         4        3269        3270        3371        3370
         4        3270        3271        3372        3371
         4        3271        3272        3373        3372
         4        3272        3273        3374        3373
         4        3273        3274        3375        3374
         4        3274        3275        3376        3375
         4        3275        3276        3377        3376
         4        3276        3277        3378        3377
         4        3277        3278        3379        3378
         4        3278        3279        3380        3379
         4        3279        3280        3381        3380
         4        3280        3281        3382        3381
         4        3281        3282        3383        3382
         4        3282        3283        3384        3383
         4        3283        3284        3385        3384
         4        3284        3285        3386        3385
         4        3285        3286        3387        3386
         4        3286        3287        3388        3387
         4        3287        3288        3389        3388
         4        3288        3289        3390        3389
         4        3289        3290        3391        3390
         4        3290        3291        3392        3391
         4        3291        3292        3393        3392
         4        3292        3293        3394        3393
         4        3293        3294        3395        3394
         4        3294        3295        3396        3395
         4        3295        3296        3397        3396
         4        3296        3297        3398        3397
         4        3297        3298        3399        3398
         4        3298        3299        3400        3399
         4        3299        3300        3401        3400
         4        3300        3301        3402        3401
         4        3301        3302        3403        3402
         4        3302        3303        3404        3403
         4        3303        3304        3405        3404
         4        3304        3305        3406        3405
         4        3305        3306        3407        3406
         4        3306        3307        3408        3407
         4        3307        3308        3409        3408
         4        3308        3309        3410        3409
         4        3309        3310        3411        3410
         4        3310        3311        3412        3411
         4        3311        3312        3413        3412
         4        3312        3313        3414        3413
         4        3313        3314        3415        3414
         4        3314        3315        3416        3415
         4        3315        3316        3417        3416
         4        3316        3317        3418        3417
         4        3317        3318        3419        3418
         4        3318        3319        3420        3419
         4        3319        3320        3421        3420
         4        3320        3321        3422        3421
         4        3321        3322        3423        3422
         4        3322        3323        3424        3423
         4        3323        3324        3425        3424
         4        3324        3325        3426        3425
         4        3325        3326        3427        3426
         4        3326        3327        3428        3427
         4        3327        3328        3429        3428
         4        3328        3329        3430        3429
         4        3329        3330        3431        3430
         4        3330        3331        3432        3431
         4        3331        3332        3433        3432
         4        3333        3334        3435        3434
         4        3334        3335        3436        3435
         4        3335        3336        3437        3436
         4        3336        3337        3438        3437
         4        3337        3338        3439        3438
         4        3338        3339        3440        3439
         4        3339        3340        3441        3440
         4        3340        3341        3442        3441
         4        3341        3342        3443        3442
         4        3342        3343        3444        3443
         4        3343        3344        3445        3444
         4        3344        3345        3446        3445
         4        3345        3346        3447        3446
         4        3346        3347        3448        3447
         4        3347        3348        3449        3448
         4        3348        3349        3450        3449
         4        3349        3350        3451        3450
         4        3350        3351        3452        3451
         4        3351        3352        3453        3452
         4        3352        3353        3454        3453
         4        3353        3354        3455        3454
         4        3354        3355        3456        3455
         4        3355        3356        3457        3456
         4        3356        3357        3458        3457
         4        3357        3358        3459        3458
         4        3358        3359        3460        3459
         4        3359        3360        3461        3460
         4        3360        3361        3462        3461
         4        3361        3362        3463        3462
         4        3362        3363        3464        3463
         4        3363        3364        3465        3464
         4        3364        3365        3466        3465
         4        3365        3366        3467        3466
         4        3366        3367        3468        3467
         4        3367        3368        3469        3468
         4        3368        3369        3470        3469
         4        3369        3370        3471        3470
         4        3370        3371        3472        3471
         4        3371        3372        3473        3472
         4        3372        3373        3474        3473
         4        3373        3374        3475        3474
         4        3374        3375        3476        3475
         4        3375        3376        3477        3476
         4        3376        3377        3478        3477
         4        3377        3378        3479        3478
         4        3378        3379        3480        3479
         4        3379        3380        3481        3480
         4        3380        3381        3482        3481
         4        3381        3382        3483        3482
         4        3382        3383        3484        3483
         4        3383        3384        3485        3484
         4        3384        3385        3486        3485
         4        3385        3386        3487        3486
         4        3386        3387        3488        3487
         4        3387        3388        3489        3488
         4        3388        3389        3490        3489
         4        3389        3390        3491        3490
         4        3390        3391        3492        3491
         4        3391        3392        3493        3492
         4        3392        3393        3494        3493
         4        3393        3394        3495        3494
         4        3394        3395        3496        3495
         4        3395        3396        3497        3496
         4        3396        3397        3498        3497
         4        3397        3398        3499        3498
         4        3398        3399        3500        3499
         4        3399        3400        3501        3500
         4        3400        3401        3502        3501
         4        3401        3402        3503        3502
         4        3402        3403        3504        3503
         4        3403        3404        3505        3504
         4        3404        3405        3506        3505
         4        3405        3406        3507        3506
         4        3406        3407        3508        3507
         4        3407        3408        3509        3508
         4        3408        3409        3510        3509
         4        3409        3410        3511        3510
         4        3410        3411        3512        3511
         4        3411        3412        3513        3512
         4        3412        3413        3514        3513
         4        3413        3414        3515        3514
         4        3414        3415        3516        3515
         4        3415        3416        3517        3516
         4        3416        3417        3518        3517
         4        3417        3418        3519        3518
         4        3418        3419        3520        3519
         4        3419        3420        3521        3520
         4        3420        3421        3522        3521
         4        3421        3422        3523        3522
         4        3422        3423        3524        3523
         4        3423        3424        3525        3524
         4        3424        3425        3526        3525
         4        3425        3426        3527        3526
         4        3426        3427        3528        3527
         4        3427        3428        3529        3528
         4        3428        3429        3530        3529
         4        3429        3430        3531        3530
         4        3430        3431        3532        3531
         4        3431        3432        3533        3532
         4        3432        3433        3534        3533
         4        3434        3435        3536        3535
         4        3435        3436        3537        3536
         4        3436        3437        3538        3537
         4        3437        3438        3539        3538
         4        3438        3439        3540        3539
         4        3439        3440        3541        3540
         4        3440        3441        3542        3541
         4        3441        3442        3543        3542
         4        3442        3443        3544        3543
         4        3443        3444        3545        3544
         4        3444        3445        3546        3545
         4        3445        3446        3547        3546
         4        3446        3447        3548        3547
         4        3447        3448        3549        3548
         4        3448        3449        3550        3549
         4        3449        3450        3551        3550
         4        3450        3451        3552        3551
         4        3451        3452        3553        3552
         4        3452        3453        3554        3553
         4        3453        3454        3555        3554
         4        3454        3455        3556        3555
         4        3455        3456        3557        3556
         4        3456        3457        3558        3557
         4        3457        3458        3559        3558
         4        3458        3459        3560        3559
         4        3459        3460        3561        3560
         4        3460        3461        3562        3561
         4        3461        3462        3563        3562
         4        3462        3463        3564        3563
         4        3463        3464        3565        3564
         4        3464        3465        3566        3565
         4        3465        3466        3567        3566
         4        3466        3467        3568        3567
         4        3467        3468        3569        3568
         4        3468        3469        3570        3569
         4        3469        3470        3571        3570
         4        3470        3471        3572        3571
         4        3471        3472        3573        3572
         4        3472        3473        3574        3573
         4        3473        3474        3575        3574
         4        3474        3475        3576        3575
         4        3475        3476        3577        3576
         4        3476        3477        3578        3577
         4        3477        3478        3579        3578
         4        3478        3479        3580        3579
         4        3479        3480        3581        3580
         4        3480        3481        3582        3581
         4        3481        3482        3583        3582
         4        3482        3483        3584        3583
         4        3483        3484        3585        3584
         4        3484        3485        3586        3585
         4        3485        3486        3587        3586
         4        3486        3487        3588        3587
         4        3487        3488        3589        3588
         4        3488        3489        3590        3589
         4        3489        3490        3591        3590
         4        3490        3491        3592        3591
         4        3491        3492        3593        3592
         4        3492        3493        3594        3593
         4        3493        3494        3595        3594
         4        3494        3495        3596        3595
         4        3495        3496        3597        3596
         4        3496        3497        3598        3597
         4        3497        3498        3599        3598
         4        3498        3499        3600        3599
         4        3499        3500        3601        3600
         4        3500        3501        3602        3601
         4        3501        3502        3603        3602
         4        3502        3503        3604        3603
         4        3503        3504        3605        3604
         4        3504        3505        3606        3605
         4        3505        3506        3607        3606
         4        3506        3507        3608        3607
         4        3507        3508        3609        3608
         4        3508        3509        3610        3609
         4        3509        3510        3611        3610
         4        3510        3511        3612        3611
         4        3511        3512        3613        3612
         4        3512        3513        3614        3613
         4        3513        3514        3615        3614
         4        3514        3515        3616        3615
         4        3515        3516        3617        3616
         4        3516        3517        3618        3617
         4        3517        3518        3619        3618
         4        3518        3519        3620        3619
         4        3519        3520        3621        3620
         4        3520        3521        3622        3621
         4        3521        3522        3623        3622
         4        3522        3523        3624        3623
         4        3523        3524        3625        3624
         4        3524        3525        3626        3625
         4        3525        3526        3627        3626
         4        3526        3527        3628        3627
         4        3527        3528        3629        3628
         4        3528        3529        3630        3629
         4        3529        3530        3631        3630
         4        3530        3531        3632        3631
         4        3531        3532        3633        3632
         4        3532        3533        3634        3633
         4        3533        3534        3635        3634
         4        3535        3536        3637        3636
         4        3536        3537        3638        3637
         4        3537        3538        3639        3638
         4        3538        3539        3640        3639
         4        3539        3540        3641        3640
         4        3540        3541        3642        3641
         4        3541        3542        3643        3642
         4        3542        3543        3644        3643
         4        3543        3544        3645        3644
         4        3544        3545        3646        3645
         4        3545        3546        3647        3646
         4        3546        3547        3648        3647
         4        3547        3548        3649        3648
         4        3548        3549        3650        3649
         4        3549        3550        3651        3650
         4        3550        3551        3652        3651
         4        3551        3552        3653        3652
         4        3552        3553        3654        3653
         4        3553        3554        3655        3654
         4        3554        3555        3656        3655
         4        3555        3556        3657        3656
         4        3556        3557        3658        3657
         4        3557        3558        3659        3658
         4        3558        3559        3660        3659
         4        3559        3560        3661        3660
         4        3560        3561        3662        3661
         4        3561        3562        3663        3662
         4        3562        3563        3664        3663
         4        3563        3564        3665        3664
         4        3564        3565        3666        3665
         4        3565        3566        3667        3666
         4        3566        3567        3668        3667
         4        3567        3568        3669        3668
         4        3568        3569        3670        3669
         4        3569        3570        3671        3670
         4        3570        3571        3672        3671
         4        3571        3572        3673        3672
         4        3572        3573        3674        3673
         4        3573        3574        3675        3674
         4        3574        3575        3676        3675
         4        3575        3576        3677        3676
         4        3576        3577        3678        3677
         4        3577        3578        3679        3678
         4        3578        3579        3680        3679
         4        3579        3580        3681        3680
         4        3580        3581        3682        3681
         4        3581        3582        3683        3682
         4        3582        3583        3684        3683
         4        3583        3584        3685        3684
         4        3584        3585        3686        3685
         4        3585        3586        3687        3686
         4        3586        3587        3688        3687
         4        3587        3588        3689        3688
         4        3588        3589        3690        3689
         4        3589        3590        3691        3690
         4        3590        3591        3692        3691
         4        3591        3592        3693        3692
         4        3592        3593        3694        3693
         4        3593        3594        3695        3694
         4        3594        3595        3696        3695
         4        3595        3596        3697        3696
         4        3596        3597        3698        3697
         4        3597        3598        3699        3698
         4        3598        3599        3700        3699
         4        3599        3600        3701        3700
         4        3600        3601        3702        3701
         4        3601        3602        3703        3702
         4        3602        3603        3704        3703
         4        3603        3604        3705        3704
         4        3604        3605        3706        3705
         4        3605        3606        3707        3706
         4        3606        3607        3708        3707
         4        3607        3608        3709        3708
         4        3608        3609        3710        3709
         4        3609        3610        3711        3710
         4        3610        3611        3712        3711
         4        3611        3612        3713        3712
         4        3612        3613        3714        3713
         4        3613        3614        3715        3714
         4        3614        3615        3716        3715
         4        3615        3616        3717        3716
         4        3616        3617        3718        3717
         4        3617        3618        3719        3718
         4        3618        3619        3720        3719
         4        3619        3620        3721        3720
         4        3620        3621        3722        3721
         4        3621        3622        3723        3722
         4        3622        3623        3724        3723
         4        3623        3624        3725        3724
         4        3624        3625        3726        3725
         4        3625        3626        3727        3726
         4        3626        3627        3728        3727
         4        3627        3628        3729        3728
         4        3628        3629        3730        3729
         4        3629        3630        3731        3730
         4        3630        3631        3732        3731
         4        3631        3632        3733        3732
         4        3632        3633        3734        3733
         4        3633        3634        3735        3734
         4        3634        3635        3736        3735
         4        3636        3637        3738        3737
         4        3637        3638        3739        3738
         4        3638        3639        3740        3739
         4        3639        3640        3741        3740
         4        3640        3641        3742        3741
         4        3641        3642        3743        3742
         4        3642        3643        3744        3743
         4        3643        3644        3745        3744
         4        3644        3645        3746        3745
         4        3645        3646        3747        3746
         4        3646        3647        3748        3747
         4        3647        3648        3749        3748
         4        3648        3649        3750        3749
         4        3649        3650        3751        3750
         4        3650        3651        3752        3751
         4        3651        3652        3753        3752
         4        3652        3653        3754        3753
         4        3653        3654        3755        3754
         4        3654        3655        3756        3755
         4        3655        3656        3757        3756
         4        3656        3657        3758        3757
         4        3657        3658        3759        3758
         4        3658        3659        3760        3759
         4        3659        3660        3761        3760
         4        3660        3661        3762        3761
         4        3661        3662        3763        3762
         4        3662        3663        3764        3763
         4        3663        3664        3765        3764
         4        3664        3665        3766        3765
         4        3665        3666        3767        3766
         4        3666        3667        3768        3767
         4        3667        3668        3769        3768
         4        3668        3669        3770        3769
         4        3669        3670        3771        3770
         4        3670        3671        3772        3771
         4        3671        3672        3773        3772
         4        3672        3673        3774        3773
         4        3673        3674        3775        3774
         4        3674        3675        3776        3775
         4        3675        3676        3777        3776
         4        3676        3677        3778        3777
         4        3677        3678        3779        3778
         4        3678        3679        3780        3779
         4        3679        3680        3781        3780
         4        3680        3681        3782        3781
         4        3681        3682        3783        3782
         4        3682        3683        3784        3783
         4        3683        3684        3785        3784
         4        3684        3685        3786        3785
         4        3685        3686        3787        3786
         4        3686        3687        3788        3787
         4        3687        3688        3789        3788
         4        3688        3689        3790        3789
         4        3689        3690        3791        3790
         4        3690        3691        3792        3791
         4        3691        3692        3793        3792
         4        3692        3693        3794        3793
         4        3693        3694        3795        3794
         4        3694        3695        3796        3795
         4        3695        3696        3797        3796
         4        3696        3697        3798        3797
         4        3697        3698        3799        3798
         4        3698        3699        3800        3799
         4        3699        3700        3801        3800
         4        3700        3701        3802        3801
         4        3701        3702        3803        3802
         4        3702        3703        3804        3803
         4        3703        3704        3805        3804
         4        3704        3705        3806        3805
         4        3705        3706        3807        3806
         4        3706        3707        3808        3807
         4        3707        3708        3809        3808
         4        3708        3709        3810        3809
         4        3709        3710        3811        3810
         4        3710        3711        3812        3811
         4        3711        3712        3813        3812
         4        3712        3713        3814        3813
         4        3713        3714        3815        3814
         4        3714        3715        3816        3815
         4        3715        3716        3817        3816
         4        3716        3717        3818        3817
         4        3717        3718        3819        3818
         4        3718        3719        3820        3819
         4        3719        3720        3821        3820
         4        3720        3721        3822        3821
         4        3721        3722        3823        3822
         4        3722        3723        3824        3823
         4        3723        3724        3825        3824
         4        3724        3725        3826        3825
         4        3725        3726        3827        3826
         4        3726        3727        3828        3827
         4        3727        3728        3829        3828
         4        3728        3729        3830        3829
         4        3729        3730        3831        3830
         4        3730        3731        3832        3831
         4        3731        3732        3833        3832
         4        3732        3733        3834        3833
         4        3733        3734        3835        3834
         4        3734        3735        3836        3835
         4        3735        3736        3837        3836
         4        3737        3738        3839        3838
         4        3738        3739        3840        3839
         4        3739        3740        3841        3840
         4        3740        3741        3842        3841
         4        3741        3742        3843        3842
         4        3742        3743        3844        3843
         4        3743        3744        3845        3844
         4        3744        3745        3846        3845
         4        3745        3746        3847        3846
         4        3746        3747        3848        3847
         4        3747        3748        3849        3848
         4        3748        3749        3850        3849
         4        3749        3750        3851        3850
         4        3750        3751        3852        3851
         4        3751        3752        3853        3852
         4        3752        3753        3854        3853
         4        3753        3754        3855        3854
         4        3754        3755        3856        3855
         4        3755        3756        3857        3856
         4        3756        3757        3858        3857
         4        3757        3758        3859        3858
         4        3758        3759        3860        3859
         4        3759        3760        3861        3860
         4        3760        3761        3862        3861
         4        3761        3762        3863        3862
         4        3762        3763        3864        3863
         4        3763        3764        3865        3864
         4        3764        3765        3866        3865
         4        3765        3766        3867        3866
         4        3766        3767        3868        3867
         4        3767        3768        3869        3868
         4        3768        3769        3870        3869
         4        3769        3770        3871        3870
         4        3770        3771        3872        3871
         4        3771        3772        3873        3872
         4        3772        3773        3874        3873
         4        3773        3774        3875        3874
         4        3774        3775        3876        3875
         4        3775        3776        3877        3876
         4        3776        3777        3878        3877
         4        3777        3778        3879        3878
         4        3778        3779        3880        3879
         4        3779        3780        3881        3880
         4        3780        3781        3882        3881
         4        3781        3782        3883        3882
         4        3782        3783        3884        3883
         4        3783        3784        3885        3884
         4        3784        3785        3886        3885
         4        3785        3786        3887        3886
         4        3786        3787        3888        3887
         4        3787        3788        3889        3888
         4        3788        3789        3890        3889
         4        3789        3790        3891        3890
         4        3790        3791        3892        3891
         4        3791        3792        3893        3892
         4        3792        3793        3894        3893
         4        3793        3794        3895        3894
         4        3794        3795        3896        3895
         4        3795        3796        3897        3896
         4        3796        3797        3898        3897
         4        3797        3798        3899        3898
         4        3798        3799        3900        3899
         4        3799        3800        3901        3900
         4        3800        3801        3902        3901
         4        3801        3802        3903        3902
         4        3802        3803        3904        3903
         4        3803        3804        3905        3904
         4        3804        3805        3906        3905
         4        3805        3806        3907        3906
         4        3806        3807        3908        3907
         4        3807        3808        3909        3908
         4        3808        3809        3910        3909
         4        3809        3810        3911        3910
         4        3810        3811        3912        3911
         4        3811        3812        3913        3912
         4        3812        3813        3914        3913
         4        3813        3814        3915        3914
         4        3814        3815        3916        3915
         4        3815        3816        3917        3916
         4        3816        3817        3918        3917
         4        3817        3818        3919        3918
         4        3818        3819        3920        3919
         4        3819        3820        3921        3920
         4        3820        3821        3922        3921
         4        3821        3822        3923        3922
         4        3822        3823        3924        3923
         4        3823        3824        3925        3924
         4        3824        3825        3926        3925
         4        3825        3826        3927        3926
         4        3826        3827        3928        3927
         4        3827        3828        3929        3928
         4        3828        3829        3930        3929
         4        3829        3830        3931        3930
         4        3830        3831        3932        3931
         4        3831        3832        3933        3932
         4        3832        3833        3934        3933
         4        3833        3834        3935        3934
         4        3834        3835        3936        3935
         4        3835        3836        3937        3936
         4        3836        3837        3938        3937
         4        3838        3839        3940        3939
         4        3839        3840        3941        3940
         4        3840        3841        3942        3941
         4        3841        3842        3943        3942
         4        3842        3843        3944        3943
         4        3843        3844        3945        3944
         4        3844        3845        3946        3945
         4        3845        3846        3947        3946
         4        3846        3847        3948        3947
         4        3847        3848        3949        3948
         4        3848        3849        3950        3949
         4        3849        3850        3951        3950
         4        3850        3851        3952        3951
         4        3851        3852        3953        3952
         4        3852        3853        3954        3953
         4        3853        3854        3955        3954
         4        3854        3855        3956        3955
         4        3855        3856        3957        3956
         4        3856        3857        3958        3957
         4        3857        3858        3959        3958
         4        3858        3859        3960        3959
         4        3859        3860        3961        3960
         4        3860        3861        3962        3961
         4        3861        3862        3963        3962
         4        3862        3863        3964        3963
         4        3863        3864        3965        3964
         4        3864        3865        3966        3965
         4        3865        3866        3967        3966
         4        3866        3867        3968        3967
         4        3867        3868        3969        3968
         4        3868        3869        3970        3969
         4        3869        3870        3971        3970
         4        3870        3871        3972        3971
         4        3871        3872        3973        3972
         4        3872        3873        3974        3973
         4        3873        3874        3975        3974
         4        3874        3875        3976        3975
         4        3875        3876        3977        3976
         4        3876        3877        3978        3977
         4        3877        3878        3979        3978
         4        3878        3879        3980        3979
         4        3879        3880        3981        3980
         4        3880        3881        3982        3981
         4        3881        3882        3983        3982
         4        3882        3883        3984        3983
         4        3883        3884        3985        3984
         4        3884        3885        3986        3985
         4        3885        3886        3987        3986
         4        3886        3887        3988        3987
         4        3887        3888        3989        3988
         4        3888        3889        3990        3989
         4        3889        3890        3991        3990
         4        3890        3891        3992        3991
         4        3891        3892        3993        3992
         4        3892        3893        3994        3993
         4        3893        3894        3995        3994
         4        3894        3895        3996        3995
         4        3895        3896        3997        3996
         4        3896        3897        3998        3997
         4        3897        3898        3999        3998
         4        3898        3899        4000        3999
         4        3899        3900        4001        4000
         4        3900        3901        4002        4001
         4        3901        3902        4003        4002
         4        3902        3903        4004        4003
         4        3903        3904        4005        4004
         4        3904        3905        4006        4005
         4        3905        3906        4007        4006
         4        3906        3907        4008        4007
         4        3907        3908        4009        4008
         4        3908        3909        4010        4009
         4        3909        3910        4011        4010
         4        3910        3911        4012        4011
         4        3911        3912        4013        4012
         4        3912        3913        4014        4013
         4        3913        3914        4015        4014
         4        3914        3915        4016        4015
         4        3915        3916        4017        4016
         4        3916        3917        4018        4017
         4        3917        3918        4019        4018
         4        3918        3919        4020        4019
         4        3919        3920        4021        4020
         4        3920        3921        4022        4021
         4        3921        3922        4023        4022
         4        3922        3923        4024        4023
         4        3923        3924        4025        4024
         4        3924        3925        4026        4025
         4        3925        3926        4027        4026
         4        3926        3927        4028        4027
         4        3927        3928        4029        4028
         4        3928        3929        4030        4029
         4        3929        3930        4031        4030
         4        3930        3931        4032        4031
         4        3931        3932        4033        4032
         4        3932        3933        4034        4033
         4        3933        3934        4035        4034
         4        3934        3935        4036        4035
         4        3935        3936        4037        4036
         4        3936        3937        4038        4037
         4        3937        3938        4039        4038
         4        3939        3940        4041        4040
         4        3940        3941        4042        4041
         4        3941        3942        4043        4042
         4        3942        3943        4044        4043
         4        3943        3944        4045        4044
         4        3944        3945        4046        4045
         4        3945        3946        4047        4046
         4        3946        3947        4048        4047
         4        3947        3948        4049        4048
         4        3948        3949        4050        4049
         4        3949        3950        4051        4050
         4        3950        3951        4052        4051
         4        3951        3952        4053        4052
         4        3952        3953        4054        4053
         4        3953        3954        4055        4054
         4        3954        3955        4056        4055
         4        3955        3956        4057        4056
         4        3956        3957        4058        4057
         4        3957        3958        4059        4058
         4        3958        3959        4060        4059
         4        3959        3960        4061        4060
         4        3960        3961        4062        4061
         4        3961        3962        4063        4062
         4        3962        3963        4064        4063
         4        3963        3964        4065        4064
         4        3964        3965        4066        4065
         4        3965        3966        4067        4066
         4        3966        3967        4068        4067
         4        3967        3968        4069        4068
         4        3968        3969        4070        4069
         4        3969        3970        4071        4070
         4        3970        3971        4072        4071
         4        3971        3972        4073        4072
         4        3972        3973        4074        4073
         4        3973        3974        4075        4074
         4        3974        3975        4076        4075
         4        3975        3976        4077        4076
         4        3976        3977        4078        4077
         4        3977        3978        4079        4078
         4        3978        3979        4080        4079
         4        3979        3980        4081        4080
         4        3980        3981        4082        4081
         4        3981        3982        4083        4082
         4        3982        3983        4084        4083
         4        3983        3984        4085        4084
         4        3984        3985        4086        4085
         4        3985        3986        4087        4086
         4        3986        3987        4088        4087
         4        3987        3988        4089        4088
         4        3988        3989        4090        4089
         4        3989        3990        4091        4090
         4        3990        3991        4092        4091
         4        3991        3992        4093        4092
         4        3992        3993        4094        4093
         4        3993        3994        4095        4094
         4        3994        3995        4096        4095
         4        3995        3996        4097        4096
         4        3996        3997        4098        4097
         4        3997        3998        4099        4098
         4        3998        3999        4100        4099
         4        3999        4000        4101        4100
         4        4000        4001        4102        4101
         4        4001        4002        4103        4102
         4        4002        4003        4104        4103
         4        4003        4004        4105        4104
         4        4004        4005        4106        4105
         4        4005        4006        4107        4106
         4        4006        4007        4108        4107
         4        4007        4008        4109        4108
         4        4008        4009        4110        4109
         4        4009        4010        4111        4110
         4        4010        4011        4112        4111
         4        4011        4012        4113        4112
         4        4012        4013        4114        4113
         4        4013        4014        4115        4114
         4        4014        4015        4116        4115
         4        4015        4016        4117        4116
         4        4016        4017        4118        4117
         4        4017        4018        4119        4118
         4        4018        4019        4120        4119
         4        4019        4020        4121        4120
         4        4020        4021        4122        4121
         4        4021        4022        4123        4122
         4        4022        4023        4124        4123
         4        4023        4024        4125        4124
         4        4024        4025        4126        4125
         4        4025        4026        4127        4126
         4        4026        4027        4128        4127
         4        4027        4028        4129        4128
         4        4028        4029        4130        4129
         4        4029        4030        4131        4130
         4        4030        4031        4132        4131
         4        4031        4032        4133        4132
         4        4032        4033        4134        4133
         4        4033        4034        4135        4134
         4        4034        4035        4136        4135
         4        4035        4036        4137        4136
         4        4036        4037        4138        4137
         4        4037        4038        4139        4138
         4        4038        4039        4140        4139
         4        4040        4041        4142        4141
         4        4041        4042        4143        4142
         4        4042        4043        4144        4143
         4        4043        4044        4145        4144
         4        4044        4045        4146        4145
         4        4045        4046        4147        4146
         4        4046        4047        4148        4147
         4        4047        4048        4149        4148
         4        4048        4049        4150        4149
         4        4049        4050        4151        4150
         4        4050        4051        4152        4151
         4        4051        4052        4153        4152
         4        4052        4053        4154        4153
         4        4053        4054        4155        4154
         4        4054        4055        4156        4155
         4        4055        4056        4157        4156
         4        4056        4057        4158        4157
         4        4057        4058        4159        4158
         4        4058        4059        4160        4159
         4        4059        4060        4161        4160
         4        4060        4061        4162        4161
         4        4061        4062        4163        4162
         4        4062        4063        4164        4163
         4        4063        4064        4165        4164
         4        4064        4065        4166        4165
         4        4065        4066        4167        4166
         4        4066        4067        4168        4167
         4        4067        4068        4169        4168
         4        4068        4069        4170        4169
         4        4069        4070        4171        4170
         4        4070        4071        4172        4171
         4        4071        4072        4173        4172
         4        4072        4073        4174        4173
         4        4073        4074        4175        4174
         4        4074        4075        4176        4175
         4        4075        4076        4177        4176
         4        4076        4077        4178        4177
         4        4077        4078        4179        4178
         4        4078        4079        4180        4179
         4        4079        4080        4181        4180
         4        4080        4081        4182        4181
         4        4081        4082        4183        4182
         4        4082        4083        4184        4183
         4        4083        4084        4185        4184
         4        4084        4085        4186        4185
         4        4085        4086        4187        4186
         4        4086        4087        4188        4187
         4        4087        4088        4189        4188
         4        4088        4089        4190        4189
         4        4089        4090        4191        4190
         4        4090        4091        4192        4191
         4        4091        4092        4193        4192
         4        4092        4093        4194        4193
         4        4093        4094        4195        4194
         4        4094        4095        4196        4195
         4        4095        4096        4197        4196
         4        4096        4097        4198        4197
         4        4097        4098        4199        4198
         4        4098        4099        4200        4199
         4        4099        4100        4201        4200
         4        4100        4101        4202        4201
         4        4101        4102        4203        4202
         4        4102        4103        4204        4203
         4        4103        4104        4205        4204
         4        4104        4105        4206        4205
         4        4105        4106        4207        4206
         4        4106        4107        4208        4207
         4        4107        4108        4209        4208
         4        4108        4109        4210        4209
         4        4109        4110        4211        4210
         4        4110        4111        4212        4211
         4        4111        4112        4213        4212
         4        4112        4113        4214        4213
         4        4113        4114        4215        4214
         4        4114        4115        4216        4215
         4        4115        4116        4217        4216
         4        4116        4117        4218        4217
         4        4117        4118        4219        4218
         4        4118        4119        4220        4219
         4        4119        4120        4221        4220
         4        4120        4121        4222        4221
         4        4121        4122        4223        4222
         4        4122        4123        4224        4223
         4        4123        4124        4225        4224
         4        4124        4125        4226        4225
         4        4125        4126        4227        4226
         4        4126        4127        4228        4227
         4        4127        4128        4229        4228
         4        4128        4129        4230        4229
         4        4129        4130        4231        4230
         4        4130        4131        4232        4231
         4        4131        4132        4233        4232
         4        4132        4133        4234        4233
         4        4133        4134        4235        4234
         4        4134        4135        4236        4235
         4        4135        4136        4237        4236
         4        4136        4137        4238        4237
         4        4137        4138        4239        4238
         4        4138        4139        4240        4239
         4        4139        4140        4241        4240
         4        4141        4142        4243        4242
         4        4142        4143        4244        4243
         4        4143        4144        4245        4244
         4        4144        4145        4246        4245
         4        4145        4146        4247        4246
         4        4146        4147        4248        4247
         4        4147        4148        4249        4248
         4        4148        4149        4250        4249
         4        4149        4150        4251        4250
         4        4150        4151        4252        4251
         4        4151        4152        4253        4252
         4        4152        4153        4254        4253
         4        4153        4154        4255        4254
         4        4154        4155        4256        4255
         4        4155        4156        4257        4256
         4        4156        4157        4258        4257
         4        4157        4158        4259        4258
         4        4158        4159        4260        4259
         4        4159        4160        4261        4260
         4        4160        4161        4262        4261
         4        4161        4162        4263        4262
         4        4162        4163        4264        4263
         4        4163        4164        4265        4264
         4        4164        4165        4266        4265
         4        4165        4166        4267        4266
         4        4166        4167        4268        4267
         4        4167        4168        4269        4268
         4        4168        4169        4270        4269
         4        4169        4170        4271        4270
         4        4170        4171        4272        4271
         4        4171        4172        4273        4272
         4        4172        4173        4274        4273
         4        4173        4174        4275        4274
         4        4174        4175        4276        4275
         4        4175        4176        4277        4276
         4        4176        4177        4278        4277
         4        4177        4178        4279        4278
         4        4178        4179        4280        4279
         4        4179        4180        4281        4280
         4        4180        4181        4282        4281
         4        4181        4182        4283        4282
         4        4182        4183        4284        4283
         4        4183        4184        4285        4284
         4        4184        4185        4286        4285
         4        4185        4186        4287        4286
         4        4186        4187        4288        4287
         4        4187        4188        4289        4288
         4        4188        4189        4290        4289
         4        4189        4190        4291        4290
         4        4190        4191        4292        4291
         4        4191        4192        4293        4292
         4        4192        4193        4294        4293
         4        4193        4194        4295        4294
         4        4194        4195        4296        4295
         4        4195        4196        4297        4296
         4        4196        4197        4298        4297
         4        4197        4198        4299        4298
         4        4198        4199        4300        4299
         4        4199        4200        4301        4300
         4        4200        4201        4302        4301
         4        4201        4202        4303        4302
         4        4202        4203        4304        4303
         4        4203        4204        4305        4304
         4        4204        4205        4306        4305
         4        4205        4206        4307        4306
         4        4206        4207        4308        4307
         4        4207        4208        4309        4308
         4        4208        4209        4310        4309
         4        4209        4210        4311        4310
         4        4210        4211        4312        4311
         4        4211        4212        4313        4312
         4        4212        4213        4314        4313
         4        4213        4214        4315        4314
         4        4214        4215        4316        4315
         4        4215        4216        4317        4316
         4        4216        4217        4318        4317
         4        4217        4218        4319        4318
         4        4218        4219        4320        4319
         4        4219        4220        4321        4320
         4        4220        4221        4322        4321
         4        4221        4222        4323        4322
         4        4222        4223        4324        4323
         4        4223        4224        4325        4324
         4        4224        4225        4326        4325
         4        4225        4226        4327        4326
         4        4226        4227        4328        4327
         4        4227        4228        4329        4328
         4        4228        4229        4330        4329
         4        4229        4230        4331        4330
         4        4230        4231        4332        4331
         4        4231        4232        4333        4332
         4        4232        4233        4334        4333
         4        4233        4234        4335        4334
         4        4234        4235        4336        4335
         4        4235        4236        4337        4336
         4        4236        4237        4338        4337
         4        4237        4238        4339        4338
         4        4238        4239        4340        4339
         4        4239        4240        4341        4340
         4        4240        4241        4342        4341
         4        4242        4243        4344        4343
         4        4243        4244        4345        4344
         4        4244        4245        4346        4345
         4        4245        4246        4347        4346
         4        4246        4247        4348        4347
         4        4247        4248        4349        4348
         4        4248        4249        4350        4349
         4        4249        4250        4351        4350
         4        4250        4251        4352        4351
         4        4251        4252        4353        4352
         4        4252        4253        4354        4353
         4        4253        4254        4355        4354
         4        4254        4255        4356        4355
         4        4255        4256        4357        4356
         4        4256        4257        4358        4357
         4        4257        4258        4359        4358
         4        4258        4259        4360        4359
         4        4259        4260        4361        4360
         4        4260        4261        4362        4361
         4        4261        4262        4363        4362
         4        4262        4263        4364        4363
         4        4263        4264        4365        4364
         4        4264        4265        4366        4365
         4        4265        4266        4367        4366
         4        4266        4267        4368        4367
         4        4267        4268        4369        4368
         4        4268        4269        4370        4369
         4        4269        4270        4371        4370
         4        4270        4271        4372        4371
         4        4271        4272        4373        4372
         4        4272        4273        4374        4373
         4        4273        4274        4375        4374
         4        4274        4275        4376        4375
         4        4275        4276        4377        4376
         4        4276        4277        4378        4377
         4        4277        4278        4379        4378
         4        4278        4279        4380        4379
         4        4279        4280        4381        4380
         4        4280        4281        4382        4381
         4        4281        4282        4383        4382
         4        4282        4283        4384        4383
         4        4283        4284        4385        4384
         4        4284        4285        4386        4385
         4        4285        4286        4387        4386
         4        4286        4287        4388        4387
         4        4287        4288        4389        4388
         4        4288        4289        4390        4389
         4        4289        4290        4391        4390
         4        4290        4291        4392        4391
         4        4291        4292        4393        4392
         4        4292        4293        4394        4393
         4        4293        4294        4395        4394
         4        4294        4295        4396        4395
         4        4295        4296        4397        4396
         4        4296        4297        4398        4397
         4        4297        4298        4399        4398
         4        4298        4299        4400        4399
         4        4299        4300        4401        4400
         4        4300        4301        4402        4401
         4        4301        4302        4403        4402
         4        4302        4303        4404        4403
         4        4303        4304        4405        4404
         4        4304        4305        4406        4405
         4        4305        4306        4407        4406
         4        4306        4307        4408        4407
         4        4307        4308        4409        4408
         4        4308        4309        4410        4409
         4        4309        4310        4411        4410
         4        4310        4311        4412        4411
         4        4311        4312        4413        4412
         4        4312        4313        4414        4413
         4        4313        4314        4415        4414
         4        4314        4315        4416        4415
         4        4315        4316        4417        4416
         4        4316        4317        4418        4417
         4        4317        4318        4419        4418
         4        4318        4319        4420        4419
         4        4319        4320        4421        4420
         4        4320        4321        4422        4421
         4        4321        4322        4423        4422
         4        4322        4323        4424        4423
         4        4323        4324        4425        4424
         4        4324        4325        4426        4425
         4        4325        4326        4427        4426
         4        4326        4327        4428        4427
         4        4327        4328        4429        4428
         4        4328        4329        4430        4429
         4        4329        4330        4431        4430
         4        4330        4331        4432        4431
         4        4331        4332        4433        4432
         4        4332        4333        4434        4433
         4        4333        4334        4435        4434
         4        4334        4335        4436        4435
         4        4335        4336        4437        4436
         4        4336        4337        4438        4437
         4        4337        4338        4439        4438
         4        4338        4339        4440        4439
         4        4339        4340        4441        4440
         4        4340        4341        4442        4441
         4        4341        4342        4443        4442
         4        4343        4344        4445        4444
         4        4344        4345        4446        4445
         4        4345        4346        4447        4446
         4        4346        4347        4448        4447
         4        4347        4348        4449        4448
         4        4348        4349        4450        4449
         4        4349        4350        4451        4450
         4        4350        4351        4452        4451
         4        4351        4352        4453        4452
         4        4352        4353        4454        4453
         4        4353        4354        4455        4454
         4        4354        4355        4456        4455
         4        4355        4356        4457        4456
         4        4356        4357        4458        4457
         4        4357        4358        4459        4458
         4        4358        4359        4460        4459
         4        4359        4360        4461        4460
         4        4360        4361        4462        4461
         4        4361        4362        4463        4462
         4        4362        4363        4464        4463
         4        4363        4364        4465        4464
         4        4364        4365        4466        4465
         4        4365        4366        4467        4466
         4        4366        4367        4468        4467
         4        4367        4368        4469        4468
         4        4368        4369        4470        4469
         4        4369        4370        4471        4470
         4        4370        4371        4472        4471
         4        4371        4372        4473        4472
         4        4372        4373        4474        4473
         4        4373        4374        4475        4474
         4        4374        4375        4476        4475
         4        4375        4376        4477        4476
         4        4376        4377        4478        4477
         4        4377        4378        4479        4478
         4        4378        4379        4480        4479
         4        4379        4380        4481        4480
         4        4380        4381        4482        4481
         4        4381        4382        4483        4482
         4        4382        4383        4484        4483
         4        4383        4384        4485        4484
         4        4384        4385        4486        4485
         4        4385        4386        4487        4486
         4        4386        4387        4488        4487
         4        4387        4388        4489        4488
         4        4388        4389        4490        4489
         4        4389        4390        4491        4490
         4        4390        4391        4492        4491
         4        4391        4392        4493        4492
         4        4392        4393        4494        4493
         4        4393        4394        4495        4494
         4        4394        4395        4496        4495
         4        4395        4396        4497        4496
         4        4396        4397        4498        4497
         4        4397        4398        4499        4498
         4        4398        4399        4500        4499
         4        4399        4400        4501        4500
         4        4400        4401        4502        4501
         4        4401        4402        4503        4502
         4        4402        4403        4504        4503
         4        4403        4404        4505        4504
         4        4404        4405        4506        4505
         4        4405        4406        4507        4506
         4        4406        4407        4508        4507
         4        4407        4408        4509        4508
         4        4408        4409        4510        4509
         4        4409        4410        4511        4510
         4        4410        4411        4512        4511
         4        4411        4412        4513        4512
         4        4412        4413        4514        4513
         4        4413        4414        4515        4514
         4        4414        4415        4516        4515
         4        4415        4416        4517        4516
         4        4416        4417        4518        4517
         4        4417        4418        4519        4518
         4        4418        4419        4520        4519
         4        4419        4420        4521        4520
         4        4420        4421        4522        4521
         4        4421        4422        4523        4522
         4        4422        4423        4524        4523
         4        4423        4424        4525        4524
         4        4424        4425        4526        4525
         4        4425        4426        4527        4526
         4        4426        4427        4528        4527
         4        4427        4428        4529        4528
         4        4428        4429        4530        4529
         4        4429        4430        4531        4530
         4        4430        4431        4532        4531
         4        4431        4432        4533        4532
         4        4432        4433        4534        4533
         4        4433        4434        4535        4534
         4        4434        4435        4536        4535
         4        4435        4436        4537        4536
         4        4436        4437        4538        4537
         4        4437        4438        4539        4538
         4        4438        4439        4540        4539
         4        4439        4440        4541        4540
         4        4440        4441        4542        4541
         4        4441        4442        4543        4542
         4        4442        4443        4544        4543
         4        4444        4445        4546        4545
         4        4445        4446        4547        4546
         4        4446        4447        4548        4547
         4        4447        4448        4549        4548
         4        4448        4449        4550        4549
         4        4449        4450        4551        4550
         4        4450        4451        4552        4551
         4        4451        4452        4553        4552
         4        4452        4453        4554        4553
         4        4453        4454        4555        4554
         4        4454        4455        4556        4555
         4        4455        4456        4557        4556
         4        4456        4457        4558        4557
         4        4457        4458        4559        4558
         4        4458        4459        4560        4559
         4        4459        4460        4561        4560
         4        4460        4461        4562        4561
         4        4461        4462        4563        4562
         4        4462        4463        4564        4563
         4        4463        4464        4565        4564
         4        4464        4465        4566        4565
         4        4465        4466        4567        4566
         4        4466        4467        4568        4567
         4        4467        4468        4569        4568
         4        4468        4469        4570        4569
         4        4469        4470        4571        4570
         4        4470        4471        4572        4571
         4        4471        4472        4573        4572
         4        4472        4473        4574        4573
         4        4473        4474        4575        4574
         4        4474        4475        4576        4575
         4        4475        4476        4577        4576
         4        4476        4477        4578        4577
         4        4477        4478        4579        4578
         4        4478        4479        4580        4579
         4        4479        4480        4581        4580
         4        4480        4481        4582        4581
         4        4481        4482        4583        4582
         4        4482        4483        4584        4583
         4        4483        4484        4585        4584
         4        4484        4485        4586        4585
         4        4485        4486        4587        4586
         4        4486        4487        4588        4587
         4        4487        4488        4589        4588
         4        4488        4489        4590        4589
         4        4489        4490        4591        4590
         4        4490        4491        4592        4591
         4        4491        4492        4593        4592
         4        4492        4493        4594        4593
         4        4493        4494        4595        4594
         4        4494        4495        4596        4595
         4        4495        4496        4597        4596
         4        4496        4497        4598        4597
         4        4497        4498        4599        4598
         4        4498        4499        4600        4599
         4        4499        4500        4601        4600
         4        4500        4501        4602        4601
         4        4501        4502        4603        4602
         4        4502        4503        4604        4603
         4        4503        4504        4605        4604
         4        4504        4505        4606        4605
         4        4505        4506        4607        4606
         4        4506        4507        4608        4607
         4        4507        4508        4609        4608
         4        4508        4509        4610        4609
         4        4509        4510        4611        4610
         4        4510        4511        4612        4611
         4        4511        4512        4613        4612
         4        4512        4513        4614        4613
         4        4513        4514        4615        4614
         4        4514        4515        4616        4615
         4        4515        4516        4617        4616
         4        4516        4517        4618        4617
         4        4517        4518        4619        4618
         4        4518        4519        4620        4619
         4        4519        4520        4621        4620
         4        4520        4521        4622        4621
         4        4521        4522        4623        4622
         4        4522        4523        4624        4623
         4        4523        4524        4625        4624
         4        4524        4525        4626        4625
         4        4525        4526        4627        4626
         4        4526        4527        4628        4627
         4        4527        4528        4629        4628
         4        4528        4529        4630        4629
         4        4529        4530        4631        4630
         4        4530        4531        4632        4631
         4        4531        4532        4633        4632
         4        4532        4533        4634        4633
         4        4533        4534        4635        4634
         4        4534        4535        4636        4635
         4        4535        4536        4637        4636
         4        4536        4537        4638        4637
         4        4537        4538        4639        4638
         4        4538        4539        4640        4639
         4        4539        4540        4641        4640
         4        4540        4541        4642        4641
         4        4541        4542        4643        4642
         4        4542        4543        4644        4643
         4        4543        4544        4645        4644
         4        4545        4546        4647        4646
         4        4546        4547        4648        4647
         4        4547        4548        4649        4648
         4        4548        4549        4650        4649
         4        4549        4550        4651        4650
         4        4550        4551        4652        4651
         4        4551        4552        4653        4652
         4        4552        4553        4654        4653
         4        4553        4554        4655        4654
         4        4554        4555        4656        4655
         4        4555        4556        4657        4656
         4        4556        4557        4658        4657
         4        4557        4558        4659        4658
         4        4558        4559        4660        4659
         4        4559        4560        4661        4660
         4        4560        4561        4662        4661
         4        4561        4562        4663        4662
         4        4562        4563        4664        4663
         4        4563        4564        4665        4664
         4        4564        4565        4666        4665
         4        4565        4566        4667        4666
         4        4566        4567        4668        4667
         4        4567        4568        4669        4668
         4        4568        4569        4670        4669
         4        4569        4570        4671        4670
         4        4570        4571        4672        4671
         4        4571        4572        4673        4672
         4        4572        4573        4674        4673
         4        4573        4574        4675        4674
         4        4574        4575        4676        4675
         4        4575        4576        4677        4676
         4        4576        4577        4678        4677
         4        4577        4578        4679        4678
         4        4578        4579        4680        4679
         4        4579        4580        4681        4680
         4        4580        4581        4682        4681
         4        4581        4582        4683        4682
         4        4582        4583        4684        4683
         4        4583        4584        4685        4684
         4        4584        4585        4686        4685
         4        4585        4586        4687        4686
         4        4586        4587        4688        4687
         4        4587        4588        4689        4688
         4        4588        4589        4690        4689
         4        4589        4590        4691        4690
         4        4590        4591        4692        4691
         4        4591        4592        4693        4692
         4        4592        4593        4694        4693
         4        4593        4594        4695        4694
         4        4594        4595        4696        4695
         4        4595        4596        4697        4696
         4        4596        4597        4698        4697
         4        4597        4598        4699        4698
         4        4598        4599        4700        4699
         4        4599        4600        4701        4700
         4        4600        4601        4702        4701
         4        4601        4602        4703        4702
         4        4602        4603        4704        4703
         4        4603        4604        4705        4704
         4        4604        4605        4706        4705
         4        4605        4606        4707        4706
         4        4606        4607        4708        4707
         4        4607        4608        4709        4708
         4        4608        4609        4710        4709
         4        4609        4610        4711        4710
         4        4610        4611        4712        4711
         4        4611        4612        4713        4712
         4        4612        4613        4714        4713
         4        4613        4614        4715        4714
         4        4614        4615        4716        4715
         4        4615        4616        4717        4716
         4        4616        4617        4718        4717
         4        4617        4618        4719        4718
         4        4618        4619        4720        4719
         4        4619        4620        4721        4720
         4        4620        4621        4722        4721
         4        4621        4622        4723        4722
         4        4622        4623        4724        4723
         4        4623        4624        4725        4724
         4        4624        4625        4726        4725
         4        4625        4626        4727        4726
         4        4626        4627        4728        4727
         4        4627        4628        4729        4728
         4        4628        4629        4730        4729
         4        4629        4630        4731        4730
         4        4630        4631        4732        4731
         4        4631        4632        4733        4732
         4        4632        4633        4734        4733
         4        4633        4634        4735        4734
         4        4634        4635        4736        4735
         4        4635        4636        4737        4736
         4        4636        4637        4738        4737
         4        4637        4638        4739        4738
         4        4638        4639        4740        4739
         4        4639        4640        4741        4740
         4        4640        4641        4742        4741
         4        4641        4642        4743        4742
         4        4642        4643        4744        4743
         4        4643        4644        4745        4744
         4        4644        4645        4746        4745
         4        4646        4647        4748        4747
         4        4647        4648        4749        4748
         4        4648        4649        4750        4749
         4        4649        4650        4751        4750
         4        4650        4651        4752        4751
         4        4651        4652        4753        4752
         4        4652        4653        4754        4753
         4        4653        4654        4755        4754
         4        4654        4655        4756        4755
         4        4655        4656        4757        4756
         4        4656        4657        4758        4757
         4        4657        4658        4759        4758
         4        4658        4659        4760        4759
         4        4659        4660        4761        4760
         4        4660        4661        4762        4761
         4        4661        4662        4763        4762
         4        4662        4663        4764        4763
         4        4663        4664        4765        4764
         4        4664        4665        4766        4765
         4        4665        4666        4767        4766
         4        4666        4667        4768        4767
         4        4667        4668        4769        4768
         4        4668        4669        4770        4769
         4        4669        4670        4771        4770
         4        4670        4671        4772        4771
         4        4671        4672        4773        4772
         4        4672        4673        4774        4773
         4        4673        4674        4775        4774
         4        4674        4675        4776        4775
         4        4675        4676        4777        4776
         4        4676        4677        4778        4777
         4        4677        4678        4779        4778
         4        4678        4679        4780        4779
         4        4679        4680        4781        4780
         4        4680        4681        4782        4781
         4        4681        4682        4783        4782
         4        4682        4683        4784        4783
         4        4683        4684        4785        4784
         4        4684        4685        4786        4785
         4        4685        4686        4787        4786
         4        4686        4687        4788        4787
         4        4687        4688        4789        4788
         4        4688        4689        4790        4789
         4        4689        4690        4791        4790
         4        4690        4691        4792        4791
         4        4691        4692        4793        4792
         4        4692        4693        4794        4793
         4        4693        4694        4795        4794
         4        4694        4695        4796        4795
         4        4695        4696        4797        4796
         4        4696        4697        4798        4797
         4        4697        4698        4799        4798
         4        4698        4699        4800        4799
         4        4699        4700        4801        4800
         4        4700        4701        4802        4801
         4        4701        4702        4803        4802
         4        4702        4703        4804        4803
         4        4703        4704        4805        4804
         4        4704        4705        4806        4805
         4        4705        4706        4807        4806
         4        4706        4707        4808        4807
         4        4707        4708        4809        4808
         4        4708        4709        4810        4809
         4        4709        4710        4811        4810
         4        4710        4711        4812        4811
         4        4711        4712        4813        4812
         4        4712        4713        4814        4813
         4        4713        4714        4815        4814
         4        4714        4715        4816        4815
         4        4715        4716        4817        4816
         4        4716        4717        4818        4817
         4        4717        4718        4819        4818
         4        4718        4719        4820        4819
         4        4719        4720        4821        4820
         4        4720        4721        4822        4821
         4        4721        4722        4823        4822
         4        4722        4723        4824        4823
         4        4723        4724        4825        4824
         4        4724        4725        4826        4825
         4        4725        4726        4827        4826
         4        4726        4727        4828        4827
         4        4727        4728        4829        4828
         4        4728        4729        4830        4829
         4        4729        4730        4831        4830
         4        4730        4731        4832        4831
         4        4731        4732        4833        4832
         4        4732        4733        4834        4833
         4        4733        4734        4835        4834
         4        4734        4735        4836        4835
         4        4735        4736        4837        4836
         4        4736        4737        4838        4837
         4        4737        4738        4839        4838
         4        4738        4739        4840        4839
         4        4739        4740        4841        4840
         4        4740        4741        4842        4841
         4        4741        4742        4843        4842
         4        4742        4743        4844        4843
         4        4743        4744        4845        4844
         4        4744        4745        4846        4845
         4        4745        4746        4847        4846
         4        4747        4748        4849        4848
         4        4748        4749        4850        4849
         4        4749        4750        4851        4850
         4        4750        4751        4852        4851
         4        4751        4752        4853        4852
         4        4752        4753        4854        4853
         4        4753        4754        4855        4854
         4        4754        4755        4856        4855
         4        4755        4756        4857        4856
         4        4756        4757        4858        4857
         4        4757        4758        4859        4858
         4        4758        4759        4860        4859
         4        4759        4760        4861        4860
         4        4760        4761        4862        4861
         4        4761        4762        4863        4862
         4        4762        4763        4864        4863
         4        4763        4764        4865        4864
         4        4764        4765        4866        4865
         4        4765        4766        4867        4866
         4        4766        4767        4868        4867
         4        4767        4768        4869        4868
         4        4768        4769        4870        4869
         4        4769        4770        4871        4870
         4        4770        4771        4872        4871
         4        4771        4772        4873        4872
         4        4772        4773        4874        4873
         4        4773        4774        4875        4874
         4        4774        4775        4876        4875
         4        4775        4776        4877        4876
         4        4776        4777        4878        4877
         4        4777        4778        4879        4878
         4        4778        4779        4880        4879
         4        4779        4780        4881        4880
         4        4780        4781        4882        4881
         4        4781        4782        4883        4882
         4        4782        4783        4884        4883
         4        4783        4784        4885        4884
         4        4784        4785        4886        4885
         4        4785        4786        4887        4886
         4        4786        4787        4888        4887
         4        4787        4788        4889        4888
         4        4788        4789        4890        4889
         4        4789        4790        4891        4890
         4        4790        4791        4892        4891
         4        4791        4792        4893        4892
         4        4792        4793        4894        4893
         4        4793        4794        4895        4894
         4        4794        4795        4896        4895
         4        4795        4796        4897        4896
         4        4796        4797        4898        4897
         4        4797        4798        4899        4898
         4        4798        4799        4900        4899
         4        4799        4800        4901        4900
         4        4800        4801        4902        4901
         4        4801        4802        4903        4902
         4        4802        4803        4904        4903
         4        4803        4804        4905        4904
         4        4804        4805        4906        4905
         4        4805        4806        4907        4906
         4        4806        4807        4908        4907
         4        4807        4808        4909        4908
         4        4808        4809        4910        4909
         4        4809        4810        4911        4910
         4        4810        4811        4912        4911
         4        4811        4812        4913        4912
         4        4812        4813        4914        4913
         4        4813        4814        4915        4914
         4        4814        4815        4916        4915
         4        4815        4816        4917        4916
         4        4816        4817        4918        4917
         4        4817        4818        4919        4918
         4        4818        4819        4920        4919
         4        4819        4820        4921        4920
         4        4820        4821        4922        4921
         4        4821        4822        4923        4922
         4        4822        4823        4924        4923
         4        4823        4824        4925        4924
         4        4824        4825        4926        4925
         4        4825        4826        4927        4926
         4        4826        4827        4928        4927
         4        4827        4828        4929        4928
         4        4828        4829        4930        4929
         4        4829        4830        4931        4930
         4        4830        4831        4932        4931
         4        4831        4832        4933        4932
         4        4832        4833        4934        4933
         4        4833        4834        4935        4934
         4        4834        4835        4936        4935
         4        4835        4836        4937        4936
         4        4836        4837        4938        4937
         4        4837        4838        4939        4938
         4        4838        4839        4940        4939
         4        4839        4840        4941        4940
         4        4840        4841        4942        4941
         4        4841        4842        4943        4942
         4        4842        4843        4944        4943
         4        4843        4844        4945        4944
         4        4844        4845        4946        4945
         4        4845        4846        4947        4946
         4        4846        4847        4948        4947
         4        4848        4849        4950        4949
         4        4849        4850        4951        4950
         4        4850        4851        4952        4951
         4        4851        4852        4953        4952
         4        4852        4853        4954        4953
         4        4853        4854        4955        4954
         4        4854        4855        4956        4955
         4        4855        4856        4957        4956
         4        4856        4857        4958        4957
         4        4857        4858        4959        4958
         4        4858        4859        4960        4959
         4        4859        4860        4961        4960
         4        4860        4861        4962        4961
         4        4861        4862        4963        4962
         4        4862        4863        4964        4963
         4        4863        4864        4965        4964
         4        4864        4865        4966        4965
         4        4865        4866        4967        4966
         4        4866        4867        4968        4967
         4        4867        4868        4969        4968
         4        4868        4869        4970        4969
         4        4869        4870        4971        4970
         4        4870        4871        4972        4971
         4        4871        4872        4973        4972
         4        4872        4873        4974        4973
         4        4873        4874        4975        4974
         4        4874        4875        4976        4975
         4        4875        4876        4977        4976
         4        4876        4877        4978        4977
         4        4877        4878        4979        4978
         4        4878        4879        4980        4979
         4        4879        4880        4981        4980
         4        4880        4881        4982        4981
         4        4881        4882        4983        4982
         4        4882        4883        4984        4983
         4        4883        4884        4985        4984
         4        4884        4885        4986        4985
         4        4885        4886        4987        4986
         4        4886        4887        4988        4987
         4        4887        4888        4989        4988
         4        4888        4889        4990        4989
         4        4889        4890        4991        4990
         4        4890        4891        4992        4991
         4        4891        4892        4993        4992
         4        4892        4893        4994        4993
         4        4893        4894        4995        4994
         4        4894        4895        4996        4995
         4        4895        4896        4997        4996
         4        4896        4897        4998        4997
         4        4897        4898        4999        4998
         4        4898        4899        5000        4999
         4        4899        4900        5001        5000
         4        4900        4901        5002        5001
         4        4901        4902        5003        5002
         4        4902        4903        5004        5003
         4        4903        4904        5005        5004
         4        4904        4905        5006        5005
         4        4905        4906        5007        5006
         4        4906        4907        5008        5007
         4        4907        4908        5009        5008
         4        4908        4909        5010        5009
         4        4909        4910        5011        5010
         4        4910        4911        5012        5011
         4        4911        4912        5013        5012
         4        4912        4913        5014        5013
         4        4913        4914        5015        5014
         4        4914        4915        5016        5015
         4        4915        4916        5017        5016
         4        4916        4917        5018        5017
         4        4917        4918        5019        5018
         4        4918        4919        5020        5019
         4        4919        4920        5021        5020
         4        4920        4921        5022        5021
         4        4921        4922        5023        5022
         4        4922        4923        5024        5023
         4        4923        4924        5025        5024
         4        4924        4925        5026        5025
         4        4925        4926        5027        5026
         4        4926        4927        5028        5027
         4        4927        4928        5029        5028
         4        4928        4929        5030        5029
         4        4929        4930        5031        5030
         4        4930        4931        5032        5031
         4        4931        4932        5033        5032
         4        4932        4933        5034        5033
         4        4933        4934        5035        5034
         4        4934        4935        5036        5035
         4        4935        4936        5037        5036
         4        4936        4937        5038        5037
         4        4937        4938        5039        5038
         4        4938        4939        5040        5039
         4        4939        4940        5041        5040
         4        4940        4941        5042        5041
         4        4941        4942        5043        5042
         4        4942        4943        5044        5043
         4        4943        4944        5045        5044
         4        4944        4945        5046        5045
         4        4945        4946        5047        5046
         4        4946        4947        5048        5047
         4        4947        4948        5049        5048
         4        4949        4950        5051        5050
         4        4950        4951        5052        5051
         4        4951        4952        5053        5052
         4        4952        4953        5054        5053
         4        4953        4954        5055        5054
         4        4954        4955        5056        5055
         4        4955        4956        5057        5056
         4        4956        4957        5058        5057
         4        4957        4958        5059        5058
         4        4958        4959        5060        5059
         4        4959        4960        5061        5060
         4        4960        4961        5062        5061
         4        4961        4962        5063        5062
         4        4962        4963        5064        5063
         4        4963        4964        5065        5064
         4        4964        4965        5066        5065
         4        4965        4966        5067        5066
         4        4966        4967        5068        5067
         4        4967        4968        5069        5068
         4        4968        4969        5070        5069
         4        4969        4970        5071        5070
         4        4970        4971        5072        5071
         4        4971        4972        5073        5072
         4        4972        4973        5074        5073
         4        4973        4974        5075        5074
         4        4974        4975        5076        5075
         4        4975        4976        5077        5076
         4        4976        4977        5078        5077
         4        4977        4978        5079        5078
         4        4978        4979        5080        5079
         4        4979        4980        5081        5080
         4        4980        4981        5082        5081
         4        4981        4982        5083        5082
         4        4982        4983        5084        5083
         4        4983        4984        5085        5084
         4        4984        4985        5086        5085
         4        4985        4986        5087        5086
         4        4986        4987        5088        5087
         4        4987        4988        5089        5088
         4        4988        4989        5090        5089
         4        4989        4990        5091        5090
         4        4990        4991        5092        5091
         4        4991        4992        5093        5092
         4        4992        4993        5094        5093
         4        4993        4994        5095        5094
         4        4994        4995        5096        5095
         4        4995        4996        5097        5096
         4        4996        4997        5098        5097
         4        4997        4998        5099        5098
         4        4998        4999        5100        5099
         4        4999        5000        5101        5100
         4        5000        5001        5102        5101
         4        5001        5002        5103        5102
         4        5002        5003        5104        5103
         4        5003        5004        5105        5104
         4        5004        5005        5106        5105
         4        5005        5006        5107        5106
         4        5006        5007        5108        5107
         4        5007        5008        5109        5108
         4        5008        5009        5110        5109
         4        5009        5010        5111        5110
         4        5010        5011        5112        5111
         4        5011        5012        5113        5112
         4        5012        5013        5114        5113
         4        5013        5014        5115        5114
         4        5014        5015        5116        5115
         4        5015        5016        5117        5116
         4        5016        5017        5118        5117
         4        5017        5018        5119        5118
         4        5018        5019        5120        5119
         4        5019        5020        5121        5120
         4        5020        5021        5122        5121
         4        5021        5022        5123        5122
         4        5022        5023        5124        5123
         4        5023        5024        5125        5124
         4        5024        5025        5126        5125
         4        5025        5026        5127        5126
         4        5026        5027        5128        5127
         4        5027        5028        5129        5128
         4        5028        5029        5130        5129
         4        5029        5030        5131        5130
         4        5030        5031        5132        5131
         4        5031        5032        5133        5132
         4        5032        5033        5134        5133
         4        5033        5034        5135        5134
         4        5034        5035        5136        5135
         4        5035        5036        5137        5136
         4        5036        5037        5138        5137
         4        5037        5038        5139        5138
         4        5038        5039        5140        5139
         4        5039        5040        5141        5140
         4        5040        5041        5142        5141
         4        5041        5042        5143        5142
         4        5042        5043        5144        5143
         4        5043        5044        5145        5144
         4        5044        5045        5146        5145
         4        5045        5046        5147        5146
         4        5046        5047        5148        5147
         4        5047        5048        5149        5148
         4        5048        5049        5150        5149
CELL_TYPES       5000
9
9
9
9
9
9
9
9
9
9
9
9
9
9
9
9
9
9
9
9
9
9
9
9
9
9
9
9
9
9
9
9
9
9
9
9
9
9
9
9
9
9
9
9
9
9
9
9
9
9
9
9
9
9
9
9
9
9
9
9
9
9
9
9
9
9
9
9
9
9
9
9
9
9
9
9
9
9
9
9
9
9
9
9
9
9
9
9
9
9
9
9
9
9
9
9
9
9
9
9
9
9
9
9
9
9
9
9
9
9
9
9
9
9
9
9
9
9
9
9
9
9
9
9
9
9
9
9
9
9
9
9
9
9
9
9
9
9
9
9
9
9
9
9
9
9
9
9
9
9
9
9
9
9
9
9
9
9
9
9
9
9
9
9
9
9
9
9
9
9
9
9
9
9
9
9
9
9
9
9
9
9
9
9
9
9
9
9
9
9
9
9
9
9
9
9
9
9
9
9
9
9
9
9
9
9
9
9
9
9
9
9
9
9
9
9
9
9
9
9
9
9
9
9
9
9
9
9
9
9
9
9
9
9
9
9
9
9
9
9
9
9
9
9
9
9
9
9
9
9
9
9
9
9
9
9
9
9
9
9
9
9
9
9
9
9
9
9
9
9
9
9
9
9
9
9
9
9
9
9
9
9
9
9
9
9
9
9
9
9
9
9
9
9
9
9
9
9
9
9
9
9
9
9
9
9
9
9
9
9
9
9
9
9
9
9
9
9
9
9
9
9
9
9
9
9
9
9
9
9
9
9
9
9
9
9
9
9
9
9
9
9
9
9
9
9
9
9
9
9
9
9
9
9
9
9
9
9
9
9
9
9
9
9
9
9
9
9
9
9
9
9
9
9
9
9
9
9
9
9
9
9
9
9
9
9
9
9
9
9
9
9
9
9
9
9
9
9
9
9
9
9
9
9
9
9
9
9
9
9
9
9
9
9
9
9
9
9
9
9
9
9
9
9
9
9
9
9
9
9
9
9
9
9
9
9
9
9
9
9
9
9
9
9
9
9
9
9
9
9
9
9
9
9
9
9
9
9
9
9
9
9
9
9
9
9
9
9
9
9
9
9
9
9
9
9
9
9
9
9
9
9
9
9
9
9
9
9
9
9
9
9
9
9
9
9
9
9
9
9
9
9
9
9
9
9
9
9
9
9
9
9
9
9
9
9
9
9
9
9
9
9
9
9
9
9
9
9
9
9
9
9
9
9
9
9
9
9
9
9
9
9
9
9
9
9
9
9
9
9
9
9
9
9
9
9
9
9
9
9
9
9
9
9
9
9
9
9
9
9
9
9
9
9
9
9
9
9
9
9
9
9
9
9
9
9
9
9
9
9
9
9
9
9
9
9
9
9
9
9
9
9
9
9
9
9
9
9
9
9
9
9
9
9
9
9
9
9
9
9
9
9
9
9
9
9
9
9
9
9
9
9
9
9
9
9
9
9
9
9
9
9
9
9
9
9
9
9
9
9
9
9
9
9
9
9
9
9
9
9
9
9
9
9
9
9
9
9
9
9
9
9
9
9
9
9
9
9
9
9
9
9
9
9
9
9
9
9
9
9
9
9
9
9
9
9
9
9
9
9
9
9
9
9
9
9
9
9
9
9
9
9
9
9
9
9
9
9
9
9
9
9
9
9
9
9
9
9
9
9
9
9
9
9
9
9
9
9
9
9
9
9
9
9
9
9
9
9
9
9
9
9
9
9
9
9
9
9
9
9
9
9
9
9
9
9
9
9
9
9
9
9
9
9
9
9
9
9
9
9
9
9
9
9
9
9
9
9
9
9
9
9
9
9
9
9
9
9
9
9
9
9
9
9
9
9
9
9
9
9
9
9
9
9
9
9
9
9
9
9
9
9
9
9
9
9
9
9
9
9
9
9
9
9
9
9
9
9
9
9
9
9
9
9
9
9
9
9
9
9
9
9
9
9
9
9
9
9
9
9
9
9
9
9
9
9
9
9
9
9
9
9
9
9
9
9
9
9
9
9
9
9
9
9
9
9
9
9
9
9
9
9
9
9
9
9
9
9
9
9
9
9
9
9
9
9
9
9
9
9
9
9
9
9
9
9
9
9
9
9
9
9
9
9
9
9
9
9
9
9
9
9
9
9
9
9
9
9
9
9
9
9
9
9
9
9
9
9
9
9
9
9
9
9
9
9
9
9
9
9
9
9
9
9
9
9
9
9
9
9
9
9
9
9
9
9
9
9
9
9
9
9
9
9
9
9
9
9
9
9
9
9
9
9
9
9
9
9
9
9
9
9
9
9
9
9
9
9
9
9
9
9
9
9
9
9
9
9
9
9
9
9
9
9
9
9
9
9
9
9
9
9
9
9
9
9
9
9
9
9
9
9
9
9
9
9
9
9
9
9
9
9
9
9
9
9
9
9
9
9
9
9
9
9
9
9
9
9
9
9
9
9
9
9
9
9
9
9
9
9
9
9
9
9
9
9
9
9
9
9
9
9
9
9
9
9
9
9
9
9
9
9
9
9
9
9
9
9
9
9
9
9
9
9
9
9
9
9
9
9
9
9
9
9
9
9
9
9
9
9
9
9
9
9
9
9
9
9
9
9
9
9
9
9
9
9
9
9
9
9
9
9
9
9
9
9
9
9
9
9
9
9
9
9
9
9
9
9
9
9
9
9
9
9
9
9
9
9
9
9
9
9
9
9
9
9
9
9
9
9
9
9
9
9
9
9
9
9
9
9
9
9
9
9
9
9
9
9
9
9
9
9
9
9
9
9
9
9
9
9
9
9
9
9
9
9
9
9
9
9
9
9
9
9
9
9
9
9
9
9
9
9
9
9
9
9
9
9
9
9
9
9
9
9
9
9
9
9
9
9
9
9
9
9
9
9
9
9
9
9
9
9
9
9
9
9
9
9
9
9
9
9
9
9
9
9
9
9
9
9
9
9
9
9
9
9
9
9
9
9
9
9
9
9
9
9
9
9
9
9
9
9
9
9
9
9
9
9
9
9
9
9
9
9
9
9
9
9
9
9
9
9
9
9
9
9
9
9
9
9
9
9
9
9
9
9
9
9
9
9
9
9
9
9
9
9
9
9
9
9
9
9
9
9
9
9
9
9
9
9
9
9
9
9
9
9
9
9
9
9
9
9
9
9
9
9
9
9
9
9
9
9
9
9
9
9
9
9
9
9
9
9
9
9
9
9
9
9
9
9
9
9
9
9
9
9
9
9
9
9
9
9
9
9
9
9
9
9
9
9
9
9
9
9
9
9
9
9
9
9
9
9
9
9
9
9
9
9
9
9
9
9
9
9
9
9
9
9
9
9
9
9
9
9
9
9
9
9
9
9
9
9
9
9
9
9
9
9
9
9
9
9
9
9
9
9
9
9
9
9
9
9
9
9
9
9
9
9
9
9
9
9
9
9
9
9
9
9
9
9
9
9
9
9
9
9
9
9
9
9
9
9
9
9
9
9
9
9
9
9
9
9
9
9
9
9
9
9
9
9
9
9
9
9
9
9
9
9
9
9
9
9
9
9
9
9
9
9
9
9
9
9
9
9
9
9
9
9
9
9
9
9
9
9
9
9
9
9
9
9
9
9
9
9
9
9
9
9
9
9
9
9
9
9
9
9
9
9
9
9
9
9
9
9
9
9
9
9
9
9
9
9
9
9
9
9
9
9
9
9
9
9
9
9
9
9
9
9
9
9
9
9
9
9
9
9
9
9
9
9
9
9
9
9
9
9
9
9
9
9
9
9
9
9
9
9
9
9
9
9
9
9
9
9
9
9
9
9
9
9
9
9
9
9
9
9
9
9
9
9
9
9
9
9
9
9
9
9
9
9
9
9
9
9
9
9
9
9
9
9
9
9
9
9
9
9
9
9
9
9
9
9
9
9
9
9
9
9
9
9
9
9
9
9
9
9
9
9
9
9
9
9
9
9
9
9
9
9
9
9
9
9
9
9
9
9
9
9
9
9
9
9
9
9
9
9
9
9
9
9
9
9
9
9
9
9
9
9
9
9
9
9
9
9
9
9
9
9
9
9
9
9
9
9
9
9
9
9
9
9
9
9
9
9
9
9
9
9
9
9
9
9
9
9
9
9
9
9
9
9
9
9
9
9
9
9
9
9
9
9
9
9
9
9
9
9
9
9
9
9
9
9
9
9
9
9
9
9
9
9
9
9
9
9
9
9
9
9
9
9
9
9
9
9
9
9
9
9
9
9
9
9
9
9
9
9
9
9
9
9
9
9
9
9
9
9
9
9
9
9
9
9
9
9
9
9
9
9
9
9
9
9
9
9
9
9
9
9
9
9
9
9
9
9
9
9
9
9
9
9
9
9
9
9
9
9
9
9
9
9
9
9
9
9
9
9
9
9
9
9
9
9
9
9
9
9
9
9
9
9
9
9
9
9
9
9
9
9
9
9
9
9
9
9
9
9
9
9
9
9
9
9
9
9
9
9
9
9
9
9
9
9
9
9
9
9
9
9
9
9
9
9
9
9
9
9
9
9
9
9
9
9
9
9
9
9
9
9
9
9
9
9
9
9
9
9
9
9
9
9
9
9
9
9
9
9
9
9
9
9
9
9
9
9
9
9
9
9
9
9
9
9
9
9
9
9
9
9
9
9
9
9
9
9
9
9
9
9
9
9
9
9
9
9
9
9
9
9
9
9
9
9
9
9
9
9
9
9
9
9
9
9
9
9
9
9
9
9
9
9
9
9
9
9
9
9
9
9
9
9
9
9
9
9
9
9
9
9
9
9
9
9
9
9
9
9
9
9
9
9
9
9
9
9
9
9
9
9
9
9
9
9
9
9
9
9
9
9
9
9
9
9
9
9
9
9
9
9
9
9
9
9
9
9
9
9
9
9
9
9
9
9
9
9
9
9
9
9
9
9
9
9
9
9
9
9
9
9
9
9
9
9
9
9
9
9
9
9
9
9
9
9
9
9
9
9
9
9
9
9
9
9
9
9
9
9
9
9
9
9
9
9
9
9
9
9
9
9
9
9
9
9
9
9
9
9
9
9
9
9
9
9
9
9
9
9
9
9
9
9
9
9
9
9
9
9
9
9
9
9
9
9
9
9
9
9
9
9
9
9
9
9
9
9
9
9
9
9
9
9
9
9
9
9
9
9
9
9
9
9
9
9
9
9
9
9
9
9
9
9
9
9
9
9
9
9
9
9
9
9
9
9
9
9
9
9
9
9
9
9
9
9
9
9
9
9
9
9
9
9
9
9
9
9
9
9
9
9
9
9
9
9
9
9
9
9
9
9
9
9
9
9
9
9
9
9
9
9
9
9
9
9
9
9
9
9
9
9
9
9
9
9
9
9
9
9
9
9
9
9
9
9
9
9
9
9
9
9
9
9
9
9
9
9
9
9
9
9
9
9
9
9
9
9
9
9
9
9
9
9
9
9
9
9
9
9
9
9
9
9
9
9
9
9
9
9
9
9
9
9
9
9
9
9
9
9
9
9
9
9
9
9
9
9
9
9
9
9
9
9
9
9
9
9
9
9
9
9
9
9
9
9
9
9
9
9
9
9
9
9
9
9
9
9
9
9
9
9
9
9
9
9
9
9
9
9
9
9
9
9
9
9
9
9
9
9
9
9
9
9
9
9
9
9
9
9
9
9
9
9
9
9
9
9
9
9
9
9
9
9
9
9
9
9
9
9
9
9
9
9
9
9
9
9
9
9
9
9
9
9
9
9
9
9
9
9
9
9
9
9
9
9
9
9
9
9
9
9
9
9
9
9
9
9
9
9
9
9
9
9
9
9
9
9
9
9
9
9
9
9
9
9
9
9
9
9
9
9
9
9
9
9
9
9
9
9
9
9
9
9
9
9
9
9
9
9
9
9
9
9
9
9
9
9
9
9
9
9
9
9
9
9
9
9
9
9
9
9
9
9
9
9
9
9
9
9
9
9
9
9
9
9
9
9
9
9
9
9
9
9
9
9
9
9
9
9
9
9
9
9
9
9
9
9
9
9
9
9
9
9
9
9
9
9
9
9
9
9
9
9
9
9
9
9
9
9
9
9
9
9
9
9
9
9
9
9
9
9
9
9
9
9
9
9
9
9
9
9
9
9
9
9
9
9
9
9
9
9
9
9
9
9
9
9
9
9
9
9
9
9
9
9
9
9
9
9
9
9
9
9
9
9
9
9
9
9
9
9
9
9
9
9
9
9
9
9
9
9
9
9
9
9
9
9
9
9
9
9
9
9
9
9
9
9
9
9
9
9
9
9
9
9
9
9
9
9
9
9
9
9
9
9
9
9
9
9
9
9
9
9
9
9
9
9
9
9
9
9
9
9
9
9
9
9
9
9
9
9
9
9
9
9
9
9
9
9
9
9
9
9
9
9
9
9
9
9
9
9
9
9
9
9
9
9
9
9
9
9
9
9
9
9
9
9
9
9
9
9
9
9
9
9
9
9
9
9
9
9
9
9
9
9
9
9
9
9
9
9
9
9
9
9
9
9
9
9
9
9
9
9
9
9
9
9
9
9
9
9
9
9
9
9
9
9
9
9
9
9
9
9
9
9
9
9
9
9
9
9
9
9
9
9
9
9
9
9
9
9
9
9
9
9
9
9
9
9
9
9
9
9
9
9
9
9
9
9
9
9
9
9
9
9
9
9
9
9
9
9
9
9
9
9
9
9
9
9
9
9
9
9
9
9
9
9
9
9
9
9
9
9
9
9
9
9
9
9
9
9
9
9
9
9
9
9
9
9
9
9
9
9
9
9
9
9
9
9
9
9
9
9
9
9
9
9
9
9
9
9
9
9
9
9
9
9
9
9
9
9
9
9
9
9
9
9
9
9
9
9
9
9
9
9
9
9
9
9
9
9
9
9
9
9
9
9
9
9
9
9
9
9
9
9
9
9
9
9
9
9
9
9
9
9
9
9
9
9
9
9
9
9
9
9
9
9
9
9
9
9
9
9
9
9
9
9
9
9
9
9
9
9
9
9
9
9
9
9
9
9
9
9
9
9
9
9
9
9
9
9
9
9
9
9
9
9
9
9
9
9
9
9
9
9
9
9
9
9
9
9
9
9
9
9
9
9
9
9
9
9
9
9
9
9
9
9
9
9
9
9
9
9
9
9
9
9
9
9
9
9
9
9
9
9
9
9
9
9
9
9
9
9
9
9
9
9
9
9
9
9
9
9
9
9
9
9
9
9
9
9
9
9
9
9
9
9
9
9
9
9
9
9
9
9
9
9
9
9
9
9
9
9
9
9
9
9
9
9
9
9
9
9
9
9
9
9
9
9
9
9
9
9
9
9
9
9
9
9
9
9
9
9
9
9
9
9
9
9
9
9
9
9
9
9
9
9
9
9
9
9
9
9
9
9
9
9
9
9
9
9
9
9
9
9
9
9
9
9
9
9
9
9
9
9
9
9
9
9
9
9
9
9
9
9
9
9
9
9
9
9
9
9
9
9
9
9
9
9
9
9
9
9
9
9
9
9
9
9
9
9
9
9
9
9
9
9
9
9
9
9
9
9
9
9
9
9
9
9
9
9
9
9
9
9
9
9
9
9
9
9
9
9
9
9
9
9
9
9
9
9
9
9
9
9
9
9
9
9
9
9
9
9
9
9
9
9
9
9
9
9
9
9
9
9
9
9
9
9
9
9
9
9
9
9
9
9
9
9
9
9
9
9
9
9
9
9
9
9
9
9
9
9
9
9
9
9
9
9
9
9
9
9
9
9
9
9
9
9
9
9
9
9
9
9
9
9
9
9
9
9
9
9
9
9
9
9
9
9
9
9
9
9
9
9
9
9
9
9
9
9
9
9
9
9
9
9
9
9
9
9
9
9
9
9
9
9
9
9
9
9
9
9
9
9
9
9
9
9
9
9
9
9
9
9
9
9
9
9
9
9
9
9
9
9
9
9
9
9
9
9
9
9
9
9
9
9
9
9
9
9
9
9
9
9
9
9
9
9
9
9
9
9
9
9
9
9
9
9
9
9
9
9
9
9
9
9
9
9
9
9
9
9
9
9
9
9
9
9
9
9
9
9
9
9
9
9
9
9
9
9
9
9
9
9
9
9
9
9
9
9
9
9
9
9
9
9
9
9
9
9
9
9
9
9
9
9
9
9
9
9
9
9
9
9
9
9
9
9
9
9
9
9
9
9
9
9
9
9
9
9
9
9
9
9
9
9
9
9
9
9
9
9
9
9
9
9
9
9
9
9
9
9
9
9
9
9
9
9
9
9
9
9
9
9
9
9
9
9
9
9
9
9
9
9
9
9
9
9
9
9
9
9
9
9
9
9
9
9
9
9
9
9
9
9
9
9
9
9
9
9
9
9
9
9
9
9
9
9
9
9
9
9
9
9
9
9
9
9
9
9
9
9
9
9
9
9
9
9
9
9
9
9
9
9
9
9
9
9
9
9
9
9
9
9
9
9
9
9
9
9
9
9
9
9
9
9
9
9
9
9
9
9
9
9
9
9
9
9
9
9
9
9
9
9
9
9
9
9
9
9
9
9
9
9
9
9
9
9
9
9
9
9
9
9
9
9
9
9
9
9
9
9
9
9
9
9
9
9
9
9
9
9
9
9
9
9
9
9
9
9
9
9
9
9
9
9
9
9
9
9
9
9
9
9
9
9
9
9
9
9
9
9
9
9
9
9
9
9
9
9
9
9
9
9
9
9
9
9
9
9
9
9
9
9
9
9
9
9
9
9
9
9
9
9
9
9
9
9
9
9
9
9
9
9
9
9
9
9
9
9
9
9
9
9
9
9
9
9
9
9
9
9
9
9
9
9
9
9
9
9
9
9
9
9
9
9
9
9
9
9
9
9
9
9
9
9
9
9
9
9
9
9
9
9
9
9
9
9
9
9
9
9
9
9
9
9
9
9
9
9
9
9
9
9
9
9
9
9
9
9
9
9
9
9
9
9
9
9
9
9
9
9
9
9
9
9
9
9
9
9
9
9
9
9
9
9
9
9
9
9
9
9
9
9
9
9
9
9
9
9
9
9
9
9
9
9
9
9
9
9
9
9
9
9
9
9
9
9
9
9
9
9
9
9
9
9
9
9
9
9
9
9
9
9
9
9
9
9
9
9
9
9
9
9
9
9
9
9
9
9
9
9
9
9
9
9
9
9
9
9
9
9
9
9
9
9
9
9
9
9
9
9
9
9
9
9
9
9
9
9
9
9
9
9
9
9
9
9
9
9
9
9
9
9
9
9
9
9
9
9
9
9
9
9
9
9
9
9
9
9
9
9
9
9
9
9
9
9
9
9
9
9
9
9
9
9
9
9
9
9
9
9
9
9
9
9
9
9
9
9
9
9
9
9
9
9
9
9
9
9
9
9
9
9
9
9
9
9
9
9
9
9
9
9
9
9
9
9
9
9
9
9
9
9
9
9
9
9
9
9
9
9
9
9
9
9
9
9
9
9
9
9
9
9
9
9
9
9
9
9
9
9
9
9
9
9
9
9
9
9
9
9
9
9
9
9
9
9
9
9
9
9
9
9
9
9
9
9
9
9
9
9
9
9
9
9
9
9
9
9
9
9
9
9
9
9
9
9
9
9
9
9
9
9
9
9
9
9
9
9
9
9
9
9
9
9
9
9
9
9
9
9
9
9
9
9
9
9
9
9
9
9
9
9
9
9
9
9
9
9
9
9
9
9
9
9
9
9
9
9
9
9
9
9
9
9
9
9
9
9
9
9
9
9
9
9
9
9
9
9
9
9
9
9
9
9
9
9
9
9
9
9
9
9
9
9
9
9
9
9
9
9
9
9
9
9
9
9
9
9
9
9
9
9
9
9
9
9
9
9
9
9
9
9
9
9
9
9
9
9
9
9
9
9
9
9
9
9
9
9
9
9
9
9
9
9
9
9
9
9
9
9
9
9
9
9
9
9
9
9
9
9
9
9
9
9
9
9
9
9
9
9
9
9
9
9
9
9
9
9
9
9
9
9
9
9
9
9
9
9
9
9
9
9
9
9
9
9
9
9
9
9
9
9
9
9
9
9
9
9
9
9
9
9
9
9
9
9
9
9
9
9
9
9
9
9
9
9
9
9
9
9
9
9
9
9
9
9
9
9
9
9
9
9
9
9
9
9
9
9
9
9
9
9
9
9
9
9
9
9
9
9
9
9
9
9
9
9
9
9
9
9
9
9
9
9
9
9
9
9
9
9
9
9
9
9
9
9
9
9
9
9
9
9
9
9
9
9
9
9
9
9
9
9
9
9
9
9
9
9
9
9
9
9
9
9
9
9
9
9
9
9
9
9
9
9
9
9
9
9
9
9
9
9
9
9
9
9
9
9
9
9
9
9
9
9
9
9
9
9
9
9
9
9
9
9
9
9
9
9
9
9
9
9
9
9
9
9
9
9
9
9
9
9
9
9
9
9
9
9
9
9
9
9
9
9
9
9
9
9
9
9
9
9
9
9
9
9
9
9
9
9
9
9
9
9
9
9
9
9
9
9
9
9
9
9
9
9
9
9
9
9
9
9
9
9
9
9
9
9
9
9
9
9
9
9
9
9
9
9
9
9
9
9
9
9
9
9
9
9
9
9
9
9
9
9
9
9
9
9
9
9
9
9
9
9
9
9
9
9
9
9
9
9
9
9
9
9
9
9
9
9
9
9
9
9
9
9
9
9
9
9
9
9
9
9
9
9
9
9
9
9
9
9
9
9
9
9
9
9
9
9
9
9
9
9
9
9
9
9
9
9
9
9
9
9
9
9
9
9
9
9
9
9
9
9
9
9
9
9
9
9
9
9
9
9
9
9
9
9
9
9
9
9
9
9
9
9
9
9
9
9
9
9
9
9
9
9
9
9
9
9
9
9
9
9
9
9
9
9
9
9
9
9
9
9
9
9
9
9
9
9
9
9
9
9
9
9
9
9
9
9
9
9
9
9
9
9
9
9
9
9
9
9
9
9
9
9
9
9
9
9
9
9
9
9
9
9
9
9
9
9
9
9
9
9
9
9
9
9
9
9
9
9
9
9
9
9
9
9
9
9
9
9
9
9
9
9
9
9
9
9
9
9
9
9
9
9
9
9
9
9
9
9
9
9
9
9
9
9
9
9
9
9
9
9
9
9
9
9
9
9
9
9
9
9
9
9
9
9
9
9
9
9
9
9
9
9
9
9
9
9
9
9
9
9
9
9
9
9
9
9
9
9
9
9
9
9
9
9
9
9
9
9
9
9
9
9
9
9
9
9
9
9
9
9
9
9
9
9
9
9
9
9
9
9
9
9
9
9
9
9
9
9
9
9
9
9
9
9
9
9
9
9
9
9
9
9
9
9
9
9
POINT_DATA      5151
SCALARS p double 
LOOKUP_TABLE default
   70000000.0000000     
   69638472.9201540     
   69276961.1473552     
   68915479.9574384     
   68554044.5639158     
   68192670.0870738     
   67831371.5233758     
   67470163.7152732     
   67109061.3215206     
   66748078.7880914     
   66387230.3197842     
   66026529.8526109     
   65665991.0270491     
   65305627.1622409     
   64945451.2312113     
   64585475.8371810     
   64225713.1910357     
   63866175.0900162     
   63506872.8976822     
   63147817.5252002     
   62789019.4140008     
   62430488.5198420     
   62072234.2983145     
   61714265.6918112     
   61356591.1179876     
   60999218.4597247     
   60642155.0566067     
   60285407.6979179     
   59928982.6171570     
   59572885.4880634     
   59217121.4221445     
   58861694.9676875     
   58506610.1102349     
   58151870.2744972     
   57797478.3276742     
   57443436.5841499     
   57089746.8115209     
   56736410.2379194     
   56383427.5605816     
   56030798.9556144     
   55678524.0889064     
   55326602.1281294     
   54975031.7557709     
   54623811.1831357     
   54272938.1652582     
   53922410.0166537     
   53572223.6278477     
   53222375.4826114     
   52872861.6758349     
   52523677.9319669     
   52174819.6239480     
   51826281.7925668     
   51478059.1661647     
   51130146.1806166     
   50782536.9995130     
   50435225.5344731     
   50088205.4655136     
   49741470.2614021     
   49395013.1999249     
   49048827.3879986     
   48702905.7815555     
   48357241.2051381     
   48011826.3711337     
   47666653.8985897     
   47321716.3315436     
   46977006.1568117     
   46632515.8211779     
   46288237.7479284     
   45944164.3526833     
   45600288.0584726     
   45256601.3100166     
   44913096.5871637     
   44569766.4174530     
   44226603.3877612     
   43883600.1550101     
   43540749.4559008     
   43198044.1156585     
   42855477.0557649     
   42513041.3006677     
   42170729.9834544     
   41828536.3504899     
   41486453.7650124     
   41144475.7096961     
   40802595.7881873     
   40460807.7256292     
   40119105.3681924     
   39777482.6816352     
   39435933.7489212     
   39094452.7669262     
   38753034.0422726     
   38411671.9863303     
   38070361.1094317     
   37729096.0143496     
   37387871.3890903     
   37046681.9990614     
   36705522.6786724     
   36364388.3224326     
   36023273.8756136     
   35682174.3245428     
   35341084.6866018     
   35000000.0000000     
   70000000.0000000     
   69638472.9201540     
   69276961.1473552     
   68915479.9574384     
   68554044.5639158     
   68192670.0870738     
   67831371.5233758     
   67470163.7152732     
   67109061.3215206     
   66748078.7880914     
   66387230.3197842     
   66026529.8526109     
   65665991.0270491     
   65305627.1622408     
   64945451.2312113     
   64585475.8371810     
   64225713.1910357     
   63866175.0900162     
   63506872.8976823     
   63147817.5252002     
   62789019.4140008     
   62430488.5198420     
   62072234.2983144     
   61714265.6918112     
   61356591.1179876     
   60999218.4597248     
   60642155.0566067     
   60285407.6979179     
   59928982.6171570     
   59572885.4880635     
   59217121.4221445     
   58861694.9676875     
   58506610.1102349     
   58151870.2744972     
   57797478.3276742     
   57443436.5841499     
   57089746.8115209     
   56736410.2379194     
   56383427.5605817     
   56030798.9556144     
   55678524.0889064     
   55326602.1281294     
   54975031.7557709     
   54623811.1831357     
   54272938.1652582     
   53922410.0166537     
   53572223.6278477     
   53222375.4826114     
   52872861.6758350     
   52523677.9319669     
   52174819.6239480     
   51826281.7925667     
   51478059.1661647     
   51130146.1806166     
   50782536.9995129     
   50435225.5344732     
   50088205.4655136     
   49741470.2614021     
   49395013.1999249     
   49048827.3879986     
   48702905.7815555     
   48357241.2051381     
   48011826.3711337     
   47666653.8985897     
   47321716.3315436     
   46977006.1568118     
   46632515.8211779     
   46288237.7479284     
   45944164.3526833     
   45600288.0584726     
   45256601.3100166     
   44913096.5871638     
   44569766.4174530     
   44226603.3877613     
   43883600.1550101     
   43540749.4559008     
   43198044.1156584     
   42855477.0557649     
   42513041.3006677     
   42170729.9834544     
   41828536.3504899     
   41486453.7650124     
   41144475.7096961     
   40802595.7881873     
   40460807.7256292     
   40119105.3681924     
   39777482.6816352     
   39435933.7489212     
   39094452.7669262     
   38753034.0422726     
   38411671.9863303     
   38070361.1094317     
   37729096.0143495     
   37387871.3890903     
   37046681.9990614     
   36705522.6786724     
   36364388.3224326     
   36023273.8756136     
   35682174.3245428     
   35341084.6866018     
   35000000.0000000     
   70000000.0000000     
   69638472.9201539     
   69276961.1473552     
   68915479.9574383     
   68554044.5639158     
   68192670.0870738     
   67831371.5233757     
   67470163.7152732     
   67109061.3215206     
   66748078.7880914     
   66387230.3197842     
   66026529.8526109     
   65665991.0270491     
   65305627.1622409     
   64945451.2312113     
   64585475.8371810     
   64225713.1910357     
   63866175.0900162     
   63506872.8976822     
   63147817.5252003     
   62789019.4140008     
   62430488.5198420     
   62072234.2983144     
   61714265.6918112     
   61356591.1179876     
   60999218.4597247     
   60642155.0566067     
   60285407.6979178     
   59928982.6171571     
   59572885.4880635     
   59217121.4221445     
   58861694.9676875     
   58506610.1102350     
   58151870.2744972     
   57797478.3276742     
   57443436.5841499     
   57089746.8115210     
   56736410.2379195     
   56383427.5605817     
   56030798.9556144     
   55678524.0889064     
   55326602.1281295     
   54975031.7557709     
   54623811.1831358     
   54272938.1652582     
   53922410.0166537     
   53572223.6278477     
   53222375.4826115     
   52872861.6758350     
   52523677.9319669     
   52174819.6239480     
   51826281.7925668     
   51478059.1661647     
   51130146.1806166     
   50782536.9995130     
   50435225.5344731     
   50088205.4655136     
   49741470.2614021     
   49395013.1999250     
   49048827.3879986     
   48702905.7815555     
   48357241.2051381     
   48011826.3711338     
   47666653.8985898     
   47321716.3315436     
   46977006.1568118     
   46632515.8211779     
   46288237.7479285     
   45944164.3526833     
   45600288.0584727     
   45256601.3100166     
   44913096.5871638     
   44569766.4174530     
   44226603.3877613     
   43883600.1550101     
   43540749.4559008     
   43198044.1156585     
   42855477.0557649     
   42513041.3006677     
   42170729.9834544     
   41828536.3504899     
   41486453.7650124     
   41144475.7096960     
   40802595.7881873     
   40460807.7256292     
   40119105.3681924     
   39777482.6816352     
   39435933.7489212     
   39094452.7669263     
   38753034.0422726     
   38411671.9863303     
   38070361.1094317     
   37729096.0143496     
   37387871.3890903     
   37046681.9990615     
   36705522.6786724     
   36364388.3224327     
   36023273.8756136     
   35682174.3245428     
   35341084.6866018     
   35000000.0000000     
   70000000.0000000     
   69638472.9201539     
   69276961.1473552     
   68915479.9574384     
   68554044.5639158     
   68192670.0870737     
   67831371.5233757     
   67470163.7152731     
   67109061.3215206     
   66748078.7880914     
   66387230.3197842     
   66026529.8526108     
   65665991.0270491     
   65305627.1622409     
   64945451.2312114     
   64585475.8371810     
   64225713.1910357     
   63866175.0900162     
   63506872.8976822     
   63147817.5252003     
   62789019.4140007     
   62430488.5198420     
   62072234.2983144     
   61714265.6918113     
   61356591.1179876     
   60999218.4597247     
   60642155.0566067     
   60285407.6979180     
   59928982.6171571     
   59572885.4880635     
   59217121.4221445     
   58861694.9676876     
   58506610.1102349     
   58151870.2744971     
   57797478.3276742     
   57443436.5841498     
   57089746.8115210     
   56736410.2379195     
   56383427.5605816     
   56030798.9556144     
   55678524.0889063     
   55326602.1281295     
   54975031.7557708     
   54623811.1831358     
   54272938.1652582     
   53922410.0166538     
   53572223.6278477     
   53222375.4826115     
   52872861.6758350     
   52523677.9319669     
   52174819.6239481     
   51826281.7925668     
   51478059.1661647     
   51130146.1806166     
   50782536.9995130     
   50435225.5344731     
   50088205.4655136     
   49741470.2614021     
   49395013.1999250     
   49048827.3879986     
   48702905.7815556     
   48357241.2051381     
   48011826.3711338     
   47666653.8985898     
   47321716.3315436     
   46977006.1568118     
   46632515.8211779     
   46288237.7479285     
   45944164.3526833     
   45600288.0584727     
   45256601.3100166     
   44913096.5871638     
   44569766.4174530     
   44226603.3877614     
   43883600.1550101     
   43540749.4559008     
   43198044.1156585     
   42855477.0557649     
   42513041.3006677     
   42170729.9834544     
   41828536.3504899     
   41486453.7650124     
   41144475.7096960     
   40802595.7881873     
   40460807.7256292     
   40119105.3681924     
   39777482.6816352     
   39435933.7489212     
   39094452.7669263     
   38753034.0422725     
   38411671.9863303     
   38070361.1094317     
   37729096.0143496     
   37387871.3890903     
   37046681.9990614     
   36705522.6786724     
   36364388.3224327     
   36023273.8756136     
   35682174.3245428     
   35341084.6866018     
   35000000.0000000     
   70000000.0000000     
   69638472.9201539     
   69276961.1473552     
   68915479.9574384     
   68554044.5639157     
   68192670.0870737     
   67831371.5233757     
   67470163.7152730     
   67109061.3215206     
   66748078.7880914     
   66387230.3197842     
   66026529.8526108     
   65665991.0270491     
   65305627.1622409     
   64945451.2312114     
   64585475.8371811     
   64225713.1910358     
   63866175.0900163     
   63506872.8976822     
   63147817.5252002     
   62789019.4140007     
   62430488.5198421     
   62072234.2983144     
   61714265.6918113     
   61356591.1179876     
   60999218.4597247     
   60642155.0566067     
   60285407.6979180     
   59928982.6171571     
   59572885.4880635     
   59217121.4221445     
   58861694.9676876     
   58506610.1102350     
   58151870.2744971     
   57797478.3276742     
   57443436.5841498     
   57089746.8115210     
   56736410.2379195     
   56383427.5605817     
   56030798.9556144     
   55678524.0889064     
   55326602.1281295     
   54975031.7557708     
   54623811.1831358     
   54272938.1652583     
   53922410.0166538     
   53572223.6278477     
   53222375.4826115     
   52872861.6758351     
   52523677.9319670     
   52174819.6239481     
   51826281.7925668     
   51478059.1661647     
   51130146.1806166     
   50782536.9995130     
   50435225.5344731     
   50088205.4655136     
   49741470.2614021     
   49395013.1999251     
   49048827.3879986     
   48702905.7815556     
   48357241.2051381     
   48011826.3711338     
   47666653.8985898     
   47321716.3315436     
   46977006.1568118     
   46632515.8211779     
   46288237.7479285     
   45944164.3526833     
   45600288.0584726     
   45256601.3100166     
   44913096.5871638     
   44569766.4174530     
   44226603.3877614     
   43883600.1550101     
   43540749.4559008     
   43198044.1156585     
   42855477.0557650     
   42513041.3006677     
   42170729.9834544     
   41828536.3504899     
   41486453.7650124     
   41144475.7096960     
   40802595.7881873     
   40460807.7256292     
   40119105.3681925     
   39777482.6816352     
   39435933.7489212     
   39094452.7669262     
   38753034.0422725     
   38411671.9863303     
   38070361.1094317     
   37729096.0143496     
   37387871.3890903     
   37046681.9990614     
   36705522.6786724     
   36364388.3224327     
   36023273.8756136     
   35682174.3245428     
   35341084.6866018     
   35000000.0000000     
   70000000.0000000     
   69638472.9201539     
   69276961.1473552     
   68915479.9574383     
   68554044.5639157     
   68192670.0870736     
   67831371.5233756     
   67470163.7152730     
   67109061.3215206     
   66748078.7880914     
   66387230.3197842     
   66026529.8526108     
   65665991.0270491     
   65305627.1622409     
   64945451.2312114     
   64585475.8371811     
   64225713.1910358     
   63866175.0900163     
   63506872.8976822     
   63147817.5252002     
   62789019.4140007     
   62430488.5198420     
   62072234.2983145     
   61714265.6918113     
   61356591.1179877     
   60999218.4597247     
   60642155.0566068     
   60285407.6979180     
   59928982.6171572     
   59572885.4880635     
   59217121.4221446     
   58861694.9676876     
   58506610.1102350     
   58151870.2744971     
   57797478.3276742     
   57443436.5841498     
   57089746.8115210     
   56736410.2379195     
   56383427.5605817     
   56030798.9556144     
   55678524.0889063     
   55326602.1281295     
   54975031.7557708     
   54623811.1831358     
   54272938.1652583     
   53922410.0166538     
   53572223.6278476     
   53222375.4826115     
   52872861.6758351     
   52523677.9319670     
   52174819.6239481     
   51826281.7925668     
   51478059.1661647     
   51130146.1806166     
   50782536.9995130     
   50435225.5344731     
   50088205.4655136     
   49741470.2614022     
   49395013.1999251     
   49048827.3879986     
   48702905.7815556     
   48357241.2051382     
   48011826.3711338     
   47666653.8985898     
   47321716.3315436     
   46977006.1568118     
   46632515.8211779     
   46288237.7479285     
   45944164.3526833     
   45600288.0584726     
   45256601.3100166     
   44913096.5871638     
   44569766.4174530     
   44226603.3877614     
   43883600.1550101     
   43540749.4559008     
   43198044.1156585     
   42855477.0557650     
   42513041.3006676     
   42170729.9834544     
   41828536.3504899     
   41486453.7650124     
   41144475.7096960     
   40802595.7881873     
   40460807.7256292     
   40119105.3681925     
   39777482.6816353     
   39435933.7489212     
   39094452.7669262     
   38753034.0422726     
   38411671.9863303     
   38070361.1094317     
   37729096.0143496     
   37387871.3890903     
   37046681.9990614     
   36705522.6786724     
   36364388.3224327     
   36023273.8756136     
   35682174.3245428     
   35341084.6866018     
   35000000.0000000     
   70000000.0000000     
   69638472.9201539     
   69276961.1473552     
   68915479.9574383     
   68554044.5639157     
   68192670.0870735     
   67831371.5233755     
   67470163.7152730     
   67109061.3215205     
   66748078.7880913     
   66387230.3197842     
   66026529.8526108     
   65665991.0270491     
   65305627.1622408     
   64945451.2312114     
   64585475.8371811     
   64225713.1910358     
   63866175.0900164     
   63506872.8976822     
   63147817.5252002     
   62789019.4140007     
   62430488.5198419     
   62072234.2983146     
   61714265.6918113     
   61356591.1179876     
   60999218.4597247     
   60642155.0566068     
   60285407.6979180     
   59928982.6171572     
   59572885.4880636     
   59217121.4221446     
   58861694.9676876     
   58506610.1102350     
   58151870.2744971     
   57797478.3276742     
   57443436.5841498     
   57089746.8115210     
   56736410.2379195     
   56383427.5605817     
   56030798.9556144     
   55678524.0889063     
   55326602.1281295     
   54975031.7557708     
   54623811.1831358     
   54272938.1652583     
   53922410.0166538     
   53572223.6278476     
   53222375.4826114     
   52872861.6758351     
   52523677.9319670     
   52174819.6239481     
   51826281.7925668     
   51478059.1661647     
   51130146.1806165     
   50782536.9995130     
   50435225.5344731     
   50088205.4655136     
   49741470.2614022     
   49395013.1999251     
   49048827.3879986     
   48702905.7815556     
   48357241.2051382     
   48011826.3711338     
   47666653.8985898     
   47321716.3315437     
   46977006.1568119     
   46632515.8211780     
   46288237.7479285     
   45944164.3526833     
   45600288.0584726     
   45256601.3100166     
   44913096.5871638     
   44569766.4174530     
   44226603.3877614     
   43883600.1550101     
   43540749.4559008     
   43198044.1156584     
   42855477.0557650     
   42513041.3006676     
   42170729.9834544     
   41828536.3504898     
   41486453.7650124     
   41144475.7096960     
   40802595.7881872     
   40460807.7256291     
   40119105.3681924     
   39777482.6816353     
   39435933.7489212     
   39094452.7669262     
   38753034.0422725     
   38411671.9863303     
   38070361.1094317     
   37729096.0143495     
   37387871.3890903     
   37046681.9990614     
   36705522.6786724     
   36364388.3224327     
   36023273.8756136     
   35682174.3245428     
   35341084.6866018     
   35000000.0000000     
   70000000.0000000     
   69638472.9201539     
   69276961.1473552     
   68915479.9574383     
   68554044.5639156     
   68192670.0870735     
   67831371.5233755     
   67470163.7152729     
   67109061.3215204     
   66748078.7880912     
   66387230.3197842     
   66026529.8526108     
   65665991.0270491     
   65305627.1622408     
   64945451.2312114     
   64585475.8371810     
   64225713.1910358     
   63866175.0900164     
   63506872.8976822     
   63147817.5252002     
   62789019.4140007     
   62430488.5198419     
   62072234.2983146     
   61714265.6918113     
   61356591.1179876     
   60999218.4597247     
   60642155.0566068     
   60285407.6979180     
   59928982.6171571     
   59572885.4880636     
   59217121.4221446     
   58861694.9676876     
   58506610.1102350     
   58151870.2744971     
   57797478.3276742     
   57443436.5841498     
   57089746.8115209     
   56736410.2379195     
   56383427.5605817     
   56030798.9556144     
   55678524.0889063     
   55326602.1281295     
   54975031.7557709     
   54623811.1831357     
   54272938.1652582     
   53922410.0166538     
   53572223.6278476     
   53222375.4826114     
   52872861.6758351     
   52523677.9319670     
   52174819.6239480     
   51826281.7925668     
   51478059.1661647     
   51130146.1806165     
   50782536.9995130     
   50435225.5344731     
   50088205.4655136     
   49741470.2614022     
   49395013.1999251     
   49048827.3879987     
   48702905.7815556     
   48357241.2051382     
   48011826.3711338     
   47666653.8985898     
   47321716.3315437     
   46977006.1568119     
   46632515.8211780     
   46288237.7479284     
   45944164.3526833     
   45600288.0584726     
   45256601.3100166     
   44913096.5871637     
   44569766.4174530     
   44226603.3877614     
   43883600.1550101     
   43540749.4559008     
   43198044.1156585     
   42855477.0557649     
   42513041.3006676     
   42170729.9834543     
   41828536.3504898     
   41486453.7650124     
   41144475.7096960     
   40802595.7881872     
   40460807.7256291     
   40119105.3681924     
   39777482.6816353     
   39435933.7489212     
   39094452.7669261     
   38753034.0422725     
   38411671.9863302     
   38070361.1094317     
   37729096.0143495     
   37387871.3890903     
   37046681.9990613     
   36705522.6786723     
   36364388.3224326     
   36023273.8756136     
   35682174.3245428     
   35341084.6866018     
   35000000.0000000     
   70000000.0000000     
   69638472.9201538     
   69276961.1473552     
   68915479.9574382     
   68554044.5639156     
   68192670.0870734     
   67831371.5233755     
   67470163.7152728     
   67109061.3215203     
   66748078.7880912     
   66387230.3197841     
   66026529.8526107     
   65665991.0270491     
   65305627.1622408     
   64945451.2312114     
   64585475.8371810     
   64225713.1910358     
   63866175.0900164     
   63506872.8976822     
   63147817.5252003     
   62789019.4140006     
   62430488.5198420     
   62072234.2983146     
   61714265.6918112     
   61356591.1179876     
   60999218.4597246     
   60642155.0566068     
   60285407.6979180     
   59928982.6171571     
   59572885.4880636     
   59217121.4221447     
   58861694.9676876     
   58506610.1102349     
   58151870.2744971     
   57797478.3276742     
   57443436.5841498     
   57089746.8115210     
   56736410.2379195     
   56383427.5605817     
   56030798.9556144     
   55678524.0889063     
   55326602.1281295     
   54975031.7557708     
   54623811.1831357     
   54272938.1652582     
   53922410.0166537     
   53572223.6278476     
   53222375.4826114     
   52872861.6758350     
   52523677.9319670     
   52174819.6239480     
   51826281.7925667     
   51478059.1661647     
   51130146.1806165     
   50782536.9995130     
   50435225.5344731     
   50088205.4655136     
   49741470.2614022     
   49395013.1999251     
   49048827.3879987     
   48702905.7815557     
   48357241.2051382     
   48011826.3711339     
   47666653.8985898     
   47321716.3315437     
   46977006.1568119     
   46632515.8211780     
   46288237.7479284     
   45944164.3526833     
   45600288.0584726     
   45256601.3100165     
   44913096.5871637     
   44569766.4174530     
   44226603.3877613     
   43883600.1550101     
   43540749.4559007     
   43198044.1156584     
   42855477.0557649     
   42513041.3006675     
   42170729.9834544     
   41828536.3504898     
   41486453.7650124     
   41144475.7096960     
   40802595.7881871     
   40460807.7256290     
   40119105.3681923     
   39777482.6816353     
   39435933.7489211     
   39094452.7669261     
   38753034.0422725     
   38411671.9863302     
   38070361.1094316     
   37729096.0143495     
   37387871.3890902     
   37046681.9990613     
   36705522.6786723     
   36364388.3224325     
   36023273.8756135     
   35682174.3245428     
   35341084.6866018     
   35000000.0000000     
   70000000.0000000     
   69638472.9201538     
   69276961.1473551     
   68915479.9574381     
   68554044.5639156     
   68192670.0870734     
   67831371.5233753     
   67470163.7152728     
   67109061.3215203     
   66748078.7880912     
   66387230.3197841     
   66026529.8526108     
   65665991.0270491     
   65305627.1622409     
   64945451.2312114     
   64585475.8371811     
   64225713.1910358     
   63866175.0900164     
   63506872.8976822     
   63147817.5252003     
   62789019.4140007     
   62430488.5198420     
   62072234.2983145     
   61714265.6918112     
   61356591.1179876     
   60999218.4597246     
   60642155.0566067     
   60285407.6979180     
   59928982.6171571     
   59572885.4880636     
   59217121.4221446     
   58861694.9676876     
   58506610.1102349     
   58151870.2744971     
   57797478.3276742     
   57443436.5841497     
   57089746.8115209     
   56736410.2379194     
   56383427.5605817     
   56030798.9556144     
   55678524.0889063     
   55326602.1281295     
   54975031.7557708     
   54623811.1831357     
   54272938.1652583     
   53922410.0166537     
   53572223.6278476     
   53222375.4826114     
   52872861.6758350     
   52523677.9319670     
   52174819.6239480     
   51826281.7925667     
   51478059.1661647     
   51130146.1806165     
   50782536.9995129     
   50435225.5344731     
   50088205.4655136     
   49741470.2614021     
   49395013.1999251     
   49048827.3879986     
   48702905.7815557     
   48357241.2051382     
   48011826.3711339     
   47666653.8985898     
   47321716.3315437     
   46977006.1568119     
   46632515.8211780     
   46288237.7479284     
   45944164.3526833     
   45600288.0584726     
   45256601.3100165     
   44913096.5871637     
   44569766.4174530     
   44226603.3877613     
   43883600.1550100     
   43540749.4559007     
   43198044.1156584     
   42855477.0557649     
   42513041.3006675     
   42170729.9834543     
   41828536.3504898     
   41486453.7650124     
   41144475.7096960     
   40802595.7881871     
   40460807.7256290     
   40119105.3681923     
   39777482.6816352     
   39435933.7489211     
   39094452.7669261     
   38753034.0422725     
   38411671.9863302     
   38070361.1094316     
   37729096.0143495     
   37387871.3890902     
   37046681.9990613     
   36705522.6786722     
   36364388.3224325     
   36023273.8756135     
   35682174.3245428     
   35341084.6866018     
   35000000.0000000     
   70000000.0000000     
   69638472.9201538     
   69276961.1473549     
   68915479.9574380     
   68554044.5639155     
   68192670.0870733     
   67831371.5233752     
   67470163.7152727     
   67109061.3215203     
   66748078.7880912     
   66387230.3197840     
   66026529.8526108     
   65665991.0270490     
   65305627.1622409     
   64945451.2312114     
   64585475.8371811     
   64225713.1910358     
   63866175.0900164     
   63506872.8976823     
   63147817.5252002     
   62789019.4140006     
   62430488.5198420     
   62072234.2983145     
   61714265.6918112     
   61356591.1179876     
   60999218.4597246     
   60642155.0566067     
   60285407.6979180     
   59928982.6171572     
   59572885.4880636     
   59217121.4221447     
   58861694.9676876     
   58506610.1102348     
   58151870.2744971     
   57797478.3276742     
   57443436.5841497     
   57089746.8115209     
   56736410.2379194     
   56383427.5605817     
   56030798.9556144     
   55678524.0889062     
   55326602.1281294     
   54975031.7557708     
   54623811.1831357     
   54272938.1652583     
   53922410.0166537     
   53572223.6278477     
   53222375.4826114     
   52872861.6758350     
   52523677.9319670     
   52174819.6239479     
   51826281.7925668     
   51478059.1661646     
   51130146.1806165     
   50782536.9995129     
   50435225.5344731     
   50088205.4655135     
   49741470.2614022     
   49395013.1999251     
   49048827.3879987     
   48702905.7815557     
   48357241.2051382     
   48011826.3711339     
   47666653.8985897     
   47321716.3315437     
   46977006.1568119     
   46632515.8211779     
   46288237.7479284     
   45944164.3526832     
   45600288.0584726     
   45256601.3100165     
   44913096.5871637     
   44569766.4174530     
   44226603.3877613     
   43883600.1550100     
   43540749.4559006     
   43198044.1156583     
   42855477.0557648     
   42513041.3006674     
   42170729.9834543     
   41828536.3504898     
   41486453.7650123     
   41144475.7096960     
   40802595.7881870     
   40460807.7256290     
   40119105.3681922     
   39777482.6816352     
   39435933.7489211     
   39094452.7669260     
   38753034.0422724     
   38411671.9863302     
   38070361.1094316     
   37729096.0143494     
   37387871.3890902     
   37046681.9990613     
   36705522.6786722     
   36364388.3224325     
   36023273.8756135     
   35682174.3245427     
   35341084.6866018     
   35000000.0000000     
   70000000.0000000     
   69638472.9201538     
   69276961.1473549     
   68915479.9574379     
   68554044.5639154     
   68192670.0870732     
   67831371.5233751     
   67470163.7152727     
   67109061.3215202     
   66748078.7880912     
   66387230.3197840     
   66026529.8526108     
   65665991.0270491     
   65305627.1622409     
   64945451.2312114     
   64585475.8371810     
   64225713.1910358     
   63866175.0900163     
   63506872.8976823     
   63147817.5252002     
   62789019.4140006     
   62430488.5198420     
   62072234.2983145     
   61714265.6918111     
   61356591.1179875     
   60999218.4597246     
   60642155.0566066     
   60285407.6979180     
   59928982.6171572     
   59572885.4880636     
   59217121.4221446     
   58861694.9676875     
   58506610.1102348     
   58151870.2744971     
   57797478.3276742     
   57443436.5841497     
   57089746.8115208     
   56736410.2379193     
   56383427.5605816     
   56030798.9556143     
   55678524.0889062     
   55326602.1281293     
   54975031.7557707     
   54623811.1831356     
   54272938.1652583     
   53922410.0166537     
   53572223.6278477     
   53222375.4826113     
   52872861.6758349     
   52523677.9319669     
   52174819.6239479     
   51826281.7925667     
   51478059.1661646     
   51130146.1806165     
   50782536.9995129     
   50435225.5344731     
   50088205.4655135     
   49741470.2614022     
   49395013.1999250     
   49048827.3879987     
   48702905.7815557     
   48357241.2051382     
   48011826.3711338     
   47666653.8985897     
   47321716.3315437     
   46977006.1568118     
   46632515.8211779     
   46288237.7479284     
   45944164.3526832     
   45600288.0584726     
   45256601.3100165     
   44913096.5871636     
   44569766.4174529     
   44226603.3877612     
   43883600.1550099     
   43540749.4559005     
   43198044.1156582     
   42855477.0557648     
   42513041.3006673     
   42170729.9834543     
   41828536.3504897     
   41486453.7650122     
   41144475.7096959     
   40802595.7881870     
   40460807.7256289     
   40119105.3681922     
   39777482.6816351     
   39435933.7489210     
   39094452.7669260     
   38753034.0422724     
   38411671.9863301     
   38070361.1094315     
   37729096.0143493     
   37387871.3890901     
   37046681.9990612     
   36705522.6786721     
   36364388.3224324     
   36023273.8756135     
   35682174.3245427     
   35341084.6866017     
   35000000.0000000     
   70000000.0000000     
   69638472.9201538     
   69276961.1473548     
   68915479.9574379     
   68554044.5639152     
   68192670.0870733     
   67831371.5233750     
   67470163.7152726     
   67109061.3215202     
   66748078.7880912     
   66387230.3197839     
   66026529.8526107     
   65665991.0270491     
   65305627.1622408     
   64945451.2312113     
   64585475.8371811     
   64225713.1910357     
   63866175.0900163     
   63506872.8976822     
   63147817.5252001     
   62789019.4140005     
   62430488.5198419     
   62072234.2983145     
   61714265.6918110     
   61356591.1179875     
   60999218.4597245     
   60642155.0566066     
   60285407.6979180     
   59928982.6171572     
   59572885.4880636     
   59217121.4221446     
   58861694.9676875     
   58506610.1102348     
   58151870.2744970     
   57797478.3276742     
   57443436.5841497     
   57089746.8115208     
   56736410.2379193     
   56383427.5605815     
   56030798.9556143     
   55678524.0889061     
   55326602.1281293     
   54975031.7557706     
   54623811.1831357     
   54272938.1652583     
   53922410.0166537     
   53572223.6278476     
   53222375.4826113     
   52872861.6758349     
   52523677.9319669     
   52174819.6239479     
   51826281.7925666     
   51478059.1661645     
   51130146.1806164     
   50782536.9995128     
   50435225.5344730     
   50088205.4655135     
   49741470.2614021     
   49395013.1999250     
   49048827.3879986     
   48702905.7815557     
   48357241.2051382     
   48011826.3711338     
   47666653.8985897     
   47321716.3315437     
   46977006.1568118     
   46632515.8211779     
   46288237.7479284     
   45944164.3526832     
   45600288.0584725     
   45256601.3100165     
   44913096.5871636     
   44569766.4174529     
   44226603.3877611     
   43883600.1550098     
   43540749.4559005     
   43198044.1156582     
   42855477.0557647     
   42513041.3006673     
   42170729.9834542     
   41828536.3504897     
   41486453.7650123     
   41144475.7096959     
   40802595.7881869     
   40460807.7256289     
   40119105.3681921     
   39777482.6816350     
   39435933.7489210     
   39094452.7669259     
   38753034.0422724     
   38411671.9863301     
   38070361.1094314     
   37729096.0143493     
   37387871.3890901     
   37046681.9990612     
   36705522.6786721     
   36364388.3224325     
   36023273.8756135     
   35682174.3245427     
   35341084.6866017     
   35000000.0000000     
   70000000.0000000     
   69638472.9201536     
   69276961.1473548     
   68915479.9574378     
   68554044.5639151     
   68192670.0870732     
   67831371.5233750     
   67470163.7152724     
   67109061.3215201     
   66748078.7880911     
   66387230.3197839     
   66026529.8526106     
   65665991.0270490     
   65305627.1622408     
   64945451.2312113     
   64585475.8371810     
   64225713.1910357     
   63866175.0900163     
   63506872.8976823     
   63147817.5252001     
   62789019.4140005     
   62430488.5198419     
   62072234.2983145     
   61714265.6918110     
   61356591.1179875     
   60999218.4597245     
   60642155.0566066     
   60285407.6979180     
   59928982.6171573     
   59572885.4880636     
   59217121.4221446     
   58861694.9676875     
   58506610.1102348     
   58151870.2744971     
   57797478.3276742     
   57443436.5841497     
   57089746.8115207     
   56736410.2379193     
   56383427.5605816     
   56030798.9556143     
   55678524.0889061     
   55326602.1281293     
   54975031.7557705     
   54623811.1831357     
   54272938.1652583     
   53922410.0166537     
   53572223.6278477     
   53222375.4826113     
   52872861.6758348     
   52523677.9319668     
   52174819.6239479     
   51826281.7925666     
   51478059.1661645     
   51130146.1806163     
   50782536.9995128     
   50435225.5344729     
   50088205.4655135     
   49741470.2614020     
   49395013.1999249     
   49048827.3879987     
   48702905.7815557     
   48357241.2051383     
   48011826.3711338     
   47666653.8985898     
   47321716.3315437     
   46977006.1568118     
   46632515.8211779     
   46288237.7479283     
   45944164.3526832     
   45600288.0584725     
   45256601.3100164     
   44913096.5871636     
   44569766.4174529     
   44226603.3877611     
   43883600.1550098     
   43540749.4559004     
   43198044.1156581     
   42855477.0557646     
   42513041.3006672     
   42170729.9834542     
   41828536.3504897     
   41486453.7650122     
   41144475.7096958     
   40802595.7881869     
   40460807.7256288     
   40119105.3681921     
   39777482.6816349     
   39435933.7489209     
   39094452.7669259     
   38753034.0422723     
   38411671.9863300     
   38070361.1094314     
   37729096.0143492     
   37387871.3890900     
   37046681.9990612     
   36705522.6786721     
   36364388.3224325     
   36023273.8756135     
   35682174.3245427     
   35341084.6866017     
   35000000.0000000     
   70000000.0000000     
   69638472.9201536     
   69276961.1473547     
   68915479.9574378     
   68554044.5639150     
   68192670.0870730     
   67831371.5233750     
   67470163.7152724     
   67109061.3215200     
   66748078.7880910     
   66387230.3197838     
   66026529.8526105     
   65665991.0270489     
   65305627.1622406     
   64945451.2312112     
   64585475.8371810     
   64225713.1910357     
   63866175.0900164     
   63506872.8976823     
   63147817.5252001     
   62789019.4140004     
   62430488.5198419     
   62072234.2983145     
   61714265.6918110     
   61356591.1179874     
   60999218.4597245     
   60642155.0566065     
   60285407.6979181     
   59928982.6171573     
   59572885.4880636     
   59217121.4221446     
   58861694.9676875     
   58506610.1102348     
   58151870.2744971     
   57797478.3276741     
   57443436.5841496     
   57089746.8115207     
   56736410.2379193     
   56383427.5605815     
   56030798.9556142     
   55678524.0889061     
   55326602.1281292     
   54975031.7557705     
   54623811.1831357     
   54272938.1652582     
   53922410.0166537     
   53572223.6278477     
   53222375.4826113     
   52872861.6758348     
   52523677.9319668     
   52174819.6239479     
   51826281.7925666     
   51478059.1661645     
   51130146.1806163     
   50782536.9995128     
   50435225.5344729     
   50088205.4655135     
   49741470.2614020     
   49395013.1999249     
   49048827.3879986     
   48702905.7815557     
   48357241.2051383     
   48011826.3711338     
   47666653.8985898     
   47321716.3315437     
   46977006.1568119     
   46632515.8211779     
   46288237.7479283     
   45944164.3526832     
   45600288.0584725     
   45256601.3100164     
   44913096.5871636     
   44569766.4174528     
   44226603.3877610     
   43883600.1550097     
   43540749.4559004     
   43198044.1156581     
   42855477.0557645     
   42513041.3006672     
   42170729.9834541     
   41828536.3504896     
   41486453.7650122     
   41144475.7096957     
   40802595.7881869     
   40460807.7256288     
   40119105.3681920     
   39777482.6816349     
   39435933.7489209     
   39094452.7669259     
   38753034.0422722     
   38411671.9863300     
   38070361.1094313     
   37729096.0143492     
   37387871.3890899     
   37046681.9990611     
   36705522.6786721     
   36364388.3224324     
   36023273.8756135     
   35682174.3245426     
   35341084.6866017     
   35000000.0000000     
   70000000.0000000     
   69638472.9201535     
   69276961.1473546     
   68915479.9574377     
   68554044.5639150     
   68192670.0870729     
   67831371.5233750     
   67470163.7152723     
   67109061.3215199     
   66748078.7880909     
   66387230.3197838     
   66026529.8526105     
   65665991.0270490     
   65305627.1622405     
   64945451.2312112     
   64585475.8371809     
   64225713.1910357     
   63866175.0900163     
   63506872.8976823     
   63147817.5252000     
   62789019.4140004     
   62430488.5198419     
   62072234.2983144     
   61714265.6918110     
   61356591.1179874     
   60999218.4597245     
   60642155.0566065     
   60285407.6979180     
   59928982.6171572     
   59572885.4880636     
   59217121.4221446     
   58861694.9676875     
   58506610.1102348     
   58151870.2744971     
   57797478.3276741     
   57443436.5841495     
   57089746.8115207     
   56736410.2379192     
   56383427.5605814     
   56030798.9556142     
   55678524.0889061     
   55326602.1281292     
   54975031.7557705     
   54623811.1831357     
   54272938.1652583     
   53922410.0166537     
   53572223.6278477     
   53222375.4826113     
   52872861.6758348     
   52523677.9319668     
   52174819.6239478     
   51826281.7925666     
   51478059.1661645     
   51130146.1806163     
   50782536.9995127     
   50435225.5344729     
   50088205.4655134     
   49741470.2614020     
   49395013.1999250     
   49048827.3879986     
   48702905.7815558     
   48357241.2051383     
   48011826.3711338     
   47666653.8985898     
   47321716.3315437     
   46977006.1568119     
   46632515.8211779     
   46288237.7479283     
   45944164.3526831     
   45600288.0584724     
   45256601.3100164     
   44913096.5871635     
   44569766.4174527     
   44226603.3877609     
   43883600.1550096     
   43540749.4559004     
   43198044.1156580     
   42855477.0557644     
   42513041.3006672     
   42170729.9834541     
   41828536.3504896     
   41486453.7650121     
   41144475.7096957     
   40802595.7881869     
   40460807.7256287     
   40119105.3681919     
   39777482.6816349     
   39435933.7489208     
   39094452.7669258     
   38753034.0422722     
   38411671.9863299     
   38070361.1094313     
   37729096.0143491     
   37387871.3890899     
   37046681.9990611     
   36705522.6786720     
   36364388.3224324     
   36023273.8756134     
   35682174.3245427     
   35341084.6866017     
   35000000.0000000     
   70000000.0000000     
   69638472.9201535     
   69276961.1473546     
   68915479.9574375     
   68554044.5639150     
   68192670.0870728     
   67831371.5233749     
   67470163.7152722     
   67109061.3215197     
   66748078.7880908     
   66387230.3197837     
   66026529.8526104     
   65665991.0270488     
   65305627.1622406     
   64945451.2312111     
   64585475.8371809     
   64225713.1910357     
   63866175.0900163     
   63506872.8976822     
   63147817.5252000     
   62789019.4140004     
   62430488.5198418     
   62072234.2983144     
   61714265.6918110     
   61356591.1179875     
   60999218.4597245     
   60642155.0566065     
   60285407.6979181     
   59928982.6171572     
   59572885.4880636     
   59217121.4221446     
   58861694.9676876     
   58506610.1102347     
   58151870.2744971     
   57797478.3276741     
   57443436.5841496     
   57089746.8115206     
   56736410.2379192     
   56383427.5605814     
   56030798.9556142     
   55678524.0889060     
   55326602.1281291     
   54975031.7557704     
   54623811.1831356     
   54272938.1652583     
   53922410.0166537     
   53572223.6278477     
   53222375.4826113     
   52872861.6758349     
   52523677.9319668     
   52174819.6239478     
   51826281.7925666     
   51478059.1661644     
   51130146.1806162     
   50782536.9995127     
   50435225.5344729     
   50088205.4655135     
   49741470.2614020     
   49395013.1999250     
   49048827.3879987     
   48702905.7815559     
   48357241.2051382     
   48011826.3711338     
   47666653.8985899     
   47321716.3315437     
   46977006.1568119     
   46632515.8211779     
   46288237.7479283     
   45944164.3526830     
   45600288.0584724     
   45256601.3100164     
   44913096.5871635     
   44569766.4174527     
   44226603.3877609     
   43883600.1550096     
   43540749.4559003     
   43198044.1156579     
   42855477.0557643     
   42513041.3006672     
   42170729.9834541     
   41828536.3504895     
   41486453.7650120     
   41144475.7096956     
   40802595.7881868     
   40460807.7256286     
   40119105.3681919     
   39777482.6816348     
   39435933.7489208     
   39094452.7669257     
   38753034.0422722     
   38411671.9863299     
   38070361.1094312     
   37729096.0143491     
   37387871.3890899     
   37046681.9990610     
   36705522.6786720     
   36364388.3224323     
   36023273.8756134     
   35682174.3245427     
   35341084.6866017     
   35000000.0000000     
   70000000.0000000     
   69638472.9201535     
   69276961.1473546     
   68915479.9574374     
   68554044.5639149     
   68192670.0870727     
   67831371.5233747     
   67470163.7152722     
   67109061.3215197     
   66748078.7880907     
   66387230.3197836     
   66026529.8526104     
   65665991.0270489     
   65305627.1622405     
   64945451.2312111     
   64585475.8371809     
   64225713.1910357     
   63866175.0900163     
   63506872.8976822     
   63147817.5252000     
   62789019.4140004     
   62430488.5198418     
   62072234.2983143     
   61714265.6918110     
   61356591.1179874     
   60999218.4597245     
   60642155.0566065     
   60285407.6979180     
   59928982.6171573     
   59572885.4880636     
   59217121.4221445     
   58861694.9676877     
   58506610.1102348     
   58151870.2744970     
   57797478.3276740     
   57443436.5841496     
   57089746.8115206     
   56736410.2379191     
   56383427.5605814     
   56030798.9556141     
   55678524.0889060     
   55326602.1281291     
   54975031.7557705     
   54623811.1831356     
   54272938.1652583     
   53922410.0166537     
   53572223.6278477     
   53222375.4826113     
   52872861.6758349     
   52523677.9319668     
   52174819.6239478     
   51826281.7925666     
   51478059.1661644     
   51130146.1806162     
   50782536.9995127     
   50435225.5344729     
   50088205.4655134     
   49741470.2614020     
   49395013.1999250     
   49048827.3879987     
   48702905.7815559     
   48357241.2051382     
   48011826.3711339     
   47666653.8985899     
   47321716.3315438     
   46977006.1568118     
   46632515.8211779     
   46288237.7479283     
   45944164.3526830     
   45600288.0584724     
   45256601.3100164     
   44913096.5871634     
   44569766.4174526     
   44226603.3877608     
   43883600.1550095     
   43540749.4559003     
   43198044.1156579     
   42855477.0557642     
   42513041.3006671     
   42170729.9834540     
   41828536.3504895     
   41486453.7650120     
   41144475.7096956     
   40802595.7881867     
   40460807.7256286     
   40119105.3681918     
   39777482.6816347     
   39435933.7489208     
   39094452.7669257     
   38753034.0422721     
   38411671.9863298     
   38070361.1094311     
   37729096.0143490     
   37387871.3890898     
   37046681.9990609     
   36705522.6786720     
   36364388.3224323     
   36023273.8756134     
   35682174.3245426     
   35341084.6866018     
   35000000.0000000     
   70000000.0000000     
   69638472.9201535     
   69276961.1473544     
   68915479.9574375     
   68554044.5639148     
   68192670.0870726     
   67831371.5233745     
   67470163.7152721     
   67109061.3215198     
   66748078.7880907     
   66387230.3197836     
   66026529.8526105     
   65665991.0270488     
   65305627.1622405     
   64945451.2312112     
   64585475.8371809     
   64225713.1910357     
   63866175.0900164     
   63506872.8976823     
   63147817.5252001     
   62789019.4140004     
   62430488.5198418     
   62072234.2983143     
   61714265.6918111     
   61356591.1179874     
   60999218.4597245     
   60642155.0566066     
   60285407.6979180     
   59928982.6171572     
   59572885.4880636     
   59217121.4221446     
   58861694.9676876     
   58506610.1102347     
   58151870.2744970     
   57797478.3276739     
   57443436.5841496     
   57089746.8115205     
   56736410.2379192     
   56383427.5605814     
   56030798.9556141     
   55678524.0889059     
   55326602.1281290     
   54975031.7557705     
   54623811.1831356     
   54272938.1652582     
   53922410.0166537     
   53572223.6278477     
   53222375.4826113     
   52872861.6758349     
   52523677.9319668     
   52174819.6239478     
   51826281.7925665     
   51478059.1661644     
   51130146.1806162     
   50782536.9995126     
   50435225.5344729     
   50088205.4655134     
   49741470.2614020     
   49395013.1999250     
   49048827.3879988     
   48702905.7815559     
   48357241.2051383     
   48011826.3711339     
   47666653.8985899     
   47321716.3315438     
   46977006.1568119     
   46632515.8211778     
   46288237.7479283     
   45944164.3526830     
   45600288.0584723     
   45256601.3100163     
   44913096.5871634     
   44569766.4174525     
   44226603.3877607     
   43883600.1550095     
   43540749.4559002     
   43198044.1156578     
   42855477.0557642     
   42513041.3006670     
   42170729.9834540     
   41828536.3504895     
   41486453.7650120     
   41144475.7096956     
   40802595.7881867     
   40460807.7256285     
   40119105.3681917     
   39777482.6816346     
   39435933.7489207     
   39094452.7669256     
   38753034.0422721     
   38411671.9863297     
   38070361.1094311     
   37729096.0143490     
   37387871.3890898     
   37046681.9990609     
   36705522.6786719     
   36364388.3224323     
   36023273.8756134     
   35682174.3245426     
   35341084.6866018     
   35000000.0000000     
   70000000.0000000     
   69638472.9201534     
   69276961.1473544     
   68915479.9574374     
   68554044.5639147     
   68192670.0870725     
   67831371.5233745     
   67470163.7152720     
   67109061.3215197     
   66748078.7880907     
   66387230.3197835     
   66026529.8526104     
   65665991.0270487     
   65305627.1622406     
   64945451.2312111     
   64585475.8371810     
   64225713.1910357     
   63866175.0900164     
   63506872.8976823     
   63147817.5252001     
   62789019.4140003     
   62430488.5198417     
   62072234.2983143     
   61714265.6918111     
   61356591.1179874     
   60999218.4597245     
   60642155.0566066     
   60285407.6979180     
   59928982.6171572     
   59572885.4880636     
   59217121.4221446     
   58861694.9676875     
   58506610.1102348     
   58151870.2744969     
   57797478.3276739     
   57443436.5841496     
   57089746.8115205     
   56736410.2379191     
   56383427.5605813     
   56030798.9556141     
   55678524.0889060     
   55326602.1281290     
   54975031.7557704     
   54623811.1831356     
   54272938.1652582     
   53922410.0166538     
   53572223.6278477     
   53222375.4826113     
   52872861.6758349     
   52523677.9319669     
   52174819.6239478     
   51826281.7925665     
   51478059.1661644     
   51130146.1806162     
   50782536.9995127     
   50435225.5344730     
   50088205.4655134     
   49741470.2614020     
   49395013.1999251     
   49048827.3879988     
   48702905.7815559     
   48357241.2051383     
   48011826.3711340     
   47666653.8985900     
   47321716.3315438     
   46977006.1568119     
   46632515.8211779     
   46288237.7479283     
   45944164.3526830     
   45600288.0584724     
   45256601.3100163     
   44913096.5871633     
   44569766.4174525     
   44226603.3877607     
   43883600.1550094     
   43540749.4559002     
   43198044.1156577     
   42855477.0557642     
   42513041.3006670     
   42170729.9834539     
   41828536.3504894     
   41486453.7650119     
   41144475.7096956     
   40802595.7881867     
   40460807.7256285     
   40119105.3681916     
   39777482.6816345     
   39435933.7489206     
   39094452.7669256     
   38753034.0422721     
   38411671.9863297     
   38070361.1094310     
   37729096.0143489     
   37387871.3890898     
   37046681.9990609     
   36705522.6786719     
   36364388.3224322     
   36023273.8756133     
   35682174.3245426     
   35341084.6866018     
   35000000.0000000     
   70000000.0000000     
   69638472.9201534     
   69276961.1473543     
   68915479.9574373     
   68554044.5639146     
   68192670.0870723     
   67831371.5233745     
   67470163.7152719     
   67109061.3215197     
   66748078.7880906     
   66387230.3197836     
   66026529.8526104     
   65665991.0270487     
   65305627.1622405     
   64945451.2312111     
   64585475.8371811     
   64225713.1910357     
   63866175.0900164     
   63506872.8976823     
   63147817.5252002     
   62789019.4140003     
   62430488.5198418     
   62072234.2983143     
   61714265.6918111     
   61356591.1179875     
   60999218.4597245     
   60642155.0566066     
   60285407.6979180     
   59928982.6171573     
   59572885.4880636     
   59217121.4221447     
   58861694.9676875     
   58506610.1102349     
   58151870.2744968     
   57797478.3276739     
   57443436.5841496     
   57089746.8115205     
   56736410.2379192     
   56383427.5605814     
   56030798.9556141     
   55678524.0889060     
   55326602.1281291     
   54975031.7557705     
   54623811.1831356     
   54272938.1652583     
   53922410.0166538     
   53572223.6278478     
   53222375.4826113     
   52872861.6758350     
   52523677.9319669     
   52174819.6239478     
   51826281.7925666     
   51478059.1661645     
   51130146.1806163     
   50782536.9995128     
   50435225.5344730     
   50088205.4655134     
   49741470.2614021     
   49395013.1999251     
   49048827.3879989     
   48702905.7815559     
   48357241.2051384     
   48011826.3711340     
   47666653.8985901     
   47321716.3315439     
   46977006.1568119     
   46632515.8211779     
   46288237.7479283     
   45944164.3526830     
   45600288.0584724     
   45256601.3100162     
   44913096.5871633     
   44569766.4174524     
   44226603.3877606     
   43883600.1550094     
   43540749.4559001     
   43198044.1156577     
   42855477.0557642     
   42513041.3006670     
   42170729.9834538     
   41828536.3504894     
   41486453.7650118     
   41144475.7096955     
   40802595.7881866     
   40460807.7256285     
   40119105.3681916     
   39777482.6816345     
   39435933.7489206     
   39094452.7669256     
   38753034.0422720     
   38411671.9863297     
   38070361.1094310     
   37729096.0143489     
   37387871.3890898     
   37046681.9990608     
   36705522.6786719     
   36364388.3224322     
   36023273.8756133     
   35682174.3245425     
   35341084.6866017     
   35000000.0000000     
   70000000.0000000     
   69638472.9201534     
   69276961.1473543     
   68915479.9574372     
   68554044.5639144     
   68192670.0870723     
   67831371.5233743     
   67470163.7152719     
   67109061.3215196     
   66748078.7880906     
   66387230.3197836     
   66026529.8526103     
   65665991.0270487     
   65305627.1622405     
   64945451.2312110     
   64585475.8371811     
   64225713.1910357     
   63866175.0900164     
   63506872.8976822     
   63147817.5252001     
   62789019.4140003     
   62430488.5198417     
   62072234.2983142     
   61714265.6918111     
   61356591.1179875     
   60999218.4597245     
   60642155.0566066     
   60285407.6979180     
   59928982.6171573     
   59572885.4880636     
   59217121.4221447     
   58861694.9676875     
   58506610.1102348     
   58151870.2744968     
   57797478.3276739     
   57443436.5841496     
   57089746.8115205     
   56736410.2379192     
   56383427.5605814     
   56030798.9556141     
   55678524.0889060     
   55326602.1281291     
   54975031.7557705     
   54623811.1831356     
   54272938.1652583     
   53922410.0166539     
   53572223.6278478     
   53222375.4826114     
   52872861.6758351     
   52523677.9319669     
   52174819.6239478     
   51826281.7925666     
   51478059.1661645     
   51130146.1806163     
   50782536.9995129     
   50435225.5344731     
   50088205.4655135     
   49741470.2614022     
   49395013.1999251     
   49048827.3879990     
   48702905.7815560     
   48357241.2051385     
   48011826.3711341     
   47666653.8985901     
   47321716.3315439     
   46977006.1568119     
   46632515.8211780     
   46288237.7479283     
   45944164.3526831     
   45600288.0584724     
   45256601.3100162     
   44913096.5871633     
   44569766.4174524     
   44226603.3877606     
   43883600.1550094     
   43540749.4559001     
   43198044.1156577     
   42855477.0557641     
   42513041.3006669     
   42170729.9834538     
   41828536.3504895     
   41486453.7650118     
   41144475.7096955     
   40802595.7881866     
   40460807.7256284     
   40119105.3681915     
   39777482.6816345     
   39435933.7489205     
   39094452.7669256     
   38753034.0422720     
   38411671.9863296     
   38070361.1094309     
   37729096.0143488     
   37387871.3890897     
   37046681.9990608     
   36705522.6786718     
   36364388.3224321     
   36023273.8756133     
   35682174.3245425     
   35341084.6866017     
   35000000.0000000     
   70000000.0000000     
   69638472.9201534     
   69276961.1473542     
   68915479.9574370     
   68554044.5639143     
   68192670.0870722     
   67831371.5233744     
   67470163.7152718     
   67109061.3215196     
   66748078.7880906     
   66387230.3197835     
   66026529.8526104     
   65665991.0270485     
   65305627.1622405     
   64945451.2312110     
   64585475.8371811     
   64225713.1910356     
   63866175.0900163     
   63506872.8976823     
   63147817.5252001     
   62789019.4140004     
   62430488.5198416     
   62072234.2983142     
   61714265.6918111     
   61356591.1179876     
   60999218.4597245     
   60642155.0566067     
   60285407.6979180     
   59928982.6171572     
   59572885.4880636     
   59217121.4221447     
   58861694.9676875     
   58506610.1102347     
   58151870.2744968     
   57797478.3276738     
   57443436.5841495     
   57089746.8115206     
   56736410.2379192     
   56383427.5605815     
   56030798.9556142     
   55678524.0889060     
   55326602.1281291     
   54975031.7557705     
   54623811.1831356     
   54272938.1652583     
   53922410.0166540     
   53572223.6278478     
   53222375.4826115     
   52872861.6758352     
   52523677.9319669     
   52174819.6239479     
   51826281.7925666     
   51478059.1661646     
   51130146.1806163     
   50782536.9995129     
   50435225.5344731     
   50088205.4655135     
   49741470.2614022     
   49395013.1999252     
   49048827.3879990     
   48702905.7815561     
   48357241.2051385     
   48011826.3711342     
   47666653.8985902     
   47321716.3315439     
   46977006.1568120     
   46632515.8211780     
   46288237.7479284     
   45944164.3526831     
   45600288.0584724     
   45256601.3100162     
   44913096.5871633     
   44569766.4174524     
   44226603.3877606     
   43883600.1550094     
   43540749.4559001     
   43198044.1156576     
   42855477.0557641     
   42513041.3006669     
   42170729.9834539     
   41828536.3504895     
   41486453.7650118     
   41144475.7096955     
   40802595.7881865     
   40460807.7256284     
   40119105.3681914     
   39777482.6816345     
   39435933.7489205     
   39094452.7669256     
   38753034.0422719     
   38411671.9863296     
   38070361.1094309     
   37729096.0143488     
   37387871.3890896     
   37046681.9990608     
   36705522.6786717     
   36364388.3224321     
   36023273.8756133     
   35682174.3245425     
   35341084.6866017     
   35000000.0000000     
   70000000.0000000     
   69638472.9201535     
   69276961.1473542     
   68915479.9574369     
   68554044.5639143     
   68192670.0870722     
   67831371.5233743     
   67470163.7152717     
   67109061.3215195     
   66748078.7880905     
   66387230.3197834     
   66026529.8526103     
   65665991.0270485     
   65305627.1622403     
   64945451.2312110     
   64585475.8371811     
   64225713.1910355     
   63866175.0900163     
   63506872.8976822     
   63147817.5252000     
   62789019.4140004     
   62430488.5198416     
   62072234.2983143     
   61714265.6918111     
   61356591.1179876     
   60999218.4597245     
   60642155.0566067     
   60285407.6979179     
   59928982.6171572     
   59572885.4880636     
   59217121.4221447     
   58861694.9676875     
   58506610.1102347     
   58151870.2744967     
   57797478.3276738     
   57443436.5841495     
   57089746.8115206     
   56736410.2379192     
   56383427.5605814     
   56030798.9556142     
   55678524.0889061     
   55326602.1281291     
   54975031.7557705     
   54623811.1831356     
   54272938.1652584     
   53922410.0166540     
   53572223.6278479     
   53222375.4826116     
   52872861.6758352     
   52523677.9319670     
   52174819.6239479     
   51826281.7925666     
   51478059.1661646     
   51130146.1806163     
   50782536.9995130     
   50435225.5344732     
   50088205.4655136     
   49741470.2614022     
   49395013.1999252     
   49048827.3879991     
   48702905.7815562     
   48357241.2051386     
   48011826.3711343     
   47666653.8985902     
   47321716.3315440     
   46977006.1568121     
   46632515.8211779     
   46288237.7479284     
   45944164.3526831     
   45600288.0584725     
   45256601.3100163     
   44913096.5871633     
   44569766.4174524     
   44226603.3877607     
   43883600.1550094     
   43540749.4559000     
   43198044.1156576     
   42855477.0557642     
   42513041.3006669     
   42170729.9834539     
   41828536.3504895     
   41486453.7650118     
   41144475.7096955     
   40802595.7881865     
   40460807.7256283     
   40119105.3681914     
   39777482.6816345     
   39435933.7489204     
   39094452.7669256     
   38753034.0422719     
   38411671.9863295     
   38070361.1094309     
   37729096.0143487     
   37387871.3890896     
   37046681.9990607     
   36705522.6786717     
   36364388.3224321     
   36023273.8756133     
   35682174.3245425     
   35341084.6866016     
   35000000.0000000     
   70000000.0000000     
   69638472.9201534     
   69276961.1473541     
   68915479.9574369     
   68554044.5639142     
   68192670.0870721     
   67831371.5233741     
   67470163.7152716     
   67109061.3215195     
   66748078.7880904     
   66387230.3197835     
   66026529.8526102     
   65665991.0270484     
   65305627.1622402     
   64945451.2312110     
   64585475.8371810     
   64225713.1910354     
   63866175.0900163     
   63506872.8976822     
   63147817.5252002     
   62789019.4140004     
   62430488.5198416     
   62072234.2983141     
   61714265.6918111     
   61356591.1179875     
   60999218.4597246     
   60642155.0566067     
   60285407.6979180     
   59928982.6171573     
   59572885.4880637     
   59217121.4221448     
   58861694.9676875     
   58506610.1102347     
   58151870.2744968     
   57797478.3276737     
   57443436.5841495     
   57089746.8115205     
   56736410.2379192     
   56383427.5605815     
   56030798.9556142     
   55678524.0889062     
   55326602.1281292     
   54975031.7557706     
   54623811.1831357     
   54272938.1652585     
   53922410.0166541     
   53572223.6278480     
   53222375.4826116     
   52872861.6758352     
   52523677.9319671     
   52174819.6239479     
   51826281.7925667     
   51478059.1661646     
   51130146.1806165     
   50782536.9995131     
   50435225.5344733     
   50088205.4655137     
   49741470.2614022     
   49395013.1999252     
   49048827.3879992     
   48702905.7815563     
   48357241.2051387     
   48011826.3711343     
   47666653.8985903     
   47321716.3315440     
   46977006.1568121     
   46632515.8211779     
   46288237.7479284     
   45944164.3526832     
   45600288.0584725     
   45256601.3100162     
   44913096.5871633     
   44569766.4174524     
   44226603.3877607     
   43883600.1550093     
   43540749.4559000     
   43198044.1156576     
   42855477.0557642     
   42513041.3006669     
   42170729.9834539     
   41828536.3504893     
   41486453.7650118     
   41144475.7096954     
   40802595.7881865     
   40460807.7256284     
   40119105.3681914     
   39777482.6816344     
   39435933.7489203     
   39094452.7669255     
   38753034.0422719     
   38411671.9863295     
   38070361.1094309     
   37729096.0143486     
   37387871.3890896     
   37046681.9990606     
   36705522.6786716     
   36364388.3224321     
   36023273.8756132     
   35682174.3245425     
   35341084.6866016     
   35000000.0000000     
   70000000.0000000     
   69638472.9201534     
   69276961.1473541     
   68915479.9574368     
   68554044.5639141     
   68192670.0870720     
   67831371.5233740     
   67470163.7152715     
   67109061.3215194     
   66748078.7880904     
   66387230.3197834     
   66026529.8526101     
   65665991.0270483     
   65305627.1622401     
   64945451.2312110     
   64585475.8371809     
   64225713.1910354     
   63866175.0900163     
   63506872.8976822     
   63147817.5252002     
   62789019.4140004     
   62430488.5198416     
   62072234.2983141     
   61714265.6918111     
   61356591.1179875     
   60999218.4597246     
   60642155.0566066     
   60285407.6979180     
   59928982.6171572     
   59572885.4880637     
   59217121.4221448     
   58861694.9676875     
   58506610.1102347     
   58151870.2744968     
   57797478.3276738     
   57443436.5841495     
   57089746.8115205     
   56736410.2379193     
   56383427.5605815     
   56030798.9556143     
   55678524.0889063     
   55326602.1281293     
   54975031.7557707     
   54623811.1831358     
   54272938.1652585     
   53922410.0166542     
   53572223.6278480     
   53222375.4826118     
   52872861.6758353     
   52523677.9319671     
   52174819.6239480     
   51826281.7925667     
   51478059.1661648     
   51130146.1806165     
   50782536.9995131     
   50435225.5344734     
   50088205.4655137     
   49741470.2614023     
   49395013.1999253     
   49048827.3879993     
   48702905.7815563     
   48357241.2051387     
   48011826.3711344     
   47666653.8985902     
   47321716.3315440     
   46977006.1568121     
   46632515.8211779     
   46288237.7479284     
   45944164.3526832     
   45600288.0584725     
   45256601.3100162     
   44913096.5871633     
   44569766.4174524     
   44226603.3877607     
   43883600.1550094     
   43540749.4559001     
   43198044.1156576     
   42855477.0557641     
   42513041.3006669     
   42170729.9834539     
   41828536.3504894     
   41486453.7650118     
   41144475.7096954     
   40802595.7881865     
   40460807.7256283     
   40119105.3681915     
   39777482.6816343     
   39435933.7489203     
   39094452.7669254     
   38753034.0422718     
   38411671.9863294     
   38070361.1094308     
   37729096.0143486     
   37387871.3890895     
   37046681.9990606     
   36705522.6786715     
   36364388.3224320     
   36023273.8756132     
   35682174.3245425     
   35341084.6866016     
   35000000.0000000     
   70000000.0000000     
   69638472.9201533     
   69276961.1473540     
   68915479.9574367     
   68554044.5639141     
   68192670.0870719     
   67831371.5233739     
   67470163.7152714     
   67109061.3215193     
   66748078.7880904     
   66387230.3197834     
   66026529.8526100     
   65665991.0270483     
   65305627.1622401     
   64945451.2312109     
   64585475.8371808     
   64225713.1910355     
   63866175.0900162     
   63506872.8976822     
   63147817.5252003     
   62789019.4140005     
   62430488.5198416     
   62072234.2983141     
   61714265.6918111     
   61356591.1179875     
   60999218.4597246     
   60642155.0566066     
   60285407.6979180     
   59928982.6171573     
   59572885.4880638     
   59217121.4221448     
   58861694.9676875     
   58506610.1102347     
   58151870.2744968     
   57797478.3276738     
   57443436.5841494     
   57089746.8115205     
   56736410.2379194     
   56383427.5605816     
   56030798.9556143     
   55678524.0889063     
   55326602.1281294     
   54975031.7557708     
   54623811.1831358     
   54272938.1652586     
   53922410.0166543     
   53572223.6278481     
   53222375.4826119     
   52872861.6758354     
   52523677.9319672     
   52174819.6239481     
   51826281.7925668     
   51478059.1661648     
   51130146.1806166     
   50782536.9995132     
   50435225.5344734     
   50088205.4655138     
   49741470.2614023     
   49395013.1999254     
   49048827.3879993     
   48702905.7815563     
   48357241.2051387     
   48011826.3711345     
   47666653.8985902     
   47321716.3315440     
   46977006.1568121     
   46632515.8211779     
   46288237.7479284     
   45944164.3526832     
   45600288.0584725     
   45256601.3100162     
   44913096.5871633     
   44569766.4174524     
   44226603.3877606     
   43883600.1550094     
   43540749.4559000     
   43198044.1156576     
   42855477.0557641     
   42513041.3006669     
   42170729.9834539     
   41828536.3504893     
   41486453.7650117     
   41144475.7096953     
   40802595.7881864     
   40460807.7256283     
   40119105.3681914     
   39777482.6816343     
   39435933.7489203     
   39094452.7669254     
   38753034.0422717     
   38411671.9863294     
   38070361.1094308     
   37729096.0143486     
   37387871.3890894     
   37046681.9990606     
   36705522.6786715     
   36364388.3224319     
   36023273.8756132     
   35682174.3245425     
   35341084.6866017     
   35000000.0000000     
   70000000.0000000     
   69638472.9201533     
   69276961.1473539     
   68915479.9574367     
   68554044.5639140     
   68192670.0870718     
   67831371.5233738     
   67470163.7152713     
   67109061.3215193     
   66748078.7880903     
   66387230.3197834     
   66026529.8526100     
   65665991.0270484     
   65305627.1622400     
   64945451.2312108     
   64585475.8371808     
   64225713.1910355     
   63866175.0900162     
   63506872.8976823     
   63147817.5252003     
   62789019.4140006     
   62430488.5198417     
   62072234.2983140     
   61714265.6918111     
   61356591.1179876     
   60999218.4597246     
   60642155.0566066     
   60285407.6979180     
   59928982.6171573     
   59572885.4880638     
   59217121.4221448     
   58861694.9676876     
   58506610.1102347     
   58151870.2744968     
   57797478.3276737     
   57443436.5841495     
   57089746.8115205     
   56736410.2379194     
   56383427.5605816     
   56030798.9556143     
   55678524.0889064     
   55326602.1281295     
   54975031.7557709     
   54623811.1831359     
   54272938.1652588     
   53922410.0166543     
   53572223.6278483     
   53222375.4826119     
   52872861.6758356     
   52523677.9319672     
   52174819.6239482     
   51826281.7925669     
   51478059.1661648     
   51130146.1806167     
   50782536.9995132     
   50435225.5344734     
   50088205.4655139     
   49741470.2614024     
   49395013.1999254     
   49048827.3879993     
   48702905.7815563     
   48357241.2051387     
   48011826.3711345     
   47666653.8985902     
   47321716.3315440     
   46977006.1568120     
   46632515.8211779     
   46288237.7479284     
   45944164.3526832     
   45600288.0584725     
   45256601.3100162     
   44913096.5871633     
   44569766.4174523     
   44226603.3877606     
   43883600.1550093     
   43540749.4559000     
   43198044.1156576     
   42855477.0557641     
   42513041.3006669     
   42170729.9834538     
   41828536.3504893     
   41486453.7650117     
   41144475.7096953     
   40802595.7881864     
   40460807.7256283     
   40119105.3681914     
   39777482.6816343     
   39435933.7489202     
   39094452.7669253     
   38753034.0422716     
   38411671.9863293     
   38070361.1094308     
   37729096.0143485     
   37387871.3890894     
   37046681.9990605     
   36705522.6786715     
   36364388.3224319     
   36023273.8756131     
   35682174.3245424     
   35341084.6866017     
   35000000.0000000     
   70000000.0000000     
   69638472.9201534     
   69276961.1473539     
   68915479.9574366     
   68554044.5639140     
   68192670.0870717     
   67831371.5233737     
   67470163.7152712     
   67109061.3215192     
   66748078.7880904     
   66387230.3197834     
   66026529.8526101     
   65665991.0270484     
   65305627.1622401     
   64945451.2312109     
   64585475.8371807     
   64225713.1910355     
   63866175.0900162     
   63506872.8976824     
   63147817.5252004     
   62789019.4140007     
   62430488.5198417     
   62072234.2983140     
   61714265.6918111     
   61356591.1179876     
   60999218.4597246     
   60642155.0566066     
   60285407.6979180     
   59928982.6171573     
   59572885.4880638     
   59217121.4221448     
   58861694.9676875     
   58506610.1102346     
   58151870.2744968     
   57797478.3276737     
   57443436.5841495     
   57089746.8115205     
   56736410.2379193     
   56383427.5605817     
   56030798.9556143     
   55678524.0889065     
   55326602.1281295     
   54975031.7557709     
   54623811.1831360     
   54272938.1652588     
   53922410.0166544     
   53572223.6278484     
   53222375.4826120     
   52872861.6758357     
   52523677.9319673     
   52174819.6239482     
   51826281.7925670     
   51478059.1661648     
   51130146.1806167     
   50782536.9995133     
   50435225.5344735     
   50088205.4655141     
   49741470.2614025     
   49395013.1999255     
   49048827.3879994     
   48702905.7815564     
   48357241.2051388     
   48011826.3711345     
   47666653.8985903     
   47321716.3315440     
   46977006.1568120     
   46632515.8211780     
   46288237.7479284     
   45944164.3526833     
   45600288.0584725     
   45256601.3100162     
   44913096.5871634     
   44569766.4174523     
   44226603.3877606     
   43883600.1550093     
   43540749.4559000     
   43198044.1156576     
   42855477.0557641     
   42513041.3006670     
   42170729.9834538     
   41828536.3504893     
   41486453.7650117     
   41144475.7096952     
   40802595.7881864     
   40460807.7256282     
   40119105.3681914     
   39777482.6816343     
   39435933.7489202     
   39094452.7669253     
   38753034.0422716     
   38411671.9863292     
   38070361.1094308     
   37729096.0143485     
   37387871.3890894     
   37046681.9990605     
   36705522.6786714     
   36364388.3224319     
   36023273.8756131     
   35682174.3245424     
   35341084.6866017     
   35000000.0000000     
   70000000.0000000     
   69638472.9201534     
   69276961.1473538     
   68915479.9574365     
   68554044.5639139     
   68192670.0870717     
   67831371.5233737     
   67470163.7152711     
   67109061.3215192     
   66748078.7880904     
   66387230.3197834     
   66026529.8526102     
   65665991.0270484     
   65305627.1622402     
   64945451.2312109     
   64585475.8371806     
   64225713.1910354     
   63866175.0900163     
   63506872.8976824     
   63147817.5252003     
   62789019.4140006     
   62430488.5198417     
   62072234.2983140     
   61714265.6918111     
   61356591.1179876     
   60999218.4597246     
   60642155.0566066     
   60285407.6979180     
   59928982.6171572     
   59572885.4880637     
   59217121.4221447     
   58861694.9676875     
   58506610.1102347     
   58151870.2744967     
   57797478.3276736     
   57443436.5841494     
   57089746.8115206     
   56736410.2379193     
   56383427.5605816     
   56030798.9556144     
   55678524.0889066     
   55326602.1281296     
   54975031.7557711     
   54623811.1831361     
   54272938.1652589     
   53922410.0166545     
   53572223.6278485     
   53222375.4826121     
   52872861.6758358     
   52523677.9319674     
   52174819.6239483     
   51826281.7925671     
   51478059.1661649     
   51130146.1806167     
   50782536.9995134     
   50435225.5344735     
   50088205.4655142     
   49741470.2614026     
   49395013.1999257     
   49048827.3879994     
   48702905.7815564     
   48357241.2051389     
   48011826.3711345     
   47666653.8985903     
   47321716.3315441     
   46977006.1568120     
   46632515.8211779     
   46288237.7479285     
   45944164.3526832     
   45600288.0584725     
   45256601.3100162     
   44913096.5871634     
   44569766.4174523     
   44226603.3877605     
   43883600.1550093     
   43540749.4559001     
   43198044.1156575     
   42855477.0557641     
   42513041.3006670     
   42170729.9834538     
   41828536.3504893     
   41486453.7650116     
   41144475.7096952     
   40802595.7881864     
   40460807.7256282     
   40119105.3681914     
   39777482.6816342     
   39435933.7489201     
   39094452.7669253     
   38753034.0422715     
   38411671.9863291     
   38070361.1094307     
   37729096.0143486     
   37387871.3890893     
   37046681.9990604     
   36705522.6786714     
   36364388.3224318     
   36023273.8756130     
   35682174.3245424     
   35341084.6866017     
   35000000.0000000     
   70000000.0000000     
   69638472.9201533     
   69276961.1473537     
   68915479.9574365     
   68554044.5639138     
   68192670.0870716     
   67831371.5233735     
   67470163.7152711     
   67109061.3215191     
   66748078.7880904     
   66387230.3197834     
   66026529.8526102     
   65665991.0270485     
   65305627.1622402     
   64945451.2312108     
   64585475.8371805     
   64225713.1910354     
   63866175.0900162     
   63506872.8976824     
   63147817.5252003     
   62789019.4140007     
   62430488.5198418     
   62072234.2983140     
   61714265.6918111     
   61356591.1179876     
   60999218.4597246     
   60642155.0566065     
   60285407.6979180     
   59928982.6171572     
   59572885.4880636     
   59217121.4221447     
   58861694.9676875     
   58506610.1102346     
   58151870.2744967     
   57797478.3276737     
   57443436.5841493     
   57089746.8115206     
   56736410.2379193     
   56383427.5605816     
   56030798.9556145     
   55678524.0889066     
   55326602.1281297     
   54975031.7557711     
   54623811.1831362     
   54272938.1652590     
   53922410.0166547     
   53572223.6278485     
   53222375.4826123     
   52872861.6758358     
   52523677.9319675     
   52174819.6239483     
   51826281.7925671     
   51478059.1661649     
   51130146.1806167     
   50782536.9995134     
   50435225.5344737     
   50088205.4655143     
   49741470.2614027     
   49395013.1999258     
   49048827.3879995     
   48702905.7815565     
   48357241.2051389     
   48011826.3711345     
   47666653.8985903     
   47321716.3315440     
   46977006.1568120     
   46632515.8211780     
   46288237.7479286     
   45944164.3526832     
   45600288.0584725     
   45256601.3100162     
   44913096.5871633     
   44569766.4174523     
   44226603.3877605     
   43883600.1550092     
   43540749.4559001     
   43198044.1156575     
   42855477.0557640     
   42513041.3006669     
   42170729.9834537     
   41828536.3504893     
   41486453.7650116     
   41144475.7096952     
   40802595.7881863     
   40460807.7256281     
   40119105.3681913     
   39777482.6816342     
   39435933.7489201     
   39094452.7669252     
   38753034.0422715     
   38411671.9863291     
   38070361.1094306     
   37729096.0143485     
   37387871.3890892     
   37046681.9990604     
   36705522.6786713     
   36364388.3224318     
   36023273.8756130     
   35682174.3245424     
   35341084.6866016     
   35000000.0000000     
   70000000.0000000     
   69638472.9201532     
   69276961.1473538     
   68915479.9574364     
   68554044.5639138     
   68192670.0870714     
   67831371.5233735     
   67470163.7152711     
   67109061.3215191     
   66748078.7880903     
   66387230.3197834     
   66026529.8526102     
   65665991.0270485     
   65305627.1622402     
   64945451.2312108     
   64585475.8371803     
   64225713.1910353     
   63866175.0900161     
   63506872.8976824     
   63147817.5252002     
   62789019.4140007     
   62430488.5198418     
   62072234.2983140     
   61714265.6918111     
   61356591.1179876     
   60999218.4597245     
   60642155.0566066     
   60285407.6979180     
   59928982.6171572     
   59572885.4880636     
   59217121.4221447     
   58861694.9676875     
   58506610.1102346     
   58151870.2744966     
   57797478.3276736     
   57443436.5841493     
   57089746.8115206     
   56736410.2379194     
   56383427.5605817     
   56030798.9556145     
   55678524.0889067     
   55326602.1281298     
   54975031.7557712     
   54623811.1831362     
   54272938.1652591     
   53922410.0166548     
   53572223.6278486     
   53222375.4826125     
   52872861.6758358     
   52523677.9319676     
   52174819.6239484     
   51826281.7925672     
   51478059.1661649     
   51130146.1806168     
   50782536.9995133     
   50435225.5344738     
   50088205.4655144     
   49741470.2614028     
   49395013.1999260     
   49048827.3879996     
   48702905.7815565     
   48357241.2051390     
   48011826.3711345     
   47666653.8985903     
   47321716.3315439     
   46977006.1568121     
   46632515.8211780     
   46288237.7479286     
   45944164.3526832     
   45600288.0584725     
   45256601.3100163     
   44913096.5871633     
   44569766.4174523     
   44226603.3877605     
   43883600.1550092     
   43540749.4559000     
   43198044.1156575     
   42855477.0557641     
   42513041.3006669     
   42170729.9834538     
   41828536.3504893     
   41486453.7650116     
   41144475.7096952     
   40802595.7881863     
   40460807.7256281     
   40119105.3681914     
   39777482.6816341     
   39435933.7489200     
   39094452.7669251     
   38753034.0422715     
   38411671.9863291     
   38070361.1094306     
   37729096.0143484     
   37387871.3890892     
   37046681.9990603     
   36705522.6786713     
   36364388.3224317     
   36023273.8756130     
   35682174.3245424     
   35341084.6866016     
   35000000.0000000     
   70000000.0000000     
   69638472.9201531     
   69276961.1473538     
   68915479.9574364     
   68554044.5639136     
   68192670.0870714     
   67831371.5233734     
   67470163.7152710     
   67109061.3215190     
   66748078.7880901     
   66387230.3197834     
   66026529.8526102     
   65665991.0270485     
   65305627.1622402     
   64945451.2312108     
   64585475.8371804     
   64225713.1910352     
   63866175.0900161     
   63506872.8976824     
   63147817.5252003     
   62789019.4140005     
   62430488.5198418     
   62072234.2983141     
   61714265.6918110     
   61356591.1179876     
   60999218.4597245     
   60642155.0566066     
   60285407.6979179     
   59928982.6171572     
   59572885.4880636     
   59217121.4221446     
   58861694.9676875     
   58506610.1102345     
   58151870.2744965     
   57797478.3276737     
   57443436.5841493     
   57089746.8115206     
   56736410.2379194     
   56383427.5605817     
   56030798.9556145     
   55678524.0889067     
   55326602.1281299     
   54975031.7557713     
   54623811.1831363     
   54272938.1652592     
   53922410.0166549     
   53572223.6278488     
   53222375.4826126     
   52872861.6758359     
   52523677.9319677     
   52174819.6239485     
   51826281.7925671     
   51478059.1661650     
   51130146.1806169     
   50782536.9995133     
   50435225.5344738     
   50088205.4655144     
   49741470.2614029     
   49395013.1999261     
   49048827.3879997     
   48702905.7815566     
   48357241.2051390     
   48011826.3711345     
   47666653.8985903     
   47321716.3315440     
   46977006.1568120     
   46632515.8211780     
   46288237.7479285     
   45944164.3526832     
   45600288.0584725     
   45256601.3100163     
   44913096.5871633     
   44569766.4174522     
   44226603.3877605     
   43883600.1550092     
   43540749.4559000     
   43198044.1156576     
   42855477.0557640     
   42513041.3006669     
   42170729.9834537     
   41828536.3504892     
   41486453.7650116     
   41144475.7096952     
   40802595.7881863     
   40460807.7256281     
   40119105.3681913     
   39777482.6816341     
   39435933.7489200     
   39094452.7669251     
   38753034.0422715     
   38411671.9863291     
   38070361.1094306     
   37729096.0143484     
   37387871.3890891     
   37046681.9990603     
   36705522.6786713     
   36364388.3224317     
   36023273.8756130     
   35682174.3245424     
   35341084.6866016     
   35000000.0000000     
   70000000.0000000     
   69638472.9201532     
   69276961.1473537     
   68915479.9574364     
   68554044.5639135     
   68192670.0870713     
   67831371.5233732     
   67470163.7152709     
   67109061.3215189     
   66748078.7880902     
   66387230.3197832     
   66026529.8526102     
   65665991.0270484     
   65305627.1622400     
   64945451.2312108     
   64585475.8371803     
   64225713.1910353     
   63866175.0900161     
   63506872.8976823     
   63147817.5252002     
   62789019.4140005     
   62430488.5198418     
   62072234.2983142     
   61714265.6918110     
   61356591.1179875     
   60999218.4597244     
   60642155.0566066     
   60285407.6979179     
   59928982.6171572     
   59572885.4880636     
   59217121.4221446     
   58861694.9676875     
   58506610.1102345     
   58151870.2744965     
   57797478.3276737     
   57443436.5841492     
   57089746.8115206     
   56736410.2379194     
   56383427.5605818     
   56030798.9556146     
   55678524.0889068     
   55326602.1281300     
   54975031.7557713     
   54623811.1831365     
   54272938.1652594     
   53922410.0166550     
   53572223.6278489     
   53222375.4826126     
   52872861.6758360     
   52523677.9319677     
   52174819.6239485     
   51826281.7925671     
   51478059.1661650     
   51130146.1806169     
   50782536.9995134     
   50435225.5344738     
   50088205.4655145     
   49741470.2614031     
   49395013.1999261     
   49048827.3879997     
   48702905.7815567     
   48357241.2051391     
   48011826.3711345     
   47666653.8985903     
   47321716.3315440     
   46977006.1568119     
   46632515.8211780     
   46288237.7479285     
   45944164.3526832     
   45600288.0584725     
   45256601.3100162     
   44913096.5871633     
   44569766.4174522     
   44226603.3877605     
   43883600.1550091     
   43540749.4559000     
   43198044.1156576     
   42855477.0557641     
   42513041.3006669     
   42170729.9834538     
   41828536.3504892     
   41486453.7650117     
   41144475.7096952     
   40802595.7881863     
   40460807.7256282     
   40119105.3681913     
   39777482.6816341     
   39435933.7489200     
   39094452.7669251     
   38753034.0422714     
   38411671.9863290     
   38070361.1094305     
   37729096.0143484     
   37387871.3890891     
   37046681.9990602     
   36705522.6786712     
   36364388.3224317     
   36023273.8756129     
   35682174.3245423     
   35341084.6866016     
   35000000.0000000     
   70000000.0000000     
   69638472.9201532     
   69276961.1473538     
   68915479.9574364     
   68554044.5639135     
   68192670.0870712     
   67831371.5233731     
   67470163.7152708     
   67109061.3215188     
   66748078.7880901     
   66387230.3197832     
   66026529.8526101     
   65665991.0270484     
   65305627.1622400     
   64945451.2312107     
   64585475.8371803     
   64225713.1910354     
   63866175.0900162     
   63506872.8976824     
   63147817.5252002     
   62789019.4140006     
   62430488.5198418     
   62072234.2983143     
   61714265.6918110     
   61356591.1179875     
   60999218.4597244     
   60642155.0566065     
   60285407.6979178     
   59928982.6171572     
   59572885.4880635     
   59217121.4221446     
   58861694.9676875     
   58506610.1102345     
   58151870.2744965     
   57797478.3276736     
   57443436.5841493     
   57089746.8115206     
   56736410.2379194     
   56383427.5605817     
   56030798.9556146     
   55678524.0889067     
   55326602.1281302     
   54975031.7557713     
   54623811.1831366     
   54272938.1652595     
   53922410.0166551     
   53572223.6278490     
   53222375.4826126     
   52872861.6758361     
   52523677.9319678     
   52174819.6239486     
   51826281.7925672     
   51478059.1661650     
   51130146.1806169     
   50782536.9995135     
   50435225.5344739     
   50088205.4655145     
   49741470.2614032     
   49395013.1999260     
   49048827.3879998     
   48702905.7815567     
   48357241.2051391     
   48011826.3711346     
   47666653.8985903     
   47321716.3315439     
   46977006.1568119     
   46632515.8211780     
   46288237.7479285     
   45944164.3526832     
   45600288.0584725     
   45256601.3100162     
   44913096.5871632     
   44569766.4174522     
   44226603.3877604     
   43883600.1550091     
   43540749.4558999     
   43198044.1156575     
   42855477.0557641     
   42513041.3006669     
   42170729.9834537     
   41828536.3504892     
   41486453.7650117     
   41144475.7096952     
   40802595.7881863     
   40460807.7256282     
   40119105.3681913     
   39777482.6816341     
   39435933.7489200     
   39094452.7669251     
   38753034.0422714     
   38411671.9863290     
   38070361.1094305     
   37729096.0143483     
   37387871.3890891     
   37046681.9990602     
   36705522.6786712     
   36364388.3224317     
   36023273.8756129     
   35682174.3245423     
   35341084.6866016     
   35000000.0000000     
   70000000.0000000     
   69638472.9201532     
   69276961.1473537     
   68915479.9574363     
   68554044.5639134     
   68192670.0870711     
   67831371.5233731     
   67470163.7152707     
   67109061.3215187     
   66748078.7880900     
   66387230.3197833     
   66026529.8526101     
   65665991.0270483     
   65305627.1622400     
   64945451.2312105     
   64585475.8371804     
   64225713.1910353     
   63866175.0900162     
   63506872.8976825     
   63147817.5252002     
   62789019.4140007     
   62430488.5198418     
   62072234.2983144     
   61714265.6918110     
   61356591.1179875     
   60999218.4597245     
   60642155.0566064     
   60285407.6979179     
   59928982.6171572     
   59572885.4880635     
   59217121.4221446     
   58861694.9676876     
   58506610.1102345     
   58151870.2744965     
   57797478.3276737     
   57443436.5841493     
   57089746.8115207     
   56736410.2379195     
   56383427.5605818     
   56030798.9556146     
   55678524.0889066     
   55326602.1281303     
   54975031.7557714     
   54623811.1831367     
   54272938.1652595     
   53922410.0166552     
   53572223.6278491     
   53222375.4826127     
   52872861.6758362     
   52523677.9319678     
   52174819.6239487     
   51826281.7925672     
   51478059.1661650     
   51130146.1806169     
   50782536.9995135     
   50435225.5344740     
   50088205.4655145     
   49741470.2614033     
   49395013.1999260     
   49048827.3879998     
   48702905.7815568     
   48357241.2051391     
   48011826.3711346     
   47666653.8985902     
   47321716.3315440     
   46977006.1568119     
   46632515.8211779     
   46288237.7479284     
   45944164.3526832     
   45600288.0584726     
   45256601.3100162     
   44913096.5871632     
   44569766.4174522     
   44226603.3877604     
   43883600.1550091     
   43540749.4558999     
   43198044.1156576     
   42855477.0557640     
   42513041.3006669     
   42170729.9834537     
   41828536.3504892     
   41486453.7650117     
   41144475.7096952     
   40802595.7881863     
   40460807.7256282     
   40119105.3681913     
   39777482.6816341     
   39435933.7489200     
   39094452.7669250     
   38753034.0422713     
   38411671.9863290     
   38070361.1094304     
   37729096.0143483     
   37387871.3890891     
   37046681.9990602     
   36705522.6786712     
   36364388.3224317     
   36023273.8756129     
   35682174.3245423     
   35341084.6866016     
   35000000.0000000     
   70000000.0000000     
   69638472.9201532     
   69276961.1473538     
   68915479.9574363     
   68554044.5639133     
   68192670.0870710     
   67831371.5233730     
   67470163.7152706     
   67109061.3215186     
   66748078.7880900     
   66387230.3197833     
   66026529.8526101     
   65665991.0270483     
   65305627.1622400     
   64945451.2312105     
   64585475.8371803     
   64225713.1910352     
   63866175.0900161     
   63506872.8976826     
   63147817.5252003     
   62789019.4140007     
   62430488.5198419     
   62072234.2983145     
   61714265.6918111     
   61356591.1179875     
   60999218.4597245     
   60642155.0566064     
   60285407.6979178     
   59928982.6171571     
   59572885.4880634     
   59217121.4221445     
   58861694.9676876     
   58506610.1102345     
   58151870.2744965     
   57797478.3276736     
   57443436.5841493     
   57089746.8115207     
   56736410.2379195     
   56383427.5605818     
   56030798.9556147     
   55678524.0889067     
   55326602.1281303     
   54975031.7557716     
   54623811.1831367     
   54272938.1652596     
   53922410.0166552     
   53572223.6278491     
   53222375.4826128     
   52872861.6758362     
   52523677.9319679     
   52174819.6239487     
   51826281.7925673     
   51478059.1661650     
   51130146.1806169     
   50782536.9995135     
   50435225.5344741     
   50088205.4655145     
   49741470.2614033     
   49395013.1999260     
   49048827.3879999     
   48702905.7815568     
   48357241.2051391     
   48011826.3711346     
   47666653.8985903     
   47321716.3315440     
   46977006.1568119     
   46632515.8211779     
   46288237.7479284     
   45944164.3526832     
   45600288.0584726     
   45256601.3100163     
   44913096.5871632     
   44569766.4174522     
   44226603.3877604     
   43883600.1550091     
   43540749.4558999     
   43198044.1156576     
   42855477.0557640     
   42513041.3006669     
   42170729.9834537     
   41828536.3504892     
   41486453.7650118     
   41144475.7096952     
   40802595.7881864     
   40460807.7256282     
   40119105.3681913     
   39777482.6816342     
   39435933.7489200     
   39094452.7669249     
   38753034.0422713     
   38411671.9863290     
   38070361.1094303     
   37729096.0143482     
   37387871.3890891     
   37046681.9990601     
   36705522.6786712     
   36364388.3224317     
   36023273.8756129     
   35682174.3245422     
   35341084.6866016     
   35000000.0000000     
   70000000.0000000     
   69638472.9201531     
   69276961.1473539     
   68915479.9574362     
   68554044.5639132     
   68192670.0870710     
   67831371.5233730     
   67470163.7152705     
   67109061.3215185     
   66748078.7880899     
   66387230.3197832     
   66026529.8526100     
   65665991.0270484     
   65305627.1622399     
   64945451.2312105     
   64585475.8371803     
   64225713.1910353     
   63866175.0900162     
   63506872.8976825     
   63147817.5252004     
   62789019.4140006     
   62430488.5198420     
   62072234.2983146     
   61714265.6918111     
   61356591.1179875     
   60999218.4597244     
   60642155.0566064     
   60285407.6979177     
   59928982.6171571     
   59572885.4880634     
   59217121.4221445     
   58861694.9676876     
   58506610.1102346     
   58151870.2744966     
   57797478.3276735     
   57443436.5841494     
   57089746.8115207     
   56736410.2379195     
   56383427.5605818     
   56030798.9556147     
   55678524.0889068     
   55326602.1281302     
   54975031.7557717     
   54623811.1831369     
   54272938.1652596     
   53922410.0166552     
   53572223.6278492     
   53222375.4826128     
   52872861.6758362     
   52523677.9319680     
   52174819.6239487     
   51826281.7925673     
   51478059.1661651     
   51130146.1806170     
   50782536.9995136     
   50435225.5344741     
   50088205.4655145     
   49741470.2614033     
   49395013.1999260     
   49048827.3880000     
   48702905.7815568     
   48357241.2051391     
   48011826.3711346     
   47666653.8985903     
   47321716.3315441     
   46977006.1568119     
   46632515.8211778     
   46288237.7479284     
   45944164.3526832     
   45600288.0584726     
   45256601.3100164     
   44913096.5871632     
   44569766.4174522     
   44226603.3877604     
   43883600.1550091     
   43540749.4558999     
   43198044.1156576     
   42855477.0557640     
   42513041.3006668     
   42170729.9834537     
   41828536.3504892     
   41486453.7650118     
   41144475.7096952     
   40802595.7881864     
   40460807.7256282     
   40119105.3681914     
   39777482.6816342     
   39435933.7489200     
   39094452.7669249     
   38753034.0422712     
   38411671.9863290     
   38070361.1094302     
   37729096.0143482     
   37387871.3890891     
   37046681.9990601     
   36705522.6786711     
   36364388.3224316     
   36023273.8756128     
   35682174.3245423     
   35341084.6866016     
   35000000.0000000     
   70000000.0000000     
   69638472.9201530     
   69276961.1473538     
   68915479.9574362     
   68554044.5639132     
   68192670.0870710     
   67831371.5233729     
   67470163.7152704     
   67109061.3215185     
   66748078.7880898     
   66387230.3197832     
   66026529.8526099     
   65665991.0270484     
   65305627.1622399     
   64945451.2312103     
   64585475.8371803     
   64225713.1910353     
   63866175.0900161     
   63506872.8976824     
   63147817.5252006     
   62789019.4140006     
   62430488.5198420     
   62072234.2983146     
   61714265.6918112     
   61356591.1179876     
   60999218.4597244     
   60642155.0566064     
   60285407.6979178     
   59928982.6171570     
   59572885.4880634     
   59217121.4221445     
   58861694.9676875     
   58506610.1102346     
   58151870.2744966     
   57797478.3276735     
   57443436.5841495     
   57089746.8115207     
   56736410.2379195     
   56383427.5605818     
   56030798.9556148     
   55678524.0889069     
   55326602.1281302     
   54975031.7557718     
   54623811.1831369     
   54272938.1652597     
   53922410.0166552     
   53572223.6278492     
   53222375.4826129     
   52872861.6758363     
   52523677.9319680     
   52174819.6239488     
   51826281.7925672     
   51478059.1661651     
   51130146.1806170     
   50782536.9995137     
   50435225.5344741     
   50088205.4655146     
   49741470.2614033     
   49395013.1999260     
   49048827.3880000     
   48702905.7815569     
   48357241.2051392     
   48011826.3711346     
   47666653.8985904     
   47321716.3315442     
   46977006.1568119     
   46632515.8211778     
   46288237.7479284     
   45944164.3526832     
   45600288.0584726     
   45256601.3100164     
   44913096.5871633     
   44569766.4174523     
   44226603.3877604     
   43883600.1550091     
   43540749.4558999     
   43198044.1156576     
   42855477.0557641     
   42513041.3006668     
   42170729.9834538     
   41828536.3504893     
   41486453.7650118     
   41144475.7096952     
   40802595.7881864     
   40460807.7256282     
   40119105.3681913     
   39777482.6816342     
   39435933.7489199     
   39094452.7669249     
   38753034.0422712     
   38411671.9863289     
   38070361.1094303     
   37729096.0143482     
   37387871.3890890     
   37046681.9990601     
   36705522.6786711     
   36364388.3224316     
   36023273.8756128     
   35682174.3245423     
   35341084.6866016     
   35000000.0000000     
   70000000.0000000     
   69638472.9201531     
   69276961.1473537     
   68915479.9574361     
   68554044.5639131     
   68192670.0870709     
   67831371.5233729     
   67470163.7152705     
   67109061.3215184     
   66748078.7880898     
   66387230.3197831     
   66026529.8526100     
   65665991.0270484     
   65305627.1622398     
   64945451.2312103     
   64585475.8371803     
   64225713.1910351     
   63866175.0900162     
   63506872.8976824     
   63147817.5252004     
   62789019.4140006     
   62430488.5198420     
   62072234.2983146     
   61714265.6918112     
   61356591.1179876     
   60999218.4597244     
   60642155.0566064     
   60285407.6979177     
   59928982.6171569     
   59572885.4880633     
   59217121.4221444     
   58861694.9676875     
   58506610.1102346     
   58151870.2744966     
   57797478.3276736     
   57443436.5841495     
   57089746.8115208     
   56736410.2379195     
   56383427.5605818     
   56030798.9556148     
   55678524.0889069     
   55326602.1281301     
   54975031.7557718     
   54623811.1831370     
   54272938.1652598     
   53922410.0166552     
   53572223.6278493     
   53222375.4826129     
   52872861.6758363     
   52523677.9319680     
   52174819.6239489     
   51826281.7925672     
   51478059.1661651     
   51130146.1806171     
   50782536.9995138     
   50435225.5344742     
   50088205.4655146     
   49741470.2614033     
   49395013.1999260     
   49048827.3879999     
   48702905.7815569     
   48357241.2051392     
   48011826.3711347     
   47666653.8985904     
   47321716.3315442     
   46977006.1568119     
   46632515.8211778     
   46288237.7479283     
   45944164.3526832     
   45600288.0584726     
   45256601.3100164     
   44913096.5871633     
   44569766.4174523     
   44226603.3877603     
   43883600.1550091     
   43540749.4558999     
   43198044.1156576     
   42855477.0557641     
   42513041.3006668     
   42170729.9834537     
   41828536.3504893     
   41486453.7650118     
   41144475.7096953     
   40802595.7881864     
   40460807.7256283     
   40119105.3681913     
   39777482.6816343     
   39435933.7489198     
   39094452.7669249     
   38753034.0422712     
   38411671.9863289     
   38070361.1094303     
   37729096.0143481     
   37387871.3890890     
   37046681.9990601     
   36705522.6786711     
   36364388.3224316     
   36023273.8756128     
   35682174.3245421     
   35341084.6866016     
   35000000.0000000     
   70000000.0000000     
   69638472.9201532     
   69276961.1473536     
   68915479.9574360     
   68554044.5639130     
   68192670.0870708     
   67831371.5233728     
   67470163.7152704     
   67109061.3215184     
   66748078.7880898     
   66387230.3197832     
   66026529.8526100     
   65665991.0270484     
   65305627.1622397     
   64945451.2312103     
   64585475.8371803     
   64225713.1910350     
   63866175.0900162     
   63506872.8976824     
   63147817.5252004     
   62789019.4140007     
   62430488.5198419     
   62072234.2983146     
   61714265.6918113     
   61356591.1179876     
   60999218.4597243     
   60642155.0566064     
   60285407.6979177     
   59928982.6171569     
   59572885.4880633     
   59217121.4221445     
   58861694.9676874     
   58506610.1102346     
   58151870.2744966     
   57797478.3276737     
   57443436.5841496     
   57089746.8115208     
   56736410.2379195     
   56383427.5605818     
   56030798.9556148     
   55678524.0889069     
   55326602.1281302     
   54975031.7557718     
   54623811.1831371     
   54272938.1652599     
   53922410.0166553     
   53572223.6278493     
   53222375.4826129     
   52872861.6758363     
   52523677.9319680     
   52174819.6239489     
   51826281.7925673     
   51478059.1661651     
   51130146.1806171     
   50782536.9995139     
   50435225.5344742     
   50088205.4655147     
   49741470.2614033     
   49395013.1999261     
   49048827.3880000     
   48702905.7815569     
   48357241.2051393     
   48011826.3711347     
   47666653.8985905     
   47321716.3315441     
   46977006.1568120     
   46632515.8211778     
   46288237.7479283     
   45944164.3526832     
   45600288.0584726     
   45256601.3100164     
   44913096.5871633     
   44569766.4174524     
   44226603.3877603     
   43883600.1550091     
   43540749.4558998     
   43198044.1156575     
   42855477.0557641     
   42513041.3006669     
   42170729.9834537     
   41828536.3504893     
   41486453.7650117     
   41144475.7096953     
   40802595.7881864     
   40460807.7256283     
   40119105.3681913     
   39777482.6816342     
   39435933.7489198     
   39094452.7669249     
   38753034.0422711     
   38411671.9863289     
   38070361.1094303     
   37729096.0143481     
   37387871.3890889     
   37046681.9990601     
   36705522.6786711     
   36364388.3224315     
   36023273.8756127     
   35682174.3245421     
   35341084.6866016     
   35000000.0000000     
   70000000.0000000     
   69638472.9201531     
   69276961.1473536     
   68915479.9574360     
   68554044.5639129     
   68192670.0870708     
   67831371.5233727     
   67470163.7152704     
   67109061.3215185     
   66748078.7880897     
   66387230.3197832     
   66026529.8526100     
   65665991.0270483     
   65305627.1622398     
   64945451.2312103     
   64585475.8371803     
   64225713.1910351     
   63866175.0900162     
   63506872.8976824     
   63147817.5252003     
   62789019.4140008     
   62430488.5198420     
   62072234.2983146     
   61714265.6918113     
   61356591.1179877     
   60999218.4597243     
   60642155.0566063     
   60285407.6979176     
   59928982.6171568     
   59572885.4880633     
   59217121.4221444     
   58861694.9676875     
   58506610.1102346     
   58151870.2744967     
   57797478.3276738     
   57443436.5841497     
   57089746.8115208     
   56736410.2379196     
   56383427.5605818     
   56030798.9556149     
   55678524.0889069     
   55326602.1281302     
   54975031.7557718     
   54623811.1831371     
   54272938.1652599     
   53922410.0166555     
   53572223.6278493     
   53222375.4826130     
   52872861.6758363     
   52523677.9319680     
   52174819.6239489     
   51826281.7925673     
   51478059.1661651     
   51130146.1806171     
   50782536.9995140     
   50435225.5344743     
   50088205.4655148     
   49741470.2614033     
   49395013.1999261     
   49048827.3880000     
   48702905.7815569     
   48357241.2051394     
   48011826.3711347     
   47666653.8985906     
   47321716.3315441     
   46977006.1568120     
   46632515.8211778     
   46288237.7479282     
   45944164.3526832     
   45600288.0584726     
   45256601.3100164     
   44913096.5871633     
   44569766.4174524     
   44226603.3877604     
   43883600.1550091     
   43540749.4558998     
   43198044.1156575     
   42855477.0557642     
   42513041.3006669     
   42170729.9834537     
   41828536.3504893     
   41486453.7650117     
   41144475.7096953     
   40802595.7881863     
   40460807.7256283     
   40119105.3681913     
   39777482.6816342     
   39435933.7489198     
   39094452.7669248     
   38753034.0422711     
   38411671.9863289     
   38070361.1094303     
   37729096.0143481     
   37387871.3890889     
   37046681.9990600     
   36705522.6786711     
   36364388.3224315     
   36023273.8756127     
   35682174.3245421     
   35341084.6866016     
   35000000.0000000     
   70000000.0000000     
   69638472.9201531     
   69276961.1473535     
   68915479.9574360     
   68554044.5639128     
   68192670.0870707     
   67831371.5233727     
   67470163.7152704     
   67109061.3215184     
   66748078.7880898     
   66387230.3197831     
   66026529.8526100     
   65665991.0270482     
   65305627.1622398     
   64945451.2312103     
   64585475.8371803     
   64225713.1910352     
   63866175.0900162     
   63506872.8976825     
   63147817.5252004     
   62789019.4140008     
   62430488.5198422     
   62072234.2983146     
   61714265.6918114     
   61356591.1179876     
   60999218.4597243     
   60642155.0566063     
   60285407.6979176     
   59928982.6171568     
   59572885.4880633     
   59217121.4221444     
   58861694.9676876     
   58506610.1102346     
   58151870.2744967     
   57797478.3276739     
   57443436.5841497     
   57089746.8115208     
   56736410.2379195     
   56383427.5605818     
   56030798.9556149     
   55678524.0889069     
   55326602.1281302     
   54975031.7557719     
   54623811.1831371     
   54272938.1652599     
   53922410.0166555     
   53572223.6278493     
   53222375.4826130     
   52872861.6758364     
   52523677.9319680     
   52174819.6239488     
   51826281.7925675     
   51478059.1661652     
   51130146.1806172     
   50782536.9995139     
   50435225.5344743     
   50088205.4655148     
   49741470.2614033     
   49395013.1999262     
   49048827.3880000     
   48702905.7815569     
   48357241.2051394     
   48011826.3711348     
   47666653.8985906     
   47321716.3315442     
   46977006.1568121     
   46632515.8211779     
   46288237.7479282     
   45944164.3526832     
   45600288.0584727     
   45256601.3100164     
   44913096.5871634     
   44569766.4174524     
   44226603.3877603     
   43883600.1550091     
   43540749.4558998     
   43198044.1156575     
   42855477.0557642     
   42513041.3006669     
   42170729.9834537     
   41828536.3504893     
   41486453.7650117     
   41144475.7096952     
   40802595.7881864     
   40460807.7256283     
   40119105.3681914     
   39777482.6816342     
   39435933.7489198     
   39094452.7669248     
   38753034.0422711     
   38411671.9863288     
   38070361.1094303     
   37729096.0143480     
   37387871.3890889     
   37046681.9990599     
   36705522.6786711     
   36364388.3224315     
   36023273.8756126     
   35682174.3245421     
   35341084.6866016     
   35000000.0000000     
   70000000.0000000     
   69638472.9201531     
   69276961.1473534     
   68915479.9574359     
   68554044.5639127     
   68192670.0870707     
   67831371.5233727     
   67470163.7152704     
   67109061.3215184     
   66748078.7880899     
   66387230.3197831     
   66026529.8526101     
   65665991.0270482     
   65305627.1622399     
   64945451.2312102     
   64585475.8371803     
   64225713.1910352     
   63866175.0900162     
   63506872.8976825     
   63147817.5252005     
   62789019.4140008     
   62430488.5198421     
   62072234.2983147     
   61714265.6918113     
   61356591.1179877     
   60999218.4597244     
   60642155.0566064     
   60285407.6979175     
   59928982.6171568     
   59572885.4880633     
   59217121.4221445     
   58861694.9676876     
   58506610.1102345     
   58151870.2744967     
   57797478.3276739     
   57443436.5841497     
   57089746.8115208     
   56736410.2379195     
   56383427.5605819     
   56030798.9556149     
   55678524.0889068     
   55326602.1281302     
   54975031.7557719     
   54623811.1831372     
   54272938.1652600     
   53922410.0166555     
   53572223.6278494     
   53222375.4826130     
   52872861.6758364     
   52523677.9319680     
   52174819.6239488     
   51826281.7925675     
   51478059.1661652     
   51130146.1806172     
   50782536.9995140     
   50435225.5344744     
   50088205.4655148     
   49741470.2614033     
   49395013.1999262     
   49048827.3880000     
   48702905.7815569     
   48357241.2051394     
   48011826.3711348     
   47666653.8985907     
   47321716.3315443     
   46977006.1568121     
   46632515.8211778     
   46288237.7479283     
   45944164.3526832     
   45600288.0584727     
   45256601.3100165     
   44913096.5871634     
   44569766.4174524     
   44226603.3877604     
   43883600.1550091     
   43540749.4558998     
   43198044.1156576     
   42855477.0557642     
   42513041.3006670     
   42170729.9834536     
   41828536.3504894     
   41486453.7650117     
   41144475.7096952     
   40802595.7881864     
   40460807.7256283     
   40119105.3681914     
   39777482.6816342     
   39435933.7489199     
   39094452.7669248     
   38753034.0422711     
   38411671.9863287     
   38070361.1094303     
   37729096.0143480     
   37387871.3890888     
   37046681.9990600     
   36705522.6786711     
   36364388.3224315     
   36023273.8756126     
   35682174.3245421     
   35341084.6866016     
   35000000.0000000     
   70000000.0000000     
   69638472.9201531     
   69276961.1473534     
   68915479.9574358     
   68554044.5639127     
   68192670.0870707     
   67831371.5233729     
   67470163.7152705     
   67109061.3215184     
   66748078.7880898     
   66387230.3197832     
   66026529.8526100     
   65665991.0270482     
   65305627.1622397     
   64945451.2312102     
   64585475.8371802     
   64225713.1910352     
   63866175.0900162     
   63506872.8976825     
   63147817.5252005     
   62789019.4140009     
   62430488.5198422     
   62072234.2983148     
   61714265.6918114     
   61356591.1179878     
   60999218.4597244     
   60642155.0566064     
   60285407.6979175     
   59928982.6171567     
   59572885.4880634     
   59217121.4221446     
   58861694.9676876     
   58506610.1102346     
   58151870.2744968     
   57797478.3276740     
   57443436.5841497     
   57089746.8115207     
   56736410.2379196     
   56383427.5605818     
   56030798.9556148     
   55678524.0889069     
   55326602.1281302     
   54975031.7557719     
   54623811.1831372     
   54272938.1652601     
   53922410.0166556     
   53572223.6278494     
   53222375.4826130     
   52872861.6758364     
   52523677.9319681     
   52174819.6239489     
   51826281.7925675     
   51478059.1661653     
   51130146.1806173     
   50782536.9995140     
   50435225.5344744     
   50088205.4655148     
   49741470.2614033     
   49395013.1999262     
   49048827.3879999     
   48702905.7815570     
   48357241.2051395     
   48011826.3711349     
   47666653.8985907     
   47321716.3315443     
   46977006.1568122     
   46632515.8211779     
   46288237.7479283     
   45944164.3526832     
   45600288.0584727     
   45256601.3100165     
   44913096.5871634     
   44569766.4174524     
   44226603.3877604     
   43883600.1550091     
   43540749.4558998     
   43198044.1156576     
   42855477.0557642     
   42513041.3006670     
   42170729.9834537     
   41828536.3504893     
   41486453.7650117     
   41144475.7096953     
   40802595.7881863     
   40460807.7256283     
   40119105.3681914     
   39777482.6816342     
   39435933.7489199     
   39094452.7669248     
   38753034.0422711     
   38411671.9863287     
   38070361.1094303     
   37729096.0143479     
   37387871.3890888     
   37046681.9990599     
   36705522.6786711     
   36364388.3224315     
   36023273.8756125     
   35682174.3245421     
   35341084.6866015     
   35000000.0000000     
   70000000.0000000     
   69638472.9201531     
   69276961.1473534     
   68915479.9574357     
   68554044.5639127     
   68192670.0870707     
   67831371.5233728     
   67470163.7152706     
   67109061.3215183     
   66748078.7880898     
   66387230.3197831     
   66026529.8526100     
   65665991.0270481     
   65305627.1622397     
   64945451.2312103     
   64585475.8371803     
   64225713.1910351     
   63866175.0900162     
   63506872.8976825     
   63147817.5252003     
   62789019.4140009     
   62430488.5198421     
   62072234.2983148     
   61714265.6918115     
   61356591.1179877     
   60999218.4597244     
   60642155.0566065     
   60285407.6979175     
   59928982.6171568     
   59572885.4880633     
   59217121.4221447     
   58861694.9676877     
   58506610.1102346     
   58151870.2744969     
   57797478.3276740     
   57443436.5841498     
   57089746.8115208     
   56736410.2379196     
   56383427.5605818     
   56030798.9556148     
   55678524.0889069     
   55326602.1281302     
   54975031.7557719     
   54623811.1831373     
   54272938.1652601     
   53922410.0166556     
   53572223.6278494     
   53222375.4826129     
   52872861.6758365     
   52523677.9319682     
   52174819.6239489     
   51826281.7925676     
   51478059.1661654     
   51130146.1806173     
   50782536.9995140     
   50435225.5344744     
   50088205.4655148     
   49741470.2614034     
   49395013.1999262     
   49048827.3880000     
   48702905.7815569     
   48357241.2051395     
   48011826.3711350     
   47666653.8985907     
   47321716.3315443     
   46977006.1568122     
   46632515.8211779     
   46288237.7479283     
   45944164.3526833     
   45600288.0584727     
   45256601.3100165     
   44913096.5871635     
   44569766.4174524     
   44226603.3877605     
   43883600.1550091     
   43540749.4558998     
   43198044.1156577     
   42855477.0557642     
   42513041.3006670     
   42170729.9834538     
   41828536.3504893     
   41486453.7650117     
   41144475.7096952     
   40802595.7881864     
   40460807.7256283     
   40119105.3681914     
   39777482.6816341     
   39435933.7489199     
   39094452.7669248     
   38753034.0422710     
   38411671.9863287     
   38070361.1094302     
   37729096.0143479     
   37387871.3890887     
   37046681.9990598     
   36705522.6786711     
   36364388.3224315     
   36023273.8756126     
   35682174.3245420     
   35341084.6866015     
   35000000.0000000     
   70000000.0000000     
   69638472.9201529     
   69276961.1473533     
   68915479.9574358     
   68554044.5639127     
   68192670.0870707     
   67831371.5233729     
   67470163.7152707     
   67109061.3215183     
   66748078.7880897     
   66387230.3197831     
   66026529.8526100     
   65665991.0270480     
   65305627.1622397     
   64945451.2312102     
   64585475.8371803     
   64225713.1910351     
   63866175.0900162     
   63506872.8976824     
   63147817.5252004     
   62789019.4140008     
   62430488.5198422     
   62072234.2983148     
   61714265.6918115     
   61356591.1179876     
   60999218.4597245     
   60642155.0566066     
   60285407.6979176     
   59928982.6171568     
   59572885.4880633     
   59217121.4221447     
   58861694.9676878     
   58506610.1102346     
   58151870.2744969     
   57797478.3276740     
   57443436.5841498     
   57089746.8115208     
   56736410.2379196     
   56383427.5605819     
   56030798.9556148     
   55678524.0889069     
   55326602.1281302     
   54975031.7557720     
   54623811.1831373     
   54272938.1652600     
   53922410.0166556     
   53572223.6278494     
   53222375.4826129     
   52872861.6758364     
   52523677.9319682     
   52174819.6239489     
   51826281.7925676     
   51478059.1661653     
   51130146.1806173     
   50782536.9995140     
   50435225.5344745     
   50088205.4655148     
   49741470.2614033     
   49395013.1999262     
   49048827.3880001     
   48702905.7815569     
   48357241.2051395     
   48011826.3711351     
   47666653.8985907     
   47321716.3315443     
   46977006.1568122     
   46632515.8211780     
   46288237.7479283     
   45944164.3526833     
   45600288.0584728     
   45256601.3100166     
   44913096.5871635     
   44569766.4174524     
   44226603.3877605     
   43883600.1550090     
   43540749.4558999     
   43198044.1156577     
   42855477.0557642     
   42513041.3006670     
   42170729.9834539     
   41828536.3504893     
   41486453.7650117     
   41144475.7096952     
   40802595.7881864     
   40460807.7256282     
   40119105.3681914     
   39777482.6816342     
   39435933.7489199     
   39094452.7669247     
   38753034.0422710     
   38411671.9863288     
   38070361.1094302     
   37729096.0143479     
   37387871.3890886     
   37046681.9990598     
   36705522.6786711     
   36364388.3224315     
   36023273.8756125     
   35682174.3245421     
   35341084.6866015     
   35000000.0000000     
   70000000.0000000     
   69638472.9201528     
   69276961.1473532     
   68915479.9574358     
   68554044.5639127     
   68192670.0870708     
   67831371.5233729     
   67470163.7152707     
   67109061.3215184     
   66748078.7880897     
   66387230.3197831     
   66026529.8526099     
   65665991.0270481     
   65305627.1622397     
   64945451.2312101     
   64585475.8371803     
   64225713.1910350     
   63866175.0900162     
   63506872.8976824     
   63147817.5252004     
   62789019.4140007     
   62430488.5198423     
   62072234.2983149     
   61714265.6918116     
   61356591.1179876     
   60999218.4597245     
   60642155.0566065     
   60285407.6979176     
   59928982.6171569     
   59572885.4880633     
   59217121.4221447     
   58861694.9676878     
   58506610.1102346     
   58151870.2744969     
   57797478.3276740     
   57443436.5841498     
   57089746.8115208     
   56736410.2379196     
   56383427.5605820     
   56030798.9556147     
   55678524.0889069     
   55326602.1281302     
   54975031.7557721     
   54623811.1831373     
   54272938.1652600     
   53922410.0166556     
   53572223.6278495     
   53222375.4826129     
   52872861.6758364     
   52523677.9319682     
   52174819.6239490     
   51826281.7925676     
   51478059.1661654     
   51130146.1806173     
   50782536.9995140     
   50435225.5344745     
   50088205.4655147     
   49741470.2614033     
   49395013.1999262     
   49048827.3880001     
   48702905.7815570     
   48357241.2051395     
   48011826.3711351     
   47666653.8985907     
   47321716.3315443     
   46977006.1568122     
   46632515.8211780     
   46288237.7479284     
   45944164.3526834     
   45600288.0584728     
   45256601.3100166     
   44913096.5871636     
   44569766.4174524     
   44226603.3877604     
   43883600.1550090     
   43540749.4558999     
   43198044.1156578     
   42855477.0557642     
   42513041.3006670     
   42170729.9834539     
   41828536.3504893     
   41486453.7650118     
   41144475.7096952     
   40802595.7881864     
   40460807.7256282     
   40119105.3681914     
   39777482.6816341     
   39435933.7489199     
   39094452.7669247     
   38753034.0422710     
   38411671.9863287     
   38070361.1094302     
   37729096.0143479     
   37387871.3890886     
   37046681.9990598     
   36705522.6786711     
   36364388.3224315     
   36023273.8756124     
   35682174.3245420     
   35341084.6866015     
   35000000.0000000     
   70000000.0000000     
   69638472.9201527     
   69276961.1473531     
   68915479.9574358     
   68554044.5639128     
   68192670.0870708     
   67831371.5233730     
   67470163.7152709     
   67109061.3215184     
   66748078.7880896     
   66387230.3197831     
   66026529.8526099     
   65665991.0270481     
   65305627.1622397     
   64945451.2312101     
   64585475.8371802     
   64225713.1910351     
   63866175.0900162     
   63506872.8976825     
   63147817.5252004     
   62789019.4140007     
   62430488.5198424     
   62072234.2983150     
   61714265.6918115     
   61356591.1179875     
   60999218.4597244     
   60642155.0566065     
   60285407.6979177     
   59928982.6171569     
   59572885.4880633     
   59217121.4221446     
   58861694.9676877     
   58506610.1102346     
   58151870.2744969     
   57797478.3276740     
   57443436.5841498     
   57089746.8115207     
   56736410.2379196     
   56383427.5605820     
   56030798.9556147     
   55678524.0889069     
   55326602.1281302     
   54975031.7557721     
   54623811.1831373     
   54272938.1652600     
   53922410.0166556     
   53572223.6278494     
   53222375.4826129     
   52872861.6758364     
   52523677.9319682     
   52174819.6239490     
   51826281.7925676     
   51478059.1661654     
   51130146.1806174     
   50782536.9995141     
   50435225.5344745     
   50088205.4655147     
   49741470.2614033     
   49395013.1999262     
   49048827.3880002     
   48702905.7815570     
   48357241.2051395     
   48011826.3711352     
   47666653.8985908     
   47321716.3315444     
   46977006.1568122     
   46632515.8211781     
   46288237.7479285     
   45944164.3526833     
   45600288.0584729     
   45256601.3100167     
   44913096.5871636     
   44569766.4174523     
   44226603.3877604     
   43883600.1550090     
   43540749.4558999     
   43198044.1156578     
   42855477.0557642     
   42513041.3006670     
   42170729.9834539     
   41828536.3504893     
   41486453.7650117     
   41144475.7096952     
   40802595.7881864     
   40460807.7256282     
   40119105.3681914     
   39777482.6816342     
   39435933.7489200     
   39094452.7669247     
   38753034.0422710     
   38411671.9863287     
   38070361.1094302     
   37729096.0143479     
   37387871.3890886     
   37046681.9990599     
   36705522.6786711     
   36364388.3224314     
   36023273.8756124     
   35682174.3245420     
   35341084.6866015     
   35000000.0000000     
   70000000.0000000     
   69638472.9201529     
   69276961.1473530     
   68915479.9574358     
   68554044.5639129     
   68192670.0870707     
   67831371.5233730     
   67470163.7152709     
   67109061.3215184     
   66748078.7880897     
   66387230.3197830     
   66026529.8526099     
   65665991.0270481     
   65305627.1622397     
   64945451.2312101     
   64585475.8371802     
   64225713.1910350     
   63866175.0900162     
   63506872.8976825     
   63147817.5252004     
   62789019.4140007     
   62430488.5198424     
   62072234.2983150     
   61714265.6918115     
   61356591.1179875     
   60999218.4597244     
   60642155.0566065     
   60285407.6979177     
   59928982.6171569     
   59572885.4880633     
   59217121.4221446     
   58861694.9676877     
   58506610.1102346     
   58151870.2744970     
   57797478.3276740     
   57443436.5841498     
   57089746.8115207     
   56736410.2379196     
   56383427.5605820     
   56030798.9556147     
   55678524.0889070     
   55326602.1281302     
   54975031.7557721     
   54623811.1831373     
   54272938.1652601     
   53922410.0166555     
   53572223.6278495     
   53222375.4826130     
   52872861.6758364     
   52523677.9319683     
   52174819.6239490     
   51826281.7925676     
   51478059.1661654     
   51130146.1806174     
   50782536.9995141     
   50435225.5344745     
   50088205.4655147     
   49741470.2614033     
   49395013.1999262     
   49048827.3880002     
   48702905.7815571     
   48357241.2051395     
   48011826.3711352     
   47666653.8985908     
   47321716.3315445     
   46977006.1568122     
   46632515.8211780     
   46288237.7479286     
   45944164.3526833     
   45600288.0584729     
   45256601.3100167     
   44913096.5871636     
   44569766.4174524     
   44226603.3877604     
   43883600.1550091     
   43540749.4559000     
   43198044.1156579     
   42855477.0557643     
   42513041.3006670     
   42170729.9834539     
   41828536.3504893     
   41486453.7650117     
   41144475.7096951     
   40802595.7881864     
   40460807.7256282     
   40119105.3681915     
   39777482.6816342     
   39435933.7489200     
   39094452.7669248     
   38753034.0422710     
   38411671.9863287     
   38070361.1094302     
   37729096.0143479     
   37387871.3890886     
   37046681.9990599     
   36705522.6786711     
   36364388.3224314     
   36023273.8756125     
   35682174.3245420     
   35341084.6866015     
   35000000.0000000     
   70000000.0000000     
   69638472.9201529     
   69276961.1473530     
   68915479.9574358     
   68554044.5639129     
   68192670.0870707     
   67831371.5233730     
   67470163.7152709     
   67109061.3215184     
   66748078.7880896     
   66387230.3197830     
   66026529.8526098     
   65665991.0270481     
   65305627.1622397     
   64945451.2312101     
   64585475.8371801     
   64225713.1910351     
   63866175.0900161     
   63506872.8976825     
   63147817.5252004     
   62789019.4140006     
   62430488.5198423     
   62072234.2983149     
   61714265.6918116     
   61356591.1179875     
   60999218.4597244     
   60642155.0566065     
   60285407.6979177     
   59928982.6171568     
   59572885.4880634     
   59217121.4221446     
   58861694.9676877     
   58506610.1102346     
   58151870.2744970     
   57797478.3276739     
   57443436.5841498     
   57089746.8115208     
   56736410.2379197     
   56383427.5605820     
   56030798.9556147     
   55678524.0889070     
   55326602.1281302     
   54975031.7557721     
   54623811.1831373     
   54272938.1652600     
   53922410.0166556     
   53572223.6278495     
   53222375.4826130     
   52872861.6758365     
   52523677.9319683     
   52174819.6239491     
   51826281.7925676     
   51478059.1661655     
   51130146.1806174     
   50782536.9995141     
   50435225.5344746     
   50088205.4655147     
   49741470.2614033     
   49395013.1999263     
   49048827.3880002     
   48702905.7815571     
   48357241.2051395     
   48011826.3711352     
   47666653.8985908     
   47321716.3315444     
   46977006.1568123     
   46632515.8211780     
   46288237.7479286     
   45944164.3526833     
   45600288.0584728     
   45256601.3100167     
   44913096.5871636     
   44569766.4174524     
   44226603.3877604     
   43883600.1550090     
   43540749.4559000     
   43198044.1156579     
   42855477.0557643     
   42513041.3006670     
   42170729.9834539     
   41828536.3504893     
   41486453.7650117     
   41144475.7096952     
   40802595.7881864     
   40460807.7256283     
   40119105.3681915     
   39777482.6816342     
   39435933.7489200     
   39094452.7669247     
   38753034.0422710     
   38411671.9863288     
   38070361.1094302     
   37729096.0143478     
   37387871.3890886     
   37046681.9990599     
   36705522.6786711     
   36364388.3224314     
   36023273.8756125     
   35682174.3245420     
   35341084.6866015     
   35000000.0000000     
VECTORS u double 
    0.00000E+00         0.00000E+00         0.00000E+00
    0.00000E+00         0.00000E+00         0.00000E+00
    0.00000E+00         0.00000E+00         0.00000E+00
    0.00000E+00         0.00000E+00         0.00000E+00
    0.00000E+00         0.00000E+00         0.00000E+00
    0.00000E+00         0.00000E+00         0.00000E+00
    0.00000E+00         0.00000E+00         0.00000E+00
    0.00000E+00         0.00000E+00         0.00000E+00
    0.00000E+00         0.00000E+00         0.00000E+00
    0.00000E+00         0.00000E+00         0.00000E+00
    0.00000E+00         0.00000E+00         0.00000E+00
    0.00000E+00         0.00000E+00         0.00000E+00
    0.00000E+00         0.00000E+00         0.00000E+00
    0.00000E+00         0.00000E+00         0.00000E+00
    0.00000E+00         0.00000E+00         0.00000E+00
    0.00000E+00         0.00000E+00         0.00000E+00
    0.00000E+00         0.00000E+00         0.00000E+00
    0.00000E+00         0.00000E+00         0.00000E+00
    0.00000E+00         0.00000E+00         0.00000E+00
    0.00000E+00         0.00000E+00         0.00000E+00
    0.00000E+00         0.00000E+00         0.00000E+00
    0.00000E+00         0.00000E+00         0.00000E+00
    0.00000E+00         0.00000E+00         0.00000E+00
    0.00000E+00         0.00000E+00         0.00000E+00
    0.00000E+00         0.00000E+00         0.00000E+00
    0.00000E+00         0.00000E+00         0.00000E+00
    0.00000E+00         0.00000E+00         0.00000E+00
    0.00000E+00         0.00000E+00         0.00000E+00
    0.00000E+00         0.00000E+00         0.00000E+00
    0.00000E+00         0.00000E+00         0.00000E+00
    0.00000E+00         0.00000E+00         0.00000E+00
    0.00000E+00         0.00000E+00         0.00000E+00
    0.00000E+00         0.00000E+00         0.00000E+00
    0.00000E+00         0.00000E+00         0.00000E+00
    0.00000E+00         0.00000E+00         0.00000E+00
    0.00000E+00         0.00000E+00         0.00000E+00
    0.00000E+00         0.00000E+00         0.00000E+00
    0.00000E+00         0.00000E+00         0.00000E+00
    0.00000E+00         0.00000E+00         0.00000E+00
    0.00000E+00         0.00000E+00         0.00000E+00
    0.00000E+00         0.00000E+00         0.00000E+00
    0.00000E+00         0.00000E+00         0.00000E+00
    0.00000E+00         0.00000E+00         0.00000E+00
    0.00000E+00         0.00000E+00         0.00000E+00
    0.00000E+00         0.00000E+00         0.00000E+00
    0.00000E+00         0.00000E+00         0.00000E+00
    0.00000E+00         0.00000E+00         0.00000E+00
    0.00000E+00         0.00000E+00         0.00000E+00
    0.00000E+00         0.00000E+00         0.00000E+00
    0.00000E+00         0.00000E+00         0.00000E+00
    0.00000E+00         0.00000E+00         0.00000E+00
    0.00000E+00         0.00000E+00         0.00000E+00
    0.00000E+00         0.00000E+00         0.00000E+00
    0.00000E+00         0.00000E+00         0.00000E+00
    0.00000E+00         0.00000E+00         0.00000E+00
    0.00000E+00         0.00000E+00         0.00000E+00
    0.00000E+00         0.00000E+00         0.00000E+00
    0.00000E+00         0.00000E+00         0.00000E+00
    0.00000E+00         0.00000E+00         0.00000E+00
    0.00000E+00         0.00000E+00         0.00000E+00
    0.00000E+00         0.00000E+00         0.00000E+00
    0.00000E+00         0.00000E+00         0.00000E+00
    0.00000E+00         0.00000E+00         0.00000E+00
    0.00000E+00         0.00000E+00         0.00000E+00
    0.00000E+00         0.00000E+00         0.00000E+00
    0.00000E+00         0.00000E+00         0.00000E+00
    0.00000E+00         0.00000E+00         0.00000E+00
    0.00000E+00         0.00000E+00         0.00000E+00
    0.00000E+00         0.00000E+00         0.00000E+00
    0.00000E+00         0.00000E+00         0.00000E+00
    0.00000E+00         0.00000E+00         0.00000E+00
    0.00000E+00         0.00000E+00         0.00000E+00
    0.00000E+00         0.00000E+00         0.00000E+00
    0.00000E+00         0.00000E+00         0.00000E+00
    0.00000E+00         0.00000E+00         0.00000E+00
    0.00000E+00         0.00000E+00         0.00000E+00
    0.00000E+00         0.00000E+00         0.00000E+00
    0.00000E+00         0.00000E+00         0.00000E+00
    0.00000E+00         0.00000E+00         0.00000E+00
    0.00000E+00         0.00000E+00         0.00000E+00
    0.00000E+00         0.00000E+00         0.00000E+00
    0.00000E+00         0.00000E+00         0.00000E+00
    0.00000E+00         0.00000E+00         0.00000E+00
    0.00000E+00         0.00000E+00         0.00000E+00
    0.00000E+00         0.00000E+00         0.00000E+00
    0.00000E+00         0.00000E+00         0.00000E+00
    0.00000E+00         0.00000E+00         0.00000E+00
    0.00000E+00         0.00000E+00         0.00000E+00
    0.00000E+00         0.00000E+00         0.00000E+00
    0.00000E+00         0.00000E+00         0.00000E+00
    0.00000E+00         0.00000E+00         0.00000E+00
    0.00000E+00         0.00000E+00         0.00000E+00
    0.00000E+00         0.00000E+00         0.00000E+00
    0.00000E+00         0.00000E+00         0.00000E+00
    0.00000E+00         0.00000E+00         0.00000E+00
    0.00000E+00         0.00000E+00         0.00000E+00
    0.00000E+00         0.00000E+00         0.00000E+00
    0.00000E+00         0.00000E+00         0.00000E+00
    0.00000E+00         0.00000E+00         0.00000E+00
    0.00000E+00         0.00000E+00         0.00000E+00
    0.00000E+00         0.00000E+00         0.00000E+00
    0.00000E+00         0.60482E-03         0.00000E+00
    0.84644E-04         0.59518E-03         0.00000E+00
    0.13516E-03         0.57324E-03         0.00000E+00
    0.17508E-03         0.54551E-03         0.00000E+00
    0.20729E-03         0.51259E-03         0.00000E+00
    0.23361E-03         0.47584E-03         0.00000E+00
    0.25458E-03         0.43589E-03         0.00000E+00
    0.27013E-03         0.39311E-03         0.00000E+00
    0.27854E-03         0.34775E-03         0.00000E+00
    0.27458E-03         0.29619E-03         0.00000E+00
    0.27843E-03         0.24726E-03         0.00000E+00
    0.29188E-03         0.19817E-03         0.00000E+00
    0.30856E-03         0.14786E-03         0.00000E+00
    0.32676E-03         0.97349E-04         0.00000E+00
    0.34522E-03         0.47059E-04         0.00000E+00
    0.36319E-03        -0.27091E-05         0.00000E+00
    0.38023E-03        -0.51805E-04         0.00000E+00
    0.39602E-03        -0.10016E-03         0.00000E+00
    0.41039E-03        -0.14775E-03         0.00000E+00
    0.42322E-03        -0.19461E-03         0.00000E+00
    0.43445E-03        -0.24079E-03         0.00000E+00
    0.44404E-03        -0.28637E-03         0.00000E+00
    0.45200E-03        -0.33140E-03         0.00000E+00
    0.45829E-03        -0.37595E-03         0.00000E+00
    0.46286E-03        -0.42004E-03         0.00000E+00
    0.46552E-03        -0.46355E-03         0.00000E+00
    0.46494E-03        -0.50639E-03         0.00000E+00
    0.46239E-03        -0.54812E-03         0.00000E+00
    0.46315E-03        -0.59098E-03         0.00000E+00
    0.46474E-03        -0.63398E-03         0.00000E+00
    0.46654E-03        -0.67702E-03         0.00000E+00
    0.46834E-03        -0.72004E-03         0.00000E+00
    0.47001E-03        -0.76300E-03         0.00000E+00
    0.47145E-03        -0.80592E-03         0.00000E+00
    0.47262E-03        -0.84880E-03         0.00000E+00
    0.47345E-03        -0.89164E-03         0.00000E+00
    0.47389E-03        -0.93446E-03         0.00000E+00
    0.47388E-03        -0.97726E-03         0.00000E+00
    0.47334E-03        -0.10201E-02         0.00000E+00
    0.47207E-03        -0.10628E-02         0.00000E+00
    0.46952E-03        -0.11055E-02         0.00000E+00
    0.46557E-03        -0.11473E-02         0.00000E+00
    0.46339E-03        -0.11900E-02         0.00000E+00
    0.46229E-03        -0.12331E-02         0.00000E+00
    0.46162E-03        -0.12765E-02         0.00000E+00
    0.46117E-03        -0.13200E-02         0.00000E+00
    0.46081E-03        -0.13637E-02         0.00000E+00
    0.46043E-03        -0.14076E-02         0.00000E+00
    0.45989E-03        -0.14515E-02         0.00000E+00
    0.45866E-03        -0.14954E-02         0.00000E+00
    0.45729E-03        -0.15392E-02         0.00000E+00
    0.45719E-03        -0.15832E-02         0.00000E+00
    0.45757E-03        -0.16275E-02         0.00000E+00
    0.45829E-03        -0.16719E-02         0.00000E+00
    0.45926E-03        -0.17164E-02         0.00000E+00
    0.46039E-03        -0.17611E-02         0.00000E+00
    0.46162E-03        -0.18058E-02         0.00000E+00
    0.46281E-03        -0.18507E-02         0.00000E+00
    0.46385E-03        -0.18952E-02         0.00000E+00
    0.46547E-03        -0.19400E-02         0.00000E+00
    0.46756E-03        -0.19849E-02         0.00000E+00
    0.46992E-03        -0.20298E-02         0.00000E+00
    0.47252E-03        -0.20748E-02         0.00000E+00
    0.47530E-03        -0.21199E-02         0.00000E+00
    0.47823E-03        -0.21651E-02         0.00000E+00
    0.48127E-03        -0.22102E-02         0.00000E+00
    0.48439E-03        -0.22554E-02         0.00000E+00
    0.48757E-03        -0.23006E-02         0.00000E+00
    0.49076E-03        -0.23459E-02         0.00000E+00
    0.49395E-03        -0.23912E-02         0.00000E+00
    0.49708E-03        -0.24365E-02         0.00000E+00
    0.50011E-03        -0.24818E-02         0.00000E+00
    0.50301E-03        -0.25272E-02         0.00000E+00
    0.50571E-03        -0.25727E-02         0.00000E+00
    0.50816E-03        -0.26183E-02         0.00000E+00
    0.51029E-03        -0.26639E-02         0.00000E+00
    0.51202E-03        -0.27097E-02         0.00000E+00
    0.51326E-03        -0.27556E-02         0.00000E+00
    0.51392E-03        -0.28018E-02         0.00000E+00
    0.51389E-03        -0.28481E-02         0.00000E+00
    0.51307E-03        -0.28947E-02         0.00000E+00
    0.51133E-03        -0.29416E-02         0.00000E+00
    0.50855E-03        -0.29889E-02         0.00000E+00
    0.50461E-03        -0.30365E-02         0.00000E+00
    0.49939E-03        -0.30847E-02         0.00000E+00
    0.49279E-03        -0.31333E-02         0.00000E+00
    0.48472E-03        -0.31823E-02         0.00000E+00
    0.47510E-03        -0.32319E-02         0.00000E+00
    0.46388E-03        -0.32819E-02         0.00000E+00
    0.45104E-03        -0.33323E-02         0.00000E+00
    0.43655E-03        -0.33830E-02         0.00000E+00
    0.42038E-03        -0.34337E-02         0.00000E+00
    0.40242E-03        -0.34842E-02         0.00000E+00
    0.38240E-03        -0.35343E-02         0.00000E+00
    0.35983E-03        -0.35835E-02         0.00000E+00
    0.33371E-03        -0.36317E-02         0.00000E+00
    0.30236E-03        -0.36781E-02         0.00000E+00
    0.26318E-03        -0.37235E-02         0.00000E+00
    0.21055E-03        -0.37647E-02         0.00000E+00
    0.13946E-03        -0.38080E-02         0.00000E+00
    0.00000E+00        -0.38329E-02         0.00000E+00
    0.00000E+00         0.12012E-02         0.00000E+00
    0.16059E-03         0.11840E-02         0.00000E+00
    0.26395E-03         0.11423E-02         0.00000E+00
    0.34437E-03         0.10875E-02         0.00000E+00
    0.40963E-03         0.10223E-02         0.00000E+00
    0.46292E-03         0.94934E-03         0.00000E+00
    0.50547E-03         0.86997E-03         0.00000E+00
    0.53713E-03         0.78501E-03         0.00000E+00
    0.55504E-03         0.69501E-03         0.00000E+00
    0.55224E-03         0.59447E-03         0.00000E+00
    0.56118E-03         0.49574E-03         0.00000E+00
    0.58750E-03         0.39696E-03         0.00000E+00
    0.62041E-03         0.29613E-03         0.00000E+00
    0.65617E-03         0.19499E-03         0.00000E+00
    0.69241E-03         0.94406E-04         0.00000E+00
    0.72770E-03        -0.50843E-05         0.00000E+00
    0.76114E-03        -0.10319E-03         0.00000E+00
    0.79213E-03        -0.19979E-03         0.00000E+00
    0.82033E-03        -0.29485E-03         0.00000E+00
    0.84550E-03        -0.38845E-03         0.00000E+00
    0.86753E-03        -0.48069E-03         0.00000E+00
    0.88635E-03        -0.57171E-03         0.00000E+00
    0.90194E-03        -0.66165E-03         0.00000E+00
    0.91424E-03        -0.75063E-03         0.00000E+00
    0.92314E-03        -0.83867E-03         0.00000E+00
    0.92822E-03        -0.92557E-03         0.00000E+00
    0.92722E-03        -0.10108E-02         0.00000E+00
    0.92360E-03        -0.10948E-02         0.00000E+00
    0.92518E-03        -0.11807E-02         0.00000E+00
    0.92828E-03        -0.12667E-02         0.00000E+00
    0.93179E-03        -0.13528E-02         0.00000E+00
    0.93528E-03        -0.14388E-02         0.00000E+00
    0.93852E-03        -0.15248E-02         0.00000E+00
    0.94133E-03        -0.16106E-02         0.00000E+00
    0.94358E-03        -0.16964E-02         0.00000E+00
    0.94518E-03        -0.17821E-02         0.00000E+00
    0.94600E-03        -0.18677E-02         0.00000E+00
    0.94594E-03        -0.19533E-02         0.00000E+00
    0.94481E-03        -0.20388E-02         0.00000E+00
    0.94225E-03        -0.21243E-02         0.00000E+00
    0.93720E-03        -0.22095E-02         0.00000E+00
    0.93012E-03        -0.22934E-02         0.00000E+00
    0.92603E-03        -0.23790E-02         0.00000E+00
    0.92386E-03        -0.24653E-02         0.00000E+00
    0.92252E-03        -0.25520E-02         0.00000E+00
    0.92162E-03        -0.26391E-02         0.00000E+00
    0.92090E-03        -0.27266E-02         0.00000E+00
    0.92013E-03        -0.28143E-02         0.00000E+00
    0.91902E-03        -0.29022E-02         0.00000E+00
    0.91668E-03        -0.29899E-02         0.00000E+00
    0.91437E-03        -0.30776E-02         0.00000E+00
    0.91416E-03        -0.31658E-02         0.00000E+00
    0.91492E-03        -0.32543E-02         0.00000E+00
    0.91634E-03        -0.33432E-02         0.00000E+00
    0.91824E-03        -0.34323E-02         0.00000E+00
    0.92048E-03        -0.35217E-02         0.00000E+00
    0.92290E-03        -0.36112E-02         0.00000E+00
    0.92524E-03        -0.37008E-02         0.00000E+00
    0.92745E-03        -0.37900E-02         0.00000E+00
    0.93071E-03        -0.38796E-02         0.00000E+00
    0.93483E-03        -0.39694E-02         0.00000E+00
    0.93952E-03        -0.40594E-02         0.00000E+00
    0.94465E-03        -0.41494E-02         0.00000E+00
    0.95014E-03        -0.42396E-02         0.00000E+00
    0.95592E-03        -0.43299E-02         0.00000E+00
    0.96192E-03        -0.44202E-02         0.00000E+00
    0.96809E-03        -0.45106E-02         0.00000E+00
    0.97435E-03        -0.46011E-02         0.00000E+00
    0.98066E-03        -0.46916E-02         0.00000E+00
    0.98694E-03        -0.47821E-02         0.00000E+00
    0.99311E-03        -0.48727E-02         0.00000E+00
    0.99909E-03        -0.49634E-02         0.00000E+00
    0.10048E-02        -0.50542E-02         0.00000E+00
    0.10101E-02        -0.51452E-02         0.00000E+00
    0.10149E-02        -0.52362E-02         0.00000E+00
    0.10191E-02        -0.53275E-02         0.00000E+00
    0.10224E-02        -0.54190E-02         0.00000E+00
    0.10248E-02        -0.55107E-02         0.00000E+00
    0.10261E-02        -0.56029E-02         0.00000E+00
    0.10259E-02        -0.56954E-02         0.00000E+00
    0.10242E-02        -0.57885E-02         0.00000E+00
    0.10207E-02        -0.58822E-02         0.00000E+00
    0.10151E-02        -0.59765E-02         0.00000E+00
    0.10071E-02        -0.60717E-02         0.00000E+00
    0.99666E-03        -0.61677E-02         0.00000E+00
    0.98342E-03        -0.62647E-02         0.00000E+00
    0.96721E-03        -0.63626E-02         0.00000E+00
    0.94788E-03        -0.64615E-02         0.00000E+00
    0.92533E-03        -0.65613E-02         0.00000E+00
    0.89947E-03        -0.66619E-02         0.00000E+00
    0.87024E-03        -0.67629E-02         0.00000E+00
    0.83754E-03        -0.68640E-02         0.00000E+00
    0.80114E-03        -0.69648E-02         0.00000E+00
    0.76050E-03        -0.70646E-02         0.00000E+00
    0.71460E-03        -0.71627E-02         0.00000E+00
    0.66142E-03        -0.72583E-02         0.00000E+00
    0.59783E-03        -0.73505E-02         0.00000E+00
    0.51794E-03        -0.74387E-02         0.00000E+00
    0.41277E-03        -0.75204E-02         0.00000E+00
    0.26596E-03        -0.75991E-02         0.00000E+00
    0.00000E+00        -0.76393E-02         0.00000E+00
    0.00000E+00         0.17905E-02         0.00000E+00
    0.23010E-03         0.17669E-02         0.00000E+00
    0.38672E-03         0.17071E-02         0.00000E+00
    0.50840E-03         0.16259E-02         0.00000E+00
    0.60737E-03         0.15292E-02         0.00000E+00
    0.68826E-03         0.14205E-02         0.00000E+00
    0.75297E-03         0.13022E-02         0.00000E+00
    0.80139E-03         0.11757E-02         0.00000E+00
    0.83008E-03         0.10417E-02         0.00000E+00
    0.83214E-03         0.89406E-03         0.00000E+00
    0.84783E-03         0.74529E-03         0.00000E+00
    0.88681E-03         0.59625E-03         0.00000E+00
    0.93555E-03         0.44470E-03         0.00000E+00
    0.98829E-03         0.29286E-03         0.00000E+00
    0.10417E-02         0.14199E-03         0.00000E+00
    0.10936E-02        -0.71641E-05         0.00000E+00
    0.11429E-02        -0.15419E-03         0.00000E+00
    0.11885E-02        -0.29892E-03         0.00000E+00
    0.12300E-02        -0.44133E-03         0.00000E+00
    0.12670E-02        -0.58154E-03         0.00000E+00
    0.12994E-02        -0.71971E-03         0.00000E+00
    0.13271E-02        -0.85605E-03         0.00000E+00
    0.13500E-02        -0.99078E-03         0.00000E+00
    0.13680E-02        -0.11241E-02         0.00000E+00
    0.13810E-02        -0.12559E-02         0.00000E+00
    0.13883E-02        -0.13861E-02         0.00000E+00
    0.13871E-02        -0.15133E-02         0.00000E+00
    0.13836E-02        -0.16401E-02         0.00000E+00
    0.13861E-02        -0.17691E-02         0.00000E+00
    0.13906E-02        -0.18982E-02         0.00000E+00
    0.13957E-02        -0.20274E-02         0.00000E+00
    0.14009E-02        -0.21564E-02         0.00000E+00
    0.14056E-02        -0.22854E-02         0.00000E+00
    0.14097E-02        -0.24141E-02         0.00000E+00
    0.14129E-02        -0.25427E-02         0.00000E+00
    0.14152E-02        -0.26713E-02         0.00000E+00
    0.14164E-02        -0.27997E-02         0.00000E+00
    0.14162E-02        -0.29281E-02         0.00000E+00
    0.14145E-02        -0.30564E-02         0.00000E+00
    0.14106E-02        -0.31845E-02         0.00000E+00
    0.14032E-02        -0.33121E-02         0.00000E+00
    0.13936E-02        -0.34384E-02         0.00000E+00
    0.13879E-02        -0.35669E-02         0.00000E+00
    0.13847E-02        -0.36964E-02         0.00000E+00
    0.13827E-02        -0.38266E-02         0.00000E+00
    0.13814E-02        -0.39574E-02         0.00000E+00
    0.13803E-02        -0.40886E-02         0.00000E+00
    0.13791E-02        -0.42202E-02         0.00000E+00
    0.13774E-02        -0.43521E-02         0.00000E+00
    0.13741E-02        -0.44836E-02         0.00000E+00
    0.13712E-02        -0.46153E-02         0.00000E+00
    0.13709E-02        -0.47477E-02         0.00000E+00
    0.13720E-02        -0.48805E-02         0.00000E+00
    0.13741E-02        -0.50139E-02         0.00000E+00
    0.13770E-02        -0.51476E-02         0.00000E+00
    0.13803E-02        -0.52817E-02         0.00000E+00
    0.13838E-02        -0.54160E-02         0.00000E+00
    0.13873E-02        -0.55504E-02         0.00000E+00
    0.13908E-02        -0.56844E-02         0.00000E+00
    0.13957E-02        -0.58189E-02         0.00000E+00
    0.14018E-02        -0.59536E-02         0.00000E+00
    0.14088E-02        -0.60886E-02         0.00000E+00
    0.14164E-02        -0.62238E-02         0.00000E+00
    0.14245E-02        -0.63591E-02         0.00000E+00
    0.14331E-02        -0.64945E-02         0.00000E+00
    0.14420E-02        -0.66300E-02         0.00000E+00
    0.14511E-02        -0.67656E-02         0.00000E+00
    0.14604E-02        -0.69013E-02         0.00000E+00
    0.14697E-02        -0.70371E-02         0.00000E+00
    0.14790E-02        -0.71729E-02         0.00000E+00
    0.14881E-02        -0.73088E-02         0.00000E+00
    0.14969E-02        -0.74448E-02         0.00000E+00
    0.15053E-02        -0.75810E-02         0.00000E+00
    0.15132E-02        -0.77173E-02         0.00000E+00
    0.15202E-02        -0.78538E-02         0.00000E+00
    0.15263E-02        -0.79906E-02         0.00000E+00
    0.15313E-02        -0.81278E-02         0.00000E+00
    0.15347E-02        -0.82653E-02         0.00000E+00
    0.15365E-02        -0.84034E-02         0.00000E+00
    0.15362E-02        -0.85420E-02         0.00000E+00
    0.15335E-02        -0.86814E-02         0.00000E+00
    0.15281E-02        -0.88217E-02         0.00000E+00
    0.15196E-02        -0.89630E-02         0.00000E+00
    0.15077E-02        -0.91054E-02         0.00000E+00
    0.14919E-02        -0.92492E-02         0.00000E+00
    0.14719E-02        -0.93943E-02         0.00000E+00
    0.14475E-02        -0.95408E-02         0.00000E+00
    0.14184E-02        -0.96888E-02         0.00000E+00
    0.13844E-02        -0.98381E-02         0.00000E+00
    0.13453E-02        -0.99886E-02         0.00000E+00
    0.13011E-02        -0.10140E-01         0.00000E+00
    0.12515E-02        -0.10291E-01         0.00000E+00
    0.11962E-02        -0.10442E-01         0.00000E+00
    0.11344E-02        -0.10591E-01         0.00000E+00
    0.10644E-02        -0.10737E-01         0.00000E+00
    0.98334E-03        -0.10880E-01         0.00000E+00
    0.88641E-03        -0.11017E-01         0.00000E+00
    0.76491E-03        -0.11146E-01         0.00000E+00
    0.60626E-03        -0.11266E-01         0.00000E+00
    0.38161E-03        -0.11373E-01         0.00000E+00
    0.00000E+00        -0.11424E-01         0.00000E+00
    0.00000E+00         0.23738E-02         0.00000E+00
    0.29467E-03         0.23444E-02         0.00000E+00
    0.50407E-03         0.22677E-02         0.00000E+00
    0.66762E-03         0.21610E-02         0.00000E+00
    0.80088E-03         0.20332E-02         0.00000E+00
    0.90995E-03         0.18894E-02         0.00000E+00
    0.99741E-03         0.17327E-02         0.00000E+00
    0.10633E-02         0.15650E-02         0.00000E+00
    0.11040E-02         0.13876E-02         0.00000E+00
    0.11138E-02         0.11944E-02         0.00000E+00
    0.11380E-02         0.99564E-03         0.00000E+00
    0.11898E-02         0.79591E-03         0.00000E+00
    0.12540E-02         0.59348E-03         0.00000E+00
    0.13232E-02         0.39088E-03         0.00000E+00
    0.13931E-02         0.18975E-03         0.00000E+00
    0.14611E-02        -0.89890E-05         0.00000E+00
    0.15255E-02        -0.20483E-03         0.00000E+00
    0.15852E-02        -0.39757E-03         0.00000E+00
    0.16394E-02        -0.58721E-03         0.00000E+00
    0.16878E-02        -0.77389E-03         0.00000E+00
    0.17302E-02        -0.95785E-03         0.00000E+00
    0.17663E-02        -0.11394E-02         0.00000E+00
    0.17962E-02        -0.13188E-02         0.00000E+00
    0.18198E-02        -0.14962E-02         0.00000E+00
    0.18366E-02        -0.16718E-02         0.00000E+00
    0.18460E-02        -0.18450E-02         0.00000E+00
    0.18450E-02        -0.20143E-02         0.00000E+00
    0.18423E-02        -0.21841E-02         0.00000E+00
    0.18458E-02        -0.23562E-02         0.00000E+00
    0.18518E-02        -0.25284E-02         0.00000E+00
    0.18584E-02        -0.27007E-02         0.00000E+00
    0.18651E-02        -0.28728E-02         0.00000E+00
    0.18712E-02        -0.30448E-02         0.00000E+00
    0.18765E-02        -0.32164E-02         0.00000E+00
    0.18807E-02        -0.33879E-02         0.00000E+00
    0.18837E-02        -0.35593E-02         0.00000E+00
    0.18851E-02        -0.37305E-02         0.00000E+00
    0.18848E-02        -0.39017E-02         0.00000E+00
    0.18824E-02        -0.40727E-02         0.00000E+00
    0.18773E-02        -0.42434E-02         0.00000E+00
    0.18677E-02        -0.44134E-02         0.00000E+00
    0.18560E-02        -0.45823E-02         0.00000E+00
    0.18490E-02        -0.47538E-02         0.00000E+00
    0.18448E-02        -0.49267E-02         0.00000E+00
    0.18422E-02        -0.51004E-02         0.00000E+00
    0.18404E-02        -0.52748E-02         0.00000E+00
    0.18390E-02        -0.54498E-02         0.00000E+00
    0.18374E-02        -0.56253E-02         0.00000E+00
    0.18352E-02        -0.58010E-02         0.00000E+00
    0.18311E-02        -0.59765E-02         0.00000E+00
    0.18277E-02        -0.61523E-02         0.00000E+00
    0.18274E-02        -0.63289E-02         0.00000E+00
    0.18289E-02        -0.65062E-02         0.00000E+00
    0.18317E-02        -0.66841E-02         0.00000E+00
    0.18354E-02        -0.68625E-02         0.00000E+00
    0.18398E-02        -0.70413E-02         0.00000E+00
    0.18445E-02        -0.72204E-02         0.00000E+00
    0.18491E-02        -0.73996E-02         0.00000E+00
    0.18539E-02        -0.75784E-02         0.00000E+00
    0.18605E-02        -0.77578E-02         0.00000E+00
    0.18685E-02        -0.79375E-02         0.00000E+00
    0.18777E-02        -0.81176E-02         0.00000E+00
    0.18877E-02        -0.82978E-02         0.00000E+00
    0.18984E-02        -0.84783E-02         0.00000E+00
    0.19097E-02        -0.86589E-02         0.00000E+00
    0.19214E-02        -0.88396E-02         0.00000E+00
    0.19334E-02        -0.90204E-02         0.00000E+00
    0.19456E-02        -0.92014E-02         0.00000E+00
    0.19579E-02        -0.93824E-02         0.00000E+00
    0.19701E-02        -0.95635E-02         0.00000E+00
    0.19820E-02        -0.97447E-02         0.00000E+00
    0.19936E-02        -0.99260E-02         0.00000E+00
    0.20047E-02        -0.10107E-01         0.00000E+00
    0.20149E-02        -0.10289E-01         0.00000E+00
    0.20242E-02        -0.10471E-01         0.00000E+00
    0.20321E-02        -0.10653E-01         0.00000E+00
    0.20385E-02        -0.10836E-01         0.00000E+00
    0.20430E-02        -0.11019E-01         0.00000E+00
    0.20452E-02        -0.11203E-01         0.00000E+00
    0.20446E-02        -0.11388E-01         0.00000E+00
    0.20409E-02        -0.11573E-01         0.00000E+00
    0.20336E-02        -0.11760E-01         0.00000E+00
    0.20222E-02        -0.11948E-01         0.00000E+00
    0.20062E-02        -0.12138E-01         0.00000E+00
    0.19850E-02        -0.12329E-01         0.00000E+00
    0.19583E-02        -0.12522E-01         0.00000E+00
    0.19257E-02        -0.12717E-01         0.00000E+00
    0.18867E-02        -0.12914E-01         0.00000E+00
    0.18411E-02        -0.13112E-01         0.00000E+00
    0.17887E-02        -0.13312E-01         0.00000E+00
    0.17293E-02        -0.13514E-01         0.00000E+00
    0.16625E-02        -0.13715E-01         0.00000E+00
    0.15878E-02        -0.13915E-01         0.00000E+00
    0.15042E-02        -0.14113E-01         0.00000E+00
    0.14094E-02        -0.14308E-01         0.00000E+00
    0.12996E-02        -0.14496E-01         0.00000E+00
    0.11683E-02        -0.14676E-01         0.00000E+00
    0.10044E-02        -0.14846E-01         0.00000E+00
    0.79102E-03        -0.15001E-01         0.00000E+00
    0.48816E-03        -0.15132E-01         0.00000E+00
    0.00000E+00        -0.15189E-01         0.00000E+00
    0.00000E+00         0.29519E-02         0.00000E+00
    0.35538E-03         0.29171E-02         0.00000E+00
    0.61667E-03         0.28242E-02         0.00000E+00
    0.82247E-03         0.26927E-02         0.00000E+00
    0.99052E-03         0.25344E-02         0.00000E+00
    0.11283E-02         0.23559E-02         0.00000E+00
    0.12391E-02         0.21613E-02         0.00000E+00
    0.13231E-02         0.19531E-02         0.00000E+00
    0.13772E-02         0.17328E-02         0.00000E+00
    0.13970E-02         0.14950E-02         0.00000E+00
    0.14314E-02         0.12465E-02         0.00000E+00
    0.14962E-02         0.99579E-03         0.00000E+00
    0.15757E-02         0.74234E-03         0.00000E+00
    0.16609E-02         0.48898E-03         0.00000E+00
    0.17468E-02         0.23764E-03         0.00000E+00
    0.18302E-02        -0.10601E-04         0.00000E+00
    0.19092E-02        -0.25515E-03         0.00000E+00
    0.19823E-02        -0.49578E-03         0.00000E+00
    0.20488E-02        -0.73250E-03         0.00000E+00
    0.21081E-02        -0.96552E-03         0.00000E+00
    0.21600E-02        -0.11951E-02         0.00000E+00
    0.22043E-02        -0.14217E-02         0.00000E+00
    0.22409E-02        -0.16457E-02         0.00000E+00
    0.22696E-02        -0.18672E-02         0.00000E+00
    0.22901E-02        -0.20864E-02         0.00000E+00
    0.23015E-02        -0.23025E-02         0.00000E+00
    0.23010E-02        -0.25139E-02         0.00000E+00
    0.22996E-02        -0.27269E-02         0.00000E+00
    0.23044E-02        -0.29421E-02         0.00000E+00
    0.23117E-02        -0.31575E-02         0.00000E+00
    0.23199E-02        -0.33729E-02         0.00000E+00
    0.23280E-02        -0.35881E-02         0.00000E+00
    0.23354E-02        -0.38030E-02         0.00000E+00
    0.23419E-02        -0.40176E-02         0.00000E+00
    0.23470E-02        -0.42319E-02         0.00000E+00
    0.23506E-02        -0.44461E-02         0.00000E+00
    0.23522E-02        -0.46602E-02         0.00000E+00
    0.23518E-02        -0.48741E-02         0.00000E+00
    0.23487E-02        -0.50879E-02         0.00000E+00
    0.23423E-02        -0.53011E-02         0.00000E+00
    0.23307E-02        -0.55134E-02         0.00000E+00
    0.23174E-02        -0.57251E-02         0.00000E+00
    0.23092E-02        -0.59398E-02         0.00000E+00
    0.23042E-02        -0.61560E-02         0.00000E+00
    0.23010E-02        -0.63732E-02         0.00000E+00
    0.22988E-02        -0.65913E-02         0.00000E+00
    0.22970E-02        -0.68102E-02         0.00000E+00
    0.22951E-02        -0.70296E-02         0.00000E+00
    0.22923E-02        -0.72492E-02         0.00000E+00
    0.22875E-02        -0.74686E-02         0.00000E+00
    0.22839E-02        -0.76886E-02         0.00000E+00
    0.22836E-02        -0.79095E-02         0.00000E+00
    0.22855E-02        -0.81312E-02         0.00000E+00
    0.22890E-02        -0.83537E-02         0.00000E+00
    0.22936E-02        -0.85768E-02         0.00000E+00
    0.22990E-02        -0.88003E-02         0.00000E+00
    0.23048E-02        -0.90243E-02         0.00000E+00
    0.23105E-02        -0.92483E-02         0.00000E+00
    0.23167E-02        -0.94720E-02         0.00000E+00
    0.23249E-02        -0.96963E-02         0.00000E+00
    0.23349E-02        -0.99211E-02         0.00000E+00
    0.23463E-02        -0.10146E-01         0.00000E+00
    0.23586E-02        -0.10372E-01         0.00000E+00
    0.23719E-02        -0.10597E-01         0.00000E+00
    0.23858E-02        -0.10823E-01         0.00000E+00
    0.24002E-02        -0.11049E-01         0.00000E+00
    0.24150E-02        -0.11275E-01         0.00000E+00
    0.24301E-02        -0.11501E-01         0.00000E+00
    0.24452E-02        -0.11727E-01         0.00000E+00
    0.24602E-02        -0.11954E-01         0.00000E+00
    0.24749E-02        -0.12180E-01         0.00000E+00
    0.24892E-02        -0.12407E-01         0.00000E+00
    0.25028E-02        -0.12634E-01         0.00000E+00
    0.25154E-02        -0.12861E-01         0.00000E+00
    0.25267E-02        -0.13088E-01         0.00000E+00
    0.25364E-02        -0.13316E-01         0.00000E+00
    0.25442E-02        -0.13544E-01         0.00000E+00
    0.25496E-02        -0.13773E-01         0.00000E+00
    0.25521E-02        -0.14002E-01         0.00000E+00
    0.25513E-02        -0.14233E-01         0.00000E+00
    0.25465E-02        -0.14465E-01         0.00000E+00
    0.25373E-02        -0.14698E-01         0.00000E+00
    0.25229E-02        -0.14932E-01         0.00000E+00
    0.25027E-02        -0.15169E-01         0.00000E+00
    0.24762E-02        -0.15407E-01         0.00000E+00
    0.24427E-02        -0.15648E-01         0.00000E+00
    0.24017E-02        -0.15891E-01         0.00000E+00
    0.23528E-02        -0.16136E-01         0.00000E+00
    0.22956E-02        -0.16384E-01         0.00000E+00
    0.22297E-02        -0.16634E-01         0.00000E+00
    0.21547E-02        -0.16884E-01         0.00000E+00
    0.20704E-02        -0.17135E-01         0.00000E+00
    0.19760E-02        -0.17385E-01         0.00000E+00
    0.18699E-02        -0.17632E-01         0.00000E+00
    0.17496E-02        -0.17873E-01         0.00000E+00
    0.16103E-02        -0.18107E-01         0.00000E+00
    0.14437E-02        -0.18330E-01         0.00000E+00
    0.12367E-02        -0.18537E-01         0.00000E+00
    0.96733E-03        -0.18725E-01         0.00000E+00
    0.58701E-03        -0.18875E-01         0.00000E+00
    0.00000E+00        -0.18937E-01         0.00000E+00
    0.00000E+00         0.35254E-02         0.00000E+00
    0.41302E-03         0.34853E-02         0.00000E+00
    0.72517E-03         0.33767E-02         0.00000E+00
    0.97341E-03         0.32211E-02         0.00000E+00
    0.11767E-02         0.30329E-02         0.00000E+00
    0.13437E-02         0.28202E-02         0.00000E+00
    0.14784E-02         0.25881E-02         0.00000E+00
    0.15813E-02         0.23397E-02         0.00000E+00
    0.16497E-02         0.20770E-02         0.00000E+00
    0.16815E-02         0.17954E-02         0.00000E+00
    0.17278E-02         0.14976E-02         0.00000E+00
    0.18061E-02         0.11957E-02         0.00000E+00
    0.19006E-02         0.89118E-03         0.00000E+00
    0.20014E-02         0.58708E-03         0.00000E+00
    0.21028E-02         0.28559E-03         0.00000E+00
    0.22011E-02        -0.12044E-04         0.00000E+00
    0.22940E-02        -0.30517E-03         0.00000E+00
    0.23800E-02        -0.59355E-03         0.00000E+00
    0.24582E-02        -0.87723E-03         0.00000E+00
    0.25280E-02        -0.11564E-02         0.00000E+00
    0.25890E-02        -0.14316E-02         0.00000E+00
    0.26410E-02        -0.17031E-02         0.00000E+00
    0.26840E-02        -0.19715E-02         0.00000E+00
    0.27177E-02        -0.22369E-02         0.00000E+00
    0.27417E-02        -0.24996E-02         0.00000E+00
    0.27549E-02        -0.27586E-02         0.00000E+00
    0.27554E-02        -0.30120E-02         0.00000E+00
    0.27557E-02        -0.32684E-02         0.00000E+00
    0.27618E-02        -0.35267E-02         0.00000E+00
    0.27705E-02        -0.37854E-02         0.00000E+00
    0.27801E-02        -0.40439E-02         0.00000E+00
    0.27896E-02        -0.43021E-02         0.00000E+00
    0.27983E-02        -0.45600E-02         0.00000E+00
    0.28059E-02        -0.48176E-02         0.00000E+00
    0.28118E-02        -0.50748E-02         0.00000E+00
    0.28159E-02        -0.53318E-02         0.00000E+00
    0.28178E-02        -0.55887E-02         0.00000E+00
    0.28172E-02        -0.58454E-02         0.00000E+00
    0.28135E-02        -0.61018E-02         0.00000E+00
    0.28058E-02        -0.63577E-02         0.00000E+00
    0.27924E-02        -0.66121E-02         0.00000E+00
    0.27778E-02        -0.68668E-02         0.00000E+00
    0.27687E-02        -0.71248E-02         0.00000E+00
    0.27629E-02        -0.73844E-02         0.00000E+00
    0.27592E-02        -0.76452E-02         0.00000E+00
    0.27566E-02        -0.79071E-02         0.00000E+00
    0.27544E-02        -0.81697E-02         0.00000E+00
    0.27521E-02        -0.84330E-02         0.00000E+00
    0.27488E-02        -0.86966E-02         0.00000E+00
    0.27435E-02        -0.89600E-02         0.00000E+00
    0.27397E-02        -0.92242E-02         0.00000E+00
    0.27396E-02        -0.94895E-02         0.00000E+00
    0.27419E-02        -0.97557E-02         0.00000E+00
    0.27461E-02        -0.10023E-01         0.00000E+00
    0.27515E-02        -0.10291E-01         0.00000E+00
    0.27579E-02        -0.10559E-01         0.00000E+00
    0.27648E-02        -0.10828E-01         0.00000E+00
    0.27717E-02        -0.11097E-01         0.00000E+00
    0.27792E-02        -0.11365E-01         0.00000E+00
    0.27892E-02        -0.11635E-01         0.00000E+00
    0.28011E-02        -0.11904E-01         0.00000E+00
    0.28145E-02        -0.12175E-01         0.00000E+00
    0.28292E-02        -0.12445E-01         0.00000E+00
    0.28448E-02        -0.12716E-01         0.00000E+00
    0.28613E-02        -0.12987E-01         0.00000E+00
    0.28784E-02        -0.13258E-01         0.00000E+00
    0.28959E-02        -0.13530E-01         0.00000E+00
    0.29138E-02        -0.13801E-01         0.00000E+00
    0.29316E-02        -0.14072E-01         0.00000E+00
    0.29494E-02        -0.14344E-01         0.00000E+00
    0.29668E-02        -0.14616E-01         0.00000E+00
    0.29837E-02        -0.14888E-01         0.00000E+00
    0.29997E-02        -0.15160E-01         0.00000E+00
    0.30145E-02        -0.15432E-01         0.00000E+00
    0.30279E-02        -0.15705E-01         0.00000E+00
    0.30393E-02        -0.15978E-01         0.00000E+00
    0.30484E-02        -0.16252E-01         0.00000E+00
    0.30546E-02        -0.16526E-01         0.00000E+00
    0.30574E-02        -0.16801E-01         0.00000E+00
    0.30562E-02        -0.17077E-01         0.00000E+00
    0.30503E-02        -0.17355E-01         0.00000E+00
    0.30390E-02        -0.17634E-01         0.00000E+00
    0.30216E-02        -0.17915E-01         0.00000E+00
    0.29973E-02        -0.18198E-01         0.00000E+00
    0.29654E-02        -0.18484E-01         0.00000E+00
    0.29251E-02        -0.18772E-01         0.00000E+00
    0.28758E-02        -0.19063E-01         0.00000E+00
    0.28169E-02        -0.19357E-01         0.00000E+00
    0.27478E-02        -0.19653E-01         0.00000E+00
    0.26682E-02        -0.19952E-01         0.00000E+00
    0.25776E-02        -0.20252E-01         0.00000E+00
    0.24754E-02        -0.20552E-01         0.00000E+00
    0.23607E-02        -0.20851E-01         0.00000E+00
    0.22318E-02        -0.21146E-01         0.00000E+00
    0.20852E-02        -0.21434E-01         0.00000E+00
    0.19155E-02        -0.21712E-01         0.00000E+00
    0.17129E-02        -0.21976E-01         0.00000E+00
    0.14618E-02        -0.22221E-01         0.00000E+00
    0.11356E-02        -0.22439E-01         0.00000E+00
    0.67926E-03        -0.22605E-01         0.00000E+00
    0.00000E+00        -0.22671E-01         0.00000E+00
    0.00000E+00         0.40948E-02         0.00000E+00
    0.46818E-03         0.40494E-02         0.00000E+00
    0.83018E-03         0.39255E-02         0.00000E+00
    0.11209E-02         0.37462E-02         0.00000E+00
    0.13597E-02         0.35285E-02         0.00000E+00
    0.15564E-02         0.32821E-02         0.00000E+00
    0.17155E-02         0.30130E-02         0.00000E+00
    0.18380E-02         0.27250E-02         0.00000E+00
    0.19217E-02         0.24202E-02         0.00000E+00
    0.19672E-02         0.20955E-02         0.00000E+00
    0.20270E-02         0.17486E-02         0.00000E+00
    0.21194E-02         0.13955E-02         0.00000E+00
    0.22288E-02         0.10399E-02         0.00000E+00
    0.23448E-02         0.68508E-03         0.00000E+00
    0.24611E-02         0.33355E-03         0.00000E+00
    0.25737E-02        -0.13361E-04         0.00000E+00
    0.26800E-02        -0.35493E-03         0.00000E+00
    0.27784E-02        -0.69092E-03         0.00000E+00
    0.28678E-02        -0.10214E-02         0.00000E+00
    0.29475E-02        -0.13467E-02         0.00000E+00
    0.30172E-02        -0.16672E-02         0.00000E+00
    0.30767E-02        -0.19836E-02         0.00000E+00
    0.31257E-02        -0.22962E-02         0.00000E+00
    0.31642E-02        -0.26055E-02         0.00000E+00
    0.31915E-02        -0.29115E-02         0.00000E+00
    0.32064E-02        -0.32133E-02         0.00000E+00
    0.32083E-02        -0.35091E-02         0.00000E+00
    0.32105E-02        -0.38087E-02         0.00000E+00
    0.32180E-02        -0.41102E-02         0.00000E+00
    0.32282E-02        -0.44120E-02         0.00000E+00
    0.32392E-02        -0.47137E-02         0.00000E+00
    0.32500E-02        -0.50150E-02         0.00000E+00
    0.32599E-02        -0.53159E-02         0.00000E+00
    0.32685E-02        -0.56164E-02         0.00000E+00
    0.32752E-02        -0.59165E-02         0.00000E+00
    0.32798E-02        -0.62163E-02         0.00000E+00
    0.32819E-02        -0.65160E-02         0.00000E+00
    0.32810E-02        -0.68154E-02         0.00000E+00
    0.32767E-02        -0.71146E-02         0.00000E+00
    0.32679E-02        -0.74130E-02         0.00000E+00
    0.32528E-02        -0.77098E-02         0.00000E+00
    0.32372E-02        -0.80076E-02         0.00000E+00
    0.32273E-02        -0.83088E-02         0.00000E+00
    0.32208E-02        -0.86119E-02         0.00000E+00
    0.32166E-02        -0.89164E-02         0.00000E+00
    0.32136E-02        -0.92220E-02         0.00000E+00
    0.32112E-02        -0.95285E-02         0.00000E+00
    0.32085E-02        -0.98357E-02         0.00000E+00
    0.32048E-02        -0.10143E-01         0.00000E+00
    0.31991E-02        -0.10451E-01         0.00000E+00
    0.31953E-02        -0.10759E-01         0.00000E+00
    0.31953E-02        -0.11069E-01         0.00000E+00
    0.31980E-02        -0.11380E-01         0.00000E+00
    0.32029E-02        -0.11691E-01         0.00000E+00
    0.32092E-02        -0.12004E-01         0.00000E+00
    0.32166E-02        -0.12317E-01         0.00000E+00
    0.32246E-02        -0.12631E-01         0.00000E+00
    0.32326E-02        -0.12944E-01         0.00000E+00
    0.32415E-02        -0.13258E-01         0.00000E+00
    0.32531E-02        -0.13572E-01         0.00000E+00
    0.32669E-02        -0.13887E-01         0.00000E+00
    0.32824E-02        -0.14203E-01         0.00000E+00
    0.32993E-02        -0.14519E-01         0.00000E+00
    0.33173E-02        -0.14835E-01         0.00000E+00
    0.33363E-02        -0.15151E-01         0.00000E+00
    0.33560E-02        -0.15467E-01         0.00000E+00
    0.33762E-02        -0.15784E-01         0.00000E+00
    0.33967E-02        -0.16100E-01         0.00000E+00
    0.34172E-02        -0.16417E-01         0.00000E+00
    0.34377E-02        -0.16734E-01         0.00000E+00
    0.34577E-02        -0.17051E-01         0.00000E+00
    0.34770E-02        -0.17368E-01         0.00000E+00
    0.34954E-02        -0.17686E-01         0.00000E+00
    0.35124E-02        -0.18003E-01         0.00000E+00
    0.35276E-02        -0.18321E-01         0.00000E+00
    0.35407E-02        -0.18640E-01         0.00000E+00
    0.35510E-02        -0.18959E-01         0.00000E+00
    0.35580E-02        -0.19278E-01         0.00000E+00
    0.35610E-02        -0.19599E-01         0.00000E+00
    0.35594E-02        -0.19921E-01         0.00000E+00
    0.35523E-02        -0.20245E-01         0.00000E+00
    0.35390E-02        -0.20570E-01         0.00000E+00
    0.35185E-02        -0.20897E-01         0.00000E+00
    0.34900E-02        -0.21227E-01         0.00000E+00
    0.34526E-02        -0.21559E-01         0.00000E+00
    0.34055E-02        -0.21895E-01         0.00000E+00
    0.33478E-02        -0.22233E-01         0.00000E+00
    0.32789E-02        -0.22575E-01         0.00000E+00
    0.31980E-02        -0.22920E-01         0.00000E+00
    0.31045E-02        -0.23267E-01         0.00000E+00
    0.29980E-02        -0.23616E-01         0.00000E+00
    0.28777E-02        -0.23965E-01         0.00000E+00
    0.27423E-02        -0.24312E-01         0.00000E+00
    0.25898E-02        -0.24655E-01         0.00000E+00
    0.24164E-02        -0.24990E-01         0.00000E+00
    0.22155E-02        -0.25312E-01         0.00000E+00
    0.19760E-02        -0.25617E-01         0.00000E+00
    0.16801E-02        -0.25896E-01         0.00000E+00
    0.12964E-02        -0.26141E-01         0.00000E+00
    0.76585E-03        -0.26321E-01         0.00000E+00
    0.00000E+00        -0.26390E-01         0.00000E+00
    0.00000E+00         0.46607E-02         0.00000E+00
    0.52136E-03         0.46100E-02         0.00000E+00
    0.93225E-03         0.44707E-02         0.00000E+00
    0.12654E-02         0.42682E-02         0.00000E+00
    0.15401E-02         0.40215E-02         0.00000E+00
    0.17668E-02         0.37418E-02         0.00000E+00
    0.19508E-02         0.34361E-02         0.00000E+00
    0.20936E-02         0.31088E-02         0.00000E+00
    0.21935E-02         0.27624E-02         0.00000E+00
    0.22541E-02         0.23949E-02         0.00000E+00
    0.23289E-02         0.19992E-02         0.00000E+00
    0.24360E-02         0.15950E-02         0.00000E+00
    0.25603E-02         0.11883E-02         0.00000E+00
    0.26911E-02         0.78290E-03         0.00000E+00
    0.28218E-02         0.38145E-03         0.00000E+00
    0.29481E-02        -0.14596E-04         0.00000E+00
    0.30673E-02        -0.40447E-03         0.00000E+00
    0.31776E-02        -0.78792E-03         0.00000E+00
    0.32777E-02        -0.11651E-02         0.00000E+00
    0.33669E-02        -0.15362E-02         0.00000E+00
    0.34449E-02        -0.19020E-02         0.00000E+00
    0.35114E-02        -0.22631E-02         0.00000E+00
    0.35662E-02        -0.26199E-02         0.00000E+00
    0.36091E-02        -0.29728E-02         0.00000E+00
    0.36396E-02        -0.33221E-02         0.00000E+00
    0.36562E-02        -0.36667E-02         0.00000E+00
    0.36598E-02        -0.40050E-02         0.00000E+00
    0.36639E-02        -0.43478E-02         0.00000E+00
    0.36731E-02        -0.46925E-02         0.00000E+00
    0.36847E-02        -0.50376E-02         0.00000E+00
    0.36970E-02        -0.53824E-02         0.00000E+00
    0.37091E-02        -0.57268E-02         0.00000E+00
    0.37202E-02        -0.60707E-02         0.00000E+00
    0.37297E-02        -0.64141E-02         0.00000E+00
    0.37372E-02        -0.67571E-02         0.00000E+00
    0.37423E-02        -0.70998E-02         0.00000E+00
    0.37445E-02        -0.74422E-02         0.00000E+00
    0.37434E-02        -0.77844E-02         0.00000E+00
    0.37384E-02        -0.81263E-02         0.00000E+00
    0.37285E-02        -0.84672E-02         0.00000E+00
    0.37120E-02        -0.88064E-02         0.00000E+00
    0.36957E-02        -0.91474E-02         0.00000E+00
    0.36850E-02        -0.94919E-02         0.00000E+00
    0.36780E-02        -0.98386E-02         0.00000E+00
    0.36734E-02        -0.10187E-01         0.00000E+00
    0.36701E-02        -0.10536E-01         0.00000E+00
    0.36673E-02        -0.10886E-01         0.00000E+00
    0.36643E-02        -0.11238E-01         0.00000E+00
    0.36603E-02        -0.11589E-01         0.00000E+00
    0.36542E-02        -0.11941E-01         0.00000E+00
    0.36505E-02        -0.12293E-01         0.00000E+00
    0.36507E-02        -0.12648E-01         0.00000E+00
    0.36539E-02        -0.13003E-01         0.00000E+00
    0.36594E-02        -0.13359E-01         0.00000E+00
    0.36666E-02        -0.13717E-01         0.00000E+00
    0.36750E-02        -0.14075E-01         0.00000E+00
    0.36840E-02        -0.14433E-01         0.00000E+00
    0.36932E-02        -0.14792E-01         0.00000E+00
    0.37035E-02        -0.15151E-01         0.00000E+00
    0.37168E-02        -0.15510E-01         0.00000E+00
    0.37324E-02        -0.15870E-01         0.00000E+00
    0.37499E-02        -0.16231E-01         0.00000E+00
    0.37690E-02        -0.16592E-01         0.00000E+00
    0.37894E-02        -0.16953E-01         0.00000E+00
    0.38108E-02        -0.17314E-01         0.00000E+00
    0.38330E-02        -0.17676E-01         0.00000E+00
    0.38558E-02        -0.18038E-01         0.00000E+00
    0.38788E-02        -0.18400E-01         0.00000E+00
    0.39020E-02        -0.18762E-01         0.00000E+00
    0.39250E-02        -0.19124E-01         0.00000E+00
    0.39475E-02        -0.19486E-01         0.00000E+00
    0.39693E-02        -0.19848E-01         0.00000E+00
    0.39899E-02        -0.20211E-01         0.00000E+00
    0.40090E-02        -0.20574E-01         0.00000E+00
    0.40261E-02        -0.20937E-01         0.00000E+00
    0.40406E-02        -0.21301E-01         0.00000E+00
    0.40521E-02        -0.21665E-01         0.00000E+00
    0.40598E-02        -0.22030E-01         0.00000E+00
    0.40629E-02        -0.22397E-01         0.00000E+00
    0.40608E-02        -0.22764E-01         0.00000E+00
    0.40525E-02        -0.23133E-01         0.00000E+00
    0.40371E-02        -0.23504E-01         0.00000E+00
    0.40135E-02        -0.23878E-01         0.00000E+00
    0.39809E-02        -0.24254E-01         0.00000E+00
    0.39380E-02        -0.24633E-01         0.00000E+00
    0.38840E-02        -0.25015E-01         0.00000E+00
    0.38179E-02        -0.25401E-01         0.00000E+00
    0.37388E-02        -0.25791E-01         0.00000E+00
    0.36460E-02        -0.26184E-01         0.00000E+00
    0.35386E-02        -0.26579E-01         0.00000E+00
    0.34160E-02        -0.26977E-01         0.00000E+00
    0.32771E-02        -0.27375E-01         0.00000E+00
    0.31207E-02        -0.27770E-01         0.00000E+00
    0.29441E-02        -0.28160E-01         0.00000E+00
    0.27432E-02        -0.28541E-01         0.00000E+00
    0.25104E-02        -0.28906E-01         0.00000E+00
    0.22333E-02        -0.29250E-01         0.00000E+00
    0.18917E-02        -0.29564E-01         0.00000E+00
    0.14502E-02        -0.29832E-01         0.00000E+00
    0.84753E-03        -0.30025E-01         0.00000E+00
    0.00000E+00        -0.30097E-01         0.00000E+00
    0.00000E+00         0.52234E-02         0.00000E+00
    0.57295E-03         0.51673E-02         0.00000E+00
    0.10319E-02         0.50126E-02         0.00000E+00
    0.14073E-02         0.47871E-02         0.00000E+00
    0.17180E-02         0.45118E-02         0.00000E+00
    0.19751E-02         0.41993E-02         0.00000E+00
    0.21846E-02         0.38573E-02         0.00000E+00
    0.23482E-02         0.34911E-02         0.00000E+00
    0.24652E-02         0.31034E-02         0.00000E+00
    0.25423E-02         0.26933E-02         0.00000E+00
    0.26334E-02         0.22491E-02         0.00000E+00
    0.27557E-02         0.17940E-02         0.00000E+00
    0.28949E-02         0.13363E-02         0.00000E+00
    0.30403E-02         0.88046E-03         0.00000E+00
    0.31850E-02         0.42923E-03         0.00000E+00
    0.33245E-02        -0.15793E-04         0.00000E+00
    0.34560E-02        -0.45380E-03         0.00000E+00
    0.35775E-02        -0.88455E-03         0.00000E+00
    0.36878E-02        -0.13082E-02         0.00000E+00
    0.37862E-02        -0.17252E-02         0.00000E+00
    0.38720E-02        -0.21361E-02         0.00000E+00
    0.39452E-02        -0.25416E-02         0.00000E+00
    0.40055E-02        -0.29425E-02         0.00000E+00
    0.40527E-02        -0.33390E-02         0.00000E+00
    0.40862E-02        -0.37314E-02         0.00000E+00
    0.41045E-02        -0.41188E-02         0.00000E+00
    0.41099E-02        -0.44998E-02         0.00000E+00
    0.41162E-02        -0.48857E-02         0.00000E+00
    0.41270E-02        -0.52737E-02         0.00000E+00
    0.41400E-02        -0.56619E-02         0.00000E+00
    0.41538E-02        -0.60499E-02         0.00000E+00
    0.41671E-02        -0.64374E-02         0.00000E+00
    0.41793E-02        -0.68243E-02         0.00000E+00
    0.41897E-02        -0.72107E-02         0.00000E+00
    0.41979E-02        -0.75966E-02         0.00000E+00
    0.42034E-02        -0.79820E-02         0.00000E+00
    0.42057E-02        -0.83673E-02         0.00000E+00
    0.42044E-02        -0.87522E-02         0.00000E+00
    0.41988E-02        -0.91368E-02         0.00000E+00
    0.41878E-02        -0.95203E-02         0.00000E+00
    0.41700E-02        -0.99019E-02         0.00000E+00
    0.41533E-02        -0.10286E-01         0.00000E+00
    0.41420E-02        -0.10674E-01         0.00000E+00
    0.41345E-02        -0.11064E-01         0.00000E+00
    0.41295E-02        -0.11456E-01         0.00000E+00
    0.41259E-02        -0.11849E-01         0.00000E+00
    0.41229E-02        -0.12244E-01         0.00000E+00
    0.41196E-02        -0.12639E-01         0.00000E+00
    0.41152E-02        -0.13034E-01         0.00000E+00
    0.41090E-02        -0.13430E-01         0.00000E+00
    0.41053E-02        -0.13827E-01         0.00000E+00
    0.41058E-02        -0.14226E-01         0.00000E+00
    0.41096E-02        -0.14626E-01         0.00000E+00
    0.41158E-02        -0.15027E-01         0.00000E+00
    0.41238E-02        -0.15429E-01         0.00000E+00
    0.41331E-02        -0.15832E-01         0.00000E+00
    0.41432E-02        -0.16235E-01         0.00000E+00
    0.41535E-02        -0.16639E-01         0.00000E+00
    0.41653E-02        -0.17043E-01         0.00000E+00
    0.41802E-02        -0.17447E-01         0.00000E+00
    0.41976E-02        -0.17853E-01         0.00000E+00
    0.42171E-02        -0.18258E-01         0.00000E+00
    0.42383E-02        -0.18665E-01         0.00000E+00
    0.42610E-02        -0.19071E-01         0.00000E+00
    0.42847E-02        -0.19478E-01         0.00000E+00
    0.43094E-02        -0.19885E-01         0.00000E+00
    0.43346E-02        -0.20292E-01         0.00000E+00
    0.43602E-02        -0.20699E-01         0.00000E+00
    0.43859E-02        -0.21106E-01         0.00000E+00
    0.44114E-02        -0.21514E-01         0.00000E+00
    0.44364E-02        -0.21921E-01         0.00000E+00
    0.44604E-02        -0.22329E-01         0.00000E+00
    0.44832E-02        -0.22736E-01         0.00000E+00
    0.45043E-02        -0.23144E-01         0.00000E+00
    0.45231E-02        -0.23553E-01         0.00000E+00
    0.45391E-02        -0.23962E-01         0.00000E+00
    0.45516E-02        -0.24371E-01         0.00000E+00
    0.45600E-02        -0.24782E-01         0.00000E+00
    0.45632E-02        -0.25193E-01         0.00000E+00
    0.45606E-02        -0.25606E-01         0.00000E+00
    0.45510E-02        -0.26021E-01         0.00000E+00
    0.45334E-02        -0.26438E-01         0.00000E+00
    0.45068E-02        -0.26857E-01         0.00000E+00
    0.44699E-02        -0.27279E-01         0.00000E+00
    0.44215E-02        -0.27705E-01         0.00000E+00
    0.43607E-02        -0.28134E-01         0.00000E+00
    0.42861E-02        -0.28567E-01         0.00000E+00
    0.41969E-02        -0.29004E-01         0.00000E+00
    0.40920E-02        -0.29445E-01         0.00000E+00
    0.39705E-02        -0.29889E-01         0.00000E+00
    0.38316E-02        -0.30335E-01         0.00000E+00
    0.36739E-02        -0.30781E-01         0.00000E+00
    0.34960E-02        -0.31224E-01         0.00000E+00
    0.32949E-02        -0.31661E-01         0.00000E+00
    0.30658E-02        -0.32087E-01         0.00000E+00
    0.28004E-02        -0.32494E-01         0.00000E+00
    0.24849E-02        -0.32876E-01         0.00000E+00
    0.20969E-02        -0.33222E-01         0.00000E+00
    0.15976E-02        -0.33514E-01         0.00000E+00
    0.92491E-03        -0.33717E-01         0.00000E+00
    0.00000E+00        -0.33792E-01         0.00000E+00
    0.00000E+00         0.57834E-02         0.00000E+00
    0.62330E-03         0.57215E-02         0.00000E+00
    0.11296E-02         0.55514E-02         0.00000E+00
    0.15471E-02         0.53031E-02         0.00000E+00
    0.18940E-02         0.49996E-02         0.00000E+00
    0.21818E-02         0.46545E-02         0.00000E+00
    0.24171E-02         0.42767E-02         0.00000E+00
    0.26023E-02         0.38720E-02         0.00000E+00
    0.27369E-02         0.34433E-02         0.00000E+00
    0.28318E-02         0.29906E-02         0.00000E+00
    0.29404E-02         0.24981E-02         0.00000E+00
    0.30786E-02         0.19923E-02         0.00000E+00
    0.32327E-02         0.14838E-02         0.00000E+00
    0.33923E-02         0.97767E-03         0.00000E+00
    0.35505E-02         0.47683E-03         0.00000E+00
    0.37028E-02        -0.16997E-04         0.00000E+00
    0.38461E-02        -0.50298E-03         0.00000E+00
    0.39784E-02        -0.98086E-03         0.00000E+00
    0.40984E-02        -0.14508E-02         0.00000E+00
    0.42054E-02        -0.19134E-02         0.00000E+00
    0.42988E-02        -0.23693E-02         0.00000E+00
    0.43783E-02        -0.28192E-02         0.00000E+00
    0.44438E-02        -0.32640E-02         0.00000E+00
    0.44950E-02        -0.37041E-02         0.00000E+00
    0.45313E-02        -0.41395E-02         0.00000E+00
    0.45514E-02        -0.45696E-02         0.00000E+00
    0.45587E-02        -0.49935E-02         0.00000E+00
    0.45673E-02        -0.54225E-02         0.00000E+00
    0.45798E-02        -0.58537E-02         0.00000E+00
    0.45943E-02        -0.62852E-02         0.00000E+00
    0.46093E-02        -0.67164E-02         0.00000E+00
    0.46239E-02        -0.71469E-02         0.00000E+00
    0.46371E-02        -0.75769E-02         0.00000E+00
    0.46484E-02        -0.80062E-02         0.00000E+00
    0.46572E-02        -0.84349E-02         0.00000E+00
    0.46631E-02        -0.88632E-02         0.00000E+00
    0.46656E-02        -0.92912E-02         0.00000E+00
    0.46640E-02        -0.97189E-02         0.00000E+00
    0.46578E-02        -0.10146E-01         0.00000E+00
    0.46457E-02        -0.10572E-01         0.00000E+00
    0.46270E-02        -0.10996E-01         0.00000E+00
    0.46099E-02        -0.11424E-01         0.00000E+00
    0.45982E-02        -0.11856E-01         0.00000E+00
    0.45903E-02        -0.12289E-01         0.00000E+00
    0.45850E-02        -0.12725E-01         0.00000E+00
    0.45811E-02        -0.13162E-01         0.00000E+00
    0.45779E-02        -0.13600E-01         0.00000E+00
    0.45744E-02        -0.14039E-01         0.00000E+00
    0.45696E-02        -0.14479E-01         0.00000E+00
    0.45633E-02        -0.14919E-01         0.00000E+00
    0.45599E-02        -0.15360E-01         0.00000E+00
    0.45607E-02        -0.15803E-01         0.00000E+00
    0.45650E-02        -0.16248E-01         0.00000E+00
    0.45718E-02        -0.16694E-01         0.00000E+00
    0.45807E-02        -0.17141E-01         0.00000E+00
    0.45910E-02        -0.17589E-01         0.00000E+00
    0.46022E-02        -0.18037E-01         0.00000E+00
    0.46136E-02        -0.18486E-01         0.00000E+00
    0.46268E-02        -0.18934E-01         0.00000E+00
    0.46433E-02        -0.19384E-01         0.00000E+00
    0.46625E-02        -0.19835E-01         0.00000E+00
    0.46839E-02        -0.20286E-01         0.00000E+00
    0.47072E-02        -0.20737E-01         0.00000E+00
    0.47321E-02        -0.21189E-01         0.00000E+00
    0.47582E-02        -0.21641E-01         0.00000E+00
    0.47852E-02        -0.22093E-01         0.00000E+00
    0.48128E-02        -0.22546E-01         0.00000E+00
    0.48409E-02        -0.22998E-01         0.00000E+00
    0.48690E-02        -0.23450E-01         0.00000E+00
    0.48969E-02        -0.23903E-01         0.00000E+00
    0.49242E-02        -0.24356E-01         0.00000E+00
    0.49505E-02        -0.24808E-01         0.00000E+00
    0.49754E-02        -0.25261E-01         0.00000E+00
    0.49983E-02        -0.25715E-01         0.00000E+00
    0.50188E-02        -0.26168E-01         0.00000E+00
    0.50362E-02        -0.26622E-01         0.00000E+00
    0.50497E-02        -0.27077E-01         0.00000E+00
    0.50586E-02        -0.27533E-01         0.00000E+00
    0.50619E-02        -0.27990E-01         0.00000E+00
    0.50587E-02        -0.28448E-01         0.00000E+00
    0.50477E-02        -0.28908E-01         0.00000E+00
    0.50280E-02        -0.29371E-01         0.00000E+00
    0.49982E-02        -0.29836E-01         0.00000E+00
    0.49571E-02        -0.30304E-01         0.00000E+00
    0.49032E-02        -0.30776E-01         0.00000E+00
    0.48355E-02        -0.31251E-01         0.00000E+00
    0.47525E-02        -0.31731E-01         0.00000E+00
    0.46530E-02        -0.32215E-01         0.00000E+00
    0.45360E-02        -0.32704E-01         0.00000E+00
    0.44004E-02        -0.33196E-01         0.00000E+00
    0.42449E-02        -0.33689E-01         0.00000E+00
    0.40682E-02        -0.34183E-01         0.00000E+00
    0.38684E-02        -0.34674E-01         0.00000E+00
    0.36422E-02        -0.35157E-01         0.00000E+00
    0.33844E-02        -0.35627E-01         0.00000E+00
    0.30856E-02        -0.36077E-01         0.00000E+00
    0.27310E-02        -0.36496E-01         0.00000E+00
    0.22959E-02        -0.36873E-01         0.00000E+00
    0.17392E-02        -0.37185E-01         0.00000E+00
    0.99853E-03        -0.37399E-01         0.00000E+00
    0.00000E+00        -0.37476E-01         0.00000E+00
    0.00000E+00         0.63409E-02         0.00000E+00
    0.67274E-03         0.62732E-02         0.00000E+00
    0.12258E-02         0.60872E-02         0.00000E+00
    0.16853E-02         0.58162E-02         0.00000E+00
    0.20684E-02         0.54848E-02         0.00000E+00
    0.23871E-02         0.51076E-02         0.00000E+00
    0.26486E-02         0.46942E-02         0.00000E+00
    0.28559E-02         0.42514E-02         0.00000E+00
    0.30089E-02         0.37819E-02         0.00000E+00
    0.31226E-02         0.32866E-02         0.00000E+00
    0.32501E-02         0.27459E-02         0.00000E+00
    0.34047E-02         0.21897E-02         0.00000E+00
    0.35737E-02         0.16307E-02         0.00000E+00
    0.37473E-02         0.10744E-02         0.00000E+00
    0.39186E-02         0.52419E-03         0.00000E+00
    0.40830E-02        -0.18251E-04         0.00000E+00
    0.42376E-02        -0.55201E-03         0.00000E+00
    0.43802E-02        -0.10769E-02         0.00000E+00
    0.45095E-02        -0.15930E-02         0.00000E+00
    0.46247E-02        -0.21010E-02         0.00000E+00
    0.47251E-02        -0.26017E-02         0.00000E+00
    0.48107E-02        -0.30959E-02         0.00000E+00
    0.48811E-02        -0.35845E-02         0.00000E+00
    0.49362E-02        -0.40680E-02         0.00000E+00
    0.49752E-02        -0.45464E-02         0.00000E+00
    0.49970E-02        -0.50192E-02         0.00000E+00
    0.50063E-02        -0.54861E-02         0.00000E+00
    0.50172E-02        -0.59583E-02         0.00000E+00
    0.50315E-02        -0.64326E-02         0.00000E+00
    0.50474E-02        -0.69074E-02         0.00000E+00
    0.50638E-02        -0.73817E-02         0.00000E+00
    0.50795E-02        -0.78554E-02         0.00000E+00
    0.50937E-02        -0.83283E-02         0.00000E+00
    0.51059E-02        -0.88006E-02         0.00000E+00
    0.51153E-02        -0.92722E-02         0.00000E+00
    0.51216E-02        -0.97433E-02         0.00000E+00
    0.51241E-02        -0.10214E-01         0.00000E+00
    0.51224E-02        -0.10685E-01         0.00000E+00
    0.51155E-02        -0.11155E-01         0.00000E+00
    0.51025E-02        -0.11623E-01         0.00000E+00
    0.50830E-02        -0.12090E-01         0.00000E+00
    0.50657E-02        -0.12561E-01         0.00000E+00
    0.50536E-02        -0.13036E-01         0.00000E+00
    0.50454E-02        -0.13513E-01         0.00000E+00
    0.50398E-02        -0.13993E-01         0.00000E+00
    0.50358E-02        -0.14474E-01         0.00000E+00
    0.50323E-02        -0.14956E-01         0.00000E+00
    0.50286E-02        -0.15439E-01         0.00000E+00
    0.50236E-02        -0.15923E-01         0.00000E+00
    0.50173E-02        -0.16407E-01         0.00000E+00
    0.50141E-02        -0.16893E-01         0.00000E+00
    0.50153E-02        -0.17381E-01         0.00000E+00
    0.50201E-02        -0.17870E-01         0.00000E+00
    0.50277E-02        -0.18361E-01         0.00000E+00
    0.50374E-02        -0.18852E-01         0.00000E+00
    0.50487E-02        -0.19345E-01         0.00000E+00
    0.50609E-02        -0.19838E-01         0.00000E+00
    0.50735E-02        -0.20332E-01         0.00000E+00
    0.50881E-02        -0.20826E-01         0.00000E+00
    0.51061E-02        -0.21321E-01         0.00000E+00
    0.51271E-02        -0.21817E-01         0.00000E+00
    0.51504E-02        -0.22313E-01         0.00000E+00
    0.51757E-02        -0.22810E-01         0.00000E+00
    0.52027E-02        -0.23307E-01         0.00000E+00
    0.52310E-02        -0.23804E-01         0.00000E+00
    0.52603E-02        -0.24301E-01         0.00000E+00
    0.52904E-02        -0.24799E-01         0.00000E+00
    0.53208E-02        -0.25297E-01         0.00000E+00
    0.53513E-02        -0.25794E-01         0.00000E+00
    0.53815E-02        -0.26292E-01         0.00000E+00
    0.54110E-02        -0.26790E-01         0.00000E+00
    0.54395E-02        -0.27288E-01         0.00000E+00
    0.54664E-02        -0.27786E-01         0.00000E+00
    0.54911E-02        -0.28285E-01         0.00000E+00
    0.55132E-02        -0.28784E-01         0.00000E+00
    0.55319E-02        -0.29283E-01         0.00000E+00
    0.55463E-02        -0.29783E-01         0.00000E+00
    0.55557E-02        -0.30284E-01         0.00000E+00
    0.55590E-02        -0.30786E-01         0.00000E+00
    0.55551E-02        -0.31289E-01         0.00000E+00
    0.55428E-02        -0.31795E-01         0.00000E+00
    0.55209E-02        -0.32302E-01         0.00000E+00
    0.54879E-02        -0.32813E-01         0.00000E+00
    0.54425E-02        -0.33327E-01         0.00000E+00
    0.53832E-02        -0.33845E-01         0.00000E+00
    0.53085E-02        -0.34367E-01         0.00000E+00
    0.52170E-02        -0.34893E-01         0.00000E+00
    0.51073E-02        -0.35424E-01         0.00000E+00
    0.49782E-02        -0.35960E-01         0.00000E+00
    0.48282E-02        -0.36499E-01         0.00000E+00
    0.46560E-02        -0.37041E-01         0.00000E+00
    0.44600E-02        -0.37582E-01         0.00000E+00
    0.42380E-02        -0.38120E-01         0.00000E+00
    0.39863E-02        -0.38649E-01         0.00000E+00
    0.36990E-02        -0.39163E-01         0.00000E+00
    0.33662E-02        -0.39653E-01         0.00000E+00
    0.29718E-02        -0.40109E-01         0.00000E+00
    0.24892E-02        -0.40514E-01         0.00000E+00
    0.18753E-02        -0.40847E-01         0.00000E+00
    0.10688E-02        -0.41070E-01         0.00000E+00
    0.00000E+00        -0.41149E-01         0.00000E+00
    0.00000E+00         0.68964E-02         0.00000E+00
    0.72157E-03         0.68224E-02         0.00000E+00
    0.13210E-02         0.66201E-02         0.00000E+00
    0.18221E-02         0.63266E-02         0.00000E+00
    0.22415E-02         0.59676E-02         0.00000E+00
    0.25913E-02         0.55585E-02         0.00000E+00
    0.28795E-02         0.51098E-02         0.00000E+00
    0.31094E-02         0.46292E-02         0.00000E+00
    0.32814E-02         0.41194E-02         0.00000E+00
    0.34150E-02         0.35810E-02         0.00000E+00
    0.35623E-02         0.29924E-02         0.00000E+00
    0.37338E-02         0.23860E-02         0.00000E+00
    0.39178E-02         0.17767E-02         0.00000E+00
    0.41051E-02         0.11707E-02         0.00000E+00
    0.42891E-02         0.57125E-03         0.00000E+00
    0.44653E-02        -0.19596E-04         0.00000E+00
    0.46306E-02        -0.60094E-03         0.00000E+00
    0.47830E-02        -0.11726E-02         0.00000E+00
    0.49211E-02        -0.17347E-02         0.00000E+00
    0.50440E-02        -0.22880E-02         0.00000E+00
    0.51513E-02        -0.28334E-02         0.00000E+00
    0.52425E-02        -0.33718E-02         0.00000E+00
    0.53176E-02        -0.39040E-02         0.00000E+00
    0.53763E-02        -0.44308E-02         0.00000E+00
    0.54179E-02        -0.49521E-02         0.00000E+00
    0.54414E-02        -0.54676E-02         0.00000E+00
    0.54528E-02        -0.59776E-02         0.00000E+00
    0.54660E-02        -0.64929E-02         0.00000E+00
    0.54821E-02        -0.70105E-02         0.00000E+00
    0.54995E-02        -0.75284E-02         0.00000E+00
    0.55172E-02        -0.80459E-02         0.00000E+00
    0.55340E-02        -0.85627E-02         0.00000E+00
    0.55492E-02        -0.90787E-02         0.00000E+00
    0.55622E-02        -0.95939E-02         0.00000E+00
    0.55722E-02        -0.10108E-01         0.00000E+00
    0.55788E-02        -0.10622E-01         0.00000E+00
    0.55815E-02        -0.11136E-01         0.00000E+00
    0.55795E-02        -0.11649E-01         0.00000E+00
    0.55720E-02        -0.12162E-01         0.00000E+00
    0.55581E-02        -0.12673E-01         0.00000E+00
    0.55381E-02        -0.13183E-01         0.00000E+00
    0.55205E-02        -0.13697E-01         0.00000E+00
    0.55083E-02        -0.14216E-01         0.00000E+00
    0.54998E-02        -0.14737E-01         0.00000E+00
    0.54941E-02        -0.15260E-01         0.00000E+00
    0.54898E-02        -0.15785E-01         0.00000E+00
    0.54862E-02        -0.16311E-01         0.00000E+00
    0.54823E-02        -0.16838E-01         0.00000E+00
    0.54772E-02        -0.17366E-01         0.00000E+00
    0.54709E-02        -0.17894E-01         0.00000E+00
    0.54680E-02        -0.18425E-01         0.00000E+00
    0.54696E-02        -0.18957E-01         0.00000E+00
    0.54750E-02        -0.19491E-01         0.00000E+00
    0.54833E-02        -0.20027E-01         0.00000E+00
    0.54939E-02        -0.20563E-01         0.00000E+00
    0.55061E-02        -0.21101E-01         0.00000E+00
    0.55193E-02        -0.21639E-01         0.00000E+00
    0.55331E-02        -0.22178E-01         0.00000E+00
    0.55491E-02        -0.22717E-01         0.00000E+00
    0.55687E-02        -0.23257E-01         0.00000E+00
    0.55913E-02        -0.23798E-01         0.00000E+00
    0.56165E-02        -0.24340E-01         0.00000E+00
    0.56439E-02        -0.24882E-01         0.00000E+00
    0.56729E-02        -0.25424E-01         0.00000E+00
    0.57034E-02        -0.25967E-01         0.00000E+00
    0.57349E-02        -0.26510E-01         0.00000E+00
    0.57672E-02        -0.27052E-01         0.00000E+00
    0.57999E-02        -0.27595E-01         0.00000E+00
    0.58327E-02        -0.28138E-01         0.00000E+00
    0.58651E-02        -0.28681E-01         0.00000E+00
    0.58968E-02        -0.29225E-01         0.00000E+00
    0.59274E-02        -0.29768E-01         0.00000E+00
    0.59562E-02        -0.30311E-01         0.00000E+00
    0.59827E-02        -0.30855E-01         0.00000E+00
    0.60063E-02        -0.31398E-01         0.00000E+00
    0.60261E-02        -0.31943E-01         0.00000E+00
    0.60414E-02        -0.32488E-01         0.00000E+00
    0.60512E-02        -0.33034E-01         0.00000E+00
    0.60544E-02        -0.33581E-01         0.00000E+00
    0.60498E-02        -0.34129E-01         0.00000E+00
    0.60361E-02        -0.34680E-01         0.00000E+00
    0.60120E-02        -0.35233E-01         0.00000E+00
    0.59759E-02        -0.35789E-01         0.00000E+00
    0.59262E-02        -0.36349E-01         0.00000E+00
    0.58614E-02        -0.36912E-01         0.00000E+00
    0.57798E-02        -0.37480E-01         0.00000E+00
    0.56798E-02        -0.38053E-01         0.00000E+00
    0.55599E-02        -0.38631E-01         0.00000E+00
    0.54185E-02        -0.39214E-01         0.00000E+00
    0.52541E-02        -0.39800E-01         0.00000E+00
    0.50650E-02        -0.40389E-01         0.00000E+00
    0.48495E-02        -0.40977E-01         0.00000E+00
    0.46048E-02        -0.41561E-01         0.00000E+00
    0.43271E-02        -0.42136E-01         0.00000E+00
    0.40098E-02        -0.42693E-01         0.00000E+00
    0.36424E-02        -0.43223E-01         0.00000E+00
    0.32076E-02        -0.43714E-01         0.00000E+00
    0.26771E-02        -0.44148E-01         0.00000E+00
    0.20066E-02        -0.44499E-01         0.00000E+00
    0.11362E-02        -0.44731E-01         0.00000E+00
    0.00000E+00        -0.44813E-01         0.00000E+00
    0.00000E+00         0.74501E-02         0.00000E+00
    0.77011E-03         0.73694E-02         0.00000E+00
    0.14156E-02         0.71504E-02         0.00000E+00
    0.19582E-02         0.68343E-02         0.00000E+00
    0.24137E-02         0.64480E-02         0.00000E+00
    0.27948E-02         0.60072E-02         0.00000E+00
    0.31098E-02         0.55236E-02         0.00000E+00
    0.33630E-02         0.50055E-02         0.00000E+00
    0.35545E-02         0.44557E-02         0.00000E+00
    0.37091E-02         0.38737E-02         0.00000E+00
    0.38773E-02         0.32371E-02         0.00000E+00
    0.40661E-02         0.25811E-02         0.00000E+00
    0.42650E-02         0.19219E-02         0.00000E+00
    0.44657E-02         0.12663E-02         0.00000E+00
    0.46621E-02         0.61795E-03         0.00000E+00
    0.48495E-02        -0.21072E-04         0.00000E+00
    0.50252E-02        -0.64980E-03         0.00000E+00
    0.51869E-02        -0.12680E-02         0.00000E+00
    0.53333E-02        -0.18760E-02         0.00000E+00
    0.54636E-02        -0.24744E-02         0.00000E+00
    0.55772E-02        -0.30643E-02         0.00000E+00
    0.56738E-02        -0.36467E-02         0.00000E+00
    0.57533E-02        -0.42225E-02         0.00000E+00
    0.58153E-02        -0.47925E-02         0.00000E+00
    0.58595E-02        -0.53566E-02         0.00000E+00
    0.58847E-02        -0.59147E-02         0.00000E+00
    0.58982E-02        -0.64680E-02         0.00000E+00
    0.59138E-02        -0.70265E-02         0.00000E+00
    0.59317E-02        -0.75873E-02         0.00000E+00
    0.59506E-02        -0.81484E-02         0.00000E+00
    0.59695E-02        -0.87091E-02         0.00000E+00
    0.59874E-02        -0.92690E-02         0.00000E+00
    0.60036E-02        -0.98280E-02         0.00000E+00
    0.60173E-02        -0.10386E-01         0.00000E+00
    0.60279E-02        -0.10944E-01         0.00000E+00
    0.60348E-02        -0.11500E-01         0.00000E+00
    0.60375E-02        -0.12057E-01         0.00000E+00
    0.60353E-02        -0.12613E-01         0.00000E+00
    0.60274E-02        -0.13168E-01         0.00000E+00
    0.60126E-02        -0.13722E-01         0.00000E+00
    0.59921E-02        -0.14275E-01         0.00000E+00
    0.59746E-02        -0.14833E-01         0.00000E+00
    0.59622E-02        -0.15395E-01         0.00000E+00
    0.59536E-02        -0.15959E-01         0.00000E+00
    0.59477E-02        -0.16526E-01         0.00000E+00
    0.59433E-02        -0.17095E-01         0.00000E+00
    0.59396E-02        -0.17665E-01         0.00000E+00
    0.59356E-02        -0.18237E-01         0.00000E+00
    0.59303E-02        -0.18809E-01         0.00000E+00
    0.59241E-02        -0.19381E-01         0.00000E+00
    0.59216E-02        -0.19956E-01         0.00000E+00
    0.59237E-02        -0.20533E-01         0.00000E+00
    0.59297E-02        -0.21112E-01         0.00000E+00
    0.59387E-02        -0.21692E-01         0.00000E+00
    0.59501E-02        -0.22274E-01         0.00000E+00
    0.59632E-02        -0.22856E-01         0.00000E+00
    0.59775E-02        -0.23440E-01         0.00000E+00
    0.59924E-02        -0.24024E-01         0.00000E+00
    0.60099E-02        -0.24608E-01         0.00000E+00
    0.60310E-02        -0.25193E-01         0.00000E+00
    0.60553E-02        -0.25780E-01         0.00000E+00
    0.60823E-02        -0.26367E-01         0.00000E+00
    0.61116E-02        -0.26954E-01         0.00000E+00
    0.61426E-02        -0.27542E-01         0.00000E+00
    0.61752E-02        -0.28129E-01         0.00000E+00
    0.62089E-02        -0.28718E-01         0.00000E+00
    0.62434E-02        -0.29306E-01         0.00000E+00
    0.62783E-02        -0.29894E-01         0.00000E+00
    0.63133E-02        -0.30482E-01         0.00000E+00
    0.63479E-02        -0.31070E-01         0.00000E+00
    0.63817E-02        -0.31659E-01         0.00000E+00
    0.64142E-02        -0.32247E-01         0.00000E+00
    0.64448E-02        -0.32835E-01         0.00000E+00
    0.64730E-02        -0.33424E-01         0.00000E+00
    0.64980E-02        -0.34013E-01         0.00000E+00
    0.65190E-02        -0.34602E-01         0.00000E+00
    0.65351E-02        -0.35192E-01         0.00000E+00
    0.65452E-02        -0.35783E-01         0.00000E+00
    0.65483E-02        -0.36375E-01         0.00000E+00
    0.65430E-02        -0.36969E-01         0.00000E+00
    0.65278E-02        -0.37565E-01         0.00000E+00
    0.65014E-02        -0.38163E-01         0.00000E+00
    0.64621E-02        -0.38764E-01         0.00000E+00
    0.64082E-02        -0.39369E-01         0.00000E+00
    0.63378E-02        -0.39978E-01         0.00000E+00
    0.62493E-02        -0.40592E-01         0.00000E+00
    0.61409E-02        -0.41211E-01         0.00000E+00
    0.60107E-02        -0.41835E-01         0.00000E+00
    0.58570E-02        -0.42465E-01         0.00000E+00
    0.56781E-02        -0.43098E-01         0.00000E+00
    0.54720E-02        -0.43733E-01         0.00000E+00
    0.52367E-02        -0.44368E-01         0.00000E+00
    0.49691E-02        -0.44998E-01         0.00000E+00
    0.46649E-02        -0.45618E-01         0.00000E+00
    0.43171E-02        -0.46218E-01         0.00000E+00
    0.39144E-02        -0.46788E-01         0.00000E+00
    0.34386E-02        -0.47313E-01         0.00000E+00
    0.28598E-02        -0.47774E-01         0.00000E+00
    0.21334E-02        -0.48142E-01         0.00000E+00
    0.12009E-02        -0.48383E-01         0.00000E+00
    0.00000E+00        -0.48467E-01         0.00000E+00
    0.00000E+00         0.80024E-02         0.00000E+00
    0.81871E-03         0.79145E-02         0.00000E+00
    0.15101E-02         0.76781E-02         0.00000E+00
    0.20938E-02         0.73396E-02         0.00000E+00
    0.25853E-02         0.69262E-02         0.00000E+00
    0.29978E-02         0.64540E-02         0.00000E+00
    0.33400E-02         0.59355E-02         0.00000E+00
    0.36167E-02         0.53803E-02         0.00000E+00
    0.38286E-02         0.47909E-02         0.00000E+00
    0.40051E-02         0.41645E-02         0.00000E+00
    0.41951E-02         0.34801E-02         0.00000E+00
    0.44015E-02         0.27749E-02         0.00000E+00
    0.46153E-02         0.20661E-02         0.00000E+00
    0.48292E-02         0.13612E-02         0.00000E+00
    0.50375E-02         0.66424E-03         0.00000E+00
    0.52358E-02        -0.22719E-04         0.00000E+00
    0.54213E-02        -0.69861E-03         0.00000E+00
    0.55918E-02        -0.13632E-02         0.00000E+00
    0.57462E-02        -0.20168E-02         0.00000E+00
    0.58834E-02        -0.26602E-02         0.00000E+00
    0.60030E-02        -0.32945E-02         0.00000E+00
    0.61047E-02        -0.39207E-02         0.00000E+00
    0.61882E-02        -0.45400E-02         0.00000E+00
    0.62535E-02        -0.51531E-02         0.00000E+00
    0.63000E-02        -0.57600E-02         0.00000E+00
    0.63269E-02        -0.63606E-02         0.00000E+00
    0.63426E-02        -0.69573E-02         0.00000E+00
    0.63606E-02        -0.75590E-02         0.00000E+00
    0.63803E-02        -0.81630E-02         0.00000E+00
    0.64006E-02        -0.87673E-02         0.00000E+00
    0.64208E-02        -0.93712E-02         0.00000E+00
    0.64398E-02        -0.99742E-02         0.00000E+00
    0.64569E-02        -0.10576E-01         0.00000E+00
    0.64713E-02        -0.11177E-01         0.00000E+00
    0.64824E-02        -0.11778E-01         0.00000E+00
    0.64897E-02        -0.12377E-01         0.00000E+00
    0.64925E-02        -0.12976E-01         0.00000E+00
    0.64901E-02        -0.13575E-01         0.00000E+00
    0.64816E-02        -0.14173E-01         0.00000E+00
    0.64661E-02        -0.14770E-01         0.00000E+00
    0.64453E-02        -0.15366E-01         0.00000E+00
    0.64278E-02        -0.15967E-01         0.00000E+00
    0.64153E-02        -0.16573E-01         0.00000E+00
    0.64067E-02        -0.17181E-01         0.00000E+00
    0.64007E-02        -0.17792E-01         0.00000E+00
    0.63963E-02        -0.18405E-01         0.00000E+00
    0.63925E-02        -0.19019E-01         0.00000E+00
    0.63884E-02        -0.19634E-01         0.00000E+00
    0.63831E-02        -0.20251E-01         0.00000E+00
    0.63770E-02        -0.20867E-01         0.00000E+00
    0.63749E-02        -0.21487E-01         0.00000E+00
    0.63775E-02        -0.22109E-01         0.00000E+00
    0.63841E-02        -0.22732E-01         0.00000E+00
    0.63938E-02        -0.23357E-01         0.00000E+00
    0.64061E-02        -0.23984E-01         0.00000E+00
    0.64202E-02        -0.24612E-01         0.00000E+00
    0.64355E-02        -0.25240E-01         0.00000E+00
    0.64516E-02        -0.25869E-01         0.00000E+00
    0.64704E-02        -0.26499E-01         0.00000E+00
    0.64930E-02        -0.27129E-01         0.00000E+00
    0.65190E-02        -0.27761E-01         0.00000E+00
    0.65477E-02        -0.28393E-01         0.00000E+00
    0.65789E-02        -0.29026E-01         0.00000E+00
    0.66119E-02        -0.29659E-01         0.00000E+00
    0.66465E-02        -0.30292E-01         0.00000E+00
    0.66823E-02        -0.30925E-01         0.00000E+00
    0.67189E-02        -0.31559E-01         0.00000E+00
    0.67560E-02        -0.32192E-01         0.00000E+00
    0.67930E-02        -0.32826E-01         0.00000E+00
    0.68297E-02        -0.33459E-01         0.00000E+00
    0.68655E-02        -0.34093E-01         0.00000E+00
    0.68999E-02        -0.34726E-01         0.00000E+00
    0.69323E-02        -0.35360E-01         0.00000E+00
    0.69621E-02        -0.35993E-01         0.00000E+00
    0.69884E-02        -0.36627E-01         0.00000E+00
    0.70105E-02        -0.37262E-01         0.00000E+00
    0.70273E-02        -0.37897E-01         0.00000E+00
    0.70377E-02        -0.38533E-01         0.00000E+00
    0.70406E-02        -0.39170E-01         0.00000E+00
    0.70345E-02        -0.39808E-01         0.00000E+00
    0.70179E-02        -0.40449E-01         0.00000E+00
    0.69892E-02        -0.41092E-01         0.00000E+00
    0.69467E-02        -0.41738E-01         0.00000E+00
    0.68885E-02        -0.42389E-01         0.00000E+00
    0.68127E-02        -0.43043E-01         0.00000E+00
    0.67172E-02        -0.43703E-01         0.00000E+00
    0.66003E-02        -0.44367E-01         0.00000E+00
    0.64598E-02        -0.45038E-01         0.00000E+00
    0.62938E-02        -0.45713E-01         0.00000E+00
    0.61003E-02        -0.46392E-01         0.00000E+00
    0.58771E-02        -0.47074E-01         0.00000E+00
    0.56217E-02        -0.47755E-01         0.00000E+00
    0.53309E-02        -0.48431E-01         0.00000E+00
    0.49997E-02        -0.49095E-01         0.00000E+00
    0.46209E-02        -0.49737E-01         0.00000E+00
    0.41824E-02        -0.50345E-01         0.00000E+00
    0.36649E-02        -0.50904E-01         0.00000E+00
    0.30379E-02        -0.51391E-01         0.00000E+00
    0.22561E-02        -0.51777E-01         0.00000E+00
    0.12632E-02        -0.52027E-01         0.00000E+00
    0.00000E+00        -0.52113E-01         0.00000E+00
    0.00000E+00         0.85536E-02         0.00000E+00
    0.86778E-03         0.84579E-02         0.00000E+00
    0.16048E-02         0.82034E-02         0.00000E+00
    0.22293E-02         0.78425E-02         0.00000E+00
    0.27567E-02         0.74021E-02         0.00000E+00
    0.32007E-02         0.68987E-02         0.00000E+00
    0.35702E-02         0.63456E-02         0.00000E+00
    0.38709E-02         0.57534E-02         0.00000E+00
    0.41038E-02         0.51252E-02         0.00000E+00
    0.43034E-02         0.44530E-02         0.00000E+00
    0.45158E-02         0.37210E-02         0.00000E+00
    0.47399E-02         0.29671E-02         0.00000E+00
    0.49686E-02         0.22092E-02         0.00000E+00
    0.51955E-02         0.14554E-02         0.00000E+00
    0.54153E-02         0.71007E-03         0.00000E+00
    0.56241E-02        -0.24572E-04         0.00000E+00
    0.58189E-02        -0.74739E-03         0.00000E+00
    0.59979E-02        -0.14581E-02         0.00000E+00
    0.61597E-02        -0.21572E-02         0.00000E+00
    0.63035E-02        -0.28454E-02         0.00000E+00
    0.64287E-02        -0.35239E-02         0.00000E+00
    0.65351E-02        -0.41939E-02         0.00000E+00
    0.66226E-02        -0.48565E-02         0.00000E+00
    0.66908E-02        -0.55126E-02         0.00000E+00
    0.67396E-02        -0.61623E-02         0.00000E+00
    0.67681E-02        -0.68053E-02         0.00000E+00
    0.67861E-02        -0.74456E-02         0.00000E+00
    0.68064E-02        -0.80905E-02         0.00000E+00
    0.68279E-02        -0.87377E-02         0.00000E+00
    0.68497E-02        -0.93852E-02         0.00000E+00
    0.68711E-02        -0.10032E-01         0.00000E+00
    0.68911E-02        -0.10678E-01         0.00000E+00
    0.69091E-02        -0.11324E-01         0.00000E+00
    0.69242E-02        -0.11968E-01         0.00000E+00
    0.69359E-02        -0.12611E-01         0.00000E+00
    0.69434E-02        -0.13253E-01         0.00000E+00
    0.69462E-02        -0.13895E-01         0.00000E+00
    0.69437E-02        -0.14537E-01         0.00000E+00
    0.69348E-02        -0.15178E-01         0.00000E+00
    0.69186E-02        -0.15817E-01         0.00000E+00
    0.68976E-02        -0.16456E-01         0.00000E+00
    0.68802E-02        -0.17101E-01         0.00000E+00
    0.68678E-02        -0.17750E-01         0.00000E+00
    0.68591E-02        -0.18402E-01         0.00000E+00
    0.68531E-02        -0.19057E-01         0.00000E+00
    0.68487E-02        -0.19714E-01         0.00000E+00
    0.68449E-02        -0.20372E-01         0.00000E+00
    0.68407E-02        -0.21032E-01         0.00000E+00
    0.68354E-02        -0.21692E-01         0.00000E+00
    0.68296E-02        -0.22353E-01         0.00000E+00
    0.68279E-02        -0.23017E-01         0.00000E+00
    0.68310E-02        -0.23684E-01         0.00000E+00
    0.68383E-02        -0.24352E-01         0.00000E+00
    0.68488E-02        -0.25022E-01         0.00000E+00
    0.68619E-02        -0.25694E-01         0.00000E+00
    0.68769E-02        -0.26366E-01         0.00000E+00
    0.68933E-02        -0.27040E-01         0.00000E+00
    0.69104E-02        -0.27714E-01         0.00000E+00
    0.69307E-02        -0.28389E-01         0.00000E+00
    0.69548E-02        -0.29065E-01         0.00000E+00
    0.69824E-02        -0.29742E-01         0.00000E+00
    0.70128E-02        -0.30419E-01         0.00000E+00
    0.70458E-02        -0.31097E-01         0.00000E+00
    0.70807E-02        -0.31776E-01         0.00000E+00
    0.71173E-02        -0.32454E-01         0.00000E+00
    0.71551E-02        -0.33133E-01         0.00000E+00
    0.71938E-02        -0.33812E-01         0.00000E+00
    0.72329E-02        -0.34491E-01         0.00000E+00
    0.72720E-02        -0.35169E-01         0.00000E+00
    0.73106E-02        -0.35848E-01         0.00000E+00
    0.73484E-02        -0.36526E-01         0.00000E+00
    0.73846E-02        -0.37205E-01         0.00000E+00
    0.74187E-02        -0.37884E-01         0.00000E+00
    0.74500E-02        -0.38562E-01         0.00000E+00
    0.74776E-02        -0.39241E-01         0.00000E+00
    0.75006E-02        -0.39921E-01         0.00000E+00
    0.75181E-02        -0.40601E-01         0.00000E+00
    0.75288E-02        -0.41281E-01         0.00000E+00
    0.75314E-02        -0.41963E-01         0.00000E+00
    0.75244E-02        -0.42647E-01         0.00000E+00
    0.75063E-02        -0.43332E-01         0.00000E+00
    0.74754E-02        -0.44020E-01         0.00000E+00
    0.74296E-02        -0.44712E-01         0.00000E+00
    0.73671E-02        -0.45407E-01         0.00000E+00
    0.72858E-02        -0.46106E-01         0.00000E+00
    0.71835E-02        -0.46811E-01         0.00000E+00
    0.70581E-02        -0.47522E-01         0.00000E+00
    0.69073E-02        -0.48238E-01         0.00000E+00
    0.67290E-02        -0.48959E-01         0.00000E+00
    0.65208E-02        -0.49684E-01         0.00000E+00
    0.62803E-02        -0.50412E-01         0.00000E+00
    0.60047E-02        -0.51139E-01         0.00000E+00
    0.56903E-02        -0.51860E-01         0.00000E+00
    0.53318E-02        -0.52567E-01         0.00000E+00
    0.49214E-02        -0.53251E-01         0.00000E+00
    0.44465E-02        -0.53897E-01         0.00000E+00
    0.38870E-02        -0.54489E-01         0.00000E+00
    0.32115E-02        -0.55001E-01         0.00000E+00
    0.23752E-02        -0.55403E-01         0.00000E+00
    0.13235E-02        -0.55662E-01         0.00000E+00
    0.00000E+00        -0.55751E-01         0.00000E+00
    0.00000E+00         0.91040E-02         0.00000E+00
    0.91784E-03         0.89997E-02         0.00000E+00
    0.17003E-02         0.87263E-02         0.00000E+00
    0.23651E-02         0.83432E-02         0.00000E+00
    0.29281E-02         0.78759E-02         0.00000E+00
    0.34037E-02         0.73415E-02         0.00000E+00
    0.38007E-02         0.67539E-02         0.00000E+00
    0.41256E-02         0.61247E-02         0.00000E+00
    0.43805E-02         0.54587E-02         0.00000E+00
    0.46043E-02         0.47391E-02         0.00000E+00
    0.48396E-02         0.39598E-02         0.00000E+00
    0.50815E-02         0.31577E-02         0.00000E+00
    0.53250E-02         0.23511E-02         0.00000E+00
    0.55646E-02         0.15488E-02         0.00000E+00
    0.57956E-02         0.75538E-03         0.00000E+00
    0.60144E-02        -0.26666E-04         0.00000E+00
    0.62181E-02        -0.79617E-03         0.00000E+00
    0.64051E-02        -0.15529E-02         0.00000E+00
    0.65739E-02        -0.22972E-02         0.00000E+00
    0.67239E-02        -0.30300E-02         0.00000E+00
    0.68544E-02        -0.37526E-02         0.00000E+00
    0.69653E-02        -0.44661E-02         0.00000E+00
    0.70563E-02        -0.51720E-02         0.00000E+00
    0.71274E-02        -0.58711E-02         0.00000E+00
    0.71783E-02        -0.65635E-02         0.00000E+00
    0.72084E-02        -0.72488E-02         0.00000E+00
    0.72289E-02        -0.79328E-02         0.00000E+00
    0.72513E-02        -0.86210E-02         0.00000E+00
    0.72745E-02        -0.93113E-02         0.00000E+00
    0.72978E-02        -0.10002E-01         0.00000E+00
    0.73204E-02        -0.10692E-01         0.00000E+00
    0.73415E-02        -0.11382E-01         0.00000E+00
    0.73603E-02        -0.12070E-01         0.00000E+00
    0.73761E-02        -0.12757E-01         0.00000E+00
    0.73882E-02        -0.13443E-01         0.00000E+00
    0.73961E-02        -0.14128E-01         0.00000E+00
    0.73989E-02        -0.14813E-01         0.00000E+00
    0.73962E-02        -0.15497E-01         0.00000E+00
    0.73869E-02        -0.16181E-01         0.00000E+00
    0.73701E-02        -0.16864E-01         0.00000E+00
    0.73489E-02        -0.17546E-01         0.00000E+00
    0.73318E-02        -0.18234E-01         0.00000E+00
    0.73196E-02        -0.18927E-01         0.00000E+00
    0.73110E-02        -0.19623E-01         0.00000E+00
    0.73050E-02        -0.20321E-01         0.00000E+00
    0.73006E-02        -0.21022E-01         0.00000E+00
    0.72968E-02        -0.21724E-01         0.00000E+00
    0.72927E-02        -0.22428E-01         0.00000E+00
    0.72874E-02        -0.23133E-01         0.00000E+00
    0.72818E-02        -0.23838E-01         0.00000E+00
    0.72806E-02        -0.24547E-01         0.00000E+00
    0.72843E-02        -0.25258E-01         0.00000E+00
    0.72922E-02        -0.25972E-01         0.00000E+00
    0.73035E-02        -0.26687E-01         0.00000E+00
    0.73175E-02        -0.27403E-01         0.00000E+00
    0.73334E-02        -0.28121E-01         0.00000E+00
    0.73508E-02        -0.28839E-01         0.00000E+00
    0.73691E-02        -0.29558E-01         0.00000E+00
    0.73907E-02        -0.30279E-01         0.00000E+00
    0.74163E-02        -0.31000E-01         0.00000E+00
    0.74454E-02        -0.31722E-01         0.00000E+00
    0.74776E-02        -0.32445E-01         0.00000E+00
    0.75123E-02        -0.33169E-01         0.00000E+00
    0.75491E-02        -0.33892E-01         0.00000E+00
    0.75876E-02        -0.34616E-01         0.00000E+00
    0.76273E-02        -0.35340E-01         0.00000E+00
    0.76680E-02        -0.36065E-01         0.00000E+00
    0.77090E-02        -0.36789E-01         0.00000E+00
    0.77501E-02        -0.37513E-01         0.00000E+00
    0.77907E-02        -0.38236E-01         0.00000E+00
    0.78303E-02        -0.38960E-01         0.00000E+00
    0.78682E-02        -0.39684E-01         0.00000E+00
    0.79039E-02        -0.40408E-01         0.00000E+00
    0.79366E-02        -0.41131E-01         0.00000E+00
    0.79654E-02        -0.41855E-01         0.00000E+00
    0.79894E-02        -0.42579E-01         0.00000E+00
    0.80074E-02        -0.43304E-01         0.00000E+00
    0.80183E-02        -0.44030E-01         0.00000E+00
    0.80206E-02        -0.44756E-01         0.00000E+00
    0.80128E-02        -0.45484E-01         0.00000E+00
    0.79932E-02        -0.46215E-01         0.00000E+00
    0.79599E-02        -0.46948E-01         0.00000E+00
    0.79109E-02        -0.47684E-01         0.00000E+00
    0.78442E-02        -0.48424E-01         0.00000E+00
    0.77574E-02        -0.49168E-01         0.00000E+00
    0.76482E-02        -0.49918E-01         0.00000E+00
    0.75143E-02        -0.50674E-01         0.00000E+00
    0.73533E-02        -0.51435E-01         0.00000E+00
    0.71626E-02        -0.52202E-01         0.00000E+00
    0.69397E-02        -0.52973E-01         0.00000E+00
    0.66818E-02        -0.53747E-01         0.00000E+00
    0.63858E-02        -0.54519E-01         0.00000E+00
    0.60475E-02        -0.55284E-01         0.00000E+00
    0.56613E-02        -0.56034E-01         0.00000E+00
    0.52189E-02        -0.56759E-01         0.00000E+00
    0.47070E-02        -0.57443E-01         0.00000E+00
    0.41050E-02        -0.58066E-01         0.00000E+00
    0.33810E-02        -0.58603E-01         0.00000E+00
    0.24909E-02        -0.59022E-01         0.00000E+00
    0.13819E-02        -0.59289E-01         0.00000E+00
    0.00000E+00        -0.59380E-01         0.00000E+00
    0.00000E+00         0.96537E-02         0.00000E+00
    0.96959E-03         0.95401E-02         0.00000E+00
    0.17971E-02         0.92470E-02         0.00000E+00
    0.25014E-02         0.88419E-02         0.00000E+00
    0.31000E-02         0.83477E-02         0.00000E+00
    0.36072E-02         0.77823E-02         0.00000E+00
    0.40318E-02         0.71607E-02         0.00000E+00
    0.43806E-02         0.64940E-02         0.00000E+00
    0.46588E-02         0.57918E-02         0.00000E+00
    0.49084E-02         0.50222E-02         0.00000E+00
    0.51664E-02         0.41965E-02         0.00000E+00
    0.54262E-02         0.33465E-02         0.00000E+00
    0.56844E-02         0.24917E-02         0.00000E+00
    0.59365E-02         0.16413E-02         0.00000E+00
    0.61783E-02         0.80013E-03         0.00000E+00
    0.64066E-02        -0.29030E-04         0.00000E+00
    0.66189E-02        -0.84497E-03         0.00000E+00
    0.68134E-02        -0.16474E-02         0.00000E+00
    0.69888E-02        -0.24368E-02         0.00000E+00
    0.71446E-02        -0.32141E-02         0.00000E+00
    0.72801E-02        -0.39805E-02         0.00000E+00
    0.73952E-02        -0.47376E-02         0.00000E+00
    0.74896E-02        -0.54866E-02         0.00000E+00
    0.75633E-02        -0.62285E-02         0.00000E+00
    0.76162E-02        -0.69636E-02         0.00000E+00
    0.76478E-02        -0.76914E-02         0.00000E+00
    0.76709E-02        -0.84190E-02         0.00000E+00
    0.76954E-02        -0.91505E-02         0.00000E+00
    0.77203E-02        -0.98840E-02         0.00000E+00
    0.77450E-02        -0.10618E-01         0.00000E+00
    0.77687E-02        -0.11351E-01         0.00000E+00
    0.77908E-02        -0.12084E-01         0.00000E+00
    0.78104E-02        -0.12815E-01         0.00000E+00
    0.78269E-02        -0.13545E-01         0.00000E+00
    0.78395E-02        -0.14274E-01         0.00000E+00
    0.78476E-02        -0.15002E-01         0.00000E+00
    0.78506E-02        -0.15730E-01         0.00000E+00
    0.78477E-02        -0.16457E-01         0.00000E+00
    0.78381E-02        -0.17183E-01         0.00000E+00
    0.78208E-02        -0.17909E-01         0.00000E+00
    0.77995E-02        -0.18634E-01         0.00000E+00
    0.77827E-02        -0.19366E-01         0.00000E+00
    0.77707E-02        -0.20102E-01         0.00000E+00
    0.77622E-02        -0.20842E-01         0.00000E+00
    0.77563E-02        -0.21585E-01         0.00000E+00
    0.77520E-02        -0.22330E-01         0.00000E+00
    0.77482E-02        -0.23076E-01         0.00000E+00
    0.77442E-02        -0.23824E-01         0.00000E+00
    0.77390E-02        -0.24573E-01         0.00000E+00
    0.77337E-02        -0.25323E-01         0.00000E+00
    0.77330E-02        -0.26076E-01         0.00000E+00
    0.77374E-02        -0.26832E-01         0.00000E+00
    0.77459E-02        -0.27591E-01         0.00000E+00
    0.77580E-02        -0.28351E-01         0.00000E+00
    0.77728E-02        -0.29112E-01         0.00000E+00
    0.77897E-02        -0.29875E-01         0.00000E+00
    0.78081E-02        -0.30638E-01         0.00000E+00
    0.78276E-02        -0.31403E-01         0.00000E+00
    0.78505E-02        -0.32168E-01         0.00000E+00
    0.78775E-02        -0.32935E-01         0.00000E+00
    0.79082E-02        -0.33703E-01         0.00000E+00
    0.79419E-02        -0.34471E-01         0.00000E+00
    0.79784E-02        -0.35240E-01         0.00000E+00
    0.80170E-02        -0.36009E-01         0.00000E+00
    0.80573E-02        -0.36778E-01         0.00000E+00
    0.80990E-02        -0.37548E-01         0.00000E+00
    0.81415E-02        -0.38317E-01         0.00000E+00
    0.81845E-02        -0.39087E-01         0.00000E+00
    0.82274E-02        -0.39856E-01         0.00000E+00
    0.82698E-02        -0.40625E-01         0.00000E+00
    0.83112E-02        -0.41394E-01         0.00000E+00
    0.83508E-02        -0.42162E-01         0.00000E+00
    0.83880E-02        -0.42931E-01         0.00000E+00
    0.84220E-02        -0.43700E-01         0.00000E+00
    0.84520E-02        -0.44469E-01         0.00000E+00
    0.84768E-02        -0.45238E-01         0.00000E+00
    0.84953E-02        -0.46007E-01         0.00000E+00
    0.85063E-02        -0.46778E-01         0.00000E+00
    0.85083E-02        -0.47549E-01         0.00000E+00
    0.84996E-02        -0.48322E-01         0.00000E+00
    0.84784E-02        -0.49097E-01         0.00000E+00
    0.84428E-02        -0.49874E-01         0.00000E+00
    0.83906E-02        -0.50655E-01         0.00000E+00
    0.83196E-02        -0.51440E-01         0.00000E+00
    0.82274E-02        -0.52229E-01         0.00000E+00
    0.81114E-02        -0.53024E-01         0.00000E+00
    0.79690E-02        -0.53824E-01         0.00000E+00
    0.77977E-02        -0.54631E-01         0.00000E+00
    0.75946E-02        -0.55443E-01         0.00000E+00
    0.73570E-02        -0.56259E-01         0.00000E+00
    0.70816E-02        -0.57078E-01         0.00000E+00
    0.67650E-02        -0.57895E-01         0.00000E+00
    0.64026E-02        -0.58704E-01         0.00000E+00
    0.59884E-02        -0.59497E-01         0.00000E+00
    0.55134E-02        -0.60262E-01         0.00000E+00
    0.49641E-02        -0.60982E-01         0.00000E+00
    0.43192E-02        -0.61636E-01         0.00000E+00
    0.35468E-02        -0.62198E-01         0.00000E+00
    0.26036E-02        -0.62632E-01         0.00000E+00
    0.14386E-02        -0.62908E-01         0.00000E+00
    0.00000E+00        -0.63003E-01         0.00000E+00
    0.00000E+00         0.10203E-01         0.00000E+00
    0.10240E-02         0.10079E-01         0.00000E+00
    0.18955E-02         0.97654E-02         0.00000E+00
    0.26387E-02         0.93386E-02         0.00000E+00
    0.32726E-02         0.88175E-02         0.00000E+00
    0.38113E-02         0.82213E-02         0.00000E+00
    0.42639E-02         0.75657E-02         0.00000E+00
    0.46363E-02         0.68621E-02         0.00000E+00
    0.49397E-02         0.61215E-02         0.00000E+00
    0.52162E-02         0.53029E-02         0.00000E+00
    0.54963E-02         0.44307E-02         0.00000E+00
    0.57740E-02         0.35335E-02         0.00000E+00
    0.60467E-02         0.26309E-02         0.00000E+00
    0.63110E-02         0.17328E-02         0.00000E+00
    0.65634E-02         0.84428E-03         0.00000E+00
    0.68009E-02        -0.31693E-04         0.00000E+00
    0.70212E-02        -0.89381E-03         0.00000E+00
    0.72228E-02        -0.17418E-02         0.00000E+00
    0.74045E-02        -0.25760E-02         0.00000E+00
    0.75657E-02        -0.33976E-02         0.00000E+00
    0.77059E-02        -0.42078E-02         0.00000E+00
    0.78248E-02        -0.50081E-02         0.00000E+00
    0.79224E-02        -0.58001E-02         0.00000E+00
    0.79986E-02        -0.65849E-02         0.00000E+00
    0.80532E-02        -0.73626E-02         0.00000E+00
    0.80866E-02        -0.81328E-02         0.00000E+00
    0.81121E-02        -0.89042E-02         0.00000E+00
    0.81386E-02        -0.96789E-02         0.00000E+00
    0.81652E-02        -0.10456E-01         0.00000E+00
    0.81912E-02        -0.11233E-01         0.00000E+00
    0.82162E-02        -0.12009E-01         0.00000E+00
    0.82392E-02        -0.12785E-01         0.00000E+00
    0.82596E-02        -0.13559E-01         0.00000E+00
    0.82767E-02        -0.14332E-01         0.00000E+00
    0.82898E-02        -0.15104E-01         0.00000E+00
    0.82982E-02        -0.15875E-01         0.00000E+00
    0.83012E-02        -0.16645E-01         0.00000E+00
    0.82982E-02        -0.17415E-01         0.00000E+00
    0.82883E-02        -0.18185E-01         0.00000E+00
    0.82705E-02        -0.18953E-01         0.00000E+00
    0.82493E-02        -0.19722E-01         0.00000E+00
    0.82329E-02        -0.20497E-01         0.00000E+00
    0.82211E-02        -0.21278E-01         0.00000E+00
    0.82128E-02        -0.22061E-01         0.00000E+00
    0.82071E-02        -0.22848E-01         0.00000E+00
    0.82029E-02        -0.23637E-01         0.00000E+00
    0.81992E-02        -0.24427E-01         0.00000E+00
    0.81953E-02        -0.25219E-01         0.00000E+00
    0.81902E-02        -0.26013E-01         0.00000E+00
    0.81853E-02        -0.26807E-01         0.00000E+00
    0.81852E-02        -0.27605E-01         0.00000E+00
    0.81901E-02        -0.28406E-01         0.00000E+00
    0.81995E-02        -0.29209E-01         0.00000E+00
    0.82123E-02        -0.30014E-01         0.00000E+00
    0.82280E-02        -0.30821E-01         0.00000E+00
    0.82458E-02        -0.31629E-01         0.00000E+00
    0.82652E-02        -0.32437E-01         0.00000E+00
    0.82858E-02        -0.33247E-01         0.00000E+00
    0.83100E-02        -0.34058E-01         0.00000E+00
    0.83385E-02        -0.34870E-01         0.00000E+00
    0.83706E-02        -0.35683E-01         0.00000E+00
    0.84060E-02        -0.36497E-01         0.00000E+00
    0.84441E-02        -0.37311E-01         0.00000E+00
    0.84844E-02        -0.38126E-01         0.00000E+00
    0.85265E-02        -0.38940E-01         0.00000E+00
    0.85700E-02        -0.39755E-01         0.00000E+00
    0.86144E-02        -0.40570E-01         0.00000E+00
    0.86592E-02        -0.41384E-01         0.00000E+00
    0.87039E-02        -0.42199E-01         0.00000E+00
    0.87481E-02        -0.43013E-01         0.00000E+00
    0.87911E-02        -0.43827E-01         0.00000E+00
    0.88323E-02        -0.44641E-01         0.00000E+00
    0.88710E-02        -0.45455E-01         0.00000E+00
    0.89063E-02        -0.46268E-01         0.00000E+00
    0.89372E-02        -0.47082E-01         0.00000E+00
    0.89628E-02        -0.47896E-01         0.00000E+00
    0.89818E-02        -0.48710E-01         0.00000E+00
    0.89929E-02        -0.49525E-01         0.00000E+00
    0.89945E-02        -0.50341E-01         0.00000E+00
    0.89848E-02        -0.51158E-01         0.00000E+00
    0.89621E-02        -0.51978E-01         0.00000E+00
    0.89241E-02        -0.52800E-01         0.00000E+00
    0.88687E-02        -0.53625E-01         0.00000E+00
    0.87935E-02        -0.54454E-01         0.00000E+00
    0.86958E-02        -0.55288E-01         0.00000E+00
    0.85730E-02        -0.56128E-01         0.00000E+00
    0.84223E-02        -0.56973E-01         0.00000E+00
    0.82407E-02        -0.57824E-01         0.00000E+00
    0.80252E-02        -0.58681E-01         0.00000E+00
    0.77728E-02        -0.59542E-01         0.00000E+00
    0.74799E-02        -0.60405E-01         0.00000E+00
    0.71425E-02        -0.61266E-01         0.00000E+00
    0.67557E-02        -0.62119E-01         0.00000E+00
    0.63131E-02        -0.62954E-01         0.00000E+00
    0.58052E-02        -0.63758E-01         0.00000E+00
    0.52181E-02        -0.64515E-01         0.00000E+00
    0.45300E-02        -0.65200E-01         0.00000E+00
    0.37093E-02        -0.65785E-01         0.00000E+00
    0.27136E-02        -0.66236E-01         0.00000E+00
    0.14939E-02        -0.66520E-01         0.00000E+00
    0.00000E+00        -0.66617E-01         0.00000E+00
    0.00000E+00         0.10752E-01         0.00000E+00
    0.10827E-02         0.10617E-01         0.00000E+00
    0.19957E-02         0.10282E-01         0.00000E+00
    0.27771E-02         0.98337E-02         0.00000E+00
    0.34462E-02         0.92854E-02         0.00000E+00
    0.40164E-02         0.86585E-02         0.00000E+00
    0.44972E-02         0.79690E-02         0.00000E+00
    0.48934E-02         0.72289E-02         0.00000E+00
    0.52234E-02         0.64473E-02         0.00000E+00
    0.55276E-02         0.55810E-02         0.00000E+00
    0.58295E-02         0.46624E-02         0.00000E+00
    0.61249E-02         0.37186E-02         0.00000E+00
    0.64120E-02         0.27688E-02         0.00000E+00
    0.66883E-02         0.18233E-02         0.00000E+00
    0.69508E-02         0.88781E-03         0.00000E+00
    0.71970E-02        -0.34678E-04         0.00000E+00
    0.74251E-02        -0.94271E-03         0.00000E+00
    0.76334E-02        -0.18360E-02         0.00000E+00
    0.78210E-02        -0.27149E-02         0.00000E+00
    0.79872E-02        -0.35805E-02         0.00000E+00
    0.81318E-02        -0.44343E-02         0.00000E+00
    0.82543E-02        -0.52778E-02         0.00000E+00
    0.83548E-02        -0.61127E-02         0.00000E+00
    0.84333E-02        -0.69403E-02         0.00000E+00
    0.84895E-02        -0.77606E-02         0.00000E+00
    0.85248E-02        -0.85735E-02         0.00000E+00
    0.85526E-02        -0.93884E-02         0.00000E+00
    0.85810E-02        -0.10206E-01         0.00000E+00
    0.86092E-02        -0.11026E-01         0.00000E+00
    0.86366E-02        -0.11847E-01         0.00000E+00
    0.86627E-02        -0.12666E-01         0.00000E+00
    0.86867E-02        -0.13485E-01         0.00000E+00
    0.87079E-02        -0.14302E-01         0.00000E+00
    0.87256E-02        -0.15118E-01         0.00000E+00
    0.87391E-02        -0.15933E-01         0.00000E+00
    0.87478E-02        -0.16747E-01         0.00000E+00
    0.87509E-02        -0.17560E-01         0.00000E+00
    0.87477E-02        -0.18373E-01         0.00000E+00
    0.87375E-02        -0.19185E-01         0.00000E+00
    0.87194E-02        -0.19996E-01         0.00000E+00
    0.86984E-02        -0.20809E-01         0.00000E+00
    0.86824E-02        -0.21628E-01         0.00000E+00
    0.86709E-02        -0.22452E-01         0.00000E+00
    0.86629E-02        -0.23280E-01         0.00000E+00
    0.86573E-02        -0.24110E-01         0.00000E+00
    0.86533E-02        -0.24943E-01         0.00000E+00
    0.86498E-02        -0.25778E-01         0.00000E+00
    0.86460E-02        -0.26614E-01         0.00000E+00
    0.86411E-02        -0.27452E-01         0.00000E+00
    0.86366E-02        -0.28291E-01         0.00000E+00
    0.86371E-02        -0.29134E-01         0.00000E+00
    0.86427E-02        -0.29979E-01         0.00000E+00
    0.86528E-02        -0.30827E-01         0.00000E+00
    0.86664E-02        -0.31677E-01         0.00000E+00
    0.86829E-02        -0.32529E-01         0.00000E+00
    0.87017E-02        -0.33382E-01         0.00000E+00
    0.87221E-02        -0.34236E-01         0.00000E+00
    0.87439E-02        -0.35091E-01         0.00000E+00
    0.87693E-02        -0.35947E-01         0.00000E+00
    0.87991E-02        -0.36805E-01         0.00000E+00
    0.88328E-02        -0.37663E-01         0.00000E+00
    0.88697E-02        -0.38522E-01         0.00000E+00
    0.89094E-02        -0.39382E-01         0.00000E+00
    0.89514E-02        -0.40242E-01         0.00000E+00
    0.89952E-02        -0.41102E-01         0.00000E+00
    0.90404E-02        -0.41962E-01         0.00000E+00
    0.90866E-02        -0.42822E-01         0.00000E+00
    0.91331E-02        -0.43682E-01         0.00000E+00
    0.91796E-02        -0.44542E-01         0.00000E+00
    0.92255E-02        -0.45401E-01         0.00000E+00
    0.92701E-02        -0.46260E-01         0.00000E+00
    0.93128E-02        -0.47119E-01         0.00000E+00
    0.93528E-02        -0.47978E-01         0.00000E+00
    0.93893E-02        -0.48837E-01         0.00000E+00
    0.94212E-02        -0.49695E-01         0.00000E+00
    0.94476E-02        -0.50554E-01         0.00000E+00
    0.94670E-02        -0.51413E-01         0.00000E+00
    0.94780E-02        -0.52272E-01         0.00000E+00
    0.94792E-02        -0.53133E-01         0.00000E+00
    0.94685E-02        -0.53995E-01         0.00000E+00
    0.94442E-02        -0.54858E-01         0.00000E+00
    0.94039E-02        -0.55725E-01         0.00000E+00
    0.93453E-02        -0.56594E-01         0.00000E+00
    0.92658E-02        -0.57468E-01         0.00000E+00
    0.91628E-02        -0.58346E-01         0.00000E+00
    0.90332E-02        -0.59230E-01         0.00000E+00
    0.88741E-02        -0.60119E-01         0.00000E+00
    0.86822E-02        -0.61015E-01         0.00000E+00
    0.84545E-02        -0.61917E-01         0.00000E+00
    0.81872E-02        -0.62822E-01         0.00000E+00
    0.78766E-02        -0.63730E-01         0.00000E+00
    0.75184E-02        -0.64634E-01         0.00000E+00
    0.71071E-02        -0.65530E-01         0.00000E+00
    0.66357E-02        -0.66406E-01         0.00000E+00
    0.60946E-02        -0.67250E-01         0.00000E+00
    0.54691E-02        -0.68041E-01         0.00000E+00
    0.47376E-02        -0.68757E-01         0.00000E+00
    0.38686E-02        -0.69365E-01         0.00000E+00
    0.28211E-02        -0.69832E-01         0.00000E+00
    0.15477E-02        -0.70125E-01         0.00000E+00
    0.00000E+00        -0.70225E-01         0.00000E+00
    0.00000E+00         0.11297E-01         0.00000E+00
    0.11459E-02         0.11150E-01         0.00000E+00
    0.20978E-02         0.10798E-01         0.00000E+00
    0.29170E-02         0.10327E-01         0.00000E+00
    0.36211E-02         0.97516E-02         0.00000E+00
    0.42227E-02         0.90939E-02         0.00000E+00
    0.47317E-02         0.83707E-02         0.00000E+00
    0.51526E-02         0.75944E-02         0.00000E+00
    0.55102E-02         0.67691E-02         0.00000E+00
    0.58426E-02         0.58563E-02         0.00000E+00
    0.61660E-02         0.48917E-02         0.00000E+00
    0.64790E-02         0.39017E-02         0.00000E+00
    0.67802E-02         0.29051E-02         0.00000E+00
    0.70681E-02         0.19128E-02         0.00000E+00
    0.73405E-02         0.93067E-03         0.00000E+00
    0.75951E-02        -0.38006E-04         0.00000E+00
    0.78304E-02        -0.99168E-03         0.00000E+00
    0.80451E-02        -0.19300E-02         0.00000E+00
    0.82382E-02        -0.28533E-02         0.00000E+00
    0.84092E-02        -0.37629E-02         0.00000E+00
    0.85577E-02        -0.46601E-02         0.00000E+00
    0.86837E-02        -0.55467E-02         0.00000E+00
    0.87869E-02        -0.64244E-02         0.00000E+00
    0.88674E-02        -0.72946E-02         0.00000E+00
    0.89252E-02        -0.81575E-02         0.00000E+00
    0.89623E-02        -0.90132E-02         0.00000E+00
    0.89924E-02        -0.98715E-02         0.00000E+00
    0.90227E-02        -0.10733E-01         0.00000E+00
    0.90524E-02        -0.11596E-01         0.00000E+00
    0.90812E-02        -0.12459E-01         0.00000E+00
    0.91083E-02        -0.13322E-01         0.00000E+00
    0.91333E-02        -0.14184E-01         0.00000E+00
    0.91552E-02        -0.15045E-01         0.00000E+00
    0.91736E-02        -0.15904E-01         0.00000E+00
    0.91875E-02        -0.16761E-01         0.00000E+00
    0.91964E-02        -0.17618E-01         0.00000E+00
    0.91996E-02        -0.18474E-01         0.00000E+00
    0.91963E-02        -0.19330E-01         0.00000E+00
    0.91859E-02        -0.20185E-01         0.00000E+00
    0.91675E-02        -0.21039E-01         0.00000E+00
    0.91467E-02        -0.21895E-01         0.00000E+00
    0.91313E-02        -0.22758E-01         0.00000E+00
    0.91202E-02        -0.23626E-01         0.00000E+00
    0.91124E-02        -0.24497E-01         0.00000E+00
    0.91071E-02        -0.25372E-01         0.00000E+00
    0.91033E-02        -0.26249E-01         0.00000E+00
    0.91000E-02        -0.27128E-01         0.00000E+00
    0.90964E-02        -0.28008E-01         0.00000E+00
    0.90917E-02        -0.28890E-01         0.00000E+00
    0.90876E-02        -0.29774E-01         0.00000E+00
    0.90887E-02        -0.30662E-01         0.00000E+00
    0.90951E-02        -0.31552E-01         0.00000E+00
    0.91058E-02        -0.32445E-01         0.00000E+00
    0.91203E-02        -0.33340E-01         0.00000E+00
    0.91377E-02        -0.34237E-01         0.00000E+00
    0.91574E-02        -0.35135E-01         0.00000E+00
    0.91788E-02        -0.36034E-01         0.00000E+00
    0.92017E-02        -0.36934E-01         0.00000E+00
    0.92284E-02        -0.37836E-01         0.00000E+00
    0.92596E-02        -0.38739E-01         0.00000E+00
    0.92946E-02        -0.39643E-01         0.00000E+00
    0.93330E-02        -0.40548E-01         0.00000E+00
    0.93743E-02        -0.41453E-01         0.00000E+00
    0.94179E-02        -0.42358E-01         0.00000E+00
    0.94634E-02        -0.43264E-01         0.00000E+00
    0.95103E-02        -0.44169E-01         0.00000E+00
    0.95581E-02        -0.45074E-01         0.00000E+00
    0.96064E-02        -0.45980E-01         0.00000E+00
    0.96545E-02        -0.46884E-01         0.00000E+00
    0.97020E-02        -0.47789E-01         0.00000E+00
    0.97481E-02        -0.48693E-01         0.00000E+00
    0.97922E-02        -0.49597E-01         0.00000E+00
    0.98336E-02        -0.50501E-01         0.00000E+00
    0.98711E-02        -0.51405E-01         0.00000E+00
    0.99040E-02        -0.52308E-01         0.00000E+00
    0.99310E-02        -0.53211E-01         0.00000E+00
    0.99507E-02        -0.54115E-01         0.00000E+00
    0.99617E-02        -0.55019E-01         0.00000E+00
    0.99624E-02        -0.55924E-01         0.00000E+00
    0.99507E-02        -0.56830E-01         0.00000E+00
    0.99248E-02        -0.57738E-01         0.00000E+00
    0.98821E-02        -0.58649E-01         0.00000E+00
    0.98204E-02        -0.59562E-01         0.00000E+00
    0.97367E-02        -0.60480E-01         0.00000E+00
    0.96282E-02        -0.61403E-01         0.00000E+00
    0.94919E-02        -0.62330E-01         0.00000E+00
    0.93245E-02        -0.63264E-01         0.00000E+00
    0.91225E-02        -0.64204E-01         0.00000E+00
    0.88824E-02        -0.65150E-01         0.00000E+00
    0.86003E-02        -0.66099E-01         0.00000E+00
    0.82720E-02        -0.67051E-01         0.00000E+00
    0.78928E-02        -0.67999E-01         0.00000E+00
    0.74567E-02        -0.68936E-01         0.00000E+00
    0.69564E-02        -0.69854E-01         0.00000E+00
    0.63816E-02        -0.70735E-01         0.00000E+00
    0.57175E-02        -0.71562E-01         0.00000E+00
    0.49423E-02        -0.72307E-01         0.00000E+00
    0.40252E-02        -0.72938E-01         0.00000E+00
    0.29265E-02        -0.73421E-01         0.00000E+00
    0.16004E-02        -0.73724E-01         0.00000E+00
    0.00000E+00        -0.73827E-01         0.00000E+00
    0.00000E+00         0.11833E-01         0.00000E+00
    0.12118E-02         0.11680E-01         0.00000E+00
    0.22022E-02         0.11313E-01         0.00000E+00
    0.30587E-02         0.10818E-01         0.00000E+00
    0.37976E-02         0.10216E-01         0.00000E+00
    0.44305E-02         0.95277E-02         0.00000E+00
    0.49676E-02         0.87705E-02         0.00000E+00
    0.54146E-02         0.79590E-02         0.00000E+00
    0.58007E-02         0.70868E-02         0.00000E+00
    0.61611E-02         0.61286E-02         0.00000E+00
    0.65060E-02         0.51184E-02         0.00000E+00
    0.68361E-02         0.40827E-02         0.00000E+00
    0.71513E-02         0.30399E-02         0.00000E+00
    0.74506E-02         0.20012E-02         0.00000E+00
    0.77324E-02         0.97284E-03         0.00000E+00
    0.79951E-02        -0.41693E-04         0.00000E+00
    0.82373E-02        -0.10407E-02         0.00000E+00
    0.84579E-02        -0.20238E-02         0.00000E+00
    0.86561E-02        -0.29914E-02         0.00000E+00
    0.88316E-02        -0.39447E-02         0.00000E+00
    0.89838E-02        -0.48852E-02         0.00000E+00
    0.91129E-02        -0.58147E-02         0.00000E+00
    0.92186E-02        -0.67351E-02         0.00000E+00
    0.93011E-02        -0.76478E-02         0.00000E+00
    0.93603E-02        -0.85534E-02         0.00000E+00
    0.93993E-02        -0.94520E-02         0.00000E+00
    0.94316E-02        -0.10354E-01         0.00000E+00
    0.94636E-02        -0.11258E-01         0.00000E+00
    0.94949E-02        -0.12164E-01         0.00000E+00
    0.95249E-02        -0.13071E-01         0.00000E+00
    0.95532E-02        -0.13978E-01         0.00000E+00
    0.95790E-02        -0.14883E-01         0.00000E+00
    0.96017E-02        -0.15786E-01         0.00000E+00
    0.96206E-02        -0.16688E-01         0.00000E+00
    0.96350E-02        -0.17589E-01         0.00000E+00
    0.96441E-02        -0.18488E-01         0.00000E+00
    0.96474E-02        -0.19387E-01         0.00000E+00
    0.96440E-02        -0.20286E-01         0.00000E+00
    0.96334E-02        -0.21183E-01         0.00000E+00
    0.96147E-02        -0.22080E-01         0.00000E+00
    0.95945E-02        -0.22980E-01         0.00000E+00
    0.95795E-02        -0.23887E-01         0.00000E+00
    0.95688E-02        -0.24799E-01         0.00000E+00
    0.95614E-02        -0.25714E-01         0.00000E+00
    0.95564E-02        -0.26633E-01         0.00000E+00
    0.95528E-02        -0.27554E-01         0.00000E+00
    0.95497E-02        -0.28477E-01         0.00000E+00
    0.95464E-02        -0.29402E-01         0.00000E+00
    0.95420E-02        -0.30328E-01         0.00000E+00
    0.95383E-02        -0.31257E-01         0.00000E+00
    0.95401E-02        -0.32189E-01         0.00000E+00
    0.95472E-02        -0.33125E-01         0.00000E+00
    0.95587E-02        -0.34063E-01         0.00000E+00
    0.95740E-02        -0.35003E-01         0.00000E+00
    0.95923E-02        -0.35944E-01         0.00000E+00
    0.96129E-02        -0.36888E-01         0.00000E+00
    0.96353E-02        -0.37832E-01         0.00000E+00
    0.96593E-02        -0.38778E-01         0.00000E+00
    0.96873E-02        -0.39725E-01         0.00000E+00
    0.97197E-02        -0.40673E-01         0.00000E+00
    0.97562E-02        -0.41622E-01         0.00000E+00
    0.97960E-02        -0.42573E-01         0.00000E+00
    0.98388E-02        -0.43523E-01         0.00000E+00
    0.98840E-02        -0.44474E-01         0.00000E+00
    0.99311E-02        -0.45425E-01         0.00000E+00
    0.99796E-02        -0.46376E-01         0.00000E+00
    0.10029E-01        -0.47326E-01         0.00000E+00
    0.10079E-01        -0.48277E-01         0.00000E+00
    0.10129E-01        -0.49227E-01         0.00000E+00
    0.10178E-01        -0.50177E-01         0.00000E+00
    0.10225E-01        -0.51126E-01         0.00000E+00
    0.10271E-01        -0.52075E-01         0.00000E+00
    0.10313E-01        -0.53024E-01         0.00000E+00
    0.10352E-01        -0.53972E-01         0.00000E+00
    0.10386E-01        -0.54920E-01         0.00000E+00
    0.10413E-01        -0.55869E-01         0.00000E+00
    0.10433E-01        -0.56817E-01         0.00000E+00
    0.10444E-01        -0.57765E-01         0.00000E+00
    0.10444E-01        -0.58715E-01         0.00000E+00
    0.10431E-01        -0.59665E-01         0.00000E+00
    0.10404E-01        -0.60617E-01         0.00000E+00
    0.10359E-01        -0.61572E-01         0.00000E+00
    0.10294E-01        -0.62530E-01         0.00000E+00
    0.10206E-01        -0.63491E-01         0.00000E+00
    0.10092E-01        -0.64458E-01         0.00000E+00
    0.99492E-02        -0.65430E-01         0.00000E+00
    0.97735E-02        -0.66407E-01         0.00000E+00
    0.95614E-02        -0.67391E-01         0.00000E+00
    0.93090E-02        -0.68380E-01         0.00000E+00
    0.90121E-02        -0.69374E-01         0.00000E+00
    0.86661E-02        -0.70368E-01         0.00000E+00
    0.82658E-02        -0.71359E-01         0.00000E+00
    0.78048E-02        -0.72338E-01         0.00000E+00
    0.72753E-02        -0.73296E-01         0.00000E+00
    0.66665E-02        -0.74215E-01         0.00000E+00
    0.59635E-02        -0.75076E-01         0.00000E+00
    0.51444E-02        -0.75850E-01         0.00000E+00
    0.41794E-02        -0.76504E-01         0.00000E+00
    0.30299E-02        -0.77003E-01         0.00000E+00
    0.16521E-02        -0.77316E-01         0.00000E+00
    0.00000E+00        -0.77422E-01         0.00000E+00
    0.00000E+00         0.12362E-01         0.00000E+00
    0.12782E-02         0.12207E-01         0.00000E+00
    0.23091E-02         0.11828E-01         0.00000E+00
    0.32026E-02         0.11308E-01         0.00000E+00
    0.39758E-02         0.10679E-01         0.00000E+00
    0.46403E-02         0.99600E-02         0.00000E+00
    0.52049E-02         0.91685E-02         0.00000E+00
    0.56802E-02         0.83217E-02         0.00000E+00
    0.60954E-02         0.74006E-02         0.00000E+00
    0.64833E-02         0.63978E-02         0.00000E+00
    0.68493E-02         0.53426E-02         0.00000E+00
    0.71964E-02         0.42617E-02         0.00000E+00
    0.75252E-02         0.31732E-02         0.00000E+00
    0.78356E-02         0.20885E-02         0.00000E+00
    0.81266E-02         0.10143E-02         0.00000E+00
    0.83970E-02        -0.45750E-04         0.00000E+00
    0.86457E-02        -0.10899E-02         0.00000E+00
    0.88718E-02        -0.21175E-02         0.00000E+00
    0.90749E-02        -0.31292E-02         0.00000E+00
    0.92544E-02        -0.41260E-02         0.00000E+00
    0.94101E-02        -0.51096E-02         0.00000E+00
    0.95420E-02        -0.60819E-02         0.00000E+00
    0.96501E-02        -0.70448E-02         0.00000E+00
    0.97344E-02        -0.80001E-02         0.00000E+00
    0.97950E-02        -0.89482E-02         0.00000E+00
    0.98357E-02        -0.98898E-02         0.00000E+00
    0.98701E-02        -0.10835E-01         0.00000E+00
    0.99038E-02        -0.11782E-01         0.00000E+00
    0.99366E-02        -0.12732E-01         0.00000E+00
    0.99679E-02        -0.13682E-01         0.00000E+00
    0.99972E-02        -0.14632E-01         0.00000E+00
    0.10024E-01        -0.15580E-01         0.00000E+00
    0.10047E-01        -0.16527E-01         0.00000E+00
    0.10067E-01        -0.17471E-01         0.00000E+00
    0.10082E-01        -0.18415E-01         0.00000E+00
    0.10091E-01        -0.19357E-01         0.00000E+00
    0.10094E-01        -0.20299E-01         0.00000E+00
    0.10091E-01        -0.21240E-01         0.00000E+00
    0.10080E-01        -0.22181E-01         0.00000E+00
    0.10061E-01        -0.23121E-01         0.00000E+00
    0.10042E-01        -0.24065E-01         0.00000E+00
    0.10027E-01        -0.25016E-01         0.00000E+00
    0.10017E-01        -0.25971E-01         0.00000E+00
    0.10010E-01        -0.26931E-01         0.00000E+00
    0.10005E-01        -0.27893E-01         0.00000E+00
    0.10002E-01        -0.28859E-01         0.00000E+00
    0.99991E-02        -0.29826E-01         0.00000E+00
    0.99961E-02        -0.30795E-01         0.00000E+00
    0.99919E-02        -0.31766E-01         0.00000E+00
    0.99888E-02        -0.32739E-01         0.00000E+00
    0.99913E-02        -0.33716E-01         0.00000E+00
    0.99991E-02        -0.34697E-01         0.00000E+00
    0.10011E-01        -0.35680E-01         0.00000E+00
    0.10028E-01        -0.36665E-01         0.00000E+00
    0.10047E-01        -0.37652E-01         0.00000E+00
    0.10068E-01        -0.38640E-01         0.00000E+00
    0.10092E-01        -0.39630E-01         0.00000E+00
    0.10117E-01        -0.40621E-01         0.00000E+00
    0.10146E-01        -0.41613E-01         0.00000E+00
    0.10180E-01        -0.42607E-01         0.00000E+00
    0.10217E-01        -0.43602E-01         0.00000E+00
    0.10259E-01        -0.44598E-01         0.00000E+00
    0.10303E-01        -0.45594E-01         0.00000E+00
    0.10350E-01        -0.46590E-01         0.00000E+00
    0.10398E-01        -0.47586E-01         0.00000E+00
    0.10448E-01        -0.48582E-01         0.00000E+00
    0.10499E-01        -0.49578E-01         0.00000E+00
    0.10551E-01        -0.50574E-01         0.00000E+00
    0.10602E-01        -0.51570E-01         0.00000E+00
    0.10652E-01        -0.52565E-01         0.00000E+00
    0.10701E-01        -0.53559E-01         0.00000E+00
    0.10748E-01        -0.54553E-01         0.00000E+00
    0.10792E-01        -0.55547E-01         0.00000E+00
    0.10831E-01        -0.56540E-01         0.00000E+00
    0.10866E-01        -0.57533E-01         0.00000E+00
    0.10894E-01        -0.58526E-01         0.00000E+00
    0.10914E-01        -0.59518E-01         0.00000E+00
    0.10925E-01        -0.60511E-01         0.00000E+00
    0.10924E-01        -0.61505E-01         0.00000E+00
    0.10911E-01        -0.62500E-01         0.00000E+00
    0.10881E-01        -0.63496E-01         0.00000E+00
    0.10834E-01        -0.64495E-01         0.00000E+00
    0.10766E-01        -0.65496E-01         0.00000E+00
    0.10674E-01        -0.66502E-01         0.00000E+00
    0.10555E-01        -0.67512E-01         0.00000E+00
    0.10405E-01        -0.68527E-01         0.00000E+00
    0.10221E-01        -0.69549E-01         0.00000E+00
    0.99991E-02        -0.70576E-01         0.00000E+00
    0.97344E-02        -0.71609E-01         0.00000E+00
    0.94228E-02        -0.72645E-01         0.00000E+00
    0.90590E-02        -0.73682E-01         0.00000E+00
    0.86376E-02        -0.74715E-01         0.00000E+00
    0.81516E-02        -0.75736E-01         0.00000E+00
    0.75926E-02        -0.76733E-01         0.00000E+00
    0.69496E-02        -0.77689E-01         0.00000E+00
    0.62073E-02        -0.78584E-01         0.00000E+00
    0.53443E-02        -0.79387E-01         0.00000E+00
    0.43314E-02        -0.80064E-01         0.00000E+00
    0.31317E-02        -0.80580E-01         0.00000E+00
    0.17028E-02        -0.80901E-01         0.00000E+00
    0.00000E+00        -0.81011E-01         0.00000E+00
    0.00000E+00         0.12884E-01         0.00000E+00
    0.13429E-02         0.12730E-01         0.00000E+00
    0.24192E-02         0.12341E-01         0.00000E+00
    0.33489E-02         0.11796E-01         0.00000E+00
    0.41560E-02         0.11141E-01         0.00000E+00
    0.48522E-02         0.10391E-01         0.00000E+00
    0.54446E-02         0.95652E-02         0.00000E+00
    0.59497E-02         0.86805E-02         0.00000E+00
    0.63950E-02         0.77108E-02         0.00000E+00
    0.68091E-02         0.66637E-02         0.00000E+00
    0.71960E-02         0.55642E-02         0.00000E+00
    0.75597E-02         0.44386E-02         0.00000E+00
    0.79019E-02         0.33049E-02         0.00000E+00
    0.82230E-02         0.21747E-02         0.00000E+00
    0.85229E-02         0.10551E-02         0.00000E+00
    0.88006E-02        -0.50185E-04         0.00000E+00
    0.90555E-02        -0.11391E-02         0.00000E+00
    0.92869E-02        -0.22110E-02         0.00000E+00
    0.94943E-02        -0.32665E-02         0.00000E+00
    0.96776E-02        -0.43067E-02         0.00000E+00
    0.98366E-02        -0.53333E-02         0.00000E+00
    0.99711E-02        -0.63482E-02         0.00000E+00
    0.10081E-01        -0.73537E-02         0.00000E+00
    0.10167E-01        -0.83513E-02         0.00000E+00
    0.10229E-01        -0.93421E-02         0.00000E+00
    0.10272E-01        -0.10327E-01         0.00000E+00
    0.10308E-01        -0.11315E-01         0.00000E+00
    0.10343E-01        -0.12306E-01         0.00000E+00
    0.10378E-01        -0.13299E-01         0.00000E+00
    0.10410E-01        -0.14292E-01         0.00000E+00
    0.10440E-01        -0.15285E-01         0.00000E+00
    0.10468E-01        -0.16276E-01         0.00000E+00
    0.10492E-01        -0.17266E-01         0.00000E+00
    0.10512E-01        -0.18254E-01         0.00000E+00
    0.10527E-01        -0.19240E-01         0.00000E+00
    0.10537E-01        -0.20226E-01         0.00000E+00
    0.10540E-01        -0.21210E-01         0.00000E+00
    0.10537E-01        -0.22195E-01         0.00000E+00
    0.10526E-01        -0.23178E-01         0.00000E+00
    0.10507E-01        -0.24161E-01         0.00000E+00
    0.10488E-01        -0.25149E-01         0.00000E+00
    0.10474E-01        -0.26143E-01         0.00000E+00
    0.10464E-01        -0.27143E-01         0.00000E+00
    0.10458E-01        -0.28147E-01         0.00000E+00
    0.10454E-01        -0.29153E-01         0.00000E+00
    0.10451E-01        -0.30163E-01         0.00000E+00
    0.10448E-01        -0.31174E-01         0.00000E+00
    0.10445E-01        -0.32188E-01         0.00000E+00
    0.10442E-01        -0.33203E-01         0.00000E+00
    0.10439E-01        -0.34221E-01         0.00000E+00
    0.10442E-01        -0.35243E-01         0.00000E+00
    0.10451E-01        -0.36268E-01         0.00000E+00
    0.10464E-01        -0.37296E-01         0.00000E+00
    0.10481E-01        -0.38326E-01         0.00000E+00
    0.10501E-01        -0.39359E-01         0.00000E+00
    0.10523E-01        -0.40392E-01         0.00000E+00
    0.10548E-01        -0.41427E-01         0.00000E+00
    0.10574E-01        -0.42463E-01         0.00000E+00
    0.10604E-01        -0.43501E-01         0.00000E+00
    0.10639E-01        -0.44541E-01         0.00000E+00
    0.10678E-01        -0.45581E-01         0.00000E+00
    0.10721E-01        -0.46622E-01         0.00000E+00
    0.10767E-01        -0.47664E-01         0.00000E+00
    0.10815E-01        -0.48706E-01         0.00000E+00
    0.10865E-01        -0.49747E-01         0.00000E+00
    0.10916E-01        -0.50789E-01         0.00000E+00
    0.10969E-01        -0.51830E-01         0.00000E+00
    0.11022E-01        -0.52871E-01         0.00000E+00
    0.11074E-01        -0.53912E-01         0.00000E+00
    0.11126E-01        -0.54952E-01         0.00000E+00
    0.11176E-01        -0.55992E-01         0.00000E+00
    0.11224E-01        -0.57031E-01         0.00000E+00
    0.11269E-01        -0.58069E-01         0.00000E+00
    0.11310E-01        -0.59107E-01         0.00000E+00
    0.11345E-01        -0.60145E-01         0.00000E+00
    0.11373E-01        -0.61182E-01         0.00000E+00
    0.11394E-01        -0.62220E-01         0.00000E+00
    0.11404E-01        -0.63257E-01         0.00000E+00
    0.11403E-01        -0.64295E-01         0.00000E+00
    0.11388E-01        -0.65334E-01         0.00000E+00
    0.11358E-01        -0.66374E-01         0.00000E+00
    0.11308E-01        -0.67417E-01         0.00000E+00
    0.11237E-01        -0.68462E-01         0.00000E+00
    0.11140E-01        -0.69511E-01         0.00000E+00
    0.11016E-01        -0.70565E-01         0.00000E+00
    0.10860E-01        -0.71624E-01         0.00000E+00
    0.10668E-01        -0.72688E-01         0.00000E+00
    0.10436E-01        -0.73759E-01         0.00000E+00
    0.10159E-01        -0.74834E-01         0.00000E+00
    0.98323E-02        -0.75914E-01         0.00000E+00
    0.94509E-02        -0.76993E-01         0.00000E+00
    0.90082E-02        -0.78067E-01         0.00000E+00
    0.84971E-02        -0.79129E-01         0.00000E+00
    0.79085E-02        -0.80164E-01         0.00000E+00
    0.72311E-02        -0.81158E-01         0.00000E+00
    0.64493E-02        -0.82085E-01         0.00000E+00
    0.55421E-02        -0.82917E-01         0.00000E+00
    0.44815E-02        -0.83617E-01         0.00000E+00
    0.32320E-02        -0.84149E-01         0.00000E+00
    0.17528E-02        -0.84481E-01         0.00000E+00
    0.00000E+00        -0.84594E-01         0.00000E+00
    0.00000E+00         0.13399E-01         0.00000E+00
    0.14049E-02         0.13250E-01         0.00000E+00
    0.25323E-02         0.12850E-01         0.00000E+00
    0.34975E-02         0.12284E-01         0.00000E+00
    0.43386E-02         0.11601E-01         0.00000E+00
    0.50661E-02         0.10820E-01         0.00000E+00
    0.56879E-02         0.99611E-02         0.00000E+00
    0.62233E-02         0.90334E-02         0.00000E+00
    0.66995E-02         0.80178E-02         0.00000E+00
    0.71387E-02         0.69263E-02         0.00000E+00
    0.75461E-02         0.57832E-02         0.00000E+00
    0.79261E-02         0.46134E-02         0.00000E+00
    0.82813E-02         0.34350E-02         0.00000E+00
    0.86129E-02         0.22598E-02         0.00000E+00
    0.89213E-02         0.10951E-02         0.00000E+00
    0.92060E-02        -0.55002E-04         0.00000E+00
    0.94667E-02        -0.11884E-02         0.00000E+00
    0.97030E-02        -0.23044E-02         0.00000E+00
    0.99145E-02        -0.34035E-02         0.00000E+00
    0.10101E-01        -0.44869E-02         0.00000E+00
    0.10263E-01        -0.55562E-02         0.00000E+00
    0.10400E-01        -0.66137E-02         0.00000E+00
    0.10512E-01        -0.76615E-02         0.00000E+00
    0.10600E-01        -0.87016E-02         0.00000E+00
    0.10663E-01        -0.97349E-02         0.00000E+00
    0.10707E-01        -0.10763E-01         0.00000E+00
    0.10745E-01        -0.11794E-01         0.00000E+00
    0.10782E-01        -0.12828E-01         0.00000E+00
    0.10818E-01        -0.13864E-01         0.00000E+00
    0.10852E-01        -0.14901E-01         0.00000E+00
    0.10883E-01        -0.15937E-01         0.00000E+00
    0.10911E-01        -0.16972E-01         0.00000E+00
    0.10936E-01        -0.18005E-01         0.00000E+00
    0.10957E-01        -0.19036E-01         0.00000E+00
    0.10972E-01        -0.20065E-01         0.00000E+00
    0.10982E-01        -0.21093E-01         0.00000E+00
    0.10986E-01        -0.22121E-01         0.00000E+00
    0.10982E-01        -0.23148E-01         0.00000E+00
    0.10971E-01        -0.24175E-01         0.00000E+00
    0.10952E-01        -0.25201E-01         0.00000E+00
    0.10934E-01        -0.26232E-01         0.00000E+00
    0.10921E-01        -0.27271E-01         0.00000E+00
    0.10911E-01        -0.28314E-01         0.00000E+00
    0.10905E-01        -0.29362E-01         0.00000E+00
    0.10901E-01        -0.30413E-01         0.00000E+00
    0.10899E-01        -0.31466E-01         0.00000E+00
    0.10897E-01        -0.32522E-01         0.00000E+00
    0.10894E-01        -0.33580E-01         0.00000E+00
    0.10891E-01        -0.34640E-01         0.00000E+00
    0.10889E-01        -0.35702E-01         0.00000E+00
    0.10893E-01        -0.36769E-01         0.00000E+00
    0.10902E-01        -0.37839E-01         0.00000E+00
    0.10916E-01        -0.38913E-01         0.00000E+00
    0.10934E-01        -0.39988E-01         0.00000E+00
    0.10955E-01        -0.41065E-01         0.00000E+00
    0.10978E-01        -0.42144E-01         0.00000E+00
    0.11004E-01        -0.43224E-01         0.00000E+00
    0.11031E-01        -0.44306E-01         0.00000E+00
    0.11062E-01        -0.45389E-01         0.00000E+00
    0.11099E-01        -0.46474E-01         0.00000E+00
    0.11139E-01        -0.47560E-01         0.00000E+00
    0.11183E-01        -0.48647E-01         0.00000E+00
    0.11230E-01        -0.49734E-01         0.00000E+00
    0.11280E-01        -0.50821E-01         0.00000E+00
    0.11331E-01        -0.51908E-01         0.00000E+00
    0.11384E-01        -0.52995E-01         0.00000E+00
    0.11438E-01        -0.54082E-01         0.00000E+00
    0.11492E-01        -0.55168E-01         0.00000E+00
    0.11546E-01        -0.56254E-01         0.00000E+00
    0.11599E-01        -0.57340E-01         0.00000E+00
    0.11651E-01        -0.58424E-01         0.00000E+00
    0.11700E-01        -0.59508E-01         0.00000E+00
    0.11745E-01        -0.60592E-01         0.00000E+00
    0.11787E-01        -0.61675E-01         0.00000E+00
    0.11823E-01        -0.62757E-01         0.00000E+00
    0.11851E-01        -0.63839E-01         0.00000E+00
    0.11872E-01        -0.64921E-01         0.00000E+00
    0.11882E-01        -0.66002E-01         0.00000E+00
    0.11881E-01        -0.67085E-01         0.00000E+00
    0.11865E-01        -0.68167E-01         0.00000E+00
    0.11832E-01        -0.69252E-01         0.00000E+00
    0.11780E-01        -0.70338E-01         0.00000E+00
    0.11706E-01        -0.71427E-01         0.00000E+00
    0.11605E-01        -0.72519E-01         0.00000E+00
    0.11476E-01        -0.73616E-01         0.00000E+00
    0.11313E-01        -0.74718E-01         0.00000E+00
    0.11113E-01        -0.75826E-01         0.00000E+00
    0.10871E-01        -0.76939E-01         0.00000E+00
    0.10582E-01        -0.78058E-01         0.00000E+00
    0.10241E-01        -0.79179E-01         0.00000E+00
    0.98417E-02        -0.80301E-01         0.00000E+00
    0.93779E-02        -0.81416E-01         0.00000E+00
    0.88415E-02        -0.82517E-01         0.00000E+00
    0.82233E-02        -0.83591E-01         0.00000E+00
    0.75112E-02        -0.84621E-01         0.00000E+00
    0.66897E-02        -0.85581E-01         0.00000E+00
    0.57383E-02        -0.86441E-01         0.00000E+00
    0.46300E-02        -0.87164E-01         0.00000E+00
    0.33311E-02        -0.87713E-01         0.00000E+00
    0.18021E-02        -0.88055E-01         0.00000E+00
    0.00000E+00        -0.88171E-01         0.00000E+00
    0.00000E+00         0.13910E-01         0.00000E+00
    0.14648E-02         0.13763E-01         0.00000E+00
    0.26462E-02         0.13355E-01         0.00000E+00
    0.36488E-02         0.12771E-01         0.00000E+00
    0.45239E-02         0.12059E-01         0.00000E+00
    0.52827E-02         0.11247E-01         0.00000E+00
    0.59359E-02         0.10353E-01         0.00000E+00
    0.65017E-02         0.93815E-02         0.00000E+00
    0.70086E-02         0.83209E-02         0.00000E+00
    0.74722E-02         0.71858E-02         0.00000E+00
    0.78995E-02         0.59995E-02         0.00000E+00
    0.82955E-02         0.47861E-02         0.00000E+00
    0.86634E-02         0.35635E-02         0.00000E+00
    0.90052E-02         0.23438E-02         0.00000E+00
    0.93217E-02         0.11344E-02         0.00000E+00
    0.96131E-02        -0.60198E-04         0.00000E+00
    0.98793E-02        -0.12378E-02         0.00000E+00
    0.10120E-01        -0.23976E-02         0.00000E+00
    0.10335E-01        -0.35401E-02         0.00000E+00
    0.10525E-01        -0.46665E-02         0.00000E+00
    0.10690E-01        -0.57785E-02         0.00000E+00
    0.10829E-01        -0.68784E-02         0.00000E+00
    0.10943E-01        -0.79685E-02         0.00000E+00
    0.11032E-01        -0.90508E-02         0.00000E+00
    0.11096E-01        -0.10127E-01         0.00000E+00
    0.11142E-01        -0.11197E-01         0.00000E+00
    0.11182E-01        -0.12272E-01         0.00000E+00
    0.11221E-01        -0.13350E-01         0.00000E+00
    0.11257E-01        -0.14429E-01         0.00000E+00
    0.11292E-01        -0.15509E-01         0.00000E+00
    0.11325E-01        -0.16589E-01         0.00000E+00
    0.11354E-01        -0.17666E-01         0.00000E+00
    0.11379E-01        -0.18742E-01         0.00000E+00
    0.11400E-01        -0.19816E-01         0.00000E+00
    0.11416E-01        -0.20889E-01         0.00000E+00
    0.11426E-01        -0.21960E-01         0.00000E+00
    0.11430E-01        -0.23030E-01         0.00000E+00
    0.11427E-01        -0.24100E-01         0.00000E+00
    0.11415E-01        -0.25170E-01         0.00000E+00
    0.11397E-01        -0.26239E-01         0.00000E+00
    0.11379E-01        -0.27315E-01         0.00000E+00
    0.11366E-01        -0.28397E-01         0.00000E+00
    0.11358E-01        -0.29485E-01         0.00000E+00
    0.11352E-01        -0.30577E-01         0.00000E+00
    0.11349E-01        -0.31671E-01         0.00000E+00
    0.11347E-01        -0.32769E-01         0.00000E+00
    0.11345E-01        -0.33869E-01         0.00000E+00
    0.11343E-01        -0.34971E-01         0.00000E+00
    0.11340E-01        -0.36076E-01         0.00000E+00
    0.11339E-01        -0.37183E-01         0.00000E+00
    0.11344E-01        -0.38295E-01         0.00000E+00
    0.11354E-01        -0.39410E-01         0.00000E+00
    0.11368E-01        -0.40529E-01         0.00000E+00
    0.11387E-01        -0.41649E-01         0.00000E+00
    0.11409E-01        -0.42772E-01         0.00000E+00
    0.11433E-01        -0.43896E-01         0.00000E+00
    0.11459E-01        -0.45021E-01         0.00000E+00
    0.11488E-01        -0.46148E-01         0.00000E+00
    0.11520E-01        -0.47277E-01         0.00000E+00
    0.11558E-01        -0.48408E-01         0.00000E+00
    0.11600E-01        -0.49539E-01         0.00000E+00
    0.11645E-01        -0.50671E-01         0.00000E+00
    0.11693E-01        -0.51804E-01         0.00000E+00
    0.11744E-01        -0.52937E-01         0.00000E+00
    0.11797E-01        -0.54069E-01         0.00000E+00
    0.11851E-01        -0.55202E-01         0.00000E+00
    0.11906E-01        -0.56334E-01         0.00000E+00
    0.11962E-01        -0.57465E-01         0.00000E+00
    0.12017E-01        -0.58596E-01         0.00000E+00
    0.12071E-01        -0.59727E-01         0.00000E+00
    0.12124E-01        -0.60857E-01         0.00000E+00
    0.12174E-01        -0.61986E-01         0.00000E+00
    0.12221E-01        -0.63114E-01         0.00000E+00
    0.12263E-01        -0.64242E-01         0.00000E+00
    0.12299E-01        -0.65369E-01         0.00000E+00
    0.12328E-01        -0.66495E-01         0.00000E+00
    0.12349E-01        -0.67621E-01         0.00000E+00
    0.12359E-01        -0.68747E-01         0.00000E+00
    0.12357E-01        -0.69874E-01         0.00000E+00
    0.12340E-01        -0.71001E-01         0.00000E+00
    0.12305E-01        -0.72129E-01         0.00000E+00
    0.12251E-01        -0.73258E-01         0.00000E+00
    0.12173E-01        -0.74391E-01         0.00000E+00
    0.12069E-01        -0.75527E-01         0.00000E+00
    0.11935E-01        -0.76667E-01         0.00000E+00
    0.11765E-01        -0.77812E-01         0.00000E+00
    0.11557E-01        -0.78962E-01         0.00000E+00
    0.11305E-01        -0.80118E-01         0.00000E+00
    0.11004E-01        -0.81279E-01         0.00000E+00
    0.10648E-01        -0.82442E-01         0.00000E+00
    0.10232E-01        -0.83605E-01         0.00000E+00
    0.97466E-02        -0.84761E-01         0.00000E+00
    0.91851E-02        -0.85901E-01         0.00000E+00
    0.85370E-02        -0.87013E-01         0.00000E+00
    0.77901E-02        -0.88078E-01         0.00000E+00
    0.69288E-02        -0.89070E-01         0.00000E+00
    0.59331E-02        -0.89958E-01         0.00000E+00
    0.47773E-02        -0.90705E-01         0.00000E+00
    0.34291E-02        -0.91270E-01         0.00000E+00
    0.18508E-02        -0.91623E-01         0.00000E+00
    0.00000E+00        -0.91742E-01         0.00000E+00
    0.00000E+00         0.14417E-01         0.00000E+00
    0.15233E-02         0.14271E-01         0.00000E+00
    0.27594E-02         0.13857E-01         0.00000E+00
    0.38024E-02         0.13255E-01         0.00000E+00
    0.47121E-02         0.12517E-01         0.00000E+00
    0.55034E-02         0.11672E-01         0.00000E+00
    0.61882E-02         0.10742E-01         0.00000E+00
    0.67857E-02         0.97247E-02         0.00000E+00
    0.73220E-02         0.86203E-02         0.00000E+00
    0.78095E-02         0.74421E-02         0.00000E+00
    0.82563E-02         0.62133E-02         0.00000E+00
    0.86678E-02         0.49568E-02         0.00000E+00
    0.90481E-02         0.36905E-02         0.00000E+00
    0.93998E-02         0.24266E-02         0.00000E+00
    0.97242E-02         0.11730E-02         0.00000E+00
    0.10022E-01        -0.65767E-04         0.00000E+00
    0.10293E-01        -0.12873E-02         0.00000E+00
    0.10538E-01        -0.24907E-02         0.00000E+00
    0.10757E-01        -0.36764E-02         0.00000E+00
    0.10950E-01        -0.48456E-02         0.00000E+00
    0.11117E-01        -0.60001E-02         0.00000E+00
    0.11258E-01        -0.71422E-02         0.00000E+00
    0.11374E-01        -0.82744E-02         0.00000E+00
    0.11464E-01        -0.93990E-02         0.00000E+00
    0.11529E-01        -0.10518E-01         0.00000E+00
    0.11576E-01        -0.11631E-01         0.00000E+00
    0.11618E-01        -0.12749E-01         0.00000E+00
    0.11658E-01        -0.13870E-01         0.00000E+00
    0.11697E-01        -0.14993E-01         0.00000E+00
    0.11732E-01        -0.16116E-01         0.00000E+00
    0.11766E-01        -0.17239E-01         0.00000E+00
    0.11796E-01        -0.18360E-01         0.00000E+00
    0.11822E-01        -0.19479E-01         0.00000E+00
    0.11843E-01        -0.20596E-01         0.00000E+00
    0.11860E-01        -0.21711E-01         0.00000E+00
    0.11870E-01        -0.22825E-01         0.00000E+00
    0.11874E-01        -0.23939E-01         0.00000E+00
    0.11870E-01        -0.25052E-01         0.00000E+00
    0.11859E-01        -0.26165E-01         0.00000E+00
    0.11841E-01        -0.27277E-01         0.00000E+00
    0.11824E-01        -0.28397E-01         0.00000E+00
    0.11812E-01        -0.29523E-01         0.00000E+00
    0.11804E-01        -0.30655E-01         0.00000E+00
    0.11799E-01        -0.31791E-01         0.00000E+00
    0.11796E-01        -0.32930E-01         0.00000E+00
    0.11794E-01        -0.34072E-01         0.00000E+00
    0.11793E-01        -0.35216E-01         0.00000E+00
    0.11791E-01        -0.36363E-01         0.00000E+00
    0.11789E-01        -0.37511E-01         0.00000E+00
    0.11788E-01        -0.38664E-01         0.00000E+00
    0.11794E-01        -0.39820E-01         0.00000E+00
    0.11805E-01        -0.40981E-01         0.00000E+00
    0.11820E-01        -0.42144E-01         0.00000E+00
    0.11840E-01        -0.43310E-01         0.00000E+00
    0.11863E-01        -0.44478E-01         0.00000E+00
    0.11888E-01        -0.45647E-01         0.00000E+00
    0.11915E-01        -0.46818E-01         0.00000E+00
    0.11944E-01        -0.47990E-01         0.00000E+00
    0.11978E-01        -0.49165E-01         0.00000E+00
    0.12017E-01        -0.50341E-01         0.00000E+00
    0.12060E-01        -0.51518E-01         0.00000E+00
    0.12106E-01        -0.52696E-01         0.00000E+00
    0.12156E-01        -0.53874E-01         0.00000E+00
    0.12208E-01        -0.55052E-01         0.00000E+00
    0.12262E-01        -0.56230E-01         0.00000E+00
    0.12317E-01        -0.57408E-01         0.00000E+00
    0.12374E-01        -0.58585E-01         0.00000E+00
    0.12431E-01        -0.59762E-01         0.00000E+00
    0.12487E-01        -0.60939E-01         0.00000E+00
    0.12543E-01        -0.62114E-01         0.00000E+00
    0.12596E-01        -0.63289E-01         0.00000E+00
    0.12647E-01        -0.64463E-01         0.00000E+00
    0.12695E-01        -0.65636E-01         0.00000E+00
    0.12738E-01        -0.66809E-01         0.00000E+00
    0.12774E-01        -0.67980E-01         0.00000E+00
    0.12804E-01        -0.69151E-01         0.00000E+00
    0.12825E-01        -0.70322E-01         0.00000E+00
    0.12834E-01        -0.71492E-01         0.00000E+00
    0.12831E-01        -0.72662E-01         0.00000E+00
    0.12813E-01        -0.73833E-01         0.00000E+00
    0.12777E-01        -0.75005E-01         0.00000E+00
    0.12720E-01        -0.76178E-01         0.00000E+00
    0.12640E-01        -0.77354E-01         0.00000E+00
    0.12532E-01        -0.78533E-01         0.00000E+00
    0.12392E-01        -0.79716E-01         0.00000E+00
    0.12216E-01        -0.80904E-01         0.00000E+00
    0.12000E-01        -0.82097E-01         0.00000E+00
    0.11739E-01        -0.83295E-01         0.00000E+00
    0.11426E-01        -0.84497E-01         0.00000E+00
    0.11055E-01        -0.85702E-01         0.00000E+00
    0.10621E-01        -0.86906E-01         0.00000E+00
    0.10115E-01        -0.88101E-01         0.00000E+00
    0.95278E-02        -0.89281E-01         0.00000E+00
    0.88499E-02        -0.90430E-01         0.00000E+00
    0.80681E-02        -0.91529E-01         0.00000E+00
    0.71670E-02        -0.92553E-01         0.00000E+00
    0.61269E-02        -0.93469E-01         0.00000E+00
    0.49235E-02        -0.94239E-01         0.00000E+00
    0.35263E-02        -0.94822E-01         0.00000E+00
    0.18990E-02        -0.95185E-01         0.00000E+00
    0.00000E+00        -0.95308E-01         0.00000E+00
    0.00000E+00         0.14919E-01         0.00000E+00
    0.15807E-02         0.14772E-01         0.00000E+00
    0.28712E-02         0.14356E-01         0.00000E+00
    0.39581E-02         0.13735E-01         0.00000E+00
    0.49037E-02         0.12970E-01         0.00000E+00
    0.57285E-02         0.12093E-01         0.00000E+00
    0.64453E-02         0.11124E-01         0.00000E+00
    0.70755E-02         0.10063E-01         0.00000E+00
    0.76398E-02         0.89158E-02         0.00000E+00
    0.81506E-02         0.76953E-02         0.00000E+00
    0.86163E-02         0.64244E-02         0.00000E+00
    0.90430E-02         0.51253E-02         0.00000E+00
    0.94354E-02         0.38159E-02         0.00000E+00
    0.97966E-02         0.25084E-02         0.00000E+00
    0.10129E-01         0.12109E-02         0.00000E+00
    0.10432E-01        -0.71696E-04         0.00000E+00
    0.10708E-01        -0.13368E-02         0.00000E+00
    0.10957E-01        -0.25836E-02         0.00000E+00
    0.11179E-01        -0.38123E-02         0.00000E+00
    0.11375E-01        -0.50241E-02         0.00000E+00
    0.11544E-01        -0.62209E-02         0.00000E+00
    0.11687E-01        -0.74052E-02         0.00000E+00
    0.11804E-01        -0.85795E-02         0.00000E+00
    0.11896E-01        -0.97462E-02         0.00000E+00
    0.11962E-01        -0.10907E-01         0.00000E+00
    0.12010E-01        -0.12064E-01         0.00000E+00
    0.12054E-01        -0.13225E-01         0.00000E+00
    0.12096E-01        -0.14390E-01         0.00000E+00
    0.12135E-01        -0.15556E-01         0.00000E+00
    0.12172E-01        -0.16723E-01         0.00000E+00
    0.12206E-01        -0.17888E-01         0.00000E+00
    0.12237E-01        -0.19053E-01         0.00000E+00
    0.12263E-01        -0.20215E-01         0.00000E+00
    0.12285E-01        -0.21375E-01         0.00000E+00
    0.12302E-01        -0.22533E-01         0.00000E+00
    0.12313E-01        -0.23690E-01         0.00000E+00
    0.12317E-01        -0.24846E-01         0.00000E+00
    0.12313E-01        -0.26002E-01         0.00000E+00
    0.12302E-01        -0.27158E-01         0.00000E+00
    0.12284E-01        -0.28315E-01         0.00000E+00
    0.12268E-01        -0.29478E-01         0.00000E+00
    0.12257E-01        -0.30648E-01         0.00000E+00
    0.12249E-01        -0.31824E-01         0.00000E+00
    0.12245E-01        -0.33004E-01         0.00000E+00
    0.12243E-01        -0.34187E-01         0.00000E+00
    0.12242E-01        -0.35374E-01         0.00000E+00
    0.12241E-01        -0.36562E-01         0.00000E+00
    0.12240E-01        -0.37753E-01         0.00000E+00
    0.12237E-01        -0.38947E-01         0.00000E+00
    0.12238E-01        -0.40144E-01         0.00000E+00
    0.12244E-01        -0.41346E-01         0.00000E+00
    0.12256E-01        -0.42551E-01         0.00000E+00
    0.12272E-01        -0.43760E-01         0.00000E+00
    0.12293E-01        -0.44971E-01         0.00000E+00
    0.12316E-01        -0.46183E-01         0.00000E+00
    0.12342E-01        -0.47398E-01         0.00000E+00
    0.12370E-01        -0.48614E-01         0.00000E+00
    0.12401E-01        -0.49832E-01         0.00000E+00
    0.12436E-01        -0.51052E-01         0.00000E+00
    0.12475E-01        -0.52274E-01         0.00000E+00
    0.12519E-01        -0.53496E-01         0.00000E+00
    0.12567E-01        -0.54720E-01         0.00000E+00
    0.12618E-01        -0.55944E-01         0.00000E+00
    0.12671E-01        -0.57167E-01         0.00000E+00
    0.12727E-01        -0.58391E-01         0.00000E+00
    0.12783E-01        -0.59614E-01         0.00000E+00
    0.12841E-01        -0.60837E-01         0.00000E+00
    0.12899E-01        -0.62059E-01         0.00000E+00
    0.12957E-01        -0.63280E-01         0.00000E+00
    0.13013E-01        -0.64501E-01         0.00000E+00
    0.13068E-01        -0.65721E-01         0.00000E+00
    0.13120E-01        -0.66940E-01         0.00000E+00
    0.13168E-01        -0.68158E-01         0.00000E+00
    0.13211E-01        -0.69375E-01         0.00000E+00
    0.13249E-01        -0.70592E-01         0.00000E+00
    0.13278E-01        -0.71807E-01         0.00000E+00
    0.13299E-01        -0.73022E-01         0.00000E+00
    0.13308E-01        -0.74237E-01         0.00000E+00
    0.13304E-01        -0.75451E-01         0.00000E+00
    0.13285E-01        -0.76665E-01         0.00000E+00
    0.13247E-01        -0.77881E-01         0.00000E+00
    0.13188E-01        -0.79098E-01         0.00000E+00
    0.13105E-01        -0.80317E-01         0.00000E+00
    0.12993E-01        -0.81539E-01         0.00000E+00
    0.12848E-01        -0.82764E-01         0.00000E+00
    0.12666E-01        -0.83995E-01         0.00000E+00
    0.12442E-01        -0.85230E-01         0.00000E+00
    0.12171E-01        -0.86470E-01         0.00000E+00
    0.11846E-01        -0.87714E-01         0.00000E+00
    0.11461E-01        -0.88959E-01         0.00000E+00
    0.11009E-01        -0.90203E-01         0.00000E+00
    0.10482E-01        -0.91438E-01         0.00000E+00
    0.98700E-02        -0.92656E-01         0.00000E+00
    0.91622E-02        -0.93841E-01         0.00000E+00
    0.83456E-02        -0.94975E-01         0.00000E+00
    0.74044E-02        -0.96030E-01         0.00000E+00
    0.63199E-02        -0.96974E-01         0.00000E+00
    0.50690E-02        -0.97767E-01         0.00000E+00
    0.36230E-02        -0.98368E-01         0.00000E+00
    0.19469E-02        -0.98743E-01         0.00000E+00
    0.00000E+00        -0.98869E-01         0.00000E+00
    0.00000E+00         0.15417E-01         0.00000E+00
    0.16375E-02         0.15268E-01         0.00000E+00
    0.29816E-02         0.14847E-01         0.00000E+00
    0.41155E-02         0.14211E-01         0.00000E+00
    0.50986E-02         0.13419E-01         0.00000E+00
    0.59579E-02         0.12510E-01         0.00000E+00
    0.67083E-02         0.11501E-01         0.00000E+00
    0.73703E-02         0.10398E-01         0.00000E+00
    0.79619E-02         0.92076E-02         0.00000E+00
    0.84954E-02         0.79454E-02         0.00000E+00
    0.89796E-02         0.66330E-02         0.00000E+00
    0.94211E-02         0.52919E-02         0.00000E+00
    0.98253E-02         0.39397E-02         0.00000E+00
    0.10196E-01         0.25890E-02         0.00000E+00
    0.10535E-01         0.12481E-02         0.00000E+00
    0.10844E-01        -0.77970E-04         0.00000E+00
    0.11125E-01        -0.13864E-02         0.00000E+00
    0.11377E-01        -0.26763E-02         0.00000E+00
    0.11602E-01        -0.39477E-02         0.00000E+00
    0.11800E-01        -0.52020E-02         0.00000E+00
    0.11972E-01        -0.64411E-02         0.00000E+00
    0.12116E-01        -0.76674E-02         0.00000E+00
    0.12235E-01        -0.88836E-02         0.00000E+00
    0.12327E-01        -0.10092E-01         0.00000E+00
    0.12394E-01        -0.11296E-01         0.00000E+00
    0.12444E-01        -0.12496E-01         0.00000E+00
    0.12489E-01        -0.13700E-01         0.00000E+00
    0.12532E-01        -0.14908E-01         0.00000E+00
    0.12573E-01        -0.16118E-01         0.00000E+00
    0.12611E-01        -0.17328E-01         0.00000E+00
    0.12646E-01        -0.18537E-01         0.00000E+00
    0.12677E-01        -0.19745E-01         0.00000E+00
    0.12704E-01        -0.20950E-01         0.00000E+00
    0.12727E-01        -0.22153E-01         0.00000E+00
    0.12744E-01        -0.23354E-01         0.00000E+00
    0.12755E-01        -0.24554E-01         0.00000E+00
    0.12759E-01        -0.25753E-01         0.00000E+00
    0.12756E-01        -0.26952E-01         0.00000E+00
    0.12744E-01        -0.28152E-01         0.00000E+00
    0.12727E-01        -0.29351E-01         0.00000E+00
    0.12712E-01        -0.30559E-01         0.00000E+00
    0.12701E-01        -0.31773E-01         0.00000E+00
    0.12695E-01        -0.32993E-01         0.00000E+00
    0.12691E-01        -0.34217E-01         0.00000E+00
    0.12689E-01        -0.35445E-01         0.00000E+00
    0.12688E-01        -0.36675E-01         0.00000E+00
    0.12688E-01        -0.37908E-01         0.00000E+00
    0.12687E-01        -0.39144E-01         0.00000E+00
    0.12686E-01        -0.40382E-01         0.00000E+00
    0.12687E-01        -0.41624E-01         0.00000E+00
    0.12694E-01        -0.42870E-01         0.00000E+00
    0.12707E-01        -0.44121E-01         0.00000E+00
    0.12724E-01        -0.45375E-01         0.00000E+00
    0.12745E-01        -0.46631E-01         0.00000E+00
    0.12770E-01        -0.47889E-01         0.00000E+00
    0.12797E-01        -0.49149E-01         0.00000E+00
    0.12826E-01        -0.50411E-01         0.00000E+00
    0.12857E-01        -0.51674E-01         0.00000E+00
    0.12893E-01        -0.52940E-01         0.00000E+00
    0.12934E-01        -0.54207E-01         0.00000E+00
    0.12979E-01        -0.55475E-01         0.00000E+00
    0.13028E-01        -0.56744E-01         0.00000E+00
    0.13080E-01        -0.58013E-01         0.00000E+00
    0.13134E-01        -0.59282E-01         0.00000E+00
    0.13191E-01        -0.60551E-01         0.00000E+00
    0.13249E-01        -0.61820E-01         0.00000E+00
    0.13308E-01        -0.63088E-01         0.00000E+00
    0.13367E-01        -0.64356E-01         0.00000E+00
    0.13425E-01        -0.65622E-01         0.00000E+00
    0.13483E-01        -0.66888E-01         0.00000E+00
    0.13538E-01        -0.68153E-01         0.00000E+00
    0.13591E-01        -0.69417E-01         0.00000E+00
    0.13640E-01        -0.70680E-01         0.00000E+00
    0.13684E-01        -0.71942E-01         0.00000E+00
    0.13722E-01        -0.73203E-01         0.00000E+00
    0.13751E-01        -0.74463E-01         0.00000E+00
    0.13772E-01        -0.75722E-01         0.00000E+00
    0.13781E-01        -0.76981E-01         0.00000E+00
    0.13776E-01        -0.78239E-01         0.00000E+00
    0.13756E-01        -0.79497E-01         0.00000E+00
    0.13716E-01        -0.80756E-01         0.00000E+00
    0.13655E-01        -0.82016E-01         0.00000E+00
    0.13568E-01        -0.83278E-01         0.00000E+00
    0.13452E-01        -0.84543E-01         0.00000E+00
    0.13303E-01        -0.85811E-01         0.00000E+00
    0.13115E-01        -0.87084E-01         0.00000E+00
    0.12883E-01        -0.88361E-01         0.00000E+00
    0.12602E-01        -0.89643E-01         0.00000E+00
    0.12266E-01        -0.90928E-01         0.00000E+00
    0.11867E-01        -0.92214E-01         0.00000E+00
    0.11397E-01        -0.93498E-01         0.00000E+00
    0.10849E-01        -0.94772E-01         0.00000E+00
    0.10212E-01        -0.96027E-01         0.00000E+00
    0.94742E-02        -0.97248E-01         0.00000E+00
    0.86226E-02        -0.98415E-01         0.00000E+00
    0.76415E-02        -0.99502E-01         0.00000E+00
    0.65125E-02        -0.10047E+00         0.00000E+00
    0.52140E-02        -0.10129E+00         0.00000E+00
    0.37192E-02        -0.10191E+00         0.00000E+00
    0.19946E-02        -0.10229E+00         0.00000E+00
    0.00000E+00        -0.10243E+00         0.00000E+00
    0.00000E+00         0.15911E-01         0.00000E+00
    0.16938E-02         0.15760E-01         0.00000E+00
    0.30914E-02         0.15333E-01         0.00000E+00
    0.42735E-02         0.14681E-01         0.00000E+00
    0.52971E-02         0.13864E-01         0.00000E+00
    0.61923E-02         0.12920E-01         0.00000E+00
    0.69770E-02         0.11872E-01         0.00000E+00
    0.76700E-02         0.10727E-01         0.00000E+00
    0.82882E-02         0.94956E-02         0.00000E+00
    0.88439E-02         0.81925E-02         0.00000E+00
    0.93461E-02         0.68390E-02         0.00000E+00
    0.98020E-02         0.54564E-02         0.00000E+00
    0.10218E-01         0.40621E-02         0.00000E+00
    0.10597E-01         0.26686E-02         0.00000E+00
    0.10943E-01         0.12846E-02         0.00000E+00
    0.11258E-01        -0.84567E-04         0.00000E+00
    0.11543E-01        -0.14361E-02         0.00000E+00
    0.11798E-01        -0.27688E-02         0.00000E+00
    0.12026E-01        -0.40828E-02         0.00000E+00
    0.12226E-01        -0.53794E-02         0.00000E+00
    0.12399E-01        -0.66605E-02         0.00000E+00
    0.12545E-01        -0.79287E-02         0.00000E+00
    0.12665E-01        -0.91868E-02         0.00000E+00
    0.12758E-01        -0.10438E-01         0.00000E+00
    0.12827E-01        -0.11684E-01         0.00000E+00
    0.12878E-01        -0.12927E-01         0.00000E+00
    0.12924E-01        -0.14174E-01         0.00000E+00
    0.12968E-01        -0.15426E-01         0.00000E+00
    0.13010E-01        -0.16679E-01         0.00000E+00
    0.13049E-01        -0.17932E-01         0.00000E+00
    0.13085E-01        -0.19185E-01         0.00000E+00
    0.13117E-01        -0.20436E-01         0.00000E+00
    0.13145E-01        -0.21684E-01         0.00000E+00
    0.13168E-01        -0.22931E-01         0.00000E+00
    0.13185E-01        -0.24175E-01         0.00000E+00
    0.13196E-01        -0.25417E-01         0.00000E+00
    0.13201E-01        -0.26659E-01         0.00000E+00
    0.13197E-01        -0.27901E-01         0.00000E+00
    0.13186E-01        -0.29144E-01         0.00000E+00
    0.13169E-01        -0.30387E-01         0.00000E+00
    0.13155E-01        -0.31639E-01         0.00000E+00
    0.13145E-01        -0.32897E-01         0.00000E+00
    0.13139E-01        -0.34161E-01         0.00000E+00
    0.13136E-01        -0.35430E-01         0.00000E+00
    0.13135E-01        -0.36701E-01         0.00000E+00
    0.13135E-01        -0.37976E-01         0.00000E+00
    0.13135E-01        -0.39253E-01         0.00000E+00
    0.13135E-01        -0.40533E-01         0.00000E+00
    0.13134E-01        -0.41816E-01         0.00000E+00
    0.13136E-01        -0.43103E-01         0.00000E+00
    0.13144E-01        -0.44395E-01         0.00000E+00
    0.13157E-01        -0.45691E-01         0.00000E+00
    0.13176E-01        -0.46990E-01         0.00000E+00
    0.13198E-01        -0.48291E-01         0.00000E+00
    0.13223E-01        -0.49594E-01         0.00000E+00
    0.13251E-01        -0.50900E-01         0.00000E+00
    0.13281E-01        -0.52207E-01         0.00000E+00
    0.13313E-01        -0.53516E-01         0.00000E+00
    0.13350E-01        -0.54827E-01         0.00000E+00
    0.13392E-01        -0.56139E-01         0.00000E+00
    0.13438E-01        -0.57453E-01         0.00000E+00
    0.13488E-01        -0.58768E-01         0.00000E+00
    0.13541E-01        -0.60083E-01         0.00000E+00
    0.13597E-01        -0.61397E-01         0.00000E+00
    0.13654E-01        -0.62712E-01         0.00000E+00
    0.13713E-01        -0.64026E-01         0.00000E+00
    0.13773E-01        -0.65340E-01         0.00000E+00
    0.13833E-01        -0.66652E-01         0.00000E+00
    0.13893E-01        -0.67964E-01         0.00000E+00
    0.13952E-01        -0.69275E-01         0.00000E+00
    0.14008E-01        -0.70585E-01         0.00000E+00
    0.14061E-01        -0.71894E-01         0.00000E+00
    0.14111E-01        -0.73202E-01         0.00000E+00
    0.14155E-01        -0.74509E-01         0.00000E+00
    0.14193E-01        -0.75814E-01         0.00000E+00
    0.14223E-01        -0.77118E-01         0.00000E+00
    0.14243E-01        -0.78422E-01         0.00000E+00
    0.14252E-01        -0.79725E-01         0.00000E+00
    0.14247E-01        -0.81027E-01         0.00000E+00
    0.14225E-01        -0.82329E-01         0.00000E+00
    0.14184E-01        -0.83631E-01         0.00000E+00
    0.14120E-01        -0.84934E-01         0.00000E+00
    0.14030E-01        -0.86239E-01         0.00000E+00
    0.13911E-01        -0.87547E-01         0.00000E+00
    0.13756E-01        -0.88857E-01         0.00000E+00
    0.13562E-01        -0.90172E-01         0.00000E+00
    0.13323E-01        -0.91491E-01         0.00000E+00
    0.13033E-01        -0.92814E-01         0.00000E+00
    0.12685E-01        -0.94140E-01         0.00000E+00
    0.12271E-01        -0.95466E-01         0.00000E+00
    0.11785E-01        -0.96789E-01         0.00000E+00
    0.11216E-01        -0.98101E-01         0.00000E+00
    0.10553E-01        -0.99393E-01         0.00000E+00
    0.97860E-02        -0.10065E+00         0.00000E+00
    0.88996E-02        -0.10185E+00         0.00000E+00
    0.78785E-02        -0.10297E+00         0.00000E+00
    0.67050E-02        -0.10397E+00         0.00000E+00
    0.53589E-02        -0.10481E+00         0.00000E+00
    0.38152E-02        -0.10544E+00         0.00000E+00
    0.20421E-02        -0.10584E+00         0.00000E+00
    0.00000E+00        -0.10598E+00         0.00000E+00
    0.00000E+00         0.16401E-01         0.00000E+00
    0.17499E-02         0.16248E-01         0.00000E+00
    0.32012E-02         0.15813E-01         0.00000E+00
    0.44326E-02         0.15145E-01         0.00000E+00
    0.54990E-02         0.14302E-01         0.00000E+00
    0.64318E-02         0.13325E-01         0.00000E+00
    0.72509E-02         0.12238E-01         0.00000E+00
    0.79745E-02         0.11053E-01         0.00000E+00
    0.86187E-02         0.97801E-02         0.00000E+00
    0.91959E-02         0.84366E-02         0.00000E+00
    0.97157E-02         0.70427E-02         0.00000E+00
    0.10186E-01         0.56191E-02         0.00000E+00
    0.10612E-01         0.41830E-02         0.00000E+00
    0.11000E-01         0.27472E-02         0.00000E+00
    0.11353E-01         0.13205E-02         0.00000E+00
    0.11673E-01        -0.91459E-04         0.00000E+00
    0.11961E-01        -0.14857E-02         0.00000E+00
    0.12220E-01        -0.28610E-02         0.00000E+00
    0.12450E-01        -0.42175E-02         0.00000E+00
    0.12652E-01        -0.55562E-02         0.00000E+00
    0.12827E-01        -0.68792E-02         0.00000E+00
    0.12974E-01        -0.81892E-02         0.00000E+00
    0.13095E-01        -0.94890E-02         0.00000E+00
    0.13189E-01        -0.10782E-01         0.00000E+00
    0.13258E-01        -0.12070E-01         0.00000E+00
    0.13311E-01        -0.13357E-01         0.00000E+00
    0.13359E-01        -0.14647E-01         0.00000E+00
    0.13404E-01        -0.15942E-01         0.00000E+00
    0.13447E-01        -0.17239E-01         0.00000E+00
    0.13487E-01        -0.18536E-01         0.00000E+00
    0.13523E-01        -0.19832E-01         0.00000E+00
    0.13556E-01        -0.21126E-01         0.00000E+00
    0.13585E-01        -0.22418E-01         0.00000E+00
    0.13608E-01        -0.23707E-01         0.00000E+00
    0.13626E-01        -0.24994E-01         0.00000E+00
    0.13637E-01        -0.26280E-01         0.00000E+00
    0.13642E-01        -0.27565E-01         0.00000E+00
    0.13638E-01        -0.28850E-01         0.00000E+00
    0.13627E-01        -0.30135E-01         0.00000E+00
    0.13611E-01        -0.31423E-01         0.00000E+00
    0.13597E-01        -0.32718E-01         0.00000E+00
    0.13589E-01        -0.34021E-01         0.00000E+00
    0.13583E-01        -0.35329E-01         0.00000E+00
    0.13581E-01        -0.36642E-01         0.00000E+00
    0.13581E-01        -0.37958E-01         0.00000E+00
    0.13581E-01        -0.39277E-01         0.00000E+00
    0.13582E-01        -0.40598E-01         0.00000E+00
    0.13582E-01        -0.41923E-01         0.00000E+00
    0.13582E-01        -0.43250E-01         0.00000E+00
    0.13585E-01        -0.44582E-01         0.00000E+00
    0.13594E-01        -0.45919E-01         0.00000E+00
    0.13608E-01        -0.47260E-01         0.00000E+00
    0.13627E-01        -0.48604E-01         0.00000E+00
    0.13650E-01        -0.49951E-01         0.00000E+00
    0.13676E-01        -0.51299E-01         0.00000E+00
    0.13705E-01        -0.52650E-01         0.00000E+00
    0.13736E-01        -0.54003E-01         0.00000E+00
    0.13769E-01        -0.55357E-01         0.00000E+00
    0.13807E-01        -0.56714E-01         0.00000E+00
    0.13850E-01        -0.58072E-01         0.00000E+00
    0.13897E-01        -0.59431E-01         0.00000E+00
    0.13948E-01        -0.60792E-01         0.00000E+00
    0.14002E-01        -0.62152E-01         0.00000E+00
    0.14059E-01        -0.63512E-01         0.00000E+00
    0.14118E-01        -0.64872E-01         0.00000E+00
    0.14178E-01        -0.66232E-01         0.00000E+00
    0.14239E-01        -0.67591E-01         0.00000E+00
    0.14300E-01        -0.68949E-01         0.00000E+00
    0.14360E-01        -0.70306E-01         0.00000E+00
    0.14419E-01        -0.71662E-01         0.00000E+00
    0.14477E-01        -0.73017E-01         0.00000E+00
    0.14531E-01        -0.74371E-01         0.00000E+00
    0.14581E-01        -0.75724E-01         0.00000E+00
    0.14626E-01        -0.77075E-01         0.00000E+00
    0.14664E-01        -0.78425E-01         0.00000E+00
    0.14694E-01        -0.79774E-01         0.00000E+00
    0.14714E-01        -0.81121E-01         0.00000E+00
    0.14722E-01        -0.82468E-01         0.00000E+00
    0.14716E-01        -0.83814E-01         0.00000E+00
    0.14693E-01        -0.85160E-01         0.00000E+00
    0.14650E-01        -0.86505E-01         0.00000E+00
    0.14584E-01        -0.87852E-01         0.00000E+00
    0.14491E-01        -0.89200E-01         0.00000E+00
    0.14368E-01        -0.90550E-01         0.00000E+00
    0.14208E-01        -0.91903E-01         0.00000E+00
    0.14008E-01        -0.93259E-01         0.00000E+00
    0.13762E-01        -0.94619E-01         0.00000E+00
    0.13462E-01        -0.95983E-01         0.00000E+00
    0.13103E-01        -0.97349E-01         0.00000E+00
    0.12676E-01        -0.98715E-01         0.00000E+00
    0.12172E-01        -0.10008E+00         0.00000E+00
    0.11582E-01        -0.10143E+00         0.00000E+00
    0.10895E-01        -0.10276E+00         0.00000E+00
    0.10098E-01        -0.10405E+00         0.00000E+00
    0.91767E-02        -0.10528E+00         0.00000E+00
    0.81157E-02        -0.10643E+00         0.00000E+00
    0.68978E-02        -0.10745E+00         0.00000E+00
    0.55040E-02        -0.10832E+00         0.00000E+00
    0.39113E-02        -0.10897E+00         0.00000E+00
    0.20896E-02        -0.10938E+00         0.00000E+00
    0.00000E+00        -0.10952E+00         0.00000E+00
    0.00000E+00         0.16886E-01         0.00000E+00
    0.18061E-02         0.16731E-01         0.00000E+00
    0.33115E-02         0.16287E-01         0.00000E+00
    0.45934E-02         0.15603E-01         0.00000E+00
    0.57043E-02         0.14733E-01         0.00000E+00
    0.66761E-02         0.13723E-01         0.00000E+00
    0.75297E-02         0.12598E-01         0.00000E+00
    0.82835E-02         0.11373E-01         0.00000E+00
    0.89532E-02         0.10061E-01         0.00000E+00
    0.95515E-02         0.86778E-02         0.00000E+00
    0.10088E-01         0.72440E-02         0.00000E+00
    0.10572E-01         0.57798E-02         0.00000E+00
    0.11009E-01         0.43025E-02         0.00000E+00
    0.11405E-01         0.28248E-02         0.00000E+00
    0.11764E-01         0.13559E-02         0.00000E+00
    0.12089E-01        -0.98615E-04         0.00000E+00
    0.12381E-01        -0.15354E-02         0.00000E+00
    0.12643E-01        -0.29531E-02         0.00000E+00
    0.12875E-01        -0.43517E-02         0.00000E+00
    0.13079E-01        -0.57324E-02         0.00000E+00
    0.13255E-01        -0.70972E-02         0.00000E+00
    0.13403E-01        -0.84488E-02         0.00000E+00
    0.13525E-01        -0.97903E-02         0.00000E+00
    0.13620E-01        -0.11125E-01         0.00000E+00
    0.13690E-01        -0.12456E-01         0.00000E+00
    0.13743E-01        -0.13785E-01         0.00000E+00
    0.13793E-01        -0.15120E-01         0.00000E+00
    0.13839E-01        -0.16458E-01         0.00000E+00
    0.13883E-01        -0.17798E-01         0.00000E+00
    0.13924E-01        -0.19138E-01         0.00000E+00
    0.13961E-01        -0.20478E-01         0.00000E+00
    0.13995E-01        -0.21815E-01         0.00000E+00
    0.14024E-01        -0.23150E-01         0.00000E+00
    0.14047E-01        -0.24483E-01         0.00000E+00
    0.14066E-01        -0.25813E-01         0.00000E+00
    0.14077E-01        -0.27142E-01         0.00000E+00
    0.14082E-01        -0.28469E-01         0.00000E+00
    0.14079E-01        -0.29797E-01         0.00000E+00
    0.14068E-01        -0.31126E-01         0.00000E+00
    0.14052E-01        -0.32457E-01         0.00000E+00
    0.14040E-01        -0.33797E-01         0.00000E+00
    0.14032E-01        -0.35144E-01         0.00000E+00
    0.14027E-01        -0.36496E-01         0.00000E+00
    0.14026E-01        -0.37853E-01         0.00000E+00
    0.14026E-01        -0.39213E-01         0.00000E+00
    0.14027E-01        -0.40577E-01         0.00000E+00
    0.14028E-01        -0.41943E-01         0.00000E+00
    0.14029E-01        -0.43312E-01         0.00000E+00
    0.14029E-01        -0.44684E-01         0.00000E+00
    0.14033E-01        -0.46061E-01         0.00000E+00
    0.14043E-01        -0.47443E-01         0.00000E+00
    0.14058E-01        -0.48829E-01         0.00000E+00
    0.14078E-01        -0.50219E-01         0.00000E+00
    0.14102E-01        -0.51610E-01         0.00000E+00
    0.14129E-01        -0.53004E-01         0.00000E+00
    0.14159E-01        -0.54400E-01         0.00000E+00
    0.14191E-01        -0.55798E-01         0.00000E+00
    0.14225E-01        -0.57198E-01         0.00000E+00
    0.14264E-01        -0.58600E-01         0.00000E+00
    0.14308E-01        -0.60004E-01         0.00000E+00
    0.14356E-01        -0.61409E-01         0.00000E+00
    0.14408E-01        -0.62815E-01         0.00000E+00
    0.14463E-01        -0.64221E-01         0.00000E+00
    0.14521E-01        -0.65627E-01         0.00000E+00
    0.14580E-01        -0.67033E-01         0.00000E+00
    0.14641E-01        -0.68438E-01         0.00000E+00
    0.14703E-01        -0.69842E-01         0.00000E+00
    0.14765E-01        -0.71245E-01         0.00000E+00
    0.14826E-01        -0.72648E-01         0.00000E+00
    0.14887E-01        -0.74049E-01         0.00000E+00
    0.14944E-01        -0.75449E-01         0.00000E+00
    0.14999E-01        -0.76848E-01         0.00000E+00
    0.15050E-01        -0.78245E-01         0.00000E+00
    0.15095E-01        -0.79641E-01         0.00000E+00
    0.15133E-01        -0.81036E-01         0.00000E+00
    0.15163E-01        -0.82429E-01         0.00000E+00
    0.15183E-01        -0.83821E-01         0.00000E+00
    0.15190E-01        -0.85211E-01         0.00000E+00
    0.15183E-01        -0.86601E-01         0.00000E+00
    0.15159E-01        -0.87990E-01         0.00000E+00
    0.15115E-01        -0.89379E-01         0.00000E+00
    0.15047E-01        -0.90769E-01         0.00000E+00
    0.14951E-01        -0.92159E-01         0.00000E+00
    0.14824E-01        -0.93552E-01         0.00000E+00
    0.14660E-01        -0.94947E-01         0.00000E+00
    0.14454E-01        -0.96345E-01         0.00000E+00
    0.14200E-01        -0.97746E-01         0.00000E+00
    0.13891E-01        -0.99150E-01         0.00000E+00
    0.13521E-01        -0.10056E+00         0.00000E+00
    0.13079E-01        -0.10196E+00         0.00000E+00
    0.12559E-01        -0.10336E+00         0.00000E+00
    0.11948E-01        -0.10475E+00         0.00000E+00
    0.11236E-01        -0.10611E+00         0.00000E+00
    0.10410E-01        -0.10744E+00         0.00000E+00
    0.94542E-02        -0.10870E+00         0.00000E+00
    0.83535E-02        -0.10988E+00         0.00000E+00
    0.70911E-02        -0.11093E+00         0.00000E+00
    0.56495E-02        -0.11182E+00         0.00000E+00
    0.40076E-02        -0.11250E+00         0.00000E+00
    0.21372E-02        -0.11292E+00         0.00000E+00
    0.00000E+00        -0.11306E+00         0.00000E+00
    0.00000E+00         0.17368E-01         0.00000E+00
    0.18626E-02         0.17209E-01         0.00000E+00
    0.34228E-02         0.16756E-01         0.00000E+00
    0.47562E-02         0.16054E-01         0.00000E+00
    0.59131E-02         0.15159E-01         0.00000E+00
    0.69249E-02         0.14115E-01         0.00000E+00
    0.78133E-02         0.12953E-01         0.00000E+00
    0.85969E-02         0.11690E-01         0.00000E+00
    0.92917E-02         0.10338E-01         0.00000E+00
    0.99105E-02         0.89161E-02         0.00000E+00
    0.10464E-01         0.74430E-02         0.00000E+00
    0.10961E-01         0.59388E-02         0.00000E+00
    0.11409E-01         0.44207E-02         0.00000E+00
    0.11813E-01         0.29015E-02         0.00000E+00
    0.12178E-01         0.13907E-02         0.00000E+00
    0.12507E-01        -0.10600E-03         0.00000E+00
    0.12802E-01        -0.15850E-02         0.00000E+00
    0.13067E-01        -0.30448E-02         0.00000E+00
    0.13301E-01        -0.44855E-02         0.00000E+00
    0.13506E-01        -0.59080E-02         0.00000E+00
    0.13683E-01        -0.73145E-02         0.00000E+00
    0.13832E-01        -0.87076E-02         0.00000E+00
    0.13955E-01        -0.10091E-01         0.00000E+00
    0.14051E-01        -0.11467E-01         0.00000E+00
    0.14121E-01        -0.12841E-01         0.00000E+00
    0.14176E-01        -0.14213E-01         0.00000E+00
    0.14226E-01        -0.15591E-01         0.00000E+00
    0.14274E-01        -0.16972E-01         0.00000E+00
    0.14319E-01        -0.18356E-01         0.00000E+00
    0.14361E-01        -0.19740E-01         0.00000E+00
    0.14399E-01        -0.21123E-01         0.00000E+00
    0.14433E-01        -0.22504E-01         0.00000E+00
    0.14462E-01        -0.23882E-01         0.00000E+00
    0.14486E-01        -0.25258E-01         0.00000E+00
    0.14505E-01        -0.26631E-01         0.00000E+00
    0.14517E-01        -0.28002E-01         0.00000E+00
    0.14522E-01        -0.29373E-01         0.00000E+00
    0.14519E-01        -0.30744E-01         0.00000E+00
    0.14508E-01        -0.32117E-01         0.00000E+00
    0.14493E-01        -0.33491E-01         0.00000E+00
    0.14481E-01        -0.34875E-01         0.00000E+00
    0.14474E-01        -0.36266E-01         0.00000E+00
    0.14471E-01        -0.37663E-01         0.00000E+00
    0.14470E-01        -0.39064E-01         0.00000E+00
    0.14471E-01        -0.40469E-01         0.00000E+00
    0.14473E-01        -0.41876E-01         0.00000E+00
    0.14475E-01        -0.43287E-01         0.00000E+00
    0.14476E-01        -0.44700E-01         0.00000E+00
    0.14477E-01        -0.46117E-01         0.00000E+00
    0.14482E-01        -0.47539E-01         0.00000E+00
    0.14492E-01        -0.48966E-01         0.00000E+00
    0.14509E-01        -0.50398E-01         0.00000E+00
    0.14530E-01        -0.51833E-01         0.00000E+00
    0.14554E-01        -0.53270E-01         0.00000E+00
    0.14582E-01        -0.54709E-01         0.00000E+00
    0.14613E-01        -0.56150E-01         0.00000E+00
    0.14645E-01        -0.57594E-01         0.00000E+00
    0.14681E-01        -0.59039E-01         0.00000E+00
    0.14721E-01        -0.60487E-01         0.00000E+00
    0.14765E-01        -0.61937E-01         0.00000E+00
    0.14815E-01        -0.63387E-01         0.00000E+00
    0.14868E-01        -0.64839E-01         0.00000E+00
    0.14924E-01        -0.66290E-01         0.00000E+00
    0.14982E-01        -0.67742E-01         0.00000E+00
    0.15043E-01        -0.69193E-01         0.00000E+00
    0.15104E-01        -0.70643E-01         0.00000E+00
    0.15167E-01        -0.72093E-01         0.00000E+00
    0.15230E-01        -0.73542E-01         0.00000E+00
    0.15292E-01        -0.74989E-01         0.00000E+00
    0.15353E-01        -0.76435E-01         0.00000E+00
    0.15411E-01        -0.77881E-01         0.00000E+00
    0.15467E-01        -0.79324E-01         0.00000E+00
    0.15518E-01        -0.80766E-01         0.00000E+00
    0.15563E-01        -0.82207E-01         0.00000E+00
    0.15601E-01        -0.83646E-01         0.00000E+00
    0.15631E-01        -0.85084E-01         0.00000E+00
    0.15651E-01        -0.86520E-01         0.00000E+00
    0.15658E-01        -0.87955E-01         0.00000E+00
    0.15650E-01        -0.89388E-01         0.00000E+00
    0.15624E-01        -0.90821E-01         0.00000E+00
    0.15578E-01        -0.92253E-01         0.00000E+00
    0.15508E-01        -0.93685E-01         0.00000E+00
    0.15409E-01        -0.95119E-01         0.00000E+00
    0.15278E-01        -0.96553E-01         0.00000E+00
    0.15110E-01        -0.97990E-01         0.00000E+00
    0.14898E-01        -0.99429E-01         0.00000E+00
    0.14637E-01        -0.10087E+00         0.00000E+00
    0.14319E-01        -0.10232E+00         0.00000E+00
    0.13938E-01        -0.10376E+00         0.00000E+00
    0.13483E-01        -0.10521E+00         0.00000E+00
    0.12946E-01        -0.10664E+00         0.00000E+00
    0.12315E-01        -0.10807E+00         0.00000E+00
    0.11578E-01        -0.10947E+00         0.00000E+00
    0.10723E-01        -0.11083E+00         0.00000E+00
    0.97325E-02        -0.11212E+00         0.00000E+00
    0.85921E-02        -0.11333E+00         0.00000E+00
    0.72853E-02        -0.11441E+00         0.00000E+00
    0.57957E-02        -0.11532E+00         0.00000E+00
    0.41045E-02        -0.11601E+00         0.00000E+00
    0.21850E-02        -0.11645E+00         0.00000E+00
    0.00000E+00        -0.11660E+00         0.00000E+00
    0.00000E+00         0.17845E-01         0.00000E+00
    0.19197E-02         0.17683E-01         0.00000E+00
    0.35354E-02         0.17220E-01         0.00000E+00
    0.49214E-02         0.16499E-01         0.00000E+00
    0.61257E-02         0.15577E-01         0.00000E+00
    0.71783E-02         0.14501E-01         0.00000E+00
    0.81015E-02         0.13303E-01         0.00000E+00
    0.89146E-02         0.12002E-01         0.00000E+00
    0.96339E-02         0.10612E-01         0.00000E+00
    0.10273E-01         0.91517E-02         0.00000E+00
    0.10843E-01         0.76398E-02         0.00000E+00
    0.11352E-01         0.60961E-02         0.00000E+00
    0.11810E-01         0.45376E-02         0.00000E+00
    0.12222E-01         0.29774E-02         0.00000E+00
    0.12593E-01         0.14250E-02         0.00000E+00
    0.12926E-01        -0.11356E-03         0.00000E+00
    0.13225E-01        -0.16345E-02         0.00000E+00
    0.13491E-01        -0.31363E-02         0.00000E+00
    0.13727E-01        -0.46188E-02         0.00000E+00
    0.13933E-01        -0.60830E-02         0.00000E+00
    0.14111E-01        -0.75310E-02         0.00000E+00
    0.14261E-01        -0.89655E-02         0.00000E+00
    0.14384E-01        -0.10390E-01         0.00000E+00
    0.14481E-01        -0.11808E-01         0.00000E+00
    0.14552E-01        -0.13224E-01         0.00000E+00
    0.14608E-01        -0.14640E-01         0.00000E+00
    0.14660E-01        -0.16061E-01         0.00000E+00
    0.14709E-01        -0.17486E-01         0.00000E+00
    0.14755E-01        -0.18913E-01         0.00000E+00
    0.14797E-01        -0.20341E-01         0.00000E+00
    0.14836E-01        -0.21767E-01         0.00000E+00
    0.14870E-01        -0.23192E-01         0.00000E+00
    0.14900E-01        -0.24613E-01         0.00000E+00
    0.14925E-01        -0.26032E-01         0.00000E+00
    0.14943E-01        -0.27448E-01         0.00000E+00
    0.14956E-01        -0.28863E-01         0.00000E+00
    0.14961E-01        -0.30276E-01         0.00000E+00
    0.14958E-01        -0.31690E-01         0.00000E+00
    0.14947E-01        -0.33106E-01         0.00000E+00
    0.14933E-01        -0.34525E-01         0.00000E+00
    0.14923E-01        -0.35953E-01         0.00000E+00
    0.14917E-01        -0.37388E-01         0.00000E+00
    0.14914E-01        -0.38829E-01         0.00000E+00
    0.14914E-01        -0.40275E-01         0.00000E+00
    0.14916E-01        -0.41724E-01         0.00000E+00
    0.14918E-01        -0.43176E-01         0.00000E+00
    0.14921E-01        -0.44631E-01         0.00000E+00
    0.14923E-01        -0.46089E-01         0.00000E+00
    0.14924E-01        -0.47550E-01         0.00000E+00
    0.14930E-01        -0.49017E-01         0.00000E+00
    0.14942E-01        -0.50490E-01         0.00000E+00
    0.14959E-01        -0.51967E-01         0.00000E+00
    0.14981E-01        -0.53446E-01         0.00000E+00
    0.15006E-01        -0.54929E-01         0.00000E+00
    0.15035E-01        -0.56413E-01         0.00000E+00
    0.15066E-01        -0.57900E-01         0.00000E+00
    0.15100E-01        -0.59389E-01         0.00000E+00
    0.15136E-01        -0.60880E-01         0.00000E+00
    0.15177E-01        -0.62373E-01         0.00000E+00
    0.15223E-01        -0.63869E-01         0.00000E+00
    0.15273E-01        -0.65365E-01         0.00000E+00
    0.15327E-01        -0.66862E-01         0.00000E+00
    0.15384E-01        -0.68360E-01         0.00000E+00
    0.15443E-01        -0.69857E-01         0.00000E+00
    0.15504E-01        -0.71353E-01         0.00000E+00
    0.15567E-01        -0.72849E-01         0.00000E+00
    0.15630E-01        -0.74344E-01         0.00000E+00
    0.15694E-01        -0.75838E-01         0.00000E+00
    0.15757E-01        -0.77331E-01         0.00000E+00
    0.15818E-01        -0.78822E-01         0.00000E+00
    0.15877E-01        -0.80312E-01         0.00000E+00
    0.15933E-01        -0.81801E-01         0.00000E+00
    0.15984E-01        -0.83288E-01         0.00000E+00
    0.16030E-01        -0.84773E-01         0.00000E+00
    0.16069E-01        -0.86257E-01         0.00000E+00
    0.16098E-01        -0.87739E-01         0.00000E+00
    0.16117E-01        -0.89219E-01         0.00000E+00
    0.16124E-01        -0.90697E-01         0.00000E+00
    0.16115E-01        -0.92175E-01         0.00000E+00
    0.16088E-01        -0.93651E-01         0.00000E+00
    0.16040E-01        -0.95126E-01         0.00000E+00
    0.15968E-01        -0.96601E-01         0.00000E+00
    0.15866E-01        -0.98077E-01         0.00000E+00
    0.15732E-01        -0.99554E-01         0.00000E+00
    0.15559E-01        -0.10103E+00         0.00000E+00
    0.15341E-01        -0.10251E+00         0.00000E+00
    0.15073E-01        -0.10400E+00         0.00000E+00
    0.14747E-01        -0.10548E+00         0.00000E+00
    0.14354E-01        -0.10697E+00         0.00000E+00
    0.13886E-01        -0.10845E+00         0.00000E+00
    0.13332E-01        -0.10992E+00         0.00000E+00
    0.12682E-01        -0.11138E+00         0.00000E+00
    0.11921E-01        -0.11282E+00         0.00000E+00
    0.11036E-01        -0.11421E+00         0.00000E+00
    0.10012E-01        -0.11554E+00         0.00000E+00
    0.88319E-02        -0.11677E+00         0.00000E+00
    0.74808E-02        -0.11788E+00         0.00000E+00
    0.59431E-02        -0.11881E+00         0.00000E+00
    0.42020E-02        -0.11953E+00         0.00000E+00
    0.22331E-02        -0.11998E+00         0.00000E+00
    0.00000E+00        -0.12013E+00         0.00000E+00
    0.00000E+00         0.18319E-01         0.00000E+00
    0.19775E-02         0.18153E-01         0.00000E+00
    0.36497E-02         0.17678E-01         0.00000E+00
    0.50896E-02         0.16938E-01         0.00000E+00
    0.63421E-02         0.15989E-01         0.00000E+00
    0.74360E-02         0.14881E-01         0.00000E+00
    0.83942E-02         0.13648E-01         0.00000E+00
    0.92364E-02         0.12310E-01         0.00000E+00
    0.99798E-02         0.10883E-01         0.00000E+00
    0.10638E-01         0.93847E-02         0.00000E+00
    0.11224E-01         0.78345E-02         0.00000E+00
    0.11746E-01         0.62518E-02         0.00000E+00
    0.12214E-01         0.46534E-02         0.00000E+00
    0.12633E-01         0.30525E-02         0.00000E+00
    0.13009E-01         0.14588E-02         0.00000E+00
    0.13346E-01        -0.12126E-03         0.00000E+00
    0.13648E-01        -0.16839E-02         0.00000E+00
    0.13916E-01        -0.32274E-02         0.00000E+00
    0.14153E-01        -0.47516E-02         0.00000E+00
    0.14360E-01        -0.62573E-02         0.00000E+00
    0.14539E-01        -0.77467E-02         0.00000E+00
    0.14690E-01        -0.92226E-02         0.00000E+00
    0.14814E-01        -0.10689E-01         0.00000E+00
    0.14912E-01        -0.12149E-01         0.00000E+00
    0.14983E-01        -0.13606E-01         0.00000E+00
    0.15040E-01        -0.15065E-01         0.00000E+00
    0.15093E-01        -0.16530E-01         0.00000E+00
    0.15143E-01        -0.17999E-01         0.00000E+00
    0.15190E-01        -0.19470E-01         0.00000E+00
    0.15233E-01        -0.20941E-01         0.00000E+00
    0.15273E-01        -0.22411E-01         0.00000E+00
    0.15308E-01        -0.23879E-01         0.00000E+00
    0.15338E-01        -0.25343E-01         0.00000E+00
    0.15362E-01        -0.26805E-01         0.00000E+00
    0.15381E-01        -0.28265E-01         0.00000E+00
    0.15394E-01        -0.29722E-01         0.00000E+00
    0.15399E-01        -0.31179E-01         0.00000E+00
    0.15397E-01        -0.32636E-01         0.00000E+00
    0.15386E-01        -0.34095E-01         0.00000E+00
    0.15373E-01        -0.35558E-01         0.00000E+00
    0.15364E-01        -0.37030E-01         0.00000E+00
    0.15358E-01        -0.38510E-01         0.00000E+00
    0.15357E-01        -0.39995E-01         0.00000E+00
    0.15358E-01        -0.41485E-01         0.00000E+00
    0.15360E-01        -0.42978E-01         0.00000E+00
    0.15363E-01        -0.44475E-01         0.00000E+00
    0.15366E-01        -0.45974E-01         0.00000E+00
    0.15369E-01        -0.47476E-01         0.00000E+00
    0.15372E-01        -0.48983E-01         0.00000E+00
    0.15378E-01        -0.50495E-01         0.00000E+00
    0.15391E-01        -0.52013E-01         0.00000E+00
    0.15409E-01        -0.53535E-01         0.00000E+00
    0.15432E-01        -0.55060E-01         0.00000E+00
    0.15458E-01        -0.56588E-01         0.00000E+00
    0.15488E-01        -0.58118E-01         0.00000E+00
    0.15520E-01        -0.59650E-01         0.00000E+00
    0.15554E-01        -0.61184E-01         0.00000E+00
    0.15591E-01        -0.62721E-01         0.00000E+00
    0.15633E-01        -0.64260E-01         0.00000E+00
    0.15680E-01        -0.65801E-01         0.00000E+00
    0.15731E-01        -0.67343E-01         0.00000E+00
    0.15786E-01        -0.68886E-01         0.00000E+00
    0.15843E-01        -0.70429E-01         0.00000E+00
    0.15903E-01        -0.71971E-01         0.00000E+00
    0.15966E-01        -0.73513E-01         0.00000E+00
    0.16029E-01        -0.75054E-01         0.00000E+00
    0.16093E-01        -0.76595E-01         0.00000E+00
    0.16157E-01        -0.78134E-01         0.00000E+00
    0.16221E-01        -0.79672E-01         0.00000E+00
    0.16283E-01        -0.81209E-01         0.00000E+00
    0.16342E-01        -0.82744E-01         0.00000E+00
    0.16398E-01        -0.84277E-01         0.00000E+00
    0.16450E-01        -0.85809E-01         0.00000E+00
    0.16496E-01        -0.87339E-01         0.00000E+00
    0.16534E-01        -0.88867E-01         0.00000E+00
    0.16564E-01        -0.90393E-01         0.00000E+00
    0.16583E-01        -0.91918E-01         0.00000E+00
    0.16588E-01        -0.93440E-01         0.00000E+00
    0.16578E-01        -0.94961E-01         0.00000E+00
    0.16550E-01        -0.96480E-01         0.00000E+00
    0.16501E-01        -0.97999E-01         0.00000E+00
    0.16426E-01        -0.99517E-01         0.00000E+00
    0.16322E-01        -0.10103E+00         0.00000E+00
    0.16184E-01        -0.10255E+00         0.00000E+00
    0.16007E-01        -0.10407E+00         0.00000E+00
    0.15784E-01        -0.10560E+00         0.00000E+00
    0.15509E-01        -0.10712E+00         0.00000E+00
    0.15174E-01        -0.10864E+00         0.00000E+00
    0.14771E-01        -0.11017E+00         0.00000E+00
    0.14289E-01        -0.11169E+00         0.00000E+00
    0.13719E-01        -0.11320E+00         0.00000E+00
    0.13049E-01        -0.11470E+00         0.00000E+00
    0.12264E-01        -0.11616E+00         0.00000E+00
    0.11350E-01        -0.11759E+00         0.00000E+00
    0.10292E-01        -0.11894E+00         0.00000E+00
    0.90732E-02        -0.12021E+00         0.00000E+00
    0.76779E-02        -0.12134E+00         0.00000E+00
    0.60919E-02        -0.12230E+00         0.00000E+00
    0.43005E-02        -0.12304E+00         0.00000E+00
    0.22817E-02        -0.12350E+00         0.00000E+00
    0.00000E+00        -0.12366E+00         0.00000E+00
    0.00000E+00         0.18788E-01         0.00000E+00
    0.20362E-02         0.18618E-01         0.00000E+00
    0.37661E-02         0.18130E-01         0.00000E+00
    0.52609E-02         0.17370E-01         0.00000E+00
    0.65625E-02         0.16394E-01         0.00000E+00
    0.76982E-02         0.15255E-01         0.00000E+00
    0.86912E-02         0.13988E-01         0.00000E+00
    0.95622E-02         0.12614E-01         0.00000E+00
    0.10329E-01         0.11151E-01         0.00000E+00
    0.11007E-01         0.96153E-02         0.00000E+00
    0.11608E-01         0.80273E-02         0.00000E+00
    0.12143E-01         0.64060E-02         0.00000E+00
    0.12620E-01         0.47681E-02         0.00000E+00
    0.13046E-01         0.31269E-02         0.00000E+00
    0.13427E-01         0.14923E-02         0.00000E+00
    0.13768E-01        -0.12905E-03         0.00000E+00
    0.14072E-01        -0.17332E-02         0.00000E+00
    0.14342E-01        -0.33182E-02         0.00000E+00
    0.14580E-01        -0.48838E-02         0.00000E+00
    0.14788E-01        -0.64310E-02         0.00000E+00
    0.14967E-01        -0.79617E-02         0.00000E+00
    0.15119E-01        -0.94788E-02         0.00000E+00
    0.15243E-01        -0.10986E-01         0.00000E+00
    0.15342E-01        -0.12488E-01         0.00000E+00
    0.15414E-01        -0.13988E-01         0.00000E+00
    0.15471E-01        -0.15490E-01         0.00000E+00
    0.15526E-01        -0.16998E-01         0.00000E+00
    0.15577E-01        -0.18510E-01         0.00000E+00
    0.15625E-01        -0.20025E-01         0.00000E+00
    0.15669E-01        -0.21540E-01         0.00000E+00
    0.15709E-01        -0.23054E-01         0.00000E+00
    0.15744E-01        -0.24565E-01         0.00000E+00
    0.15775E-01        -0.26073E-01         0.00000E+00
    0.15800E-01        -0.27578E-01         0.00000E+00
    0.15819E-01        -0.29080E-01         0.00000E+00
    0.15832E-01        -0.30581E-01         0.00000E+00
    0.15837E-01        -0.32080E-01         0.00000E+00
    0.15835E-01        -0.33580E-01         0.00000E+00
    0.15825E-01        -0.35083E-01         0.00000E+00
    0.15812E-01        -0.36590E-01         0.00000E+00
    0.15804E-01        -0.38107E-01         0.00000E+00
    0.15800E-01        -0.39631E-01         0.00000E+00
    0.15799E-01        -0.41161E-01         0.00000E+00
    0.15801E-01        -0.42695E-01         0.00000E+00
    0.15804E-01        -0.44232E-01         0.00000E+00
    0.15808E-01        -0.45773E-01         0.00000E+00
    0.15812E-01        -0.47317E-01         0.00000E+00
    0.15815E-01        -0.48864E-01         0.00000E+00
    0.15819E-01        -0.50415E-01         0.00000E+00
    0.15826E-01        -0.51972E-01         0.00000E+00
    0.15840E-01        -0.53536E-01         0.00000E+00
    0.15859E-01        -0.55103E-01         0.00000E+00
    0.15882E-01        -0.56673E-01         0.00000E+00
    0.15910E-01        -0.58247E-01         0.00000E+00
    0.15940E-01        -0.59822E-01         0.00000E+00
    0.15973E-01        -0.61399E-01         0.00000E+00
    0.16009E-01        -0.62979E-01         0.00000E+00
    0.16047E-01        -0.64561E-01         0.00000E+00
    0.16089E-01        -0.66146E-01         0.00000E+00
    0.16137E-01        -0.67733E-01         0.00000E+00
    0.16189E-01        -0.69321E-01         0.00000E+00
    0.16244E-01        -0.70909E-01         0.00000E+00
    0.16303E-01        -0.72497E-01         0.00000E+00
    0.16364E-01        -0.74086E-01         0.00000E+00
    0.16426E-01        -0.75673E-01         0.00000E+00
    0.16491E-01        -0.77260E-01         0.00000E+00
    0.16555E-01        -0.78846E-01         0.00000E+00
    0.16620E-01        -0.80430E-01         0.00000E+00
    0.16684E-01        -0.82013E-01         0.00000E+00
    0.16747E-01        -0.83595E-01         0.00000E+00
    0.16807E-01        -0.85175E-01         0.00000E+00
    0.16863E-01        -0.86754E-01         0.00000E+00
    0.16915E-01        -0.88330E-01         0.00000E+00
    0.16961E-01        -0.89905E-01         0.00000E+00
    0.16999E-01        -0.91477E-01         0.00000E+00
    0.17028E-01        -0.93048E-01         0.00000E+00
    0.17047E-01        -0.94616E-01         0.00000E+00
    0.17052E-01        -0.96183E-01         0.00000E+00
    0.17041E-01        -0.97747E-01         0.00000E+00
    0.17011E-01        -0.99310E-01         0.00000E+00
    0.16960E-01        -0.10087E+00         0.00000E+00
    0.16883E-01        -0.10243E+00         0.00000E+00
    0.16777E-01        -0.10399E+00         0.00000E+00
    0.16635E-01        -0.10555E+00         0.00000E+00
    0.16453E-01        -0.10711E+00         0.00000E+00
    0.16225E-01        -0.10868E+00         0.00000E+00
    0.15943E-01        -0.11024E+00         0.00000E+00
    0.15600E-01        -0.11180E+00         0.00000E+00
    0.15187E-01        -0.11337E+00         0.00000E+00
    0.14692E-01        -0.11492E+00         0.00000E+00
    0.14106E-01        -0.11647E+00         0.00000E+00
    0.13416E-01        -0.11800E+00         0.00000E+00
    0.12608E-01        -0.11951E+00         0.00000E+00
    0.11666E-01        -0.12096E+00         0.00000E+00
    0.10574E-01        -0.12235E+00         0.00000E+00
    0.93164E-02        -0.12364E+00         0.00000E+00
    0.78769E-02        -0.12480E+00         0.00000E+00
    0.62424E-02        -0.12578E+00         0.00000E+00
    0.44003E-02        -0.12654E+00         0.00000E+00
    0.23308E-02        -0.12702E+00         0.00000E+00
    0.00000E+00        -0.12718E+00         0.00000E+00
    0.00000E+00         0.19253E-01         0.00000E+00
    0.20962E-02         0.19078E-01         0.00000E+00
    0.38851E-02         0.18577E-01         0.00000E+00
    0.54359E-02         0.17795E-01         0.00000E+00
    0.67871E-02         0.16793E-01         0.00000E+00
    0.79647E-02         0.15624E-01         0.00000E+00
    0.89923E-02         0.14323E-01         0.00000E+00
    0.98918E-02         0.12915E-01         0.00000E+00
    0.10682E-01         0.11415E-01         0.00000E+00
    0.11379E-01         0.98434E-02         0.00000E+00
    0.11995E-01         0.82183E-02         0.00000E+00
    0.12541E-01         0.65588E-02         0.00000E+00
    0.13027E-01         0.48818E-02         0.00000E+00
    0.13460E-01         0.32007E-02         0.00000E+00
    0.13847E-01         0.15255E-02         0.00000E+00
    0.14191E-01        -0.13685E-03         0.00000E+00
    0.14497E-01        -0.17822E-02         0.00000E+00
    0.14768E-01        -0.34086E-02         0.00000E+00
    0.15007E-01        -0.50156E-02         0.00000E+00
    0.15216E-01        -0.66040E-02         0.00000E+00
    0.15396E-01        -0.81759E-02         0.00000E+00
    0.15548E-01        -0.97341E-02         0.00000E+00
    0.15673E-01        -0.11283E-01         0.00000E+00
    0.15771E-01        -0.12826E-01         0.00000E+00
    0.15844E-01        -0.14368E-01         0.00000E+00
    0.15903E-01        -0.15913E-01         0.00000E+00
    0.15958E-01        -0.17465E-01         0.00000E+00
    0.16010E-01        -0.19021E-01         0.00000E+00
    0.16059E-01        -0.20580E-01         0.00000E+00
    0.16104E-01        -0.22138E-01         0.00000E+00
    0.16144E-01        -0.23695E-01         0.00000E+00
    0.16180E-01        -0.25250E-01         0.00000E+00
    0.16211E-01        -0.26802E-01         0.00000E+00
    0.16236E-01        -0.28350E-01         0.00000E+00
    0.16256E-01        -0.29895E-01         0.00000E+00
    0.16269E-01        -0.31438E-01         0.00000E+00
    0.16275E-01        -0.32981E-01         0.00000E+00
    0.16273E-01        -0.34524E-01         0.00000E+00
    0.16263E-01        -0.36070E-01         0.00000E+00
    0.16251E-01        -0.37622E-01         0.00000E+00
    0.16244E-01        -0.39183E-01         0.00000E+00
    0.16241E-01        -0.40751E-01         0.00000E+00
    0.16241E-01        -0.42326E-01         0.00000E+00
    0.16244E-01        -0.43904E-01         0.00000E+00
    0.16248E-01        -0.45486E-01         0.00000E+00
    0.16253E-01        -0.47071E-01         0.00000E+00
    0.16257E-01        -0.48659E-01         0.00000E+00
    0.16261E-01        -0.50251E-01         0.00000E+00
    0.16266E-01        -0.51847E-01         0.00000E+00
    0.16274E-01        -0.53450E-01         0.00000E+00
    0.16289E-01        -0.55058E-01         0.00000E+00
    0.16309E-01        -0.56671E-01         0.00000E+00
    0.16333E-01        -0.58287E-01         0.00000E+00
    0.16362E-01        -0.59905E-01         0.00000E+00
    0.16393E-01        -0.61526E-01         0.00000E+00
    0.16427E-01        -0.63148E-01         0.00000E+00
    0.16463E-01        -0.64774E-01         0.00000E+00
    0.16502E-01        -0.66401E-01         0.00000E+00
    0.16545E-01        -0.68032E-01         0.00000E+00
    0.16594E-01        -0.69664E-01         0.00000E+00
    0.16646E-01        -0.71298E-01         0.00000E+00
    0.16702E-01        -0.72932E-01         0.00000E+00
    0.16762E-01        -0.74566E-01         0.00000E+00
    0.16823E-01        -0.76200E-01         0.00000E+00
    0.16887E-01        -0.77833E-01         0.00000E+00
    0.16951E-01        -0.79465E-01         0.00000E+00
    0.17017E-01        -0.81096E-01         0.00000E+00
    0.17082E-01        -0.82726E-01         0.00000E+00
    0.17147E-01        -0.84355E-01         0.00000E+00
    0.17209E-01        -0.85981E-01         0.00000E+00
    0.17270E-01        -0.87607E-01         0.00000E+00
    0.17327E-01        -0.89230E-01         0.00000E+00
    0.17378E-01        -0.90851E-01         0.00000E+00
    0.17424E-01        -0.92470E-01         0.00000E+00
    0.17463E-01        -0.94087E-01         0.00000E+00
    0.17492E-01        -0.95702E-01         0.00000E+00
    0.17509E-01        -0.97315E-01         0.00000E+00
    0.17514E-01        -0.98925E-01         0.00000E+00
    0.17502E-01        -0.10053E+00         0.00000E+00
    0.17471E-01        -0.10214E+00         0.00000E+00
    0.17418E-01        -0.10374E+00         0.00000E+00
    0.17339E-01        -0.10535E+00         0.00000E+00
    0.17230E-01        -0.10695E+00         0.00000E+00
    0.17085E-01        -0.10855E+00         0.00000E+00
    0.16899E-01        -0.11015E+00         0.00000E+00
    0.16666E-01        -0.11176E+00         0.00000E+00
    0.16377E-01        -0.11336E+00         0.00000E+00
    0.16026E-01        -0.11496E+00         0.00000E+00
    0.15602E-01        -0.11656E+00         0.00000E+00
    0.15095E-01        -0.11816E+00         0.00000E+00
    0.14494E-01        -0.11974E+00         0.00000E+00
    0.13784E-01        -0.12131E+00         0.00000E+00
    0.12953E-01        -0.12284E+00         0.00000E+00
    0.11983E-01        -0.12433E+00         0.00000E+00
    0.10858E-01        -0.12575E+00         0.00000E+00
    0.95617E-02        -0.12706E+00         0.00000E+00
    0.80783E-02        -0.12825E+00         0.00000E+00
    0.63952E-02        -0.12926E+00         0.00000E+00
    0.45016E-02        -0.13003E+00         0.00000E+00
    0.23808E-02        -0.13053E+00         0.00000E+00
    0.00000E+00        -0.13070E+00         0.00000E+00
    0.00000E+00         0.19713E-01         0.00000E+00
    0.21575E-02         0.19533E-01         0.00000E+00
    0.40068E-02         0.19017E-01         0.00000E+00
    0.56147E-02         0.18214E-01         0.00000E+00
    0.70160E-02         0.17186E-01         0.00000E+00
    0.82355E-02         0.15987E-01         0.00000E+00
    0.92975E-02         0.14654E-01         0.00000E+00
    0.10225E-01         0.13211E-01         0.00000E+00
    0.11038E-01         0.11677E-01         0.00000E+00
    0.11754E-01         0.10069E-01         0.00000E+00
    0.12385E-01         0.84076E-02         0.00000E+00
    0.12943E-01         0.67104E-02         0.00000E+00
    0.13437E-01         0.49947E-02         0.00000E+00
    0.13877E-01         0.32739E-02         0.00000E+00
    0.14268E-01         0.15585E-02         0.00000E+00
    0.14615E-01        -0.14462E-03         0.00000E+00
    0.14923E-01        -0.18310E-02         0.00000E+00
    0.15196E-01        -0.34986E-02         0.00000E+00
    0.15435E-01        -0.51467E-02         0.00000E+00
    0.15644E-01        -0.67763E-02         0.00000E+00
    0.15824E-01        -0.83893E-02         0.00000E+00
    0.15976E-01        -0.99886E-02         0.00000E+00
    0.16102E-01        -0.11578E-01         0.00000E+00
    0.16201E-01        -0.13163E-01         0.00000E+00
    0.16275E-01        -0.14747E-01         0.00000E+00
    0.16334E-01        -0.16336E-01         0.00000E+00
    0.16391E-01        -0.17931E-01         0.00000E+00
    0.16444E-01        -0.19531E-01         0.00000E+00
    0.16493E-01        -0.21133E-01         0.00000E+00
    0.16539E-01        -0.22736E-01         0.00000E+00
    0.16580E-01        -0.24336E-01         0.00000E+00
    0.16616E-01        -0.25935E-01         0.00000E+00
    0.16647E-01        -0.27529E-01         0.00000E+00
    0.16672E-01        -0.29121E-01         0.00000E+00
    0.16692E-01        -0.30709E-01         0.00000E+00
    0.16705E-01        -0.32296E-01         0.00000E+00
    0.16711E-01        -0.33881E-01         0.00000E+00
    0.16710E-01        -0.35468E-01         0.00000E+00
    0.16701E-01        -0.37057E-01         0.00000E+00
    0.16690E-01        -0.38653E-01         0.00000E+00
    0.16684E-01        -0.40258E-01         0.00000E+00
    0.16682E-01        -0.41871E-01         0.00000E+00
    0.16683E-01        -0.43490E-01         0.00000E+00
    0.16687E-01        -0.45113E-01         0.00000E+00
    0.16692E-01        -0.46739E-01         0.00000E+00
    0.16697E-01        -0.48369E-01         0.00000E+00
    0.16703E-01        -0.50001E-01         0.00000E+00
    0.16707E-01        -0.51638E-01         0.00000E+00
    0.16712E-01        -0.53279E-01         0.00000E+00
    0.16722E-01        -0.54927E-01         0.00000E+00
    0.16738E-01        -0.56580E-01         0.00000E+00
    0.16759E-01        -0.58238E-01         0.00000E+00
    0.16784E-01        -0.59900E-01         0.00000E+00
    0.16813E-01        -0.61563E-01         0.00000E+00
    0.16845E-01        -0.63229E-01         0.00000E+00
    0.16880E-01        -0.64898E-01         0.00000E+00
    0.16917E-01        -0.66568E-01         0.00000E+00
    0.16956E-01        -0.68242E-01         0.00000E+00
    0.17001E-01        -0.69918E-01         0.00000E+00
    0.17050E-01        -0.71596E-01         0.00000E+00
    0.17104E-01        -0.73276E-01         0.00000E+00
    0.17160E-01        -0.74955E-01         0.00000E+00
    0.17220E-01        -0.76635E-01         0.00000E+00
    0.17283E-01        -0.78314E-01         0.00000E+00
    0.17347E-01        -0.79993E-01         0.00000E+00
    0.17412E-01        -0.81671E-01         0.00000E+00
    0.17478E-01        -0.83347E-01         0.00000E+00
    0.17544E-01        -0.85022E-01         0.00000E+00
    0.17608E-01        -0.86696E-01         0.00000E+00
    0.17672E-01        -0.88368E-01         0.00000E+00
    0.17732E-01        -0.90038E-01         0.00000E+00
    0.17789E-01        -0.91706E-01         0.00000E+00
    0.17841E-01        -0.93372E-01         0.00000E+00
    0.17887E-01        -0.95036E-01         0.00000E+00
    0.17925E-01        -0.96697E-01         0.00000E+00
    0.17954E-01        -0.98356E-01         0.00000E+00
    0.17971E-01        -0.10001E+00         0.00000E+00
    0.17974E-01        -0.10167E+00         0.00000E+00
    0.17962E-01        -0.10332E+00         0.00000E+00
    0.17930E-01        -0.10497E+00         0.00000E+00
    0.17875E-01        -0.10662E+00         0.00000E+00
    0.17794E-01        -0.10826E+00         0.00000E+00
    0.17682E-01        -0.10991E+00         0.00000E+00
    0.17534E-01        -0.11155E+00         0.00000E+00
    0.17344E-01        -0.11319E+00         0.00000E+00
    0.17105E-01        -0.11484E+00         0.00000E+00
    0.16811E-01        -0.11648E+00         0.00000E+00
    0.16452E-01        -0.11812E+00         0.00000E+00
    0.16018E-01        -0.11976E+00         0.00000E+00
    0.15499E-01        -0.12139E+00         0.00000E+00
    0.14882E-01        -0.12301E+00         0.00000E+00
    0.14153E-01        -0.12461E+00         0.00000E+00
    0.13299E-01        -0.12618E+00         0.00000E+00
    0.12301E-01        -0.12770E+00         0.00000E+00
    0.11144E-01        -0.12914E+00         0.00000E+00
    0.98094E-02        -0.13048E+00         0.00000E+00
    0.82824E-02        -0.13169E+00         0.00000E+00
    0.65505E-02        -0.13272E+00         0.00000E+00
    0.46048E-02        -0.13353E+00         0.00000E+00
    0.24316E-02        -0.13404E+00         0.00000E+00
    0.00000E+00        -0.13421E+00         0.00000E+00
    0.00000E+00         0.20169E-01         0.00000E+00
    0.22205E-02         0.19984E-01         0.00000E+00
    0.41318E-02         0.19452E-01         0.00000E+00
    0.57978E-02         0.18626E-01         0.00000E+00
    0.72494E-02         0.17571E-01         0.00000E+00
    0.85106E-02         0.16344E-01         0.00000E+00
    0.96067E-02         0.14980E-01         0.00000E+00
    0.10562E-01         0.13504E-01         0.00000E+00
    0.11398E-01         0.11936E-01         0.00000E+00
    0.12131E-01         0.10293E-01         0.00000E+00
    0.12777E-01         0.85953E-02         0.00000E+00
    0.13346E-01         0.68609E-02         0.00000E+00
    0.13849E-01         0.51068E-02         0.00000E+00
    0.14295E-01         0.33468E-02         0.00000E+00
    0.14690E-01         0.15913E-02         0.00000E+00
    0.15040E-01        -0.15228E-03         0.00000E+00
    0.15350E-01        -0.18795E-02         0.00000E+00
    0.15623E-01        -0.35881E-02         0.00000E+00
    0.15863E-01        -0.52773E-02         0.00000E+00
    0.16072E-01        -0.69479E-02         0.00000E+00
    0.16253E-01        -0.86019E-02         0.00000E+00
    0.16405E-01        -0.10242E-01         0.00000E+00
    0.16531E-01        -0.11873E-01         0.00000E+00
    0.16631E-01        -0.13499E-01         0.00000E+00
    0.16705E-01        -0.15125E-01         0.00000E+00
    0.16765E-01        -0.16757E-01         0.00000E+00
    0.16823E-01        -0.18396E-01         0.00000E+00
    0.16877E-01        -0.20040E-01         0.00000E+00
    0.16927E-01        -0.21686E-01         0.00000E+00
    0.16974E-01        -0.23332E-01         0.00000E+00
    0.17015E-01        -0.24977E-01         0.00000E+00
    0.17051E-01        -0.26618E-01         0.00000E+00
    0.17082E-01        -0.28257E-01         0.00000E+00
    0.17108E-01        -0.29891E-01         0.00000E+00
    0.17128E-01        -0.31523E-01         0.00000E+00
    0.17141E-01        -0.33152E-01         0.00000E+00
    0.17148E-01        -0.34781E-01         0.00000E+00
    0.17147E-01        -0.36410E-01         0.00000E+00
    0.17138E-01        -0.38043E-01         0.00000E+00
    0.17129E-01        -0.39683E-01         0.00000E+00
    0.17124E-01        -0.41333E-01         0.00000E+00
    0.17123E-01        -0.42991E-01         0.00000E+00
    0.17125E-01        -0.44654E-01         0.00000E+00
    0.17129E-01        -0.46322E-01         0.00000E+00
    0.17135E-01        -0.47992E-01         0.00000E+00
    0.17141E-01        -0.49666E-01         0.00000E+00
    0.17148E-01        -0.51343E-01         0.00000E+00
    0.17153E-01        -0.53024E-01         0.00000E+00
    0.17159E-01        -0.54710E-01         0.00000E+00
    0.17170E-01        -0.56403E-01         0.00000E+00
    0.17187E-01        -0.58102E-01         0.00000E+00
    0.17209E-01        -0.59806E-01         0.00000E+00
    0.17235E-01        -0.61513E-01         0.00000E+00
    0.17265E-01        -0.63222E-01         0.00000E+00
    0.17298E-01        -0.64933E-01         0.00000E+00
    0.17333E-01        -0.66647E-01         0.00000E+00
    0.17371E-01        -0.68363E-01         0.00000E+00
    0.17411E-01        -0.70082E-01         0.00000E+00
    0.17457E-01        -0.71804E-01         0.00000E+00
    0.17507E-01        -0.73528E-01         0.00000E+00
    0.17561E-01        -0.75253E-01         0.00000E+00
    0.17618E-01        -0.76978E-01         0.00000E+00
    0.17679E-01        -0.78704E-01         0.00000E+00
    0.17741E-01        -0.80429E-01         0.00000E+00
    0.17806E-01        -0.82153E-01         0.00000E+00
    0.17872E-01        -0.83876E-01         0.00000E+00
    0.17938E-01        -0.85598E-01         0.00000E+00
    0.18004E-01        -0.87318E-01         0.00000E+00
    0.18069E-01        -0.89037E-01         0.00000E+00
    0.18133E-01        -0.90754E-01         0.00000E+00
    0.18194E-01        -0.92469E-01         0.00000E+00
    0.18251E-01        -0.94182E-01         0.00000E+00
    0.18303E-01        -0.95893E-01         0.00000E+00
    0.18348E-01        -0.97601E-01         0.00000E+00
    0.18386E-01        -0.99307E-01         0.00000E+00
    0.18414E-01        -0.10101E+00         0.00000E+00
    0.18431E-01        -0.10271E+00         0.00000E+00
    0.18434E-01        -0.10441E+00         0.00000E+00
    0.18420E-01        -0.10610E+00         0.00000E+00
    0.18387E-01        -0.10780E+00         0.00000E+00
    0.18330E-01        -0.10949E+00         0.00000E+00
    0.18247E-01        -0.11117E+00         0.00000E+00
    0.18133E-01        -0.11286E+00         0.00000E+00
    0.17981E-01        -0.11455E+00         0.00000E+00
    0.17787E-01        -0.11623E+00         0.00000E+00
    0.17544E-01        -0.11791E+00         0.00000E+00
    0.17243E-01        -0.11960E+00         0.00000E+00
    0.16876E-01        -0.12128E+00         0.00000E+00
    0.16433E-01        -0.12295E+00         0.00000E+00
    0.15902E-01        -0.12462E+00         0.00000E+00
    0.15270E-01        -0.12628E+00         0.00000E+00
    0.14524E-01        -0.12791E+00         0.00000E+00
    0.13646E-01        -0.12951E+00         0.00000E+00
    0.12622E-01        -0.13106E+00         0.00000E+00
    0.11432E-01        -0.13253E+00         0.00000E+00
    0.10060E-01        -0.13390E+00         0.00000E+00
    0.84895E-02        -0.13513E+00         0.00000E+00
    0.67088E-02        -0.13619E+00         0.00000E+00
    0.47102E-02        -0.13701E+00         0.00000E+00
    0.24835E-02        -0.13754E+00         0.00000E+00
    0.00000E+00        -0.13772E+00         0.00000E+00
    0.00000E+00         0.20621E-01         0.00000E+00
    0.22854E-02         0.20429E-01         0.00000E+00
    0.42604E-02         0.19880E-01         0.00000E+00
    0.59854E-02         0.19031E-01         0.00000E+00
    0.74874E-02         0.17951E-01         0.00000E+00
    0.87899E-02         0.16696E-01         0.00000E+00
    0.99197E-02         0.15302E-01         0.00000E+00
    0.10903E-01         0.13794E-01         0.00000E+00
    0.11760E-01         0.12193E-01         0.00000E+00
    0.12512E-01         0.10515E-01         0.00000E+00
    0.13171E-01         0.87817E-02         0.00000E+00
    0.13752E-01         0.70104E-02         0.00000E+00
    0.14263E-01         0.52183E-02         0.00000E+00
    0.14715E-01         0.34193E-02         0.00000E+00
    0.15114E-01         0.16241E-02         0.00000E+00
    0.15467E-01        -0.15976E-03         0.00000E+00
    0.15778E-01        -0.19276E-02         0.00000E+00
    0.16052E-01        -0.36770E-02         0.00000E+00
    0.16292E-01        -0.54071E-02         0.00000E+00
    0.16501E-01        -0.71188E-02         0.00000E+00
    0.16681E-01        -0.88137E-02         0.00000E+00
    0.16834E-01        -0.10495E-01         0.00000E+00
    0.16960E-01        -0.12166E-01         0.00000E+00
    0.17060E-01        -0.13834E-01         0.00000E+00
    0.17135E-01        -0.15502E-01         0.00000E+00
    0.17196E-01        -0.17178E-01         0.00000E+00
    0.17255E-01        -0.18861E-01         0.00000E+00
    0.17310E-01        -0.20548E-01         0.00000E+00
    0.17361E-01        -0.22238E-01         0.00000E+00
    0.17408E-01        -0.23928E-01         0.00000E+00
    0.17450E-01        -0.25616E-01         0.00000E+00
    0.17486E-01        -0.27301E-01         0.00000E+00
    0.17518E-01        -0.28983E-01         0.00000E+00
    0.17543E-01        -0.30661E-01         0.00000E+00
    0.17563E-01        -0.32336E-01         0.00000E+00
    0.17577E-01        -0.34008E-01         0.00000E+00
    0.17584E-01        -0.35680E-01         0.00000E+00
    0.17583E-01        -0.37352E-01         0.00000E+00
    0.17575E-01        -0.39028E-01         0.00000E+00
    0.17567E-01        -0.40713E-01         0.00000E+00
    0.17563E-01        -0.42408E-01         0.00000E+00
    0.17563E-01        -0.44110E-01         0.00000E+00
    0.17566E-01        -0.45818E-01         0.00000E+00
    0.17572E-01        -0.47530E-01         0.00000E+00
    0.17578E-01        -0.49245E-01         0.00000E+00
    0.17585E-01        -0.50963E-01         0.00000E+00
    0.17592E-01        -0.52685E-01         0.00000E+00
    0.17599E-01        -0.54411E-01         0.00000E+00
    0.17606E-01        -0.56141E-01         0.00000E+00
    0.17618E-01        -0.57880E-01         0.00000E+00
    0.17635E-01        -0.59624E-01         0.00000E+00
    0.17658E-01        -0.61373E-01         0.00000E+00
    0.17685E-01        -0.63125E-01         0.00000E+00
    0.17716E-01        -0.64880E-01         0.00000E+00
    0.17750E-01        -0.66636E-01         0.00000E+00
    0.17786E-01        -0.68395E-01         0.00000E+00
    0.17825E-01        -0.70157E-01         0.00000E+00
    0.17866E-01        -0.71922E-01         0.00000E+00
    0.17912E-01        -0.73689E-01         0.00000E+00
    0.17963E-01        -0.75459E-01         0.00000E+00
    0.18017E-01        -0.77230E-01         0.00000E+00
    0.18076E-01        -0.79001E-01         0.00000E+00
    0.18137E-01        -0.80773E-01         0.00000E+00
    0.18200E-01        -0.82543E-01         0.00000E+00
    0.18265E-01        -0.84313E-01         0.00000E+00
    0.18331E-01        -0.86081E-01         0.00000E+00
    0.18398E-01        -0.87848E-01         0.00000E+00
    0.18464E-01        -0.89614E-01         0.00000E+00
    0.18530E-01        -0.91378E-01         0.00000E+00
    0.18593E-01        -0.93140E-01         0.00000E+00
    0.18654E-01        -0.94900E-01         0.00000E+00
    0.18711E-01        -0.96658E-01         0.00000E+00
    0.18763E-01        -0.98414E-01         0.00000E+00
    0.18809E-01        -0.10017E+00         0.00000E+00
    0.18846E-01        -0.10192E+00         0.00000E+00
    0.18874E-01        -0.10366E+00         0.00000E+00
    0.18890E-01        -0.10541E+00         0.00000E+00
    0.18892E-01        -0.10715E+00         0.00000E+00
    0.18877E-01        -0.10889E+00         0.00000E+00
    0.18842E-01        -0.11062E+00         0.00000E+00
    0.18785E-01        -0.11236E+00         0.00000E+00
    0.18699E-01        -0.11409E+00         0.00000E+00
    0.18582E-01        -0.11582E+00         0.00000E+00
    0.18428E-01        -0.11754E+00         0.00000E+00
    0.18230E-01        -0.11927E+00         0.00000E+00
    0.17982E-01        -0.12099E+00         0.00000E+00
    0.17675E-01        -0.12271E+00         0.00000E+00
    0.17301E-01        -0.12443E+00         0.00000E+00
    0.16848E-01        -0.12615E+00         0.00000E+00
    0.16306E-01        -0.12785E+00         0.00000E+00
    0.15659E-01        -0.12954E+00         0.00000E+00
    0.14895E-01        -0.13121E+00         0.00000E+00
    0.13995E-01        -0.13284E+00         0.00000E+00
    0.12944E-01        -0.13441E+00         0.00000E+00
    0.11723E-01        -0.13591E+00         0.00000E+00
    0.10313E-01        -0.13731E+00         0.00000E+00
    0.87001E-02        -0.13857E+00         0.00000E+00
    0.68705E-02        -0.13965E+00         0.00000E+00
    0.48183E-02        -0.14049E+00         0.00000E+00
    0.25367E-02        -0.14104E+00         0.00000E+00
    0.00000E+00        -0.14123E+00         0.00000E+00
    0.00000E+00         0.21067E-01         0.00000E+00
    0.23523E-02         0.20868E-01         0.00000E+00
    0.43930E-02         0.20301E-01         0.00000E+00
    0.61778E-02         0.19429E-01         0.00000E+00
    0.77300E-02         0.18324E-01         0.00000E+00
    0.90734E-02         0.17042E-01         0.00000E+00
    0.10236E-01         0.15619E-01         0.00000E+00
    0.11246E-01         0.14081E-01         0.00000E+00
    0.12126E-01         0.12447E-01         0.00000E+00
    0.12895E-01         0.10736E-01         0.00000E+00
    0.13569E-01         0.89668E-02         0.00000E+00
    0.14160E-01         0.71590E-02         0.00000E+00
    0.14679E-01         0.53293E-02         0.00000E+00
    0.15137E-01         0.34916E-02         0.00000E+00
    0.15540E-01         0.16570E-02         0.00000E+00
    0.15895E-01        -0.16697E-03         0.00000E+00
    0.16207E-01        -0.19753E-02         0.00000E+00
    0.16481E-01        -0.37654E-02         0.00000E+00
    0.16721E-01        -0.55363E-02         0.00000E+00
    0.16930E-01        -0.72888E-02         0.00000E+00
    0.17109E-01        -0.90246E-02         0.00000E+00
    0.17262E-01        -0.10747E-01         0.00000E+00
    0.17388E-01        -0.12459E-01         0.00000E+00
    0.17489E-01        -0.14168E-01         0.00000E+00
    0.17564E-01        -0.15878E-01         0.00000E+00
    0.17627E-01        -0.17597E-01         0.00000E+00
    0.17687E-01        -0.19324E-01         0.00000E+00
    0.17743E-01        -0.21056E-01         0.00000E+00
    0.17795E-01        -0.22789E-01         0.00000E+00
    0.17842E-01        -0.24523E-01         0.00000E+00
    0.17884E-01        -0.26255E-01         0.00000E+00
    0.17921E-01        -0.27984E-01         0.00000E+00
    0.17952E-01        -0.29709E-01         0.00000E+00
    0.17978E-01        -0.31430E-01         0.00000E+00
    0.17998E-01        -0.33148E-01         0.00000E+00
    0.18012E-01        -0.34863E-01         0.00000E+00
    0.18019E-01        -0.36578E-01         0.00000E+00
    0.18019E-01        -0.38294E-01         0.00000E+00
    0.18011E-01        -0.40013E-01         0.00000E+00
    0.18004E-01        -0.41742E-01         0.00000E+00
    0.18002E-01        -0.43482E-01         0.00000E+00
    0.18004E-01        -0.45229E-01         0.00000E+00
    0.18008E-01        -0.46981E-01         0.00000E+00
    0.18014E-01        -0.48737E-01         0.00000E+00
    0.18021E-01        -0.50497E-01         0.00000E+00
    0.18029E-01        -0.52260E-01         0.00000E+00
    0.18037E-01        -0.54026E-01         0.00000E+00
    0.18044E-01        -0.55796E-01         0.00000E+00
    0.18052E-01        -0.57572E-01         0.00000E+00
    0.18065E-01        -0.59356E-01         0.00000E+00
    0.18084E-01        -0.61146E-01         0.00000E+00
    0.18108E-01        -0.62940E-01         0.00000E+00
    0.18136E-01        -0.64738E-01         0.00000E+00
    0.18168E-01        -0.66538E-01         0.00000E+00
    0.18202E-01        -0.68340E-01         0.00000E+00
    0.18239E-01        -0.70144E-01         0.00000E+00
    0.18279E-01        -0.71951E-01         0.00000E+00
    0.18321E-01        -0.73762E-01         0.00000E+00
    0.18367E-01        -0.75575E-01         0.00000E+00
    0.18419E-01        -0.77391E-01         0.00000E+00
    0.18474E-01        -0.79207E-01         0.00000E+00
    0.18533E-01        -0.81024E-01         0.00000E+00
    0.18594E-01        -0.82841E-01         0.00000E+00
    0.18658E-01        -0.84657E-01         0.00000E+00
    0.18724E-01        -0.86472E-01         0.00000E+00
    0.18790E-01        -0.88286E-01         0.00000E+00
    0.18857E-01        -0.90099E-01         0.00000E+00
    0.18924E-01        -0.91910E-01         0.00000E+00
    0.18989E-01        -0.93719E-01         0.00000E+00
    0.19053E-01        -0.95526E-01         0.00000E+00
    0.19114E-01        -0.97332E-01         0.00000E+00
    0.19171E-01        -0.99134E-01         0.00000E+00
    0.19223E-01        -0.10093E+00         0.00000E+00
    0.19268E-01        -0.10273E+00         0.00000E+00
    0.19305E-01        -0.10453E+00         0.00000E+00
    0.19333E-01        -0.10632E+00         0.00000E+00
    0.19348E-01        -0.10811E+00         0.00000E+00
    0.19349E-01        -0.10989E+00         0.00000E+00
    0.19333E-01        -0.11167E+00         0.00000E+00
    0.19297E-01        -0.11345E+00         0.00000E+00
    0.19237E-01        -0.11523E+00         0.00000E+00
    0.19150E-01        -0.11700E+00         0.00000E+00
    0.19031E-01        -0.11877E+00         0.00000E+00
    0.18873E-01        -0.12054E+00         0.00000E+00
    0.18672E-01        -0.12231E+00         0.00000E+00
    0.18419E-01        -0.12407E+00         0.00000E+00
    0.18107E-01        -0.12583E+00         0.00000E+00
    0.17725E-01        -0.12759E+00         0.00000E+00
    0.17264E-01        -0.12934E+00         0.00000E+00
    0.16710E-01        -0.13108E+00         0.00000E+00
    0.16049E-01        -0.13280E+00         0.00000E+00
    0.15267E-01        -0.13450E+00         0.00000E+00
    0.14346E-01        -0.13616E+00         0.00000E+00
    0.13269E-01        -0.13777E+00         0.00000E+00
    0.12016E-01        -0.13929E+00         0.00000E+00
    0.10570E-01        -0.14071E+00         0.00000E+00
    0.89146E-02        -0.14200E+00         0.00000E+00
    0.70360E-02        -0.14310E+00         0.00000E+00
    0.49295E-02        -0.14396E+00         0.00000E+00
    0.25916E-02        -0.14453E+00         0.00000E+00
    0.00000E+00        -0.14473E+00         0.00000E+00
    0.00000E+00         0.21508E-01         0.00000E+00
    0.24217E-02         0.21301E-01         0.00000E+00
    0.45301E-02         0.20716E-01         0.00000E+00
    0.63751E-02         0.19820E-01         0.00000E+00
    0.79771E-02         0.18691E-01         0.00000E+00
    0.93608E-02         0.17384E-01         0.00000E+00
    0.10557E-01         0.15933E-01         0.00000E+00
    0.11593E-01         0.14365E-01         0.00000E+00
    0.12495E-01         0.12699E-01         0.00000E+00
    0.13281E-01         0.10954E-01         0.00000E+00
    0.13968E-01         0.91509E-02         0.00000E+00
    0.14570E-01         0.73071E-02         0.00000E+00
    0.15097E-01         0.54399E-02         0.00000E+00
    0.15560E-01         0.35639E-02         0.00000E+00
    0.15967E-01         0.16900E-02         0.00000E+00
    0.16323E-01        -0.17384E-03         0.00000E+00
    0.16637E-01        -0.20225E-02         0.00000E+00
    0.16911E-01        -0.38531E-02         0.00000E+00
    0.17151E-01        -0.56648E-02         0.00000E+00
    0.17359E-01        -0.74581E-02         0.00000E+00
    0.17538E-01        -0.92347E-02         0.00000E+00
    0.17690E-01        -0.10998E-01         0.00000E+00
    0.17816E-01        -0.12751E-01         0.00000E+00
    0.17918E-01        -0.14500E-01         0.00000E+00
    0.17994E-01        -0.16253E-01         0.00000E+00
    0.18058E-01        -0.18015E-01         0.00000E+00
    0.18119E-01        -0.19786E-01         0.00000E+00
    0.18176E-01        -0.21562E-01         0.00000E+00
    0.18229E-01        -0.23340E-01         0.00000E+00
    0.18276E-01        -0.25117E-01         0.00000E+00
    0.18318E-01        -0.26893E-01         0.00000E+00
    0.18355E-01        -0.28665E-01         0.00000E+00
    0.18387E-01        -0.30434E-01         0.00000E+00
    0.18412E-01        -0.32199E-01         0.00000E+00
    0.18432E-01        -0.33960E-01         0.00000E+00
    0.18446E-01        -0.35718E-01         0.00000E+00
    0.18454E-01        -0.37475E-01         0.00000E+00
    0.18454E-01        -0.39234E-01         0.00000E+00
    0.18448E-01        -0.40997E-01         0.00000E+00
    0.18442E-01        -0.42771E-01         0.00000E+00
    0.18441E-01        -0.44555E-01         0.00000E+00
    0.18444E-01        -0.46347E-01         0.00000E+00
    0.18449E-01        -0.48144E-01         0.00000E+00
    0.18456E-01        -0.49945E-01         0.00000E+00
    0.18464E-01        -0.51749E-01         0.00000E+00
    0.18473E-01        -0.53556E-01         0.00000E+00
    0.18482E-01        -0.55367E-01         0.00000E+00
    0.18490E-01        -0.57182E-01         0.00000E+00
    0.18499E-01        -0.59003E-01         0.00000E+00
    0.18513E-01        -0.60832E-01         0.00000E+00
    0.18533E-01        -0.62667E-01         0.00000E+00
    0.18558E-01        -0.64507E-01         0.00000E+00
    0.18587E-01        -0.66350E-01         0.00000E+00
    0.18619E-01        -0.68196E-01         0.00000E+00
    0.18654E-01        -0.70043E-01         0.00000E+00
    0.18692E-01        -0.71893E-01         0.00000E+00
    0.18732E-01        -0.73745E-01         0.00000E+00
    0.18775E-01        -0.75601E-01         0.00000E+00
    0.18823E-01        -0.77461E-01         0.00000E+00
    0.18875E-01        -0.79322E-01         0.00000E+00
    0.18931E-01        -0.81185E-01         0.00000E+00
    0.18990E-01        -0.83047E-01         0.00000E+00
    0.19052E-01        -0.84910E-01         0.00000E+00
    0.19116E-01        -0.86771E-01         0.00000E+00
    0.19182E-01        -0.88632E-01         0.00000E+00
    0.19248E-01        -0.90492E-01         0.00000E+00
    0.19316E-01        -0.92350E-01         0.00000E+00
    0.19382E-01        -0.94206E-01         0.00000E+00
    0.19448E-01        -0.96060E-01         0.00000E+00
    0.19512E-01        -0.97913E-01         0.00000E+00
    0.19573E-01        -0.99763E-01         0.00000E+00
    0.19630E-01        -0.10161E+00         0.00000E+00
    0.19681E-01        -0.10346E+00         0.00000E+00
    0.19726E-01        -0.10530E+00         0.00000E+00
    0.19763E-01        -0.10714E+00         0.00000E+00
    0.19790E-01        -0.10897E+00         0.00000E+00
    0.19804E-01        -0.11080E+00         0.00000E+00
    0.19805E-01        -0.11263E+00         0.00000E+00
    0.19788E-01        -0.11446E+00         0.00000E+00
    0.19750E-01        -0.11628E+00         0.00000E+00
    0.19689E-01        -0.11810E+00         0.00000E+00
    0.19600E-01        -0.11991E+00         0.00000E+00
    0.19478E-01        -0.12173E+00         0.00000E+00
    0.19318E-01        -0.12354E+00         0.00000E+00
    0.19113E-01        -0.12534E+00         0.00000E+00
    0.18856E-01        -0.12715E+00         0.00000E+00
    0.18538E-01        -0.12895E+00         0.00000E+00
    0.18149E-01        -0.13074E+00         0.00000E+00
    0.17679E-01        -0.13253E+00         0.00000E+00
    0.17114E-01        -0.13430E+00         0.00000E+00
    0.16440E-01        -0.13606E+00         0.00000E+00
    0.15641E-01        -0.13779E+00         0.00000E+00
    0.14699E-01        -0.13948E+00         0.00000E+00
    0.13596E-01        -0.14112E+00         0.00000E+00
    0.12313E-01        -0.14267E+00         0.00000E+00
    0.10831E-01        -0.14411E+00         0.00000E+00
    0.91332E-02        -0.14542E+00         0.00000E+00
    0.72059E-02        -0.14654E+00         0.00000E+00
    0.50442E-02        -0.14743E+00         0.00000E+00
    0.26482E-02        -0.14802E+00         0.00000E+00
    0.00000E+00        -0.14822E+00         0.00000E+00
    0.00000E+00         0.21943E-01         0.00000E+00
    0.24939E-02         0.21728E-01         0.00000E+00
    0.46719E-02         0.21122E-01         0.00000E+00
    0.65776E-02         0.20204E-01         0.00000E+00
    0.82287E-02         0.19053E-01         0.00000E+00
    0.96522E-02         0.17721E-01         0.00000E+00
    0.10880E-01         0.16243E-01         0.00000E+00
    0.11943E-01         0.14646E-01         0.00000E+00
    0.12866E-01         0.12949E-01         0.00000E+00
    0.13670E-01         0.11172E-01         0.00000E+00
    0.14371E-01         0.93342E-02         0.00000E+00
    0.14982E-01         0.74546E-02         0.00000E+00
    0.15517E-01         0.55504E-02         0.00000E+00
    0.15985E-01         0.36362E-02         0.00000E+00
    0.16395E-01         0.17232E-02         0.00000E+00
    0.16754E-01        -0.18027E-03         0.00000E+00
    0.17067E-01        -0.20690E-02         0.00000E+00
    0.17341E-01        -0.39401E-02         0.00000E+00
    0.17580E-01        -0.57925E-02         0.00000E+00
    0.17788E-01        -0.76265E-02         0.00000E+00
    0.17966E-01        -0.94439E-02         0.00000E+00
    0.18118E-01        -0.11247E-01         0.00000E+00
    0.18244E-01        -0.13042E-01         0.00000E+00
    0.18346E-01        -0.14832E-01         0.00000E+00
    0.18424E-01        -0.16627E-01         0.00000E+00
    0.18489E-01        -0.18433E-01         0.00000E+00
    0.18551E-01        -0.20247E-01         0.00000E+00
    0.18609E-01        -0.22067E-01         0.00000E+00
    0.18662E-01        -0.23889E-01         0.00000E+00
    0.18710E-01        -0.25711E-01         0.00000E+00
    0.18752E-01        -0.27530E-01         0.00000E+00
    0.18789E-01        -0.29346E-01         0.00000E+00
    0.18820E-01        -0.31158E-01         0.00000E+00
    0.18846E-01        -0.32966E-01         0.00000E+00
    0.18866E-01        -0.34771E-01         0.00000E+00
    0.18880E-01        -0.36572E-01         0.00000E+00
    0.18888E-01        -0.38372E-01         0.00000E+00
    0.18889E-01        -0.40174E-01         0.00000E+00
    0.18883E-01        -0.41981E-01         0.00000E+00
    0.18879E-01        -0.43800E-01         0.00000E+00
    0.18880E-01        -0.45628E-01         0.00000E+00
    0.18883E-01        -0.47465E-01         0.00000E+00
    0.18890E-01        -0.49306E-01         0.00000E+00
    0.18897E-01        -0.51152E-01         0.00000E+00
    0.18907E-01        -0.53001E-01         0.00000E+00
    0.18916E-01        -0.54852E-01         0.00000E+00
    0.18926E-01        -0.56707E-01         0.00000E+00
    0.18935E-01        -0.58567E-01         0.00000E+00
    0.18945E-01        -0.60433E-01         0.00000E+00
    0.18961E-01        -0.62308E-01         0.00000E+00
    0.18982E-01        -0.64189E-01         0.00000E+00
    0.19007E-01        -0.66074E-01         0.00000E+00
    0.19037E-01        -0.67963E-01         0.00000E+00
    0.19070E-01        -0.69853E-01         0.00000E+00
    0.19106E-01        -0.71746E-01         0.00000E+00
    0.19145E-01        -0.73641E-01         0.00000E+00
    0.19186E-01        -0.75539E-01         0.00000E+00
    0.19229E-01        -0.77441E-01         0.00000E+00
    0.19278E-01        -0.79346E-01         0.00000E+00
    0.19330E-01        -0.81253E-01         0.00000E+00
    0.19387E-01        -0.83162E-01         0.00000E+00
    0.19446E-01        -0.85070E-01         0.00000E+00
    0.19509E-01        -0.86978E-01         0.00000E+00
    0.19573E-01        -0.88886E-01         0.00000E+00
    0.19639E-01        -0.90792E-01         0.00000E+00
    0.19706E-01        -0.92697E-01         0.00000E+00
    0.19773E-01        -0.94600E-01         0.00000E+00
    0.19840E-01        -0.96502E-01         0.00000E+00
    0.19906E-01        -0.98401E-01         0.00000E+00
    0.19970E-01        -0.10030E+00         0.00000E+00
    0.20031E-01        -0.10219E+00         0.00000E+00
    0.20088E-01        -0.10409E+00         0.00000E+00
    0.20139E-01        -0.10598E+00         0.00000E+00
    0.20184E-01        -0.10786E+00         0.00000E+00
    0.20220E-01        -0.10975E+00         0.00000E+00
    0.20246E-01        -0.11163E+00         0.00000E+00
    0.20260E-01        -0.11350E+00         0.00000E+00
    0.20259E-01        -0.11538E+00         0.00000E+00
    0.20241E-01        -0.11724E+00         0.00000E+00
    0.20202E-01        -0.11911E+00         0.00000E+00
    0.20139E-01        -0.12097E+00         0.00000E+00
    0.20048E-01        -0.12283E+00         0.00000E+00
    0.19924E-01        -0.12468E+00         0.00000E+00
    0.19761E-01        -0.12653E+00         0.00000E+00
    0.19553E-01        -0.12838E+00         0.00000E+00
    0.19291E-01        -0.13022E+00         0.00000E+00
    0.18968E-01        -0.13206E+00         0.00000E+00
    0.18573E-01        -0.13389E+00         0.00000E+00
    0.18095E-01        -0.13572E+00         0.00000E+00
    0.17519E-01        -0.13753E+00         0.00000E+00
    0.16832E-01        -0.13932E+00         0.00000E+00
    0.16017E-01        -0.14108E+00         0.00000E+00
    0.15054E-01        -0.14280E+00         0.00000E+00
    0.13927E-01        -0.14446E+00         0.00000E+00
    0.12614E-01        -0.14604E+00         0.00000E+00
    0.11096E-01        -0.14751E+00         0.00000E+00
    0.93563E-02        -0.14884E+00         0.00000E+00
    0.73807E-02        -0.14998E+00         0.00000E+00
    0.51631E-02        -0.15089E+00         0.00000E+00
    0.27071E-02        -0.15150E+00         0.00000E+00
    0.00000E+00        -0.15171E+00         0.00000E+00
    0.00000E+00         0.22372E-01         0.00000E+00
    0.25692E-02         0.22148E-01         0.00000E+00
    0.48188E-02         0.21521E-01         0.00000E+00
    0.67853E-02         0.20581E-01         0.00000E+00
    0.84847E-02         0.19408E-01         0.00000E+00
    0.99472E-02         0.18053E-01         0.00000E+00
    0.11207E-01         0.16550E-01         0.00000E+00
    0.12296E-01         0.14925E-01         0.00000E+00
    0.13241E-01         0.13198E-01         0.00000E+00
    0.14061E-01         0.11389E-01         0.00000E+00
    0.14775E-01         0.95169E-02         0.00000E+00
    0.15397E-01         0.76018E-02         0.00000E+00
    0.15940E-01         0.56608E-02         0.00000E+00
    0.16412E-01         0.37086E-02         0.00000E+00
    0.16825E-01         0.17569E-02         0.00000E+00
    0.17185E-01        -0.18618E-03         0.00000E+00
    0.17499E-01        -0.21150E-02         0.00000E+00
    0.17773E-01        -0.40264E-02         0.00000E+00
    0.18011E-01        -0.59194E-02         0.00000E+00
    0.18217E-01        -0.77941E-02         0.00000E+00
    0.18394E-01        -0.96522E-02         0.00000E+00
    0.18546E-01        -0.11497E-01         0.00000E+00
    0.18672E-01        -0.13331E-01         0.00000E+00
    0.18775E-01        -0.15163E-01         0.00000E+00
    0.18853E-01        -0.17000E-01         0.00000E+00
    0.18920E-01        -0.18849E-01         0.00000E+00
    0.18983E-01        -0.20708E-01         0.00000E+00
    0.19042E-01        -0.22572E-01         0.00000E+00
    0.19096E-01        -0.24438E-01         0.00000E+00
    0.19144E-01        -0.26303E-01         0.00000E+00
    0.19186E-01        -0.28167E-01         0.00000E+00
    0.19223E-01        -0.30026E-01         0.00000E+00
    0.19254E-01        -0.31882E-01         0.00000E+00
    0.19280E-01        -0.33733E-01         0.00000E+00
    0.19299E-01        -0.35581E-01         0.00000E+00
    0.19314E-01        -0.37425E-01         0.00000E+00
    0.19322E-01        -0.39268E-01         0.00000E+00
    0.19323E-01        -0.41114E-01         0.00000E+00
    0.19319E-01        -0.42964E-01         0.00000E+00
    0.19316E-01        -0.44828E-01         0.00000E+00
    0.19318E-01        -0.46701E-01         0.00000E+00
    0.19323E-01        -0.48582E-01         0.00000E+00
    0.19330E-01        -0.50469E-01         0.00000E+00
    0.19339E-01        -0.52359E-01         0.00000E+00
    0.19349E-01        -0.54252E-01         0.00000E+00
    0.19359E-01        -0.56148E-01         0.00000E+00
    0.19370E-01        -0.58047E-01         0.00000E+00
    0.19380E-01        -0.59952E-01         0.00000E+00
    0.19391E-01        -0.61863E-01         0.00000E+00
    0.19408E-01        -0.63783E-01         0.00000E+00
    0.19430E-01        -0.65710E-01         0.00000E+00
    0.19457E-01        -0.67641E-01         0.00000E+00
    0.19488E-01        -0.69575E-01         0.00000E+00
    0.19521E-01        -0.71511E-01         0.00000E+00
    0.19558E-01        -0.73449E-01         0.00000E+00
    0.19598E-01        -0.75389E-01         0.00000E+00
    0.19639E-01        -0.77333E-01         0.00000E+00
    0.19684E-01        -0.79281E-01         0.00000E+00
    0.19733E-01        -0.81232E-01         0.00000E+00
    0.19786E-01        -0.83185E-01         0.00000E+00
    0.19843E-01        -0.85139E-01         0.00000E+00
    0.19903E-01        -0.87093E-01         0.00000E+00
    0.19966E-01        -0.89047E-01         0.00000E+00
    0.20030E-01        -0.91000E-01         0.00000E+00
    0.20096E-01        -0.92952E-01         0.00000E+00
    0.20163E-01        -0.94902E-01         0.00000E+00
    0.20231E-01        -0.96851E-01         0.00000E+00
    0.20298E-01        -0.98798E-01         0.00000E+00
    0.20364E-01        -0.10074E+00         0.00000E+00
    0.20427E-01        -0.10268E+00         0.00000E+00
    0.20488E-01        -0.10462E+00         0.00000E+00
    0.20544E-01        -0.10656E+00         0.00000E+00
    0.20596E-01        -0.10850E+00         0.00000E+00
    0.20640E-01        -0.11043E+00         0.00000E+00
    0.20675E-01        -0.11236E+00         0.00000E+00
    0.20701E-01        -0.11428E+00         0.00000E+00
    0.20714E-01        -0.11620E+00         0.00000E+00
    0.20712E-01        -0.11812E+00         0.00000E+00
    0.20693E-01        -0.12003E+00         0.00000E+00
    0.20653E-01        -0.12194E+00         0.00000E+00
    0.20588E-01        -0.12384E+00         0.00000E+00
    0.20495E-01        -0.12574E+00         0.00000E+00
    0.20369E-01        -0.12764E+00         0.00000E+00
    0.20203E-01        -0.12953E+00         0.00000E+00
    0.19992E-01        -0.13141E+00         0.00000E+00
    0.19726E-01        -0.13330E+00         0.00000E+00
    0.19398E-01        -0.13517E+00         0.00000E+00
    0.18997E-01        -0.13704E+00         0.00000E+00
    0.18511E-01        -0.13890E+00         0.00000E+00
    0.17925E-01        -0.14075E+00         0.00000E+00
    0.17225E-01        -0.14257E+00         0.00000E+00
    0.16394E-01        -0.14437E+00         0.00000E+00
    0.15412E-01        -0.14612E+00         0.00000E+00
    0.14260E-01        -0.14781E+00         0.00000E+00
    0.12918E-01        -0.14941E+00         0.00000E+00
    0.11365E-01        -0.15090E+00         0.00000E+00
    0.95844E-02        -0.15225E+00         0.00000E+00
    0.75607E-02        -0.15341E+00         0.00000E+00
    0.52868E-02        -0.15435E+00         0.00000E+00
    0.27685E-02        -0.15497E+00         0.00000E+00
    0.00000E+00        -0.15520E+00         0.00000E+00
    0.00000E+00         0.22794E-01         0.00000E+00
    0.26480E-02         0.22559E-01         0.00000E+00
    0.49714E-02         0.21911E-01         0.00000E+00
    0.69980E-02         0.20951E-01         0.00000E+00
    0.87447E-02         0.19758E-01         0.00000E+00
    0.10246E-01         0.18381E-01         0.00000E+00
    0.11537E-01         0.16854E-01         0.00000E+00
    0.12652E-01         0.15201E-01         0.00000E+00
    0.13618E-01         0.13445E-01         0.00000E+00
    0.14455E-01         0.11604E-01         0.00000E+00
    0.15183E-01         0.96991E-02         0.00000E+00
    0.15815E-01         0.77489E-02         0.00000E+00
    0.16364E-01         0.57714E-02         0.00000E+00
    0.16841E-01         0.37814E-02         0.00000E+00
    0.17256E-01         0.17910E-02         0.00000E+00
    0.17618E-01        -0.19145E-03         0.00000E+00
    0.17931E-01        -0.21602E-02         0.00000E+00
    0.18204E-01        -0.41119E-02         0.00000E+00
    0.18441E-01        -0.60454E-02         0.00000E+00
    0.18646E-01        -0.79608E-02         0.00000E+00
    0.18823E-01        -0.98596E-02         0.00000E+00
    0.18973E-01        -0.11745E-01         0.00000E+00
    0.19100E-01        -0.13620E-01         0.00000E+00
    0.19203E-01        -0.15493E-01         0.00000E+00
    0.19282E-01        -0.17371E-01         0.00000E+00
    0.19350E-01        -0.19264E-01         0.00000E+00
    0.19415E-01        -0.21167E-01         0.00000E+00
    0.19475E-01        -0.23075E-01         0.00000E+00
    0.19529E-01        -0.24986E-01         0.00000E+00
    0.19578E-01        -0.26895E-01         0.00000E+00
    0.19620E-01        -0.28802E-01         0.00000E+00
    0.19657E-01        -0.30706E-01         0.00000E+00
    0.19687E-01        -0.32605E-01         0.00000E+00
    0.19713E-01        -0.34500E-01         0.00000E+00
    0.19732E-01        -0.36391E-01         0.00000E+00
    0.19746E-01        -0.38278E-01         0.00000E+00
    0.19755E-01        -0.40164E-01         0.00000E+00
    0.19757E-01        -0.42052E-01         0.00000E+00
    0.19754E-01        -0.43947E-01         0.00000E+00
    0.19753E-01        -0.45855E-01         0.00000E+00
    0.19757E-01        -0.47773E-01         0.00000E+00
    0.19763E-01        -0.49699E-01         0.00000E+00
    0.19771E-01        -0.51630E-01         0.00000E+00
    0.19781E-01        -0.53565E-01         0.00000E+00
    0.19791E-01        -0.55503E-01         0.00000E+00
    0.19803E-01        -0.57444E-01         0.00000E+00
    0.19814E-01        -0.59387E-01         0.00000E+00
    0.19825E-01        -0.61337E-01         0.00000E+00
    0.19838E-01        -0.63293E-01         0.00000E+00
    0.19856E-01        -0.65259E-01         0.00000E+00
    0.19879E-01        -0.67231E-01         0.00000E+00
    0.19907E-01        -0.69207E-01         0.00000E+00
    0.19938E-01        -0.71187E-01         0.00000E+00
    0.19973E-01        -0.73168E-01         0.00000E+00
    0.20010E-01        -0.75152E-01         0.00000E+00
    0.20051E-01        -0.77138E-01         0.00000E+00
    0.20093E-01        -0.79127E-01         0.00000E+00
    0.20138E-01        -0.81120E-01         0.00000E+00
    0.20188E-01        -0.83117E-01         0.00000E+00
    0.20241E-01        -0.85116E-01         0.00000E+00
    0.20299E-01        -0.87116E-01         0.00000E+00
    0.20359E-01        -0.89116E-01         0.00000E+00
    0.20422E-01        -0.91115E-01         0.00000E+00
    0.20487E-01        -0.93114E-01         0.00000E+00
    0.20553E-01        -0.95111E-01         0.00000E+00
    0.20620E-01        -0.97107E-01         0.00000E+00
    0.20688E-01        -0.99101E-01         0.00000E+00
    0.20755E-01        -0.10109E+00         0.00000E+00
    0.20820E-01        -0.10308E+00         0.00000E+00
    0.20884E-01        -0.10507E+00         0.00000E+00
    0.20944E-01        -0.10706E+00         0.00000E+00
    0.21000E-01        -0.10904E+00         0.00000E+00
    0.21051E-01        -0.11102E+00         0.00000E+00
    0.21095E-01        -0.11299E+00         0.00000E+00
    0.21130E-01        -0.11497E+00         0.00000E+00
    0.21155E-01        -0.11693E+00         0.00000E+00
    0.21167E-01        -0.11890E+00         0.00000E+00
    0.21164E-01        -0.12086E+00         0.00000E+00
    0.21143E-01        -0.12281E+00         0.00000E+00
    0.21102E-01        -0.12476E+00         0.00000E+00
    0.21036E-01        -0.12671E+00         0.00000E+00
    0.20941E-01        -0.12865E+00         0.00000E+00
    0.20813E-01        -0.13059E+00         0.00000E+00
    0.20644E-01        -0.13252E+00         0.00000E+00
    0.20430E-01        -0.13445E+00         0.00000E+00
    0.20161E-01        -0.13637E+00         0.00000E+00
    0.19828E-01        -0.13829E+00         0.00000E+00
    0.19421E-01        -0.14019E+00         0.00000E+00
    0.18927E-01        -0.14209E+00         0.00000E+00
    0.18332E-01        -0.14397E+00         0.00000E+00
    0.17620E-01        -0.14583E+00         0.00000E+00
    0.16773E-01        -0.14765E+00         0.00000E+00
    0.15772E-01        -0.14943E+00         0.00000E+00
    0.14597E-01        -0.15115E+00         0.00000E+00
    0.13226E-01        -0.15277E+00         0.00000E+00
    0.11639E-01        -0.15429E+00         0.00000E+00
    0.98177E-02        -0.15566E+00         0.00000E+00
    0.77466E-02        -0.15684E+00         0.00000E+00
    0.54159E-02        -0.15779E+00         0.00000E+00
    0.28332E-02        -0.15844E+00         0.00000E+00
    0.00000E+00        -0.15868E+00         0.00000E+00
    0.00000E+00         0.23209E-01         0.00000E+00
    0.27309E-02         0.22962E-01         0.00000E+00
    0.51296E-02         0.22292E-01         0.00000E+00
    0.72155E-02         0.21313E-01         0.00000E+00
    0.90085E-02         0.20103E-01         0.00000E+00
    0.10547E-01         0.18705E-01         0.00000E+00
    0.11870E-01         0.17155E-01         0.00000E+00
    0.13011E-01         0.15476E-01         0.00000E+00
    0.13997E-01         0.13691E-01         0.00000E+00
    0.14852E-01         0.11819E-01         0.00000E+00
    0.15592E-01         0.98811E-02         0.00000E+00
    0.16234E-01         0.78961E-02         0.00000E+00
    0.16790E-01         0.58822E-02         0.00000E+00
    0.17272E-01         0.38547E-02         0.00000E+00
    0.17690E-01         0.18257E-02         0.00000E+00
    0.18051E-01        -0.19599E-03         0.00000E+00
    0.18365E-01        -0.22045E-02         0.00000E+00
    0.18637E-01        -0.41965E-02         0.00000E+00
    0.18872E-01        -0.61704E-02         0.00000E+00
    0.19076E-01        -0.81265E-02         0.00000E+00
    0.19251E-01        -0.10066E-01         0.00000E+00
    0.19400E-01        -0.11992E-01         0.00000E+00
    0.19527E-01        -0.13908E-01         0.00000E+00
    0.19630E-01        -0.15821E-01         0.00000E+00
    0.19711E-01        -0.17742E-01         0.00000E+00
    0.19781E-01        -0.19678E-01         0.00000E+00
    0.19847E-01        -0.21626E-01         0.00000E+00
    0.19908E-01        -0.23578E-01         0.00000E+00
    0.19963E-01        -0.25533E-01         0.00000E+00
    0.20012E-01        -0.27486E-01         0.00000E+00
    0.20054E-01        -0.29437E-01         0.00000E+00
    0.20090E-01        -0.31385E-01         0.00000E+00
    0.20120E-01        -0.33327E-01         0.00000E+00
    0.20145E-01        -0.35266E-01         0.00000E+00
    0.20165E-01        -0.37200E-01         0.00000E+00
    0.20179E-01        -0.39130E-01         0.00000E+00
    0.20188E-01        -0.41059E-01         0.00000E+00
    0.20191E-01        -0.42990E-01         0.00000E+00
    0.20189E-01        -0.44929E-01         0.00000E+00
    0.20190E-01        -0.46882E-01         0.00000E+00
    0.20195E-01        -0.48845E-01         0.00000E+00
    0.20202E-01        -0.50816E-01         0.00000E+00
    0.20211E-01        -0.52792E-01         0.00000E+00
    0.20222E-01        -0.54771E-01         0.00000E+00
    0.20233E-01        -0.56754E-01         0.00000E+00
    0.20246E-01        -0.58739E-01         0.00000E+00
    0.20258E-01        -0.60727E-01         0.00000E+00
    0.20270E-01        -0.62721E-01         0.00000E+00
    0.20284E-01        -0.64723E-01         0.00000E+00
    0.20304E-01        -0.66734E-01         0.00000E+00
    0.20328E-01        -0.68752E-01         0.00000E+00
    0.20357E-01        -0.70774E-01         0.00000E+00
    0.20389E-01        -0.72799E-01         0.00000E+00
    0.20424E-01        -0.74826E-01         0.00000E+00
    0.20462E-01        -0.76855E-01         0.00000E+00
    0.20503E-01        -0.78886E-01         0.00000E+00
    0.20546E-01        -0.80920E-01         0.00000E+00
    0.20592E-01        -0.82959E-01         0.00000E+00
    0.20642E-01        -0.85002E-01         0.00000E+00
    0.20697E-01        -0.87047E-01         0.00000E+00
    0.20755E-01        -0.89093E-01         0.00000E+00
    0.20815E-01        -0.91138E-01         0.00000E+00
    0.20878E-01        -0.93184E-01         0.00000E+00
    0.20943E-01        -0.95228E-01         0.00000E+00
    0.21009E-01        -0.97271E-01         0.00000E+00
    0.21077E-01        -0.99312E-01         0.00000E+00
    0.21144E-01        -0.10135E+00         0.00000E+00
    0.21211E-01        -0.10339E+00         0.00000E+00
    0.21276E-01        -0.10542E+00         0.00000E+00
    0.21339E-01        -0.10746E+00         0.00000E+00
    0.21400E-01        -0.10949E+00         0.00000E+00
    0.21455E-01        -0.11151E+00         0.00000E+00
    0.21506E-01        -0.11354E+00         0.00000E+00
    0.21549E-01        -0.11556E+00         0.00000E+00
    0.21583E-01        -0.11757E+00         0.00000E+00
    0.21607E-01        -0.11959E+00         0.00000E+00
    0.21618E-01        -0.12160E+00         0.00000E+00
    0.21614E-01        -0.12360E+00         0.00000E+00
    0.21593E-01        -0.12560E+00         0.00000E+00
    0.21550E-01        -0.12759E+00         0.00000E+00
    0.21483E-01        -0.12958E+00         0.00000E+00
    0.21386E-01        -0.13156E+00         0.00000E+00
    0.21255E-01        -0.13354E+00         0.00000E+00
    0.21085E-01        -0.13552E+00         0.00000E+00
    0.20867E-01        -0.13748E+00         0.00000E+00
    0.20594E-01        -0.13944E+00         0.00000E+00
    0.20257E-01        -0.14140E+00         0.00000E+00
    0.19844E-01        -0.14334E+00         0.00000E+00
    0.19343E-01        -0.14528E+00         0.00000E+00
    0.18739E-01        -0.14719E+00         0.00000E+00
    0.18015E-01        -0.14908E+00         0.00000E+00
    0.17154E-01        -0.15094E+00         0.00000E+00
    0.16135E-01        -0.15274E+00         0.00000E+00
    0.14937E-01        -0.15448E+00         0.00000E+00
    0.13538E-01        -0.15613E+00         0.00000E+00
    0.11918E-01        -0.15767E+00         0.00000E+00
    0.10057E-01        -0.15906E+00         0.00000E+00
    0.79386E-02        -0.16026E+00         0.00000E+00
    0.55514E-02        -0.16123E+00         0.00000E+00
    0.29016E-02        -0.16190E+00         0.00000E+00
    0.00000E+00        -0.16215E+00         0.00000E+00
    0.00000E+00         0.23616E-01         0.00000E+00
    0.28186E-02         0.23354E-01         0.00000E+00
    0.52937E-02         0.22663E-01         0.00000E+00
    0.74372E-02         0.21669E-01         0.00000E+00
    0.92757E-02         0.20442E-01         0.00000E+00
    0.10852E-01         0.19026E-01         0.00000E+00
    0.12206E-01         0.17453E-01         0.00000E+00
    0.13372E-01         0.15750E-01         0.00000E+00
    0.14380E-01         0.13936E-01         0.00000E+00
    0.15251E-01         0.12034E-01         0.00000E+00
    0.16005E-01         0.10063E-01         0.00000E+00
    0.16656E-01         0.80436E-02         0.00000E+00
    0.17219E-01         0.59935E-02         0.00000E+00
    0.17705E-01         0.39286E-02         0.00000E+00
    0.18125E-01         0.18612E-02         0.00000E+00
    0.18487E-01        -0.19969E-03         0.00000E+00
    0.18800E-01        -0.22480E-02         0.00000E+00
    0.19070E-01        -0.42802E-02         0.00000E+00
    0.19304E-01        -0.62945E-02         0.00000E+00
    0.19505E-01        -0.82912E-02         0.00000E+00
    0.19679E-01        -0.10271E-01         0.00000E+00
    0.19827E-01        -0.12238E-01         0.00000E+00
    0.19953E-01        -0.14195E-01         0.00000E+00
    0.20057E-01        -0.16149E-01         0.00000E+00
    0.20140E-01        -0.18111E-01         0.00000E+00
    0.20212E-01        -0.20091E-01         0.00000E+00
    0.20280E-01        -0.22083E-01         0.00000E+00
    0.20342E-01        -0.24080E-01         0.00000E+00
    0.20397E-01        -0.26079E-01         0.00000E+00
    0.20445E-01        -0.28077E-01         0.00000E+00
    0.20487E-01        -0.30072E-01         0.00000E+00
    0.20523E-01        -0.32063E-01         0.00000E+00
    0.20553E-01        -0.34049E-01         0.00000E+00
    0.20577E-01        -0.36031E-01         0.00000E+00
    0.20596E-01        -0.38008E-01         0.00000E+00
    0.20611E-01        -0.39982E-01         0.00000E+00
    0.20620E-01        -0.41954E-01         0.00000E+00
    0.20624E-01        -0.43928E-01         0.00000E+00
    0.20624E-01        -0.45911E-01         0.00000E+00
    0.20627E-01        -0.47908E-01         0.00000E+00
    0.20633E-01        -0.49917E-01         0.00000E+00
    0.20642E-01        -0.51932E-01         0.00000E+00
    0.20652E-01        -0.53953E-01         0.00000E+00
    0.20663E-01        -0.55977E-01         0.00000E+00
    0.20675E-01        -0.58004E-01         0.00000E+00
    0.20688E-01        -0.60034E-01         0.00000E+00
    0.20702E-01        -0.62066E-01         0.00000E+00
    0.20715E-01        -0.64105E-01         0.00000E+00
    0.20731E-01        -0.66152E-01         0.00000E+00
    0.20752E-01        -0.68209E-01         0.00000E+00
    0.20777E-01        -0.70273E-01         0.00000E+00
    0.20806E-01        -0.72340E-01         0.00000E+00
    0.20839E-01        -0.74411E-01         0.00000E+00
    0.20875E-01        -0.76483E-01         0.00000E+00
    0.20914E-01        -0.78557E-01         0.00000E+00
    0.20956E-01        -0.80634E-01         0.00000E+00
    0.20999E-01        -0.82714E-01         0.00000E+00
    0.21046E-01        -0.84799E-01         0.00000E+00
    0.21097E-01        -0.86887E-01         0.00000E+00
    0.21152E-01        -0.88978E-01         0.00000E+00
    0.21210E-01        -0.91070E-01         0.00000E+00
    0.21271E-01        -0.93161E-01         0.00000E+00
    0.21334E-01        -0.95252E-01         0.00000E+00
    0.21399E-01        -0.97342E-01         0.00000E+00
    0.21465E-01        -0.99430E-01         0.00000E+00
    0.21532E-01        -0.10152E+00         0.00000E+00
    0.21599E-01        -0.10360E+00         0.00000E+00
    0.21666E-01        -0.10568E+00         0.00000E+00
    0.21731E-01        -0.10777E+00         0.00000E+00
    0.21794E-01        -0.10984E+00         0.00000E+00
    0.21854E-01        -0.11192E+00         0.00000E+00
    0.21909E-01        -0.11399E+00         0.00000E+00
    0.21959E-01        -0.11606E+00         0.00000E+00
    0.22002E-01        -0.11812E+00         0.00000E+00
    0.22035E-01        -0.12018E+00         0.00000E+00
    0.22058E-01        -0.12224E+00         0.00000E+00
    0.22069E-01        -0.12429E+00         0.00000E+00
    0.22064E-01        -0.12634E+00         0.00000E+00
    0.22041E-01        -0.12838E+00         0.00000E+00
    0.21997E-01        -0.13042E+00         0.00000E+00
    0.21928E-01        -0.13245E+00         0.00000E+00
    0.21829E-01        -0.13448E+00         0.00000E+00
    0.21697E-01        -0.13650E+00         0.00000E+00
    0.21524E-01        -0.13851E+00         0.00000E+00
    0.21303E-01        -0.14052E+00         0.00000E+00
    0.21027E-01        -0.14252E+00         0.00000E+00
    0.20685E-01        -0.14451E+00         0.00000E+00
    0.20267E-01        -0.14649E+00         0.00000E+00
    0.19760E-01        -0.14846E+00         0.00000E+00
    0.19147E-01        -0.15041E+00         0.00000E+00
    0.18413E-01        -0.15233E+00         0.00000E+00
    0.17537E-01        -0.15422E+00         0.00000E+00
    0.16501E-01        -0.15605E+00         0.00000E+00
    0.15281E-01        -0.15782E+00         0.00000E+00
    0.13855E-01        -0.15949E+00         0.00000E+00
    0.12202E-01        -0.16105E+00         0.00000E+00
    0.10302E-01        -0.16246E+00         0.00000E+00
    0.81372E-02        -0.16368E+00         0.00000E+00
    0.56940E-02        -0.16467E+00         0.00000E+00
    0.29748E-02        -0.16536E+00         0.00000E+00
    0.00000E+00        -0.16562E+00         0.00000E+00
    0.00000E+00         0.24013E-01         0.00000E+00
    0.29118E-02         0.23734E-01         0.00000E+00
    0.54634E-02         0.23025E-01         0.00000E+00
    0.76626E-02         0.22019E-01         0.00000E+00
    0.95458E-02         0.20777E-01         0.00000E+00
    0.11159E-01         0.19343E-01         0.00000E+00
    0.12544E-01         0.17750E-01         0.00000E+00
    0.13736E-01         0.16022E-01         0.00000E+00
    0.14765E-01         0.14181E-01         0.00000E+00
    0.15653E-01         0.12249E-01         0.00000E+00
    0.16420E-01         0.10246E-01         0.00000E+00
    0.17081E-01         0.81916E-02         0.00000E+00
    0.17651E-01         0.61055E-02         0.00000E+00
    0.18140E-01         0.40034E-02         0.00000E+00
    0.18561E-01         0.18976E-02         0.00000E+00
    0.18924E-01        -0.20243E-03         0.00000E+00
    0.19235E-01        -0.22905E-02         0.00000E+00
    0.19504E-01        -0.43628E-02         0.00000E+00
    0.19735E-01        -0.64176E-02         0.00000E+00
    0.19935E-01        -0.84549E-02         0.00000E+00
    0.20106E-01        -0.10476E-01         0.00000E+00
    0.20253E-01        -0.12483E-01         0.00000E+00
    0.20379E-01        -0.14481E-01         0.00000E+00
    0.20484E-01        -0.16475E-01         0.00000E+00
    0.20569E-01        -0.18479E-01         0.00000E+00
    0.20643E-01        -0.20503E-01         0.00000E+00
    0.20713E-01        -0.22540E-01         0.00000E+00
    0.20775E-01        -0.24581E-01         0.00000E+00
    0.20831E-01        -0.26624E-01         0.00000E+00
    0.20879E-01        -0.28666E-01         0.00000E+00
    0.20921E-01        -0.30705E-01         0.00000E+00
    0.20956E-01        -0.32740E-01         0.00000E+00
    0.20986E-01        -0.34770E-01         0.00000E+00
    0.21009E-01        -0.36795E-01         0.00000E+00
    0.21028E-01        -0.38816E-01         0.00000E+00
    0.21042E-01        -0.40833E-01         0.00000E+00
    0.21051E-01        -0.42848E-01         0.00000E+00
    0.21056E-01        -0.44865E-01         0.00000E+00
    0.21058E-01        -0.46892E-01         0.00000E+00
    0.21063E-01        -0.48934E-01         0.00000E+00
    0.21071E-01        -0.50988E-01         0.00000E+00
    0.21081E-01        -0.53048E-01         0.00000E+00
    0.21092E-01        -0.55114E-01         0.00000E+00
    0.21104E-01        -0.57183E-01         0.00000E+00
    0.21117E-01        -0.59254E-01         0.00000E+00
    0.21131E-01        -0.61329E-01         0.00000E+00
    0.21145E-01        -0.63406E-01         0.00000E+00
    0.21160E-01        -0.65488E-01         0.00000E+00
    0.21177E-01        -0.67582E-01         0.00000E+00
    0.21200E-01        -0.69684E-01         0.00000E+00
    0.21226E-01        -0.71793E-01         0.00000E+00
    0.21256E-01        -0.73906E-01         0.00000E+00
    0.21290E-01        -0.76022E-01         0.00000E+00
    0.21326E-01        -0.78140E-01         0.00000E+00
    0.21366E-01        -0.80260E-01         0.00000E+00
    0.21408E-01        -0.82382E-01         0.00000E+00
    0.21453E-01        -0.84507E-01         0.00000E+00
    0.21500E-01        -0.86638E-01         0.00000E+00
    0.21552E-01        -0.88773E-01         0.00000E+00
    0.21607E-01        -0.90909E-01         0.00000E+00
    0.21666E-01        -0.93047E-01         0.00000E+00
    0.21726E-01        -0.95184E-01         0.00000E+00
    0.21790E-01        -0.97320E-01         0.00000E+00
    0.21855E-01        -0.99456E-01         0.00000E+00
    0.21921E-01        -0.10159E+00         0.00000E+00
    0.21988E-01        -0.10372E+00         0.00000E+00
    0.22055E-01        -0.10585E+00         0.00000E+00
    0.22121E-01        -0.10798E+00         0.00000E+00
    0.22186E-01        -0.11011E+00         0.00000E+00
    0.22248E-01        -0.11223E+00         0.00000E+00
    0.22308E-01        -0.11435E+00         0.00000E+00
    0.22363E-01        -0.11647E+00         0.00000E+00
    0.22412E-01        -0.11858E+00         0.00000E+00
    0.22453E-01        -0.12069E+00         0.00000E+00
    0.22486E-01        -0.12279E+00         0.00000E+00
    0.22509E-01        -0.12489E+00         0.00000E+00
    0.22518E-01        -0.12699E+00         0.00000E+00
    0.22512E-01        -0.12908E+00         0.00000E+00
    0.22488E-01        -0.13117E+00         0.00000E+00
    0.22442E-01        -0.13325E+00         0.00000E+00
    0.22372E-01        -0.13532E+00         0.00000E+00
    0.22272E-01        -0.13739E+00         0.00000E+00
    0.22137E-01        -0.13945E+00         0.00000E+00
    0.21962E-01        -0.14150E+00         0.00000E+00
    0.21738E-01        -0.14355E+00         0.00000E+00
    0.21459E-01        -0.14559E+00         0.00000E+00
    0.21114E-01        -0.14762E+00         0.00000E+00
    0.20691E-01        -0.14964E+00         0.00000E+00
    0.20177E-01        -0.15164E+00         0.00000E+00
    0.19556E-01        -0.15362E+00         0.00000E+00
    0.18812E-01        -0.15558E+00         0.00000E+00
    0.17923E-01        -0.15749E+00         0.00000E+00
    0.16870E-01        -0.15936E+00         0.00000E+00
    0.15628E-01        -0.16115E+00         0.00000E+00
    0.14177E-01        -0.16285E+00         0.00000E+00
    0.12492E-01        -0.16442E+00         0.00000E+00
    0.10553E-01        -0.16585E+00         0.00000E+00
    0.83426E-02        -0.16709E+00         0.00000E+00
    0.58446E-02        -0.16809E+00         0.00000E+00
    0.30541E-02        -0.16881E+00         0.00000E+00
    0.00000E+00        -0.16909E+00         0.00000E+00
    0.00000E+00         0.24401E-01         0.00000E+00
    0.30115E-02         0.24101E-01         0.00000E+00
    0.56377E-02         0.23377E-01         0.00000E+00
    0.78906E-02         0.22362E-01         0.00000E+00
    0.98184E-02         0.21108E-01         0.00000E+00
    0.11469E-01         0.19658E-01         0.00000E+00
    0.12885E-01         0.18045E-01         0.00000E+00
    0.14103E-01         0.16293E-01         0.00000E+00
    0.15153E-01         0.14426E-01         0.00000E+00
    0.16058E-01         0.12464E-01         0.00000E+00
    0.16838E-01         0.10428E-01         0.00000E+00
    0.17509E-01         0.83403E-02         0.00000E+00
    0.18084E-01         0.62184E-02         0.00000E+00
    0.18578E-01         0.40790E-02         0.00000E+00
    0.19000E-01         0.19350E-02         0.00000E+00
    0.19362E-01        -0.20408E-03         0.00000E+00
    0.19672E-01        -0.23318E-02         0.00000E+00
    0.19939E-01        -0.44443E-02         0.00000E+00
    0.20168E-01        -0.65396E-02         0.00000E+00
    0.20365E-01        -0.86175E-02         0.00000E+00
    0.20534E-01        -0.10679E-01         0.00000E+00
    0.20679E-01        -0.12727E-01         0.00000E+00
    0.20804E-01        -0.14766E-01         0.00000E+00
    0.20910E-01        -0.16801E-01         0.00000E+00
    0.20998E-01        -0.18846E-01         0.00000E+00
    0.21075E-01        -0.20914E-01         0.00000E+00
    0.21146E-01        -0.22996E-01         0.00000E+00
    0.21209E-01        -0.25082E-01         0.00000E+00
    0.21265E-01        -0.27169E-01         0.00000E+00
    0.21313E-01        -0.29255E-01         0.00000E+00
    0.21355E-01        -0.31338E-01         0.00000E+00
    0.21389E-01        -0.33417E-01         0.00000E+00
    0.21418E-01        -0.35490E-01         0.00000E+00
    0.21441E-01        -0.37559E-01         0.00000E+00
    0.21459E-01        -0.39623E-01         0.00000E+00
    0.21472E-01        -0.41683E-01         0.00000E+00
    0.21482E-01        -0.43741E-01         0.00000E+00
    0.21488E-01        -0.45801E-01         0.00000E+00
    0.21492E-01        -0.47873E-01         0.00000E+00
    0.21500E-01        -0.49960E-01         0.00000E+00
    0.21509E-01        -0.52058E-01         0.00000E+00
    0.21520E-01        -0.54164E-01         0.00000E+00
    0.21533E-01        -0.56274E-01         0.00000E+00
    0.21545E-01        -0.58388E-01         0.00000E+00
    0.21559E-01        -0.60504E-01         0.00000E+00
    0.21573E-01        -0.62623E-01         0.00000E+00
    0.21589E-01        -0.64745E-01         0.00000E+00
    0.21605E-01        -0.66872E-01         0.00000E+00
    0.21624E-01        -0.69011E-01         0.00000E+00
    0.21648E-01        -0.71159E-01         0.00000E+00
    0.21675E-01        -0.73314E-01         0.00000E+00
    0.21706E-01        -0.75472E-01         0.00000E+00
    0.21740E-01        -0.77634E-01         0.00000E+00
    0.21777E-01        -0.79797E-01         0.00000E+00
    0.21817E-01        -0.81963E-01         0.00000E+00
    0.21860E-01        -0.84130E-01         0.00000E+00
    0.21906E-01        -0.86301E-01         0.00000E+00
    0.21954E-01        -0.88477E-01         0.00000E+00
    0.22007E-01        -0.90658E-01         0.00000E+00
    0.22062E-01        -0.92840E-01         0.00000E+00
    0.22121E-01        -0.95023E-01         0.00000E+00
    0.22182E-01        -0.97207E-01         0.00000E+00
    0.22245E-01        -0.99389E-01         0.00000E+00
    0.22310E-01        -0.10157E+00         0.00000E+00
    0.22376E-01        -0.10375E+00         0.00000E+00
    0.22442E-01        -0.10593E+00         0.00000E+00
    0.22509E-01        -0.10810E+00         0.00000E+00
    0.22575E-01        -0.11028E+00         0.00000E+00
    0.22640E-01        -0.11245E+00         0.00000E+00
    0.22702E-01        -0.11462E+00         0.00000E+00
    0.22760E-01        -0.11678E+00         0.00000E+00
    0.22815E-01        -0.11894E+00         0.00000E+00
    0.22863E-01        -0.12110E+00         0.00000E+00
    0.22904E-01        -0.12325E+00         0.00000E+00
    0.22936E-01        -0.12540E+00         0.00000E+00
    0.22958E-01        -0.12755E+00         0.00000E+00
    0.22966E-01        -0.12969E+00         0.00000E+00
    0.22959E-01        -0.13182E+00         0.00000E+00
    0.22933E-01        -0.13395E+00         0.00000E+00
    0.22887E-01        -0.13607E+00         0.00000E+00
    0.22815E-01        -0.13819E+00         0.00000E+00
    0.22713E-01        -0.14030E+00         0.00000E+00
    0.22576E-01        -0.14240E+00         0.00000E+00
    0.22399E-01        -0.14450E+00         0.00000E+00
    0.22173E-01        -0.14659E+00         0.00000E+00
    0.21891E-01        -0.14866E+00         0.00000E+00
    0.21542E-01        -0.15073E+00         0.00000E+00
    0.21114E-01        -0.15279E+00         0.00000E+00
    0.20595E-01        -0.15483E+00         0.00000E+00
    0.19966E-01        -0.15684E+00         0.00000E+00
    0.19212E-01        -0.15883E+00         0.00000E+00
    0.18311E-01        -0.16077E+00         0.00000E+00
    0.17242E-01        -0.16266E+00         0.00000E+00
    0.15981E-01        -0.16448E+00         0.00000E+00
    0.14504E-01        -0.16620E+00         0.00000E+00
    0.12788E-01        -0.16780E+00         0.00000E+00
    0.10812E-01        -0.16924E+00         0.00000E+00
    0.85553E-02        -0.17050E+00         0.00000E+00
    0.60038E-02        -0.17151E+00         0.00000E+00
    0.31412E-02        -0.17224E+00         0.00000E+00
    0.00000E+00        -0.17254E+00         0.00000E+00
    0.00000E+00         0.24777E-01         0.00000E+00
    0.31186E-02         0.24451E-01         0.00000E+00
    0.58148E-02         0.23721E-01         0.00000E+00
    0.81206E-02         0.22699E-01         0.00000E+00
    0.10093E-01         0.21434E-01         0.00000E+00
    0.11780E-01         0.19970E-01         0.00000E+00
    0.13227E-01         0.18338E-01         0.00000E+00
    0.14472E-01         0.16564E-01         0.00000E+00
    0.15543E-01         0.14670E-01         0.00000E+00
    0.16466E-01         0.12679E-01         0.00000E+00
    0.17259E-01         0.10612E-01         0.00000E+00
    0.17939E-01         0.84900E-02         0.00000E+00
    0.18521E-01         0.63324E-02         0.00000E+00
    0.19017E-01         0.41559E-02         0.00000E+00
    0.19441E-01         0.19736E-02         0.00000E+00
    0.19802E-01        -0.20454E-03         0.00000E+00
    0.20110E-01        -0.23720E-02         0.00000E+00
    0.20374E-01        -0.45246E-02         0.00000E+00
    0.20600E-01        -0.66604E-02         0.00000E+00
    0.20795E-01        -0.87791E-02         0.00000E+00
    0.20961E-01        -0.10882E-01         0.00000E+00
    0.21105E-01        -0.12971E-01         0.00000E+00
    0.21229E-01        -0.15050E-01         0.00000E+00
    0.21336E-01        -0.17126E-01         0.00000E+00
    0.21427E-01        -0.19211E-01         0.00000E+00
    0.21507E-01        -0.21325E-01         0.00000E+00
    0.21580E-01        -0.23451E-01         0.00000E+00
    0.21644E-01        -0.25581E-01         0.00000E+00
    0.21700E-01        -0.27713E-01         0.00000E+00
    0.21748E-01        -0.29843E-01         0.00000E+00
    0.21788E-01        -0.31970E-01         0.00000E+00
    0.21822E-01        -0.34093E-01         0.00000E+00
    0.21850E-01        -0.36210E-01         0.00000E+00
    0.21872E-01        -0.38322E-01         0.00000E+00
    0.21889E-01        -0.40430E-01         0.00000E+00
    0.21902E-01        -0.42533E-01         0.00000E+00
    0.21912E-01        -0.44634E-01         0.00000E+00
    0.21919E-01        -0.46737E-01         0.00000E+00
    0.21926E-01        -0.48853E-01         0.00000E+00
    0.21936E-01        -0.50985E-01         0.00000E+00
    0.21948E-01        -0.53129E-01         0.00000E+00
    0.21960E-01        -0.55279E-01         0.00000E+00
    0.21973E-01        -0.57434E-01         0.00000E+00
    0.21986E-01        -0.59593E-01         0.00000E+00
    0.22000E-01        -0.61754E-01         0.00000E+00
    0.22015E-01        -0.63917E-01         0.00000E+00
    0.22032E-01        -0.66083E-01         0.00000E+00
    0.22049E-01        -0.68255E-01         0.00000E+00
    0.22071E-01        -0.70440E-01         0.00000E+00
    0.22096E-01        -0.72634E-01         0.00000E+00
    0.22125E-01        -0.74834E-01         0.00000E+00
    0.22156E-01        -0.77038E-01         0.00000E+00
    0.22191E-01        -0.79245E-01         0.00000E+00
    0.22228E-01        -0.81455E-01         0.00000E+00
    0.22269E-01        -0.83665E-01         0.00000E+00
    0.22312E-01        -0.85878E-01         0.00000E+00
    0.22359E-01        -0.88094E-01         0.00000E+00
    0.22408E-01        -0.90316E-01         0.00000E+00
    0.22461E-01        -0.92543E-01         0.00000E+00
    0.22517E-01        -0.94771E-01         0.00000E+00
    0.22576E-01        -0.97000E-01         0.00000E+00
    0.22637E-01        -0.99229E-01         0.00000E+00
    0.22700E-01        -0.10146E+00         0.00000E+00
    0.22765E-01        -0.10368E+00         0.00000E+00
    0.22830E-01        -0.10591E+00         0.00000E+00
    0.22897E-01        -0.10813E+00         0.00000E+00
    0.22963E-01        -0.11035E+00         0.00000E+00
    0.23029E-01        -0.11257E+00         0.00000E+00
    0.23093E-01        -0.11479E+00         0.00000E+00
    0.23154E-01        -0.11700E+00         0.00000E+00
    0.23212E-01        -0.11921E+00         0.00000E+00
    0.23266E-01        -0.12142E+00         0.00000E+00
    0.23314E-01        -0.12362E+00         0.00000E+00
    0.23354E-01        -0.12582E+00         0.00000E+00
    0.23385E-01        -0.12801E+00         0.00000E+00
    0.23405E-01        -0.13020E+00         0.00000E+00
    0.23413E-01        -0.13238E+00         0.00000E+00
    0.23404E-01        -0.13456E+00         0.00000E+00
    0.23378E-01        -0.13673E+00         0.00000E+00
    0.23330E-01        -0.13890E+00         0.00000E+00
    0.23256E-01        -0.14106E+00         0.00000E+00
    0.23153E-01        -0.14321E+00         0.00000E+00
    0.23014E-01        -0.14536E+00         0.00000E+00
    0.22835E-01        -0.14749E+00         0.00000E+00
    0.22607E-01        -0.14962E+00         0.00000E+00
    0.22322E-01        -0.15174E+00         0.00000E+00
    0.21969E-01        -0.15384E+00         0.00000E+00
    0.21538E-01        -0.15593E+00         0.00000E+00
    0.21013E-01        -0.15801E+00         0.00000E+00
    0.20378E-01        -0.16006E+00         0.00000E+00
    0.19615E-01        -0.16207E+00         0.00000E+00
    0.18702E-01        -0.16405E+00         0.00000E+00
    0.17618E-01        -0.16596E+00         0.00000E+00
    0.16337E-01        -0.16780E+00         0.00000E+00
    0.14836E-01        -0.16955E+00         0.00000E+00
    0.13090E-01        -0.17116E+00         0.00000E+00
    0.11078E-01        -0.17262E+00         0.00000E+00
    0.87760E-02        -0.17390E+00         0.00000E+00
    0.61717E-02        -0.17492E+00         0.00000E+00
    0.32390E-02        -0.17566E+00         0.00000E+00
    0.00000E+00        -0.17600E+00         0.00000E+00
    0.00000E+00         0.25141E-01         0.00000E+00
    0.32341E-02         0.24781E-01         0.00000E+00
    0.59916E-02         0.24058E-01         0.00000E+00
    0.83524E-02         0.23030E-01         0.00000E+00
    0.10369E-01         0.21757E-01         0.00000E+00
    0.12093E-01         0.20280E-01         0.00000E+00
    0.13572E-01         0.18630E-01         0.00000E+00
    0.14843E-01         0.16835E-01         0.00000E+00
    0.15936E-01         0.14916E-01         0.00000E+00
    0.16877E-01         0.12896E-01         0.00000E+00
    0.17684E-01         0.10797E-01         0.00000E+00
    0.18373E-01         0.86408E-02         0.00000E+00
    0.18961E-01         0.64476E-02         0.00000E+00
    0.19460E-01         0.42341E-02         0.00000E+00
    0.19884E-01         0.20136E-02         0.00000E+00
    0.20243E-01        -0.20365E-03         0.00000E+00
    0.20550E-01        -0.24108E-02         0.00000E+00
    0.20811E-01        -0.46037E-02         0.00000E+00
    0.21034E-01        -0.67800E-02         0.00000E+00
    0.21225E-01        -0.89394E-02         0.00000E+00
    0.21389E-01        -0.11083E-01         0.00000E+00
    0.21530E-01        -0.13213E-01         0.00000E+00
    0.21653E-01        -0.15333E-01         0.00000E+00
    0.21760E-01        -0.17450E-01         0.00000E+00
    0.21855E-01        -0.19575E-01         0.00000E+00
    0.21940E-01        -0.21735E-01         0.00000E+00
    0.22014E-01        -0.23905E-01         0.00000E+00
    0.22079E-01        -0.26080E-01         0.00000E+00
    0.22135E-01        -0.28256E-01         0.00000E+00
    0.22182E-01        -0.30430E-01         0.00000E+00
    0.22222E-01        -0.32601E-01         0.00000E+00
    0.22255E-01        -0.34768E-01         0.00000E+00
    0.22282E-01        -0.36929E-01         0.00000E+00
    0.22303E-01        -0.39085E-01         0.00000E+00
    0.22319E-01        -0.41236E-01         0.00000E+00
    0.22332E-01        -0.43383E-01         0.00000E+00
    0.22341E-01        -0.45527E-01         0.00000E+00
    0.22350E-01        -0.47672E-01         0.00000E+00
    0.22360E-01        -0.49832E-01         0.00000E+00
    0.22373E-01        -0.52010E-01         0.00000E+00
    0.22386E-01        -0.54199E-01         0.00000E+00
    0.22399E-01        -0.56394E-01         0.00000E+00
    0.22413E-01        -0.58594E-01         0.00000E+00
    0.22427E-01        -0.60798E-01         0.00000E+00
    0.22442E-01        -0.63003E-01         0.00000E+00
    0.22457E-01        -0.65211E-01         0.00000E+00
    0.22474E-01        -0.67422E-01         0.00000E+00
    0.22494E-01        -0.69638E-01         0.00000E+00
    0.22518E-01        -0.71869E-01         0.00000E+00
    0.22545E-01        -0.74108E-01         0.00000E+00
    0.22574E-01        -0.76354E-01         0.00000E+00
    0.22607E-01        -0.78604E-01         0.00000E+00
    0.22642E-01        -0.80857E-01         0.00000E+00
    0.22679E-01        -0.83112E-01         0.00000E+00
    0.22720E-01        -0.85368E-01         0.00000E+00
    0.22764E-01        -0.87626E-01         0.00000E+00
    0.22812E-01        -0.89887E-01         0.00000E+00
    0.22862E-01        -0.92155E-01         0.00000E+00
    0.22916E-01        -0.94428E-01         0.00000E+00
    0.22972E-01        -0.96702E-01         0.00000E+00
    0.23031E-01        -0.98977E-01         0.00000E+00
    0.23092E-01        -0.10125E+00         0.00000E+00
    0.23155E-01        -0.10353E+00         0.00000E+00
    0.23219E-01        -0.10580E+00         0.00000E+00
    0.23284E-01        -0.10807E+00         0.00000E+00
    0.23350E-01        -0.11034E+00         0.00000E+00
    0.23416E-01        -0.11260E+00         0.00000E+00
    0.23481E-01        -0.11487E+00         0.00000E+00
    0.23545E-01        -0.11713E+00         0.00000E+00
    0.23606E-01        -0.11939E+00         0.00000E+00
    0.23663E-01        -0.12164E+00         0.00000E+00
    0.23716E-01        -0.12389E+00         0.00000E+00
    0.23763E-01        -0.12614E+00         0.00000E+00
    0.23803E-01        -0.12838E+00         0.00000E+00
    0.23833E-01        -0.13062E+00         0.00000E+00
    0.23852E-01        -0.13285E+00         0.00000E+00
    0.23858E-01        -0.13508E+00         0.00000E+00
    0.23849E-01        -0.13730E+00         0.00000E+00
    0.23821E-01        -0.13952E+00         0.00000E+00
    0.23771E-01        -0.14173E+00         0.00000E+00
    0.23696E-01        -0.14393E+00         0.00000E+00
    0.23591E-01        -0.14612E+00         0.00000E+00
    0.23451E-01        -0.14831E+00         0.00000E+00
    0.23270E-01        -0.15049E+00         0.00000E+00
    0.23040E-01        -0.15265E+00         0.00000E+00
    0.22752E-01        -0.15481E+00         0.00000E+00
    0.22397E-01        -0.15695E+00         0.00000E+00
    0.21961E-01        -0.15908E+00         0.00000E+00
    0.21432E-01        -0.16119E+00         0.00000E+00
    0.20791E-01        -0.16327E+00         0.00000E+00
    0.20019E-01        -0.16532E+00         0.00000E+00
    0.19096E-01        -0.16732E+00         0.00000E+00
    0.17997E-01        -0.16926E+00         0.00000E+00
    0.16698E-01        -0.17113E+00         0.00000E+00
    0.15174E-01        -0.17289E+00         0.00000E+00
    0.13400E-01        -0.17453E+00         0.00000E+00
    0.11351E-01        -0.17601E+00         0.00000E+00
    0.90063E-02        -0.17729E+00         0.00000E+00
    0.63467E-02        -0.17834E+00         0.00000E+00
    0.33519E-02        -0.17907E+00         0.00000E+00
    0.00000E+00        -0.17945E+00         0.00000E+00
CELL_DATA       5000
VECTORS vDarcy double 
    0.36153E-07        -0.37253E-20         0.00000E+00
    0.36151E-07        -0.76834E-20         0.00000E+00
    0.36148E-07         0.46566E-21         0.00000E+00
    0.36144E-07        -0.11642E-20         0.00000E+00
    0.36137E-07        -0.25611E-20         0.00000E+00
    0.36130E-07        -0.44238E-20         0.00000E+00
    0.36121E-07         0.53551E-20         0.00000E+00
    0.36110E-07        -0.69849E-21         0.00000E+00
    0.36098E-07         0.27940E-20         0.00000E+00
    0.36085E-07         0.34925E-20         0.00000E+00
    0.36070E-07        -0.23283E-21         0.00000E+00
    0.36054E-07        -0.46566E-20         0.00000E+00
    0.36036E-07         0.16298E-20         0.00000E+00
    0.36018E-07         0.97789E-20         0.00000E+00
    0.35998E-07         0.48894E-20         0.00000E+00
    0.35976E-07         0.23283E-21         0.00000E+00
    0.35954E-07        -0.41910E-20         0.00000E+00
    0.35930E-07        -0.88476E-20         0.00000E+00
    0.35906E-07        -0.95461E-20         0.00000E+00
    0.35880E-07         0.55879E-20         0.00000E+00
    0.35853E-07         0.39581E-20         0.00000E+00
    0.35825E-07        -0.23283E-20         0.00000E+00
    0.35797E-07         0.67521E-20         0.00000E+00
    0.35767E-07         0.41910E-20         0.00000E+00
    0.35737E-07        -0.32596E-20         0.00000E+00
    0.35706E-07        -0.79162E-20         0.00000E+00
    0.35675E-07        -0.58208E-20         0.00000E+00
    0.35643E-07        -0.16298E-20         0.00000E+00
    0.35610E-07        -0.86147E-20         0.00000E+00
    0.35576E-07        -0.65193E-20         0.00000E+00
    0.35543E-07         0.44238E-20         0.00000E+00
    0.35508E-07         0.93132E-21         0.00000E+00
    0.35474E-07        -0.27940E-20         0.00000E+00
    0.35439E-07        -0.46566E-21         0.00000E+00
    0.35404E-07         0.60536E-20         0.00000E+00
    0.35369E-07        -0.46566E-21         0.00000E+00
    0.35334E-07        -0.83819E-20         0.00000E+00
    0.35298E-07        -0.83819E-20         0.00000E+00
    0.35263E-07        -0.93132E-20         0.00000E+00
    0.35227E-07        -0.51223E-20         0.00000E+00
    0.35192E-07        -0.10710E-19         0.00000E+00
    0.35157E-07        -0.48894E-20         0.00000E+00
    0.35122E-07         0.69849E-20         0.00000E+00
    0.35087E-07        -0.46566E-21         0.00000E+00
    0.35053E-07        -0.13970E-20         0.00000E+00
    0.35019E-07        -0.69849E-21         0.00000E+00
    0.34985E-07         0.25611E-20         0.00000E+00
    0.34951E-07        -0.46566E-20         0.00000E+00
    0.34918E-07        -0.55879E-20         0.00000E+00
    0.34886E-07         0.27940E-20         0.00000E+00
    0.34854E-07         0.23283E-20         0.00000E+00
    0.34822E-07         0.37253E-20         0.00000E+00
    0.34791E-07         0.93132E-21         0.00000E+00
    0.34761E-07         0.37253E-20         0.00000E+00
    0.34731E-07         0.23283E-21         0.00000E+00
    0.34702E-07        -0.32596E-20         0.00000E+00
    0.34674E-07         0.13970E-20         0.00000E+00
    0.34646E-07         0.23283E-21         0.00000E+00
    0.34619E-07        -0.39581E-20         0.00000E+00
    0.34592E-07         0.11642E-20         0.00000E+00
    0.34566E-07        -0.11642E-20         0.00000E+00
    0.34541E-07         0.18626E-20         0.00000E+00
    0.34517E-07         0.13970E-20         0.00000E+00
    0.34494E-07        -0.46566E-21         0.00000E+00
    0.34471E-07        -0.65193E-20         0.00000E+00
    0.34449E-07        -0.46566E-21         0.00000E+00
    0.34428E-07        -0.53551E-20         0.00000E+00
    0.34407E-07        -0.44238E-20         0.00000E+00
    0.34388E-07        -0.20955E-20         0.00000E+00
    0.34369E-07        -0.25611E-20         0.00000E+00
    0.34350E-07        -0.51223E-20         0.00000E+00
    0.34333E-07        -0.44238E-20         0.00000E+00
    0.34316E-07        -0.23283E-21         0.00000E+00
    0.34300E-07        -0.32596E-20         0.00000E+00
    0.34285E-07         0.18626E-20         0.00000E+00
    0.34271E-07         0.65193E-20         0.00000E+00
    0.34257E-07         0.55879E-20         0.00000E+00
    0.34244E-07         0.18626E-20         0.00000E+00
    0.34231E-07         0.93132E-21         0.00000E+00
    0.34219E-07         0.34925E-20         0.00000E+00
    0.34208E-07         0.32596E-20         0.00000E+00
    0.34198E-07         0.93132E-21         0.00000E+00
    0.34188E-07        -0.23283E-21         0.00000E+00
    0.34179E-07        -0.18626E-20         0.00000E+00
    0.34170E-07         0.46566E-21         0.00000E+00
    0.34162E-07         0.46566E-20         0.00000E+00
    0.34155E-07         0.88476E-20         0.00000E+00
    0.34148E-07         0.51223E-20         0.00000E+00
    0.34142E-07        -0.19791E-20         0.00000E+00
    0.34136E-07         0.53551E-20         0.00000E+00
    0.34131E-07         0.36089E-20         0.00000E+00
    0.34127E-07         0.11642E-21         0.00000E+00
    0.34122E-07        -0.97789E-20         0.00000E+00
    0.34119E-07        -0.64028E-20         0.00000E+00
    0.34116E-07         0.23283E-20         0.00000E+00
    0.34113E-07         0.16298E-20         0.00000E+00
    0.34111E-07         0.30268E-20         0.00000E+00
    0.34110E-07        -0.23283E-20         0.00000E+00
    0.34109E-07        -0.30268E-20         0.00000E+00
    0.34108E-07        -0.93132E-21         0.00000E+00
    0.36153E-07         0.22352E-19         0.00000E+00
    0.36151E-07         0.23050E-19         0.00000E+00
    0.36148E-07         0.14435E-19         0.00000E+00
    0.36144E-07         0.27940E-20         0.00000E+00
    0.36137E-07         0.32596E-20         0.00000E+00
    0.36130E-07         0.22119E-19         0.00000E+00
    0.36121E-07         0.28871E-19         0.00000E+00
    0.36110E-07         0.16298E-19         0.00000E+00
    0.36098E-07         0.13970E-20         0.00000E+00
    0.36085E-07         0.32596E-20         0.00000E+00
    0.36070E-07         0.00000E+00         0.00000E+00
    0.36054E-07        -0.58208E-20         0.00000E+00
    0.36036E-07        -0.88476E-20         0.00000E+00
    0.36018E-07        -0.18161E-19         0.00000E+00
    0.35998E-07        -0.15367E-19         0.00000E+00
    0.35976E-07        -0.16298E-19         0.00000E+00
    0.35954E-07        -0.13737E-19         0.00000E+00
    0.35930E-07         0.30268E-20         0.00000E+00
    0.35906E-07         0.93132E-21         0.00000E+00
    0.35880E-07         0.65193E-20         0.00000E+00
    0.35853E-07         0.12806E-19         0.00000E+00
    0.35825E-07         0.37253E-20         0.00000E+00
    0.35797E-07        -0.72177E-20         0.00000E+00
    0.35767E-07        -0.11642E-19         0.00000E+00
    0.35737E-07         0.16065E-19         0.00000E+00
    0.35706E-07         0.60536E-20         0.00000E+00
    0.35675E-07         0.93132E-21         0.00000E+00
    0.35643E-07        -0.10012E-19         0.00000E+00
    0.35610E-07        -0.24913E-19         0.00000E+00
    0.35576E-07         0.93132E-21         0.00000E+00
    0.35543E-07         0.46566E-21         0.00000E+00
    0.35508E-07        -0.37253E-20         0.00000E+00
    0.35474E-07         0.16298E-20         0.00000E+00
    0.35439E-07         0.16298E-20         0.00000E+00
    0.35404E-07        -0.12806E-19         0.00000E+00
    0.35369E-07        -0.17462E-19         0.00000E+00
    0.35334E-07        -0.17229E-19         0.00000E+00
    0.35298E-07        -0.11409E-19         0.00000E+00
    0.35263E-07        -0.88476E-20         0.00000E+00
    0.35227E-07        -0.86147E-20         0.00000E+00
    0.35192E-07        -0.17462E-19         0.00000E+00
    0.35157E-07        -0.13970E-19         0.00000E+00
    0.35122E-07        -0.88476E-20         0.00000E+00
    0.35087E-07        -0.17695E-19         0.00000E+00
    0.35053E-07        -0.13271E-19         0.00000E+00
    0.35019E-07         0.20955E-20         0.00000E+00
    0.34985E-07        -0.69849E-21         0.00000E+00
    0.34951E-07        -0.10477E-19         0.00000E+00
    0.34918E-07        -0.12573E-19         0.00000E+00
    0.34886E-07        -0.15367E-19         0.00000E+00
    0.34854E-07        -0.17928E-19         0.00000E+00
    0.34822E-07        -0.13039E-19         0.00000E+00
    0.34791E-07        -0.51223E-20         0.00000E+00
    0.34761E-07        -0.13271E-19         0.00000E+00
    0.34731E-07         0.13970E-20         0.00000E+00
    0.34702E-07        -0.11642E-20         0.00000E+00
    0.34674E-07        -0.79162E-20         0.00000E+00
    0.34646E-07        -0.11409E-19         0.00000E+00
    0.34619E-07        -0.88476E-20         0.00000E+00
    0.34592E-07        -0.69849E-21         0.00000E+00
    0.34566E-07        -0.11409E-19         0.00000E+00
    0.34541E-07        -0.15134E-19         0.00000E+00
    0.34517E-07        -0.13504E-19         0.00000E+00
    0.34494E-07        -0.37253E-20         0.00000E+00
    0.34471E-07        -0.37253E-20         0.00000E+00
    0.34449E-07        -0.48894E-20         0.00000E+00
    0.34428E-07        -0.60536E-20         0.00000E+00
    0.34407E-07        -0.39581E-20         0.00000E+00
    0.34388E-07        -0.46566E-20         0.00000E+00
    0.34369E-07        -0.79162E-20         0.00000E+00
    0.34350E-07        -0.79162E-20         0.00000E+00
    0.34333E-07        -0.97789E-20         0.00000E+00
    0.34316E-07        -0.23982E-19         0.00000E+00
    0.34300E-07        -0.23516E-19         0.00000E+00
    0.34285E-07        -0.14435E-19         0.00000E+00
    0.34271E-07        -0.13271E-19         0.00000E+00
    0.34257E-07        -0.13970E-19         0.00000E+00
    0.34244E-07        -0.14668E-19         0.00000E+00
    0.34231E-07        -0.46566E-21         0.00000E+00
    0.34219E-07        -0.46566E-20         0.00000E+00
    0.34208E-07        -0.74506E-20         0.00000E+00
    0.34198E-07         0.44238E-20         0.00000E+00
    0.34188E-07         0.14203E-19         0.00000E+00
    0.34179E-07         0.55879E-20         0.00000E+00
    0.34170E-07        -0.60536E-20         0.00000E+00
    0.34162E-07        -0.67521E-20         0.00000E+00
    0.34155E-07        -0.12573E-19         0.00000E+00
    0.34148E-07        -0.13271E-19         0.00000E+00
    0.34142E-07        -0.11292E-19         0.00000E+00
    0.34136E-07         0.69849E-21         0.00000E+00
    0.34131E-07         0.34925E-21         0.00000E+00
    0.34127E-07        -0.84983E-20         0.00000E+00
    0.34122E-07        -0.26776E-20         0.00000E+00
    0.34119E-07        -0.43074E-20         0.00000E+00
    0.34116E-07        -0.11642E-21         0.00000E+00
    0.34113E-07        -0.20955E-20         0.00000E+00
    0.34111E-07        -0.10710E-19         0.00000E+00
    0.34110E-07        -0.47730E-20         0.00000E+00
    0.34109E-07         0.30268E-20         0.00000E+00
    0.34108E-07         0.00000E+00         0.00000E+00
    0.36153E-07         0.00000E+00         0.00000E+00
    0.36151E-07         0.81491E-20         0.00000E+00
    0.36148E-07        -0.93132E-21         0.00000E+00
    0.36144E-07         0.23283E-20         0.00000E+00
    0.36137E-07         0.23050E-19         0.00000E+00
    0.36130E-07         0.21420E-19         0.00000E+00
    0.36121E-07         0.32829E-19         0.00000E+00
    0.36110E-07         0.28871E-19         0.00000E+00
    0.36098E-07         0.37253E-20         0.00000E+00
    0.36085E-07         0.23283E-21         0.00000E+00
    0.36070E-07         0.15600E-19         0.00000E+00
    0.36054E-07         0.20722E-19         0.00000E+00
    0.36036E-07         0.16298E-20         0.00000E+00
    0.36018E-07        -0.79162E-20         0.00000E+00
    0.35998E-07        -0.10710E-19         0.00000E+00
    0.35976E-07        -0.48894E-20         0.00000E+00
    0.35954E-07        -0.88476E-20         0.00000E+00
    0.35930E-07        -0.97789E-20         0.00000E+00
    0.35906E-07        -0.41910E-20         0.00000E+00
    0.35880E-07         0.17462E-19         0.00000E+00
    0.35853E-07         0.17229E-19         0.00000E+00
    0.35825E-07         0.97789E-20         0.00000E+00
    0.35797E-07         0.25611E-20         0.00000E+00
    0.35767E-07        -0.58208E-20         0.00000E+00
    0.35737E-07         0.79162E-20         0.00000E+00
    0.35706E-07         0.46566E-20         0.00000E+00
    0.35675E-07        -0.28871E-19         0.00000E+00
    0.35643E-07        -0.27707E-19         0.00000E+00
    0.35610E-07        -0.11176E-19         0.00000E+00
    0.35576E-07        -0.14901E-19         0.00000E+00
    0.35543E-07        -0.16065E-19         0.00000E+00
    0.35508E-07        -0.83819E-20         0.00000E+00
    0.35474E-07         0.13970E-19         0.00000E+00
    0.35439E-07         0.69849E-20         0.00000E+00
    0.35404E-07         0.13504E-19         0.00000E+00
    0.35369E-07         0.93132E-20         0.00000E+00
    0.35334E-07        -0.14901E-19         0.00000E+00
    0.35298E-07         0.18626E-20         0.00000E+00
    0.35263E-07         0.46566E-21         0.00000E+00
    0.35227E-07        -0.32596E-20         0.00000E+00
    0.35192E-07         0.72177E-20         0.00000E+00
    0.35157E-07         0.72177E-20         0.00000E+00
    0.35122E-07         0.48894E-20         0.00000E+00
    0.35087E-07        -0.60536E-20         0.00000E+00
    0.35053E-07        -0.79162E-20         0.00000E+00
    0.35019E-07        -0.25611E-20         0.00000E+00
    0.34985E-07         0.20955E-20         0.00000E+00
    0.34951E-07        -0.19325E-19         0.00000E+00
    0.34918E-07        -0.17229E-19         0.00000E+00
    0.34886E-07        -0.10710E-19         0.00000E+00
    0.34854E-07        -0.83819E-20         0.00000E+00
    0.34822E-07        -0.13970E-20         0.00000E+00
    0.34791E-07        -0.46566E-21         0.00000E+00
    0.34761E-07         0.00000E+00         0.00000E+00
    0.34731E-07        -0.69849E-21         0.00000E+00
    0.34702E-07         0.11642E-19         0.00000E+00
    0.34674E-07        -0.46566E-21         0.00000E+00
    0.34646E-07        -0.12573E-19         0.00000E+00
    0.34619E-07        -0.74506E-20         0.00000E+00
    0.34592E-07        -0.25611E-20         0.00000E+00
    0.34566E-07        -0.10943E-19         0.00000E+00
    0.34541E-07        -0.10245E-19         0.00000E+00
    0.34517E-07        -0.93132E-20         0.00000E+00
    0.34494E-07        -0.83819E-20         0.00000E+00
    0.34471E-07        -0.83819E-20         0.00000E+00
    0.34449E-07        -0.81491E-20         0.00000E+00
    0.34428E-07        -0.81491E-20         0.00000E+00
    0.34407E-07        -0.12340E-19         0.00000E+00
    0.34388E-07        -0.53551E-20         0.00000E+00
    0.34369E-07         0.23283E-20         0.00000E+00
    0.34350E-07        -0.23283E-20         0.00000E+00
    0.34333E-07         0.46566E-21         0.00000E+00
    0.34316E-07        -0.44238E-20         0.00000E+00
    0.34300E-07        -0.37253E-20         0.00000E+00
    0.34285E-07        -0.93132E-21         0.00000E+00
    0.34271E-07        -0.74506E-20         0.00000E+00
    0.34257E-07        -0.10477E-19         0.00000E+00
    0.34244E-07        -0.65193E-20         0.00000E+00
    0.34231E-07         0.27940E-20         0.00000E+00
    0.34219E-07        -0.60536E-20         0.00000E+00
    0.34208E-07        -0.76834E-20         0.00000E+00
    0.34198E-07        -0.23283E-20         0.00000E+00
    0.34188E-07         0.44238E-20         0.00000E+00
    0.34179E-07         0.46566E-21         0.00000E+00
    0.34170E-07        -0.13039E-19         0.00000E+00
    0.34162E-07        -0.74506E-20         0.00000E+00
    0.34155E-07        -0.53551E-20         0.00000E+00
    0.34148E-07        -0.62864E-20         0.00000E+00
    0.34142E-07         0.11991E-19         0.00000E+00
    0.34136E-07         0.98953E-20         0.00000E+00
    0.34131E-07         0.46566E-20         0.00000E+00
    0.34127E-07         0.55879E-20         0.00000E+00
    0.34122E-07         0.46566E-21         0.00000E+00
    0.34119E-07         0.65193E-20         0.00000E+00
    0.34116E-07        -0.38417E-20         0.00000E+00
    0.34113E-07        -0.58208E-20         0.00000E+00
    0.34111E-07        -0.32596E-20         0.00000E+00
    0.34110E-07        -0.20955E-20         0.00000E+00
    0.34109E-07         0.47730E-20         0.00000E+00
    0.34108E-07         0.36089E-20         0.00000E+00
    0.36153E-07        -0.97789E-20         0.00000E+00
    0.36151E-07        -0.10245E-19         0.00000E+00
    0.36148E-07        -0.46566E-21         0.00000E+00
    0.36144E-07         0.83819E-20         0.00000E+00
    0.36137E-07         0.24214E-19         0.00000E+00
    0.36130E-07         0.34692E-19         0.00000E+00
    0.36121E-07         0.30268E-19         0.00000E+00
    0.36110E-07         0.14901E-19         0.00000E+00
    0.36098E-07         0.76834E-20         0.00000E+00
    0.36085E-07         0.76834E-20         0.00000E+00
    0.36070E-07         0.18626E-20         0.00000E+00
    0.36054E-07        -0.81491E-20         0.00000E+00
    0.36036E-07        -0.76834E-20         0.00000E+00
    0.36018E-07        -0.34925E-20         0.00000E+00
    0.35998E-07        -0.15600E-19         0.00000E+00
    0.35976E-07        -0.13039E-19         0.00000E+00
    0.35954E-07        -0.14435E-19         0.00000E+00
    0.35930E-07        -0.17229E-19         0.00000E+00
    0.35906E-07         0.65193E-20         0.00000E+00
    0.35880E-07         0.15832E-19         0.00000E+00
    0.35853E-07        -0.72177E-20         0.00000E+00
    0.35825E-07        -0.28871E-19         0.00000E+00
    0.35797E-07        -0.14668E-19         0.00000E+00
    0.35767E-07        -0.97789E-20         0.00000E+00
    0.35737E-07        -0.12107E-19         0.00000E+00
    0.35706E-07        -0.76834E-20         0.00000E+00
    0.35675E-07        -0.12107E-19         0.00000E+00
    0.35643E-07        -0.14901E-19         0.00000E+00
    0.35610E-07        -0.11176E-19         0.00000E+00
    0.35576E-07        -0.13504E-19         0.00000E+00
    0.35543E-07        -0.17695E-19         0.00000E+00
    0.35508E-07        -0.13504E-19         0.00000E+00
    0.35474E-07         0.46566E-21         0.00000E+00
    0.35439E-07         0.46566E-21         0.00000E+00
    0.35404E-07        -0.18626E-20         0.00000E+00
    0.35369E-07         0.93132E-20         0.00000E+00
    0.35334E-07        -0.83819E-20         0.00000E+00
    0.35298E-07        -0.17695E-19         0.00000E+00
    0.35263E-07         0.00000E+00         0.00000E+00
    0.35227E-07        -0.93132E-21         0.00000E+00
    0.35192E-07        -0.39581E-20         0.00000E+00
    0.35157E-07         0.55879E-20         0.00000E+00
    0.35122E-07         0.69849E-21         0.00000E+00
    0.35087E-07        -0.13039E-19         0.00000E+00
    0.35053E-07        -0.20489E-19         0.00000E+00
    0.35019E-07        -0.10943E-19         0.00000E+00
    0.34985E-07        -0.23283E-21         0.00000E+00
    0.34951E-07        -0.16298E-20         0.00000E+00
    0.34918E-07        -0.11176E-19         0.00000E+00
    0.34886E-07        -0.60536E-20         0.00000E+00
    0.34854E-07        -0.93132E-21         0.00000E+00
    0.34822E-07        -0.32596E-20         0.00000E+00
    0.34791E-07         0.00000E+00         0.00000E+00
    0.34761E-07        -0.51223E-20         0.00000E+00
    0.34731E-07        -0.41910E-20         0.00000E+00
    0.34702E-07        -0.13970E-20         0.00000E+00
    0.34674E-07        -0.53551E-20         0.00000E+00
    0.34646E-07        -0.14203E-19         0.00000E+00
    0.34619E-07        -0.72177E-20         0.00000E+00
    0.34592E-07         0.48894E-20         0.00000E+00
    0.34566E-07        -0.88476E-20         0.00000E+00
    0.34541E-07        -0.12573E-19         0.00000E+00
    0.34517E-07        -0.83819E-20         0.00000E+00
    0.34494E-07        -0.15600E-19         0.00000E+00
    0.34471E-07        -0.16298E-19         0.00000E+00
    0.34449E-07        -0.13504E-19         0.00000E+00
    0.34428E-07        -0.41910E-20         0.00000E+00
    0.34407E-07        -0.69849E-21         0.00000E+00
    0.34388E-07         0.11642E-20         0.00000E+00
    0.34369E-07         0.46566E-20         0.00000E+00
    0.34350E-07         0.25611E-20         0.00000E+00
    0.34333E-07        -0.97789E-20         0.00000E+00
    0.34316E-07        -0.10943E-19         0.00000E+00
    0.34300E-07         0.16298E-20         0.00000E+00
    0.34285E-07        -0.69849E-21         0.00000E+00
    0.34271E-07        -0.46566E-21         0.00000E+00
    0.34257E-07        -0.12107E-19         0.00000E+00
    0.34244E-07        -0.10245E-19         0.00000E+00
    0.34231E-07         0.10012E-19         0.00000E+00
    0.34219E-07         0.12806E-19         0.00000E+00
    0.34208E-07        -0.11642E-20         0.00000E+00
    0.34198E-07         0.34925E-20         0.00000E+00
    0.34188E-07         0.34925E-20         0.00000E+00
    0.34179E-07        -0.46566E-21         0.00000E+00
    0.34170E-07        -0.32596E-20         0.00000E+00
    0.34162E-07        -0.51223E-20         0.00000E+00
    0.34155E-07        -0.41910E-20         0.00000E+00
    0.34148E-07         0.43074E-20         0.00000E+00
    0.34142E-07         0.23283E-20         0.00000E+00
    0.34136E-07        -0.34925E-20         0.00000E+00
    0.34131E-07         0.95461E-20         0.00000E+00
    0.34127E-07         0.34925E-21         0.00000E+00
    0.34122E-07         0.26776E-20         0.00000E+00
    0.34119E-07         0.17229E-19         0.00000E+00
    0.34116E-07         0.53551E-20         0.00000E+00
    0.34113E-07         0.69849E-21         0.00000E+00
    0.34111E-07         0.11642E-21         0.00000E+00
    0.34110E-07         0.67521E-20         0.00000E+00
    0.34109E-07         0.65193E-20         0.00000E+00
    0.34108E-07         0.20955E-20         0.00000E+00
    0.36153E-07         0.20955E-20         0.00000E+00
    0.36151E-07        -0.65193E-20         0.00000E+00
    0.36148E-07        -0.18626E-20         0.00000E+00
    0.36144E-07         0.18859E-19         0.00000E+00
    0.36137E-07         0.28871E-19         0.00000E+00
    0.36130E-07         0.28173E-19         0.00000E+00
    0.36121E-07         0.26543E-19         0.00000E+00
    0.36110E-07         0.67521E-20         0.00000E+00
    0.36098E-07        -0.23283E-21         0.00000E+00
    0.36085E-07         0.34925E-20         0.00000E+00
    0.36070E-07         0.39581E-20         0.00000E+00
    0.36054E-07         0.41910E-20         0.00000E+00
    0.36036E-07         0.39581E-20         0.00000E+00
    0.36018E-07        -0.86147E-20         0.00000E+00
    0.35998E-07        -0.22119E-19         0.00000E+00
    0.35976E-07        -0.17462E-19         0.00000E+00
    0.35954E-07        -0.23982E-19         0.00000E+00
    0.35930E-07         0.69849E-20         0.00000E+00
    0.35906E-07         0.32131E-19         0.00000E+00
    0.35880E-07        -0.79162E-20         0.00000E+00
    0.35853E-07         0.23283E-21         0.00000E+00
    0.35825E-07         0.27940E-20         0.00000E+00
    0.35797E-07        -0.19325E-19         0.00000E+00
    0.35767E-07        -0.79162E-20         0.00000E+00
    0.35737E-07        -0.86147E-20         0.00000E+00
    0.35706E-07        -0.41910E-20         0.00000E+00
    0.35675E-07        -0.11176E-19         0.00000E+00
    0.35643E-07        -0.23283E-19         0.00000E+00
    0.35610E-07        -0.23283E-19         0.00000E+00
    0.35576E-07        -0.13970E-19         0.00000E+00
    0.35543E-07        -0.10477E-19         0.00000E+00
    0.35508E-07        -0.41910E-20         0.00000E+00
    0.35474E-07        -0.34925E-20         0.00000E+00
    0.35439E-07         0.65193E-20         0.00000E+00
    0.35404E-07         0.18626E-20         0.00000E+00
    0.35369E-07        -0.53551E-20         0.00000E+00
    0.35334E-07         0.23283E-21         0.00000E+00
    0.35298E-07        -0.30268E-20         0.00000E+00
    0.35263E-07         0.46566E-20         0.00000E+00
    0.35227E-07         0.19092E-19         0.00000E+00
    0.35192E-07        -0.46566E-21         0.00000E+00
    0.35157E-07        -0.88476E-20         0.00000E+00
    0.35122E-07        -0.74506E-20         0.00000E+00
    0.35087E-07        -0.13271E-19         0.00000E+00
    0.35053E-07        -0.37253E-20         0.00000E+00
    0.35019E-07         0.46566E-20         0.00000E+00
    0.34985E-07         0.30268E-20         0.00000E+00
    0.34951E-07        -0.13970E-20         0.00000E+00
    0.34918E-07        -0.46566E-20         0.00000E+00
    0.34886E-07        -0.41910E-20         0.00000E+00
    0.34854E-07        -0.13970E-20         0.00000E+00
    0.34822E-07         0.27940E-20         0.00000E+00
    0.34791E-07         0.74506E-20         0.00000E+00
    0.34761E-07        -0.46566E-21         0.00000E+00
    0.34731E-07        -0.37253E-20         0.00000E+00
    0.34702E-07         0.41910E-20         0.00000E+00
    0.34674E-07        -0.62864E-20         0.00000E+00
    0.34646E-07        -0.17462E-19         0.00000E+00
    0.34619E-07        -0.16997E-19         0.00000E+00
    0.34592E-07        -0.19325E-19         0.00000E+00
    0.34566E-07        -0.20722E-19         0.00000E+00
    0.34541E-07        -0.15367E-19         0.00000E+00
    0.34517E-07        -0.32596E-20         0.00000E+00
    0.34494E-07         0.18626E-20         0.00000E+00
    0.34471E-07        -0.14901E-19         0.00000E+00
    0.34449E-07        -0.86147E-20         0.00000E+00
    0.34428E-07        -0.10012E-19         0.00000E+00
    0.34407E-07        -0.32596E-20         0.00000E+00
    0.34388E-07         0.15367E-19         0.00000E+00
    0.34369E-07         0.93132E-21         0.00000E+00
    0.34350E-07        -0.13970E-20         0.00000E+00
    0.34333E-07         0.00000E+00         0.00000E+00
    0.34316E-07        -0.16298E-20         0.00000E+00
    0.34300E-07        -0.27940E-20         0.00000E+00
    0.34285E-07         0.32596E-20         0.00000E+00
    0.34271E-07         0.20955E-20         0.00000E+00
    0.34257E-07         0.23283E-20         0.00000E+00
    0.34244E-07         0.11874E-19         0.00000E+00
    0.34231E-07         0.62864E-20         0.00000E+00
    0.34219E-07         0.62864E-20         0.00000E+00
    0.34208E-07         0.34925E-20         0.00000E+00
    0.34198E-07        -0.86147E-20         0.00000E+00
    0.34188E-07        -0.76834E-20         0.00000E+00
    0.34179E-07         0.11642E-20         0.00000E+00
    0.34170E-07         0.51223E-20         0.00000E+00
    0.34162E-07        -0.10943E-19         0.00000E+00
    0.34155E-07        -0.46566E-20         0.00000E+00
    0.34148E-07         0.14785E-19         0.00000E+00
    0.34142E-07         0.33760E-20         0.00000E+00
    0.34136E-07        -0.74506E-20         0.00000E+00
    0.34131E-07        -0.76834E-20         0.00000E+00
    0.34127E-07         0.43074E-20         0.00000E+00
    0.34122E-07         0.32596E-20         0.00000E+00
    0.34119E-07        -0.32596E-20         0.00000E+00
    0.34116E-07         0.64028E-20         0.00000E+00
    0.34113E-07         0.51223E-20         0.00000E+00
    0.34111E-07         0.76834E-20         0.00000E+00
    0.34110E-07         0.79162E-20         0.00000E+00
    0.34109E-07        -0.19791E-20         0.00000E+00
    0.34108E-07        -0.20955E-20         0.00000E+00
    0.36153E-07         0.79162E-20         0.00000E+00
    0.36151E-07         0.21188E-19         0.00000E+00
    0.36148E-07         0.11176E-19         0.00000E+00
    0.36144E-07         0.11874E-19         0.00000E+00
    0.36137E-07         0.17695E-19         0.00000E+00
    0.36130E-07         0.37020E-19         0.00000E+00
    0.36121E-07         0.37486E-19         0.00000E+00
    0.36110E-07         0.31199E-19         0.00000E+00
    0.36098E-07         0.40280E-19         0.00000E+00
    0.36085E-07         0.17695E-19         0.00000E+00
    0.36070E-07         0.12573E-19         0.00000E+00
    0.36054E-07         0.14435E-19         0.00000E+00
    0.36036E-07        -0.93132E-21         0.00000E+00
    0.36018E-07         0.74506E-20         0.00000E+00
    0.35998E-07         0.14203E-19         0.00000E+00
    0.35976E-07         0.10245E-19         0.00000E+00
    0.35954E-07        -0.55879E-20         0.00000E+00
    0.35930E-07        -0.88476E-20         0.00000E+00
    0.35906E-07         0.60536E-20         0.00000E+00
    0.35880E-07         0.22352E-19         0.00000E+00
    0.35853E-07         0.21653E-19         0.00000E+00
    0.35825E-07        -0.62864E-20         0.00000E+00
    0.35797E-07        -0.18859E-19         0.00000E+00
    0.35767E-07         0.62864E-20         0.00000E+00
    0.35737E-07         0.72177E-20         0.00000E+00
    0.35706E-07        -0.51223E-20         0.00000E+00
    0.35675E-07        -0.83819E-20         0.00000E+00
    0.35643E-07        -0.34925E-20         0.00000E+00
    0.35610E-07        -0.46566E-20         0.00000E+00
    0.35576E-07        -0.13039E-19         0.00000E+00
    0.35543E-07        -0.18808E-36         0.00000E+00
    0.35508E-07         0.25611E-20         0.00000E+00
    0.35474E-07        -0.13970E-20         0.00000E+00
    0.35439E-07         0.83819E-20         0.00000E+00
    0.35404E-07         0.55879E-20         0.00000E+00
    0.35369E-07         0.34925E-20         0.00000E+00
    0.35334E-07         0.46566E-20         0.00000E+00
    0.35298E-07        -0.23283E-21         0.00000E+00
    0.35263E-07         0.93132E-21         0.00000E+00
    0.35227E-07         0.93132E-21         0.00000E+00
    0.35192E-07         0.27940E-20         0.00000E+00
    0.35157E-07        -0.37253E-20         0.00000E+00
    0.35122E-07         0.88476E-20         0.00000E+00
    0.35087E-07         0.69849E-20         0.00000E+00
    0.35053E-07         0.39581E-20         0.00000E+00
    0.35019E-07         0.44238E-20         0.00000E+00
    0.34985E-07         0.12573E-19         0.00000E+00
    0.34951E-07         0.69849E-20         0.00000E+00
    0.34918E-07        -0.46566E-21         0.00000E+00
    0.34886E-07         0.53551E-20         0.00000E+00
    0.34854E-07         0.79162E-20         0.00000E+00
    0.34822E-07        -0.48894E-20         0.00000E+00
    0.34791E-07         0.46566E-21         0.00000E+00
    0.34761E-07         0.12573E-19         0.00000E+00
    0.34731E-07         0.10943E-19         0.00000E+00
    0.34702E-07        -0.20955E-20         0.00000E+00
    0.34674E-07        -0.11642E-20         0.00000E+00
    0.34646E-07         0.23283E-21         0.00000E+00
    0.34619E-07        -0.25611E-20         0.00000E+00
    0.34592E-07        -0.44238E-20         0.00000E+00
    0.34566E-07        -0.95461E-20         0.00000E+00
    0.34541E-07         0.23283E-21         0.00000E+00
    0.34517E-07         0.23283E-20         0.00000E+00
    0.34494E-07        -0.32596E-20         0.00000E+00
    0.34471E-07        -0.95461E-20         0.00000E+00
    0.34449E-07        -0.86147E-20         0.00000E+00
    0.34428E-07         0.18626E-20         0.00000E+00
    0.34407E-07         0.41910E-20         0.00000E+00
    0.34388E-07         0.18626E-20         0.00000E+00
    0.34369E-07         0.83819E-20         0.00000E+00
    0.34350E-07         0.65193E-20         0.00000E+00
    0.34333E-07         0.10710E-19         0.00000E+00
    0.34316E-07         0.79162E-20         0.00000E+00
    0.34300E-07         0.83819E-20         0.00000E+00
    0.34285E-07         0.20955E-19         0.00000E+00
    0.34271E-07         0.21188E-19         0.00000E+00
    0.34257E-07         0.88476E-20         0.00000E+00
    0.34244E-07         0.86147E-20         0.00000E+00
    0.34231E-07         0.65193E-20         0.00000E+00
    0.34219E-07         0.76834E-20         0.00000E+00
    0.34208E-07         0.15600E-19         0.00000E+00
    0.34198E-07         0.69849E-21         0.00000E+00
    0.34188E-07         0.17229E-19         0.00000E+00
    0.34179E-07         0.30734E-19         0.00000E+00
    0.34170E-07         0.20023E-19         0.00000E+00
    0.34162E-07         0.13737E-19         0.00000E+00
    0.34155E-07         0.55879E-20         0.00000E+00
    0.34148E-07         0.14435E-19         0.00000E+00
    0.34142E-07         0.16065E-19         0.00000E+00
    0.34136E-07         0.77998E-20         0.00000E+00
    0.34131E-07         0.71013E-20         0.00000E+00
    0.34127E-07         0.11991E-19         0.00000E+00
    0.34122E-07         0.13853E-19         0.00000E+00
    0.34119E-07         0.16647E-19         0.00000E+00
    0.34116E-07         0.23167E-19         0.00000E+00
    0.34113E-07         0.13737E-19         0.00000E+00
    0.34111E-07         0.10245E-19         0.00000E+00
    0.34110E-07        -0.46566E-21         0.00000E+00
    0.34109E-07        -0.24447E-20         0.00000E+00
    0.34108E-07         0.18626E-20         0.00000E+00
    0.36153E-07         0.11176E-19         0.00000E+00
    0.36151E-07         0.55879E-20         0.00000E+00
    0.36148E-07         0.27940E-20         0.00000E+00
    0.36144E-07         0.14668E-19         0.00000E+00
    0.36137E-07         0.13504E-19         0.00000E+00
    0.36130E-07         0.11642E-19         0.00000E+00
    0.36121E-07         0.22119E-19         0.00000E+00
    0.36110E-07         0.48429E-19         0.00000E+00
    0.36098E-07         0.45169E-19         0.00000E+00
    0.36085E-07         0.53551E-20         0.00000E+00
    0.36070E-07        -0.44238E-20         0.00000E+00
    0.36054E-07         0.65193E-20         0.00000E+00
    0.36036E-07         0.12806E-19         0.00000E+00
    0.36018E-07        -0.27940E-20         0.00000E+00
    0.35998E-07         0.10012E-19         0.00000E+00
    0.35976E-07         0.13504E-19         0.00000E+00
    0.35954E-07        -0.32596E-20         0.00000E+00
    0.35930E-07        -0.88476E-20         0.00000E+00
    0.35906E-07        -0.28871E-19         0.00000E+00
    0.35880E-07        -0.74506E-20         0.00000E+00
    0.35853E-07         0.44238E-20         0.00000E+00
    0.35825E-07        -0.74506E-20         0.00000E+00
    0.35797E-07        -0.95461E-20         0.00000E+00
    0.35767E-07         0.27940E-20         0.00000E+00
    0.35737E-07         0.16298E-20         0.00000E+00
    0.35706E-07        -0.97789E-20         0.00000E+00
    0.35675E-07         0.46566E-21         0.00000E+00
    0.35643E-07         0.11409E-19         0.00000E+00
    0.35610E-07        -0.69849E-21         0.00000E+00
    0.35576E-07        -0.16298E-19         0.00000E+00
    0.35543E-07        -0.18626E-19         0.00000E+00
    0.35508E-07         0.48894E-20         0.00000E+00
    0.35474E-07         0.12573E-19         0.00000E+00
    0.35439E-07         0.69849E-20         0.00000E+00
    0.35404E-07         0.97789E-20         0.00000E+00
    0.35369E-07         0.15134E-19         0.00000E+00
    0.35334E-07         0.14668E-19         0.00000E+00
    0.35298E-07        -0.13970E-20         0.00000E+00
    0.35263E-07         0.34925E-20         0.00000E+00
    0.35227E-07         0.18161E-19         0.00000E+00
    0.35192E-07         0.88476E-20         0.00000E+00
    0.35157E-07         0.25611E-20         0.00000E+00
    0.35122E-07         0.46566E-20         0.00000E+00
    0.35087E-07         0.18394E-19         0.00000E+00
    0.35053E-07         0.11409E-19         0.00000E+00
    0.35019E-07         0.48894E-20         0.00000E+00
    0.34985E-07         0.30268E-20         0.00000E+00
    0.34951E-07         0.69849E-21         0.00000E+00
    0.34918E-07        -0.30268E-20         0.00000E+00
    0.34886E-07         0.65193E-20         0.00000E+00
    0.34854E-07         0.11642E-19         0.00000E+00
    0.34822E-07         0.93132E-21         0.00000E+00
    0.34791E-07         0.79162E-20         0.00000E+00
    0.34761E-07         0.20489E-19         0.00000E+00
    0.34731E-07         0.12573E-19         0.00000E+00
    0.34702E-07        -0.23283E-21         0.00000E+00
    0.34674E-07        -0.46566E-21         0.00000E+00
    0.34646E-07         0.97789E-20         0.00000E+00
    0.34619E-07        -0.20955E-20         0.00000E+00
    0.34592E-07        -0.95461E-20         0.00000E+00
    0.34566E-07        -0.16298E-20         0.00000E+00
    0.34541E-07         0.46566E-21         0.00000E+00
    0.34517E-07        -0.93132E-21         0.00000E+00
    0.34494E-07        -0.93132E-21         0.00000E+00
    0.34471E-07        -0.37253E-20         0.00000E+00
    0.34449E-07        -0.97789E-20         0.00000E+00
    0.34428E-07         0.58208E-20         0.00000E+00
    0.34407E-07         0.20722E-19         0.00000E+00
    0.34388E-07         0.93132E-20         0.00000E+00
    0.34369E-07         0.10943E-19         0.00000E+00
    0.34350E-07         0.14435E-19         0.00000E+00
    0.34333E-07         0.79162E-20         0.00000E+00
    0.34316E-07         0.34925E-20         0.00000E+00
    0.34300E-07         0.95461E-20         0.00000E+00
    0.34285E-07         0.93132E-20         0.00000E+00
    0.34271E-07        -0.69849E-21         0.00000E+00
    0.34257E-07         0.69849E-20         0.00000E+00
    0.34244E-07         0.10245E-19         0.00000E+00
    0.34231E-07         0.14203E-19         0.00000E+00
    0.34219E-07         0.13737E-19         0.00000E+00
    0.34208E-07        -0.18626E-20         0.00000E+00
    0.34198E-07         0.23283E-21         0.00000E+00
    0.34188E-07         0.12340E-19         0.00000E+00
    0.34179E-07         0.28871E-19         0.00000E+00
    0.34170E-07         0.28871E-19         0.00000E+00
    0.34162E-07         0.53551E-20         0.00000E+00
    0.34155E-07         0.00000E+00         0.00000E+00
    0.34148E-07         0.82655E-20         0.00000E+00
    0.34142E-07         0.64028E-20         0.00000E+00
    0.34136E-07         0.10477E-19         0.00000E+00
    0.34131E-07         0.11758E-19         0.00000E+00
    0.34127E-07         0.98953E-20         0.00000E+00
    0.34122E-07         0.37253E-20         0.00000E+00
    0.34119E-07         0.16065E-19         0.00000E+00
    0.34116E-07         0.17113E-19         0.00000E+00
    0.34113E-07         0.22002E-19         0.00000E+00
    0.34111E-07         0.14435E-19         0.00000E+00
    0.34110E-07         0.72177E-20         0.00000E+00
    0.34109E-07         0.89640E-20         0.00000E+00
    0.34108E-07         0.13970E-20         0.00000E+00
    0.36153E-07         0.10710E-19         0.00000E+00
    0.36151E-07         0.16531E-19         0.00000E+00
    0.36148E-07         0.33993E-19         0.00000E+00
    0.36144E-07         0.20489E-19         0.00000E+00
    0.36137E-07         0.30734E-19         0.00000E+00
    0.36130E-07         0.36554E-19         0.00000E+00
    0.36121E-07         0.18394E-19         0.00000E+00
    0.36110E-07         0.27474E-19         0.00000E+00
    0.36098E-07         0.19325E-19         0.00000E+00
    0.36085E-07         0.32131E-19         0.00000E+00
    0.36070E-07         0.30268E-19         0.00000E+00
    0.36054E-07         0.81491E-20         0.00000E+00
    0.36036E-07        -0.16298E-20         0.00000E+00
    0.36018E-07         0.67521E-20         0.00000E+00
    0.35998E-07         0.86147E-20         0.00000E+00
    0.35976E-07        -0.55879E-20         0.00000E+00
    0.35954E-07        -0.34925E-20         0.00000E+00
    0.35930E-07         0.13970E-20         0.00000E+00
    0.35906E-07        -0.13970E-19         0.00000E+00
    0.35880E-07        -0.10245E-19         0.00000E+00
    0.35853E-07         0.30268E-20         0.00000E+00
    0.35825E-07         0.32596E-20         0.00000E+00
    0.35797E-07         0.18394E-19         0.00000E+00
    0.35767E-07         0.12573E-19         0.00000E+00
    0.35737E-07         0.12107E-19         0.00000E+00
    0.35706E-07         0.16298E-19         0.00000E+00
    0.35675E-07         0.83819E-20         0.00000E+00
    0.35643E-07         0.41910E-20         0.00000E+00
    0.35610E-07         0.32596E-20         0.00000E+00
    0.35576E-07        -0.16298E-20         0.00000E+00
    0.35543E-07        -0.60536E-20         0.00000E+00
    0.35508E-07         0.14435E-19         0.00000E+00
    0.35474E-07         0.16298E-20         0.00000E+00
    0.35439E-07        -0.20023E-19         0.00000E+00
    0.35404E-07         0.18626E-20         0.00000E+00
    0.35369E-07         0.44238E-20         0.00000E+00
    0.35334E-07         0.81491E-20         0.00000E+00
    0.35298E-07         0.27940E-20         0.00000E+00
    0.35263E-07        -0.11642E-20         0.00000E+00
    0.35227E-07         0.32596E-20         0.00000E+00
    0.35192E-07         0.16531E-19         0.00000E+00
    0.35157E-07         0.14435E-19         0.00000E+00
    0.35122E-07         0.00000E+00         0.00000E+00
    0.35087E-07        -0.11642E-20         0.00000E+00
    0.35053E-07         0.55879E-20         0.00000E+00
    0.35019E-07         0.25611E-20         0.00000E+00
    0.34985E-07         0.32596E-20         0.00000E+00
    0.34951E-07         0.21886E-19         0.00000E+00
    0.34918E-07        -0.46566E-21         0.00000E+00
    0.34886E-07        -0.97789E-20         0.00000E+00
    0.34854E-07         0.18161E-19         0.00000E+00
    0.34822E-07         0.16531E-19         0.00000E+00
    0.34791E-07         0.41910E-20         0.00000E+00
    0.34761E-07         0.32596E-20         0.00000E+00
    0.34731E-07        -0.13970E-20         0.00000E+00
    0.34702E-07         0.23283E-20         0.00000E+00
    0.34674E-07         0.83819E-20         0.00000E+00
    0.34646E-07        -0.11176E-19         0.00000E+00
    0.34619E-07        -0.12107E-19         0.00000E+00
    0.34592E-07        -0.25611E-20         0.00000E+00
    0.34566E-07        -0.11642E-20         0.00000E+00
    0.34541E-07        -0.79162E-20         0.00000E+00
    0.34517E-07        -0.11874E-19         0.00000E+00
    0.34494E-07        -0.79162E-20         0.00000E+00
    0.34471E-07        -0.16764E-19         0.00000E+00
    0.34449E-07        -0.15367E-19         0.00000E+00
    0.34428E-07         0.25611E-20         0.00000E+00
    0.34407E-07         0.12107E-19         0.00000E+00
    0.34388E-07        -0.13970E-20         0.00000E+00
    0.34369E-07         0.10710E-19         0.00000E+00
    0.34350E-07         0.11176E-19         0.00000E+00
    0.34333E-07        -0.13970E-20         0.00000E+00
    0.34316E-07         0.23283E-20         0.00000E+00
    0.34300E-07         0.76834E-20         0.00000E+00
    0.34285E-07         0.20955E-19         0.00000E+00
    0.34271E-07         0.25146E-19         0.00000E+00
    0.34257E-07         0.14668E-19         0.00000E+00
    0.34244E-07         0.26776E-19         0.00000E+00
    0.34231E-07         0.11642E-19         0.00000E+00
    0.34219E-07         0.27940E-20         0.00000E+00
    0.34208E-07         0.10943E-19         0.00000E+00
    0.34198E-07         0.79162E-20         0.00000E+00
    0.34188E-07         0.11176E-19         0.00000E+00
    0.34179E-07         0.21653E-19         0.00000E+00
    0.34170E-07         0.26310E-19         0.00000E+00
    0.34162E-07         0.17928E-19         0.00000E+00
    0.34155E-07         0.16764E-19         0.00000E+00
    0.34148E-07         0.18859E-19         0.00000E+00
    0.34142E-07         0.96625E-20         0.00000E+00
    0.34136E-07         0.86147E-20         0.00000E+00
    0.34131E-07         0.16298E-19         0.00000E+00
    0.34127E-07         0.16880E-19         0.00000E+00
    0.34122E-07         0.17462E-19         0.00000E+00
    0.34119E-07         0.91968E-20         0.00000E+00
    0.34116E-07         0.98953E-20         0.00000E+00
    0.34113E-07         0.25262E-19         0.00000E+00
    0.34111E-07         0.24913E-19         0.00000E+00
    0.34110E-07         0.82655E-20         0.00000E+00
    0.34109E-07         0.20955E-20         0.00000E+00
    0.34108E-07        -0.26776E-20         0.00000E+00
    0.36153E-07        -0.51223E-20         0.00000E+00
    0.36151E-07         0.23516E-19         0.00000E+00
    0.36148E-07         0.59139E-19         0.00000E+00
    0.36144E-07         0.34925E-19         0.00000E+00
    0.36137E-07         0.13970E-19         0.00000E+00
    0.36130E-07         0.37020E-19         0.00000E+00
    0.36121E-07         0.40745E-19         0.00000E+00
    0.36110E-07         0.20023E-19         0.00000E+00
    0.36098E-07         0.58208E-20         0.00000E+00
    0.36085E-07         0.34925E-20         0.00000E+00
    0.36070E-07        -0.67521E-20         0.00000E+00
    0.36054E-07        -0.69849E-21         0.00000E+00
    0.36036E-07         0.25611E-20         0.00000E+00
    0.36018E-07        -0.60536E-20         0.00000E+00
    0.35998E-07        -0.15832E-19         0.00000E+00
    0.35976E-07        -0.17229E-19         0.00000E+00
    0.35954E-07        -0.72177E-20         0.00000E+00
    0.35930E-07        -0.15832E-19         0.00000E+00
    0.35906E-07        -0.44238E-20         0.00000E+00
    0.35880E-07        -0.48894E-20         0.00000E+00
    0.35853E-07        -0.14203E-19         0.00000E+00
    0.35825E-07        -0.37253E-20         0.00000E+00
    0.35797E-07         0.11874E-19         0.00000E+00
    0.35767E-07         0.19558E-19         0.00000E+00
    0.35737E-07         0.62864E-20         0.00000E+00
    0.35706E-07         0.88476E-20         0.00000E+00
    0.35675E-07         0.15134E-19         0.00000E+00
    0.35643E-07         0.11642E-20         0.00000E+00
    0.35610E-07        -0.46566E-20         0.00000E+00
    0.35576E-07        -0.37616E-36         0.00000E+00
    0.35543E-07         0.62864E-20         0.00000E+00
    0.35508E-07         0.69849E-21         0.00000E+00
    0.35474E-07         0.25611E-20         0.00000E+00
    0.35439E-07        -0.62864E-20         0.00000E+00
    0.35404E-07         0.86147E-20         0.00000E+00
    0.35369E-07         0.27241E-19         0.00000E+00
    0.35334E-07         0.26077E-19         0.00000E+00
    0.35298E-07         0.18161E-19         0.00000E+00
    0.35263E-07         0.39581E-20         0.00000E+00
    0.35227E-07        -0.23283E-20         0.00000E+00
    0.35192E-07         0.79162E-20         0.00000E+00
    0.35157E-07         0.13970E-19         0.00000E+00
    0.35122E-07         0.20489E-19         0.00000E+00
    0.35087E-07        -0.23283E-21         0.00000E+00
    0.35053E-07         0.27940E-20         0.00000E+00
    0.35019E-07         0.83819E-20         0.00000E+00
    0.34985E-07        -0.30268E-20         0.00000E+00
    0.34951E-07         0.79162E-20         0.00000E+00
    0.34918E-07         0.10245E-19         0.00000E+00
    0.34886E-07         0.90804E-20         0.00000E+00
    0.34854E-07         0.58208E-20         0.00000E+00
    0.34822E-07         0.32596E-20         0.00000E+00
    0.34791E-07         0.60536E-20         0.00000E+00
    0.34761E-07         0.69849E-20         0.00000E+00
    0.34731E-07         0.23283E-20         0.00000E+00
    0.34702E-07         0.81491E-20         0.00000E+00
    0.34674E-07         0.16764E-19         0.00000E+00
    0.34646E-07         0.95461E-20         0.00000E+00
    0.34619E-07         0.93132E-20         0.00000E+00
    0.34592E-07         0.46566E-21         0.00000E+00
    0.34566E-07        -0.12340E-19         0.00000E+00
    0.34541E-07        -0.46566E-20         0.00000E+00
    0.34517E-07         0.34925E-20         0.00000E+00
    0.34494E-07         0.76834E-20         0.00000E+00
    0.34471E-07         0.74506E-20         0.00000E+00
    0.34449E-07         0.12573E-19         0.00000E+00
    0.34428E-07         0.95461E-20         0.00000E+00
    0.34407E-07         0.14435E-19         0.00000E+00
    0.34388E-07         0.25611E-20         0.00000E+00
    0.34369E-07        -0.69849E-20         0.00000E+00
    0.34350E-07        -0.13970E-20         0.00000E+00
    0.34333E-07         0.79162E-20         0.00000E+00
    0.34316E-07         0.17462E-19         0.00000E+00
    0.34300E-07         0.21886E-19         0.00000E+00
    0.34285E-07         0.23516E-19         0.00000E+00
    0.34271E-07         0.20722E-19         0.00000E+00
    0.34257E-07         0.20722E-19         0.00000E+00
    0.34244E-07         0.16065E-19         0.00000E+00
    0.34231E-07         0.15832E-19         0.00000E+00
    0.34219E-07         0.10245E-19         0.00000E+00
    0.34208E-07         0.11642E-19         0.00000E+00
    0.34198E-07         0.12806E-19         0.00000E+00
    0.34188E-07         0.14668E-19         0.00000E+00
    0.34179E-07         0.17695E-19         0.00000E+00
    0.34170E-07         0.12573E-19         0.00000E+00
    0.34162E-07         0.16997E-19         0.00000E+00
    0.34155E-07         0.11642E-19         0.00000E+00
    0.34148E-07         0.50059E-20         0.00000E+00
    0.34142E-07         0.57044E-20         0.00000E+00
    0.34136E-07         0.72177E-20         0.00000E+00
    0.34131E-07         0.79162E-20         0.00000E+00
    0.34127E-07         0.95461E-20         0.00000E+00
    0.34122E-07         0.11409E-19         0.00000E+00
    0.34119E-07         0.16880E-19         0.00000E+00
    0.34116E-07         0.28173E-19         0.00000E+00
    0.34113E-07         0.19092E-19         0.00000E+00
    0.34111E-07         0.69849E-21         0.00000E+00
    0.34110E-07         0.27940E-20         0.00000E+00
    0.34109E-07         0.67521E-20         0.00000E+00
    0.34108E-07         0.38417E-20         0.00000E+00
    0.36153E-07        -0.18626E-20         0.00000E+00
    0.36151E-07         0.27707E-19         0.00000E+00
    0.36148E-07         0.52154E-19         0.00000E+00
    0.36144E-07         0.46566E-19         0.00000E+00
    0.36137E-07         0.40047E-19         0.00000E+00
    0.36130E-07         0.51921E-19         0.00000E+00
    0.36121E-07         0.64028E-19         0.00000E+00
    0.36110E-07         0.29337E-19         0.00000E+00
    0.36098E-07         0.27940E-20         0.00000E+00
    0.36085E-07         0.12573E-19         0.00000E+00
    0.36070E-07         0.10943E-19         0.00000E+00
    0.36054E-07         0.37253E-20         0.00000E+00
    0.36036E-07        -0.55879E-20         0.00000E+00
    0.36018E-07        -0.81491E-20         0.00000E+00
    0.35998E-07         0.62864E-20         0.00000E+00
    0.35976E-07         0.62864E-20         0.00000E+00
    0.35954E-07         0.53551E-20         0.00000E+00
    0.35930E-07        -0.17462E-19         0.00000E+00
    0.35906E-07        -0.65193E-20         0.00000E+00
    0.35880E-07         0.33993E-19         0.00000E+00
    0.35853E-07         0.14668E-19         0.00000E+00
    0.35825E-07        -0.10943E-19         0.00000E+00
    0.35797E-07         0.79162E-20         0.00000E+00
    0.35767E-07         0.17229E-19         0.00000E+00
    0.35737E-07         0.13039E-19         0.00000E+00
    0.35706E-07         0.21420E-19         0.00000E+00
    0.35675E-07         0.14435E-19         0.00000E+00
    0.35643E-07        -0.65193E-20         0.00000E+00
    0.35610E-07        -0.86147E-20         0.00000E+00
    0.35576E-07        -0.18161E-19         0.00000E+00
    0.35543E-07         0.23283E-20         0.00000E+00
    0.35508E-07         0.25611E-19         0.00000E+00
    0.35474E-07         0.21653E-19         0.00000E+00
    0.35439E-07         0.14435E-19         0.00000E+00
    0.35404E-07         0.97789E-20         0.00000E+00
    0.35369E-07        -0.23283E-21         0.00000E+00
    0.35334E-07         0.17928E-19         0.00000E+00
    0.35298E-07         0.23050E-19         0.00000E+00
    0.35263E-07         0.10710E-19         0.00000E+00
    0.35227E-07         0.20489E-19         0.00000E+00
    0.35192E-07         0.28405E-19         0.00000E+00
    0.35157E-07         0.27474E-19         0.00000E+00
    0.35122E-07         0.18626E-19         0.00000E+00
    0.35087E-07         0.27940E-20         0.00000E+00
    0.35053E-07        -0.34925E-20         0.00000E+00
    0.35019E-07        -0.62864E-20         0.00000E+00
    0.34985E-07        -0.30268E-20         0.00000E+00
    0.34951E-07         0.14435E-19         0.00000E+00
    0.34918E-07         0.14435E-19         0.00000E+00
    0.34886E-07         0.20489E-19         0.00000E+00
    0.34854E-07         0.72177E-20         0.00000E+00
    0.34822E-07         0.51223E-20         0.00000E+00
    0.34791E-07         0.12806E-19         0.00000E+00
    0.34761E-07         0.11642E-19         0.00000E+00
    0.34731E-07         0.10245E-19         0.00000E+00
    0.34702E-07         0.11176E-19         0.00000E+00
    0.34674E-07         0.74506E-20         0.00000E+00
    0.34646E-07         0.41910E-20         0.00000E+00
    0.34619E-07         0.74506E-20         0.00000E+00
    0.34592E-07        -0.86147E-20         0.00000E+00
    0.34566E-07        -0.37253E-20         0.00000E+00
    0.34541E-07         0.23283E-20         0.00000E+00
    0.34517E-07         0.67521E-20         0.00000E+00
    0.34494E-07         0.90804E-20         0.00000E+00
    0.34471E-07         0.95461E-20         0.00000E+00
    0.34449E-07         0.10477E-19         0.00000E+00
    0.34428E-07        -0.46566E-21         0.00000E+00
    0.34407E-07        -0.60536E-20         0.00000E+00
    0.34388E-07         0.69849E-20         0.00000E+00
    0.34369E-07         0.48894E-20         0.00000E+00
    0.34350E-07         0.21886E-19         0.00000E+00
    0.34333E-07         0.18161E-19         0.00000E+00
    0.34316E-07         0.11642E-19         0.00000E+00
    0.34300E-07         0.14668E-19         0.00000E+00
    0.34285E-07         0.24447E-19         0.00000E+00
    0.34271E-07         0.28405E-19         0.00000E+00
    0.34257E-07         0.28638E-19         0.00000E+00
    0.34244E-07         0.30035E-19         0.00000E+00
    0.34231E-07         0.16764E-19         0.00000E+00
    0.34219E-07         0.15367E-19         0.00000E+00
    0.34208E-07         0.27241E-19         0.00000E+00
    0.34198E-07         0.18859E-19         0.00000E+00
    0.34188E-07         0.16764E-19         0.00000E+00
    0.34179E-07         0.17695E-19         0.00000E+00
    0.34170E-07         0.20955E-19         0.00000E+00
    0.34162E-07         0.31432E-19         0.00000E+00
    0.34155E-07         0.15600E-19         0.00000E+00
    0.34148E-07         0.18859E-19         0.00000E+00
    0.34142E-07         0.27823E-19         0.00000E+00
    0.34136E-07         0.13504E-19         0.00000E+00
    0.34131E-07         0.97789E-20         0.00000E+00
    0.34127E-07         0.21188E-19         0.00000E+00
    0.34122E-07         0.22002E-19         0.00000E+00
    0.34119E-07         0.14435E-19         0.00000E+00
    0.34116E-07         0.14086E-19         0.00000E+00
    0.34113E-07         0.25146E-19         0.00000E+00
    0.34111E-07         0.17346E-19         0.00000E+00
    0.34110E-07         0.12107E-19         0.00000E+00
    0.34109E-07         0.14552E-19         0.00000E+00
    0.34108E-07         0.66357E-20         0.00000E+00
    0.36153E-07         0.14901E-19         0.00000E+00
    0.36151E-07         0.33760E-19         0.00000E+00
    0.36148E-07         0.42375E-19         0.00000E+00
    0.36144E-07         0.47963E-19         0.00000E+00
    0.36137E-07         0.44238E-19         0.00000E+00
    0.36130E-07         0.38650E-19         0.00000E+00
    0.36121E-07         0.38883E-19         0.00000E+00
    0.36110E-07         0.33993E-19         0.00000E+00
    0.36098E-07         0.23516E-19         0.00000E+00
    0.36085E-07         0.83819E-20         0.00000E+00
    0.36070E-07         0.12340E-19         0.00000E+00
    0.36054E-07        -0.34925E-20         0.00000E+00
    0.36036E-07        -0.10477E-19         0.00000E+00
    0.36018E-07         0.53551E-20         0.00000E+00
    0.35998E-07         0.10477E-19         0.00000E+00
    0.35976E-07         0.17229E-19         0.00000E+00
    0.35954E-07         0.20256E-19         0.00000E+00
    0.35930E-07         0.16764E-19         0.00000E+00
    0.35906E-07         0.23749E-19         0.00000E+00
    0.35880E-07         0.22817E-19         0.00000E+00
    0.35853E-07         0.13039E-19         0.00000E+00
    0.35825E-07         0.12340E-19         0.00000E+00
    0.35797E-07         0.30966E-19         0.00000E+00
    0.35767E-07         0.31665E-19         0.00000E+00
    0.35737E-07         0.19791E-19         0.00000E+00
    0.35706E-07         0.21420E-19         0.00000E+00
    0.35675E-07         0.76834E-20         0.00000E+00
    0.35643E-07        -0.69849E-21         0.00000E+00
    0.35610E-07         0.51223E-20         0.00000E+00
    0.35576E-07         0.24680E-19         0.00000E+00
    0.35543E-07         0.27940E-19         0.00000E+00
    0.35508E-07         0.12107E-19         0.00000E+00
    0.35474E-07         0.93132E-20         0.00000E+00
    0.35439E-07         0.51223E-20         0.00000E+00
    0.35404E-07         0.13970E-20         0.00000E+00
    0.35369E-07         0.16764E-19         0.00000E+00
    0.35334E-07         0.30035E-19         0.00000E+00
    0.35298E-07         0.24447E-19         0.00000E+00
    0.35263E-07         0.10710E-19         0.00000E+00
    0.35227E-07         0.16764E-19         0.00000E+00
    0.35192E-07         0.23982E-19         0.00000E+00
    0.35157E-07         0.31199E-19         0.00000E+00
    0.35122E-07         0.27241E-19         0.00000E+00
    0.35087E-07         0.51223E-20         0.00000E+00
    0.35053E-07         0.27940E-20         0.00000E+00
    0.35019E-07         0.58208E-20         0.00000E+00
    0.34985E-07         0.17462E-19         0.00000E+00
    0.34951E-07         0.38417E-19         0.00000E+00
    0.34918E-07         0.32829E-19         0.00000E+00
    0.34886E-07         0.21653E-19         0.00000E+00
    0.34854E-07         0.29337E-19         0.00000E+00
    0.34822E-07         0.35856E-19         0.00000E+00
    0.34791E-07         0.15134E-19         0.00000E+00
    0.34761E-07         0.13970E-19         0.00000E+00
    0.34731E-07         0.17229E-19         0.00000E+00
    0.34702E-07         0.11176E-19         0.00000E+00
    0.34674E-07         0.20955E-20         0.00000E+00
    0.34646E-07         0.95461E-20         0.00000E+00
    0.34619E-07         0.10245E-19         0.00000E+00
    0.34592E-07        -0.55879E-20         0.00000E+00
    0.34566E-07        -0.10943E-19         0.00000E+00
    0.34541E-07         0.37253E-20         0.00000E+00
    0.34517E-07         0.20023E-19         0.00000E+00
    0.34494E-07         0.58208E-20         0.00000E+00
    0.34471E-07         0.23283E-20         0.00000E+00
    0.34449E-07         0.20489E-19         0.00000E+00
    0.34428E-07         0.17928E-19         0.00000E+00
    0.34407E-07         0.11874E-19         0.00000E+00
    0.34388E-07         0.20955E-19         0.00000E+00
    0.34369E-07         0.22352E-19         0.00000E+00
    0.34350E-07         0.20023E-19         0.00000E+00
    0.34333E-07         0.23516E-19         0.00000E+00
    0.34316E-07         0.23050E-19         0.00000E+00
    0.34300E-07         0.34692E-19         0.00000E+00
    0.34285E-07         0.40513E-19         0.00000E+00
    0.34271E-07         0.51688E-19         0.00000E+00
    0.34257E-07         0.40047E-19         0.00000E+00
    0.34244E-07         0.35856E-19         0.00000E+00
    0.34231E-07         0.33993E-19         0.00000E+00
    0.34219E-07         0.22352E-19         0.00000E+00
    0.34208E-07         0.18859E-19         0.00000E+00
    0.34198E-07         0.25611E-19         0.00000E+00
    0.34188E-07         0.20722E-19         0.00000E+00
    0.34179E-07         0.20955E-19         0.00000E+00
    0.34170E-07         0.27707E-19         0.00000E+00
    0.34162E-07         0.31199E-19         0.00000E+00
    0.34155E-07         0.37719E-19         0.00000E+00
    0.34148E-07         0.29802E-19         0.00000E+00
    0.34142E-07         0.16997E-19         0.00000E+00
    0.34136E-07         0.23749E-19         0.00000E+00
    0.34131E-07         0.40513E-19         0.00000E+00
    0.34127E-07         0.43306E-19         0.00000E+00
    0.34122E-07         0.31199E-19         0.00000E+00
    0.34119E-07         0.22701E-19         0.00000E+00
    0.34116E-07         0.21071E-19         0.00000E+00
    0.34113E-07         0.14435E-19         0.00000E+00
    0.34111E-07         0.95461E-20         0.00000E+00
    0.34110E-07         0.11642E-19         0.00000E+00
    0.34109E-07         0.13853E-19         0.00000E+00
    0.34108E-07         0.53551E-20         0.00000E+00
    0.36153E-07         0.51223E-20         0.00000E+00
    0.36151E-07         0.26077E-19         0.00000E+00
    0.36148E-07         0.28871E-19         0.00000E+00
    0.36144E-07         0.58208E-19         0.00000E+00
    0.36137E-07         0.36322E-19         0.00000E+00
    0.36130E-07         0.62864E-20         0.00000E+00
    0.36121E-07         0.40280E-19         0.00000E+00
    0.36110E-07         0.24680E-19         0.00000E+00
    0.36098E-07         0.20955E-20         0.00000E+00
    0.36085E-07         0.35390E-19         0.00000E+00
    0.36070E-07         0.52387E-19         0.00000E+00
    0.36054E-07         0.20722E-19         0.00000E+00
    0.36036E-07         0.19791E-19         0.00000E+00
    0.36018E-07         0.33062E-19         0.00000E+00
    0.35998E-07        -0.13970E-20         0.00000E+00
    0.35976E-07         0.60536E-20         0.00000E+00
    0.35954E-07         0.17695E-19         0.00000E+00
    0.35930E-07         0.88476E-20         0.00000E+00
    0.35906E-07         0.21653E-19         0.00000E+00
    0.35880E-07         0.27707E-19         0.00000E+00
    0.35853E-07         0.21653E-19         0.00000E+00
    0.35825E-07         0.18161E-19         0.00000E+00
    0.35797E-07         0.25844E-19         0.00000E+00
    0.35767E-07         0.18626E-19         0.00000E+00
    0.35737E-07         0.13039E-19         0.00000E+00
    0.35706E-07         0.18161E-19         0.00000E+00
    0.35675E-07         0.55879E-20         0.00000E+00
    0.35643E-07        -0.14668E-19         0.00000E+00
    0.35610E-07        -0.95461E-20         0.00000E+00
    0.35576E-07         0.16298E-20         0.00000E+00
    0.35543E-07         0.12107E-19         0.00000E+00
    0.35508E-07         0.13271E-19         0.00000E+00
    0.35474E-07         0.15134E-19         0.00000E+00
    0.35439E-07         0.15832E-19         0.00000E+00
    0.35404E-07         0.26077E-19         0.00000E+00
    0.35369E-07         0.31432E-19         0.00000E+00
    0.35334E-07         0.19791E-19         0.00000E+00
    0.35298E-07         0.25379E-19         0.00000E+00
    0.35263E-07         0.25379E-19         0.00000E+00
    0.35227E-07         0.14901E-19         0.00000E+00
    0.35192E-07         0.15600E-19         0.00000E+00
    0.35157E-07         0.27474E-19         0.00000E+00
    0.35122E-07         0.10245E-19         0.00000E+00
    0.35087E-07        -0.46566E-20         0.00000E+00
    0.35053E-07         0.86147E-20         0.00000E+00
    0.35019E-07         0.88476E-20         0.00000E+00
    0.34985E-07         0.46566E-21         0.00000E+00
    0.34951E-07         0.20955E-20         0.00000E+00
    0.34918E-07         0.13039E-19         0.00000E+00
    0.34886E-07         0.19092E-19         0.00000E+00
    0.34854E-07         0.20023E-19         0.00000E+00
    0.34822E-07         0.26077E-19         0.00000E+00
    0.34791E-07         0.27008E-19         0.00000E+00
    0.34761E-07         0.21886E-19         0.00000E+00
    0.34731E-07         0.26077E-19         0.00000E+00
    0.34702E-07         0.13970E-19         0.00000E+00
    0.34674E-07         0.18161E-19         0.00000E+00
    0.34646E-07         0.19325E-19         0.00000E+00
    0.34619E-07         0.48894E-20         0.00000E+00
    0.34592E-07         0.11409E-19         0.00000E+00
    0.34566E-07         0.58208E-20         0.00000E+00
    0.34541E-07        -0.37253E-20         0.00000E+00
    0.34517E-07        -0.69849E-21         0.00000E+00
    0.34494E-07        -0.44238E-20         0.00000E+00
    0.34471E-07         0.30268E-20         0.00000E+00
    0.34449E-07         0.67521E-20         0.00000E+00
    0.34428E-07         0.12806E-19         0.00000E+00
    0.34407E-07         0.11642E-19         0.00000E+00
    0.34388E-07         0.18859E-19         0.00000E+00
    0.34369E-07         0.20489E-19         0.00000E+00
    0.34350E-07         0.81491E-20         0.00000E+00
    0.34333E-07         0.41910E-20         0.00000E+00
    0.34316E-07         0.23516E-19         0.00000E+00
    0.34300E-07         0.49360E-19         0.00000E+00
    0.34285E-07         0.41677E-19         0.00000E+00
    0.34271E-07         0.32131E-19         0.00000E+00
    0.34257E-07         0.26543E-19         0.00000E+00
    0.34244E-07         0.31665E-19         0.00000E+00
    0.34231E-07         0.32131E-19         0.00000E+00
    0.34219E-07         0.22352E-19         0.00000E+00
    0.34208E-07         0.44238E-20         0.00000E+00
    0.34198E-07         0.97789E-20         0.00000E+00
    0.34188E-07         0.23982E-19         0.00000E+00
    0.34179E-07         0.30966E-19         0.00000E+00
    0.34170E-07         0.26776E-19         0.00000E+00
    0.34162E-07         0.25844E-19         0.00000E+00
    0.34155E-07         0.25611E-19         0.00000E+00
    0.34148E-07         0.23050E-19         0.00000E+00
    0.34142E-07         0.19791E-19         0.00000E+00
    0.34136E-07         0.12806E-19         0.00000E+00
    0.34131E-07         0.24331E-19         0.00000E+00
    0.34127E-07         0.34343E-19         0.00000E+00
    0.34122E-07         0.35972E-19         0.00000E+00
    0.34119E-07         0.34343E-19         0.00000E+00
    0.34116E-07         0.32713E-19         0.00000E+00
    0.34113E-07         0.10245E-19         0.00000E+00
    0.34111E-07         0.32596E-20         0.00000E+00
    0.34110E-07         0.11642E-19         0.00000E+00
    0.34109E-07         0.24447E-20         0.00000E+00
    0.34108E-07        -0.13970E-20         0.00000E+00
    0.36153E-07         0.32131E-19         0.00000E+00
    0.36151E-07         0.35856E-19         0.00000E+00
    0.36148E-07         0.21420E-19         0.00000E+00
    0.36144E-07         0.50757E-19         0.00000E+00
    0.36137E-07         0.63796E-19         0.00000E+00
    0.36130E-07         0.26077E-19         0.00000E+00
    0.36121E-07         0.30734E-19         0.00000E+00
    0.36110E-07         0.41677E-19         0.00000E+00
    0.36098E-07         0.34459E-19         0.00000E+00
    0.36085E-07         0.27241E-19         0.00000E+00
    0.36070E-07         0.19325E-19         0.00000E+00
    0.36054E-07         0.43772E-19         0.00000E+00
    0.36036E-07         0.40047E-19         0.00000E+00
    0.36018E-07         0.30734E-19         0.00000E+00
    0.35998E-07         0.31898E-19         0.00000E+00
    0.35976E-07         0.10012E-19         0.00000E+00
    0.35954E-07        -0.18626E-20         0.00000E+00
    0.35930E-07        -0.93132E-20         0.00000E+00
    0.35906E-07        -0.15134E-19         0.00000E+00
    0.35880E-07         0.88476E-20         0.00000E+00
    0.35853E-07         0.12806E-19         0.00000E+00
    0.35825E-07        -0.93132E-21         0.00000E+00
    0.35797E-07         0.10012E-19         0.00000E+00
    0.35767E-07         0.16764E-19         0.00000E+00
    0.35737E-07         0.14203E-19         0.00000E+00
    0.35706E-07         0.97789E-20         0.00000E+00
    0.35675E-07         0.34925E-20         0.00000E+00
    0.35643E-07        -0.16065E-19         0.00000E+00
    0.35610E-07        -0.20489E-19         0.00000E+00
    0.35576E-07        -0.74506E-20         0.00000E+00
    0.35543E-07        -0.34925E-20         0.00000E+00
    0.35508E-07        -0.37253E-20         0.00000E+00
    0.35474E-07        -0.14668E-19         0.00000E+00
    0.35439E-07        -0.12340E-19         0.00000E+00
    0.35404E-07        -0.69849E-21         0.00000E+00
    0.35369E-07         0.72177E-20         0.00000E+00
    0.35334E-07         0.41910E-20         0.00000E+00
    0.35298E-07        -0.10710E-19         0.00000E+00
    0.35263E-07         0.88476E-20         0.00000E+00
    0.35227E-07         0.12340E-19         0.00000E+00
    0.35192E-07        -0.20955E-20         0.00000E+00
    0.35157E-07         0.16065E-19         0.00000E+00
    0.35122E-07         0.83819E-20         0.00000E+00
    0.35087E-07         0.53551E-20         0.00000E+00
    0.35053E-07        -0.83819E-20         0.00000E+00
    0.35019E-07        -0.20722E-19         0.00000E+00
    0.34985E-07        -0.11642E-20         0.00000E+00
    0.34951E-07         0.83819E-20         0.00000E+00
    0.34918E-07         0.19092E-19         0.00000E+00
    0.34886E-07         0.12340E-19         0.00000E+00
    0.34854E-07         0.41910E-20         0.00000E+00
    0.34822E-07         0.10710E-19         0.00000E+00
    0.34791E-07         0.16764E-19         0.00000E+00
    0.34761E-07         0.25146E-19         0.00000E+00
    0.34731E-07         0.23283E-19         0.00000E+00
    0.34702E-07         0.17229E-19         0.00000E+00
    0.34674E-07         0.14668E-19         0.00000E+00
    0.34646E-07         0.31199E-19         0.00000E+00
    0.34619E-07         0.12573E-19         0.00000E+00
    0.34592E-07        -0.13737E-19         0.00000E+00
    0.34566E-07        -0.25844E-19         0.00000E+00
    0.34541E-07        -0.21886E-19         0.00000E+00
    0.34517E-07        -0.14901E-19         0.00000E+00
    0.34494E-07        -0.97789E-20         0.00000E+00
    0.34471E-07        -0.90804E-20         0.00000E+00
    0.34449E-07        -0.13271E-19         0.00000E+00
    0.34428E-07         0.46566E-20         0.00000E+00
    0.34407E-07         0.83819E-20         0.00000E+00
    0.34388E-07        -0.55879E-20         0.00000E+00
    0.34369E-07         0.30268E-20         0.00000E+00
    0.34350E-07         0.23283E-20         0.00000E+00
    0.34333E-07         0.37253E-20         0.00000E+00
    0.34316E-07         0.13271E-19         0.00000E+00
    0.34300E-07         0.26077E-19         0.00000E+00
    0.34285E-07         0.33062E-19         0.00000E+00
    0.34271E-07         0.23050E-19         0.00000E+00
    0.34257E-07         0.43306E-19         0.00000E+00
    0.34244E-07         0.45635E-19         0.00000E+00
    0.34231E-07         0.22817E-19         0.00000E+00
    0.34219E-07         0.19092E-19         0.00000E+00
    0.34208E-07         0.20955E-19         0.00000E+00
    0.34198E-07         0.26776E-19         0.00000E+00
    0.34188E-07         0.27940E-19         0.00000E+00
    0.34179E-07         0.21188E-19         0.00000E+00
    0.34170E-07         0.20489E-19         0.00000E+00
    0.34162E-07         0.40047E-19         0.00000E+00
    0.34155E-07         0.33062E-19         0.00000E+00
    0.34148E-07         0.12806E-19         0.00000E+00
    0.34142E-07         0.24214E-19         0.00000E+00
    0.34136E-07         0.36787E-19         0.00000E+00
    0.34131E-07         0.25611E-19         0.00000E+00
    0.34127E-07         0.26193E-19         0.00000E+00
    0.34122E-07         0.34110E-19         0.00000E+00
    0.34119E-07         0.24564E-19         0.00000E+00
    0.34116E-07         0.74506E-20         0.00000E+00
    0.34113E-07         0.83819E-20         0.00000E+00
    0.34111E-07         0.41910E-20         0.00000E+00
    0.34110E-07         0.27940E-20         0.00000E+00
    0.34109E-07         0.17462E-20         0.00000E+00
    0.34108E-07         0.17462E-20         0.00000E+00
    0.36153E-07         0.18859E-19         0.00000E+00
    0.36151E-07         0.30035E-19         0.00000E+00
    0.36148E-07         0.29569E-19         0.00000E+00
    0.36144E-07         0.46333E-19         0.00000E+00
    0.36137E-07         0.61700E-19         0.00000E+00
    0.36130E-07         0.49360E-19         0.00000E+00
    0.36121E-07         0.24447E-19         0.00000E+00
    0.36110E-07         0.33062E-19         0.00000E+00
    0.36098E-07         0.55181E-19         0.00000E+00
    0.36085E-07         0.37020E-19         0.00000E+00
    0.36070E-07         0.24680E-19         0.00000E+00
    0.36054E-07         0.23516E-19         0.00000E+00
    0.36036E-07         0.42841E-19         0.00000E+00
    0.36018E-07         0.60070E-19         0.00000E+00
    0.35998E-07         0.34692E-19         0.00000E+00
    0.35976E-07         0.90804E-20         0.00000E+00
    0.35954E-07        -0.11874E-19         0.00000E+00
    0.35930E-07        -0.18626E-19         0.00000E+00
    0.35906E-07         0.83819E-20         0.00000E+00
    0.35880E-07         0.27008E-19         0.00000E+00
    0.35853E-07         0.13737E-19         0.00000E+00
    0.35825E-07         0.13039E-19         0.00000E+00
    0.35797E-07         0.16298E-20         0.00000E+00
    0.35767E-07         0.62864E-20         0.00000E+00
    0.35737E-07         0.27241E-19         0.00000E+00
    0.35706E-07         0.24680E-19         0.00000E+00
    0.35675E-07         0.55879E-20         0.00000E+00
    0.35643E-07        -0.12340E-19         0.00000E+00
    0.35610E-07         0.13970E-20         0.00000E+00
    0.35576E-07         0.69849E-21         0.00000E+00
    0.35543E-07        -0.32596E-20         0.00000E+00
    0.35508E-07         0.79162E-20         0.00000E+00
    0.35474E-07         0.16298E-20         0.00000E+00
    0.35439E-07         0.62864E-20         0.00000E+00
    0.35404E-07         0.23749E-19         0.00000E+00
    0.35369E-07         0.22352E-19         0.00000E+00
    0.35334E-07         0.13737E-19         0.00000E+00
    0.35298E-07         0.25146E-19         0.00000E+00
    0.35263E-07         0.23749E-19         0.00000E+00
    0.35227E-07         0.16531E-19         0.00000E+00
    0.35192E-07         0.27474E-19         0.00000E+00
    0.35157E-07         0.34459E-19         0.00000E+00
    0.35122E-07         0.19325E-19         0.00000E+00
    0.35087E-07         0.12573E-19         0.00000E+00
    0.35053E-07         0.55879E-20         0.00000E+00
    0.35019E-07         0.39581E-20         0.00000E+00
    0.34985E-07        -0.60536E-20         0.00000E+00
    0.34951E-07        -0.60536E-20         0.00000E+00
    0.34918E-07         0.25611E-20         0.00000E+00
    0.34886E-07         0.13504E-19         0.00000E+00
    0.34854E-07         0.18626E-19         0.00000E+00
    0.34822E-07         0.11176E-19         0.00000E+00
    0.34791E-07         0.18394E-19         0.00000E+00
    0.34761E-07         0.23749E-19         0.00000E+00
    0.34731E-07         0.17695E-19         0.00000E+00
    0.34702E-07         0.20955E-19         0.00000E+00
    0.34674E-07         0.25611E-19         0.00000E+00
    0.34646E-07         0.10943E-19         0.00000E+00
    0.34619E-07         0.90804E-20         0.00000E+00
    0.34592E-07        -0.32596E-20         0.00000E+00
    0.34566E-07        -0.17928E-19         0.00000E+00
    0.34541E-07        -0.79162E-20         0.00000E+00
    0.34517E-07         0.46566E-21         0.00000E+00
    0.34494E-07        -0.23283E-21         0.00000E+00
    0.34471E-07        -0.69849E-20         0.00000E+00
    0.34449E-07        -0.25611E-20         0.00000E+00
    0.34428E-07         0.13271E-19         0.00000E+00
    0.34407E-07         0.15367E-19         0.00000E+00
    0.34388E-07         0.17928E-19         0.00000E+00
    0.34369E-07         0.95461E-20         0.00000E+00
    0.34350E-07         0.93132E-20         0.00000E+00
    0.34333E-07         0.24214E-19         0.00000E+00
    0.34316E-07         0.29802E-19         0.00000E+00
    0.34300E-07         0.34226E-19         0.00000E+00
    0.34285E-07         0.26077E-19         0.00000E+00
    0.34271E-07         0.17462E-19         0.00000E+00
    0.34257E-07         0.42375E-19         0.00000E+00
    0.34244E-07         0.30268E-19         0.00000E+00
    0.34231E-07         0.13504E-19         0.00000E+00
    0.34219E-07         0.21420E-19         0.00000E+00
    0.34208E-07         0.19791E-19         0.00000E+00
    0.34198E-07         0.28173E-19         0.00000E+00
    0.34188E-07         0.19092E-19         0.00000E+00
    0.34179E-07         0.16065E-19         0.00000E+00
    0.34170E-07         0.37719E-19         0.00000E+00
    0.34162E-07         0.28638E-19         0.00000E+00
    0.34155E-07         0.26310E-19         0.00000E+00
    0.34148E-07         0.32247E-19         0.00000E+00
    0.34142E-07         0.27008E-19         0.00000E+00
    0.34136E-07         0.26310E-19         0.00000E+00
    0.34131E-07         0.34692E-19         0.00000E+00
    0.34127E-07         0.39465E-19         0.00000E+00
    0.34122E-07         0.22934E-19         0.00000E+00
    0.34119E-07         0.24796E-19         0.00000E+00
    0.34116E-07         0.21071E-19         0.00000E+00
    0.34113E-07         0.95461E-20         0.00000E+00
    0.34111E-07         0.13039E-19         0.00000E+00
    0.34110E-07         0.15600E-19         0.00000E+00
    0.34109E-07         0.10245E-19         0.00000E+00
    0.34108E-07         0.20955E-20         0.00000E+00
    0.36153E-07         0.14435E-19         0.00000E+00
    0.36151E-07         0.27474E-19         0.00000E+00
    0.36148E-07         0.31665E-19         0.00000E+00
    0.36144E-07         0.74506E-20         0.00000E+00
    0.36137E-07         0.25611E-19         0.00000E+00
    0.36130E-07         0.22119E-19         0.00000E+00
    0.36121E-07         0.14668E-19         0.00000E+00
    0.36110E-07         0.73342E-19         0.00000E+00
    0.36098E-07         0.56811E-19         0.00000E+00
    0.36085E-07         0.18859E-19         0.00000E+00
    0.36070E-07         0.18394E-19         0.00000E+00
    0.36054E-07         0.10012E-19         0.00000E+00
    0.36036E-07         0.23516E-19         0.00000E+00
    0.36018E-07         0.19558E-19         0.00000E+00
    0.35998E-07         0.39581E-20         0.00000E+00
    0.35976E-07         0.83819E-20         0.00000E+00
    0.35954E-07         0.11642E-20         0.00000E+00
    0.35930E-07         0.26543E-19         0.00000E+00
    0.35906E-07         0.32596E-19         0.00000E+00
    0.35880E-07         0.11642E-19         0.00000E+00
    0.35853E-07         0.11874E-19         0.00000E+00
    0.35825E-07         0.28405E-19         0.00000E+00
    0.35797E-07         0.44238E-20         0.00000E+00
    0.35767E-07         0.79162E-20         0.00000E+00
    0.35737E-07         0.88476E-20         0.00000E+00
    0.35706E-07        -0.13970E-20         0.00000E+00
    0.35675E-07         0.74506E-20         0.00000E+00
    0.35643E-07         0.13504E-19         0.00000E+00
    0.35610E-07        -0.13970E-20         0.00000E+00
    0.35576E-07        -0.83819E-20         0.00000E+00
    0.35543E-07        -0.44238E-20         0.00000E+00
    0.35508E-07         0.30268E-20         0.00000E+00
    0.35474E-07         0.11642E-19         0.00000E+00
    0.35439E-07         0.51223E-20         0.00000E+00
    0.35404E-07         0.33062E-19         0.00000E+00
    0.35369E-07         0.37719E-19         0.00000E+00
    0.35334E-07         0.19092E-19         0.00000E+00
    0.35298E-07         0.23050E-19         0.00000E+00
    0.35263E-07         0.25611E-19         0.00000E+00
    0.35227E-07         0.16298E-19         0.00000E+00
    0.35192E-07         0.16065E-19         0.00000E+00
    0.35157E-07         0.17928E-19         0.00000E+00
    0.35122E-07         0.15367E-19         0.00000E+00
    0.35087E-07         0.00000E+00         0.00000E+00
    0.35053E-07        -0.16298E-20         0.00000E+00
    0.35019E-07         0.44238E-20         0.00000E+00
    0.34985E-07        -0.39581E-20         0.00000E+00
    0.34951E-07        -0.34925E-20         0.00000E+00
    0.34918E-07         0.81491E-20         0.00000E+00
    0.34886E-07         0.19558E-19         0.00000E+00
    0.34854E-07         0.83819E-20         0.00000E+00
    0.34822E-07         0.44238E-20         0.00000E+00
    0.34791E-07         0.15134E-19         0.00000E+00
    0.34761E-07         0.18626E-19         0.00000E+00
    0.34731E-07         0.18161E-19         0.00000E+00
    0.34702E-07         0.10943E-19         0.00000E+00
    0.34674E-07         0.15367E-19         0.00000E+00
    0.34646E-07        -0.69849E-21         0.00000E+00
    0.34619E-07        -0.11874E-19         0.00000E+00
    0.34592E-07        -0.16298E-19         0.00000E+00
    0.34566E-07        -0.58208E-20         0.00000E+00
    0.34541E-07         0.10245E-19         0.00000E+00
    0.34517E-07        -0.10710E-19         0.00000E+00
    0.34494E-07        -0.17695E-19         0.00000E+00
    0.34471E-07        -0.46566E-20         0.00000E+00
    0.34449E-07         0.67521E-20         0.00000E+00
    0.34428E-07         0.74506E-20         0.00000E+00
    0.34407E-07         0.13970E-19         0.00000E+00
    0.34388E-07         0.24913E-19         0.00000E+00
    0.34369E-07         0.16298E-19         0.00000E+00
    0.34350E-07         0.14901E-19         0.00000E+00
    0.34333E-07         0.34925E-19         0.00000E+00
    0.34316E-07         0.32363E-19         0.00000E+00
    0.34300E-07         0.32829E-19         0.00000E+00
    0.34285E-07         0.23982E-19         0.00000E+00
    0.34271E-07         0.33760E-19         0.00000E+00
    0.34257E-07         0.51688E-19         0.00000E+00
    0.34244E-07         0.36787E-19         0.00000E+00
    0.34231E-07         0.12340E-19         0.00000E+00
    0.34219E-07         0.10245E-19         0.00000E+00
    0.34208E-07         0.23283E-19         0.00000E+00
    0.34198E-07         0.28405E-19         0.00000E+00
    0.34188E-07         0.11874E-19         0.00000E+00
    0.34179E-07         0.18626E-19         0.00000E+00
    0.34170E-07         0.35856E-19         0.00000E+00
    0.34162E-07         0.37486E-19         0.00000E+00
    0.34155E-07         0.35157E-19         0.00000E+00
    0.34148E-07         0.28056E-19         0.00000E+00
    0.34142E-07         0.27940E-19         0.00000E+00
    0.34136E-07         0.33993E-19         0.00000E+00
    0.34131E-07         0.29337E-19         0.00000E+00
    0.34127E-07         0.16647E-19         0.00000E+00
    0.34122E-07         0.22235E-19         0.00000E+00
    0.34119E-07         0.21770E-19         0.00000E+00
    0.34116E-07         0.75670E-20         0.00000E+00
    0.34113E-07         0.10943E-19         0.00000E+00
    0.34111E-07         0.18859E-19         0.00000E+00
    0.34110E-07        -0.18626E-20         0.00000E+00
    0.34109E-07        -0.11059E-19         0.00000E+00
    0.34108E-07         0.27940E-20         0.00000E+00
    0.36153E-07        -0.46566E-21         0.00000E+00
    0.36151E-07         0.95461E-20         0.00000E+00
    0.36148E-07         0.53551E-19         0.00000E+00
    0.36144E-07         0.54715E-19         0.00000E+00
    0.36137E-07         0.36322E-19         0.00000E+00
    0.36130E-07         0.63563E-19         0.00000E+00
    0.36121E-07         0.46333E-19         0.00000E+00
    0.36110E-07         0.46566E-19         0.00000E+00
    0.36098E-07         0.66822E-19         0.00000E+00
    0.36085E-07         0.51921E-19         0.00000E+00
    0.36070E-07         0.39814E-19         0.00000E+00
    0.36054E-07         0.45169E-19         0.00000E+00
    0.36036E-07         0.15134E-19         0.00000E+00
    0.36018E-07         0.13504E-19         0.00000E+00
    0.35998E-07         0.33760E-19         0.00000E+00
    0.35976E-07         0.18626E-19         0.00000E+00
    0.35954E-07         0.21188E-19         0.00000E+00
    0.35930E-07         0.17695E-19         0.00000E+00
    0.35906E-07         0.79162E-20         0.00000E+00
    0.35880E-07         0.16298E-19         0.00000E+00
    0.35853E-07         0.40280E-19         0.00000E+00
    0.35825E-07         0.39814E-19         0.00000E+00
    0.35797E-07         0.16531E-19         0.00000E+00
    0.35767E-07        -0.20489E-19         0.00000E+00
    0.35737E-07        -0.22817E-19         0.00000E+00
    0.35706E-07        -0.20955E-20         0.00000E+00
    0.35675E-07        -0.39581E-20         0.00000E+00
    0.35643E-07        -0.53551E-20         0.00000E+00
    0.35610E-07         0.11409E-19         0.00000E+00
    0.35576E-07         0.15367E-19         0.00000E+00
    0.35543E-07        -0.46566E-20         0.00000E+00
    0.35508E-07        -0.25611E-20         0.00000E+00
    0.35474E-07         0.44238E-20         0.00000E+00
    0.35439E-07         0.95461E-20         0.00000E+00
    0.35404E-07        -0.81491E-20         0.00000E+00
    0.35369E-07        -0.16298E-20         0.00000E+00
    0.35334E-07         0.34226E-19         0.00000E+00
    0.35298E-07         0.13039E-19         0.00000E+00
    0.35263E-07         0.32596E-20         0.00000E+00
    0.35227E-07         0.18394E-19         0.00000E+00
    0.35192E-07         0.24447E-19         0.00000E+00
    0.35157E-07         0.15367E-19         0.00000E+00
    0.35122E-07         0.16298E-19         0.00000E+00
    0.35087E-07         0.53551E-20         0.00000E+00
    0.35053E-07        -0.58208E-20         0.00000E+00
    0.35019E-07        -0.20955E-20         0.00000E+00
    0.34985E-07         0.83819E-20         0.00000E+00
    0.34951E-07        -0.23283E-20         0.00000E+00
    0.34918E-07        -0.83819E-20         0.00000E+00
    0.34886E-07         0.11176E-19         0.00000E+00
    0.34854E-07         0.97789E-20         0.00000E+00
    0.34822E-07         0.83819E-20         0.00000E+00
    0.34791E-07         0.12573E-19         0.00000E+00
    0.34761E-07         0.60536E-20         0.00000E+00
    0.34731E-07         0.11642E-19         0.00000E+00
    0.34702E-07         0.37253E-20         0.00000E+00
    0.34674E-07        -0.11642E-20         0.00000E+00
    0.34646E-07        -0.23283E-20         0.00000E+00
    0.34619E-07        -0.12107E-19         0.00000E+00
    0.34592E-07        -0.38883E-19         0.00000E+00
    0.34566E-07        -0.17229E-19         0.00000E+00
    0.34541E-07         0.11642E-19         0.00000E+00
    0.34517E-07        -0.19092E-19         0.00000E+00
    0.34494E-07        -0.17695E-19         0.00000E+00
    0.34471E-07        -0.74506E-20         0.00000E+00
    0.34449E-07        -0.10012E-19         0.00000E+00
    0.34428E-07        -0.13970E-19         0.00000E+00
    0.34407E-07         0.95461E-20         0.00000E+00
    0.34388E-07         0.32131E-19         0.00000E+00
    0.34369E-07         0.15832E-19         0.00000E+00
    0.34350E-07         0.20722E-19         0.00000E+00
    0.34333E-07         0.30501E-19         0.00000E+00
    0.34316E-07         0.28405E-19         0.00000E+00
    0.34300E-07         0.25844E-19         0.00000E+00
    0.34285E-07         0.25611E-19         0.00000E+00
    0.34271E-07         0.28173E-19         0.00000E+00
    0.34257E-07         0.36322E-19         0.00000E+00
    0.34244E-07         0.26543E-19         0.00000E+00
    0.34231E-07         0.14668E-19         0.00000E+00
    0.34219E-07         0.29337E-19         0.00000E+00
    0.34208E-07         0.30268E-19         0.00000E+00
    0.34198E-07         0.21653E-19         0.00000E+00
    0.34188E-07         0.22585E-19         0.00000E+00
    0.34179E-07         0.33993E-19         0.00000E+00
    0.34170E-07         0.19092E-19         0.00000E+00
    0.34162E-07         0.27707E-19         0.00000E+00
    0.34155E-07         0.34459E-19         0.00000E+00
    0.34148E-07         0.28173E-19         0.00000E+00
    0.34142E-07         0.25961E-19         0.00000E+00
    0.34136E-07         0.17695E-19         0.00000E+00
    0.34131E-07         0.29569E-19         0.00000E+00
    0.34127E-07         0.36904E-19         0.00000E+00
    0.34122E-07         0.20023E-19         0.00000E+00
    0.34119E-07         0.23982E-19         0.00000E+00
    0.34116E-07         0.26310E-19         0.00000E+00
    0.34113E-07         0.25728E-19         0.00000E+00
    0.34111E-07         0.17229E-19         0.00000E+00
    0.34110E-07         0.38417E-20         0.00000E+00
    0.34109E-07        -0.58208E-20         0.00000E+00
    0.34108E-07        -0.10594E-19         0.00000E+00
    0.36153E-07         0.93132E-20         0.00000E+00
    0.36151E-07         0.18859E-19         0.00000E+00
    0.36148E-07         0.27940E-19         0.00000E+00
    0.36144E-07         0.44703E-19         0.00000E+00
    0.36137E-07         0.41444E-19         0.00000E+00
    0.36130E-07         0.64960E-19         0.00000E+00
    0.36121E-07         0.66822E-19         0.00000E+00
    0.36110E-07         0.17695E-19         0.00000E+00
    0.36098E-07         0.19325E-19         0.00000E+00
    0.36085E-07         0.33760E-19         0.00000E+00
    0.36070E-07         0.72177E-20         0.00000E+00
    0.36054E-07        -0.97789E-20         0.00000E+00
    0.36036E-07         0.90804E-20         0.00000E+00
    0.36018E-07         0.12340E-19         0.00000E+00
    0.35998E-07        -0.46566E-21         0.00000E+00
    0.35976E-07         0.83819E-20         0.00000E+00
    0.35954E-07         0.13970E-20         0.00000E+00
    0.35930E-07        -0.10012E-19         0.00000E+00
    0.35906E-07        -0.69849E-20         0.00000E+00
    0.35880E-07        -0.17928E-19         0.00000E+00
    0.35853E-07        -0.22817E-19         0.00000E+00
    0.35825E-07         0.69849E-21         0.00000E+00
    0.35797E-07         0.32596E-20         0.00000E+00
    0.35767E-07         0.25611E-20         0.00000E+00
    0.35737E-07         0.10710E-19         0.00000E+00
    0.35706E-07        -0.72177E-20         0.00000E+00
    0.35675E-07         0.86147E-20         0.00000E+00
    0.35643E-07         0.10477E-19         0.00000E+00
    0.35610E-07        -0.39581E-20         0.00000E+00
    0.35576E-07         0.18626E-19         0.00000E+00
    0.35543E-07        -0.55879E-20         0.00000E+00
    0.35508E-07        -0.28405E-19         0.00000E+00
    0.35474E-07         0.39581E-20         0.00000E+00
    0.35439E-07         0.24214E-19         0.00000E+00
    0.35404E-07         0.20023E-19         0.00000E+00
    0.35369E-07         0.11176E-19         0.00000E+00
    0.35334E-07         0.14435E-19         0.00000E+00
    0.35298E-07         0.12107E-19         0.00000E+00
    0.35263E-07         0.16298E-19         0.00000E+00
    0.35227E-07         0.28871E-19         0.00000E+00
    0.35192E-07         0.27474E-19         0.00000E+00
    0.35157E-07         0.46566E-20         0.00000E+00
    0.35122E-07         0.11642E-20         0.00000E+00
    0.35087E-07         0.11409E-19         0.00000E+00
    0.35053E-07         0.53551E-20         0.00000E+00
    0.35019E-07        -0.23283E-21         0.00000E+00
    0.34985E-07        -0.11642E-20         0.00000E+00
    0.34951E-07         0.16298E-20         0.00000E+00
    0.34918E-07         0.65193E-20         0.00000E+00
    0.34886E-07        -0.41910E-20         0.00000E+00
    0.34854E-07        -0.14668E-19         0.00000E+00
    0.34822E-07         0.25611E-20         0.00000E+00
    0.34791E-07         0.19092E-19         0.00000E+00
    0.34761E-07         0.17229E-19         0.00000E+00
    0.34731E-07        -0.55879E-20         0.00000E+00
    0.34702E-07         0.46566E-20         0.00000E+00
    0.34674E-07         0.51223E-20         0.00000E+00
    0.34646E-07        -0.48894E-20         0.00000E+00
    0.34619E-07        -0.10943E-19         0.00000E+00
    0.34592E-07        -0.72177E-20         0.00000E+00
    0.34566E-07         0.27940E-20         0.00000E+00
    0.34541E-07        -0.13504E-19         0.00000E+00
    0.34517E-07        -0.21188E-19         0.00000E+00
    0.34494E-07        -0.17928E-19         0.00000E+00
    0.34471E-07         0.41910E-20         0.00000E+00
    0.34449E-07         0.13039E-19         0.00000E+00
    0.34428E-07         0.41910E-20         0.00000E+00
    0.34407E-07         0.21886E-19         0.00000E+00
    0.34388E-07         0.10245E-19         0.00000E+00
    0.34369E-07         0.27940E-20         0.00000E+00
    0.34350E-07         0.26543E-19         0.00000E+00
    0.34333E-07         0.27707E-19         0.00000E+00
    0.34316E-07         0.46100E-19         0.00000E+00
    0.34300E-07         0.41444E-19         0.00000E+00
    0.34285E-07         0.29104E-19         0.00000E+00
    0.34271E-07         0.31432E-19         0.00000E+00
    0.34257E-07         0.27940E-19         0.00000E+00
    0.34244E-07         0.37020E-19         0.00000E+00
    0.34231E-07         0.39581E-19         0.00000E+00
    0.34219E-07         0.20256E-19         0.00000E+00
    0.34208E-07         0.16065E-19         0.00000E+00
    0.34198E-07         0.13504E-19         0.00000E+00
    0.34188E-07         0.20722E-19         0.00000E+00
    0.34179E-07         0.25146E-19         0.00000E+00
    0.34170E-07         0.29104E-19         0.00000E+00
    0.34162E-07         0.43772E-19         0.00000E+00
    0.34155E-07         0.22817E-19         0.00000E+00
    0.34148E-07         0.24913E-19         0.00000E+00
    0.34142E-07         0.28289E-19         0.00000E+00
    0.34136E-07         0.31199E-19         0.00000E+00
    0.34131E-07         0.42608E-19         0.00000E+00
    0.34127E-07         0.29802E-19         0.00000E+00
    0.34122E-07         0.12224E-19         0.00000E+00
    0.34119E-07         0.17579E-19         0.00000E+00
    0.34116E-07         0.13853E-19         0.00000E+00
    0.34113E-07         0.22119E-20         0.00000E+00
    0.34111E-07         0.32596E-20         0.00000E+00
    0.34110E-07         0.13970E-19         0.00000E+00
    0.34109E-07         0.40745E-20         0.00000E+00
    0.34108E-07        -0.71013E-20         0.00000E+00
    0.36153E-07         0.69849E-20         0.00000E+00
    0.36151E-07         0.39348E-19         0.00000E+00
    0.36148E-07         0.21420E-19         0.00000E+00
    0.36144E-07         0.10245E-19         0.00000E+00
    0.36137E-07         0.55879E-19         0.00000E+00
    0.36130E-07         0.73807E-19         0.00000E+00
    0.36121E-07         0.71945E-19         0.00000E+00
    0.36110E-07         0.16298E-19         0.00000E+00
    0.36098E-07        -0.34925E-20         0.00000E+00
    0.36085E-07         0.16531E-19         0.00000E+00
    0.36070E-07        -0.37253E-20         0.00000E+00
    0.36054E-07         0.62864E-20         0.00000E+00
    0.36036E-07         0.58208E-20         0.00000E+00
    0.36018E-07        -0.19791E-19         0.00000E+00
    0.35998E-07        -0.67521E-20         0.00000E+00
    0.35976E-07        -0.37253E-20         0.00000E+00
    0.35954E-07        -0.20256E-19         0.00000E+00
    0.35930E-07        -0.17928E-19         0.00000E+00
    0.35906E-07        -0.20489E-19         0.00000E+00
    0.35880E-07        -0.13970E-20         0.00000E+00
    0.35853E-07         0.21188E-19         0.00000E+00
    0.35825E-07         0.20023E-19         0.00000E+00
    0.35797E-07        -0.76834E-20         0.00000E+00
    0.35767E-07        -0.16531E-19         0.00000E+00
    0.35737E-07        -0.53551E-20         0.00000E+00
    0.35706E-07        -0.15367E-19         0.00000E+00
    0.35675E-07        -0.17229E-19         0.00000E+00
    0.35643E-07        -0.16298E-20         0.00000E+00
    0.35610E-07         0.90804E-20         0.00000E+00
    0.35576E-07        -0.10477E-19         0.00000E+00
    0.35543E-07         0.20955E-20         0.00000E+00
    0.35508E-07         0.14901E-19         0.00000E+00
    0.35474E-07         0.10710E-19         0.00000E+00
    0.35439E-07         0.19791E-19         0.00000E+00
    0.35404E-07         0.12340E-19         0.00000E+00
    0.35369E-07         0.14203E-19         0.00000E+00
    0.35334E-07         0.10943E-19         0.00000E+00
    0.35298E-07         0.20489E-19         0.00000E+00
    0.35263E-07         0.19558E-19         0.00000E+00
    0.35227E-07         0.10477E-19         0.00000E+00
    0.35192E-07         0.22585E-19         0.00000E+00
    0.35157E-07         0.13504E-19         0.00000E+00
    0.35122E-07         0.44238E-20         0.00000E+00
    0.35087E-07         0.12107E-19         0.00000E+00
    0.35053E-07         0.76834E-20         0.00000E+00
    0.35019E-07         0.41910E-20         0.00000E+00
    0.34985E-07         0.48894E-20         0.00000E+00
    0.34951E-07         0.41910E-20         0.00000E+00
    0.34918E-07        -0.10943E-19         0.00000E+00
    0.34886E-07        -0.74506E-20         0.00000E+00
    0.34854E-07         0.74506E-20         0.00000E+00
    0.34822E-07         0.15832E-19         0.00000E+00
    0.34791E-07        -0.60536E-20         0.00000E+00
    0.34761E-07        -0.53551E-20         0.00000E+00
    0.34731E-07        -0.34925E-20         0.00000E+00
    0.34702E-07        -0.13039E-19         0.00000E+00
    0.34674E-07         0.93132E-21         0.00000E+00
    0.34646E-07        -0.16997E-19         0.00000E+00
    0.34619E-07        -0.23050E-19         0.00000E+00
    0.34592E-07         0.00000E+00         0.00000E+00
    0.34566E-07        -0.44238E-20         0.00000E+00
    0.34541E-07        -0.14435E-19         0.00000E+00
    0.34517E-07        -0.65193E-20         0.00000E+00
    0.34494E-07         0.23283E-20         0.00000E+00
    0.34471E-07        -0.23283E-20         0.00000E+00
    0.34449E-07        -0.69849E-21         0.00000E+00
    0.34428E-07         0.13970E-19         0.00000E+00
    0.34407E-07        -0.20955E-20         0.00000E+00
    0.34388E-07         0.41910E-20         0.00000E+00
    0.34369E-07         0.24913E-19         0.00000E+00
    0.34350E-07         0.16764E-19         0.00000E+00
    0.34333E-07         0.42375E-19         0.00000E+00
    0.34316E-07         0.37951E-19         0.00000E+00
    0.34300E-07         0.21653E-19         0.00000E+00
    0.34285E-07         0.33528E-19         0.00000E+00
    0.34271E-07         0.25844E-19         0.00000E+00
    0.34257E-07         0.22817E-19         0.00000E+00
    0.34244E-07         0.29337E-19         0.00000E+00
    0.34231E-07         0.25611E-19         0.00000E+00
    0.34219E-07         0.14203E-19         0.00000E+00
    0.34208E-07         0.11409E-19         0.00000E+00
    0.34198E-07         0.15367E-19         0.00000E+00
    0.34188E-07         0.20256E-19         0.00000E+00
    0.34179E-07         0.33993E-19         0.00000E+00
    0.34170E-07         0.42608E-19         0.00000E+00
    0.34162E-07         0.41677E-19         0.00000E+00
    0.34155E-07         0.32829E-19         0.00000E+00
    0.34148E-07         0.18743E-19         0.00000E+00
    0.34142E-07         0.69849E-20         0.00000E+00
    0.34136E-07         0.17113E-19         0.00000E+00
    0.34131E-07         0.27008E-19         0.00000E+00
    0.34127E-07         0.21304E-19         0.00000E+00
    0.34122E-07         0.20256E-19         0.00000E+00
    0.34119E-07         0.22468E-19         0.00000E+00
    0.34116E-07         0.26310E-19         0.00000E+00
    0.34113E-07         0.15832E-19         0.00000E+00
    0.34111E-07         0.13388E-19         0.00000E+00
    0.34110E-07         0.26193E-19         0.00000E+00
    0.34109E-07         0.13737E-19         0.00000E+00
    0.34108E-07        -0.55879E-20         0.00000E+00
    0.36153E-07         0.37253E-20         0.00000E+00
    0.36151E-07         0.67521E-20         0.00000E+00
    0.36148E-07         0.28405E-19         0.00000E+00
    0.36144E-07         0.39116E-19         0.00000E+00
    0.36137E-07         0.47963E-19         0.00000E+00
    0.36130E-07         0.47730E-19         0.00000E+00
    0.36121E-07         0.40280E-19         0.00000E+00
    0.36110E-07         0.31665E-19         0.00000E+00
    0.36098E-07         0.86147E-20         0.00000E+00
    0.36085E-07         0.14668E-19         0.00000E+00
    0.36070E-07         0.28173E-19         0.00000E+00
    0.36054E-07         0.29337E-19         0.00000E+00
    0.36036E-07         0.93132E-21         0.00000E+00
    0.36018E-07        -0.65193E-20         0.00000E+00
    0.35998E-07        -0.30035E-19         0.00000E+00
    0.35976E-07        -0.48196E-19         0.00000E+00
    0.35954E-07        -0.51223E-20         0.00000E+00
    0.35930E-07        -0.12573E-19         0.00000E+00
    0.35906E-07        -0.14668E-19         0.00000E+00
    0.35880E-07         0.55879E-20         0.00000E+00
    0.35853E-07         0.23050E-19         0.00000E+00
    0.35825E-07         0.58208E-20         0.00000E+00
    0.35797E-07        -0.10245E-19         0.00000E+00
    0.35767E-07         0.13970E-20         0.00000E+00
    0.35737E-07         0.79162E-20         0.00000E+00
    0.35706E-07         0.67521E-20         0.00000E+00
    0.35675E-07        -0.32596E-20         0.00000E+00
    0.35643E-07        -0.46566E-21         0.00000E+00
    0.35610E-07         0.83819E-20         0.00000E+00
    0.35576E-07        -0.14901E-19         0.00000E+00
    0.35543E-07         0.37253E-20         0.00000E+00
    0.35508E-07         0.37253E-20         0.00000E+00
    0.35474E-07         0.12340E-19         0.00000E+00
    0.35439E-07         0.32596E-19         0.00000E+00
    0.35404E-07        -0.11642E-20         0.00000E+00
    0.35369E-07        -0.11642E-19         0.00000E+00
    0.35334E-07         0.62864E-20         0.00000E+00
    0.35298E-07         0.16298E-19         0.00000E+00
    0.35263E-07         0.88476E-20         0.00000E+00
    0.35227E-07        -0.32596E-20         0.00000E+00
    0.35192E-07        -0.69849E-21         0.00000E+00
    0.35157E-07         0.74506E-20         0.00000E+00
    0.35122E-07         0.44238E-20         0.00000E+00
    0.35087E-07        -0.32596E-20         0.00000E+00
    0.35053E-07        -0.28405E-19         0.00000E+00
    0.35019E-07        -0.25844E-19         0.00000E+00
    0.34985E-07        -0.10710E-19         0.00000E+00
    0.34951E-07        -0.21886E-19         0.00000E+00
    0.34918E-07        -0.30501E-19         0.00000E+00
    0.34886E-07        -0.22352E-19         0.00000E+00
    0.34854E-07        -0.13970E-20         0.00000E+00
    0.34822E-07        -0.65193E-20         0.00000E+00
    0.34791E-07        -0.16065E-19         0.00000E+00
    0.34761E-07        -0.27008E-19         0.00000E+00
    0.34731E-07        -0.27707E-19         0.00000E+00
    0.34702E-07        -0.12340E-19         0.00000E+00
    0.34674E-07        -0.15832E-19         0.00000E+00
    0.34646E-07        -0.25146E-19         0.00000E+00
    0.34619E-07        -0.20722E-19         0.00000E+00
    0.34592E-07        -0.76834E-20         0.00000E+00
    0.34566E-07        -0.88476E-20         0.00000E+00
    0.34541E-07        -0.21188E-19         0.00000E+00
    0.34517E-07        -0.34925E-19         0.00000E+00
    0.34494E-07        -0.27474E-19         0.00000E+00
    0.34471E-07        -0.11642E-19         0.00000E+00
    0.34449E-07        -0.93132E-20         0.00000E+00
    0.34428E-07        -0.19325E-19         0.00000E+00
    0.34407E-07        -0.69849E-21         0.00000E+00
    0.34388E-07        -0.60536E-20         0.00000E+00
    0.34369E-07        -0.46566E-21         0.00000E+00
    0.34350E-07         0.32596E-19         0.00000E+00
    0.34333E-07         0.29337E-19         0.00000E+00
    0.34316E-07         0.24447E-19         0.00000E+00
    0.34300E-07         0.28405E-19         0.00000E+00
    0.34285E-07         0.29337E-19         0.00000E+00
    0.34271E-07         0.38417E-19         0.00000E+00
    0.34257E-07         0.24214E-19         0.00000E+00
    0.34244E-07         0.74506E-20         0.00000E+00
    0.34231E-07         0.21653E-19         0.00000E+00
    0.34219E-07         0.21886E-19         0.00000E+00
    0.34208E-07         0.20023E-19         0.00000E+00
    0.34198E-07         0.19558E-19         0.00000E+00
    0.34188E-07         0.12107E-19         0.00000E+00
    0.34179E-07         0.14901E-19         0.00000E+00
    0.34170E-07         0.36322E-19         0.00000E+00
    0.34162E-07         0.34692E-19         0.00000E+00
    0.34155E-07         0.30035E-19         0.00000E+00
    0.34148E-07         0.26077E-19         0.00000E+00
    0.34142E-07         0.16997E-19         0.00000E+00
    0.34136E-07         0.21537E-19         0.00000E+00
    0.34131E-07         0.22235E-19         0.00000E+00
    0.34127E-07         0.26426E-19         0.00000E+00
    0.34122E-07         0.18044E-19         0.00000E+00
    0.34119E-07         0.88476E-20         0.00000E+00
    0.34116E-07         0.67521E-20         0.00000E+00
    0.34113E-07         0.20722E-19         0.00000E+00
    0.34111E-07         0.20489E-19         0.00000E+00
    0.34110E-07         0.66357E-20         0.00000E+00
    0.34109E-07         0.77998E-20         0.00000E+00
    0.34108E-07         0.11642E-19         0.00000E+00
    0.36153E-07         0.18626E-19         0.00000E+00
    0.36151E-07         0.36787E-19         0.00000E+00
    0.36148E-07         0.48894E-19         0.00000E+00
    0.36144E-07         0.63796E-19         0.00000E+00
    0.36137E-07         0.63796E-19         0.00000E+00
    0.36130E-07         0.24913E-19         0.00000E+00
    0.36121E-07         0.11409E-19         0.00000E+00
    0.36110E-07         0.33993E-19         0.00000E+00
    0.36098E-07         0.36089E-19         0.00000E+00
    0.36085E-07         0.58208E-20         0.00000E+00
    0.36070E-07        -0.20955E-20         0.00000E+00
    0.36054E-07         0.22352E-19         0.00000E+00
    0.36036E-07         0.32829E-19         0.00000E+00
    0.36018E-07         0.29104E-19         0.00000E+00
    0.35998E-07        -0.44238E-20         0.00000E+00
    0.35976E-07        -0.18626E-20         0.00000E+00
    0.35954E-07         0.39581E-20         0.00000E+00
    0.35930E-07        -0.27940E-20         0.00000E+00
    0.35906E-07        -0.12107E-19         0.00000E+00
    0.35880E-07        -0.60536E-20         0.00000E+00
    0.35853E-07         0.18626E-20         0.00000E+00
    0.35825E-07        -0.20955E-20         0.00000E+00
    0.35797E-07         0.39581E-20         0.00000E+00
    0.35767E-07        -0.24214E-19         0.00000E+00
    0.35737E-07        -0.23749E-19         0.00000E+00
    0.35706E-07        -0.14901E-19         0.00000E+00
    0.35675E-07        -0.79162E-20         0.00000E+00
    0.35643E-07        -0.44238E-20         0.00000E+00
    0.35610E-07        -0.11409E-19         0.00000E+00
    0.35576E-07        -0.18626E-19         0.00000E+00
    0.35543E-07        -0.19325E-19         0.00000E+00
    0.35508E-07        -0.19558E-19         0.00000E+00
    0.35474E-07        -0.67521E-20         0.00000E+00
    0.35439E-07         0.65193E-20         0.00000E+00
    0.35404E-07         0.37253E-20         0.00000E+00
    0.35369E-07         0.90804E-20         0.00000E+00
    0.35334E-07        -0.19791E-19         0.00000E+00
    0.35298E-07        -0.27008E-19         0.00000E+00
    0.35263E-07        -0.18626E-19         0.00000E+00
    0.35227E-07        -0.16764E-19         0.00000E+00
    0.35192E-07        -0.12806E-19         0.00000E+00
    0.35157E-07        -0.15832E-19         0.00000E+00
    0.35122E-07        -0.20489E-19         0.00000E+00
    0.35087E-07        -0.20489E-19         0.00000E+00
    0.35053E-07        -0.16298E-19         0.00000E+00
    0.35019E-07        -0.33295E-19         0.00000E+00
    0.34985E-07        -0.29569E-19         0.00000E+00
    0.34951E-07        -0.31199E-19         0.00000E+00
    0.34918E-07        -0.24913E-19         0.00000E+00
    0.34886E-07         0.00000E+00         0.00000E+00
    0.34854E-07        -0.97789E-20         0.00000E+00
    0.34822E-07        -0.18859E-19         0.00000E+00
    0.34791E-07        -0.22585E-19         0.00000E+00
    0.34761E-07        -0.32131E-19         0.00000E+00
    0.34731E-07        -0.28871E-19         0.00000E+00
    0.34702E-07        -0.12340E-19         0.00000E+00
    0.34674E-07        -0.27241E-19         0.00000E+00
    0.34646E-07        -0.20722E-19         0.00000E+00
    0.34619E-07        -0.17229E-19         0.00000E+00
    0.34592E-07        -0.35157E-19         0.00000E+00
    0.34566E-07        -0.39348E-19         0.00000E+00
    0.34541E-07        -0.42375E-19         0.00000E+00
    0.34517E-07        -0.31665E-19         0.00000E+00
    0.34494E-07        -0.24913E-19         0.00000E+00
    0.34471E-07        -0.19791E-19         0.00000E+00
    0.34449E-07        -0.25844E-19         0.00000E+00
    0.34428E-07        -0.11409E-19         0.00000E+00
    0.34407E-07        -0.69849E-21         0.00000E+00
    0.34388E-07         0.46566E-21         0.00000E+00
    0.34369E-07         0.19092E-19         0.00000E+00
    0.34350E-07         0.74506E-20         0.00000E+00
    0.34333E-07        -0.60536E-20         0.00000E+00
    0.34316E-07         0.23982E-19         0.00000E+00
    0.34300E-07         0.26077E-19         0.00000E+00
    0.34285E-07         0.93132E-20         0.00000E+00
    0.34271E-07         0.97789E-20         0.00000E+00
    0.34257E-07         0.15367E-19         0.00000E+00
    0.34244E-07         0.86147E-20         0.00000E+00
    0.34231E-07         0.20489E-19         0.00000E+00
    0.34219E-07         0.21886E-19         0.00000E+00
    0.34208E-07         0.26543E-19         0.00000E+00
    0.34198E-07         0.25844E-19         0.00000E+00
    0.34188E-07         0.23749E-19         0.00000E+00
    0.34179E-07         0.19092E-19         0.00000E+00
    0.34170E-07         0.17229E-19         0.00000E+00
    0.34162E-07         0.25146E-19         0.00000E+00
    0.34155E-07         0.16298E-19         0.00000E+00
    0.34148E-07         0.13271E-19         0.00000E+00
    0.34142E-07         0.17346E-19         0.00000E+00
    0.34136E-07         0.19791E-19         0.00000E+00
    0.34131E-07         0.90804E-20         0.00000E+00
    0.34127E-07         0.18044E-19         0.00000E+00
    0.34122E-07         0.18859E-19         0.00000E+00
    0.34119E-07         0.13504E-19         0.00000E+00
    0.34116E-07         0.21188E-19         0.00000E+00
    0.34113E-07         0.31199E-19         0.00000E+00
    0.34111E-07         0.18859E-19         0.00000E+00
    0.34110E-07         0.25611E-20         0.00000E+00
    0.34109E-07         0.55879E-20         0.00000E+00
    0.34108E-07         0.13970E-20         0.00000E+00
    0.36153E-07        -0.93132E-21         0.00000E+00
    0.36151E-07        -0.23283E-21         0.00000E+00
    0.36148E-07         0.31199E-19         0.00000E+00
    0.36144E-07         0.74506E-19         0.00000E+00
    0.36137E-07         0.60070E-19         0.00000E+00
    0.36130E-07         0.48429E-19         0.00000E+00
    0.36121E-07         0.30501E-19         0.00000E+00
    0.36110E-07         0.22585E-19         0.00000E+00
    0.36098E-07         0.31898E-19         0.00000E+00
    0.36085E-07         0.34925E-20         0.00000E+00
    0.36070E-07         0.95461E-20         0.00000E+00
    0.36054E-07         0.15600E-19         0.00000E+00
    0.36036E-07         0.19791E-19         0.00000E+00
    0.36018E-07         0.35390E-19         0.00000E+00
    0.35998E-07         0.18394E-19         0.00000E+00
    0.35976E-07         0.34925E-20         0.00000E+00
    0.35954E-07         0.62864E-20         0.00000E+00
    0.35930E-07         0.10943E-19         0.00000E+00
    0.35906E-07         0.23283E-19         0.00000E+00
    0.35880E-07         0.21886E-19         0.00000E+00
    0.35853E-07         0.15600E-19         0.00000E+00
    0.35825E-07         0.15367E-19         0.00000E+00
    0.35797E-07         0.16531E-19         0.00000E+00
    0.35767E-07         0.41910E-20         0.00000E+00
    0.35737E-07        -0.83819E-20         0.00000E+00
    0.35706E-07        -0.97789E-20         0.00000E+00
    0.35675E-07        -0.37616E-36         0.00000E+00
    0.35643E-07         0.15134E-19         0.00000E+00
    0.35610E-07        -0.69849E-20         0.00000E+00
    0.35576E-07        -0.17229E-19         0.00000E+00
    0.35543E-07        -0.93132E-21         0.00000E+00
    0.35508E-07         0.20023E-19         0.00000E+00
    0.35474E-07         0.31898E-19         0.00000E+00
    0.35439E-07         0.33760E-19         0.00000E+00
    0.35404E-07         0.19325E-19         0.00000E+00
    0.35369E-07         0.16298E-20         0.00000E+00
    0.35334E-07        -0.67521E-20         0.00000E+00
    0.35298E-07        -0.16764E-19         0.00000E+00
    0.35263E-07        -0.12107E-19         0.00000E+00
    0.35227E-07        -0.12107E-19         0.00000E+00
    0.35192E-07        -0.16764E-19         0.00000E+00
    0.35157E-07         0.27940E-20         0.00000E+00
    0.35122E-07         0.74506E-20         0.00000E+00
    0.35087E-07        -0.11642E-19         0.00000E+00
    0.35053E-07        -0.28638E-19         0.00000E+00
    0.35019E-07        -0.15134E-19         0.00000E+00
    0.34985E-07        -0.15600E-19         0.00000E+00
    0.34951E-07        -0.35623E-19         0.00000E+00
    0.34918E-07        -0.25611E-19         0.00000E+00
    0.34886E-07        -0.76834E-20         0.00000E+00
    0.34854E-07         0.55879E-20         0.00000E+00
    0.34822E-07        -0.14203E-19         0.00000E+00
    0.34791E-07        -0.95461E-20         0.00000E+00
    0.34761E-07        -0.88476E-20         0.00000E+00
    0.34731E-07        -0.34925E-19         0.00000E+00
    0.34702E-07        -0.24680E-19         0.00000E+00
    0.34674E-07        -0.25146E-19         0.00000E+00
    0.34646E-07        -0.23749E-19         0.00000E+00
    0.34619E-07        -0.23516E-19         0.00000E+00
    0.34592E-07        -0.43539E-19         0.00000E+00
    0.34566E-07        -0.32829E-19         0.00000E+00
    0.34541E-07        -0.40978E-19         0.00000E+00
    0.34517E-07        -0.46566E-19         0.00000E+00
    0.34494E-07        -0.20955E-19         0.00000E+00
    0.34471E-07        -0.24214E-19         0.00000E+00
    0.34449E-07        -0.34925E-19         0.00000E+00
    0.34428E-07        -0.95461E-20         0.00000E+00
    0.34407E-07        -0.79162E-20         0.00000E+00
    0.34388E-07        -0.18161E-19         0.00000E+00
    0.34369E-07         0.00000E+00         0.00000E+00
    0.34350E-07         0.46566E-21         0.00000E+00
    0.34333E-07         0.23283E-21         0.00000E+00
    0.34316E-07         0.13271E-19         0.00000E+00
    0.34300E-07         0.79162E-20         0.00000E+00
    0.34285E-07         0.74506E-20         0.00000E+00
    0.34271E-07         0.12340E-19         0.00000E+00
    0.34257E-07         0.12573E-19         0.00000E+00
    0.34244E-07         0.16298E-19         0.00000E+00
    0.34231E-07         0.14435E-19         0.00000E+00
    0.34219E-07        -0.51223E-20         0.00000E+00
    0.34208E-07        -0.30268E-20         0.00000E+00
    0.34198E-07         0.60536E-20         0.00000E+00
    0.34188E-07         0.27940E-20         0.00000E+00
    0.34179E-07         0.18161E-19         0.00000E+00
    0.34170E-07         0.28638E-19         0.00000E+00
    0.34162E-07         0.16531E-19         0.00000E+00
    0.34155E-07         0.13271E-19         0.00000E+00
    0.34148E-07         0.14552E-19         0.00000E+00
    0.34142E-07         0.11991E-19         0.00000E+00
    0.34136E-07         0.20256E-19         0.00000E+00
    0.34131E-07         0.18044E-19         0.00000E+00
    0.34127E-07         0.20838E-19         0.00000E+00
    0.34122E-07         0.24098E-19         0.00000E+00
    0.34119E-07         0.15832E-19         0.00000E+00
    0.34116E-07         0.18394E-19         0.00000E+00
    0.34113E-07         0.31199E-19         0.00000E+00
    0.34111E-07         0.15600E-19         0.00000E+00
    0.34110E-07        -0.43074E-20         0.00000E+00
    0.34109E-07         0.12107E-19         0.00000E+00
    0.34108E-07         0.14785E-19         0.00000E+00
    0.36153E-07        -0.11176E-19         0.00000E+00
    0.36151E-07         0.10012E-19         0.00000E+00
    0.36148E-07         0.64727E-19         0.00000E+00
    0.36144E-07         0.59605E-19         0.00000E+00
    0.36137E-07         0.37719E-19         0.00000E+00
    0.36130E-07        -0.13970E-20         0.00000E+00
    0.36121E-07         0.22817E-19         0.00000E+00
    0.36110E-07         0.32596E-19         0.00000E+00
    0.36098E-07         0.39581E-20         0.00000E+00
    0.36085E-07         0.20722E-19         0.00000E+00
    0.36070E-07         0.10477E-19         0.00000E+00
    0.36054E-07         0.32131E-19         0.00000E+00
    0.36036E-07         0.39348E-19         0.00000E+00
    0.36018E-07         0.44238E-20         0.00000E+00
    0.35998E-07         0.79162E-20         0.00000E+00
    0.35976E-07         0.24680E-19         0.00000E+00
    0.35954E-07         0.26310E-19         0.00000E+00
    0.35930E-07        -0.12107E-19         0.00000E+00
    0.35906E-07        -0.13039E-19         0.00000E+00
    0.35880E-07        -0.11642E-19         0.00000E+00
    0.35853E-07         0.48894E-20         0.00000E+00
    0.35825E-07         0.31199E-19         0.00000E+00
    0.35797E-07         0.69849E-21         0.00000E+00
    0.35767E-07        -0.16298E-19         0.00000E+00
    0.35737E-07        -0.17462E-19         0.00000E+00
    0.35706E-07        -0.16298E-19         0.00000E+00
    0.35675E-07        -0.55879E-20         0.00000E+00
    0.35643E-07         0.14901E-19         0.00000E+00
    0.35610E-07         0.46566E-20         0.00000E+00
    0.35576E-07        -0.69849E-21         0.00000E+00
    0.35543E-07         0.19092E-19         0.00000E+00
    0.35508E-07         0.26310E-19         0.00000E+00
    0.35474E-07         0.18859E-19         0.00000E+00
    0.35439E-07         0.27241E-19         0.00000E+00
    0.35404E-07         0.34925E-19         0.00000E+00
    0.35369E-07         0.72177E-20         0.00000E+00
    0.35334E-07        -0.23283E-20         0.00000E+00
    0.35298E-07        -0.10245E-19         0.00000E+00
    0.35263E-07        -0.20955E-19         0.00000E+00
    0.35227E-07        -0.83819E-20         0.00000E+00
    0.35192E-07        -0.13970E-19         0.00000E+00
    0.35157E-07        -0.15832E-19         0.00000E+00
    0.35122E-07        -0.27940E-20         0.00000E+00
    0.35087E-07        -0.44238E-20         0.00000E+00
    0.35053E-07        -0.16764E-19         0.00000E+00
    0.35019E-07        -0.25146E-19         0.00000E+00
    0.34985E-07        -0.37486E-19         0.00000E+00
    0.34951E-07        -0.46566E-19         0.00000E+00
    0.34918E-07        -0.18626E-19         0.00000E+00
    0.34886E-07        -0.15134E-19         0.00000E+00
    0.34854E-07        -0.88476E-20         0.00000E+00
    0.34822E-07         0.00000E+00         0.00000E+00
    0.34791E-07        -0.27940E-20         0.00000E+00
    0.34761E-07        -0.97789E-20         0.00000E+00
    0.34731E-07        -0.25146E-19         0.00000E+00
    0.34702E-07        -0.23283E-19         0.00000E+00
    0.34674E-07        -0.27940E-20         0.00000E+00
    0.34646E-07        -0.17928E-19         0.00000E+00
    0.34619E-07        -0.29802E-19         0.00000E+00
    0.34592E-07        -0.42841E-19         0.00000E+00
    0.34566E-07        -0.47265E-19         0.00000E+00
    0.34541E-07        -0.31665E-19         0.00000E+00
    0.34517E-07        -0.26077E-19         0.00000E+00
    0.34494E-07        -0.24680E-19         0.00000E+00
    0.34471E-07        -0.34925E-19         0.00000E+00
    0.34449E-07        -0.97789E-20         0.00000E+00
    0.34428E-07        -0.15600E-19         0.00000E+00
    0.34407E-07        -0.32131E-19         0.00000E+00
    0.34388E-07        -0.14901E-19         0.00000E+00
    0.34369E-07        -0.83819E-20         0.00000E+00
    0.34350E-07         0.37253E-20         0.00000E+00
    0.34333E-07         0.74506E-20         0.00000E+00
    0.34316E-07        -0.34925E-20         0.00000E+00
    0.34300E-07        -0.11176E-19         0.00000E+00
    0.34285E-07         0.18161E-19         0.00000E+00
    0.34271E-07         0.35157E-19         0.00000E+00
    0.34257E-07         0.19791E-19         0.00000E+00
    0.34244E-07        -0.11642E-20         0.00000E+00
    0.34231E-07        -0.13504E-19         0.00000E+00
    0.34219E-07        -0.18161E-19         0.00000E+00
    0.34208E-07        -0.69849E-20         0.00000E+00
    0.34198E-07         0.13970E-19         0.00000E+00
    0.34188E-07         0.24214E-19         0.00000E+00
    0.34179E-07         0.14435E-19         0.00000E+00
    0.34170E-07         0.24214E-19         0.00000E+00
    0.34162E-07         0.28173E-19         0.00000E+00
    0.34155E-07         0.16531E-19         0.00000E+00
    0.34148E-07         0.11642E-20         0.00000E+00
    0.34142E-07        -0.58208E-21         0.00000E+00
    0.34136E-07         0.14203E-19         0.00000E+00
    0.34131E-07         0.13155E-19         0.00000E+00
    0.34127E-07         0.15018E-19         0.00000E+00
    0.34122E-07         0.36787E-19         0.00000E+00
    0.34119E-07         0.31199E-19         0.00000E+00
    0.34116E-07         0.33062E-19         0.00000E+00
    0.34113E-07         0.19092E-19         0.00000E+00
    0.34111E-07         0.25611E-20         0.00000E+00
    0.34110E-07         0.98953E-20         0.00000E+00
    0.34109E-07         0.25611E-20         0.00000E+00
    0.34108E-07        -0.81491E-21         0.00000E+00
    0.36153E-07        -0.13039E-19         0.00000E+00
    0.36151E-07         0.44238E-20         0.00000E+00
    0.36148E-07         0.30268E-19         0.00000E+00
    0.36144E-07         0.36322E-19         0.00000E+00
    0.36137E-07         0.25611E-19         0.00000E+00
    0.36130E-07         0.26310E-19         0.00000E+00
    0.36121E-07         0.35623E-19         0.00000E+00
    0.36110E-07         0.33993E-19         0.00000E+00
    0.36098E-07         0.23982E-19         0.00000E+00
    0.36085E-07         0.32829E-19         0.00000E+00
    0.36070E-07         0.45868E-19         0.00000E+00
    0.36054E-07         0.19325E-19         0.00000E+00
    0.36036E-07         0.47032E-19         0.00000E+00
    0.36018E-07         0.58673E-19         0.00000E+00
    0.35998E-07         0.86147E-20         0.00000E+00
    0.35976E-07         0.14901E-19         0.00000E+00
    0.35954E-07         0.36089E-19         0.00000E+00
    0.35930E-07         0.42608E-19         0.00000E+00
    0.35906E-07         0.27008E-19         0.00000E+00
    0.35880E-07        -0.23283E-20         0.00000E+00
    0.35853E-07        -0.44238E-20         0.00000E+00
    0.35825E-07        -0.46566E-20         0.00000E+00
    0.35797E-07        -0.62864E-20         0.00000E+00
    0.35767E-07         0.18626E-20         0.00000E+00
    0.35737E-07         0.30268E-20         0.00000E+00
    0.35706E-07        -0.74506E-20         0.00000E+00
    0.35675E-07        -0.46566E-21         0.00000E+00
    0.35643E-07         0.86147E-20         0.00000E+00
    0.35610E-07         0.93132E-21         0.00000E+00
    0.35576E-07        -0.10012E-19         0.00000E+00
    0.35543E-07        -0.60536E-20         0.00000E+00
    0.35508E-07         0.65193E-20         0.00000E+00
    0.35474E-07         0.11874E-19         0.00000E+00
    0.35439E-07         0.11874E-19         0.00000E+00
    0.35404E-07         0.11409E-19         0.00000E+00
    0.35369E-07         0.12107E-19         0.00000E+00
    0.35334E-07         0.13970E-20         0.00000E+00
    0.35298E-07         0.88476E-20         0.00000E+00
    0.35263E-07         0.72177E-20         0.00000E+00
    0.35227E-07        -0.22817E-19         0.00000E+00
    0.35192E-07        -0.23050E-19         0.00000E+00
    0.35157E-07        -0.20489E-19         0.00000E+00
    0.35122E-07        -0.28871E-19         0.00000E+00
    0.35087E-07        -0.28871E-19         0.00000E+00
    0.35053E-07        -0.26077E-19         0.00000E+00
    0.35019E-07        -0.29104E-19         0.00000E+00
    0.34985E-07        -0.32363E-19         0.00000E+00
    0.34951E-07        -0.12806E-19         0.00000E+00
    0.34918E-07        -0.16997E-19         0.00000E+00
    0.34886E-07        -0.10710E-19         0.00000E+00
    0.34854E-07        -0.83819E-20         0.00000E+00
    0.34822E-07        -0.16065E-19         0.00000E+00
    0.34791E-07        -0.27474E-19         0.00000E+00
    0.34761E-07        -0.34459E-19         0.00000E+00
    0.34731E-07        -0.34925E-19         0.00000E+00
    0.34702E-07        -0.44703E-19         0.00000E+00
    0.34674E-07        -0.24680E-19         0.00000E+00
    0.34646E-07        -0.69849E-21         0.00000E+00
    0.34619E-07        -0.37253E-19         0.00000E+00
    0.34592E-07        -0.52154E-19         0.00000E+00
    0.34566E-07        -0.43306E-19         0.00000E+00
    0.34541E-07        -0.38184E-19         0.00000E+00
    0.34517E-07        -0.24214E-19         0.00000E+00
    0.34494E-07        -0.13039E-19         0.00000E+00
    0.34471E-07        -0.18626E-19         0.00000E+00
    0.34449E-07         0.69849E-21         0.00000E+00
    0.34428E-07         0.13970E-19         0.00000E+00
    0.34407E-07        -0.32596E-20         0.00000E+00
    0.34388E-07        -0.22352E-19         0.00000E+00
    0.34369E-07        -0.28871E-19         0.00000E+00
    0.34350E-07        -0.13970E-19         0.00000E+00
    0.34333E-07        -0.32596E-20         0.00000E+00
    0.34316E-07        -0.10477E-19         0.00000E+00
    0.34300E-07         0.23283E-20         0.00000E+00
    0.34285E-07         0.17462E-19         0.00000E+00
    0.34271E-07         0.20722E-19         0.00000E+00
    0.34257E-07         0.83819E-20         0.00000E+00
    0.34244E-07         0.79162E-20         0.00000E+00
    0.34231E-07        -0.41910E-20         0.00000E+00
    0.34219E-07        -0.79162E-20         0.00000E+00
    0.34208E-07         0.51223E-20         0.00000E+00
    0.34198E-07         0.23283E-21         0.00000E+00
    0.34188E-07         0.55879E-20         0.00000E+00
    0.34179E-07         0.15832E-19         0.00000E+00
    0.34170E-07         0.14668E-19         0.00000E+00
    0.34162E-07         0.65193E-20         0.00000E+00
    0.34155E-07         0.32131E-19         0.00000E+00
    0.34148E-07         0.37602E-19         0.00000E+00
    0.34142E-07         0.14901E-19         0.00000E+00
    0.34136E-07         0.22119E-19         0.00000E+00
    0.34131E-07         0.22468E-19         0.00000E+00
    0.34127E-07         0.16647E-19         0.00000E+00
    0.34122E-07         0.61700E-20         0.00000E+00
    0.34119E-07         0.19209E-19         0.00000E+00
    0.34116E-07         0.35274E-19         0.00000E+00
    0.34113E-07         0.31665E-19         0.00000E+00
    0.34111E-07         0.15367E-19         0.00000E+00
    0.34110E-07        -0.51223E-20         0.00000E+00
    0.34109E-07         0.73342E-20         0.00000E+00
    0.34108E-07         0.90804E-20         0.00000E+00
    0.36153E-07         0.74506E-20         0.00000E+00
    0.36151E-07         0.26543E-19         0.00000E+00
    0.36148E-07         0.17229E-19         0.00000E+00
    0.36144E-07         0.24214E-19         0.00000E+00
    0.36137E-07         0.31432E-19         0.00000E+00
    0.36130E-07         0.52853E-19         0.00000E+00
    0.36121E-07         0.70082E-19         0.00000E+00
    0.36110E-07         0.28871E-19         0.00000E+00
    0.36098E-07         0.39814E-19         0.00000E+00
    0.36085E-07         0.18394E-19         0.00000E+00
    0.36070E-07         0.46566E-20         0.00000E+00
    0.36054E-07         0.41910E-19         0.00000E+00
    0.36036E-07         0.44471E-19         0.00000E+00
    0.36018E-07         0.10477E-19         0.00000E+00
    0.35998E-07         0.19791E-19         0.00000E+00
    0.35976E-07         0.50291E-19         0.00000E+00
    0.35954E-07         0.15832E-19         0.00000E+00
    0.35930E-07        -0.48894E-20         0.00000E+00
    0.35906E-07        -0.30734E-19         0.00000E+00
    0.35880E-07        -0.36787E-19         0.00000E+00
    0.35853E-07        -0.10477E-19         0.00000E+00
    0.35825E-07         0.26077E-19         0.00000E+00
    0.35797E-07         0.21188E-19         0.00000E+00
    0.35767E-07        -0.13970E-20         0.00000E+00
    0.35737E-07        -0.23283E-21         0.00000E+00
    0.35706E-07        -0.51223E-20         0.00000E+00
    0.35675E-07         0.60536E-20         0.00000E+00
    0.35643E-07        -0.15600E-19         0.00000E+00
    0.35610E-07        -0.20489E-19         0.00000E+00
    0.35576E-07        -0.22119E-19         0.00000E+00
    0.35543E-07        -0.97789E-20         0.00000E+00
    0.35508E-07         0.23283E-20         0.00000E+00
    0.35474E-07        -0.10012E-19         0.00000E+00
    0.35439E-07        -0.79162E-20         0.00000E+00
    0.35404E-07         0.48894E-20         0.00000E+00
    0.35369E-07         0.23283E-20         0.00000E+00
    0.35334E-07        -0.74506E-20         0.00000E+00
    0.35298E-07        -0.13970E-19         0.00000E+00
    0.35263E-07        -0.24913E-19         0.00000E+00
    0.35227E-07        -0.38184E-19         0.00000E+00
    0.35192E-07        -0.34226E-19         0.00000E+00
    0.35157E-07        -0.38184E-19         0.00000E+00
    0.35122E-07        -0.40745E-19         0.00000E+00
    0.35087E-07        -0.40047E-19         0.00000E+00
    0.35053E-07        -0.46799E-19         0.00000E+00
    0.35019E-07        -0.41211E-19         0.00000E+00
    0.34985E-07        -0.38883E-19         0.00000E+00
    0.34951E-07        -0.26776E-19         0.00000E+00
    0.34918E-07        -0.27474E-19         0.00000E+00
    0.34886E-07        -0.24214E-19         0.00000E+00
    0.34854E-07        -0.25844E-19         0.00000E+00
    0.34822E-07        -0.30734E-19         0.00000E+00
    0.34791E-07        -0.40978E-19         0.00000E+00
    0.34761E-07        -0.53085E-19         0.00000E+00
    0.34731E-07        -0.56345E-19         0.00000E+00
    0.34702E-07        -0.59139E-19         0.00000E+00
    0.34674E-07        -0.44703E-19         0.00000E+00
    0.34646E-07        -0.25611E-19         0.00000E+00
    0.34619E-07        -0.28871E-19         0.00000E+00
    0.34592E-07        -0.34925E-19         0.00000E+00
    0.34566E-07        -0.37719E-19         0.00000E+00
    0.34541E-07        -0.48662E-19         0.00000E+00
    0.34517E-07        -0.35390E-19         0.00000E+00
    0.34494E-07        -0.19092E-19         0.00000E+00
    0.34471E-07        -0.60536E-20         0.00000E+00
    0.34449E-07         0.60536E-20         0.00000E+00
    0.34428E-07         0.58208E-20         0.00000E+00
    0.34407E-07        -0.20489E-19         0.00000E+00
    0.34388E-07        -0.22352E-19         0.00000E+00
    0.34369E-07         0.69849E-20         0.00000E+00
    0.34350E-07         0.79162E-20         0.00000E+00
    0.34333E-07         0.97789E-20         0.00000E+00
    0.34316E-07        -0.13970E-20         0.00000E+00
    0.34300E-07        -0.18626E-20         0.00000E+00
    0.34285E-07         0.69849E-20         0.00000E+00
    0.34271E-07         0.20955E-20         0.00000E+00
    0.34257E-07        -0.23283E-20         0.00000E+00
    0.34244E-07        -0.10943E-19         0.00000E+00
    0.34231E-07        -0.46566E-20         0.00000E+00
    0.34219E-07         0.29337E-19         0.00000E+00
    0.34208E-07         0.20722E-19         0.00000E+00
    0.34198E-07         0.60536E-20         0.00000E+00
    0.34188E-07         0.14435E-19         0.00000E+00
    0.34179E-07         0.18626E-20         0.00000E+00
    0.34170E-07        -0.30268E-20         0.00000E+00
    0.34162E-07         0.30268E-20         0.00000E+00
    0.34155E-07         0.21653E-19         0.00000E+00
    0.34148E-07         0.39348E-19         0.00000E+00
    0.34142E-07         0.30850E-19         0.00000E+00
    0.34136E-07         0.20955E-19         0.00000E+00
    0.34131E-07         0.16298E-19         0.00000E+00
    0.34127E-07         0.27125E-19         0.00000E+00
    0.34122E-07         0.42841E-19         0.00000E+00
    0.34119E-07         0.40396E-19         0.00000E+00
    0.34116E-07         0.42375E-19         0.00000E+00
    0.34113E-07         0.13853E-19         0.00000E+00
    0.34111E-07         0.19791E-19         0.00000E+00
    0.34110E-07         0.19907E-19         0.00000E+00
    0.34109E-07         0.32596E-20         0.00000E+00
    0.34108E-07         0.26776E-20         0.00000E+00
    0.36153E-07         0.15134E-19         0.00000E+00
    0.36151E-07         0.18859E-19         0.00000E+00
    0.36148E-07         0.40978E-19         0.00000E+00
    0.36144E-07         0.51688E-19         0.00000E+00
    0.36137E-07         0.41910E-19         0.00000E+00
    0.36130E-07         0.53318E-19         0.00000E+00
    0.36121E-07         0.67288E-19         0.00000E+00
    0.36110E-07         0.62864E-19         0.00000E+00
    0.36098E-07         0.22119E-19         0.00000E+00
    0.36085E-07         0.58208E-20         0.00000E+00
    0.36070E-07         0.31898E-19         0.00000E+00
    0.36054E-07         0.44936E-19         0.00000E+00
    0.36036E-07         0.33760E-19         0.00000E+00
    0.36018E-07         0.20489E-19         0.00000E+00
    0.35998E-07         0.10012E-19         0.00000E+00
    0.35976E-07         0.15134E-19         0.00000E+00
    0.35954E-07         0.17695E-19         0.00000E+00
    0.35930E-07         0.69849E-20         0.00000E+00
    0.35906E-07        -0.16764E-19         0.00000E+00
    0.35880E-07        -0.19092E-19         0.00000E+00
    0.35853E-07         0.86147E-20         0.00000E+00
    0.35825E-07         0.20722E-19         0.00000E+00
    0.35797E-07         0.95461E-20         0.00000E+00
    0.35767E-07         0.79162E-20         0.00000E+00
    0.35737E-07        -0.93132E-21         0.00000E+00
    0.35706E-07         0.12107E-19         0.00000E+00
    0.35675E-07         0.10710E-19         0.00000E+00
    0.35643E-07        -0.51223E-20         0.00000E+00
    0.35610E-07        -0.69849E-20         0.00000E+00
    0.35576E-07        -0.27008E-19         0.00000E+00
    0.35543E-07        -0.23516E-19         0.00000E+00
    0.35508E-07        -0.46566E-20         0.00000E+00
    0.35474E-07         0.41910E-20         0.00000E+00
    0.35439E-07        -0.51223E-20         0.00000E+00
    0.35404E-07        -0.23283E-21         0.00000E+00
    0.35369E-07         0.76834E-20         0.00000E+00
    0.35334E-07        -0.13970E-19         0.00000E+00
    0.35298E-07        -0.31199E-19         0.00000E+00
    0.35263E-07        -0.14435E-19         0.00000E+00
    0.35227E-07        -0.24447E-19         0.00000E+00
    0.35192E-07        -0.40280E-19         0.00000E+00
    0.35157E-07        -0.31432E-19         0.00000E+00
    0.35122E-07        -0.22585E-19         0.00000E+00
    0.35087E-07        -0.14435E-19         0.00000E+00
    0.35053E-07        -0.29569E-19         0.00000E+00
    0.35019E-07        -0.30501E-19         0.00000E+00
    0.34985E-07        -0.37951E-19         0.00000E+00
    0.34951E-07        -0.51688E-19         0.00000E+00
    0.34918E-07        -0.33760E-19         0.00000E+00
    0.34886E-07        -0.27940E-19         0.00000E+00
    0.34854E-07        -0.30268E-19         0.00000E+00
    0.34822E-07        -0.44471E-19         0.00000E+00
    0.34791E-07        -0.52154E-19         0.00000E+00
    0.34761E-07        -0.28173E-19         0.00000E+00
    0.34731E-07        -0.27474E-19         0.00000E+00
    0.34702E-07        -0.17928E-19         0.00000E+00
    0.34674E-07        -0.14435E-19         0.00000E+00
    0.34646E-07        -0.36787E-19         0.00000E+00
    0.34619E-07        -0.31199E-19         0.00000E+00
    0.34592E-07        -0.28405E-19         0.00000E+00
    0.34566E-07        -0.19791E-19         0.00000E+00
    0.34541E-07        -0.24214E-19         0.00000E+00
    0.34517E-07        -0.19092E-19         0.00000E+00
    0.34494E-07        -0.93132E-21         0.00000E+00
    0.34471E-07        -0.15367E-19         0.00000E+00
    0.34449E-07        -0.12340E-19         0.00000E+00
    0.34428E-07        -0.10477E-19         0.00000E+00
    0.34407E-07        -0.83819E-20         0.00000E+00
    0.34388E-07        -0.13970E-20         0.00000E+00
    0.34369E-07         0.27940E-20         0.00000E+00
    0.34350E-07        -0.23283E-20         0.00000E+00
    0.34333E-07         0.16298E-20         0.00000E+00
    0.34316E-07         0.76834E-20         0.00000E+00
    0.34300E-07        -0.93132E-20         0.00000E+00
    0.34285E-07        -0.22352E-19         0.00000E+00
    0.34271E-07        -0.15600E-19         0.00000E+00
    0.34257E-07         0.32596E-20         0.00000E+00
    0.34244E-07         0.39581E-20         0.00000E+00
    0.34231E-07         0.46566E-20         0.00000E+00
    0.34219E-07         0.23283E-20         0.00000E+00
    0.34208E-07         0.83819E-20         0.00000E+00
    0.34198E-07         0.18161E-19         0.00000E+00
    0.34188E-07         0.37253E-20         0.00000E+00
    0.34179E-07         0.25611E-19         0.00000E+00
    0.34170E-07         0.18859E-19         0.00000E+00
    0.34162E-07         0.25146E-19         0.00000E+00
    0.34155E-07         0.38184E-19         0.00000E+00
    0.34148E-07         0.29104E-19         0.00000E+00
    0.34142E-07         0.45518E-19         0.00000E+00
    0.34136E-07         0.35390E-19         0.00000E+00
    0.34131E-07         0.23167E-19         0.00000E+00
    0.34127E-07         0.17695E-19         0.00000E+00
    0.34122E-07         0.23865E-19         0.00000E+00
    0.34119E-07         0.35274E-19         0.00000E+00
    0.34116E-07         0.21071E-19         0.00000E+00
    0.34113E-07         0.18626E-19         0.00000E+00
    0.34111E-07         0.14203E-19         0.00000E+00
    0.34110E-07         0.10594E-19         0.00000E+00
    0.34109E-07         0.38417E-20         0.00000E+00
    0.34108E-07        -0.44238E-20         0.00000E+00
    0.36153E-07         0.55879E-20         0.00000E+00
    0.36151E-07         0.33760E-19         0.00000E+00
    0.36148E-07         0.39581E-19         0.00000E+00
    0.36144E-07         0.27707E-19         0.00000E+00
    0.36137E-07         0.34226E-19         0.00000E+00
    0.36130E-07         0.61234E-19         0.00000E+00
    0.36121E-07         0.63563E-19         0.00000E+00
    0.36110E-07         0.47032E-19         0.00000E+00
    0.36098E-07         0.90804E-20         0.00000E+00
    0.36085E-07        -0.10012E-19         0.00000E+00
    0.36070E-07         0.27241E-19         0.00000E+00
    0.36054E-07         0.23516E-19         0.00000E+00
    0.36036E-07         0.15832E-19         0.00000E+00
    0.36018E-07         0.27474E-19         0.00000E+00
    0.35998E-07         0.42375E-19         0.00000E+00
    0.35976E-07         0.24214E-19         0.00000E+00
    0.35954E-07         0.39581E-20         0.00000E+00
    0.35930E-07         0.28638E-19         0.00000E+00
    0.35906E-07        -0.10012E-19         0.00000E+00
    0.35880E-07        -0.43772E-19         0.00000E+00
    0.35853E-07        -0.27707E-19         0.00000E+00
    0.35825E-07        -0.69849E-21         0.00000E+00
    0.35797E-07         0.25611E-20         0.00000E+00
    0.35767E-07         0.34925E-20         0.00000E+00
    0.35737E-07        -0.20955E-20         0.00000E+00
    0.35706E-07         0.00000E+00         0.00000E+00
    0.35675E-07        -0.34925E-20         0.00000E+00
    0.35643E-07        -0.11176E-19         0.00000E+00
    0.35610E-07        -0.13039E-19         0.00000E+00
    0.35576E-07         0.67521E-20         0.00000E+00
    0.35543E-07         0.10943E-19         0.00000E+00
    0.35508E-07        -0.25611E-20         0.00000E+00
    0.35474E-07        -0.15832E-19         0.00000E+00
    0.35439E-07        -0.16764E-19         0.00000E+00
    0.35404E-07         0.46566E-20         0.00000E+00
    0.35369E-07         0.93132E-20         0.00000E+00
    0.35334E-07        -0.10477E-19         0.00000E+00
    0.35298E-07        -0.31432E-19         0.00000E+00
    0.35263E-07        -0.33528E-19         0.00000E+00
    0.35227E-07        -0.23050E-19         0.00000E+00
    0.35192E-07        -0.42841E-19         0.00000E+00
    0.35157E-07        -0.69849E-19         0.00000E+00
    0.35122E-07        -0.58440E-19         0.00000E+00
    0.35087E-07        -0.41444E-19         0.00000E+00
    0.35053E-07        -0.44005E-19         0.00000E+00
    0.35019E-07        -0.57742E-19         0.00000E+00
    0.34985E-07        -0.60303E-19         0.00000E+00
    0.34951E-07        -0.45402E-19         0.00000E+00
    0.34918E-07        -0.50059E-19         0.00000E+00
    0.34886E-07        -0.52620E-19         0.00000E+00
    0.34854E-07        -0.45169E-19         0.00000E+00
    0.34822E-07        -0.25146E-19         0.00000E+00
    0.34791E-07        -0.18626E-19         0.00000E+00
    0.34761E-07        -0.26543E-19         0.00000E+00
    0.34731E-07        -0.60536E-20         0.00000E+00
    0.34702E-07        -0.23283E-19         0.00000E+00
    0.34674E-07        -0.28871E-19         0.00000E+00
    0.34646E-07        -0.17928E-19         0.00000E+00
    0.34619E-07        -0.11409E-19         0.00000E+00
    0.34592E-07        -0.18626E-20         0.00000E+00
    0.34566E-07        -0.76834E-20         0.00000E+00
    0.34541E-07        -0.14901E-19         0.00000E+00
    0.34517E-07        -0.41910E-20         0.00000E+00
    0.34494E-07         0.23283E-20         0.00000E+00
    0.34471E-07        -0.51223E-20         0.00000E+00
    0.34449E-07         0.93132E-21         0.00000E+00
    0.34428E-07        -0.18626E-20         0.00000E+00
    0.34407E-07         0.46566E-21         0.00000E+00
    0.34388E-07        -0.13970E-20         0.00000E+00
    0.34369E-07        -0.13970E-20         0.00000E+00
    0.34350E-07         0.74506E-20         0.00000E+00
    0.34333E-07         0.32596E-20         0.00000E+00
    0.34316E-07         0.10012E-19         0.00000E+00
    0.34300E-07         0.88476E-20         0.00000E+00
    0.34285E-07         0.95461E-20         0.00000E+00
    0.34271E-07         0.32596E-20         0.00000E+00
    0.34257E-07        -0.23283E-20         0.00000E+00
    0.34244E-07         0.58208E-20         0.00000E+00
    0.34231E-07         0.11176E-19         0.00000E+00
    0.34219E-07         0.28871E-19         0.00000E+00
    0.34208E-07         0.27707E-19         0.00000E+00
    0.34198E-07         0.24214E-19         0.00000E+00
    0.34188E-07         0.35390E-19         0.00000E+00
    0.34179E-07         0.13737E-19         0.00000E+00
    0.34170E-07         0.93132E-21         0.00000E+00
    0.34162E-07         0.30268E-20         0.00000E+00
    0.34155E-07        -0.16298E-20         0.00000E+00
    0.34148E-07         0.16415E-19         0.00000E+00
    0.34142E-07         0.39698E-19         0.00000E+00
    0.34136E-07         0.34343E-19         0.00000E+00
    0.34131E-07         0.10710E-19         0.00000E+00
    0.34127E-07         0.44238E-20         0.00000E+00
    0.34122E-07         0.15367E-19         0.00000E+00
    0.34119E-07         0.19791E-19         0.00000E+00
    0.34116E-07         0.13621E-19         0.00000E+00
    0.34113E-07         0.31432E-19         0.00000E+00
    0.34111E-07         0.26310E-19         0.00000E+00
    0.34110E-07         0.83819E-20         0.00000E+00
    0.34109E-07         0.24447E-20         0.00000E+00
    0.34108E-07        -0.45402E-20         0.00000E+00
    0.36153E-07         0.69849E-20         0.00000E+00
    0.36151E-07         0.32131E-19         0.00000E+00
    0.36148E-07         0.33528E-19         0.00000E+00
    0.36144E-07         0.25146E-19         0.00000E+00
    0.36137E-07         0.45169E-19         0.00000E+00
    0.36130E-07         0.45402E-19         0.00000E+00
    0.36121E-07         0.48196E-19         0.00000E+00
    0.36110E-07         0.37020E-19         0.00000E+00
    0.36098E-07         0.42841E-19         0.00000E+00
    0.36085E-07         0.32596E-19         0.00000E+00
    0.36070E-07         0.18859E-19         0.00000E+00
    0.36054E-07        -0.34925E-20         0.00000E+00
    0.36036E-07        -0.69849E-21         0.00000E+00
    0.36018E-07         0.37253E-19         0.00000E+00
    0.35998E-07         0.15134E-19         0.00000E+00
    0.35976E-07        -0.13039E-19         0.00000E+00
    0.35954E-07        -0.15832E-19         0.00000E+00
    0.35930E-07        -0.28871E-19         0.00000E+00
    0.35906E-07        -0.22352E-19         0.00000E+00
    0.35880E-07        -0.27008E-19         0.00000E+00
    0.35853E-07        -0.45402E-19         0.00000E+00
    0.35825E-07         0.18626E-20         0.00000E+00
    0.35797E-07         0.16997E-19         0.00000E+00
    0.35767E-07        -0.19092E-19         0.00000E+00
    0.35737E-07        -0.24913E-19         0.00000E+00
    0.35706E-07        -0.15367E-19         0.00000E+00
    0.35675E-07        -0.79162E-20         0.00000E+00
    0.35643E-07        -0.69849E-21         0.00000E+00
    0.35610E-07         0.37253E-20         0.00000E+00
    0.35576E-07        -0.53551E-20         0.00000E+00
    0.35543E-07        -0.19092E-19         0.00000E+00
    0.35508E-07        -0.14901E-19         0.00000E+00
    0.35474E-07        -0.46566E-21         0.00000E+00
    0.35439E-07         0.12806E-19         0.00000E+00
    0.35404E-07         0.88476E-20         0.00000E+00
    0.35369E-07         0.23283E-21         0.00000E+00
    0.35334E-07         0.51223E-20         0.00000E+00
    0.35298E-07        -0.46566E-20         0.00000E+00
    0.35263E-07        -0.10245E-19         0.00000E+00
    0.35227E-07        -0.28405E-19         0.00000E+00
    0.35192E-07        -0.50990E-19         0.00000E+00
    0.35157E-07        -0.43772E-19         0.00000E+00
    0.35122E-07        -0.27940E-19         0.00000E+00
    0.35087E-07        -0.52853E-19         0.00000E+00
    0.35053E-07        -0.60536E-19         0.00000E+00
    0.35019E-07        -0.62166E-19         0.00000E+00
    0.34985E-07        -0.58906E-19         0.00000E+00
    0.34951E-07        -0.72410E-19         0.00000E+00
    0.34918E-07        -0.50059E-19         0.00000E+00
    0.34886E-07        -0.10943E-19         0.00000E+00
    0.34854E-07        -0.41211E-19         0.00000E+00
    0.34822E-07        -0.33760E-19         0.00000E+00
    0.34791E-07        -0.22817E-19         0.00000E+00
    0.34761E-07        -0.22352E-19         0.00000E+00
    0.34731E-07        -0.20955E-19         0.00000E+00
    0.34702E-07        -0.24680E-19         0.00000E+00
    0.34674E-07        -0.26543E-19         0.00000E+00
    0.34646E-07        -0.28173E-19         0.00000E+00
    0.34619E-07        -0.28405E-19         0.00000E+00
    0.34592E-07        -0.51223E-20         0.00000E+00
    0.34566E-07         0.15367E-19         0.00000E+00
    0.34541E-07         0.46566E-20         0.00000E+00
    0.34517E-07         0.13970E-20         0.00000E+00
    0.34494E-07         0.23283E-20         0.00000E+00
    0.34471E-07         0.24447E-19         0.00000E+00
    0.34449E-07         0.29104E-19         0.00000E+00
    0.34428E-07         0.11642E-19         0.00000E+00
    0.34407E-07        -0.34925E-20         0.00000E+00
    0.34388E-07        -0.27940E-20         0.00000E+00
    0.34369E-07         0.83819E-20         0.00000E+00
    0.34350E-07         0.46566E-21         0.00000E+00
    0.34333E-07         0.27940E-20         0.00000E+00
    0.34316E-07         0.16997E-19         0.00000E+00
    0.34300E-07         0.21886E-19         0.00000E+00
    0.34285E-07         0.17695E-19         0.00000E+00
    0.34271E-07         0.65193E-20         0.00000E+00
    0.34257E-07         0.37253E-20         0.00000E+00
    0.34244E-07        -0.93132E-21         0.00000E+00
    0.34231E-07         0.69849E-20         0.00000E+00
    0.34219E-07         0.79162E-20         0.00000E+00
    0.34208E-07         0.14203E-19         0.00000E+00
    0.34198E-07         0.28871E-19         0.00000E+00
    0.34188E-07         0.12573E-19         0.00000E+00
    0.34179E-07         0.74506E-20         0.00000E+00
    0.34170E-07         0.20023E-19         0.00000E+00
    0.34162E-07         0.21420E-19         0.00000E+00
    0.34155E-07         0.22352E-19         0.00000E+00
    0.34148E-07         0.19907E-19         0.00000E+00
    0.34142E-07         0.13621E-19         0.00000E+00
    0.34136E-07         0.26776E-19         0.00000E+00
    0.34131E-07         0.26077E-19         0.00000E+00
    0.34127E-07         0.23632E-19         0.00000E+00
    0.34122E-07         0.27823E-19         0.00000E+00
    0.34119E-07         0.23283E-19         0.00000E+00
    0.34116E-07         0.27590E-19         0.00000E+00
    0.34113E-07         0.19558E-19         0.00000E+00
    0.34111E-07         0.17812E-19         0.00000E+00
    0.34110E-07         0.19558E-19         0.00000E+00
    0.34109E-07         0.46566E-21         0.00000E+00
    0.34108E-07        -0.67521E-20         0.00000E+00
    0.36153E-07        -0.26543E-19         0.00000E+00
    0.36151E-07        -0.17928E-19         0.00000E+00
    0.36148E-07         0.45635E-19         0.00000E+00
    0.36144E-07         0.39581E-19         0.00000E+00
    0.36137E-07         0.25611E-19         0.00000E+00
    0.36130E-07         0.35157E-19         0.00000E+00
    0.36121E-07         0.24913E-19         0.00000E+00
    0.36110E-07         0.32131E-19         0.00000E+00
    0.36098E-07         0.16065E-19         0.00000E+00
    0.36085E-07        -0.11874E-19         0.00000E+00
    0.36070E-07        -0.27707E-19         0.00000E+00
    0.36054E-07        -0.40280E-19         0.00000E+00
    0.36036E-07        -0.37719E-19         0.00000E+00
    0.36018E-07        -0.29802E-19         0.00000E+00
    0.35998E-07         0.23749E-19         0.00000E+00
    0.35976E-07         0.14901E-19         0.00000E+00
    0.35954E-07        -0.19325E-19         0.00000E+00
    0.35930E-07        -0.28638E-19         0.00000E+00
    0.35906E-07        -0.33528E-19         0.00000E+00
    0.35880E-07        -0.32131E-19         0.00000E+00
    0.35853E-07        -0.26310E-19         0.00000E+00
    0.35825E-07         0.55879E-20         0.00000E+00
    0.35797E-07         0.15832E-19         0.00000E+00
    0.35767E-07         0.27940E-20         0.00000E+00
    0.35737E-07         0.34925E-20         0.00000E+00
    0.35706E-07         0.95461E-20         0.00000E+00
    0.35675E-07         0.74506E-20         0.00000E+00
    0.35643E-07         0.23283E-20         0.00000E+00
    0.35610E-07         0.16298E-20         0.00000E+00
    0.35576E-07        -0.30268E-20         0.00000E+00
    0.35543E-07         0.13504E-19         0.00000E+00
    0.35508E-07         0.21886E-19         0.00000E+00
    0.35474E-07         0.18394E-19         0.00000E+00
    0.35439E-07         0.30501E-19         0.00000E+00
    0.35404E-07         0.12806E-19         0.00000E+00
    0.35369E-07        -0.11642E-20         0.00000E+00
    0.35334E-07         0.81491E-20         0.00000E+00
    0.35298E-07        -0.27940E-20         0.00000E+00
    0.35263E-07        -0.17695E-19         0.00000E+00
    0.35227E-07        -0.19092E-19         0.00000E+00
    0.35192E-07        -0.26776E-19         0.00000E+00
    0.35157E-07        -0.25611E-19         0.00000E+00
    0.35122E-07        -0.37253E-19         0.00000E+00
    0.35087E-07        -0.36787E-19         0.00000E+00
    0.35053E-07        -0.17462E-19         0.00000E+00
    0.35019E-07        -0.34925E-19         0.00000E+00
    0.34985E-07        -0.54017E-19         0.00000E+00
    0.34951E-07        -0.56345E-19         0.00000E+00
    0.34918E-07        -0.44703E-19         0.00000E+00
    0.34886E-07        -0.31199E-19         0.00000E+00
    0.34854E-07        -0.36089E-19         0.00000E+00
    0.34822E-07        -0.26310E-19         0.00000E+00
    0.34791E-07        -0.13039E-19         0.00000E+00
    0.34761E-07        -0.39116E-19         0.00000E+00
    0.34731E-07        -0.45169E-19         0.00000E+00
    0.34702E-07        -0.63330E-19         0.00000E+00
    0.34674E-07        -0.72177E-19         0.00000E+00
    0.34646E-07        -0.53085E-19         0.00000E+00
    0.34619E-07        -0.46799E-19         0.00000E+00
    0.34592E-07        -0.37951E-19         0.00000E+00
    0.34566E-07        -0.28638E-19         0.00000E+00
    0.34541E-07        -0.88476E-20         0.00000E+00
    0.34517E-07        -0.13039E-19         0.00000E+00
    0.34494E-07        -0.19558E-19         0.00000E+00
    0.34471E-07        -0.10245E-19         0.00000E+00
    0.34449E-07        -0.24447E-19         0.00000E+00
    0.34428E-07        -0.23516E-19         0.00000E+00
    0.34407E-07        -0.16997E-19         0.00000E+00
    0.34388E-07        -0.13970E-19         0.00000E+00
    0.34369E-07        -0.55879E-20         0.00000E+00
    0.34350E-07        -0.14901E-19         0.00000E+00
    0.34333E-07        -0.11642E-19         0.00000E+00
    0.34316E-07         0.34925E-20         0.00000E+00
    0.34300E-07         0.90804E-20         0.00000E+00
    0.34285E-07         0.20955E-20         0.00000E+00
    0.34271E-07        -0.34925E-20         0.00000E+00
    0.34257E-07         0.79162E-20         0.00000E+00
    0.34244E-07        -0.18626E-20         0.00000E+00
    0.34231E-07        -0.41910E-20         0.00000E+00
    0.34219E-07        -0.18626E-20         0.00000E+00
    0.34208E-07        -0.76834E-20         0.00000E+00
    0.34198E-07         0.69849E-20         0.00000E+00
    0.34188E-07         0.16298E-19         0.00000E+00
    0.34179E-07         0.26310E-19         0.00000E+00
    0.34170E-07         0.16764E-19         0.00000E+00
    0.34162E-07         0.93132E-20         0.00000E+00
    0.34155E-07         0.23283E-19         0.00000E+00
    0.34148E-07         0.30268E-19         0.00000E+00
    0.34142E-07         0.97789E-20         0.00000E+00
    0.34136E-07         0.31665E-19         0.00000E+00
    0.34131E-07         0.43423E-19         0.00000E+00
    0.34127E-07         0.14435E-19         0.00000E+00
    0.34122E-07         0.41910E-20         0.00000E+00
    0.34119E-07         0.14785E-19         0.00000E+00
    0.34116E-07         0.26892E-19         0.00000E+00
    0.34113E-07         0.33062E-19         0.00000E+00
    0.34111E-07         0.31665E-19         0.00000E+00
    0.34110E-07         0.12689E-19         0.00000E+00
    0.34109E-07        -0.23283E-21         0.00000E+00
    0.34108E-07        -0.40745E-20         0.00000E+00
    0.36153E-07        -0.18626E-20         0.00000E+00
    0.36151E-07         0.19092E-19         0.00000E+00
    0.36148E-07         0.33528E-19         0.00000E+00
    0.36144E-07         0.40978E-19         0.00000E+00
    0.36137E-07         0.41910E-19         0.00000E+00
    0.36130E-07         0.14203E-19         0.00000E+00
    0.36121E-07         0.24913E-19         0.00000E+00
    0.36110E-07         0.20955E-19         0.00000E+00
    0.36098E-07        -0.16531E-19         0.00000E+00
    0.36085E-07        -0.20256E-19         0.00000E+00
    0.36070E-07        -0.18859E-19         0.00000E+00
    0.36054E-07        -0.48894E-20         0.00000E+00
    0.36036E-07         0.34925E-20         0.00000E+00
    0.36018E-07        -0.10477E-19         0.00000E+00
    0.35998E-07         0.22119E-19         0.00000E+00
    0.35976E-07         0.58673E-19         0.00000E+00
    0.35954E-07         0.33062E-19         0.00000E+00
    0.35930E-07        -0.13970E-19         0.00000E+00
    0.35906E-07         0.69849E-20         0.00000E+00
    0.35880E-07         0.27008E-19         0.00000E+00
    0.35853E-07         0.11874E-19         0.00000E+00
    0.35825E-07        -0.41910E-20         0.00000E+00
    0.35797E-07         0.55879E-20         0.00000E+00
    0.35767E-07         0.55879E-20         0.00000E+00
    0.35737E-07         0.88476E-20         0.00000E+00
    0.35706E-07         0.17695E-19         0.00000E+00
    0.35675E-07         0.13970E-20         0.00000E+00
    0.35643E-07         0.23283E-21         0.00000E+00
    0.35610E-07         0.14901E-19         0.00000E+00
    0.35576E-07         0.21886E-19         0.00000E+00
    0.35543E-07         0.32131E-19         0.00000E+00
    0.35508E-07         0.11642E-19         0.00000E+00
    0.35474E-07         0.58208E-20         0.00000E+00
    0.35439E-07         0.15367E-19         0.00000E+00
    0.35404E-07         0.16531E-19         0.00000E+00
    0.35369E-07        -0.23283E-20         0.00000E+00
    0.35334E-07        -0.69849E-20         0.00000E+00
    0.35298E-07         0.17229E-19         0.00000E+00
    0.35263E-07        -0.11409E-19         0.00000E+00
    0.35227E-07        -0.37951E-19         0.00000E+00
    0.35192E-07        -0.36322E-19         0.00000E+00
    0.35157E-07        -0.46100E-19         0.00000E+00
    0.35122E-07        -0.51223E-19         0.00000E+00
    0.35087E-07        -0.40745E-19         0.00000E+00
    0.35053E-07        -0.47032E-19         0.00000E+00
    0.35019E-07        -0.50059E-19         0.00000E+00
    0.34985E-07        -0.40280E-19         0.00000E+00
    0.34951E-07        -0.40978E-19         0.00000E+00
    0.34918E-07        -0.48662E-19         0.00000E+00
    0.34886E-07        -0.42841E-19         0.00000E+00
    0.34854E-07        -0.32131E-19         0.00000E+00
    0.34822E-07        -0.31665E-19         0.00000E+00
    0.34791E-07        -0.25611E-19         0.00000E+00
    0.34761E-07        -0.20023E-19         0.00000E+00
    0.34731E-07        -0.22817E-19         0.00000E+00
    0.34702E-07        -0.47497E-19         0.00000E+00
    0.34674E-07        -0.67055E-19         0.00000E+00
    0.34646E-07        -0.63796E-19         0.00000E+00
    0.34619E-07        -0.39116E-19         0.00000E+00
    0.34592E-07        -0.20023E-19         0.00000E+00
    0.34566E-07        -0.31432E-19         0.00000E+00
    0.34541E-07        -0.17229E-19         0.00000E+00
    0.34517E-07        -0.13970E-20         0.00000E+00
    0.34494E-07        -0.93132E-20         0.00000E+00
    0.34471E-07        -0.39581E-20         0.00000E+00
    0.34449E-07         0.74506E-20         0.00000E+00
    0.34428E-07        -0.23516E-19         0.00000E+00
    0.34407E-07        -0.17229E-19         0.00000E+00
    0.34388E-07         0.14901E-19         0.00000E+00
    0.34369E-07         0.46566E-21         0.00000E+00
    0.34350E-07        -0.46566E-21         0.00000E+00
    0.34333E-07        -0.20955E-20         0.00000E+00
    0.34316E-07         0.10245E-19         0.00000E+00
    0.34300E-07         0.23749E-19         0.00000E+00
    0.34285E-07         0.76834E-20         0.00000E+00
    0.34271E-07         0.11176E-19         0.00000E+00
    0.34257E-07         0.21886E-19         0.00000E+00
    0.34244E-07         0.55879E-20         0.00000E+00
    0.34231E-07         0.79162E-20         0.00000E+00
    0.34219E-07         0.00000E+00         0.00000E+00
    0.34208E-07         0.44238E-20         0.00000E+00
    0.34198E-07         0.22119E-19         0.00000E+00
    0.34188E-07         0.65193E-20         0.00000E+00
    0.34179E-07         0.88476E-20         0.00000E+00
    0.34170E-07         0.11176E-19         0.00000E+00
    0.34162E-07         0.10477E-19         0.00000E+00
    0.34155E-07         0.22352E-19         0.00000E+00
    0.34148E-07         0.23050E-19         0.00000E+00
    0.34142E-07         0.32247E-19         0.00000E+00
    0.34136E-07         0.33993E-19         0.00000E+00
    0.34131E-07         0.33760E-19         0.00000E+00
    0.34127E-07         0.18044E-19         0.00000E+00
    0.34122E-07         0.16298E-19         0.00000E+00
    0.34119E-07         0.38184E-19         0.00000E+00
    0.34116E-07         0.12806E-19         0.00000E+00
    0.34113E-07         0.57044E-20         0.00000E+00
    0.34111E-07         0.17462E-19         0.00000E+00
    0.34110E-07         0.10128E-19         0.00000E+00
    0.34109E-07         0.23283E-20         0.00000E+00
    0.34108E-07         0.11642E-20         0.00000E+00
    0.36153E-07         0.27008E-19         0.00000E+00
    0.36151E-07         0.47730E-19         0.00000E+00
    0.36148E-07         0.30268E-19         0.00000E+00
    0.36144E-07         0.22352E-19         0.00000E+00
    0.36137E-07         0.47730E-19         0.00000E+00
    0.36130E-07         0.72410E-19         0.00000E+00
    0.36121E-07         0.54250E-19         0.00000E+00
    0.36110E-07         0.26543E-19         0.00000E+00
    0.36098E-07         0.21188E-19         0.00000E+00
    0.36085E-07         0.10012E-19         0.00000E+00
    0.36070E-07         0.25611E-20         0.00000E+00
    0.36054E-07        -0.33062E-19         0.00000E+00
    0.36036E-07        -0.32829E-19         0.00000E+00
    0.36018E-07         0.22585E-19         0.00000E+00
    0.35998E-07         0.59372E-19         0.00000E+00
    0.35976E-07         0.44471E-19         0.00000E+00
    0.35954E-07         0.30035E-19         0.00000E+00
    0.35930E-07         0.13970E-19         0.00000E+00
    0.35906E-07         0.16298E-19         0.00000E+00
    0.35880E-07         0.11176E-19         0.00000E+00
    0.35853E-07        -0.17462E-19         0.00000E+00
    0.35825E-07        -0.13271E-19         0.00000E+00
    0.35797E-07         0.18626E-20         0.00000E+00
    0.35767E-07        -0.18626E-20         0.00000E+00
    0.35737E-07         0.00000E+00         0.00000E+00
    0.35706E-07         0.17695E-19         0.00000E+00
    0.35675E-07         0.10245E-19         0.00000E+00
    0.35643E-07         0.39581E-20         0.00000E+00
    0.35610E-07         0.38883E-19         0.00000E+00
    0.35576E-07         0.43772E-19         0.00000E+00
    0.35543E-07         0.39581E-20         0.00000E+00
    0.35508E-07         0.14435E-19         0.00000E+00
    0.35474E-07         0.33993E-19         0.00000E+00
    0.35439E-07         0.11409E-19         0.00000E+00
    0.35404E-07         0.11642E-19         0.00000E+00
    0.35369E-07         0.11642E-20         0.00000E+00
    0.35334E-07        -0.31665E-19         0.00000E+00
    0.35298E-07        -0.15832E-19         0.00000E+00
    0.35263E-07        -0.19558E-19         0.00000E+00
    0.35227E-07        -0.33062E-19         0.00000E+00
    0.35192E-07        -0.40047E-19         0.00000E+00
    0.35157E-07        -0.39581E-19         0.00000E+00
    0.35122E-07        -0.41211E-19         0.00000E+00
    0.35087E-07        -0.44471E-19         0.00000E+00
    0.35053E-07        -0.64727E-19         0.00000E+00
    0.35019E-07        -0.59372E-19         0.00000E+00
    0.34985E-07        -0.59372E-19         0.00000E+00
    0.34951E-07        -0.51456E-19         0.00000E+00
    0.34918E-07        -0.30501E-19         0.00000E+00
    0.34886E-07        -0.39116E-19         0.00000E+00
    0.34854E-07        -0.27940E-19         0.00000E+00
    0.34822E-07        -0.20955E-19         0.00000E+00
    0.34791E-07        -0.86147E-20         0.00000E+00
    0.34761E-07        -0.25611E-20         0.00000E+00
    0.34731E-07        -0.34925E-19         0.00000E+00
    0.34702E-07        -0.49127E-19         0.00000E+00
    0.34674E-07        -0.38883E-19         0.00000E+00
    0.34646E-07        -0.54017E-19         0.00000E+00
    0.34619E-07        -0.52620E-19         0.00000E+00
    0.34592E-07        -0.33760E-19         0.00000E+00
    0.34566E-07        -0.37020E-19         0.00000E+00
    0.34541E-07        -0.26543E-19         0.00000E+00
    0.34517E-07        -0.93132E-21         0.00000E+00
    0.34494E-07         0.17229E-19         0.00000E+00
    0.34471E-07         0.10710E-19         0.00000E+00
    0.34449E-07        -0.88476E-20         0.00000E+00
    0.34428E-07        -0.16997E-19         0.00000E+00
    0.34407E-07        -0.11642E-20         0.00000E+00
    0.34388E-07         0.12340E-19         0.00000E+00
    0.34369E-07        -0.18626E-20         0.00000E+00
    0.34350E-07         0.14435E-19         0.00000E+00
    0.34333E-07         0.33062E-19         0.00000E+00
    0.34316E-07         0.22585E-19         0.00000E+00
    0.34300E-07         0.24214E-19         0.00000E+00
    0.34285E-07         0.24447E-19         0.00000E+00
    0.34271E-07        -0.11642E-20         0.00000E+00
    0.34257E-07         0.14901E-19         0.00000E+00
    0.34244E-07         0.22119E-19         0.00000E+00
    0.34231E-07         0.21886E-19         0.00000E+00
    0.34219E-07         0.16298E-19         0.00000E+00
    0.34208E-07         0.95461E-20         0.00000E+00
    0.34198E-07         0.13970E-20         0.00000E+00
    0.34188E-07        -0.13970E-20         0.00000E+00
    0.34179E-07         0.19558E-19         0.00000E+00
    0.34170E-07         0.23749E-19         0.00000E+00
    0.34162E-07         0.27241E-19         0.00000E+00
    0.34155E-07         0.26776E-19         0.00000E+00
    0.34148E-07         0.17812E-19         0.00000E+00
    0.34142E-07         0.18161E-19         0.00000E+00
    0.34136E-07         0.10245E-19         0.00000E+00
    0.34131E-07         0.24331E-19         0.00000E+00
    0.34127E-07         0.37136E-19         0.00000E+00
    0.34122E-07         0.30850E-19         0.00000E+00
    0.34119E-07         0.28173E-19         0.00000E+00
    0.34116E-07         0.31665E-19         0.00000E+00
    0.34113E-07         0.40047E-19         0.00000E+00
    0.34111E-07         0.22002E-19         0.00000E+00
    0.34110E-07         0.24447E-20         0.00000E+00
    0.34109E-07         0.15716E-19         0.00000E+00
    0.34108E-07         0.17579E-19         0.00000E+00
    0.36153E-07         0.22352E-19         0.00000E+00
    0.36151E-07         0.30268E-20         0.00000E+00
    0.36148E-07         0.13970E-20         0.00000E+00
    0.36144E-07         0.21420E-19         0.00000E+00
    0.36137E-07         0.30734E-19         0.00000E+00
    0.36130E-07         0.50524E-19         0.00000E+00
    0.36121E-07         0.35157E-19         0.00000E+00
    0.36110E-07         0.19558E-19         0.00000E+00
    0.36098E-07         0.29104E-19         0.00000E+00
    0.36085E-07         0.62864E-20         0.00000E+00
    0.36070E-07        -0.10943E-19         0.00000E+00
    0.36054E-07        -0.39581E-20         0.00000E+00
    0.36036E-07        -0.20256E-19         0.00000E+00
    0.36018E-07        -0.16531E-19         0.00000E+00
    0.35998E-07         0.30966E-19         0.00000E+00
    0.35976E-07         0.48894E-19         0.00000E+00
    0.35954E-07         0.36554E-19         0.00000E+00
    0.35930E-07         0.27008E-19         0.00000E+00
    0.35906E-07         0.11642E-19         0.00000E+00
    0.35880E-07         0.97789E-20         0.00000E+00
    0.35853E-07        -0.15600E-19         0.00000E+00
    0.35825E-07        -0.25379E-19         0.00000E+00
    0.35797E-07        -0.11874E-19         0.00000E+00
    0.35767E-07        -0.11176E-19         0.00000E+00
    0.35737E-07         0.46566E-21         0.00000E+00
    0.35706E-07        -0.93132E-21         0.00000E+00
    0.35675E-07        -0.51223E-20         0.00000E+00
    0.35643E-07         0.93132E-20         0.00000E+00
    0.35610E-07         0.12340E-19         0.00000E+00
    0.35576E-07         0.83819E-20         0.00000E+00
    0.35543E-07        -0.93132E-20         0.00000E+00
    0.35508E-07        -0.83819E-20         0.00000E+00
    0.35474E-07         0.25844E-19         0.00000E+00
    0.35439E-07         0.23982E-19         0.00000E+00
    0.35404E-07         0.10477E-19         0.00000E+00
    0.35369E-07         0.55879E-20         0.00000E+00
    0.35334E-07        -0.13970E-19         0.00000E+00
    0.35298E-07        -0.34925E-19         0.00000E+00
    0.35263E-07        -0.25611E-19         0.00000E+00
    0.35227E-07        -0.11176E-19         0.00000E+00
    0.35192E-07        -0.41211E-19         0.00000E+00
    0.35157E-07        -0.59605E-19         0.00000E+00
    0.35122E-07        -0.44471E-19         0.00000E+00
    0.35087E-07        -0.47730E-19         0.00000E+00
    0.35053E-07        -0.52620E-19         0.00000E+00
    0.35019E-07        -0.44471E-19         0.00000E+00
    0.34985E-07        -0.72643E-19         0.00000E+00
    0.34951E-07        -0.46799E-19         0.00000E+00
    0.34918E-07        -0.16997E-19         0.00000E+00
    0.34886E-07        -0.36787E-19         0.00000E+00
    0.34854E-07        -0.26776E-19         0.00000E+00
    0.34822E-07         0.25611E-20         0.00000E+00
    0.34791E-07        -0.11409E-19         0.00000E+00
    0.34761E-07        -0.97789E-20         0.00000E+00
    0.34731E-07        -0.18161E-19         0.00000E+00
    0.34702E-07        -0.40978E-19         0.00000E+00
    0.34674E-07        -0.42841E-19         0.00000E+00
    0.34646E-07        -0.67987E-19         0.00000E+00
    0.34619E-07        -0.67987E-19         0.00000E+00
    0.34592E-07        -0.33760E-19         0.00000E+00
    0.34566E-07        -0.15600E-19         0.00000E+00
    0.34541E-07        -0.20489E-19         0.00000E+00
    0.34517E-07        -0.15832E-19         0.00000E+00
    0.34494E-07         0.88476E-20         0.00000E+00
    0.34471E-07         0.74506E-20         0.00000E+00
    0.34449E-07        -0.10943E-19         0.00000E+00
    0.34428E-07        -0.16298E-20         0.00000E+00
    0.34407E-07        -0.20955E-20         0.00000E+00
    0.34388E-07         0.90804E-20         0.00000E+00
    0.34369E-07        -0.23283E-20         0.00000E+00
    0.34350E-07        -0.88476E-20         0.00000E+00
    0.34333E-07        -0.16298E-20         0.00000E+00
    0.34316E-07        -0.11642E-20         0.00000E+00
    0.34300E-07         0.32596E-20         0.00000E+00
    0.34285E-07         0.22119E-19         0.00000E+00
    0.34271E-07         0.14668E-19         0.00000E+00
    0.34257E-07        -0.20023E-19         0.00000E+00
    0.34244E-07        -0.46566E-21         0.00000E+00
    0.34231E-07         0.00000E+00         0.00000E+00
    0.34219E-07        -0.55879E-20         0.00000E+00
    0.34208E-07         0.23283E-20         0.00000E+00
    0.34198E-07        -0.97789E-20         0.00000E+00
    0.34188E-07         0.23283E-20         0.00000E+00
    0.34179E-07         0.37253E-20         0.00000E+00
    0.34170E-07        -0.69849E-20         0.00000E+00
    0.34162E-07         0.39581E-20         0.00000E+00
    0.34155E-07         0.20256E-19         0.00000E+00
    0.34148E-07         0.30501E-19         0.00000E+00
    0.34142E-07         0.17695E-19         0.00000E+00
    0.34136E-07         0.14435E-19         0.00000E+00
    0.34131E-07         0.23399E-19         0.00000E+00
    0.34127E-07         0.22235E-19         0.00000E+00
    0.34122E-07         0.28755E-19         0.00000E+00
    0.34119E-07         0.25728E-19         0.00000E+00
    0.34116E-07         0.16764E-19         0.00000E+00
    0.34113E-07         0.32596E-20         0.00000E+00
    0.34111E-07         0.14668E-19         0.00000E+00
    0.34110E-07         0.97789E-20         0.00000E+00
    0.34109E-07         0.88476E-20         0.00000E+00
    0.34108E-07         0.96625E-20         0.00000E+00
    0.36153E-07         0.26543E-19         0.00000E+00
    0.36151E-07         0.22119E-19         0.00000E+00
    0.36148E-07        -0.12107E-19         0.00000E+00
    0.36144E-07         0.36787E-19         0.00000E+00
    0.36137E-07         0.55414E-19         0.00000E+00
    0.36130E-07         0.38417E-19         0.00000E+00
    0.36121E-07         0.48196E-19         0.00000E+00
    0.36110E-07         0.30268E-19         0.00000E+00
    0.36098E-07         0.58673E-19         0.00000E+00
    0.36085E-07         0.64028E-19         0.00000E+00
    0.36070E-07         0.16065E-19         0.00000E+00
    0.36054E-07         0.10012E-19         0.00000E+00
    0.36036E-07         0.22585E-19         0.00000E+00
    0.36018E-07         0.25844E-19         0.00000E+00
    0.35998E-07         0.32596E-20         0.00000E+00
    0.35976E-07         0.11874E-19         0.00000E+00
    0.35954E-07         0.12806E-19         0.00000E+00
    0.35930E-07        -0.93132E-21         0.00000E+00
    0.35906E-07        -0.41910E-20         0.00000E+00
    0.35880E-07         0.19558E-19         0.00000E+00
    0.35853E-07         0.32596E-19         0.00000E+00
    0.35825E-07        -0.74506E-20         0.00000E+00
    0.35797E-07        -0.30268E-20         0.00000E+00
    0.35767E-07         0.22352E-19         0.00000E+00
    0.35737E-07         0.31432E-19         0.00000E+00
    0.35706E-07         0.13504E-19         0.00000E+00
    0.35675E-07         0.23283E-19         0.00000E+00
    0.35643E-07         0.23982E-19         0.00000E+00
    0.35610E-07         0.51223E-20         0.00000E+00
    0.35576E-07         0.20023E-19         0.00000E+00
    0.35543E-07         0.18626E-19         0.00000E+00
    0.35508E-07         0.31199E-19         0.00000E+00
    0.35474E-07         0.41211E-19         0.00000E+00
    0.35439E-07         0.15832E-19         0.00000E+00
    0.35404E-07         0.11176E-19         0.00000E+00
    0.35369E-07         0.21653E-19         0.00000E+00
    0.35334E-07         0.13737E-19         0.00000E+00
    0.35298E-07         0.46566E-20         0.00000E+00
    0.35263E-07        -0.27940E-20         0.00000E+00
    0.35227E-07        -0.15134E-19         0.00000E+00
    0.35192E-07        -0.37253E-19         0.00000E+00
    0.35157E-07        -0.34459E-19         0.00000E+00
    0.35122E-07        -0.32596E-19         0.00000E+00
    0.35087E-07        -0.58673E-19         0.00000E+00
    0.35053E-07        -0.53551E-19         0.00000E+00
    0.35019E-07        -0.50291E-19         0.00000E+00
    0.34985E-07        -0.51456E-19         0.00000E+00
    0.34951E-07        -0.35623E-19         0.00000E+00
    0.34918E-07        -0.48894E-19         0.00000E+00
    0.34886E-07        -0.47032E-19         0.00000E+00
    0.34854E-07        -0.18626E-20         0.00000E+00
    0.34822E-07        -0.74506E-20         0.00000E+00
    0.34791E-07        -0.20955E-19         0.00000E+00
    0.34761E-07        -0.69849E-20         0.00000E+00
    0.34731E-07        -0.88476E-20         0.00000E+00
    0.34702E-07        -0.20023E-19         0.00000E+00
    0.34674E-07        -0.44471E-19         0.00000E+00
    0.34646E-07        -0.62631E-19         0.00000E+00
    0.34619E-07        -0.47265E-19         0.00000E+00
    0.34592E-07        -0.35390E-19         0.00000E+00
    0.34566E-07        -0.27474E-19         0.00000E+00
    0.34541E-07        -0.20955E-19         0.00000E+00
    0.34517E-07         0.18626E-20         0.00000E+00
    0.34494E-07         0.93132E-21         0.00000E+00
    0.34471E-07         0.23283E-20         0.00000E+00
    0.34449E-07        -0.97789E-20         0.00000E+00
    0.34428E-07         0.62864E-20         0.00000E+00
    0.34407E-07         0.23283E-19         0.00000E+00
    0.34388E-07        -0.67521E-20         0.00000E+00
    0.34369E-07        -0.11642E-20         0.00000E+00
    0.34350E-07        -0.51223E-20         0.00000E+00
    0.34333E-07         0.37253E-20         0.00000E+00
    0.34316E-07         0.60536E-20         0.00000E+00
    0.34300E-07         0.69849E-20         0.00000E+00
    0.34285E-07         0.10245E-19         0.00000E+00
    0.34271E-07        -0.13039E-19         0.00000E+00
    0.34257E-07         0.27940E-20         0.00000E+00
    0.34244E-07         0.12107E-19         0.00000E+00
    0.34231E-07         0.65193E-20         0.00000E+00
    0.34219E-07         0.21420E-19         0.00000E+00
    0.34208E-07         0.79162E-20         0.00000E+00
    0.34198E-07         0.60536E-20         0.00000E+00
    0.34188E-07         0.10245E-19         0.00000E+00
    0.34179E-07         0.39581E-20         0.00000E+00
    0.34170E-07         0.15367E-19         0.00000E+00
    0.34162E-07         0.10710E-19         0.00000E+00
    0.34155E-07         0.65193E-20         0.00000E+00
    0.34148E-07         0.60536E-20         0.00000E+00
    0.34142E-07         0.74506E-20         0.00000E+00
    0.34136E-07         0.44238E-20         0.00000E+00
    0.34131E-07         0.10477E-20         0.00000E+00
    0.34127E-07         0.80327E-20         0.00000E+00
    0.34122E-07         0.19558E-19         0.00000E+00
    0.34119E-07         0.21886E-19         0.00000E+00
    0.34116E-07         0.23283E-19         0.00000E+00
    0.34113E-07         0.21188E-19         0.00000E+00
    0.34111E-07         0.69849E-20         0.00000E+00
    0.34110E-07         0.11991E-19         0.00000E+00
    0.34109E-07        -0.16298E-20         0.00000E+00
    0.34108E-07        -0.13970E-19         0.00000E+00
    0.36153E-07        -0.13504E-19         0.00000E+00
    0.36151E-07         0.10012E-19         0.00000E+00
    0.36148E-07         0.14901E-19         0.00000E+00
    0.36144E-07         0.26776E-19         0.00000E+00
    0.36137E-07         0.56345E-19         0.00000E+00
    0.36130E-07         0.71479E-19         0.00000E+00
    0.36121E-07         0.57975E-19         0.00000E+00
    0.36110E-07         0.33528E-19         0.00000E+00
    0.36098E-07         0.18161E-19         0.00000E+00
    0.36085E-07         0.37719E-19         0.00000E+00
    0.36070E-07         0.46799E-19         0.00000E+00
    0.36054E-07         0.19791E-19         0.00000E+00
    0.36036E-07         0.50291E-19         0.00000E+00
    0.36018E-07         0.30501E-19         0.00000E+00
    0.35998E-07         0.69849E-21         0.00000E+00
    0.35976E-07        -0.12340E-19         0.00000E+00
    0.35954E-07        -0.25611E-19         0.00000E+00
    0.35930E-07        -0.23283E-20         0.00000E+00
    0.35906E-07         0.16298E-19         0.00000E+00
    0.35880E-07         0.18161E-19         0.00000E+00
    0.35853E-07         0.69849E-21         0.00000E+00
    0.35825E-07        -0.33993E-19         0.00000E+00
    0.35797E-07        -0.24913E-19         0.00000E+00
    0.35767E-07         0.17695E-19         0.00000E+00
    0.35737E-07         0.32829E-19         0.00000E+00
    0.35706E-07         0.19325E-19         0.00000E+00
    0.35675E-07         0.19092E-19         0.00000E+00
    0.35643E-07         0.13737E-19         0.00000E+00
    0.35610E-07        -0.27940E-20         0.00000E+00
    0.35576E-07        -0.46566E-21         0.00000E+00
    0.35543E-07         0.12573E-19         0.00000E+00
    0.35508E-07         0.55879E-20         0.00000E+00
    0.35474E-07         0.16065E-19         0.00000E+00
    0.35439E-07         0.79162E-20         0.00000E+00
    0.35404E-07        -0.41910E-20         0.00000E+00
    0.35369E-07        -0.48894E-20         0.00000E+00
    0.35334E-07        -0.14901E-19         0.00000E+00
    0.35298E-07        -0.13504E-19         0.00000E+00
    0.35263E-07        -0.20955E-19         0.00000E+00
    0.35227E-07        -0.28638E-19         0.00000E+00
    0.35192E-07        -0.26310E-19         0.00000E+00
    0.35157E-07        -0.22585E-19         0.00000E+00
    0.35122E-07        -0.35856E-19         0.00000E+00
    0.35087E-07        -0.61467E-19         0.00000E+00
    0.35053E-07        -0.63097E-19         0.00000E+00
    0.35019E-07        -0.56345E-19         0.00000E+00
    0.34985E-07        -0.19558E-19         0.00000E+00
    0.34951E-07        -0.32829E-19         0.00000E+00
    0.34918E-07        -0.52387E-19         0.00000E+00
    0.34886E-07        -0.26776E-19         0.00000E+00
    0.34854E-07        -0.17229E-19         0.00000E+00
    0.34822E-07        -0.14435E-19         0.00000E+00
    0.34791E-07        -0.20955E-19         0.00000E+00
    0.34761E-07        -0.19092E-19         0.00000E+00
    0.34731E-07        -0.15367E-19         0.00000E+00
    0.34702E-07        -0.24913E-19         0.00000E+00
    0.34674E-07        -0.55879E-19         0.00000E+00
    0.34646E-07        -0.37719E-19         0.00000E+00
    0.34619E-07        -0.30268E-20         0.00000E+00
    0.34592E-07        -0.30035E-19         0.00000E+00
    0.34566E-07        -0.44005E-19         0.00000E+00
    0.34541E-07        -0.13039E-19         0.00000E+00
    0.34517E-07        -0.34925E-20         0.00000E+00
    0.34494E-07        -0.86147E-20         0.00000E+00
    0.34471E-07         0.15367E-19         0.00000E+00
    0.34449E-07         0.26543E-19         0.00000E+00
    0.34428E-07        -0.16298E-20         0.00000E+00
    0.34407E-07        -0.65193E-20         0.00000E+00
    0.34388E-07        -0.55879E-20         0.00000E+00
    0.34369E-07         0.10245E-19         0.00000E+00
    0.34350E-07         0.23050E-19         0.00000E+00
    0.34333E-07         0.32596E-20         0.00000E+00
    0.34316E-07         0.46566E-20         0.00000E+00
    0.34300E-07         0.13970E-19         0.00000E+00
    0.34285E-07         0.15832E-19         0.00000E+00
    0.34271E-07         0.12107E-19         0.00000E+00
    0.34257E-07         0.93132E-21         0.00000E+00
    0.34244E-07         0.00000E+00         0.00000E+00
    0.34231E-07        -0.18626E-20         0.00000E+00
    0.34219E-07         0.46566E-20         0.00000E+00
    0.34208E-07        -0.23283E-20         0.00000E+00
    0.34198E-07        -0.12806E-19         0.00000E+00
    0.34188E-07         0.39581E-20         0.00000E+00
    0.34179E-07        -0.10710E-19         0.00000E+00
    0.34170E-07        -0.53551E-20         0.00000E+00
    0.34162E-07         0.93132E-20         0.00000E+00
    0.34155E-07        -0.44238E-20         0.00000E+00
    0.34148E-07         0.95461E-20         0.00000E+00
    0.34142E-07         0.28987E-19         0.00000E+00
    0.34136E-07         0.18743E-19         0.00000E+00
    0.34131E-07         0.16065E-19         0.00000E+00
    0.34127E-07         0.21304E-19         0.00000E+00
    0.34122E-07         0.18044E-19         0.00000E+00
    0.34119E-07         0.32247E-19         0.00000E+00
    0.34116E-07         0.23632E-19         0.00000E+00
    0.34113E-07         0.23283E-20         0.00000E+00
    0.34111E-07         0.72177E-20         0.00000E+00
    0.34110E-07         0.21420E-19         0.00000E+00
    0.34109E-07         0.13853E-19         0.00000E+00
    0.34108E-07         0.15134E-20         0.00000E+00
    0.36153E-07         0.10245E-19         0.00000E+00
    0.36151E-07        -0.18394E-19         0.00000E+00
    0.36148E-07        -0.65193E-20         0.00000E+00
    0.36144E-07         0.19558E-19         0.00000E+00
    0.36137E-07         0.20955E-19         0.00000E+00
    0.36130E-07         0.42142E-19         0.00000E+00
    0.36121E-07         0.60769E-19         0.00000E+00
    0.36110E-07         0.72177E-19         0.00000E+00
    0.36098E-07         0.55647E-19         0.00000E+00
    0.36085E-07         0.11874E-19         0.00000E+00
    0.36070E-07         0.10012E-19         0.00000E+00
    0.36054E-07         0.21653E-19         0.00000E+00
    0.36036E-07         0.22585E-19         0.00000E+00
    0.36018E-07         0.37951E-19         0.00000E+00
    0.35998E-07         0.29104E-19         0.00000E+00
    0.35976E-07        -0.10477E-19         0.00000E+00
    0.35954E-07        -0.24913E-19         0.00000E+00
    0.35930E-07        -0.20955E-19         0.00000E+00
    0.35906E-07        -0.48894E-20         0.00000E+00
    0.35880E-07        -0.79162E-20         0.00000E+00
    0.35853E-07        -0.88476E-20         0.00000E+00
    0.35825E-07        -0.55879E-20         0.00000E+00
    0.35797E-07        -0.20256E-19         0.00000E+00
    0.35767E-07         0.32596E-20         0.00000E+00
    0.35737E-07         0.72177E-20         0.00000E+00
    0.35706E-07         0.19092E-19         0.00000E+00
    0.35675E-07         0.27940E-19         0.00000E+00
    0.35643E-07         0.65193E-20         0.00000E+00
    0.35610E-07         0.16997E-19         0.00000E+00
    0.35576E-07         0.20955E-19         0.00000E+00
    0.35543E-07        -0.15367E-19         0.00000E+00
    0.35508E-07        -0.10245E-19         0.00000E+00
    0.35474E-07        -0.79162E-20         0.00000E+00
    0.35439E-07        -0.39581E-20         0.00000E+00
    0.35404E-07         0.69849E-21         0.00000E+00
    0.35369E-07        -0.18161E-19         0.00000E+00
    0.35334E-07        -0.12806E-19         0.00000E+00
    0.35298E-07        -0.93132E-21         0.00000E+00
    0.35263E-07        -0.53551E-20         0.00000E+00
    0.35227E-07         0.37253E-20         0.00000E+00
    0.35192E-07        -0.30734E-19         0.00000E+00
    0.35157E-07        -0.55414E-19         0.00000E+00
    0.35122E-07        -0.32363E-19         0.00000E+00
    0.35087E-07        -0.46100E-19         0.00000E+00
    0.35053E-07        -0.43772E-19         0.00000E+00
    0.35019E-07        -0.55879E-19         0.00000E+00
    0.34985E-07        -0.39814E-19         0.00000E+00
    0.34951E-07        -0.17928E-19         0.00000E+00
    0.34918E-07        -0.27008E-19         0.00000E+00
    0.34886E-07        -0.34925E-19         0.00000E+00
    0.34854E-07        -0.37719E-19         0.00000E+00
    0.34822E-07        -0.17229E-19         0.00000E+00
    0.34791E-07         0.53551E-20         0.00000E+00
    0.34761E-07        -0.19558E-19         0.00000E+00
    0.34731E-07        -0.34459E-19         0.00000E+00
    0.34702E-07        -0.74506E-20         0.00000E+00
    0.34674E-07        -0.32596E-19         0.00000E+00
    0.34646E-07        -0.20489E-19         0.00000E+00
    0.34619E-07        -0.37253E-20         0.00000E+00
    0.34592E-07        -0.22817E-19         0.00000E+00
    0.34566E-07        -0.81491E-20         0.00000E+00
    0.34541E-07        -0.74506E-20         0.00000E+00
    0.34517E-07         0.41910E-20         0.00000E+00
    0.34494E-07         0.19092E-19         0.00000E+00
    0.34471E-07         0.83819E-20         0.00000E+00
    0.34449E-07         0.14203E-19         0.00000E+00
    0.34428E-07         0.21420E-19         0.00000E+00
    0.34407E-07         0.83819E-20         0.00000E+00
    0.34388E-07        -0.14435E-19         0.00000E+00
    0.34369E-07        -0.11642E-19         0.00000E+00
    0.34350E-07         0.79162E-20         0.00000E+00
    0.34333E-07         0.13970E-19         0.00000E+00
    0.34316E-07         0.11874E-19         0.00000E+00
    0.34300E-07         0.17928E-19         0.00000E+00
    0.34285E-07         0.19092E-19         0.00000E+00
    0.34271E-07         0.18626E-19         0.00000E+00
    0.34257E-07         0.83819E-20         0.00000E+00
    0.34244E-07        -0.83819E-20         0.00000E+00
    0.34231E-07         0.51223E-20         0.00000E+00
    0.34219E-07         0.37253E-20         0.00000E+00
    0.34208E-07        -0.90804E-20         0.00000E+00
    0.34198E-07         0.20955E-20         0.00000E+00
    0.34188E-07         0.46566E-21         0.00000E+00
    0.34179E-07        -0.27940E-20         0.00000E+00
    0.34170E-07        -0.51223E-20         0.00000E+00
    0.34162E-07        -0.44238E-20         0.00000E+00
    0.34155E-07        -0.46566E-20         0.00000E+00
    0.34148E-07         0.30268E-20         0.00000E+00
    0.34142E-07         0.27590E-19         0.00000E+00
    0.34136E-07         0.23516E-19         0.00000E+00
    0.34131E-07         0.16997E-19         0.00000E+00
    0.34127E-07         0.27707E-19         0.00000E+00
    0.34122E-07         0.19674E-19         0.00000E+00
    0.34119E-07         0.18626E-20         0.00000E+00
    0.34116E-07         0.10477E-19         0.00000E+00
    0.34113E-07         0.95461E-20         0.00000E+00
    0.34111E-07         0.38417E-20         0.00000E+00
    0.34110E-07         0.44238E-20         0.00000E+00
    0.34109E-07        -0.30268E-20         0.00000E+00
    0.34108E-07        -0.29104E-20         0.00000E+00
    0.36153E-07        -0.18626E-20         0.00000E+00
    0.36151E-07         0.97789E-20         0.00000E+00
    0.36148E-07         0.27474E-19         0.00000E+00
    0.36144E-07         0.33993E-19         0.00000E+00
    0.36137E-07         0.60536E-19         0.00000E+00
    0.36130E-07         0.18394E-19         0.00000E+00
    0.36121E-07         0.16298E-19         0.00000E+00
    0.36110E-07         0.37719E-19         0.00000E+00
    0.36098E-07         0.21653E-19         0.00000E+00
    0.36085E-07         0.11642E-20         0.00000E+00
    0.36070E-07        -0.69849E-21         0.00000E+00
    0.36054E-07         0.14203E-19         0.00000E+00
    0.36036E-07        -0.90804E-20         0.00000E+00
    0.36018E-07         0.32131E-19         0.00000E+00
    0.35998E-07         0.30734E-19         0.00000E+00
    0.35976E-07        -0.69849E-20         0.00000E+00
    0.35954E-07         0.62864E-20         0.00000E+00
    0.35930E-07        -0.26543E-19         0.00000E+00
    0.35906E-07        -0.31199E-19         0.00000E+00
    0.35880E-07        -0.37951E-19         0.00000E+00
    0.35853E-07        -0.37020E-19         0.00000E+00
    0.35825E-07        -0.47497E-19         0.00000E+00
    0.35797E-07        -0.37486E-19         0.00000E+00
    0.35767E-07        -0.88476E-20         0.00000E+00
    0.35737E-07        -0.23516E-19         0.00000E+00
    0.35706E-07         0.18161E-19         0.00000E+00
    0.35675E-07         0.25611E-19         0.00000E+00
    0.35643E-07         0.88476E-20         0.00000E+00
    0.35610E-07         0.20955E-19         0.00000E+00
    0.35576E-07         0.27940E-20         0.00000E+00
    0.35543E-07        -0.93132E-20         0.00000E+00
    0.35508E-07        -0.12573E-19         0.00000E+00
    0.35474E-07         0.16298E-20         0.00000E+00
    0.35439E-07         0.27940E-20         0.00000E+00
    0.35404E-07        -0.14435E-19         0.00000E+00
    0.35369E-07        -0.20722E-19         0.00000E+00
    0.35334E-07        -0.30501E-19         0.00000E+00
    0.35298E-07        -0.22817E-19         0.00000E+00
    0.35263E-07        -0.79162E-20         0.00000E+00
    0.35227E-07         0.13039E-19         0.00000E+00
    0.35192E-07        -0.48894E-20         0.00000E+00
    0.35157E-07        -0.37719E-19         0.00000E+00
    0.35122E-07        -0.46566E-19         0.00000E+00
    0.35087E-07        -0.30501E-19         0.00000E+00
    0.35053E-07        -0.19325E-19         0.00000E+00
    0.35019E-07        -0.45868E-19         0.00000E+00
    0.34985E-07        -0.43539E-19         0.00000E+00
    0.34951E-07        -0.45868E-19         0.00000E+00
    0.34918E-07        -0.26776E-19         0.00000E+00
    0.34886E-07        -0.26077E-19         0.00000E+00
    0.34854E-07        -0.15367E-19         0.00000E+00
    0.34822E-07        -0.69849E-20         0.00000E+00
    0.34791E-07        -0.28405E-19         0.00000E+00
    0.34761E-07        -0.11642E-19         0.00000E+00
    0.34731E-07        -0.27008E-19         0.00000E+00
    0.34702E-07        -0.29802E-19         0.00000E+00
    0.34674E-07        -0.41910E-20         0.00000E+00
    0.34646E-07        -0.81491E-20         0.00000E+00
    0.34619E-07        -0.58208E-20         0.00000E+00
    0.34592E-07        -0.26776E-19         0.00000E+00
    0.34566E-07        -0.22585E-19         0.00000E+00
    0.34541E-07        -0.17229E-19         0.00000E+00
    0.34517E-07        -0.88476E-20         0.00000E+00
    0.34494E-07        -0.32596E-20         0.00000E+00
    0.34471E-07        -0.72177E-20         0.00000E+00
    0.34449E-07         0.17695E-19         0.00000E+00
    0.34428E-07         0.25146E-19         0.00000E+00
    0.34407E-07         0.17462E-19         0.00000E+00
    0.34388E-07        -0.74506E-20         0.00000E+00
    0.34369E-07        -0.34925E-20         0.00000E+00
    0.34350E-07        -0.32596E-20         0.00000E+00
    0.34333E-07         0.69849E-21         0.00000E+00
    0.34316E-07         0.11409E-19         0.00000E+00
    0.34300E-07         0.21653E-19         0.00000E+00
    0.34285E-07         0.17229E-19         0.00000E+00
    0.34271E-07        -0.32596E-20         0.00000E+00
    0.34257E-07         0.18626E-20         0.00000E+00
    0.34244E-07         0.13271E-19         0.00000E+00
    0.34231E-07        -0.13970E-20         0.00000E+00
    0.34219E-07        -0.51223E-20         0.00000E+00
    0.34208E-07        -0.12806E-19         0.00000E+00
    0.34198E-07        -0.20489E-19         0.00000E+00
    0.34188E-07        -0.90804E-20         0.00000E+00
    0.34179E-07        -0.86147E-20         0.00000E+00
    0.34170E-07        -0.21188E-19         0.00000E+00
    0.34162E-07        -0.14668E-19         0.00000E+00
    0.34155E-07        -0.55879E-20         0.00000E+00
    0.34148E-07         0.33760E-20         0.00000E+00
    0.34142E-07         0.16298E-19         0.00000E+00
    0.34136E-07         0.21420E-19         0.00000E+00
    0.34131E-07         0.19907E-19         0.00000E+00
    0.34127E-07         0.15949E-19         0.00000E+00
    0.34122E-07         0.18626E-20         0.00000E+00
    0.34119E-07        -0.45402E-20         0.00000E+00
    0.34116E-07         0.61700E-20         0.00000E+00
    0.34113E-07         0.13039E-19         0.00000E+00
    0.34111E-07         0.17928E-19         0.00000E+00
    0.34110E-07         0.20722E-19         0.00000E+00
    0.34109E-07         0.79162E-20         0.00000E+00
    0.34108E-07        -0.22119E-20         0.00000E+00
    0.36153E-07         0.23283E-20         0.00000E+00
    0.36151E-07        -0.53551E-20         0.00000E+00
    0.36148E-07         0.79162E-20         0.00000E+00
    0.36144E-07         0.40978E-19         0.00000E+00
    0.36137E-07         0.41444E-19         0.00000E+00
    0.36130E-07         0.37951E-19         0.00000E+00
    0.36121E-07         0.49593E-19         0.00000E+00
    0.36110E-07         0.48894E-19         0.00000E+00
    0.36098E-07         0.44005E-19         0.00000E+00
    0.36085E-07         0.18394E-19         0.00000E+00
    0.36070E-07         0.69849E-21         0.00000E+00
    0.36054E-07         0.58208E-20         0.00000E+00
    0.36036E-07         0.11874E-19         0.00000E+00
    0.36018E-07         0.48894E-20         0.00000E+00
    0.35998E-07         0.13737E-19         0.00000E+00
    0.35976E-07         0.39116E-19         0.00000E+00
    0.35954E-07         0.40280E-19         0.00000E+00
    0.35930E-07        -0.74506E-20         0.00000E+00
    0.35906E-07        -0.45868E-19         0.00000E+00
    0.35880E-07        -0.18859E-19         0.00000E+00
    0.35853E-07        -0.16531E-19         0.00000E+00
    0.35825E-07        -0.32131E-19         0.00000E+00
    0.35797E-07        -0.28638E-19         0.00000E+00
    0.35767E-07        -0.14901E-19         0.00000E+00
    0.35737E-07        -0.13970E-20         0.00000E+00
    0.35706E-07        -0.74506E-20         0.00000E+00
    0.35675E-07         0.19092E-19         0.00000E+00
    0.35643E-07         0.26543E-19         0.00000E+00
    0.35610E-07         0.15367E-19         0.00000E+00
    0.35576E-07         0.34226E-19         0.00000E+00
    0.35543E-07         0.23749E-19         0.00000E+00
    0.35508E-07         0.60536E-20         0.00000E+00
    0.35474E-07        -0.83819E-20         0.00000E+00
    0.35439E-07         0.23283E-21         0.00000E+00
    0.35404E-07         0.86147E-20         0.00000E+00
    0.35369E-07        -0.18626E-20         0.00000E+00
    0.35334E-07        -0.72177E-20         0.00000E+00
    0.35298E-07        -0.23283E-19         0.00000E+00
    0.35263E-07        -0.33528E-19         0.00000E+00
    0.35227E-07        -0.39348E-19         0.00000E+00
    0.35192E-07        -0.25844E-19         0.00000E+00
    0.35157E-07        -0.37486E-19         0.00000E+00
    0.35122E-07        -0.57742E-19         0.00000E+00
    0.35087E-07        -0.43539E-19         0.00000E+00
    0.35053E-07        -0.40978E-19         0.00000E+00
    0.35019E-07        -0.22352E-19         0.00000E+00
    0.34985E-07        -0.40745E-19         0.00000E+00
    0.34951E-07        -0.28405E-19         0.00000E+00
    0.34918E-07        -0.23516E-19         0.00000E+00
    0.34886E-07        -0.14901E-19         0.00000E+00
    0.34854E-07        -0.19791E-19         0.00000E+00
    0.34822E-07        -0.13737E-19         0.00000E+00
    0.34791E-07         0.10477E-19         0.00000E+00
    0.34761E-07        -0.23050E-19         0.00000E+00
    0.34731E-07        -0.38184E-19         0.00000E+00
    0.34702E-07        -0.22817E-19         0.00000E+00
    0.34674E-07        -0.12573E-19         0.00000E+00
    0.34646E-07        -0.55879E-20         0.00000E+00
    0.34619E-07        -0.14435E-19         0.00000E+00
    0.34592E-07        -0.30035E-19         0.00000E+00
    0.34566E-07        -0.83819E-20         0.00000E+00
    0.34541E-07        -0.18626E-20         0.00000E+00
    0.34517E-07        -0.41910E-20         0.00000E+00
    0.34494E-07        -0.79162E-20         0.00000E+00
    0.34471E-07        -0.65193E-20         0.00000E+00
    0.34449E-07         0.16531E-19         0.00000E+00
    0.34428E-07         0.18161E-19         0.00000E+00
    0.34407E-07         0.95461E-20         0.00000E+00
    0.34388E-07         0.37253E-20         0.00000E+00
    0.34369E-07        -0.36322E-19         0.00000E+00
    0.34350E-07        -0.29337E-19         0.00000E+00
    0.34333E-07        -0.13970E-20         0.00000E+00
    0.34316E-07         0.25611E-20         0.00000E+00
    0.34300E-07        -0.74506E-20         0.00000E+00
    0.34285E-07        -0.11642E-20         0.00000E+00
    0.34271E-07         0.67521E-20         0.00000E+00
    0.34257E-07        -0.46566E-20         0.00000E+00
    0.34244E-07         0.44238E-20         0.00000E+00
    0.34231E-07         0.90804E-20         0.00000E+00
    0.34219E-07         0.48894E-20         0.00000E+00
    0.34208E-07        -0.20256E-19         0.00000E+00
    0.34198E-07        -0.22119E-19         0.00000E+00
    0.34188E-07        -0.18626E-19         0.00000E+00
    0.34179E-07        -0.21886E-19         0.00000E+00
    0.34170E-07        -0.60536E-20         0.00000E+00
    0.34162E-07         0.23283E-21         0.00000E+00
    0.34155E-07        -0.13970E-20         0.00000E+00
    0.34148E-07         0.18277E-19         0.00000E+00
    0.34142E-07         0.22002E-19         0.00000E+00
    0.34136E-07         0.96625E-20         0.00000E+00
    0.34131E-07         0.26193E-19         0.00000E+00
    0.34127E-07         0.24913E-19         0.00000E+00
    0.34122E-07        -0.13970E-20         0.00000E+00
    0.34119E-07         0.12922E-19         0.00000E+00
    0.34116E-07         0.18626E-19         0.00000E+00
    0.34113E-07         0.12107E-19         0.00000E+00
    0.34111E-07         0.32596E-20         0.00000E+00
    0.34110E-07         0.43074E-20         0.00000E+00
    0.34109E-07         0.14668E-19         0.00000E+00
    0.34108E-07        -0.23283E-21         0.00000E+00
    0.36153E-07         0.26077E-19         0.00000E+00
    0.36151E-07         0.30268E-20         0.00000E+00
    0.36148E-07        -0.19092E-19         0.00000E+00
    0.36144E-07         0.30734E-19         0.00000E+00
    0.36137E-07         0.18394E-19         0.00000E+00
    0.36130E-07         0.79162E-20         0.00000E+00
    0.36121E-07         0.39581E-19         0.00000E+00
    0.36110E-07         0.49826E-19         0.00000E+00
    0.36098E-07         0.33760E-19         0.00000E+00
    0.36085E-07         0.34459E-19         0.00000E+00
    0.36070E-07         0.35623E-19         0.00000E+00
    0.36054E-07        -0.67521E-20         0.00000E+00
    0.36036E-07         0.16298E-20         0.00000E+00
    0.36018E-07         0.38417E-19         0.00000E+00
    0.35998E-07         0.31432E-19         0.00000E+00
    0.35976E-07        -0.46566E-20         0.00000E+00
    0.35954E-07        -0.25844E-19         0.00000E+00
    0.35930E-07         0.11642E-19         0.00000E+00
    0.35906E-07         0.13970E-20         0.00000E+00
    0.35880E-07        -0.12107E-19         0.00000E+00
    0.35853E-07        -0.10245E-19         0.00000E+00
    0.35825E-07        -0.47497E-19         0.00000E+00
    0.35797E-07        -0.42142E-19         0.00000E+00
    0.35767E-07        -0.60536E-20         0.00000E+00
    0.35737E-07         0.13737E-19         0.00000E+00
    0.35706E-07        -0.32596E-20         0.00000E+00
    0.35675E-07        -0.44238E-20         0.00000E+00
    0.35643E-07         0.13039E-19         0.00000E+00
    0.35610E-07         0.10245E-19         0.00000E+00
    0.35576E-07         0.74506E-20         0.00000E+00
    0.35543E-07         0.55879E-20         0.00000E+00
    0.35508E-07        -0.19558E-19         0.00000E+00
    0.35474E-07        -0.38883E-19         0.00000E+00
    0.35439E-07         0.13970E-20         0.00000E+00
    0.35404E-07         0.39581E-20         0.00000E+00
    0.35369E-07        -0.19558E-19         0.00000E+00
    0.35334E-07        -0.14203E-19         0.00000E+00
    0.35298E-07        -0.13271E-19         0.00000E+00
    0.35263E-07         0.23283E-21         0.00000E+00
    0.35227E-07        -0.17229E-19         0.00000E+00
    0.35192E-07        -0.10012E-19         0.00000E+00
    0.35157E-07        -0.18394E-19         0.00000E+00
    0.35122E-07        -0.58673E-19         0.00000E+00
    0.35087E-07        -0.44936E-19         0.00000E+00
    0.35053E-07        -0.22119E-19         0.00000E+00
    0.35019E-07        -0.23283E-19         0.00000E+00
    0.34985E-07        -0.27241E-19         0.00000E+00
    0.34951E-07        -0.29802E-19         0.00000E+00
    0.34918E-07        -0.31665E-19         0.00000E+00
    0.34886E-07        -0.24680E-19         0.00000E+00
    0.34854E-07        -0.19092E-19         0.00000E+00
    0.34822E-07        -0.17229E-19         0.00000E+00
    0.34791E-07        -0.25379E-19         0.00000E+00
    0.34761E-07        -0.26543E-19         0.00000E+00
    0.34731E-07        -0.22817E-19         0.00000E+00
    0.34702E-07        -0.97789E-20         0.00000E+00
    0.34674E-07        -0.11176E-19         0.00000E+00
    0.34646E-07         0.30268E-20         0.00000E+00
    0.34619E-07        -0.18161E-19         0.00000E+00
    0.34592E-07        -0.18859E-19         0.00000E+00
    0.34566E-07        -0.67521E-20         0.00000E+00
    0.34541E-07        -0.10710E-19         0.00000E+00
    0.34517E-07        -0.15367E-19         0.00000E+00
    0.34494E-07        -0.27008E-19         0.00000E+00
    0.34471E-07        -0.72177E-20         0.00000E+00
    0.34449E-07         0.16065E-19         0.00000E+00
    0.34428E-07         0.14668E-19         0.00000E+00
    0.34407E-07         0.86147E-20         0.00000E+00
    0.34388E-07         0.83819E-20         0.00000E+00
    0.34369E-07        -0.69849E-20         0.00000E+00
    0.34350E-07        -0.60536E-20         0.00000E+00
    0.34333E-07        -0.51223E-20         0.00000E+00
    0.34316E-07        -0.16531E-19         0.00000E+00
    0.34300E-07         0.37253E-20         0.00000E+00
    0.34285E-07         0.41910E-20         0.00000E+00
    0.34271E-07        -0.60536E-20         0.00000E+00
    0.34257E-07         0.79162E-20         0.00000E+00
    0.34244E-07         0.48894E-20         0.00000E+00
    0.34231E-07        -0.32596E-20         0.00000E+00
    0.34219E-07        -0.58208E-20         0.00000E+00
    0.34208E-07        -0.46566E-20         0.00000E+00
    0.34198E-07        -0.74506E-20         0.00000E+00
    0.34188E-07        -0.48894E-20         0.00000E+00
    0.34179E-07        -0.74506E-20         0.00000E+00
    0.34170E-07        -0.55879E-20         0.00000E+00
    0.34162E-07        -0.23283E-19         0.00000E+00
    0.34155E-07        -0.27940E-20         0.00000E+00
    0.34148E-07         0.25961E-19         0.00000E+00
    0.34142E-07         0.24913E-19         0.00000E+00
    0.34136E-07         0.19325E-19         0.00000E+00
    0.34131E-07         0.23399E-19         0.00000E+00
    0.34127E-07         0.29220E-19         0.00000E+00
    0.34122E-07         0.10361E-19         0.00000E+00
    0.34119E-07         0.41910E-20         0.00000E+00
    0.34116E-07         0.71013E-20         0.00000E+00
    0.34113E-07         0.14668E-19         0.00000E+00
    0.34111E-07         0.23982E-19         0.00000E+00
    0.34110E-07         0.40745E-20         0.00000E+00
    0.34109E-07         0.16298E-20         0.00000E+00
    0.34108E-07         0.10710E-19         0.00000E+00
    0.36153E-07         0.23283E-20         0.00000E+00
    0.36151E-07         0.62864E-20         0.00000E+00
    0.36148E-07         0.16065E-19         0.00000E+00
    0.36144E-07         0.19558E-19         0.00000E+00
    0.36137E-07         0.27474E-19         0.00000E+00
    0.36130E-07         0.47963E-19         0.00000E+00
    0.36121E-07         0.44936E-19         0.00000E+00
    0.36110E-07         0.29337E-19         0.00000E+00
    0.36098E-07         0.32829E-19         0.00000E+00
    0.36085E-07         0.21188E-19         0.00000E+00
    0.36070E-07         0.23283E-19         0.00000E+00
    0.36054E-07         0.20955E-19         0.00000E+00
    0.36036E-07         0.69849E-21         0.00000E+00
    0.36018E-07         0.29337E-19         0.00000E+00
    0.35998E-07         0.32363E-19         0.00000E+00
    0.35976E-07         0.65193E-20         0.00000E+00
    0.35954E-07         0.12573E-19         0.00000E+00
    0.35930E-07         0.29337E-19         0.00000E+00
    0.35906E-07        -0.10710E-19         0.00000E+00
    0.35880E-07        -0.27940E-19         0.00000E+00
    0.35853E-07         0.11642E-19         0.00000E+00
    0.35825E-07        -0.69849E-20         0.00000E+00
    0.35797E-07        -0.11176E-19         0.00000E+00
    0.35767E-07        -0.13504E-19         0.00000E+00
    0.35737E-07        -0.69849E-20         0.00000E+00
    0.35706E-07         0.13970E-20         0.00000E+00
    0.35675E-07        -0.58208E-20         0.00000E+00
    0.35643E-07         0.16997E-19         0.00000E+00
    0.35610E-07         0.29569E-19         0.00000E+00
    0.35576E-07         0.60536E-20         0.00000E+00
    0.35543E-07         0.16764E-19         0.00000E+00
    0.35508E-07        -0.46566E-20         0.00000E+00
    0.35474E-07        -0.21188E-19         0.00000E+00
    0.35439E-07        -0.32596E-20         0.00000E+00
    0.35404E-07        -0.10477E-19         0.00000E+00
    0.35369E-07        -0.17695E-19         0.00000E+00
    0.35334E-07        -0.39581E-20         0.00000E+00
    0.35298E-07         0.16298E-19         0.00000E+00
    0.35263E-07        -0.18161E-19         0.00000E+00
    0.35227E-07        -0.35856E-19         0.00000E+00
    0.35192E-07         0.69849E-21         0.00000E+00
    0.35157E-07        -0.76834E-20         0.00000E+00
    0.35122E-07        -0.34925E-19         0.00000E+00
    0.35087E-07        -0.37253E-19         0.00000E+00
    0.35053E-07        -0.23283E-19         0.00000E+00
    0.35019E-07        -0.10245E-19         0.00000E+00
    0.34985E-07        -0.12340E-19         0.00000E+00
    0.34951E-07        -0.12340E-19         0.00000E+00
    0.34918E-07        -0.19092E-19         0.00000E+00
    0.34886E-07        -0.40513E-19         0.00000E+00
    0.34854E-07        -0.11409E-19         0.00000E+00
    0.34822E-07         0.23283E-20         0.00000E+00
    0.34791E-07        -0.29337E-19         0.00000E+00
    0.34761E-07        -0.36787E-19         0.00000E+00
    0.34731E-07        -0.14435E-19         0.00000E+00
    0.34702E-07        -0.95461E-20         0.00000E+00
    0.34674E-07        -0.79162E-20         0.00000E+00
    0.34646E-07         0.53551E-20         0.00000E+00
    0.34619E-07        -0.67521E-20         0.00000E+00
    0.34592E-07        -0.19791E-19         0.00000E+00
    0.34566E-07        -0.14901E-19         0.00000E+00
    0.34541E-07        -0.37253E-20         0.00000E+00
    0.34517E-07        -0.13039E-19         0.00000E+00
    0.34494E-07        -0.33295E-19         0.00000E+00
    0.34471E-07        -0.15832E-19         0.00000E+00
    0.34449E-07         0.10012E-19         0.00000E+00
    0.34428E-07         0.74506E-20         0.00000E+00
    0.34407E-07         0.69849E-21         0.00000E+00
    0.34388E-07        -0.11176E-19         0.00000E+00
    0.34369E-07        -0.46566E-21         0.00000E+00
    0.34350E-07        -0.65193E-20         0.00000E+00
    0.34333E-07        -0.20489E-19         0.00000E+00
    0.34316E-07        -0.67521E-20         0.00000E+00
    0.34300E-07        -0.55879E-20         0.00000E+00
    0.34285E-07        -0.46566E-21         0.00000E+00
    0.34271E-07         0.18626E-20         0.00000E+00
    0.34257E-07        -0.15832E-19         0.00000E+00
    0.34244E-07        -0.46566E-21         0.00000E+00
    0.34231E-07         0.60536E-20         0.00000E+00
    0.34219E-07        -0.10012E-19         0.00000E+00
    0.34208E-07        -0.76834E-20         0.00000E+00
    0.34198E-07        -0.97789E-20         0.00000E+00
    0.34188E-07        -0.22119E-19         0.00000E+00
    0.34179E-07        -0.12806E-19         0.00000E+00
    0.34170E-07         0.12573E-19         0.00000E+00
    0.34162E-07         0.72177E-20         0.00000E+00
    0.34155E-07         0.11874E-19         0.00000E+00
    0.34148E-07         0.24564E-19         0.00000E+00
    0.34142E-07         0.91968E-20         0.00000E+00
    0.34136E-07         0.11176E-19         0.00000E+00
    0.34131E-07         0.67521E-20         0.00000E+00
    0.34127E-07         0.13388E-19         0.00000E+00
    0.34122E-07         0.29453E-19         0.00000E+00
    0.34119E-07         0.23050E-19         0.00000E+00
    0.34116E-07         0.10827E-19         0.00000E+00
    0.34113E-07         0.79162E-20         0.00000E+00
    0.34111E-07         0.81491E-20         0.00000E+00
    0.34110E-07         0.74506E-20         0.00000E+00
    0.34109E-07         0.72177E-20         0.00000E+00
    0.34108E-07         0.12806E-20         0.00000E+00
    0.36153E-07        -0.26077E-19         0.00000E+00
    0.36151E-07         0.11409E-19         0.00000E+00
    0.36148E-07         0.63330E-19         0.00000E+00
    0.36144E-07         0.33993E-19         0.00000E+00
    0.36137E-07         0.29104E-19         0.00000E+00
    0.36130E-07         0.11409E-19         0.00000E+00
    0.36121E-07        -0.16065E-19         0.00000E+00
    0.36110E-07        -0.18626E-20         0.00000E+00
    0.36098E-07         0.12806E-19         0.00000E+00
    0.36085E-07         0.23516E-19         0.00000E+00
    0.36070E-07         0.95461E-20         0.00000E+00
    0.36054E-07        -0.13737E-19         0.00000E+00
    0.36036E-07         0.23050E-19         0.00000E+00
    0.36018E-07         0.31898E-19         0.00000E+00
    0.35998E-07        -0.16298E-20         0.00000E+00
    0.35976E-07         0.44703E-19         0.00000E+00
    0.35954E-07         0.37951E-19         0.00000E+00
    0.35930E-07        -0.14901E-19         0.00000E+00
    0.35906E-07         0.24680E-19         0.00000E+00
    0.35880E-07         0.17462E-19         0.00000E+00
    0.35853E-07        -0.62864E-20         0.00000E+00
    0.35825E-07         0.37253E-20         0.00000E+00
    0.35797E-07        -0.21886E-19         0.00000E+00
    0.35767E-07        -0.18161E-19         0.00000E+00
    0.35737E-07        -0.93132E-21         0.00000E+00
    0.35706E-07         0.27940E-20         0.00000E+00
    0.35675E-07         0.18626E-19         0.00000E+00
    0.35643E-07         0.33062E-19         0.00000E+00
    0.35610E-07         0.43772E-19         0.00000E+00
    0.35576E-07         0.30268E-19         0.00000E+00
    0.35543E-07         0.13504E-19         0.00000E+00
    0.35508E-07         0.00000E+00         0.00000E+00
    0.35474E-07        -0.53551E-20         0.00000E+00
    0.35439E-07        -0.51223E-20         0.00000E+00
    0.35404E-07        -0.30734E-19         0.00000E+00
    0.35369E-07        -0.33760E-19         0.00000E+00
    0.35334E-07        -0.19092E-19         0.00000E+00
    0.35298E-07        -0.41910E-20         0.00000E+00
    0.35263E-07        -0.51223E-20         0.00000E+00
    0.35227E-07        -0.23283E-20         0.00000E+00
    0.35192E-07         0.53551E-20         0.00000E+00
    0.35157E-07         0.13970E-20         0.00000E+00
    0.35122E-07        -0.32363E-19         0.00000E+00
    0.35087E-07        -0.58673E-19         0.00000E+00
    0.35053E-07        -0.28405E-19         0.00000E+00
    0.35019E-07        -0.12340E-19         0.00000E+00
    0.34985E-07        -0.22119E-19         0.00000E+00
    0.34951E-07        -0.20256E-19         0.00000E+00
    0.34918E-07        -0.69849E-20         0.00000E+00
    0.34886E-07         0.18626E-20         0.00000E+00
    0.34854E-07        -0.23283E-20         0.00000E+00
    0.34822E-07         0.18626E-20         0.00000E+00
    0.34791E-07        -0.15832E-19         0.00000E+00
    0.34761E-07        -0.29802E-19         0.00000E+00
    0.34731E-07        -0.36322E-19         0.00000E+00
    0.34702E-07        -0.34459E-19         0.00000E+00
    0.34674E-07        -0.25844E-19         0.00000E+00
    0.34646E-07        -0.21653E-19         0.00000E+00
    0.34619E-07         0.53551E-20         0.00000E+00
    0.34592E-07        -0.72177E-20         0.00000E+00
    0.34566E-07        -0.39814E-19         0.00000E+00
    0.34541E-07        -0.35390E-19         0.00000E+00
    0.34517E-07        -0.22352E-19         0.00000E+00
    0.34494E-07        -0.74506E-20         0.00000E+00
    0.34471E-07        -0.76834E-20         0.00000E+00
    0.34449E-07        -0.67521E-20         0.00000E+00
    0.34428E-07         0.16065E-19         0.00000E+00
    0.34407E-07         0.19092E-19         0.00000E+00
    0.34388E-07         0.23283E-21         0.00000E+00
    0.34369E-07        -0.10710E-19         0.00000E+00
    0.34350E-07        -0.83819E-20         0.00000E+00
    0.34333E-07        -0.20023E-19         0.00000E+00
    0.34316E-07        -0.62864E-20         0.00000E+00
    0.34300E-07         0.20489E-19         0.00000E+00
    0.34285E-07         0.88476E-20         0.00000E+00
    0.34271E-07         0.11874E-19         0.00000E+00
    0.34257E-07        -0.13970E-20         0.00000E+00
    0.34244E-07        -0.13271E-19         0.00000E+00
    0.34231E-07         0.37253E-20         0.00000E+00
    0.34219E-07        -0.65193E-20         0.00000E+00
    0.34208E-07        -0.81491E-20         0.00000E+00
    0.34198E-07        -0.37253E-20         0.00000E+00
    0.34188E-07        -0.27940E-20         0.00000E+00
    0.34179E-07        -0.13970E-20         0.00000E+00
    0.34170E-07        -0.34925E-20         0.00000E+00
    0.34162E-07         0.41910E-20         0.00000E+00
    0.34155E-07         0.14203E-19         0.00000E+00
    0.34148E-07         0.17462E-19         0.00000E+00
    0.34142E-07         0.54715E-20         0.00000E+00
    0.34136E-07         0.62864E-20         0.00000E+00
    0.34131E-07        -0.87311E-20         0.00000E+00
    0.34127E-07         0.13970E-20         0.00000E+00
    0.34122E-07         0.19325E-19         0.00000E+00
    0.34119E-07         0.12224E-19         0.00000E+00
    0.34116E-07         0.14435E-19         0.00000E+00
    0.34113E-07         0.21886E-19         0.00000E+00
    0.34111E-07         0.26543E-19         0.00000E+00
    0.34110E-07         0.45053E-19         0.00000E+00
    0.34109E-07         0.30384E-19         0.00000E+00
    0.34108E-07         0.16298E-20         0.00000E+00
    0.36153E-07        -0.51223E-20         0.00000E+00
    0.36151E-07         0.12806E-19         0.00000E+00
    0.36148E-07         0.39116E-19         0.00000E+00
    0.36144E-07         0.39116E-19         0.00000E+00
    0.36137E-07         0.28871E-19         0.00000E+00
    0.36130E-07         0.18859E-19         0.00000E+00
    0.36121E-07         0.21420E-19         0.00000E+00
    0.36110E-07         0.76834E-20         0.00000E+00
    0.36098E-07         0.11176E-19         0.00000E+00
    0.36085E-07        -0.58208E-20         0.00000E+00
    0.36070E-07        -0.16997E-19         0.00000E+00
    0.36054E-07         0.13737E-19         0.00000E+00
    0.36036E-07         0.28173E-19         0.00000E+00
    0.36018E-07         0.16997E-19         0.00000E+00
    0.35998E-07        -0.86147E-20         0.00000E+00
    0.35976E-07         0.11409E-19         0.00000E+00
    0.35954E-07         0.14435E-19         0.00000E+00
    0.35930E-07        -0.10245E-19         0.00000E+00
    0.35906E-07         0.23283E-20         0.00000E+00
    0.35880E-07        -0.18626E-19         0.00000E+00
    0.35853E-07        -0.72177E-20         0.00000E+00
    0.35825E-07         0.19558E-19         0.00000E+00
    0.35797E-07        -0.13504E-19         0.00000E+00
    0.35767E-07        -0.31199E-19         0.00000E+00
    0.35737E-07         0.60536E-20         0.00000E+00
    0.35706E-07         0.30734E-19         0.00000E+00
    0.35675E-07         0.65193E-20         0.00000E+00
    0.35643E-07         0.10710E-19         0.00000E+00
    0.35610E-07         0.32596E-19         0.00000E+00
    0.35576E-07         0.97789E-20         0.00000E+00
    0.35543E-07         0.69849E-20         0.00000E+00
    0.35508E-07         0.14435E-19         0.00000E+00
    0.35474E-07        -0.90804E-20         0.00000E+00
    0.35439E-07        -0.27008E-19         0.00000E+00
    0.35404E-07        -0.43772E-19         0.00000E+00
    0.35369E-07        -0.23516E-19         0.00000E+00
    0.35334E-07         0.13970E-20         0.00000E+00
    0.35298E-07        -0.41910E-20         0.00000E+00
    0.35263E-07        -0.79162E-20         0.00000E+00
    0.35227E-07        -0.19558E-19         0.00000E+00
    0.35192E-07        -0.30734E-19         0.00000E+00
    0.35157E-07        -0.31199E-19         0.00000E+00
    0.35122E-07        -0.24214E-19         0.00000E+00
    0.35087E-07        -0.35157E-19         0.00000E+00
    0.35053E-07        -0.49360E-19         0.00000E+00
    0.35019E-07        -0.25146E-19         0.00000E+00
    0.34985E-07        -0.13039E-19         0.00000E+00
    0.34951E-07        -0.13271E-19         0.00000E+00
    0.34918E-07        -0.13737E-19         0.00000E+00
    0.34886E-07        -0.17695E-19         0.00000E+00
    0.34854E-07        -0.13039E-19         0.00000E+00
    0.34822E-07        -0.16531E-19         0.00000E+00
    0.34791E-07        -0.60536E-20         0.00000E+00
    0.34761E-07        -0.36787E-19         0.00000E+00
    0.34731E-07        -0.47963E-19         0.00000E+00
    0.34702E-07        -0.29802E-19         0.00000E+00
    0.34674E-07        -0.97789E-20         0.00000E+00
    0.34646E-07        -0.37253E-20         0.00000E+00
    0.34619E-07        -0.24680E-19         0.00000E+00
    0.34592E-07        -0.76834E-20         0.00000E+00
    0.34566E-07        -0.23050E-19         0.00000E+00
    0.34541E-07        -0.30268E-19         0.00000E+00
    0.34517E-07        -0.26543E-19         0.00000E+00
    0.34494E-07        -0.69849E-20         0.00000E+00
    0.34471E-07        -0.60536E-20         0.00000E+00
    0.34449E-07        -0.15134E-19         0.00000E+00
    0.34428E-07         0.13271E-19         0.00000E+00
    0.34407E-07         0.86147E-20         0.00000E+00
    0.34388E-07         0.51223E-20         0.00000E+00
    0.34369E-07        -0.69849E-20         0.00000E+00
    0.34350E-07        -0.13271E-19         0.00000E+00
    0.34333E-07        -0.11176E-19         0.00000E+00
    0.34316E-07        -0.72177E-20         0.00000E+00
    0.34300E-07         0.86147E-20         0.00000E+00
    0.34285E-07         0.24214E-19         0.00000E+00
    0.34271E-07         0.20955E-19         0.00000E+00
    0.34257E-07         0.23283E-20         0.00000E+00
    0.34244E-07        -0.22119E-19         0.00000E+00
    0.34231E-07        -0.11409E-19         0.00000E+00
    0.34219E-07        -0.37253E-20         0.00000E+00
    0.34208E-07         0.90804E-20         0.00000E+00
    0.34198E-07         0.13039E-19         0.00000E+00
    0.34188E-07        -0.30268E-20         0.00000E+00
    0.34179E-07        -0.46566E-21         0.00000E+00
    0.34170E-07        -0.69849E-20         0.00000E+00
    0.34162E-07         0.30268E-20         0.00000E+00
    0.34155E-07         0.16764E-19         0.00000E+00
    0.34148E-07         0.12107E-19         0.00000E+00
    0.34142E-07         0.17695E-19         0.00000E+00
    0.34136E-07         0.18626E-19         0.00000E+00
    0.34131E-07         0.10012E-19         0.00000E+00
    0.34127E-07         0.13621E-19         0.00000E+00
    0.34122E-07         0.19441E-19         0.00000E+00
    0.34119E-07         0.13271E-19         0.00000E+00
    0.34116E-07         0.37253E-20         0.00000E+00
    0.34113E-07         0.96625E-20         0.00000E+00
    0.34111E-07         0.18743E-19         0.00000E+00
    0.34110E-07         0.17695E-19         0.00000E+00
    0.34109E-07         0.34925E-20         0.00000E+00
    0.34108E-07        -0.29104E-20         0.00000E+00
    0.36153E-07         0.93132E-20         0.00000E+00
    0.36151E-07         0.17462E-19         0.00000E+00
    0.36148E-07         0.18626E-19         0.00000E+00
    0.36144E-07         0.48894E-19         0.00000E+00
    0.36137E-07         0.36322E-19         0.00000E+00
    0.36130E-07         0.42608E-19         0.00000E+00
    0.36121E-07         0.38417E-19         0.00000E+00
    0.36110E-07        -0.13970E-20         0.00000E+00
    0.36098E-07         0.10012E-19         0.00000E+00
    0.36085E-07         0.97789E-20         0.00000E+00
    0.36070E-07        -0.25611E-20         0.00000E+00
    0.36054E-07         0.24913E-19         0.00000E+00
    0.36036E-07         0.23283E-21         0.00000E+00
    0.36018E-07        -0.81491E-20         0.00000E+00
    0.35998E-07         0.17229E-19         0.00000E+00
    0.35976E-07        -0.15600E-19         0.00000E+00
    0.35954E-07        -0.21886E-19         0.00000E+00
    0.35930E-07        -0.10477E-19         0.00000E+00
    0.35906E-07         0.16298E-19         0.00000E+00
    0.35880E-07         0.11642E-19         0.00000E+00
    0.35853E-07        -0.39348E-19         0.00000E+00
    0.35825E-07        -0.27940E-19         0.00000E+00
    0.35797E-07         0.13970E-20         0.00000E+00
    0.35767E-07        -0.86147E-20         0.00000E+00
    0.35737E-07        -0.65193E-20         0.00000E+00
    0.35706E-07         0.13970E-19         0.00000E+00
    0.35675E-07         0.33062E-19         0.00000E+00
    0.35643E-07         0.32596E-19         0.00000E+00
    0.35610E-07        -0.93132E-20         0.00000E+00
    0.35576E-07        -0.86147E-20         0.00000E+00
    0.35543E-07        -0.13504E-19         0.00000E+00
    0.35508E-07        -0.60536E-20         0.00000E+00
    0.35474E-07        -0.69849E-20         0.00000E+00
    0.35439E-07        -0.47265E-19         0.00000E+00
    0.35404E-07        -0.42142E-19         0.00000E+00
    0.35369E-07        -0.17928E-19         0.00000E+00
    0.35334E-07        -0.34925E-20         0.00000E+00
    0.35298E-07         0.86147E-20         0.00000E+00
    0.35263E-07         0.46566E-20         0.00000E+00
    0.35227E-07        -0.13504E-19         0.00000E+00
    0.35192E-07        -0.14668E-19         0.00000E+00
    0.35157E-07        -0.11642E-19         0.00000E+00
    0.35122E-07        -0.11642E-19         0.00000E+00
    0.35087E-07        -0.11874E-19         0.00000E+00
    0.35053E-07        -0.33993E-19         0.00000E+00
    0.35019E-07        -0.39116E-19         0.00000E+00
    0.34985E-07        -0.23982E-19         0.00000E+00
    0.34951E-07        -0.22817E-19         0.00000E+00
    0.34918E-07        -0.93132E-21         0.00000E+00
    0.34886E-07         0.13271E-19         0.00000E+00
    0.34854E-07        -0.25611E-20         0.00000E+00
    0.34822E-07        -0.14901E-19         0.00000E+00
    0.34791E-07        -0.12107E-19         0.00000E+00
    0.34761E-07        -0.26077E-19         0.00000E+00
    0.34731E-07        -0.34925E-19         0.00000E+00
    0.34702E-07        -0.36787E-19         0.00000E+00
    0.34674E-07        -0.13504E-19         0.00000E+00
    0.34646E-07        -0.58208E-20         0.00000E+00
    0.34619E-07        -0.13504E-19         0.00000E+00
    0.34592E-07         0.16298E-20         0.00000E+00
    0.34566E-07        -0.27940E-20         0.00000E+00
    0.34541E-07        -0.19325E-19         0.00000E+00
    0.34517E-07        -0.30268E-19         0.00000E+00
    0.34494E-07        -0.22352E-19         0.00000E+00
    0.34471E-07        -0.12573E-19         0.00000E+00
    0.34449E-07        -0.23516E-19         0.00000E+00
    0.34428E-07         0.25611E-20         0.00000E+00
    0.34407E-07         0.20256E-19         0.00000E+00
    0.34388E-07        -0.55879E-20         0.00000E+00
    0.34369E-07        -0.32596E-20         0.00000E+00
    0.34350E-07        -0.69849E-21         0.00000E+00
    0.34333E-07        -0.10477E-19         0.00000E+00
    0.34316E-07        -0.83819E-20         0.00000E+00
    0.34300E-07        -0.14203E-19         0.00000E+00
    0.34285E-07         0.48894E-20         0.00000E+00
    0.34271E-07         0.22119E-19         0.00000E+00
    0.34257E-07         0.10710E-19         0.00000E+00
    0.34244E-07        -0.88476E-20         0.00000E+00
    0.34231E-07        -0.69849E-21         0.00000E+00
    0.34219E-07         0.20023E-19         0.00000E+00
    0.34208E-07         0.22119E-19         0.00000E+00
    0.34198E-07         0.11409E-19         0.00000E+00
    0.34188E-07         0.13970E-19         0.00000E+00
    0.34179E-07         0.23283E-19         0.00000E+00
    0.34170E-07         0.27940E-20         0.00000E+00
    0.34162E-07         0.53551E-20         0.00000E+00
    0.34155E-07        -0.93132E-21         0.00000E+00
    0.34148E-07         0.93132E-20         0.00000E+00
    0.34142E-07         0.24447E-19         0.00000E+00
    0.34136E-07         0.12922E-19         0.00000E+00
    0.34131E-07         0.51223E-20         0.00000E+00
    0.34127E-07         0.13388E-19         0.00000E+00
    0.34122E-07         0.28638E-19         0.00000E+00
    0.34119E-07         0.35157E-19         0.00000E+00
    0.34116E-07         0.72177E-20         0.00000E+00
    0.34113E-07         0.32596E-20         0.00000E+00
    0.34111E-07         0.23050E-19         0.00000E+00
    0.34110E-07         0.17695E-19         0.00000E+00
    0.34109E-07         0.69849E-20         0.00000E+00
    0.34108E-07         0.93132E-21         0.00000E+00
    0.36153E-07         0.41910E-20         0.00000E+00
    0.36151E-07         0.16065E-19         0.00000E+00
    0.36148E-07         0.10245E-19         0.00000E+00
    0.36144E-07         0.22817E-19         0.00000E+00
    0.36137E-07         0.46566E-19         0.00000E+00
    0.36130E-07         0.25379E-19         0.00000E+00
    0.36121E-07         0.58208E-20         0.00000E+00
    0.36110E-07         0.97789E-20         0.00000E+00
    0.36098E-07        -0.18626E-19         0.00000E+00
    0.36085E-07        -0.62864E-20         0.00000E+00
    0.36070E-07         0.10943E-19         0.00000E+00
    0.36054E-07         0.16298E-20         0.00000E+00
    0.36036E-07         0.48894E-20         0.00000E+00
    0.36018E-07        -0.20955E-20         0.00000E+00
    0.35998E-07         0.15367E-19         0.00000E+00
    0.35976E-07        -0.27940E-20         0.00000E+00
    0.35954E-07        -0.67521E-20         0.00000E+00
    0.35930E-07        -0.55879E-20         0.00000E+00
    0.35906E-07        -0.37253E-19         0.00000E+00
    0.35880E-07        -0.20256E-19         0.00000E+00
    0.35853E-07        -0.44005E-19         0.00000E+00
    0.35825E-07        -0.46100E-19         0.00000E+00
    0.35797E-07        -0.22119E-19         0.00000E+00
    0.35767E-07        -0.16764E-19         0.00000E+00
    0.35737E-07        -0.93132E-21         0.00000E+00
    0.35706E-07         0.18626E-20         0.00000E+00
    0.35675E-07         0.10245E-19         0.00000E+00
    0.35643E-07         0.24447E-19         0.00000E+00
    0.35610E-07         0.29802E-19         0.00000E+00
    0.35576E-07         0.69849E-20         0.00000E+00
    0.35543E-07        -0.20023E-19         0.00000E+00
    0.35508E-07        -0.17462E-19         0.00000E+00
    0.35474E-07         0.32596E-20         0.00000E+00
    0.35439E-07        -0.19325E-19         0.00000E+00
    0.35404E-07        -0.33528E-19         0.00000E+00
    0.35369E-07        -0.20955E-20         0.00000E+00
    0.35334E-07         0.14668E-19         0.00000E+00
    0.35298E-07        -0.79162E-20         0.00000E+00
    0.35263E-07        -0.16764E-19         0.00000E+00
    0.35227E-07         0.16531E-19         0.00000E+00
    0.35192E-07         0.18859E-19         0.00000E+00
    0.35157E-07        -0.13737E-19         0.00000E+00
    0.35122E-07        -0.14435E-19         0.00000E+00
    0.35087E-07        -0.32596E-20         0.00000E+00
    0.35053E-07        -0.17462E-19         0.00000E+00
    0.35019E-07        -0.18161E-19         0.00000E+00
    0.34985E-07        -0.67521E-20         0.00000E+00
    0.34951E-07        -0.21420E-19         0.00000E+00
    0.34918E-07        -0.20023E-19         0.00000E+00
    0.34886E-07         0.23283E-21         0.00000E+00
    0.34854E-07        -0.28871E-19         0.00000E+00
    0.34822E-07        -0.47497E-19         0.00000E+00
    0.34791E-07        -0.32829E-19         0.00000E+00
    0.34761E-07        -0.58208E-20         0.00000E+00
    0.34731E-07        -0.39581E-20         0.00000E+00
    0.34702E-07        -0.13970E-19         0.00000E+00
    0.34674E-07        -0.13970E-20         0.00000E+00
    0.34646E-07        -0.10477E-19         0.00000E+00
    0.34619E-07        -0.69849E-20         0.00000E+00
    0.34592E-07        -0.18626E-20         0.00000E+00
    0.34566E-07        -0.11176E-19         0.00000E+00
    0.34541E-07        -0.18161E-19         0.00000E+00
    0.34517E-07        -0.18161E-19         0.00000E+00
    0.34494E-07        -0.21886E-19         0.00000E+00
    0.34471E-07        -0.35157E-19         0.00000E+00
    0.34449E-07        -0.29569E-19         0.00000E+00
    0.34428E-07        -0.90804E-20         0.00000E+00
    0.34407E-07        -0.22817E-19         0.00000E+00
    0.34388E-07        -0.22119E-19         0.00000E+00
    0.34369E-07        -0.93132E-20         0.00000E+00
    0.34350E-07        -0.17695E-19         0.00000E+00
    0.34333E-07        -0.19092E-19         0.00000E+00
    0.34316E-07        -0.23283E-20         0.00000E+00
    0.34300E-07        -0.46566E-21         0.00000E+00
    0.34285E-07        -0.93132E-21         0.00000E+00
    0.34271E-07        -0.16298E-20         0.00000E+00
    0.34257E-07        -0.65193E-20         0.00000E+00
    0.34244E-07        -0.90804E-20         0.00000E+00
    0.34231E-07        -0.67521E-20         0.00000E+00
    0.34219E-07         0.46566E-21         0.00000E+00
    0.34208E-07        -0.37253E-20         0.00000E+00
    0.34198E-07         0.74506E-20         0.00000E+00
    0.34188E-07         0.53551E-20         0.00000E+00
    0.34179E-07        -0.62864E-20         0.00000E+00
    0.34170E-07        -0.86147E-20         0.00000E+00
    0.34162E-07        -0.16531E-19         0.00000E+00
    0.34155E-07        -0.58208E-20         0.00000E+00
    0.34148E-07         0.39581E-20         0.00000E+00
    0.34142E-07        -0.44238E-20         0.00000E+00
    0.34136E-07         0.21653E-19         0.00000E+00
    0.34131E-07         0.18277E-19         0.00000E+00
    0.34127E-07         0.82655E-20         0.00000E+00
    0.34122E-07         0.15250E-19         0.00000E+00
    0.34119E-07         0.19325E-19         0.00000E+00
    0.34116E-07         0.18277E-19         0.00000E+00
    0.34113E-07         0.69849E-21         0.00000E+00
    0.34111E-07         0.11176E-19         0.00000E+00
    0.34110E-07         0.79162E-20         0.00000E+00
    0.34109E-07         0.60536E-20         0.00000E+00
    0.34108E-07         0.25611E-20         0.00000E+00
    0.36153E-07         0.93132E-21         0.00000E+00
    0.36151E-07         0.30501E-19         0.00000E+00
    0.36148E-07         0.41910E-19         0.00000E+00
    0.36144E-07         0.25611E-19         0.00000E+00
    0.36137E-07         0.65193E-20         0.00000E+00
    0.36130E-07        -0.21188E-19         0.00000E+00
    0.36121E-07        -0.13271E-19         0.00000E+00
    0.36110E-07         0.13039E-19         0.00000E+00
    0.36098E-07         0.65193E-20         0.00000E+00
    0.36085E-07        -0.16764E-19         0.00000E+00
    0.36070E-07        -0.29569E-19         0.00000E+00
    0.36054E-07        -0.11642E-19         0.00000E+00
    0.36036E-07         0.48894E-20         0.00000E+00
    0.36018E-07         0.10477E-19         0.00000E+00
    0.35998E-07         0.10943E-19         0.00000E+00
    0.35976E-07        -0.11176E-19         0.00000E+00
    0.35954E-07        -0.39581E-20         0.00000E+00
    0.35930E-07         0.65193E-20         0.00000E+00
    0.35906E-07        -0.60536E-20         0.00000E+00
    0.35880E-07        -0.28405E-19         0.00000E+00
    0.35853E-07         0.39581E-20         0.00000E+00
    0.35825E-07        -0.18626E-20         0.00000E+00
    0.35797E-07        -0.14435E-19         0.00000E+00
    0.35767E-07        -0.53551E-20         0.00000E+00
    0.35737E-07        -0.13039E-19         0.00000E+00
    0.35706E-07        -0.23749E-19         0.00000E+00
    0.35675E-07         0.00000E+00         0.00000E+00
    0.35643E-07         0.15600E-19         0.00000E+00
    0.35610E-07        -0.10245E-19         0.00000E+00
    0.35576E-07        -0.33993E-19         0.00000E+00
    0.35543E-07        -0.33062E-19         0.00000E+00
    0.35508E-07         0.13039E-19         0.00000E+00
    0.35474E-07        -0.44238E-20         0.00000E+00
    0.35439E-07        -0.36322E-19         0.00000E+00
    0.35404E-07        -0.20489E-19         0.00000E+00
    0.35369E-07         0.13970E-20         0.00000E+00
    0.35334E-07         0.11176E-19         0.00000E+00
    0.35298E-07        -0.88476E-20         0.00000E+00
    0.35263E-07        -0.15134E-19         0.00000E+00
    0.35227E-07         0.13970E-19         0.00000E+00
    0.35192E-07         0.20722E-19         0.00000E+00
    0.35157E-07         0.14435E-19         0.00000E+00
    0.35122E-07        -0.13970E-20         0.00000E+00
    0.35087E-07        -0.38650E-19         0.00000E+00
    0.35053E-07        -0.19325E-19         0.00000E+00
    0.35019E-07        -0.18626E-20         0.00000E+00
    0.34985E-07         0.13970E-20         0.00000E+00
    0.34951E-07         0.81491E-20         0.00000E+00
    0.34918E-07        -0.11874E-19         0.00000E+00
    0.34886E-07         0.18626E-20         0.00000E+00
    0.34854E-07        -0.65193E-20         0.00000E+00
    0.34822E-07        -0.19325E-19         0.00000E+00
    0.34791E-07        -0.19325E-19         0.00000E+00
    0.34761E-07        -0.23982E-19         0.00000E+00
    0.34731E-07        -0.20489E-19         0.00000E+00
    0.34702E-07        -0.11874E-19         0.00000E+00
    0.34674E-07        -0.46566E-21         0.00000E+00
    0.34646E-07        -0.97789E-20         0.00000E+00
    0.34619E-07        -0.97789E-20         0.00000E+00
    0.34592E-07        -0.69849E-21         0.00000E+00
    0.34566E-07        -0.97789E-20         0.00000E+00
    0.34541E-07        -0.20722E-19         0.00000E+00
    0.34517E-07        -0.32363E-19         0.00000E+00
    0.34494E-07        -0.39116E-19         0.00000E+00
    0.34471E-07        -0.27707E-19         0.00000E+00
    0.34449E-07        -0.76834E-20         0.00000E+00
    0.34428E-07        -0.16298E-19         0.00000E+00
    0.34407E-07        -0.16997E-19         0.00000E+00
    0.34388E-07         0.93132E-21         0.00000E+00
    0.34369E-07        -0.18161E-19         0.00000E+00
    0.34350E-07        -0.24680E-19         0.00000E+00
    0.34333E-07        -0.18626E-20         0.00000E+00
    0.34316E-07        -0.58208E-20         0.00000E+00
    0.34300E-07        -0.55879E-20         0.00000E+00
    0.34285E-07         0.79162E-20         0.00000E+00
    0.34271E-07        -0.10477E-19         0.00000E+00
    0.34257E-07        -0.12340E-19         0.00000E+00
    0.34244E-07        -0.19092E-19         0.00000E+00
    0.34231E-07        -0.79162E-20         0.00000E+00
    0.34219E-07        -0.83819E-20         0.00000E+00
    0.34208E-07        -0.20023E-19         0.00000E+00
    0.34198E-07        -0.65193E-20         0.00000E+00
    0.34188E-07        -0.46566E-20         0.00000E+00
    0.34179E-07        -0.60536E-20         0.00000E+00
    0.34170E-07        -0.93132E-20         0.00000E+00
    0.34162E-07         0.41910E-20         0.00000E+00
    0.34155E-07         0.23283E-20         0.00000E+00
    0.34148E-07        -0.18626E-20         0.00000E+00
    0.34142E-07        -0.30268E-20         0.00000E+00
    0.34136E-07         0.15134E-19         0.00000E+00
    0.34131E-07         0.13271E-19         0.00000E+00
    0.34127E-07         0.17462E-20         0.00000E+00
    0.34122E-07         0.30268E-19         0.00000E+00
    0.34119E-07         0.18277E-19         0.00000E+00
    0.34116E-07         0.87311E-20         0.00000E+00
    0.34113E-07         0.53551E-20         0.00000E+00
    0.34111E-07         0.72177E-20         0.00000E+00
    0.34110E-07         0.15716E-19         0.00000E+00
    0.34109E-07         0.50059E-20         0.00000E+00
    0.34108E-07         0.25611E-20         0.00000E+00
    0.36153E-07         0.16298E-19         0.00000E+00
    0.36151E-07         0.15134E-19         0.00000E+00
    0.36148E-07         0.23283E-19         0.00000E+00
    0.36144E-07         0.33062E-19         0.00000E+00
    0.36137E-07         0.20955E-19         0.00000E+00
    0.36130E-07        -0.18394E-19         0.00000E+00
    0.36121E-07        -0.46799E-19         0.00000E+00
    0.36110E-07        -0.20955E-19         0.00000E+00
    0.36098E-07         0.10477E-19         0.00000E+00
    0.36085E-07        -0.11642E-20         0.00000E+00
    0.36070E-07        -0.23283E-21         0.00000E+00
    0.36054E-07         0.25379E-19         0.00000E+00
    0.36036E-07         0.34925E-19         0.00000E+00
    0.36018E-07         0.26310E-19         0.00000E+00
    0.35998E-07         0.17928E-19         0.00000E+00
    0.35976E-07         0.24447E-19         0.00000E+00
    0.35954E-07        -0.11176E-19         0.00000E+00
    0.35930E-07        -0.13271E-19         0.00000E+00
    0.35906E-07         0.20955E-20         0.00000E+00
    0.35880E-07        -0.65193E-20         0.00000E+00
    0.35853E-07        -0.29569E-19         0.00000E+00
    0.35825E-07        -0.32131E-19         0.00000E+00
    0.35797E-07        -0.15600E-19         0.00000E+00
    0.35767E-07        -0.18626E-19         0.00000E+00
    0.35737E-07        -0.20256E-19         0.00000E+00
    0.35706E-07        -0.15832E-19         0.00000E+00
    0.35675E-07        -0.12107E-19         0.00000E+00
    0.35643E-07         0.10012E-19         0.00000E+00
    0.35610E-07        -0.60536E-20         0.00000E+00
    0.35576E-07        -0.40978E-19         0.00000E+00
    0.35543E-07        -0.31199E-19         0.00000E+00
    0.35508E-07        -0.18626E-19         0.00000E+00
    0.35474E-07        -0.25146E-19         0.00000E+00
    0.35439E-07        -0.26077E-19         0.00000E+00
    0.35404E-07        -0.41910E-20         0.00000E+00
    0.35369E-07         0.60536E-20         0.00000E+00
    0.35334E-07        -0.14435E-19         0.00000E+00
    0.35298E-07        -0.32596E-20         0.00000E+00
    0.35263E-07         0.21653E-19         0.00000E+00
    0.35227E-07        -0.12806E-19         0.00000E+00
    0.35192E-07        -0.12107E-19         0.00000E+00
    0.35157E-07         0.34925E-20         0.00000E+00
    0.35122E-07        -0.27008E-19         0.00000E+00
    0.35087E-07        -0.22585E-19         0.00000E+00
    0.35053E-07        -0.28405E-19         0.00000E+00
    0.35019E-07        -0.26776E-19         0.00000E+00
    0.34985E-07         0.69849E-21         0.00000E+00
    0.34951E-07         0.69849E-21         0.00000E+00
    0.34918E-07        -0.16298E-19         0.00000E+00
    0.34886E-07        -0.26077E-19         0.00000E+00
    0.34854E-07        -0.15600E-19         0.00000E+00
    0.34822E-07        -0.20023E-19         0.00000E+00
    0.34791E-07        -0.30501E-19         0.00000E+00
    0.34761E-07        -0.18161E-19         0.00000E+00
    0.34731E-07        -0.26077E-19         0.00000E+00
    0.34702E-07        -0.13271E-19         0.00000E+00
    0.34674E-07        -0.41910E-20         0.00000E+00
    0.34646E-07         0.16298E-20         0.00000E+00
    0.34619E-07         0.15134E-19         0.00000E+00
    0.34592E-07         0.46566E-21         0.00000E+00
    0.34566E-07        -0.15600E-19         0.00000E+00
    0.34541E-07        -0.27474E-19         0.00000E+00
    0.34517E-07        -0.24214E-19         0.00000E+00
    0.34494E-07        -0.12573E-19         0.00000E+00
    0.34471E-07        -0.18626E-19         0.00000E+00
    0.34449E-07        -0.19791E-19         0.00000E+00
    0.34428E-07        -0.13970E-20         0.00000E+00
    0.34407E-07        -0.46566E-21         0.00000E+00
    0.34388E-07        -0.11642E-19         0.00000E+00
    0.34369E-07        -0.18161E-19         0.00000E+00
    0.34350E-07        -0.20023E-19         0.00000E+00
    0.34333E-07        -0.22352E-19         0.00000E+00
    0.34316E-07        -0.11176E-19         0.00000E+00
    0.34300E-07        -0.65193E-20         0.00000E+00
    0.34285E-07        -0.27940E-20         0.00000E+00
    0.34271E-07        -0.10943E-19         0.00000E+00
    0.34257E-07        -0.79162E-20         0.00000E+00
    0.34244E-07        -0.69849E-21         0.00000E+00
    0.34231E-07        -0.79162E-20         0.00000E+00
    0.34219E-07        -0.60536E-20         0.00000E+00
    0.34208E-07         0.20955E-20         0.00000E+00
    0.34198E-07        -0.46566E-20         0.00000E+00
    0.34188E-07         0.12806E-19         0.00000E+00
    0.34179E-07         0.97789E-20         0.00000E+00
    0.34170E-07        -0.62864E-20         0.00000E+00
    0.34162E-07         0.15367E-19         0.00000E+00
    0.34155E-07         0.46566E-20         0.00000E+00
    0.34148E-07        -0.13039E-19         0.00000E+00
    0.34142E-07         0.81491E-20         0.00000E+00
    0.34136E-07         0.90804E-20         0.00000E+00
    0.34131E-07         0.10477E-19         0.00000E+00
    0.34127E-07         0.27823E-19         0.00000E+00
    0.34122E-07         0.79162E-20         0.00000E+00
    0.34119E-07         0.16764E-19         0.00000E+00
    0.34116E-07         0.20023E-19         0.00000E+00
    0.34113E-07        -0.86147E-20         0.00000E+00
    0.34111E-07         0.62864E-20         0.00000E+00
    0.34110E-07         0.52387E-20         0.00000E+00
    0.34109E-07         0.74506E-20         0.00000E+00
    0.34108E-07         0.10943E-19         0.00000E+00
    0.36153E-07         0.46566E-21         0.00000E+00
    0.36151E-07         0.15367E-19         0.00000E+00
    0.36148E-07         0.40978E-19         0.00000E+00
    0.36144E-07         0.26543E-19         0.00000E+00
    0.36137E-07         0.53551E-20         0.00000E+00
    0.36130E-07         0.13039E-19         0.00000E+00
    0.36121E-07        -0.13737E-19         0.00000E+00
    0.36110E-07        -0.18394E-19         0.00000E+00
    0.36098E-07         0.16997E-19         0.00000E+00
    0.36085E-07         0.30734E-19         0.00000E+00
    0.36070E-07         0.24447E-19         0.00000E+00
    0.36054E-07         0.22585E-19         0.00000E+00
    0.36036E-07         0.18859E-19         0.00000E+00
    0.36018E-07        -0.95461E-20         0.00000E+00
    0.35998E-07        -0.30501E-19         0.00000E+00
    0.35976E-07        -0.55879E-20         0.00000E+00
    0.35954E-07         0.22817E-19         0.00000E+00
    0.35930E-07         0.12107E-19         0.00000E+00
    0.35906E-07         0.32131E-19         0.00000E+00
    0.35880E-07         0.33993E-19         0.00000E+00
    0.35853E-07         0.15832E-19         0.00000E+00
    0.35825E-07         0.32596E-20         0.00000E+00
    0.35797E-07        -0.36089E-19         0.00000E+00
    0.35767E-07        -0.46566E-21         0.00000E+00
    0.35737E-07         0.21188E-19         0.00000E+00
    0.35706E-07        -0.20489E-19         0.00000E+00
    0.35675E-07        -0.13970E-19         0.00000E+00
    0.35643E-07        -0.34925E-20         0.00000E+00
    0.35610E-07         0.95461E-20         0.00000E+00
    0.35576E-07        -0.10477E-19         0.00000E+00
    0.35543E-07        -0.26543E-19         0.00000E+00
    0.35508E-07        -0.27940E-20         0.00000E+00
    0.35474E-07        -0.62864E-20         0.00000E+00
    0.35439E-07        -0.13504E-19         0.00000E+00
    0.35404E-07        -0.21886E-19         0.00000E+00
    0.35369E-07        -0.25844E-19         0.00000E+00
    0.35334E-07        -0.17462E-19         0.00000E+00
    0.35298E-07        -0.13970E-19         0.00000E+00
    0.35263E-07         0.13737E-19         0.00000E+00
    0.35227E-07         0.11176E-19         0.00000E+00
    0.35192E-07        -0.60536E-20         0.00000E+00
    0.35157E-07        -0.86147E-20         0.00000E+00
    0.35122E-07        -0.24447E-19         0.00000E+00
    0.35087E-07        -0.20489E-19         0.00000E+00
    0.35053E-07         0.20955E-20         0.00000E+00
    0.35019E-07        -0.79162E-20         0.00000E+00
    0.34985E-07         0.25611E-20         0.00000E+00
    0.34951E-07         0.93132E-20         0.00000E+00
    0.34918E-07        -0.17462E-19         0.00000E+00
    0.34886E-07        -0.14901E-19         0.00000E+00
    0.34854E-07        -0.14203E-19         0.00000E+00
    0.34822E-07        -0.22119E-19         0.00000E+00
    0.34791E-07        -0.20489E-19         0.00000E+00
    0.34761E-07        -0.69849E-21         0.00000E+00
    0.34731E-07         0.81491E-20         0.00000E+00
    0.34702E-07         0.10012E-19         0.00000E+00
    0.34674E-07        -0.13970E-20         0.00000E+00
    0.34646E-07        -0.90804E-20         0.00000E+00
    0.34619E-07        -0.16531E-19         0.00000E+00
    0.34592E-07        -0.90804E-20         0.00000E+00
    0.34566E-07        -0.44238E-20         0.00000E+00
    0.34541E-07        -0.22817E-19         0.00000E+00
    0.34517E-07        -0.25611E-19         0.00000E+00
    0.34494E-07        -0.16764E-19         0.00000E+00
    0.34471E-07        -0.22585E-19         0.00000E+00
    0.34449E-07        -0.32829E-19         0.00000E+00
    0.34428E-07        -0.23283E-19         0.00000E+00
    0.34407E-07        -0.22352E-19         0.00000E+00
    0.34388E-07        -0.18394E-19         0.00000E+00
    0.34369E-07        -0.12107E-19         0.00000E+00
    0.34350E-07        -0.12806E-19         0.00000E+00
    0.34333E-07         0.53551E-20         0.00000E+00
    0.34316E-07        -0.25611E-20         0.00000E+00
    0.34300E-07        -0.46566E-20         0.00000E+00
    0.34285E-07         0.32596E-20         0.00000E+00
    0.34271E-07        -0.20722E-19         0.00000E+00
    0.34257E-07        -0.31665E-19         0.00000E+00
    0.34244E-07        -0.65193E-20         0.00000E+00
    0.34231E-07        -0.31432E-19         0.00000E+00
    0.34219E-07        -0.25146E-19         0.00000E+00
    0.34208E-07         0.37253E-20         0.00000E+00
    0.34198E-07        -0.51223E-20         0.00000E+00
    0.34188E-07        -0.20722E-19         0.00000E+00
    0.34179E-07        -0.86147E-20         0.00000E+00
    0.34170E-07         0.72177E-20         0.00000E+00
    0.34162E-07         0.48894E-20         0.00000E+00
    0.34155E-07         0.83819E-20         0.00000E+00
    0.34148E-07         0.20955E-20         0.00000E+00
    0.34142E-07         0.97789E-20         0.00000E+00
    0.34136E-07         0.53551E-20         0.00000E+00
    0.34131E-07         0.51223E-20         0.00000E+00
    0.34127E-07         0.62864E-20         0.00000E+00
    0.34122E-07         0.13853E-19         0.00000E+00
    0.34119E-07         0.29919E-19         0.00000E+00
    0.34116E-07         0.17462E-19         0.00000E+00
    0.34113E-07         0.18394E-19         0.00000E+00
    0.34111E-07         0.58208E-20         0.00000E+00
    0.34110E-07         0.25611E-20         0.00000E+00
    0.34109E-07         0.96625E-20         0.00000E+00
    0.34108E-07        -0.58208E-21         0.00000E+00
    0.36153E-07         0.47032E-19         0.00000E+00
    0.36151E-07         0.74506E-19         0.00000E+00
    0.36148E-07         0.15600E-19         0.00000E+00
    0.36144E-07         0.23283E-20         0.00000E+00
    0.36137E-07         0.62864E-20         0.00000E+00
    0.36130E-07        -0.33993E-19         0.00000E+00
    0.36121E-07        -0.33760E-19         0.00000E+00
    0.36110E-07        -0.10245E-19         0.00000E+00
    0.36098E-07         0.22585E-19         0.00000E+00
    0.36085E-07         0.26310E-19         0.00000E+00
    0.36070E-07         0.15832E-19         0.00000E+00
    0.36054E-07         0.16997E-19         0.00000E+00
    0.36036E-07         0.23050E-19         0.00000E+00
    0.36018E-07         0.16997E-19         0.00000E+00
    0.35998E-07        -0.39581E-20         0.00000E+00
    0.35976E-07        -0.51223E-20         0.00000E+00
    0.35954E-07        -0.32596E-20         0.00000E+00
    0.35930E-07         0.14901E-19         0.00000E+00
    0.35906E-07        -0.32596E-20         0.00000E+00
    0.35880E-07        -0.15367E-19         0.00000E+00
    0.35853E-07         0.46566E-21         0.00000E+00
    0.35825E-07        -0.17229E-19         0.00000E+00
    0.35797E-07        -0.23050E-19         0.00000E+00
    0.35767E-07        -0.93132E-21         0.00000E+00
    0.35737E-07        -0.67521E-20         0.00000E+00
    0.35706E-07        -0.33993E-19         0.00000E+00
    0.35675E-07        -0.33062E-19         0.00000E+00
    0.35643E-07        -0.35157E-19         0.00000E+00
    0.35610E-07        -0.55879E-20         0.00000E+00
    0.35576E-07         0.65193E-20         0.00000E+00
    0.35543E-07        -0.27940E-19         0.00000E+00
    0.35508E-07        -0.42841E-19         0.00000E+00
    0.35474E-07        -0.23283E-19         0.00000E+00
    0.35439E-07        -0.93132E-20         0.00000E+00
    0.35404E-07        -0.37253E-20         0.00000E+00
    0.35369E-07        -0.97789E-20         0.00000E+00
    0.35334E-07        -0.44238E-20         0.00000E+00
    0.35298E-07         0.27940E-20         0.00000E+00
    0.35263E-07        -0.39581E-20         0.00000E+00
    0.35227E-07         0.10943E-19         0.00000E+00
    0.35192E-07         0.21188E-19         0.00000E+00
    0.35157E-07        -0.30268E-20         0.00000E+00
    0.35122E-07        -0.12107E-19         0.00000E+00
    0.35087E-07         0.76834E-20         0.00000E+00
    0.35053E-07        -0.18626E-20         0.00000E+00
    0.35019E-07        -0.20489E-19         0.00000E+00
    0.34985E-07         0.83819E-20         0.00000E+00
    0.34951E-07         0.22585E-19         0.00000E+00
    0.34918E-07         0.27940E-20         0.00000E+00
    0.34886E-07        -0.20023E-19         0.00000E+00
    0.34854E-07        -0.11176E-19         0.00000E+00
    0.34822E-07         0.48894E-20         0.00000E+00
    0.34791E-07         0.46566E-21         0.00000E+00
    0.34761E-07        -0.51223E-20         0.00000E+00
    0.34731E-07        -0.11176E-19         0.00000E+00
    0.34702E-07        -0.14435E-19         0.00000E+00
    0.34674E-07         0.15367E-19         0.00000E+00
    0.34646E-07         0.32596E-20         0.00000E+00
    0.34619E-07        -0.34226E-19         0.00000E+00
    0.34592E-07        -0.14203E-19         0.00000E+00
    0.34566E-07         0.25611E-20         0.00000E+00
    0.34541E-07        -0.23749E-19         0.00000E+00
    0.34517E-07        -0.16764E-19         0.00000E+00
    0.34494E-07         0.32596E-20         0.00000E+00
    0.34471E-07        -0.60536E-20         0.00000E+00
    0.34449E-07        -0.14668E-19         0.00000E+00
    0.34428E-07        -0.16997E-19         0.00000E+00
    0.34407E-07        -0.15367E-19         0.00000E+00
    0.34388E-07        -0.18626E-19         0.00000E+00
    0.34369E-07        -0.16764E-19         0.00000E+00
    0.34350E-07        -0.24214E-19         0.00000E+00
    0.34333E-07        -0.20722E-19         0.00000E+00
    0.34316E-07        -0.81491E-20         0.00000E+00
    0.34300E-07         0.34925E-20         0.00000E+00
    0.34285E-07        -0.12340E-19         0.00000E+00
    0.34271E-07        -0.25844E-19         0.00000E+00
    0.34257E-07         0.34925E-20         0.00000E+00
    0.34244E-07         0.60536E-20         0.00000E+00
    0.34231E-07        -0.23283E-19         0.00000E+00
    0.34219E-07        -0.18626E-19         0.00000E+00
    0.34208E-07        -0.11642E-20         0.00000E+00
    0.34198E-07         0.86147E-20         0.00000E+00
    0.34188E-07         0.60536E-20         0.00000E+00
    0.34179E-07         0.13970E-20         0.00000E+00
    0.34170E-07        -0.69849E-21         0.00000E+00
    0.34162E-07        -0.13504E-19         0.00000E+00
    0.34155E-07        -0.11176E-19         0.00000E+00
    0.34148E-07         0.55879E-20         0.00000E+00
    0.34142E-07         0.23399E-19         0.00000E+00
    0.34136E-07         0.12456E-19         0.00000E+00
    0.34131E-07         0.38417E-20         0.00000E+00
    0.34127E-07         0.68685E-20         0.00000E+00
    0.34122E-07         0.23749E-19         0.00000E+00
    0.34119E-07         0.13388E-19         0.00000E+00
    0.34116E-07        -0.65193E-20         0.00000E+00
    0.34113E-07        -0.23283E-20         0.00000E+00
    0.34111E-07         0.12689E-19         0.00000E+00
    0.34110E-07         0.83819E-20         0.00000E+00
    0.34109E-07         0.25611E-20         0.00000E+00
    0.34108E-07         0.83819E-20         0.00000E+00
    0.36153E-07         0.28173E-19         0.00000E+00
    0.36151E-07         0.50059E-19         0.00000E+00
    0.36148E-07         0.15832E-19         0.00000E+00
    0.36144E-07        -0.12806E-19         0.00000E+00
    0.36137E-07        -0.17928E-19         0.00000E+00
    0.36130E-07        -0.11874E-19         0.00000E+00
    0.36121E-07        -0.17695E-19         0.00000E+00
    0.36110E-07        -0.30501E-19         0.00000E+00
    0.36098E-07        -0.27940E-20         0.00000E+00
    0.36085E-07         0.37253E-20         0.00000E+00
    0.36070E-07         0.14203E-19         0.00000E+00
    0.36054E-07         0.11874E-19         0.00000E+00
    0.36036E-07        -0.14668E-19         0.00000E+00
    0.36018E-07         0.19791E-19         0.00000E+00
    0.35998E-07         0.18394E-19         0.00000E+00
    0.35976E-07         0.21188E-19         0.00000E+00
    0.35954E-07         0.23982E-19         0.00000E+00
    0.35930E-07        -0.46566E-21         0.00000E+00
    0.35906E-07         0.23283E-20         0.00000E+00
    0.35880E-07         0.25146E-19         0.00000E+00
    0.35853E-07        -0.69849E-21         0.00000E+00
    0.35825E-07        -0.47963E-19         0.00000E+00
    0.35797E-07        -0.37486E-19         0.00000E+00
    0.35767E-07         0.18626E-20         0.00000E+00
    0.35737E-07         0.12107E-19         0.00000E+00
    0.35706E-07         0.69849E-20         0.00000E+00
    0.35675E-07         0.27940E-20         0.00000E+00
    0.35643E-07        -0.25146E-19         0.00000E+00
    0.35610E-07        -0.12107E-19         0.00000E+00
    0.35576E-07         0.20489E-19         0.00000E+00
    0.35543E-07         0.13039E-19         0.00000E+00
    0.35508E-07        -0.79162E-20         0.00000E+00
    0.35474E-07        -0.58208E-20         0.00000E+00
    0.35439E-07        -0.46566E-21         0.00000E+00
    0.35404E-07        -0.74506E-20         0.00000E+00
    0.35369E-07         0.53551E-20         0.00000E+00
    0.35334E-07         0.17229E-19         0.00000E+00
    0.35298E-07        -0.23050E-19         0.00000E+00
    0.35263E-07         0.93132E-21         0.00000E+00
    0.35227E-07         0.13039E-19         0.00000E+00
    0.35192E-07        -0.15134E-19         0.00000E+00
    0.35157E-07        -0.22352E-19         0.00000E+00
    0.35122E-07        -0.14435E-19         0.00000E+00
    0.35087E-07         0.16764E-19         0.00000E+00
    0.35053E-07         0.20722E-19         0.00000E+00
    0.35019E-07         0.48894E-20         0.00000E+00
    0.34985E-07        -0.11874E-19         0.00000E+00
    0.34951E-07        -0.53551E-20         0.00000E+00
    0.34918E-07        -0.10245E-19         0.00000E+00
    0.34886E-07        -0.19558E-19         0.00000E+00
    0.34854E-07        -0.23050E-19         0.00000E+00
    0.34822E-07        -0.11176E-19         0.00000E+00
    0.34791E-07        -0.46566E-21         0.00000E+00
    0.34761E-07        -0.55879E-20         0.00000E+00
    0.34731E-07        -0.97789E-20         0.00000E+00
    0.34702E-07         0.12573E-19         0.00000E+00
    0.34674E-07         0.11874E-19         0.00000E+00
    0.34646E-07         0.48894E-20         0.00000E+00
    0.34619E-07        -0.62864E-20         0.00000E+00
    0.34592E-07        -0.19791E-19         0.00000E+00
    0.34566E-07        -0.12340E-19         0.00000E+00
    0.34541E-07        -0.83819E-20         0.00000E+00
    0.34517E-07        -0.12107E-19         0.00000E+00
    0.34494E-07        -0.72177E-20         0.00000E+00
    0.34471E-07        -0.20955E-20         0.00000E+00
    0.34449E-07        -0.11874E-19         0.00000E+00
    0.34428E-07        -0.32829E-19         0.00000E+00
    0.34407E-07        -0.24680E-19         0.00000E+00
    0.34388E-07        -0.22585E-19         0.00000E+00
    0.34369E-07        -0.20955E-19         0.00000E+00
    0.34350E-07        -0.14668E-19         0.00000E+00
    0.34333E-07        -0.30268E-20         0.00000E+00
    0.34316E-07         0.88476E-20         0.00000E+00
    0.34300E-07         0.74506E-20         0.00000E+00
    0.34285E-07         0.11642E-20         0.00000E+00
    0.34271E-07        -0.21420E-19         0.00000E+00
    0.34257E-07        -0.30268E-19         0.00000E+00
    0.34244E-07        -0.60536E-20         0.00000E+00
    0.34231E-07        -0.93132E-20         0.00000E+00
    0.34219E-07        -0.53551E-20         0.00000E+00
    0.34208E-07         0.13970E-20         0.00000E+00
    0.34198E-07        -0.48894E-20         0.00000E+00
    0.34188E-07         0.53551E-20         0.00000E+00
    0.34179E-07         0.74506E-20         0.00000E+00
    0.34170E-07         0.20955E-20         0.00000E+00
    0.34162E-07         0.39581E-20         0.00000E+00
    0.34155E-07         0.46566E-21         0.00000E+00
    0.34148E-07        -0.18626E-20         0.00000E+00
    0.34142E-07         0.58208E-20         0.00000E+00
    0.34136E-07         0.62864E-20         0.00000E+00
    0.34131E-07        -0.74506E-20         0.00000E+00
    0.34127E-07         0.61700E-20         0.00000E+00
    0.34122E-07         0.28289E-19         0.00000E+00
    0.34119E-07         0.13621E-19         0.00000E+00
    0.34116E-07         0.69849E-21         0.00000E+00
    0.34113E-07         0.93132E-21         0.00000E+00
    0.34111E-07         0.11874E-19         0.00000E+00
    0.34110E-07         0.20373E-19         0.00000E+00
    0.34109E-07         0.71013E-20         0.00000E+00
    0.34108E-07        -0.37253E-20         0.00000E+00
    0.36153E-07         0.27940E-20         0.00000E+00
    0.36151E-07         0.19791E-19         0.00000E+00
    0.36148E-07         0.19558E-19         0.00000E+00
    0.36144E-07        -0.31665E-19         0.00000E+00
    0.36137E-07        -0.33528E-19         0.00000E+00
    0.36130E-07        -0.25611E-19         0.00000E+00
    0.36121E-07        -0.63330E-19         0.00000E+00
    0.36110E-07        -0.46566E-19         0.00000E+00
    0.36098E-07         0.72177E-20         0.00000E+00
    0.36085E-07         0.21188E-19         0.00000E+00
    0.36070E-07        -0.62864E-20         0.00000E+00
    0.36054E-07        -0.21420E-19         0.00000E+00
    0.36036E-07        -0.69849E-21         0.00000E+00
    0.36018E-07         0.86147E-20         0.00000E+00
    0.35998E-07         0.24447E-19         0.00000E+00
    0.35976E-07        -0.32596E-20         0.00000E+00
    0.35954E-07        -0.10477E-19         0.00000E+00
    0.35930E-07        -0.93132E-20         0.00000E+00
    0.35906E-07        -0.12340E-19         0.00000E+00
    0.35880E-07         0.69849E-20         0.00000E+00
    0.35853E-07        -0.26776E-19         0.00000E+00
    0.35825E-07        -0.41910E-19         0.00000E+00
    0.35797E-07        -0.83819E-20         0.00000E+00
    0.35767E-07         0.13504E-19         0.00000E+00
    0.35737E-07         0.13737E-19         0.00000E+00
    0.35706E-07         0.97789E-20         0.00000E+00
    0.35675E-07        -0.16298E-20         0.00000E+00
    0.35643E-07        -0.13271E-19         0.00000E+00
    0.35610E-07        -0.62864E-20         0.00000E+00
    0.35576E-07         0.17695E-19         0.00000E+00
    0.35543E-07         0.25379E-19         0.00000E+00
    0.35508E-07         0.88476E-20         0.00000E+00
    0.35474E-07        -0.17462E-19         0.00000E+00
    0.35439E-07        -0.13737E-19         0.00000E+00
    0.35404E-07         0.20256E-19         0.00000E+00
    0.35369E-07         0.21420E-19         0.00000E+00
    0.35334E-07        -0.23283E-20         0.00000E+00
    0.35298E-07        -0.13271E-19         0.00000E+00
    0.35263E-07        -0.16298E-20         0.00000E+00
    0.35227E-07         0.46566E-20         0.00000E+00
    0.35192E-07        -0.51223E-20         0.00000E+00
    0.35157E-07         0.13970E-20         0.00000E+00
    0.35122E-07        -0.79162E-20         0.00000E+00
    0.35087E-07        -0.37253E-20         0.00000E+00
    0.35053E-07         0.69849E-20         0.00000E+00
    0.35019E-07         0.13970E-19         0.00000E+00
    0.34985E-07         0.23283E-21         0.00000E+00
    0.34951E-07        -0.88476E-20         0.00000E+00
    0.34918E-07        -0.93132E-20         0.00000E+00
    0.34886E-07        -0.18859E-19         0.00000E+00
    0.34854E-07        -0.24214E-19         0.00000E+00
    0.34822E-07        -0.21420E-19         0.00000E+00
    0.34791E-07        -0.15832E-19         0.00000E+00
    0.34761E-07        -0.22817E-19         0.00000E+00
    0.34731E-07        -0.18394E-19         0.00000E+00
    0.34702E-07        -0.11642E-20         0.00000E+00
    0.34674E-07         0.37253E-20         0.00000E+00
    0.34646E-07         0.20955E-20         0.00000E+00
    0.34619E-07        -0.60536E-20         0.00000E+00
    0.34592E-07        -0.37486E-19         0.00000E+00
    0.34566E-07        -0.18626E-19         0.00000E+00
    0.34541E-07        -0.16764E-19         0.00000E+00
    0.34517E-07        -0.20489E-19         0.00000E+00
    0.34494E-07        -0.83819E-20         0.00000E+00
    0.34471E-07        -0.37616E-36         0.00000E+00
    0.34449E-07         0.18626E-20         0.00000E+00
    0.34428E-07        -0.32829E-19         0.00000E+00
    0.34407E-07        -0.18161E-19         0.00000E+00
    0.34388E-07        -0.46566E-20         0.00000E+00
    0.34369E-07        -0.23516E-19         0.00000E+00
    0.34350E-07        -0.22352E-19         0.00000E+00
    0.34333E-07         0.41910E-20         0.00000E+00
    0.34316E-07         0.18859E-19         0.00000E+00
    0.34300E-07         0.60536E-20         0.00000E+00
    0.34285E-07        -0.55879E-20         0.00000E+00
    0.34271E-07        -0.21420E-19         0.00000E+00
    0.34257E-07        -0.11176E-19         0.00000E+00
    0.34244E-07         0.30268E-20         0.00000E+00
    0.34231E-07         0.93132E-21         0.00000E+00
    0.34219E-07        -0.58208E-20         0.00000E+00
    0.34208E-07         0.58208E-20         0.00000E+00
    0.34198E-07         0.44238E-20         0.00000E+00
    0.34188E-07        -0.20955E-20         0.00000E+00
    0.34179E-07        -0.23283E-21         0.00000E+00
    0.34170E-07        -0.23283E-20         0.00000E+00
    0.34162E-07        -0.25611E-20         0.00000E+00
    0.34155E-07        -0.18626E-19         0.00000E+00
    0.34148E-07        -0.44238E-20         0.00000E+00
    0.34142E-07         0.22119E-20         0.00000E+00
    0.34136E-07         0.55879E-20         0.00000E+00
    0.34131E-07         0.14668E-19         0.00000E+00
    0.34127E-07         0.50059E-20         0.00000E+00
    0.34122E-07         0.37253E-20         0.00000E+00
    0.34119E-07        -0.24447E-20         0.00000E+00
    0.34116E-07        -0.76834E-20         0.00000E+00
    0.34113E-07         0.10012E-19         0.00000E+00
    0.34111E-07         0.19092E-19         0.00000E+00
    0.34110E-07         0.20023E-19         0.00000E+00
    0.34109E-07         0.19558E-19         0.00000E+00
    0.34108E-07         0.13970E-20         0.00000E+00
    0.36153E-07        -0.29802E-19         0.00000E+00
    0.36151E-07        -0.16298E-20         0.00000E+00
    0.36148E-07         0.13504E-19         0.00000E+00
    0.36144E-07        -0.19092E-19         0.00000E+00
    0.36137E-07         0.65193E-20         0.00000E+00
    0.36130E-07         0.14203E-19         0.00000E+00
    0.36121E-07        -0.76834E-20         0.00000E+00
    0.36110E-07        -0.13970E-20         0.00000E+00
    0.36098E-07        -0.10943E-19         0.00000E+00
    0.36085E-07        -0.62864E-20         0.00000E+00
    0.36070E-07         0.18394E-19         0.00000E+00
    0.36054E-07        -0.12806E-19         0.00000E+00
    0.36036E-07        -0.86147E-20         0.00000E+00
    0.36018E-07         0.14435E-19         0.00000E+00
    0.35998E-07         0.20256E-19         0.00000E+00
    0.35976E-07         0.17695E-19         0.00000E+00
    0.35954E-07         0.15134E-19         0.00000E+00
    0.35930E-07         0.37253E-20         0.00000E+00
    0.35906E-07        -0.46566E-21         0.00000E+00
    0.35880E-07         0.20023E-19         0.00000E+00
    0.35853E-07         0.10012E-19         0.00000E+00
    0.35825E-07        -0.41910E-20         0.00000E+00
    0.35797E-07         0.34925E-20         0.00000E+00
    0.35767E-07         0.11642E-19         0.00000E+00
    0.35737E-07         0.18161E-19         0.00000E+00
    0.35706E-07         0.13039E-19         0.00000E+00
    0.35675E-07         0.32596E-20         0.00000E+00
    0.35643E-07         0.13970E-19         0.00000E+00
    0.35610E-07         0.69849E-20         0.00000E+00
    0.35576E-07        -0.37253E-20         0.00000E+00
    0.35543E-07         0.13271E-19         0.00000E+00
    0.35508E-07         0.17229E-19         0.00000E+00
    0.35474E-07        -0.93132E-21         0.00000E+00
    0.35439E-07         0.69849E-21         0.00000E+00
    0.35404E-07         0.46566E-21         0.00000E+00
    0.35369E-07        -0.95461E-20         0.00000E+00
    0.35334E-07        -0.97789E-20         0.00000E+00
    0.35298E-07        -0.18161E-19         0.00000E+00
    0.35263E-07        -0.76834E-20         0.00000E+00
    0.35227E-07        -0.81491E-20         0.00000E+00
    0.35192E-07        -0.55879E-20         0.00000E+00
    0.35157E-07        -0.44238E-20         0.00000E+00
    0.35122E-07         0.23283E-21         0.00000E+00
    0.35087E-07        -0.13504E-19         0.00000E+00
    0.35053E-07        -0.53551E-20         0.00000E+00
    0.35019E-07        -0.97789E-20         0.00000E+00
    0.34985E-07        -0.37486E-19         0.00000E+00
    0.34951E-07        -0.18626E-19         0.00000E+00
    0.34918E-07        -0.26543E-19         0.00000E+00
    0.34886E-07        -0.24214E-19         0.00000E+00
    0.34854E-07         0.11642E-19         0.00000E+00
    0.34822E-07        -0.11642E-20         0.00000E+00
    0.34791E-07        -0.19092E-19         0.00000E+00
    0.34761E-07        -0.60536E-20         0.00000E+00
    0.34731E-07        -0.10710E-19         0.00000E+00
    0.34702E-07        -0.62864E-20         0.00000E+00
    0.34674E-07         0.17229E-19         0.00000E+00
    0.34646E-07        -0.23283E-20         0.00000E+00
    0.34619E-07        -0.14435E-19         0.00000E+00
    0.34592E-07        -0.23982E-19         0.00000E+00
    0.34566E-07        -0.18394E-19         0.00000E+00
    0.34541E-07        -0.11642E-19         0.00000E+00
    0.34517E-07        -0.20955E-19         0.00000E+00
    0.34494E-07        -0.19558E-19         0.00000E+00
    0.34471E-07        -0.28871E-19         0.00000E+00
    0.34449E-07        -0.76834E-20         0.00000E+00
    0.34428E-07        -0.12806E-19         0.00000E+00
    0.34407E-07        -0.10012E-19         0.00000E+00
    0.34388E-07         0.58208E-20         0.00000E+00
    0.34369E-07        -0.60536E-20         0.00000E+00
    0.34350E-07         0.18626E-20         0.00000E+00
    0.34333E-07        -0.39581E-20         0.00000E+00
    0.34316E-07        -0.20955E-20         0.00000E+00
    0.34300E-07         0.48894E-20         0.00000E+00
    0.34285E-07        -0.14668E-19         0.00000E+00
    0.34271E-07        -0.18859E-19         0.00000E+00
    0.34257E-07        -0.20023E-19         0.00000E+00
    0.34244E-07        -0.53551E-20         0.00000E+00
    0.34231E-07         0.41910E-20         0.00000E+00
    0.34219E-07         0.69849E-20         0.00000E+00
    0.34208E-07        -0.37616E-36         0.00000E+00
    0.34198E-07         0.12573E-19         0.00000E+00
    0.34188E-07         0.15367E-19         0.00000E+00
    0.34179E-07        -0.13970E-20         0.00000E+00
    0.34170E-07        -0.19325E-19         0.00000E+00
    0.34162E-07        -0.22585E-19         0.00000E+00
    0.34155E-07        -0.25611E-20         0.00000E+00
    0.34148E-07        -0.11176E-19         0.00000E+00
    0.34142E-07        -0.17462E-20         0.00000E+00
    0.34136E-07         0.46566E-21         0.00000E+00
    0.34131E-07        -0.64028E-20         0.00000E+00
    0.34127E-07        -0.87311E-20         0.00000E+00
    0.34122E-07        -0.74506E-20         0.00000E+00
    0.34119E-07        -0.83819E-20         0.00000E+00
    0.34116E-07        -0.11525E-19         0.00000E+00
    0.34113E-07        -0.23283E-20         0.00000E+00
    0.34111E-07        -0.19325E-19         0.00000E+00
    0.34110E-07        -0.12340E-19         0.00000E+00
    0.34109E-07         0.23283E-21         0.00000E+00
    0.34108E-07         0.22119E-20         0.00000E+00
    0.36153E-07         0.00000E+00         0.00000E+00
    0.36151E-07         0.11642E-20         0.00000E+00
    0.36148E-07        -0.10710E-19         0.00000E+00
    0.36144E-07        -0.17695E-19         0.00000E+00
    0.36137E-07        -0.95461E-20         0.00000E+00
    0.36130E-07         0.69849E-20         0.00000E+00
    0.36121E-07         0.53551E-20         0.00000E+00
    0.36110E-07        -0.13970E-20         0.00000E+00
    0.36098E-07         0.16065E-19         0.00000E+00
    0.36085E-07         0.17462E-19         0.00000E+00
    0.36070E-07         0.22817E-19         0.00000E+00
    0.36054E-07         0.18626E-19         0.00000E+00
    0.36036E-07        -0.11642E-20         0.00000E+00
    0.36018E-07        -0.10943E-19         0.00000E+00
    0.35998E-07         0.81491E-20         0.00000E+00
    0.35976E-07         0.76834E-20         0.00000E+00
    0.35954E-07         0.79162E-20         0.00000E+00
    0.35930E-07         0.18161E-19         0.00000E+00
    0.35906E-07        -0.16298E-20         0.00000E+00
    0.35880E-07         0.41910E-20         0.00000E+00
    0.35853E-07         0.19092E-19         0.00000E+00
    0.35825E-07         0.13737E-19         0.00000E+00
    0.35797E-07        -0.72177E-20         0.00000E+00
    0.35767E-07        -0.95461E-20         0.00000E+00
    0.35737E-07         0.46566E-20         0.00000E+00
    0.35706E-07        -0.23283E-21         0.00000E+00
    0.35675E-07        -0.41910E-20         0.00000E+00
    0.35643E-07         0.23283E-20         0.00000E+00
    0.35610E-07        -0.81491E-20         0.00000E+00
    0.35576E-07        -0.19558E-19         0.00000E+00
    0.35543E-07        -0.41910E-20         0.00000E+00
    0.35508E-07         0.41910E-20         0.00000E+00
    0.35474E-07        -0.18626E-20         0.00000E+00
    0.35439E-07         0.41910E-20         0.00000E+00
    0.35404E-07         0.12340E-19         0.00000E+00
    0.35369E-07         0.39581E-20         0.00000E+00
    0.35334E-07        -0.11176E-19         0.00000E+00
    0.35298E-07         0.23283E-21         0.00000E+00
    0.35263E-07        -0.46566E-21         0.00000E+00
    0.35227E-07        -0.15134E-19         0.00000E+00
    0.35192E-07        -0.11409E-19         0.00000E+00
    0.35157E-07        -0.93132E-20         0.00000E+00
    0.35122E-07        -0.48894E-20         0.00000E+00
    0.35087E-07         0.12340E-19         0.00000E+00
    0.35053E-07         0.93132E-21         0.00000E+00
    0.35019E-07        -0.13970E-20         0.00000E+00
    0.34985E-07         0.86147E-20         0.00000E+00
    0.34951E-07        -0.14901E-19         0.00000E+00
    0.34918E-07        -0.53551E-20         0.00000E+00
    0.34886E-07         0.48894E-20         0.00000E+00
    0.34854E-07        -0.69849E-21         0.00000E+00
    0.34822E-07        -0.23283E-20         0.00000E+00
    0.34791E-07        -0.93132E-20         0.00000E+00
    0.34761E-07        -0.74506E-20         0.00000E+00
    0.34731E-07        -0.86147E-20         0.00000E+00
    0.34702E-07        -0.46566E-21         0.00000E+00
    0.34674E-07        -0.37253E-20         0.00000E+00
    0.34646E-07        -0.14203E-19         0.00000E+00
    0.34619E-07        -0.14203E-19         0.00000E+00
    0.34592E-07        -0.86147E-20         0.00000E+00
    0.34566E-07        -0.14203E-19         0.00000E+00
    0.34541E-07        -0.46566E-21         0.00000E+00
    0.34517E-07         0.34925E-20         0.00000E+00
    0.34494E-07        -0.46566E-20         0.00000E+00
    0.34471E-07        -0.51223E-20         0.00000E+00
    0.34449E-07        -0.44238E-20         0.00000E+00
    0.34428E-07        -0.39581E-20         0.00000E+00
    0.34407E-07        -0.11642E-19         0.00000E+00
    0.34388E-07        -0.27940E-20         0.00000E+00
    0.34369E-07         0.46566E-20         0.00000E+00
    0.34350E-07        -0.53551E-20         0.00000E+00
    0.34333E-07        -0.11874E-19         0.00000E+00
    0.34316E-07         0.34925E-20         0.00000E+00
    0.34300E-07         0.46566E-20         0.00000E+00
    0.34285E-07        -0.76834E-20         0.00000E+00
    0.34271E-07        -0.95461E-20         0.00000E+00
    0.34257E-07        -0.51223E-20         0.00000E+00
    0.34244E-07        -0.13504E-19         0.00000E+00
    0.34231E-07         0.20955E-20         0.00000E+00
    0.34219E-07         0.83819E-20         0.00000E+00
    0.34208E-07         0.39581E-20         0.00000E+00
    0.34198E-07        -0.27940E-20         0.00000E+00
    0.34188E-07        -0.13271E-19         0.00000E+00
    0.34179E-07        -0.65193E-20         0.00000E+00
    0.34170E-07        -0.18626E-20         0.00000E+00
    0.34162E-07         0.48894E-20         0.00000E+00
    0.34155E-07         0.46566E-20         0.00000E+00
    0.34148E-07         0.71013E-20         0.00000E+00
    0.34142E-07         0.11642E-20         0.00000E+00
    0.34136E-07        -0.12689E-19         0.00000E+00
    0.34131E-07        -0.51223E-20         0.00000E+00
    0.34127E-07         0.16298E-19         0.00000E+00
    0.34122E-07         0.81491E-20         0.00000E+00
    0.34119E-07        -0.11409E-19         0.00000E+00
    0.34116E-07        -0.80327E-20         0.00000E+00
    0.34113E-07         0.93132E-21         0.00000E+00
    0.34111E-07         0.46566E-21         0.00000E+00
    0.34110E-07         0.11642E-21         0.00000E+00
    0.34109E-07        -0.38417E-20         0.00000E+00
    0.34108E-07        -0.44238E-20         0.00000E+00
POINT_DATA       5151
VECTORS vDarcyNodal double 
    0.36153E-07         0.00000E+00         0.00000E+00
    0.36152E-07        -0.74506E-20         0.00000E+00
    0.36150E-07         0.00000E+00         0.00000E+00
    0.36146E-07         0.00000E+00         0.00000E+00
    0.36140E-07         0.00000E+00         0.00000E+00
    0.36134E-07        -0.74506E-20         0.00000E+00
    0.36125E-07         0.00000E+00         0.00000E+00
    0.36116E-07         0.37253E-20         0.00000E+00
    0.36104E-07        -0.74506E-20         0.00000E+00
    0.36092E-07         0.55879E-20         0.00000E+00
    0.36077E-07        -0.74506E-20         0.00000E+00
    0.36062E-07         0.37253E-20         0.00000E+00
    0.36045E-07        -0.11176E-19         0.00000E+00
    0.36027E-07         0.18626E-19         0.00000E+00
    0.36008E-07         0.00000E+00         0.00000E+00
    0.35987E-07         0.11176E-19         0.00000E+00
    0.35965E-07        -0.74506E-20         0.00000E+00
    0.35942E-07        -0.74506E-20         0.00000E+00
    0.35918E-07        -0.93132E-20         0.00000E+00
    0.35893E-07        -0.37253E-20         0.00000E+00
    0.35866E-07         0.14901E-19         0.00000E+00
    0.35839E-07        -0.74506E-20         0.00000E+00
    0.35811E-07         0.74506E-20         0.00000E+00
    0.35782E-07         0.93132E-20         0.00000E+00
    0.35752E-07         0.00000E+00         0.00000E+00
    0.35722E-07        -0.74506E-20         0.00000E+00
    0.35691E-07        -0.74506E-20         0.00000E+00
    0.35659E-07        -0.55879E-20         0.00000E+00
    0.35626E-07         0.18626E-20         0.00000E+00
    0.35593E-07        -0.18626E-19         0.00000E+00
    0.35560E-07         0.74506E-20         0.00000E+00
    0.35526E-07         0.37253E-20         0.00000E+00
    0.35491E-07         0.00000E+00         0.00000E+00
    0.35457E-07         0.00000E+00         0.00000E+00
    0.35422E-07         0.00000E+00         0.00000E+00
    0.35387E-07         0.11176E-19         0.00000E+00
    0.35351E-07        -0.11176E-19         0.00000E+00
    0.35316E-07        -0.37253E-20         0.00000E+00
    0.35281E-07        -0.74506E-20         0.00000E+00
    0.35245E-07        -0.11176E-19         0.00000E+00
    0.35210E-07         0.37253E-20         0.00000E+00
    0.35175E-07        -0.29802E-19         0.00000E+00
    0.35140E-07         0.18626E-19         0.00000E+00
    0.35105E-07         0.00000E+00         0.00000E+00
    0.35070E-07         0.00000E+00         0.00000E+00
    0.35036E-07        -0.37253E-20         0.00000E+00
    0.35002E-07         0.00000E+00         0.00000E+00
    0.34968E-07         0.55879E-20         0.00000E+00
    0.34935E-07        -0.14901E-19         0.00000E+00
    0.34902E-07         0.37253E-20         0.00000E+00
    0.34870E-07         0.00000E+00         0.00000E+00
    0.34838E-07         0.37253E-20         0.00000E+00
    0.34807E-07         0.00000E+00         0.00000E+00
    0.34776E-07         0.00000E+00         0.00000E+00
    0.34746E-07         0.93132E-20         0.00000E+00
    0.34717E-07        -0.37253E-20         0.00000E+00
    0.34688E-07         0.00000E+00         0.00000E+00
    0.34660E-07         0.18626E-20         0.00000E+00
    0.34632E-07         0.18626E-20         0.00000E+00
    0.34605E-07         0.00000E+00         0.00000E+00
    0.34579E-07         0.00000E+00         0.00000E+00
    0.34554E-07         0.00000E+00         0.00000E+00
    0.34529E-07         0.37253E-20         0.00000E+00
    0.34506E-07         0.00000E+00         0.00000E+00
    0.34482E-07        -0.37253E-20         0.00000E+00
    0.34460E-07        -0.74506E-20         0.00000E+00
    0.34438E-07         0.74506E-20         0.00000E+00
    0.34418E-07        -0.14901E-19         0.00000E+00
    0.34397E-07         0.37253E-20         0.00000E+00
    0.34378E-07        -0.74506E-20         0.00000E+00
    0.34360E-07         0.37253E-20         0.00000E+00
    0.34342E-07        -0.18626E-19         0.00000E+00
    0.34325E-07         0.11176E-19         0.00000E+00
    0.34308E-07        -0.13039E-19         0.00000E+00
    0.34293E-07         0.37253E-20         0.00000E+00
    0.34278E-07        -0.37253E-20         0.00000E+00
    0.34264E-07         0.74506E-20         0.00000E+00
    0.34250E-07         0.00000E+00         0.00000E+00
    0.34237E-07         0.37253E-20         0.00000E+00
    0.34225E-07        -0.18626E-20         0.00000E+00
    0.34214E-07         0.11176E-19         0.00000E+00
    0.34203E-07        -0.18626E-20         0.00000E+00
    0.34193E-07         0.74506E-20         0.00000E+00
    0.34183E-07        -0.55879E-20         0.00000E+00
    0.34175E-07         0.00000E+00         0.00000E+00
    0.34166E-07         0.00000E+00         0.00000E+00
    0.34159E-07         0.74506E-20         0.00000E+00
    0.34151E-07         0.74506E-20         0.00000E+00
    0.34145E-07         0.00000E+00         0.00000E+00
    0.34139E-07         0.00000E+00         0.00000E+00
    0.34134E-07         0.11176E-19         0.00000E+00
    0.34129E-07        -0.55879E-20         0.00000E+00
    0.34124E-07         0.37253E-20         0.00000E+00
    0.34121E-07        -0.18626E-19         0.00000E+00
    0.34117E-07         0.37253E-20         0.00000E+00
    0.34115E-07         0.00000E+00         0.00000E+00
    0.34112E-07         0.37253E-20         0.00000E+00
    0.34111E-07         0.00000E+00         0.00000E+00
    0.34109E-07        -0.55879E-20         0.00000E+00
    0.34109E-07         0.00000E+00         0.00000E+00
    0.34108E-07         0.00000E+00         0.00000E+00
    0.36153E-07         0.00000E+00         0.00000E+00
    0.36152E-07         0.18626E-19         0.00000E+00
    0.36150E-07         0.00000E+00         0.00000E+00
    0.36146E-07         0.13039E-19         0.00000E+00
    0.36140E-07        -0.74506E-20         0.00000E+00
    0.36134E-07         0.74506E-20         0.00000E+00
    0.36125E-07         0.14901E-19         0.00000E+00
    0.36116E-07         0.17753E-19         0.00000E+00
    0.36104E-07         0.00000E+00         0.00000E+00
    0.36092E-07         0.16764E-20         0.00000E+00
    0.36077E-07         0.18626E-20         0.00000E+00
    0.36062E-07        -0.37253E-20         0.00000E+00
    0.36045E-07        -0.55879E-20         0.00000E+00
    0.36027E-07         0.00000E+00         0.00000E+00
    0.36008E-07        -0.92314E-20         0.00000E+00
    0.35987E-07         0.00000E+00         0.00000E+00
    0.35965E-07        -0.14901E-19         0.00000E+00
    0.35942E-07        -0.55879E-20         0.00000E+00
    0.35918E-07         0.33808E-21         0.00000E+00
    0.35893E-07        -0.74506E-20         0.00000E+00
    0.35866E-07         0.18626E-19         0.00000E+00
    0.35839E-07        -0.27940E-20         0.00000E+00
    0.35811E-07         0.55879E-20         0.00000E+00
    0.35782E-07        -0.77498E-20         0.00000E+00
    0.35752E-07         0.00000E+00         0.00000E+00
    0.35722E-07         0.12107E-19         0.00000E+00
    0.35691E-07        -0.13039E-19         0.00000E+00
    0.35659E-07         0.72026E-20         0.00000E+00
    0.35626E-07        -0.22346E-19         0.00000E+00
    0.35593E-07        -0.11435E-19         0.00000E+00
    0.35560E-07         0.65193E-20         0.00000E+00
    0.35526E-07         0.18626E-20         0.00000E+00
    0.35491E-07        -0.55879E-20         0.00000E+00
    0.35457E-07         0.77886E-20         0.00000E+00
    0.35422E-07        -0.46566E-20         0.00000E+00
    0.35387E-07        -0.18626E-20         0.00000E+00
    0.35351E-07        -0.16926E-19         0.00000E+00
    0.35316E-07        -0.93132E-20         0.00000E+00
    0.35281E-07        -0.55879E-20         0.00000E+00
    0.35245E-07        -0.13039E-19         0.00000E+00
    0.35210E-07         0.00000E+00         0.00000E+00
    0.35175E-07        -0.28871E-19         0.00000E+00
    0.35140E-07         0.13039E-19         0.00000E+00
    0.35105E-07        -0.11176E-19         0.00000E+00
    0.35070E-07        -0.74506E-20         0.00000E+00
    0.35036E-07        -0.74506E-20         0.00000E+00
    0.35002E-07         0.75805E-20         0.00000E+00
    0.34968E-07        -0.54691E-20         0.00000E+00
    0.34935E-07        -0.93132E-20         0.00000E+00
    0.34902E-07        -0.34098E-20         0.00000E+00
    0.34870E-07        -0.74506E-20         0.00000E+00
    0.34838E-07        -0.74506E-20         0.00000E+00
    0.34807E-07        -0.18626E-20         0.00000E+00
    0.34776E-07        -0.55879E-20         0.00000E+00
    0.34746E-07        -0.17147E-22         0.00000E+00
    0.34717E-07         0.18626E-20         0.00000E+00
    0.34688E-07        -0.36862E-20         0.00000E+00
    0.34660E-07        -0.13304E-20         0.00000E+00
    0.34632E-07        -0.94069E-20         0.00000E+00
    0.34605E-07         0.37253E-20         0.00000E+00
    0.34579E-07        -0.37253E-20         0.00000E+00
    0.34554E-07        -0.55879E-20         0.00000E+00
    0.34529E-07        -0.74506E-20         0.00000E+00
    0.34506E-07        -0.55879E-20         0.00000E+00
    0.34482E-07        -0.18626E-20         0.00000E+00
    0.34460E-07        -0.74506E-20         0.00000E+00
    0.34438E-07         0.58848E-20         0.00000E+00
    0.34418E-07        -0.14901E-19         0.00000E+00
    0.34397E-07         0.74506E-20         0.00000E+00
    0.34378E-07        -0.13137E-19         0.00000E+00
    0.34360E-07         0.33346E-20         0.00000E+00
    0.34342E-07        -0.16764E-19         0.00000E+00
    0.34325E-07         0.37253E-20         0.00000E+00
    0.34308E-07        -0.26070E-19         0.00000E+00
    0.34293E-07        -0.37253E-20         0.00000E+00
    0.34278E-07        -0.11176E-19         0.00000E+00
    0.34264E-07         0.00000E+00         0.00000E+00
    0.34250E-07        -0.11176E-19         0.00000E+00
    0.34237E-07        -0.37253E-20         0.00000E+00
    0.34225E-07         0.38466E-20         0.00000E+00
    0.34214E-07        -0.37253E-20         0.00000E+00
    0.34203E-07         0.16272E-21         0.00000E+00
    0.34193E-07         0.71681E-20         0.00000E+00
    0.34183E-07         0.53844E-20         0.00000E+00
    0.34175E-07        -0.55879E-20         0.00000E+00
    0.34166E-07        -0.93132E-21         0.00000E+00
    0.34159E-07        -0.37253E-20         0.00000E+00
    0.34151E-07         0.00000E+00         0.00000E+00
    0.34145E-07        -0.93132E-20         0.00000E+00
    0.34139E-07         0.00000E+00         0.00000E+00
    0.34134E-07         0.74506E-20         0.00000E+00
    0.34129E-07        -0.33635E-20         0.00000E+00
    0.34124E-07        -0.36408E-20         0.00000E+00
    0.34121E-07        -0.74506E-20         0.00000E+00
    0.34117E-07        -0.37713E-20         0.00000E+00
    0.34115E-07         0.27940E-20         0.00000E+00
    0.34112E-07        -0.55879E-20         0.00000E+00
    0.34111E-07        -0.32711E-20         0.00000E+00
    0.34109E-07        -0.18932E-20         0.00000E+00
    0.34109E-07         0.27940E-20         0.00000E+00
    0.34108E-07         0.00000E+00         0.00000E+00
    0.36153E-07         0.00000E+00         0.00000E+00
    0.36152E-07         0.22352E-19         0.00000E+00
    0.36150E-07         0.74506E-20         0.00000E+00
    0.36146E-07         0.68018E-20         0.00000E+00
    0.36140E-07         0.00000E+00         0.00000E+00
    0.36134E-07         0.26077E-19         0.00000E+00
    0.36125E-07         0.22821E-19         0.00000E+00
    0.36116E-07         0.39989E-19         0.00000E+00
    0.36104E-07         0.11176E-19         0.00000E+00
    0.36092E-07        -0.72644E-20         0.00000E+00
    0.36077E-07         0.93132E-20         0.00000E+00
    0.36062E-07         0.93132E-20         0.00000E+00
    0.36045E-07         0.52094E-20         0.00000E+00
    0.36027E-07        -0.11176E-19         0.00000E+00
    0.36008E-07        -0.16846E-19         0.00000E+00
    0.35987E-07        -0.95230E-20         0.00000E+00
    0.35965E-07        -0.11176E-19         0.00000E+00
    0.35942E-07        -0.88477E-20         0.00000E+00
    0.35918E-07         0.33872E-20         0.00000E+00
    0.35893E-07        -0.55879E-20         0.00000E+00
    0.35866E-07         0.27940E-19         0.00000E+00
    0.35839E-07         0.46120E-20         0.00000E+00
    0.35811E-07         0.11176E-19         0.00000E+00
    0.35782E-07        -0.16465E-19         0.00000E+00
    0.35752E-07        -0.42643E-21         0.00000E+00
    0.35722E-07         0.23837E-19         0.00000E+00
    0.35691E-07        -0.13039E-19         0.00000E+00
    0.35659E-07        -0.15584E-19         0.00000E+00
    0.35626E-07        -0.27014E-19         0.00000E+00
    0.35593E-07        -0.10917E-19         0.00000E+00
    0.35560E-07         0.41957E-21         0.00000E+00
    0.35526E-07        -0.13039E-19         0.00000E+00
    0.35491E-07        -0.18626E-20         0.00000E+00
    0.35457E-07         0.16426E-19         0.00000E+00
    0.35422E-07        -0.77918E-20         0.00000E+00
    0.35387E-07         0.10245E-19         0.00000E+00
    0.35351E-07        -0.18464E-19         0.00000E+00
    0.35316E-07        -0.13452E-19         0.00000E+00
    0.35281E-07         0.18626E-20         0.00000E+00
    0.35245E-07        -0.13039E-19         0.00000E+00
    0.35210E-07         0.27940E-20         0.00000E+00
    0.35175E-07        -0.13485E-19         0.00000E+00
    0.35140E-07         0.39217E-20         0.00000E+00
    0.35105E-07        -0.83819E-20         0.00000E+00
    0.35070E-07        -0.13039E-19         0.00000E+00
    0.35036E-07        -0.74506E-20         0.00000E+00
    0.35002E-07         0.11046E-19         0.00000E+00
    0.34968E-07        -0.10363E-19         0.00000E+00
    0.34935E-07        -0.18994E-19         0.00000E+00
    0.34902E-07        -0.77661E-20         0.00000E+00
    0.34870E-07        -0.18694E-19         0.00000E+00
    0.34838E-07        -0.65193E-20         0.00000E+00
    0.34807E-07        -0.74506E-20         0.00000E+00
    0.34776E-07         0.00000E+00         0.00000E+00
    0.34746E-07        -0.12090E-19         0.00000E+00
    0.34717E-07         0.93132E-20         0.00000E+00
    0.34688E-07         0.18236E-20         0.00000E+00
    0.34660E-07        -0.74506E-20         0.00000E+00
    0.34632E-07        -0.17601E-19         0.00000E+00
    0.34605E-07         0.40706E-20         0.00000E+00
    0.34579E-07        -0.65193E-20         0.00000E+00
    0.34554E-07        -0.14608E-19         0.00000E+00
    0.34529E-07        -0.13039E-19         0.00000E+00
    0.34506E-07        -0.11176E-19         0.00000E+00
    0.34482E-07        -0.37253E-20         0.00000E+00
    0.34460E-07        -0.55879E-20         0.00000E+00
    0.34438E-07        -0.21595E-20         0.00000E+00
    0.34418E-07        -0.93132E-20         0.00000E+00
    0.34397E-07        -0.15183E-20         0.00000E+00
    0.34378E-07        -0.73526E-20         0.00000E+00
    0.34360E-07        -0.18626E-20         0.00000E+00
    0.34342E-07        -0.93132E-20         0.00000E+00
    0.34325E-07        -0.18626E-20         0.00000E+00
    0.34308E-07        -0.25153E-19         0.00000E+00
    0.34293E-07        -0.14115E-20         0.00000E+00
    0.34278E-07        -0.13039E-19         0.00000E+00
    0.34264E-07        -0.10245E-19         0.00000E+00
    0.34250E-07        -0.16764E-19         0.00000E+00
    0.34237E-07        -0.55879E-20         0.00000E+00
    0.34225E-07         0.63980E-20         0.00000E+00
    0.34214E-07        -0.15832E-19         0.00000E+00
    0.34203E-07         0.76860E-21         0.00000E+00
    0.34193E-07         0.55879E-20         0.00000E+00
    0.34183E-07         0.14173E-19         0.00000E+00
    0.34175E-07        -0.12797E-19         0.00000E+00
    0.34166E-07        -0.76943E-20         0.00000E+00
    0.34159E-07        -0.55879E-20         0.00000E+00
    0.34151E-07        -0.11176E-19         0.00000E+00
    0.34145E-07        -0.93132E-20         0.00000E+00
    0.34139E-07         0.13039E-19         0.00000E+00
    0.34134E-07         0.00000E+00         0.00000E+00
    0.34129E-07         0.61575E-20         0.00000E+00
    0.34124E-07        -0.93978E-20         0.00000E+00
    0.34121E-07         0.69197E-20         0.00000E+00
    0.34117E-07        -0.36793E-20         0.00000E+00
    0.34115E-07        -0.49244E-21         0.00000E+00
    0.34112E-07        -0.74430E-20         0.00000E+00
    0.34111E-07        -0.51108E-20         0.00000E+00
    0.34109E-07         0.28246E-20         0.00000E+00
    0.34109E-07         0.60039E-20         0.00000E+00
    0.34108E-07         0.00000E+00         0.00000E+00
    0.36153E-07         0.00000E+00         0.00000E+00
    0.36152E-07        -0.11176E-19         0.00000E+00
    0.36150E-07         0.55879E-20         0.00000E+00
    0.36146E-07        -0.49392E-20         0.00000E+00
    0.36140E-07         0.14901E-19         0.00000E+00
    0.36134E-07         0.33027E-19         0.00000E+00
    0.36125E-07         0.21883E-19         0.00000E+00
    0.36116E-07         0.33528E-19         0.00000E+00
    0.36104E-07         0.93132E-20         0.00000E+00
    0.36092E-07        -0.18623E-21         0.00000E+00
    0.36077E-07         0.67696E-20         0.00000E+00
    0.36062E-07         0.14901E-19         0.00000E+00
    0.36045E-07         0.37853E-21         0.00000E+00
    0.36027E-07        -0.18626E-20         0.00000E+00
    0.36008E-07        -0.13039E-19         0.00000E+00
    0.35987E-07        -0.16554E-19         0.00000E+00
    0.35965E-07        -0.93132E-21         0.00000E+00
    0.35942E-07        -0.20955E-19         0.00000E+00
    0.35918E-07        -0.33872E-20         0.00000E+00
    0.35893E-07         0.74506E-20         0.00000E+00
    0.35866E-07         0.23200E-19         0.00000E+00
    0.35839E-07        -0.13970E-19         0.00000E+00
    0.35811E-07        -0.37253E-20         0.00000E+00
    0.35782E-07        -0.77498E-20         0.00000E+00
    0.35752E-07        -0.88868E-20         0.00000E+00
    0.35722E-07         0.41031E-20         0.00000E+00
    0.35691E-07        -0.74506E-20         0.00000E+00
    0.35659E-07        -0.35390E-19         0.00000E+00
    0.35626E-07        -0.11176E-19         0.00000E+00
    0.35593E-07        -0.13039E-19         0.00000E+00
    0.35560E-07        -0.10664E-19         0.00000E+00
    0.35526E-07        -0.20489E-19         0.00000E+00
    0.35491E-07        -0.18626E-20         0.00000E+00
    0.35457E-07         0.14901E-19         0.00000E+00
    0.35422E-07        -0.99034E-20         0.00000E+00
    0.35387E-07         0.19468E-19         0.00000E+00
    0.35351E-07        -0.38875E-20         0.00000E+00
    0.35316E-07        -0.18213E-19         0.00000E+00
    0.35281E-07         0.18626E-20         0.00000E+00
    0.35245E-07        -0.37253E-20         0.00000E+00
    0.35210E-07        -0.25594E-20         0.00000E+00
    0.35175E-07         0.41717E-20         0.00000E+00
    0.35140E-07         0.93132E-20         0.00000E+00
    0.35105E-07        -0.53439E-22         0.00000E+00
    0.35070E-07        -0.16764E-19         0.00000E+00
    0.35036E-07        -0.11555E-19         0.00000E+00
    0.35002E-07         0.38552E-20         0.00000E+00
    0.34968E-07         0.00000E+00         0.00000E+00
    0.34935E-07        -0.20122E-19         0.00000E+00
    0.34902E-07        -0.93132E-20         0.00000E+00
    0.34870E-07        -0.92458E-20         0.00000E+00
    0.34838E-07        -0.20431E-20         0.00000E+00
    0.34807E-07        -0.37253E-20         0.00000E+00
    0.34776E-07         0.37253E-20         0.00000E+00
    0.34746E-07        -0.11176E-19         0.00000E+00
    0.34717E-07         0.55879E-20         0.00000E+00
    0.34688E-07         0.37253E-20         0.00000E+00
    0.34660E-07        -0.83819E-20         0.00000E+00
    0.34632E-07        -0.19558E-19         0.00000E+00
    0.34605E-07         0.52426E-20         0.00000E+00
    0.34579E-07        -0.38719E-20         0.00000E+00
    0.34554E-07        -0.14901E-19         0.00000E+00
    0.34529E-07        -0.65193E-20         0.00000E+00
    0.34506E-07        -0.13039E-19         0.00000E+00
    0.34482E-07        -0.11176E-19         0.00000E+00
    0.34460E-07        -0.11369E-19         0.00000E+00
    0.34438E-07        -0.93132E-20         0.00000E+00
    0.34418E-07        -0.38702E-20         0.00000E+00
    0.34397E-07        -0.11520E-19         0.00000E+00
    0.34378E-07         0.55879E-20         0.00000E+00
    0.34360E-07         0.22533E-20         0.00000E+00
    0.34342E-07         0.52241E-22         0.00000E+00
    0.34325E-07        -0.93132E-20         0.00000E+00
    0.34308E-07        -0.74506E-20         0.00000E+00
    0.34293E-07         0.32741E-20         0.00000E+00
    0.34278E-07        -0.27577E-20         0.00000E+00
    0.34264E-07        -0.51801E-20         0.00000E+00
    0.34250E-07        -0.18626E-19         0.00000E+00
    0.34237E-07         0.18626E-20         0.00000E+00
    0.34225E-07         0.11176E-19         0.00000E+00
    0.34214E-07        -0.49802E-20         0.00000E+00
    0.34203E-07        -0.18626E-20         0.00000E+00
    0.34193E-07         0.74506E-20         0.00000E+00
    0.34183E-07         0.27940E-20         0.00000E+00
    0.34175E-07        -0.18626E-20         0.00000E+00
    0.34166E-07        -0.11863E-19         0.00000E+00
    0.34159E-07         0.20200E-21         0.00000E+00
    0.34151E-07        -0.11176E-19         0.00000E+00
    0.34145E-07         0.74506E-20         0.00000E+00
    0.34139E-07         0.93132E-20         0.00000E+00
    0.34134E-07        -0.38486E-20         0.00000E+00
    0.34129E-07         0.14332E-19         0.00000E+00
    0.34124E-07        -0.11091E-19         0.00000E+00
    0.34121E-07         0.13569E-19         0.00000E+00
    0.34117E-07         0.55879E-20         0.00000E+00
    0.34115E-07        -0.55879E-20         0.00000E+00
    0.34112E-07        -0.76208E-23         0.00000E+00
    0.34111E-07         0.23168E-20         0.00000E+00
    0.34109E-07         0.65193E-20         0.00000E+00
    0.34109E-07         0.42406E-20         0.00000E+00
    0.34108E-07         0.00000E+00         0.00000E+00
    0.36153E-07         0.00000E+00         0.00000E+00
    0.36152E-07        -0.77589E-20         0.00000E+00
    0.36150E-07        -0.80833E-20         0.00000E+00
    0.36146E-07         0.74506E-20         0.00000E+00
    0.36140E-07         0.19159E-19         0.00000E+00
    0.36134E-07         0.34028E-19         0.00000E+00
    0.36125E-07         0.33528E-19         0.00000E+00
    0.36116E-07         0.16764E-19         0.00000E+00
    0.36104E-07         0.45345E-20         0.00000E+00
    0.36092E-07         0.76368E-20         0.00000E+00
    0.36077E-07         0.44063E-20         0.00000E+00
    0.36062E-07         0.93132E-21         0.00000E+00
    0.36045E-07        -0.37253E-20         0.00000E+00
    0.36027E-07         0.55879E-20         0.00000E+00
    0.36008E-07        -0.16764E-19         0.00000E+00
    0.35987E-07        -0.24214E-19         0.00000E+00
    0.35965E-07        -0.77883E-20         0.00000E+00
    0.35942E-07        -0.31665E-19         0.00000E+00
    0.35918E-07         0.20151E-19         0.00000E+00
    0.35893E-07         0.15832E-19         0.00000E+00
    0.35866E-07        -0.64364E-20         0.00000E+00
    0.35839E-07         0.19072E-20         0.00000E+00
    0.35811E-07        -0.26077E-19         0.00000E+00
    0.35782E-07        -0.52887E-20         0.00000E+00
    0.35752E-07        -0.14901E-19         0.00000E+00
    0.35722E-07        -0.42788E-20         0.00000E+00
    0.35691E-07        -0.74506E-20         0.00000E+00
    0.35659E-07        -0.18626E-19         0.00000E+00
    0.35626E-07        -0.21420E-19         0.00000E+00
    0.35593E-07        -0.13297E-19         0.00000E+00
    0.35560E-07        -0.11176E-19         0.00000E+00
    0.35526E-07        -0.13039E-19         0.00000E+00
    0.35491E-07        -0.75363E-20         0.00000E+00
    0.35457E-07         0.55879E-20         0.00000E+00
    0.35422E-07         0.00000E+00         0.00000E+00
    0.35387E-07        -0.93132E-21         0.00000E+00
    0.35351E-07         0.66814E-20         0.00000E+00
    0.35316E-07        -0.11176E-19         0.00000E+00
    0.35281E-07        -0.65193E-20         0.00000E+00
    0.35245E-07         0.13039E-19         0.00000E+00
    0.35210E-07         0.55879E-20         0.00000E+00
    0.35175E-07        -0.60344E-20         0.00000E+00
    0.35140E-07        -0.19637E-21         0.00000E+00
    0.35105E-07        -0.10191E-19         0.00000E+00
    0.35070E-07        -0.15832E-19         0.00000E+00
    0.35036E-07        -0.83819E-20         0.00000E+00
    0.35002E-07         0.35953E-20         0.00000E+00
    0.34968E-07         0.37253E-20         0.00000E+00
    0.34935E-07        -0.74506E-20         0.00000E+00
    0.34902E-07        -0.89977E-20         0.00000E+00
    0.34870E-07         0.00000E+00         0.00000E+00
    0.34838E-07        -0.54075E-20         0.00000E+00
    0.34807E-07         0.55879E-20         0.00000E+00
    0.34776E-07         0.18626E-20         0.00000E+00
    0.34746E-07        -0.83819E-20         0.00000E+00
    0.34717E-07        -0.93132E-21         0.00000E+00
    0.34688E-07         0.27940E-20         0.00000E+00
    0.34660E-07        -0.14502E-19         0.00000E+00
    0.34632E-07        -0.16857E-19         0.00000E+00
    0.34605E-07        -0.55879E-20         0.00000E+00
    0.34579E-07        -0.11961E-19         0.00000E+00
    0.34554E-07        -0.18920E-19         0.00000E+00
    0.34529E-07        -0.95113E-20         0.00000E+00
    0.34506E-07        -0.18626E-20         0.00000E+00
    0.34482E-07        -0.10245E-19         0.00000E+00
    0.34460E-07        -0.16764E-19         0.00000E+00
    0.34438E-07        -0.65193E-20         0.00000E+00
    0.34418E-07        -0.13039E-19         0.00000E+00
    0.34397E-07         0.46566E-20         0.00000E+00
    0.34378E-07         0.12941E-19         0.00000E+00
    0.34360E-07        -0.18626E-20         0.00000E+00
    0.34342E-07         0.55357E-20         0.00000E+00
    0.34325E-07        -0.93132E-20         0.00000E+00
    0.34308E-07        -0.18626E-20         0.00000E+00
    0.34293E-07        -0.14115E-20         0.00000E+00
    0.34278E-07         0.18264E-20         0.00000E+00
    0.34264E-07        -0.13392E-20         0.00000E+00
    0.34250E-07        -0.93132E-20         0.00000E+00
    0.34237E-07         0.83819E-20         0.00000E+00
    0.34225E-07         0.45353E-20         0.00000E+00
    0.34214E-07         0.11176E-19         0.00000E+00
    0.34203E-07        -0.65193E-20         0.00000E+00
    0.34193E-07         0.55879E-20         0.00000E+00
    0.34183E-07        -0.76541E-20         0.00000E+00
    0.34175E-07         0.11176E-19         0.00000E+00
    0.34166E-07        -0.55879E-20         0.00000E+00
    0.34159E-07        -0.95152E-20         0.00000E+00
    0.34151E-07         0.37253E-20         0.00000E+00
    0.34145E-07         0.16764E-19         0.00000E+00
    0.34139E-07        -0.83819E-20         0.00000E+00
    0.34134E-07        -0.18626E-20         0.00000E+00
    0.34129E-07         0.15009E-20         0.00000E+00
    0.34124E-07         0.36408E-20         0.00000E+00
    0.34121E-07         0.55879E-20         0.00000E+00
    0.34117E-07         0.37253E-20         0.00000E+00
    0.34115E-07         0.65193E-20         0.00000E+00
    0.34112E-07         0.00000E+00         0.00000E+00
    0.34111E-07         0.60651E-20         0.00000E+00
    0.34109E-07         0.27634E-20         0.00000E+00
    0.34109E-07         0.18626E-20         0.00000E+00
    0.34108E-07         0.00000E+00         0.00000E+00
    0.36153E-07         0.00000E+00         0.00000E+00
    0.36152E-07         0.11484E-19         0.00000E+00
    0.36150E-07         0.63272E-21         0.00000E+00
    0.36146E-07         0.93132E-20         0.00000E+00
    0.36140E-07         0.18093E-19         0.00000E+00
    0.36134E-07         0.26077E-19         0.00000E+00
    0.36125E-07         0.44703E-19         0.00000E+00
    0.36116E-07         0.19616E-19         0.00000E+00
    0.36104E-07         0.17817E-19         0.00000E+00
    0.36092E-07         0.24028E-19         0.00000E+00
    0.36077E-07        -0.55879E-20         0.00000E+00
    0.36062E-07         0.22037E-19         0.00000E+00
    0.36045E-07        -0.18626E-20         0.00000E+00
    0.36027E-07         0.74506E-20         0.00000E+00
    0.36008E-07        -0.55061E-20         0.00000E+00
    0.35987E-07         0.00000E+00         0.00000E+00
    0.35965E-07        -0.89755E-20         0.00000E+00
    0.35942E-07        -0.24214E-19         0.00000E+00
    0.35918E-07         0.23621E-19         0.00000E+00
    0.35893E-07         0.16974E-19         0.00000E+00
    0.35866E-07        -0.37253E-20         0.00000E+00
    0.35839E-07         0.28826E-19         0.00000E+00
    0.35811E-07        -0.30906E-19         0.00000E+00
    0.35782E-07        -0.21619E-20         0.00000E+00
    0.35752E-07         0.00000E+00         0.00000E+00
    0.35722E-07         0.14848E-20         0.00000E+00
    0.35691E-07        -0.93132E-20         0.00000E+00
    0.35659E-07        -0.13039E-19         0.00000E+00
    0.35626E-07        -0.13964E-19         0.00000E+00
    0.35593E-07        -0.12780E-19         0.00000E+00
    0.35560E-07        -0.10245E-19         0.00000E+00
    0.35526E-07         0.27940E-20         0.00000E+00
    0.35491E-07        -0.55022E-20         0.00000E+00
    0.35457E-07         0.18626E-20         0.00000E+00
    0.35422E-07         0.13039E-19         0.00000E+00
    0.35387E-07        -0.10155E-19         0.00000E+00
    0.35351E-07         0.44944E-20         0.00000E+00
    0.35316E-07        -0.41349E-21         0.00000E+00
    0.35281E-07        -0.34585E-20         0.00000E+00
    0.35245E-07         0.93132E-20         0.00000E+00
    0.35210E-07         0.10941E-19         0.00000E+00
    0.35175E-07        -0.88668E-20         0.00000E+00
    0.35140E-07        -0.73496E-21         0.00000E+00
    0.35105E-07         0.00000E+00         0.00000E+00
    0.35070E-07        -0.40283E-20         0.00000E+00
    0.35036E-07         0.26207E-20         0.00000E+00
    0.35002E-07         0.74506E-20         0.00000E+00
    0.34968E-07         0.10245E-19         0.00000E+00
    0.34935E-07        -0.78180E-20         0.00000E+00
    0.34902E-07         0.18626E-20         0.00000E+00
    0.34870E-07         0.19301E-20         0.00000E+00
    0.34838E-07        -0.18046E-21         0.00000E+00
    0.34807E-07        -0.18626E-20         0.00000E+00
    0.34776E-07         0.93132E-20         0.00000E+00
    0.34746E-07        -0.17147E-22         0.00000E+00
    0.34717E-07         0.32708E-20         0.00000E+00
    0.34688E-07         0.39072E-22         0.00000E+00
    0.34660E-07        -0.78497E-20         0.00000E+00
    0.34632E-07        -0.10151E-19         0.00000E+00
    0.34605E-07        -0.93132E-20         0.00000E+00
    0.34579E-07        -0.18626E-19         0.00000E+00
    0.34554E-07        -0.93132E-20         0.00000E+00
    0.34529E-07        -0.44585E-20         0.00000E+00
    0.34506E-07         0.55879E-20         0.00000E+00
    0.34482E-07        -0.72024E-20         0.00000E+00
    0.34460E-07        -0.14901E-19         0.00000E+00
    0.34438E-07        -0.52911E-20         0.00000E+00
    0.34418E-07        -0.18626E-20         0.00000E+00
    0.34397E-07         0.12757E-20         0.00000E+00
    0.34378E-07         0.16764E-19         0.00000E+00
    0.34360E-07        -0.18626E-20         0.00000E+00
    0.34342E-07         0.74506E-20         0.00000E+00
    0.34325E-07         0.93132E-20         0.00000E+00
    0.34308E-07         0.18626E-20         0.00000E+00
    0.34293E-07         0.51368E-20         0.00000E+00
    0.34278E-07         0.14901E-19         0.00000E+00
    0.34264E-07         0.74506E-20         0.00000E+00
    0.34250E-07         0.18626E-20         0.00000E+00
    0.34237E-07         0.14536E-19         0.00000E+00
    0.34225E-07        -0.25514E-20         0.00000E+00
    0.34214E-07         0.21420E-19         0.00000E+00
    0.34203E-07        -0.16999E-20         0.00000E+00
    0.34193E-07        -0.18626E-20         0.00000E+00
    0.34183E-07         0.14173E-19         0.00000E+00
    0.34175E-07         0.14659E-19         0.00000E+00
    0.34166E-07         0.10245E-19         0.00000E+00
    0.34159E-07        -0.93132E-20         0.00000E+00
    0.34151E-07         0.11176E-19         0.00000E+00
    0.34145E-07         0.16926E-19         0.00000E+00
    0.34139E-07         0.60853E-21         0.00000E+00
    0.34134E-07         0.21093E-20         0.00000E+00
    0.34129E-07        -0.40871E-20         0.00000E+00
    0.34124E-07         0.22352E-19         0.00000E+00
    0.34121E-07        -0.18626E-20         0.00000E+00
    0.34117E-07         0.11176E-19         0.00000E+00
    0.34115E-07         0.16325E-19         0.00000E+00
    0.34112E-07         0.18703E-20         0.00000E+00
    0.34111E-07         0.17218E-19         0.00000E+00
    0.34109E-07        -0.65193E-20         0.00000E+00
    0.34109E-07         0.60039E-20         0.00000E+00
    0.34108E-07         0.00000E+00         0.00000E+00
    0.36153E-07         0.00000E+00         0.00000E+00
    0.36152E-07         0.18935E-19         0.00000E+00
    0.36150E-07         0.43580E-20         0.00000E+00
    0.36146E-07         0.12390E-19         0.00000E+00
    0.36140E-07         0.14368E-19         0.00000E+00
    0.36134E-07         0.14901E-19         0.00000E+00
    0.36125E-07         0.33996E-19         0.00000E+00
    0.36116E-07         0.24214E-19         0.00000E+00
    0.36104E-07         0.51345E-19         0.00000E+00
    0.36092E-07         0.33714E-19         0.00000E+00
    0.36077E-07        -0.93132E-20         0.00000E+00
    0.36062E-07         0.19255E-19         0.00000E+00
    0.36045E-07         0.52094E-20         0.00000E+00
    0.36027E-07         0.93132E-20         0.00000E+00
    0.36008E-07        -0.55879E-20         0.00000E+00
    0.35987E-07         0.31455E-19         0.00000E+00
    0.35965E-07        -0.89755E-20         0.00000E+00
    0.35942E-07        -0.18626E-20         0.00000E+00
    0.35918E-07        -0.14308E-19         0.00000E+00
    0.35893E-07        -0.48670E-20         0.00000E+00
    0.35866E-07         0.14901E-19         0.00000E+00
    0.35839E-07         0.13039E-19         0.00000E+00
    0.35811E-07        -0.24802E-19         0.00000E+00
    0.35782E-07        -0.21955E-20         0.00000E+00
    0.35752E-07         0.88868E-20         0.00000E+00
    0.35722E-07         0.00000E+00         0.00000E+00
    0.35691E-07        -0.93132E-20         0.00000E+00
    0.35659E-07         0.00000E+00         0.00000E+00
    0.35626E-07         0.65193E-20         0.00000E+00
    0.35593E-07        -0.83819E-20         0.00000E+00
    0.35560E-07        -0.21001E-19         0.00000E+00
    0.35526E-07         0.20294E-20         0.00000E+00
    0.35491E-07         0.56737E-20         0.00000E+00
    0.35457E-07         0.74506E-20         0.00000E+00
    0.35422E-07         0.74506E-20         0.00000E+00
    0.35387E-07         0.27940E-20         0.00000E+00
    0.35351E-07         0.14132E-19         0.00000E+00
    0.35316E-07         0.22761E-20         0.00000E+00
    0.35281E-07        -0.67860E-20         0.00000E+00
    0.35245E-07         0.93132E-20         0.00000E+00
    0.35210E-07         0.74506E-20         0.00000E+00
    0.35175E-07         0.32789E-20         0.00000E+00
    0.35140E-07        -0.48530E-20         0.00000E+00
    0.35105E-07         0.16764E-19         0.00000E+00
    0.35070E-07         0.10548E-19         0.00000E+00
    0.35036E-07         0.55879E-20         0.00000E+00
    0.35002E-07         0.35953E-20         0.00000E+00
    0.34968E-07         0.10363E-19         0.00000E+00
    0.34935E-07        -0.37253E-20         0.00000E+00
    0.34902E-07         0.15471E-20         0.00000E+00
    0.34870E-07         0.11108E-19         0.00000E+00
    0.34838E-07         0.48371E-20         0.00000E+00
    0.34807E-07        -0.74506E-20         0.00000E+00
    0.34776E-07         0.14901E-19         0.00000E+00
    0.34746E-07         0.15850E-19         0.00000E+00
    0.34717E-07         0.69737E-20         0.00000E+00
    0.34688E-07        -0.93523E-20         0.00000E+00
    0.34660E-07         0.97123E-20         0.00000E+00
    0.34632E-07         0.00000E+00         0.00000E+00
    0.34605E-07        -0.55879E-20         0.00000E+00
    0.34579E-07        -0.93132E-20         0.00000E+00
    0.34554E-07         0.29312E-21         0.00000E+00
    0.34529E-07         0.93132E-21         0.00000E+00
    0.34506E-07        -0.18626E-20         0.00000E+00
    0.34482E-07        -0.49048E-20         0.00000E+00
    0.34460E-07        -0.93132E-20         0.00000E+00
    0.34438E-07        -0.86788E-20         0.00000E+00
    0.34418E-07         0.21565E-19         0.00000E+00
    0.34397E-07         0.93132E-21         0.00000E+00
    0.34378E-07         0.10245E-19         0.00000E+00
    0.34360E-07         0.10245E-19         0.00000E+00
    0.34342E-07         0.93132E-20         0.00000E+00
    0.34325E-07         0.11671E-19         0.00000E+00
    0.34308E-07         0.55879E-20         0.00000E+00
    0.34293E-07         0.13039E-19         0.00000E+00
    0.34278E-07         0.13970E-19         0.00000E+00
    0.34264E-07         0.74506E-20         0.00000E+00
    0.34250E-07         0.65193E-20         0.00000E+00
    0.34237E-07         0.10610E-19         0.00000E+00
    0.34225E-07         0.10245E-19         0.00000E+00
    0.34214E-07         0.12431E-19         0.00000E+00
    0.34203E-07         0.35626E-20         0.00000E+00
    0.34193E-07         0.28247E-21         0.00000E+00
    0.34183E-07         0.28871E-19         0.00000E+00
    0.34175E-07         0.25146E-19         0.00000E+00
    0.34166E-07         0.21177E-19         0.00000E+00
    0.34159E-07        -0.37253E-20         0.00000E+00
    0.34151E-07         0.93132E-20         0.00000E+00
    0.34145E-07         0.12876E-19         0.00000E+00
    0.34139E-07         0.90275E-20         0.00000E+00
    0.34134E-07         0.11176E-19         0.00000E+00
    0.34129E-07         0.10606E-19         0.00000E+00
    0.34124E-07         0.11091E-19         0.00000E+00
    0.34121E-07         0.74506E-20         0.00000E+00
    0.34117E-07         0.24168E-19         0.00000E+00
    0.34115E-07         0.17203E-19         0.00000E+00
    0.34112E-07         0.18626E-19         0.00000E+00
    0.34111E-07         0.60651E-20         0.00000E+00
    0.34109E-07         0.28246E-20         0.00000E+00
    0.34109E-07         0.46566E-20         0.00000E+00
    0.34108E-07         0.00000E+00         0.00000E+00
    0.36153E-07         0.00000E+00         0.00000E+00
    0.36152E-07         0.22043E-19         0.00000E+00
    0.36150E-07         0.49552E-20         0.00000E+00
    0.36146E-07         0.32314E-19         0.00000E+00
    0.36140E-07         0.42583E-20         0.00000E+00
    0.36134E-07         0.40978E-19         0.00000E+00
    0.36125E-07         0.69818E-20         0.00000E+00
    0.36116E-07         0.32538E-19         0.00000E+00
    0.36104E-07         0.51101E-19         0.00000E+00
    0.36092E-07         0.17509E-19         0.00000E+00
    0.36077E-07         0.22352E-19         0.00000E+00
    0.36062E-07         0.65193E-20         0.00000E+00
    0.36045E-07         0.96918E-20         0.00000E+00
    0.36027E-07         0.18626E-20         0.00000E+00
    0.36008E-07         0.17808E-20         0.00000E+00
    0.35987E-07         0.18626E-19         0.00000E+00
    0.35965E-07        -0.10582E-19         0.00000E+00
    0.35942E-07         0.37253E-20         0.00000E+00
    0.35918E-07        -0.11769E-19         0.00000E+00
    0.35893E-07        -0.29802E-19         0.00000E+00
    0.35866E-07         0.11176E-19         0.00000E+00
    0.35839E-07        -0.46566E-20         0.00000E+00
    0.35811E-07         0.00000E+00         0.00000E+00
    0.35782E-07         0.10877E-19         0.00000E+00
    0.35752E-07         0.22891E-20         0.00000E+00
    0.35722E-07         0.11176E-19         0.00000E+00
    0.35691E-07        -0.37253E-20         0.00000E+00
    0.35659E-07         0.12107E-19         0.00000E+00
    0.35626E-07         0.46511E-20         0.00000E+00
    0.35593E-07        -0.11901E-20         0.00000E+00
    0.35560E-07        -0.20489E-19         0.00000E+00
    0.35526E-07        -0.21962E-20         0.00000E+00
    0.35491E-07         0.22266E-19         0.00000E+00
    0.35457E-07        -0.71125E-20         0.00000E+00
    0.35422E-07        -0.55879E-20         0.00000E+00
    0.35387E-07         0.12018E-19         0.00000E+00
    0.35351E-07         0.44944E-20         0.00000E+00
    0.35316E-07         0.13039E-19         0.00000E+00
    0.35281E-07        -0.11176E-19         0.00000E+00
    0.35245E-07         0.11176E-19         0.00000E+00
    0.35210E-07         0.74506E-20         0.00000E+00
    0.35175E-07         0.17210E-19         0.00000E+00
    0.35140E-07        -0.18626E-20         0.00000E+00
    0.35105E-07         0.74506E-20         0.00000E+00
    0.35070E-07         0.11176E-19         0.00000E+00
    0.35036E-07         0.10797E-19         0.00000E+00
    0.35002E-07        -0.35953E-20         0.00000E+00
    0.34968E-07         0.10245E-19         0.00000E+00
    0.34935E-07         0.11543E-19         0.00000E+00
    0.34902E-07        -0.16764E-19         0.00000E+00
    0.34870E-07         0.93132E-20         0.00000E+00
    0.34838E-07         0.16764E-19         0.00000E+00
    0.34807E-07         0.18626E-20         0.00000E+00
    0.34776E-07         0.93132E-20         0.00000E+00
    0.34746E-07         0.14901E-19         0.00000E+00
    0.34717E-07        -0.18626E-20         0.00000E+00
    0.34688E-07         0.19017E-20         0.00000E+00
    0.34660E-07         0.23949E-20         0.00000E+00
    0.34632E-07        -0.37253E-20         0.00000E+00
    0.34605E-07        -0.74506E-20         0.00000E+00
    0.34579E-07        -0.55879E-20         0.00000E+00
    0.34554E-07         0.74506E-20         0.00000E+00
    0.34529E-07        -0.14703E-19         0.00000E+00
    0.34506E-07        -0.93132E-21         0.00000E+00
    0.34482E-07        -0.10245E-19         0.00000E+00
    0.34460E-07        -0.81889E-20         0.00000E+00
    0.34438E-07        -0.93132E-20         0.00000E+00
    0.34418E-07         0.20344E-19         0.00000E+00
    0.34397E-07         0.10832E-19         0.00000E+00
    0.34378E-07        -0.17646E-20         0.00000E+00
    0.34360E-07         0.20098E-19         0.00000E+00
    0.34342E-07         0.55879E-20         0.00000E+00
    0.34325E-07         0.13672E-20         0.00000E+00
    0.34308E-07         0.74506E-20         0.00000E+00
    0.34293E-07         0.74506E-20         0.00000E+00
    0.34278E-07         0.17659E-19         0.00000E+00
    0.34264E-07         0.55879E-20         0.00000E+00
    0.34250E-07         0.14980E-19         0.00000E+00
    0.34237E-07         0.21420E-19         0.00000E+00
    0.34225E-07         0.45353E-20         0.00000E+00
    0.34214E-07         0.93132E-20         0.00000E+00
    0.34203E-07         0.20254E-20         0.00000E+00
    0.34193E-07         0.80994E-20         0.00000E+00
    0.34183E-07         0.17492E-19         0.00000E+00
    0.34175E-07         0.32838E-19         0.00000E+00
    0.34166E-07         0.21420E-19         0.00000E+00
    0.34159E-07         0.18626E-20         0.00000E+00
    0.34151E-07         0.13970E-19         0.00000E+00
    0.34145E-07         0.13039E-19         0.00000E+00
    0.34139E-07         0.27940E-20         0.00000E+00
    0.34134E-07         0.12915E-19         0.00000E+00
    0.34129E-07         0.16764E-19         0.00000E+00
    0.34124E-07         0.75351E-20         0.00000E+00
    0.34121E-07         0.15302E-19         0.00000E+00
    0.34117E-07         0.11176E-19         0.00000E+00
    0.34115E-07         0.15394E-19         0.00000E+00
    0.34112E-07         0.30726E-19         0.00000E+00
    0.34111E-07         0.69734E-20         0.00000E+00
    0.34109E-07         0.11176E-19         0.00000E+00
    0.34109E-07         0.99322E-22         0.00000E+00
    0.34108E-07         0.00000E+00         0.00000E+00
    0.36153E-07         0.00000E+00         0.00000E+00
    0.36152E-07         0.74506E-20         0.00000E+00
    0.36150E-07         0.37253E-19         0.00000E+00
    0.36146E-07         0.55231E-19         0.00000E+00
    0.36140E-07         0.00000E+00         0.00000E+00
    0.36134E-07         0.44703E-19         0.00000E+00
    0.36125E-07         0.26546E-19         0.00000E+00
    0.36116E-07         0.26077E-19         0.00000E+00
    0.36104E-07         0.22352E-19         0.00000E+00
    0.36092E-07         0.55879E-20         0.00000E+00
    0.36077E-07         0.29802E-19         0.00000E+00
    0.36062E-07        -0.49711E-20         0.00000E+00
    0.36045E-07         0.14523E-19         0.00000E+00
    0.36027E-07        -0.11176E-19         0.00000E+00
    0.36008E-07         0.13039E-19         0.00000E+00
    0.35987E-07        -0.18626E-19         0.00000E+00
    0.35965E-07        -0.18626E-20         0.00000E+00
    0.35942E-07        -0.10245E-19         0.00000E+00
    0.35918E-07        -0.37253E-20         0.00000E+00
    0.35893E-07        -0.14901E-19         0.00000E+00
    0.35866E-07         0.00000E+00         0.00000E+00
    0.35839E-07        -0.10200E-19         0.00000E+00
    0.35811E-07         0.11004E-19         0.00000E+00
    0.35782E-07         0.21720E-19         0.00000E+00
    0.35752E-07         0.88868E-20         0.00000E+00
    0.35722E-07         0.93132E-20         0.00000E+00
    0.35691E-07         0.13039E-19         0.00000E+00
    0.35659E-07         0.90652E-20         0.00000E+00
    0.35626E-07        -0.18626E-20         0.00000E+00
    0.35593E-07        -0.37253E-20         0.00000E+00
    0.35560E-07         0.27940E-20         0.00000E+00
    0.35526E-07         0.16678E-21         0.00000E+00
    0.35491E-07         0.14901E-19         0.00000E+00
    0.35457E-07        -0.93132E-20         0.00000E+00
    0.35422E-07        -0.10245E-19         0.00000E+00
    0.35387E-07         0.18626E-19         0.00000E+00
    0.35351E-07         0.16764E-19         0.00000E+00
    0.35316E-07         0.14901E-19         0.00000E+00
    0.35281E-07         0.74506E-20         0.00000E+00
    0.35245E-07        -0.83819E-20         0.00000E+00
    0.35210E-07         0.11176E-19         0.00000E+00
    0.35175E-07         0.10729E-19         0.00000E+00
    0.35140E-07         0.14901E-19         0.00000E+00
    0.35105E-07         0.65193E-20         0.00000E+00
    0.35070E-07        -0.77536E-20         0.00000E+00
    0.35036E-07         0.16764E-19         0.00000E+00
    0.35002E-07        -0.47866E-20         0.00000E+00
    0.34968E-07         0.82630E-20         0.00000E+00
    0.34935E-07         0.21984E-19         0.00000E+00
    0.34902E-07        -0.13970E-19         0.00000E+00
    0.34870E-07         0.93132E-20         0.00000E+00
    0.34838E-07         0.13039E-19         0.00000E+00
    0.34807E-07         0.74506E-20         0.00000E+00
    0.34776E-07         0.37253E-20         0.00000E+00
    0.34746E-07         0.74506E-20         0.00000E+00
    0.34717E-07        -0.37253E-20         0.00000E+00
    0.34688E-07         0.14862E-19         0.00000E+00
    0.34660E-07         0.65193E-20         0.00000E+00
    0.34632E-07        -0.65193E-20         0.00000E+00
    0.34605E-07         0.50020E-20         0.00000E+00
    0.34579E-07        -0.93132E-20         0.00000E+00
    0.34554E-07        -0.29312E-21         0.00000E+00
    0.34529E-07        -0.17893E-19         0.00000E+00
    0.34506E-07         0.81395E-20         0.00000E+00
    0.34482E-07        -0.11424E-19         0.00000E+00
    0.34460E-07         0.29869E-20         0.00000E+00
    0.34438E-07        -0.93132E-21         0.00000E+00
    0.34418E-07         0.14115E-19         0.00000E+00
    0.34397E-07         0.12452E-19         0.00000E+00
    0.34378E-07        -0.94112E-20         0.00000E+00
    0.34360E-07         0.10635E-19         0.00000E+00
    0.34342E-07         0.00000E+00         0.00000E+00
    0.34325E-07         0.79460E-20         0.00000E+00
    0.34308E-07         0.13039E-19         0.00000E+00
    0.34293E-07         0.14901E-19         0.00000E+00
    0.34278E-07         0.24251E-19         0.00000E+00
    0.34264E-07         0.17695E-19         0.00000E+00
    0.34250E-07         0.15753E-19         0.00000E+00
    0.34237E-07         0.26643E-19         0.00000E+00
    0.34225E-07         0.00000E+00         0.00000E+00
    0.34214E-07         0.13039E-19         0.00000E+00
    0.34203E-07         0.10082E-19         0.00000E+00
    0.34193E-07         0.14252E-19         0.00000E+00
    0.34183E-07         0.19558E-19         0.00000E+00
    0.34175E-07         0.18384E-19         0.00000E+00
    0.34166E-07         0.19802E-19         0.00000E+00
    0.34159E-07         0.15832E-19         0.00000E+00
    0.34151E-07         0.10892E-19         0.00000E+00
    0.34145E-07         0.12270E-19         0.00000E+00
    0.34139E-07         0.24712E-20         0.00000E+00
    0.34134E-07         0.13039E-19         0.00000E+00
    0.34129E-07         0.96750E-20         0.00000E+00
    0.34124E-07         0.15748E-19         0.00000E+00
    0.34121E-07         0.13039E-19         0.00000E+00
    0.34117E-07         0.14016E-19         0.00000E+00
    0.34115E-07         0.24214E-19         0.00000E+00
    0.34112E-07         0.21428E-19         0.00000E+00
    0.34111E-07         0.69964E-20         0.00000E+00
    0.34109E-07         0.74506E-20         0.00000E+00
    0.34109E-07         0.13473E-20         0.00000E+00
    0.34108E-07         0.00000E+00         0.00000E+00
    0.36153E-07         0.00000E+00         0.00000E+00
    0.36152E-07        -0.74506E-20         0.00000E+00
    0.36150E-07         0.59605E-19         0.00000E+00
    0.36146E-07         0.54665E-19         0.00000E+00
    0.36140E-07         0.29802E-19         0.00000E+00
    0.36134E-07         0.22352E-19         0.00000E+00
    0.36125E-07         0.66586E-19         0.00000E+00
    0.36116E-07         0.29802E-19         0.00000E+00
    0.36104E-07         0.14901E-19         0.00000E+00
    0.36092E-07        -0.65193E-20         0.00000E+00
    0.36077E-07         0.22352E-19         0.00000E+00
    0.36062E-07        -0.17695E-19         0.00000E+00
    0.36045E-07         0.15280E-19         0.00000E+00
    0.36027E-07        -0.18626E-19         0.00000E+00
    0.36008E-07         0.37253E-20         0.00000E+00
    0.35987E-07        -0.14691E-19         0.00000E+00
    0.35965E-07         0.55879E-20         0.00000E+00
    0.35942E-07        -0.69851E-20         0.00000E+00
    0.35918E-07        -0.25146E-19         0.00000E+00
    0.35893E-07         0.11176E-19         0.00000E+00
    0.35866E-07         0.14901E-19         0.00000E+00
    0.35839E-07        -0.13039E-19         0.00000E+00
    0.35811E-07         0.37253E-20         0.00000E+00
    0.35782E-07         0.16764E-19         0.00000E+00
    0.35752E-07         0.19984E-19         0.00000E+00
    0.35722E-07        -0.46566E-20         0.00000E+00
    0.35691E-07         0.31665E-19         0.00000E+00
    0.35659E-07        -0.25460E-20         0.00000E+00
    0.35626E-07        -0.37253E-20         0.00000E+00
    0.35593E-07        -0.12780E-19         0.00000E+00
    0.35560E-07        -0.32135E-20         0.00000E+00
    0.35526E-07         0.91464E-20         0.00000E+00
    0.35491E-07         0.16764E-19         0.00000E+00
    0.35457E-07         0.52499E-20         0.00000E+00
    0.35422E-07         0.33841E-20         0.00000E+00
    0.35387E-07         0.13039E-19         0.00000E+00
    0.35351E-07         0.17695E-19         0.00000E+00
    0.35316E-07         0.24214E-19         0.00000E+00
    0.35281E-07         0.14901E-19         0.00000E+00
    0.35245E-07         0.15964E-22         0.00000E+00
    0.35210E-07         0.18626E-19         0.00000E+00
    0.35175E-07         0.16279E-19         0.00000E+00
    0.35140E-07         0.24214E-19         0.00000E+00
    0.35105E-07         0.15779E-19         0.00000E+00
    0.35070E-07        -0.14598E-19         0.00000E+00
    0.35036E-07         0.12107E-19         0.00000E+00
    0.35002E-07        -0.82520E-20         0.00000E+00
    0.34968E-07         0.19815E-20         0.00000E+00
    0.34935E-07         0.17131E-19         0.00000E+00
    0.34902E-07         0.62037E-20         0.00000E+00
    0.34870E-07         0.20489E-19         0.00000E+00
    0.34838E-07        -0.85624E-20         0.00000E+00
    0.34807E-07         0.14901E-19         0.00000E+00
    0.34776E-07         0.55879E-20         0.00000E+00
    0.34746E-07         0.13039E-19         0.00000E+00
    0.34717E-07         0.00000E+00         0.00000E+00
    0.34688E-07         0.20528E-19         0.00000E+00
    0.34660E-07         0.31931E-20         0.00000E+00
    0.34632E-07         0.12014E-19         0.00000E+00
    0.34605E-07         0.24486E-20         0.00000E+00
    0.34579E-07        -0.93132E-20         0.00000E+00
    0.34554E-07        -0.37253E-20         0.00000E+00
    0.34529E-07        -0.18626E-20         0.00000E+00
    0.34506E-07         0.12350E-19         0.00000E+00
    0.34482E-07         0.58361E-20         0.00000E+00
    0.34460E-07         0.74506E-20         0.00000E+00
    0.34438E-07         0.15198E-19         0.00000E+00
    0.34418E-07        -0.55879E-20         0.00000E+00
    0.34397E-07         0.13970E-19         0.00000E+00
    0.34378E-07        -0.45586E-20         0.00000E+00
    0.34360E-07         0.27940E-20         0.00000E+00
    0.34342E-07         0.16764E-19         0.00000E+00
    0.34325E-07         0.10680E-19         0.00000E+00
    0.34308E-07         0.18626E-19         0.00000E+00
    0.34293E-07         0.16764E-19         0.00000E+00
    0.34278E-07         0.26077E-19         0.00000E+00
    0.34264E-07         0.19966E-19         0.00000E+00
    0.34250E-07         0.26077E-19         0.00000E+00
    0.34237E-07         0.22717E-19         0.00000E+00
    0.34225E-07         0.11176E-19         0.00000E+00
    0.34214E-07         0.13039E-19         0.00000E+00
    0.34203E-07         0.27940E-19         0.00000E+00
    0.34193E-07         0.71681E-20         0.00000E+00
    0.34183E-07         0.28143E-19         0.00000E+00
    0.34175E-07         0.58299E-20         0.00000E+00
    0.34166E-07         0.27008E-19         0.00000E+00
    0.34159E-07         0.19760E-19         0.00000E+00
    0.34151E-07         0.68027E-20         0.00000E+00
    0.34145E-07         0.17533E-19         0.00000E+00
    0.34139E-07         0.16764E-19         0.00000E+00
    0.34134E-07         0.74506E-20         0.00000E+00
    0.34129E-07         0.11384E-19         0.00000E+00
    0.34124E-07         0.18711E-19         0.00000E+00
    0.34121E-07         0.13039E-19         0.00000E+00
    0.34117E-07         0.15787E-19         0.00000E+00
    0.34115E-07         0.27940E-19         0.00000E+00
    0.34112E-07         0.14894E-19         0.00000E+00
    0.34111E-07         0.13855E-20         0.00000E+00
    0.34109E-07         0.14000E-19         0.00000E+00
    0.34109E-07         0.93132E-20         0.00000E+00
    0.34108E-07         0.18626E-20         0.00000E+00
    0.36153E-07         0.00000E+00         0.00000E+00
    0.36152E-07         0.11176E-19         0.00000E+00
    0.36150E-07         0.52154E-19         0.00000E+00
    0.36146E-07         0.40329E-19         0.00000E+00
    0.36140E-07         0.55879E-19         0.00000E+00
    0.36134E-07         0.29802E-19         0.00000E+00
    0.36125E-07         0.63799E-19         0.00000E+00
    0.36116E-07         0.33528E-19         0.00000E+00
    0.36104E-07         0.26077E-19         0.00000E+00
    0.36092E-07        -0.74509E-21         0.00000E+00
    0.36077E-07         0.21420E-19         0.00000E+00
    0.36062E-07         0.68337E-20         0.00000E+00
    0.36045E-07        -0.41038E-20         0.00000E+00
    0.36027E-07        -0.11176E-19         0.00000E+00
    0.36008E-07         0.55879E-20         0.00000E+00
    0.35987E-07         0.11176E-19         0.00000E+00
    0.35965E-07         0.11176E-19         0.00000E+00
    0.35942E-07         0.15367E-19         0.00000E+00
    0.35918E-07        -0.14308E-19         0.00000E+00
    0.35893E-07         0.27940E-19         0.00000E+00
    0.35866E-07         0.27940E-19         0.00000E+00
    0.35839E-07        -0.44601E-22         0.00000E+00
    0.35811E-07         0.38973E-20         0.00000E+00
    0.35782E-07         0.34459E-19         0.00000E+00
    0.35752E-07         0.17269E-19         0.00000E+00
    0.35722E-07         0.19936E-19         0.00000E+00
    0.35691E-07         0.26077E-19         0.00000E+00
    0.35659E-07        -0.37253E-20         0.00000E+00
    0.35626E-07        -0.55879E-20         0.00000E+00
    0.35593E-07        -0.25874E-21         0.00000E+00
    0.35560E-07         0.10245E-19         0.00000E+00
    0.35526E-07         0.17862E-19         0.00000E+00
    0.35491E-07         0.20489E-19         0.00000E+00
    0.35457E-07         0.11176E-19         0.00000E+00
    0.35422E-07         0.68605E-20         0.00000E+00
    0.35387E-07         0.38147E-20         0.00000E+00
    0.35351E-07         0.14132E-19         0.00000E+00
    0.35316E-07         0.33528E-19         0.00000E+00
    0.35281E-07         0.13039E-19         0.00000E+00
    0.35245E-07         0.10229E-19         0.00000E+00
    0.35210E-07         0.23283E-19         0.00000E+00
    0.35175E-07         0.27940E-19         0.00000E+00
    0.35140E-07         0.31665E-19         0.00000E+00
    0.35105E-07         0.13970E-19         0.00000E+00
    0.35070E-07        -0.55879E-20         0.00000E+00
    0.35036E-07         0.24150E-20         0.00000E+00
    0.35002E-07        -0.57179E-20         0.00000E+00
    0.34968E-07         0.23283E-19         0.00000E+00
    0.34935E-07         0.29802E-19         0.00000E+00
    0.34902E-07         0.17079E-19         0.00000E+00
    0.34870E-07         0.20489E-19         0.00000E+00
    0.34838E-07         0.14150E-19         0.00000E+00
    0.34807E-07         0.24214E-19         0.00000E+00
    0.34776E-07         0.78703E-20         0.00000E+00
    0.34746E-07         0.18626E-19         0.00000E+00
    0.34717E-07         0.74506E-20         0.00000E+00
    0.34688E-07         0.16725E-19         0.00000E+00
    0.34660E-07        -0.55879E-20         0.00000E+00
    0.34632E-07         0.19558E-19         0.00000E+00
    0.34605E-07        -0.52426E-20         0.00000E+00
    0.34579E-07        -0.65193E-20         0.00000E+00
    0.34554E-07        -0.74506E-20         0.00000E+00
    0.34529E-07         0.14901E-19         0.00000E+00
    0.34506E-07         0.10487E-19         0.00000E+00
    0.34482E-07         0.34771E-20         0.00000E+00
    0.34460E-07         0.72576E-20         0.00000E+00
    0.34438E-07         0.22055E-19         0.00000E+00
    0.34418E-07        -0.55879E-20         0.00000E+00
    0.34397E-07         0.12694E-19         0.00000E+00
    0.34378E-07         0.14901E-19         0.00000E+00
    0.34360E-07         0.98539E-20         0.00000E+00
    0.34342E-07         0.31665E-19         0.00000E+00
    0.34325E-07         0.13039E-19         0.00000E+00
    0.34308E-07         0.26077E-19         0.00000E+00
    0.34293E-07         0.20489E-19         0.00000E+00
    0.34278E-07         0.39116E-19         0.00000E+00
    0.34264E-07         0.38708E-19         0.00000E+00
    0.34250E-07         0.27940E-19         0.00000E+00
    0.34237E-07         0.35390E-19         0.00000E+00
    0.34225E-07         0.16764E-19         0.00000E+00
    0.34214E-07         0.18626E-19         0.00000E+00
    0.34203E-07         0.30734E-19         0.00000E+00
    0.34193E-07         0.16115E-19         0.00000E+00
    0.34183E-07         0.23080E-19         0.00000E+00
    0.34175E-07         0.17695E-19         0.00000E+00
    0.34166E-07         0.30490E-19         0.00000E+00
    0.34159E-07         0.28871E-19         0.00000E+00
    0.34151E-07         0.25146E-19         0.00000E+00
    0.34145E-07         0.24214E-19         0.00000E+00
    0.34139E-07         0.20489E-19         0.00000E+00
    0.34134E-07         0.20366E-19         0.00000E+00
    0.34129E-07         0.30526E-19         0.00000E+00
    0.34124E-07         0.31580E-19         0.00000E+00
    0.34121E-07         0.20489E-19         0.00000E+00
    0.34117E-07         0.13970E-19         0.00000E+00
    0.34115E-07         0.20928E-19         0.00000E+00
    0.34112E-07         0.18626E-19         0.00000E+00
    0.34111E-07         0.69964E-20         0.00000E+00
    0.34109E-07         0.21390E-19         0.00000E+00
    0.34109E-07         0.11176E-19         0.00000E+00
    0.34108E-07         0.17252E-20         0.00000E+00
    0.36153E-07         0.00000E+00         0.00000E+00
    0.36152E-07         0.18626E-19         0.00000E+00
    0.36150E-07         0.42841E-19         0.00000E+00
    0.36146E-07         0.24214E-19         0.00000E+00
    0.36140E-07         0.78231E-19         0.00000E+00
    0.36134E-07         0.32244E-20         0.00000E+00
    0.36125E-07         0.40978E-19         0.00000E+00
    0.36116E-07         0.37253E-19         0.00000E+00
    0.36104E-07         0.20489E-19         0.00000E+00
    0.36092E-07         0.37253E-20         0.00000E+00
    0.36077E-07         0.38435E-19         0.00000E+00
    0.36062E-07         0.31351E-19         0.00000E+00
    0.36045E-07        -0.14901E-19         0.00000E+00
    0.36027E-07         0.22352E-19         0.00000E+00
    0.36008E-07         0.13039E-19         0.00000E+00
    0.35987E-07        -0.57977E-20         0.00000E+00
    0.35965E-07         0.27008E-19         0.00000E+00
    0.35942E-07         0.13039E-19         0.00000E+00
    0.35918E-07         0.13039E-19         0.00000E+00
    0.35893E-07         0.32807E-19         0.00000E+00
    0.35866E-07         0.16681E-19         0.00000E+00
    0.35839E-07         0.18671E-19         0.00000E+00
    0.35811E-07         0.11004E-19         0.00000E+00
    0.35782E-07         0.45336E-19         0.00000E+00
    0.35752E-07         0.65193E-20         0.00000E+00
    0.35722E-07         0.27562E-19         0.00000E+00
    0.35691E-07         0.16764E-19         0.00000E+00
    0.35659E-07        -0.37253E-20         0.00000E+00
    0.35626E-07        -0.11176E-19         0.00000E+00
    0.35593E-07         0.39840E-20         0.00000E+00
    0.35560E-07         0.24634E-19         0.00000E+00
    0.35526E-07         0.16764E-19         0.00000E+00
    0.35491E-07         0.11176E-19         0.00000E+00
    0.35457E-07         0.15239E-19         0.00000E+00
    0.35422E-07         0.74506E-20         0.00000E+00
    0.35387E-07         0.18537E-19         0.00000E+00
    0.35351E-07         0.27940E-19         0.00000E+00
    0.35316E-07         0.22352E-19         0.00000E+00
    0.35281E-07         0.29138E-19         0.00000E+00
    0.35245E-07         0.74506E-20         0.00000E+00
    0.35210E-07         0.19792E-19         0.00000E+00
    0.35175E-07         0.20489E-19         0.00000E+00
    0.35140E-07         0.40978E-19         0.00000E+00
    0.35105E-07        -0.55345E-20         0.00000E+00
    0.35070E-07         0.43536E-20         0.00000E+00
    0.35036E-07         0.65193E-20         0.00000E+00
    0.35002E-07         0.57179E-20         0.00000E+00
    0.34968E-07         0.11988E-19         0.00000E+00
    0.34935E-07         0.27940E-19         0.00000E+00
    0.34902E-07         0.20489E-19         0.00000E+00
    0.34870E-07         0.18626E-19         0.00000E+00
    0.34838E-07         0.29802E-19         0.00000E+00
    0.34807E-07         0.27940E-19         0.00000E+00
    0.34776E-07         0.16344E-19         0.00000E+00
    0.34746E-07         0.20489E-19         0.00000E+00
    0.34717E-07         0.22352E-19         0.00000E+00
    0.34688E-07         0.56270E-20         0.00000E+00
    0.34660E-07         0.18626E-19         0.00000E+00
    0.34632E-07         0.13132E-19         0.00000E+00
    0.34605E-07         0.18626E-20         0.00000E+00
    0.34579E-07         0.73040E-20         0.00000E+00
    0.34554E-07        -0.11176E-19         0.00000E+00
    0.34529E-07         0.13039E-19         0.00000E+00
    0.34506E-07         0.55879E-20         0.00000E+00
    0.34482E-07        -0.44085E-20         0.00000E+00
    0.34460E-07         0.13039E-19         0.00000E+00
    0.34438E-07         0.17061E-19         0.00000E+00
    0.34418E-07         0.14901E-19         0.00000E+00
    0.34397E-07         0.12452E-19         0.00000E+00
    0.34378E-07         0.27008E-19         0.00000E+00
    0.34360E-07         0.11176E-19         0.00000E+00
    0.34342E-07         0.15832E-19         0.00000E+00
    0.34325E-07         0.11176E-19         0.00000E+00
    0.34308E-07         0.40978E-19         0.00000E+00
    0.34293E-07         0.41910E-19         0.00000E+00
    0.34278E-07         0.37253E-19         0.00000E+00
    0.34264E-07         0.43772E-19         0.00000E+00
    0.34250E-07         0.24214E-19         0.00000E+00
    0.34237E-07         0.40978E-19         0.00000E+00
    0.34225E-07         0.26077E-19         0.00000E+00
    0.34214E-07         0.18626E-19         0.00000E+00
    0.34203E-07         0.10407E-19         0.00000E+00
    0.34193E-07         0.26726E-19         0.00000E+00
    0.34183E-07         0.21420E-19         0.00000E+00
    0.34175E-07         0.28629E-19         0.00000E+00
    0.34166E-07         0.23283E-19         0.00000E+00
    0.34159E-07         0.33326E-19         0.00000E+00
    0.34151E-07         0.30086E-19         0.00000E+00
    0.34145E-07         0.25308E-19         0.00000E+00
    0.34139E-07         0.12107E-19         0.00000E+00
    0.34134E-07         0.23283E-19         0.00000E+00
    0.34129E-07         0.37822E-19         0.00000E+00
    0.34124E-07         0.36406E-19         0.00000E+00
    0.34121E-07         0.29802E-19         0.00000E+00
    0.34117E-07         0.25192E-19         0.00000E+00
    0.34115E-07         0.24214E-19         0.00000E+00
    0.34112E-07         0.93132E-21         0.00000E+00
    0.34111E-07         0.11630E-19         0.00000E+00
    0.34109E-07         0.14901E-19         0.00000E+00
    0.34109E-07         0.37253E-20         0.00000E+00
    0.34108E-07        -0.17252E-20         0.00000E+00
    0.36153E-07         0.00000E+00         0.00000E+00
    0.36152E-07         0.33219E-19         0.00000E+00
    0.36150E-07         0.25444E-19         0.00000E+00
    0.36146E-07         0.24863E-19         0.00000E+00
    0.36140E-07         0.82489E-19         0.00000E+00
    0.36134E-07         0.19127E-19         0.00000E+00
    0.36125E-07         0.14432E-19         0.00000E+00
    0.36116E-07         0.59605E-19         0.00000E+00
    0.36104E-07         0.82598E-20         0.00000E+00
    0.36092E-07         0.27940E-19         0.00000E+00
    0.36077E-07         0.35140E-19         0.00000E+00
    0.36062E-07         0.37253E-19         0.00000E+00
    0.36045E-07         0.26456E-19         0.00000E+00
    0.36027E-07         0.33528E-19         0.00000E+00
    0.36008E-07         0.26077E-19         0.00000E+00
    0.35987E-07        -0.16528E-20         0.00000E+00
    0.35965E-07         0.18289E-19         0.00000E+00
    0.35942E-07        -0.93132E-21         0.00000E+00
    0.35918E-07        -0.18626E-20         0.00000E+00
    0.35893E-07         0.10034E-19         0.00000E+00
    0.35866E-07         0.24297E-19         0.00000E+00
    0.35839E-07         0.93132E-20         0.00000E+00
    0.35811E-07         0.93132E-20         0.00000E+00
    0.35782E-07         0.26077E-19         0.00000E+00
    0.35752E-07         0.11602E-19         0.00000E+00
    0.35722E-07         0.16764E-19         0.00000E+00
    0.35691E-07         0.13039E-19         0.00000E+00
    0.35659E-07        -0.55879E-20         0.00000E+00
    0.35626E-07        -0.24214E-19         0.00000E+00
    0.35593E-07        -0.58467E-20         0.00000E+00
    0.35560E-07         0.51176E-21         0.00000E+00
    0.35526E-07         0.74506E-20         0.00000E+00
    0.35491E-07         0.17769E-20         0.00000E+00
    0.35457E-07        -0.22007E-20         0.00000E+00
    0.35422E-07         0.83819E-20         0.00000E+00
    0.35387E-07         0.16764E-19         0.00000E+00
    0.35351E-07         0.20489E-19         0.00000E+00
    0.35316E-07         0.37253E-20         0.00000E+00
    0.35281E-07         0.99778E-20         0.00000E+00
    0.35245E-07         0.21420E-19         0.00000E+00
    0.35210E-07         0.37253E-20         0.00000E+00
    0.35175E-07         0.13039E-19         0.00000E+00
    0.35140E-07         0.29802E-19         0.00000E+00
    0.35105E-07        -0.13092E-19         0.00000E+00
    0.35070E-07         0.11782E-19         0.00000E+00
    0.35036E-07        -0.98655E-20         0.00000E+00
    0.35002E-07        -0.37253E-20         0.00000E+00
    0.34968E-07         0.18626E-20         0.00000E+00
    0.34935E-07         0.70831E-20         0.00000E+00
    0.34902E-07         0.24214E-19         0.00000E+00
    0.34870E-07         0.55879E-20         0.00000E+00
    0.34838E-07         0.19738E-19         0.00000E+00
    0.34807E-07         0.13039E-19         0.00000E+00
    0.34776E-07         0.27940E-19         0.00000E+00
    0.34746E-07         0.18626E-19         0.00000E+00
    0.34717E-07         0.31665E-19         0.00000E+00
    0.34688E-07         0.27549E-20         0.00000E+00
    0.34660E-07         0.26609E-19         0.00000E+00
    0.34632E-07         0.20395E-19         0.00000E+00
    0.34605E-07        -0.18626E-20         0.00000E+00
    0.34579E-07         0.10779E-20         0.00000E+00
    0.34554E-07        -0.20489E-19         0.00000E+00
    0.34529E-07        -0.55879E-20         0.00000E+00
    0.34506E-07        -0.95556E-20         0.00000E+00
    0.34482E-07        -0.37253E-20         0.00000E+00
    0.34460E-07         0.00000E+00         0.00000E+00
    0.34438E-07        -0.30909E-20         0.00000E+00
    0.34418E-07         0.22352E-19         0.00000E+00
    0.34397E-07        -0.27940E-20         0.00000E+00
    0.34378E-07         0.12009E-19         0.00000E+00
    0.34360E-07         0.11176E-19         0.00000E+00
    0.34342E-07        -0.87908E-21         0.00000E+00
    0.34325E-07         0.74506E-20         0.00000E+00
    0.34308E-07         0.33528E-19         0.00000E+00
    0.34293E-07         0.41429E-19         0.00000E+00
    0.34278E-07         0.31665E-19         0.00000E+00
    0.34264E-07         0.21013E-19         0.00000E+00
    0.34250E-07         0.46566E-19         0.00000E+00
    0.34237E-07         0.27940E-19         0.00000E+00
    0.34225E-07         0.26077E-19         0.00000E+00
    0.34214E-07         0.13970E-19         0.00000E+00
    0.34203E-07         0.15832E-19         0.00000E+00
    0.34193E-07         0.20772E-19         0.00000E+00
    0.34183E-07         0.33731E-19         0.00000E+00
    0.34175E-07         0.20731E-19         0.00000E+00
    0.34166E-07         0.27252E-19         0.00000E+00
    0.34159E-07         0.39318E-19         0.00000E+00
    0.34151E-07         0.18343E-19         0.00000E+00
    0.34145E-07         0.18301E-19         0.00000E+00
    0.34139E-07         0.26686E-19         0.00000E+00
    0.34134E-07         0.21544E-19         0.00000E+00
    0.34129E-07         0.27940E-19         0.00000E+00
    0.34124E-07         0.29802E-19         0.00000E+00
    0.34121E-07         0.41109E-19         0.00000E+00
    0.34117E-07         0.17695E-19         0.00000E+00
    0.34115E-07         0.20489E-19         0.00000E+00
    0.34112E-07        -0.92370E-21         0.00000E+00
    0.34111E-07         0.69964E-20         0.00000E+00
    0.34109E-07         0.74506E-20         0.00000E+00
    0.34109E-07         0.00000E+00         0.00000E+00
    0.34108E-07         0.00000E+00         0.00000E+00
    0.36153E-07         0.00000E+00         0.00000E+00
    0.36152E-07         0.48737E-19         0.00000E+00
    0.36150E-07         0.17397E-19         0.00000E+00
    0.36146E-07         0.34093E-19         0.00000E+00
    0.36140E-07         0.62797E-19         0.00000E+00
    0.36134E-07         0.63330E-19         0.00000E+00
    0.36125E-07         0.13976E-19         0.00000E+00
    0.36116E-07         0.44703E-19         0.00000E+00
    0.36104E-07         0.30856E-19         0.00000E+00
    0.36092E-07         0.57742E-19         0.00000E+00
    0.36077E-07         0.13039E-19         0.00000E+00
    0.36062E-07         0.31665E-19         0.00000E+00
    0.36045E-07         0.33702E-19         0.00000E+00
    0.36027E-07         0.46566E-19         0.00000E+00
    0.36008E-07         0.39116E-19         0.00000E+00
    0.35987E-07         0.24214E-19         0.00000E+00
    0.35965E-07        -0.33876E-20         0.00000E+00
    0.35942E-07        -0.79164E-20         0.00000E+00
    0.35918E-07        -0.20489E-19         0.00000E+00
    0.35893E-07         0.13970E-19         0.00000E+00
    0.35866E-07         0.24214E-19         0.00000E+00
    0.35839E-07         0.18626E-20         0.00000E+00
    0.35811E-07         0.11176E-19         0.00000E+00
    0.35782E-07         0.18626E-20         0.00000E+00
    0.35752E-07         0.23362E-19         0.00000E+00
    0.35722E-07         0.14901E-19         0.00000E+00
    0.35691E-07         0.16764E-19         0.00000E+00
    0.35659E-07        -0.93132E-20         0.00000E+00
    0.35626E-07        -0.20489E-19         0.00000E+00
    0.35593E-07         0.21214E-20         0.00000E+00
    0.35560E-07        -0.65193E-20         0.00000E+00
    0.35526E-07         0.18626E-20         0.00000E+00
    0.35491E-07        -0.84556E-21         0.00000E+00
    0.35457E-07        -0.93132E-20         0.00000E+00
    0.35422E-07         0.52467E-20         0.00000E+00
    0.35387E-07         0.17695E-19         0.00000E+00
    0.35351E-07         0.11176E-19         0.00000E+00
    0.35316E-07         0.55879E-20         0.00000E+00
    0.35281E-07         0.83819E-20         0.00000E+00
    0.35245E-07         0.26061E-19         0.00000E+00
    0.35210E-07         0.27940E-20         0.00000E+00
    0.35175E-07         0.24214E-19         0.00000E+00
    0.35140E-07         0.23283E-19         0.00000E+00
    0.35105E-07         0.56414E-20         0.00000E+00
    0.35070E-07         0.10873E-19         0.00000E+00
    0.35036E-07        -0.11176E-19         0.00000E+00
    0.35002E-07        -0.65193E-20         0.00000E+00
    0.34968E-07         0.11887E-21         0.00000E+00
    0.34935E-07         0.18626E-20         0.00000E+00
    0.34902E-07         0.20489E-19         0.00000E+00
    0.34870E-07         0.18626E-20         0.00000E+00
    0.34838E-07         0.19377E-19         0.00000E+00
    0.34807E-07         0.37253E-20         0.00000E+00
    0.34776E-07         0.32085E-19         0.00000E+00
    0.34746E-07         0.16764E-19         0.00000E+00
    0.34717E-07         0.24214E-19         0.00000E+00
    0.34688E-07         0.14901E-19         0.00000E+00
    0.34660E-07         0.19957E-19         0.00000E+00
    0.34632E-07         0.20583E-19         0.00000E+00
    0.34605E-07         0.18626E-20         0.00000E+00
    0.34579E-07        -0.19558E-19         0.00000E+00
    0.34554E-07        -0.24214E-19         0.00000E+00
    0.34529E-07        -0.65193E-20         0.00000E+00
    0.34506E-07        -0.11176E-19         0.00000E+00
    0.34482E-07         0.00000E+00         0.00000E+00
    0.34460E-07        -0.13970E-19         0.00000E+00
    0.34438E-07        -0.18626E-20         0.00000E+00
    0.34418E-07         0.20489E-19         0.00000E+00
    0.34397E-07         0.24496E-20         0.00000E+00
    0.34378E-07         0.55879E-20         0.00000E+00
    0.34360E-07         0.41160E-20         0.00000E+00
    0.34342E-07         0.55879E-20         0.00000E+00
    0.34325E-07         0.23283E-19         0.00000E+00
    0.34308E-07         0.22352E-19         0.00000E+00
    0.34293E-07         0.37282E-19         0.00000E+00
    0.34278E-07         0.20489E-19         0.00000E+00
    0.34264E-07         0.20897E-19         0.00000E+00
    0.34250E-07         0.60536E-19         0.00000E+00
    0.34237E-07         0.11176E-19         0.00000E+00
    0.34225E-07         0.26077E-19         0.00000E+00
    0.34214E-07         0.13646E-19         0.00000E+00
    0.34203E-07         0.26846E-19         0.00000E+00
    0.34193E-07         0.29802E-19         0.00000E+00
    0.34183E-07         0.19354E-19         0.00000E+00
    0.34175E-07         0.20489E-19         0.00000E+00
    0.34166E-07         0.40978E-19         0.00000E+00
    0.34159E-07         0.28669E-19         0.00000E+00
    0.34151E-07         0.31017E-19         0.00000E+00
    0.34145E-07         0.14132E-19         0.00000E+00
    0.34139E-07         0.39116E-19         0.00000E+00
    0.34134E-07         0.26077E-19         0.00000E+00
    0.34129E-07         0.34459E-19         0.00000E+00
    0.34124E-07         0.28871E-19         0.00000E+00
    0.34121E-07         0.29672E-19         0.00000E+00
    0.34117E-07         0.20443E-19         0.00000E+00
    0.34115E-07         0.74506E-20         0.00000E+00
    0.34112E-07         0.83819E-20         0.00000E+00
    0.34111E-07         0.10699E-19         0.00000E+00
    0.34109E-07         0.74506E-20         0.00000E+00
    0.34109E-07         0.74506E-20         0.00000E+00
    0.34108E-07         0.00000E+00         0.00000E+00
    0.36153E-07         0.00000E+00         0.00000E+00
    0.36152E-07         0.33219E-19         0.00000E+00
    0.36150E-07         0.25444E-19         0.00000E+00
    0.36146E-07         0.37902E-19         0.00000E+00
    0.36140E-07         0.19159E-19         0.00000E+00
    0.36134E-07         0.70781E-19         0.00000E+00
    0.36125E-07        -0.46879E-21         0.00000E+00
    0.36116E-07         0.37253E-19         0.00000E+00
    0.36104E-07         0.67864E-19         0.00000E+00
    0.36092E-07         0.42841E-19         0.00000E+00
    0.36077E-07         0.16764E-19         0.00000E+00
    0.36062E-07         0.27940E-19         0.00000E+00
    0.36045E-07         0.41038E-20         0.00000E+00
    0.36027E-07         0.63330E-19         0.00000E+00
    0.36008E-07         0.13039E-19         0.00000E+00
    0.35987E-07         0.25867E-19         0.00000E+00
    0.35965E-07        -0.96509E-20         0.00000E+00
    0.35942E-07         0.13971E-20         0.00000E+00
    0.35918E-07         0.93132E-20         0.00000E+00
    0.35893E-07         0.33738E-19         0.00000E+00
    0.35866E-07         0.74506E-20         0.00000E+00
    0.35839E-07         0.18582E-19         0.00000E+00
    0.35811E-07         0.22352E-19         0.00000E+00
    0.35782E-07        -0.12406E-19         0.00000E+00
    0.35752E-07         0.31160E-19         0.00000E+00
    0.35722E-07         0.18626E-20         0.00000E+00
    0.35691E-07         0.18626E-19         0.00000E+00
    0.35659E-07        -0.37253E-20         0.00000E+00
    0.35626E-07         0.55879E-20         0.00000E+00
    0.35593E-07        -0.77093E-20         0.00000E+00
    0.35560E-07         0.41957E-21         0.00000E+00
    0.35526E-07        -0.55879E-20         0.00000E+00
    0.35491E-07         0.13884E-19         0.00000E+00
    0.35457E-07         0.15246E-20         0.00000E+00
    0.35422E-07         0.87231E-20         0.00000E+00
    0.35387E-07         0.45724E-19         0.00000E+00
    0.35351E-07         0.14901E-19         0.00000E+00
    0.35316E-07         0.14901E-19         0.00000E+00
    0.35281E-07         0.32863E-19         0.00000E+00
    0.35245E-07         0.19574E-19         0.00000E+00
    0.35210E-07         0.15598E-19         0.00000E+00
    0.35175E-07         0.28871E-19         0.00000E+00
    0.35140E-07         0.22548E-19         0.00000E+00
    0.35105E-07         0.12054E-19         0.00000E+00
    0.35070E-07        -0.30300E-21         0.00000E+00
    0.35036E-07         0.55879E-20         0.00000E+00
    0.35002E-07         0.10613E-20         0.00000E+00
    0.34968E-07        -0.66381E-20         0.00000E+00
    0.34935E-07         0.36745E-21         0.00000E+00
    0.34902E-07         0.11176E-19         0.00000E+00
    0.34870E-07         0.18694E-19         0.00000E+00
    0.34838E-07         0.37253E-20         0.00000E+00
    0.34807E-07         0.13039E-19         0.00000E+00
    0.34776E-07         0.20581E-19         0.00000E+00
    0.34746E-07         0.22352E-19         0.00000E+00
    0.34717E-07         0.11176E-19         0.00000E+00
    0.34688E-07         0.18626E-19         0.00000E+00
    0.34660E-07         0.18626E-19         0.00000E+00
    0.34632E-07        -0.66129E-20         0.00000E+00
    0.34605E-07         0.37253E-20         0.00000E+00
    0.34579E-07        -0.24361E-19         0.00000E+00
    0.34554E-07         0.18626E-20         0.00000E+00
    0.34529E-07        -0.20607E-20         0.00000E+00
    0.34506E-07        -0.11176E-19         0.00000E+00
    0.34482E-07        -0.74506E-20         0.00000E+00
    0.34460E-07        -0.26010E-20         0.00000E+00
    0.34438E-07         0.11176E-19         0.00000E+00
    0.34418E-07         0.11176E-19         0.00000E+00
    0.34397E-07         0.18626E-19         0.00000E+00
    0.34378E-07         0.24312E-19         0.00000E+00
    0.34360E-07         0.54065E-21         0.00000E+00
    0.34342E-07         0.25146E-19         0.00000E+00
    0.34325E-07         0.35886E-19         0.00000E+00
    0.34308E-07         0.29802E-19         0.00000E+00
    0.34293E-07         0.34910E-19         0.00000E+00
    0.34278E-07         0.11140E-19         0.00000E+00
    0.34264E-07         0.37253E-19         0.00000E+00
    0.34250E-07         0.54869E-19         0.00000E+00
    0.34237E-07         0.11176E-19         0.00000E+00
    0.34225E-07         0.15832E-19         0.00000E+00
    0.34214E-07         0.18019E-19         0.00000E+00
    0.34203E-07         0.26077E-19         0.00000E+00
    0.34193E-07         0.33528E-19         0.00000E+00
    0.34183E-07         0.18626E-20         0.00000E+00
    0.34175E-07         0.33770E-19         0.00000E+00
    0.34166E-07         0.41910E-19         0.00000E+00
    0.34159E-07         0.20691E-19         0.00000E+00
    0.34151E-07         0.37617E-19         0.00000E+00
    0.34145E-07         0.20652E-19         0.00000E+00
    0.34139E-07         0.33528E-19         0.00000E+00
    0.34134E-07         0.29802E-19         0.00000E+00
    0.34129E-07         0.36683E-19         0.00000E+00
    0.34124E-07         0.19642E-19         0.00000E+00
    0.34121E-07         0.25146E-19         0.00000E+00
    0.34117E-07         0.19604E-19         0.00000E+00
    0.34115E-07         0.11229E-19         0.00000E+00
    0.34112E-07         0.10237E-19         0.00000E+00
    0.34111E-07         0.20489E-19         0.00000E+00
    0.34109E-07        -0.74506E-20         0.00000E+00
    0.34109E-07         0.69353E-20         0.00000E+00
    0.34108E-07         0.00000E+00         0.00000E+00
    0.36153E-07         0.00000E+00         0.00000E+00
    0.36152E-07         0.15209E-19         0.00000E+00
    0.36150E-07         0.26710E-19         0.00000E+00
    0.36146E-07         0.60253E-19         0.00000E+00
    0.36140E-07        -0.53299E-21         0.00000E+00
    0.36134E-07         0.63330E-19         0.00000E+00
    0.36125E-07         0.21883E-19         0.00000E+00
    0.36116E-07         0.37253E-19         0.00000E+00
    0.36104E-07         0.77422E-19         0.00000E+00
    0.36092E-07         0.44703E-19         0.00000E+00
    0.36077E-07         0.29802E-19         0.00000E+00
    0.36062E-07         0.29802E-19         0.00000E+00
    0.36045E-07         0.22730E-19         0.00000E+00
    0.36027E-07         0.20489E-19         0.00000E+00
    0.36008E-07         0.13039E-19         0.00000E+00
    0.35987E-07         0.24424E-19         0.00000E+00
    0.35965E-07         0.31317E-20         0.00000E+00
    0.35942E-07         0.19558E-19         0.00000E+00
    0.35918E-07         0.22352E-19         0.00000E+00
    0.35893E-07         0.19347E-19         0.00000E+00
    0.35866E-07         0.55879E-20         0.00000E+00
    0.35839E-07         0.44748E-19         0.00000E+00
    0.35811E-07         0.24214E-19         0.00000E+00
    0.35782E-07        -0.31268E-20         0.00000E+00
    0.35752E-07        -0.98181E-20         0.00000E+00
    0.35722E-07        -0.83819E-20         0.00000E+00
    0.35691E-07         0.55879E-20         0.00000E+00
    0.35659E-07         0.93132E-21         0.00000E+00
    0.35626E-07         0.93132E-20         0.00000E+00
    0.35593E-07         0.00000E+00         0.00000E+00
    0.35560E-07         0.70310E-20         0.00000E+00
    0.35526E-07        -0.13970E-19         0.00000E+00
    0.35491E-07         0.13124E-19         0.00000E+00
    0.35457E-07         0.33807E-21         0.00000E+00
    0.35422E-07         0.17695E-19         0.00000E+00
    0.35387E-07         0.45672E-20         0.00000E+00
    0.35351E-07         0.31665E-19         0.00000E+00
    0.35316E-07         0.20489E-19         0.00000E+00
    0.35281E-07         0.16497E-19         0.00000E+00
    0.35245E-07         0.11176E-19         0.00000E+00
    0.35210E-07         0.25842E-19         0.00000E+00
    0.35175E-07         0.13523E-19         0.00000E+00
    0.35140E-07         0.17499E-19         0.00000E+00
    0.35105E-07         0.11176E-19         0.00000E+00
    0.35070E-07        -0.65193E-20         0.00000E+00
    0.35036E-07         0.13103E-20         0.00000E+00
    0.35002E-07         0.27940E-20         0.00000E+00
    0.34968E-07         0.26751E-20         0.00000E+00
    0.34935E-07        -0.10048E-19         0.00000E+00
    0.34902E-07         0.74506E-20         0.00000E+00
    0.34870E-07         0.20422E-19         0.00000E+00
    0.34838E-07        -0.27940E-20         0.00000E+00
    0.34807E-07         0.14901E-19         0.00000E+00
    0.34776E-07         0.97330E-20         0.00000E+00
    0.34746E-07         0.16764E-19         0.00000E+00
    0.34717E-07         0.13039E-19         0.00000E+00
    0.34688E-07         0.00000E+00         0.00000E+00
    0.34660E-07         0.12107E-19         0.00000E+00
    0.34632E-07        -0.13039E-19         0.00000E+00
    0.34605E-07        -0.12453E-19         0.00000E+00
    0.34579E-07        -0.42694E-19         0.00000E+00
    0.34554E-07         0.22352E-19         0.00000E+00
    0.34529E-07        -0.73322E-21         0.00000E+00
    0.34506E-07        -0.26077E-19         0.00000E+00
    0.34482E-07        -0.10245E-19         0.00000E+00
    0.34460E-07        -0.39183E-20         0.00000E+00
    0.34438E-07         0.37253E-20         0.00000E+00
    0.34418E-07        -0.93132E-20         0.00000E+00
    0.34397E-07         0.34459E-19         0.00000E+00
    0.34378E-07         0.21420E-19         0.00000E+00
    0.34360E-07         0.87726E-20         0.00000E+00
    0.34342E-07         0.30681E-19         0.00000E+00
    0.34325E-07         0.33964E-19         0.00000E+00
    0.34308E-07         0.27940E-19         0.00000E+00
    0.34293E-07         0.29802E-19         0.00000E+00
    0.34278E-07         0.14937E-19         0.00000E+00
    0.34264E-07         0.40978E-19         0.00000E+00
    0.34250E-07         0.44783E-19         0.00000E+00
    0.34237E-07         0.14901E-19         0.00000E+00
    0.34225E-07         0.11055E-19         0.00000E+00
    0.34214E-07         0.26401E-19         0.00000E+00
    0.34203E-07         0.29802E-19         0.00000E+00
    0.34193E-07         0.24214E-19         0.00000E+00
    0.34183E-07         0.13970E-19         0.00000E+00
    0.34175E-07         0.37011E-19         0.00000E+00
    0.34166E-07         0.15589E-19         0.00000E+00
    0.34159E-07         0.44703E-19         0.00000E+00
    0.34151E-07         0.23283E-19         0.00000E+00
    0.34145E-07         0.32596E-19         0.00000E+00
    0.34139E-07         0.22352E-19         0.00000E+00
    0.34134E-07         0.28063E-19         0.00000E+00
    0.34129E-07         0.31873E-19         0.00000E+00
    0.34124E-07         0.23283E-19         0.00000E+00
    0.34121E-07         0.21551E-19         0.00000E+00
    0.34117E-07         0.20535E-19         0.00000E+00
    0.34115E-07         0.11176E-19         0.00000E+00
    0.34112E-07         0.24230E-19         0.00000E+00
    0.34111E-07         0.10245E-19         0.00000E+00
    0.34109E-07        -0.74506E-20         0.00000E+00
    0.34109E-07        -0.69353E-20         0.00000E+00
    0.34108E-07         0.00000E+00         0.00000E+00
    0.36153E-07         0.00000E+00         0.00000E+00
    0.36152E-07         0.74506E-20         0.00000E+00
    0.36150E-07         0.22352E-19         0.00000E+00
    0.36146E-07         0.59605E-19         0.00000E+00
    0.36140E-07         0.33528E-19         0.00000E+00
    0.36134E-07         0.44703E-19         0.00000E+00
    0.36125E-07         0.85682E-19         0.00000E+00
    0.36116E-07         0.26077E-19         0.00000E+00
    0.36104E-07         0.37253E-19         0.00000E+00
    0.36092E-07         0.52154E-19         0.00000E+00
    0.36077E-07         0.39116E-19         0.00000E+00
    0.36062E-07         0.10559E-19         0.00000E+00
    0.36045E-07         0.22352E-19         0.00000E+00
    0.36027E-07         0.37253E-20         0.00000E+00
    0.36008E-07         0.22352E-19         0.00000E+00
    0.35987E-07         0.12829E-19         0.00000E+00
    0.35965E-07         0.13039E-19         0.00000E+00
    0.35942E-07         0.79161E-20         0.00000E+00
    0.35918E-07         0.18626E-20         0.00000E+00
    0.35893E-07        -0.30044E-20         0.00000E+00
    0.35866E-07         0.00000E+00         0.00000E+00
    0.35839E-07         0.18582E-19         0.00000E+00
    0.35811E-07         0.26249E-19         0.00000E+00
    0.35782E-07        -0.30932E-20         0.00000E+00
    0.35752E-07        -0.14901E-19         0.00000E+00
    0.35722E-07         0.31718E-20         0.00000E+00
    0.35691E-07        -0.93132E-20         0.00000E+00
    0.35659E-07         0.12791E-19         0.00000E+00
    0.35626E-07        -0.93132E-20         0.00000E+00
    0.35593E-07         0.15160E-19         0.00000E+00
    0.35560E-07         0.16252E-19         0.00000E+00
    0.35526E-07        -0.30567E-19         0.00000E+00
    0.35491E-07         0.00000E+00         0.00000E+00
    0.35457E-07         0.93132E-20         0.00000E+00
    0.35422E-07         0.27598E-19         0.00000E+00
    0.35387E-07        -0.19468E-19         0.00000E+00
    0.35351E-07         0.27940E-19         0.00000E+00
    0.35316E-07         0.24214E-19         0.00000E+00
    0.35281E-07         0.66455E-21         0.00000E+00
    0.35245E-07         0.16764E-19         0.00000E+00
    0.35210E-07         0.30037E-19         0.00000E+00
    0.35175E-07         0.20489E-19         0.00000E+00
    0.35140E-07         0.93132E-21         0.00000E+00
    0.35105E-07         0.15832E-19         0.00000E+00
    0.35070E-07         0.60599E-21         0.00000E+00
    0.35036E-07        -0.22417E-20         0.00000E+00
    0.35002E-07         0.26640E-20         0.00000E+00
    0.34968E-07         0.65193E-20         0.00000E+00
    0.34935E-07        -0.85783E-20         0.00000E+00
    0.34902E-07         0.37253E-20         0.00000E+00
    0.34870E-07        -0.18626E-20         0.00000E+00
    0.34838E-07         0.11118E-20         0.00000E+00
    0.34807E-07         0.11176E-19         0.00000E+00
    0.34776E-07         0.18626E-19         0.00000E+00
    0.34746E-07         0.55879E-20         0.00000E+00
    0.34717E-07         0.37253E-20         0.00000E+00
    0.34688E-07         0.55879E-20         0.00000E+00
    0.34660E-07        -0.31931E-20         0.00000E+00
    0.34632E-07        -0.37253E-20         0.00000E+00
    0.34605E-07        -0.21075E-19         0.00000E+00
    0.34579E-07        -0.21567E-19         0.00000E+00
    0.34554E-07         0.93132E-20         0.00000E+00
    0.34529E-07        -0.11176E-19         0.00000E+00
    0.34506E-07        -0.26077E-19         0.00000E+00
    0.34482E-07        -0.99964E-20         0.00000E+00
    0.34460E-07         0.74506E-20         0.00000E+00
    0.34438E-07        -0.18626E-20         0.00000E+00
    0.34418E-07        -0.93132E-20         0.00000E+00
    0.34397E-07         0.42254E-19         0.00000E+00
    0.34378E-07         0.26960E-20         0.00000E+00
    0.34360E-07         0.19558E-19         0.00000E+00
    0.34342E-07         0.27940E-19         0.00000E+00
    0.34325E-07         0.32596E-19         0.00000E+00
    0.34308E-07         0.42841E-19         0.00000E+00
    0.34293E-07         0.26077E-19         0.00000E+00
    0.34278E-07         0.23247E-19         0.00000E+00
    0.34264E-07         0.31665E-19         0.00000E+00
    0.34250E-07         0.31665E-19         0.00000E+00
    0.34237E-07         0.27940E-19         0.00000E+00
    0.34225E-07         0.27251E-19         0.00000E+00
    0.34214E-07         0.24822E-19         0.00000E+00
    0.34203E-07         0.24214E-19         0.00000E+00
    0.34193E-07         0.13687E-19         0.00000E+00
    0.34183E-07         0.30006E-19         0.00000E+00
    0.34175E-07         0.29560E-19         0.00000E+00
    0.34166E-07         0.18626E-19         0.00000E+00
    0.34159E-07         0.49360E-19         0.00000E+00
    0.34151E-07         0.95967E-20         0.00000E+00
    0.34145E-07         0.43447E-19         0.00000E+00
    0.34139E-07         0.13970E-19         0.00000E+00
    0.34134E-07         0.36198E-19         0.00000E+00
    0.34129E-07         0.39116E-19         0.00000E+00
    0.34124E-07         0.29718E-19         0.00000E+00
    0.34121E-07         0.45262E-20         0.00000E+00
    0.34117E-07         0.35390E-19         0.00000E+00
    0.34115E-07         0.55344E-20         0.00000E+00
    0.34112E-07         0.20474E-19         0.00000E+00
    0.34111E-07         0.14085E-20         0.00000E+00
    0.34109E-07         0.16764E-19         0.00000E+00
    0.34109E-07        -0.16764E-19         0.00000E+00
    0.34108E-07         0.00000E+00         0.00000E+00
    0.36153E-07         0.00000E+00         0.00000E+00
    0.36152E-07         0.14901E-19         0.00000E+00
    0.36150E-07         0.44703E-19         0.00000E+00
    0.36146E-07         0.37253E-20         0.00000E+00
    0.36140E-07         0.48429E-19         0.00000E+00
    0.36134E-07         0.48429E-19         0.00000E+00
    0.36125E-07         0.89407E-19         0.00000E+00
    0.36116E-07         0.48429E-19         0.00000E+00
    0.36104E-07        -0.14901E-19         0.00000E+00
    0.36092E-07         0.31665E-19         0.00000E+00
    0.36077E-07         0.22352E-19         0.00000E+00
    0.36062E-07        -0.14599E-19         0.00000E+00
    0.36045E-07         0.13039E-19         0.00000E+00
    0.36027E-07         0.37253E-20         0.00000E+00
    0.36008E-07        -0.13039E-19         0.00000E+00
    0.35987E-07         0.74506E-20         0.00000E+00
    0.35965E-07        -0.18626E-20         0.00000E+00
    0.35942E-07        -0.20023E-19         0.00000E+00
    0.35918E-07        -0.55879E-20         0.00000E+00
    0.35893E-07        -0.23073E-19         0.00000E+00
    0.35866E-07         0.55879E-20         0.00000E+00
    0.35839E-07        -0.37253E-20         0.00000E+00
    0.35811E-07         0.25733E-19         0.00000E+00
    0.35782E-07        -0.26709E-19         0.00000E+00
    0.35752E-07         0.12107E-19         0.00000E+00
    0.35722E-07        -0.74506E-20         0.00000E+00
    0.35691E-07        -0.14901E-19         0.00000E+00
    0.35659E-07         0.49046E-20         0.00000E+00
    0.35626E-07         0.18626E-20         0.00000E+00
    0.35593E-07         0.37253E-20         0.00000E+00
    0.35560E-07         0.65193E-20         0.00000E+00
    0.35526E-07        -0.10245E-19         0.00000E+00
    0.35491E-07         0.00000E+00         0.00000E+00
    0.35457E-07         0.16764E-19         0.00000E+00
    0.35422E-07         0.28281E-19         0.00000E+00
    0.35387E-07         0.36359E-20         0.00000E+00
    0.35351E-07         0.18626E-19         0.00000E+00
    0.35316E-07         0.74506E-20         0.00000E+00
    0.35281E-07         0.21687E-19         0.00000E+00
    0.35245E-07         0.13970E-19         0.00000E+00
    0.35210E-07         0.24214E-19         0.00000E+00
    0.35175E-07         0.26077E-19         0.00000E+00
    0.35140E-07        -0.81855E-20         0.00000E+00
    0.35105E-07         0.14023E-19         0.00000E+00
    0.35070E-07         0.77759E-20         0.00000E+00
    0.35036E-07         0.24150E-20         0.00000E+00
    0.35002E-07        -0.35953E-20         0.00000E+00
    0.34968E-07         0.75695E-20         0.00000E+00
    0.34935E-07         0.00000E+00         0.00000E+00
    0.34902E-07        -0.55879E-20         0.00000E+00
    0.34870E-07        -0.93132E-20         0.00000E+00
    0.34838E-07         0.44761E-20         0.00000E+00
    0.34807E-07         0.11176E-19         0.00000E+00
    0.34776E-07         0.18626E-20         0.00000E+00
    0.34746E-07         0.12107E-19         0.00000E+00
    0.34717E-07        -0.18626E-19         0.00000E+00
    0.34688E-07         0.93132E-20         0.00000E+00
    0.34660E-07        -0.70515E-20         0.00000E+00
    0.34632E-07        -0.17695E-19         0.00000E+00
    0.34605E-07        -0.18972E-19         0.00000E+00
    0.34579E-07         0.15832E-19         0.00000E+00
    0.34554E-07        -0.14901E-19         0.00000E+00
    0.34529E-07        -0.13039E-19         0.00000E+00
    0.34506E-07        -0.11176E-19         0.00000E+00
    0.34482E-07        -0.76987E-20         0.00000E+00
    0.34460E-07         0.93132E-20         0.00000E+00
    0.34438E-07         0.55879E-20         0.00000E+00
    0.34418E-07         0.13970E-19         0.00000E+00
    0.34397E-07         0.37253E-20         0.00000E+00
    0.34378E-07         0.14901E-19         0.00000E+00
    0.34360E-07         0.15442E-19         0.00000E+00
    0.34342E-07         0.26077E-19         0.00000E+00
    0.34325E-07         0.43336E-19         0.00000E+00
    0.34308E-07         0.39116E-19         0.00000E+00
    0.34293E-07         0.26077E-19         0.00000E+00
    0.34278E-07         0.28907E-19         0.00000E+00
    0.34264E-07         0.24214E-19         0.00000E+00
    0.34250E-07         0.26077E-19         0.00000E+00
    0.34237E-07         0.37253E-19         0.00000E+00
    0.34225E-07         0.26077E-19         0.00000E+00
    0.34214E-07         0.11176E-19         0.00000E+00
    0.34203E-07         0.20489E-19         0.00000E+00
    0.34193E-07         0.10527E-19         0.00000E+00
    0.34183E-07         0.31461E-19         0.00000E+00
    0.34175E-07         0.27940E-19         0.00000E+00
    0.34166E-07         0.43772E-19         0.00000E+00
    0.34159E-07         0.40776E-19         0.00000E+00
    0.34151E-07         0.14618E-19         0.00000E+00
    0.34145E-07         0.26402E-19         0.00000E+00
    0.34139E-07         0.12430E-19         0.00000E+00
    0.34134E-07         0.38061E-19         0.00000E+00
    0.34129E-07         0.30526E-19         0.00000E+00
    0.34124E-07         0.23368E-19         0.00000E+00
    0.34121E-07         0.10775E-19         0.00000E+00
    0.34117E-07         0.26962E-19         0.00000E+00
    0.34115E-07         0.13039E-19         0.00000E+00
    0.34112E-07         0.55879E-20         0.00000E+00
    0.34111E-07         0.11630E-19         0.00000E+00
    0.34109E-07         0.29802E-19         0.00000E+00
    0.34109E-07        -0.11176E-19         0.00000E+00
    0.34108E-07        -0.18626E-20         0.00000E+00
    0.36153E-07         0.00000E+00         0.00000E+00
    0.36152E-07         0.11176E-19         0.00000E+00
    0.36150E-07         0.37253E-19         0.00000E+00
    0.36146E-07         0.62367E-20         0.00000E+00
    0.36140E-07         0.40978E-19         0.00000E+00
    0.36134E-07         0.59605E-19         0.00000E+00
    0.36125E-07         0.59136E-19         0.00000E+00
    0.36116E-07         0.52154E-19         0.00000E+00
    0.36104E-07        -0.37253E-20         0.00000E+00
    0.36092E-07         0.13039E-19         0.00000E+00
    0.36077E-07         0.22352E-19         0.00000E+00
    0.36062E-07         0.21771E-20         0.00000E+00
    0.36045E-07         0.33906E-19         0.00000E+00
    0.36027E-07        -0.24214E-19         0.00000E+00
    0.36008E-07        -0.18626E-20         0.00000E+00
    0.35987E-07        -0.37043E-19         0.00000E+00
    0.35965E-07        -0.11176E-19         0.00000E+00
    0.35942E-07        -0.16298E-19         0.00000E+00
    0.35918E-07        -0.16764E-19         0.00000E+00
    0.35893E-07        -0.18626E-19         0.00000E+00
    0.35866E-07         0.22352E-19         0.00000E+00
    0.35839E-07         0.24214E-19         0.00000E+00
    0.35811E-07         0.38973E-20         0.00000E+00
    0.35782E-07        -0.19558E-19         0.00000E+00
    0.35752E-07         0.60144E-20         0.00000E+00
    0.35722E-07        -0.41031E-20         0.00000E+00
    0.35691E-07        -0.37253E-20         0.00000E+00
    0.35659E-07        -0.14901E-19         0.00000E+00
    0.35626E-07         0.11176E-19         0.00000E+00
    0.35593E-07         0.55879E-20         0.00000E+00
    0.35560E-07        -0.29291E-19         0.00000E+00
    0.35526E-07         0.33361E-19         0.00000E+00
    0.35491E-07        -0.11176E-19         0.00000E+00
    0.35457E-07         0.33866E-19         0.00000E+00
    0.35422E-07         0.17354E-19         0.00000E+00
    0.35387E-07        -0.55879E-20         0.00000E+00
    0.35351E-07         0.55879E-20         0.00000E+00
    0.35316E-07         0.74506E-20         0.00000E+00
    0.35281E-07         0.27940E-19         0.00000E+00
    0.35245E-07         0.37093E-20         0.00000E+00
    0.35210E-07         0.20972E-20         0.00000E+00
    0.35175E-07         0.18626E-19         0.00000E+00
    0.35140E-07         0.37253E-20         0.00000E+00
    0.35105E-07         0.46032E-20         0.00000E+00
    0.35070E-07         0.34000E-20         0.00000E+00
    0.35036E-07        -0.21420E-19         0.00000E+00
    0.35002E-07        -0.21225E-20         0.00000E+00
    0.34968E-07        -0.26751E-20         0.00000E+00
    0.34935E-07        -0.14901E-19         0.00000E+00
    0.34902E-07        -0.27940E-19         0.00000E+00
    0.34870E-07         0.00000E+00         0.00000E+00
    0.34838E-07         0.85624E-20         0.00000E+00
    0.34807E-07        -0.18626E-20         0.00000E+00
    0.34776E-07        -0.18626E-19         0.00000E+00
    0.34746E-07        -0.12124E-19         0.00000E+00
    0.34717E-07        -0.16764E-19         0.00000E+00
    0.34688E-07        -0.10245E-19         0.00000E+00
    0.34660E-07        -0.59870E-20         0.00000E+00
    0.34632E-07        -0.32503E-19         0.00000E+00
    0.34605E-07        -0.13039E-19         0.00000E+00
    0.34579E-07         0.48032E-20         0.00000E+00
    0.34554E-07        -0.17695E-19         0.00000E+00
    0.34529E-07        -0.14901E-19         0.00000E+00
    0.34506E-07        -0.22352E-19         0.00000E+00
    0.34482E-07        -0.34771E-20         0.00000E+00
    0.34460E-07        -0.76436E-20         0.00000E+00
    0.34438E-07        -0.46566E-20         0.00000E+00
    0.34418E-07        -0.10762E-20         0.00000E+00
    0.34397E-07        -0.18626E-20         0.00000E+00
    0.34378E-07         0.18626E-20         0.00000E+00
    0.34360E-07         0.24605E-19         0.00000E+00
    0.34342E-07         0.27940E-19         0.00000E+00
    0.34325E-07         0.41414E-19         0.00000E+00
    0.34308E-07         0.20489E-19         0.00000E+00
    0.34293E-07         0.31665E-19         0.00000E+00
    0.34278E-07         0.27940E-19         0.00000E+00
    0.34264E-07         0.35390E-19         0.00000E+00
    0.34250E-07         0.93132E-20         0.00000E+00
    0.34237E-07         0.26077E-19         0.00000E+00
    0.34225E-07         0.21420E-19         0.00000E+00
    0.34214E-07         0.13970E-19         0.00000E+00
    0.34203E-07         0.21420E-19         0.00000E+00
    0.34193E-07         0.18344E-19         0.00000E+00
    0.34183E-07         0.16967E-19         0.00000E+00
    0.34175E-07         0.33528E-19         0.00000E+00
    0.34166E-07         0.47741E-19         0.00000E+00
    0.34159E-07         0.32798E-19         0.00000E+00
    0.34151E-07         0.33163E-19         0.00000E+00
    0.34145E-07         0.10851E-19         0.00000E+00
    0.34139E-07         0.15224E-19         0.00000E+00
    0.34134E-07         0.22352E-19         0.00000E+00
    0.34129E-07         0.23853E-19         0.00000E+00
    0.34124E-07         0.24045E-19         0.00000E+00
    0.34121E-07         0.14370E-19         0.00000E+00
    0.34117E-07         0.15787E-19         0.00000E+00
    0.34115E-07         0.18626E-19         0.00000E+00
    0.34112E-07         0.18626E-19         0.00000E+00
    0.34111E-07         0.15378E-19         0.00000E+00
    0.34109E-07         0.18626E-19         0.00000E+00
    0.34109E-07         0.37253E-20         0.00000E+00
    0.34108E-07         0.20001E-20         0.00000E+00
    0.36153E-07         0.00000E+00         0.00000E+00
    0.36152E-07         0.22352E-19         0.00000E+00
    0.36150E-07         0.22352E-19         0.00000E+00
    0.36146E-07         0.53368E-19         0.00000E+00
    0.36140E-07         0.44703E-19         0.00000E+00
    0.36134E-07         0.63330E-19         0.00000E+00
    0.36125E-07         0.11645E-19         0.00000E+00
    0.36116E-07         0.37253E-19         0.00000E+00
    0.36104E-07         0.29802E-19         0.00000E+00
    0.36092E-07         0.20489E-19         0.00000E+00
    0.36077E-07         0.37253E-20         0.00000E+00
    0.36062E-07         0.26391E-19         0.00000E+00
    0.36045E-07         0.29424E-19         0.00000E+00
    0.36027E-07         0.74044E-20         0.00000E+00
    0.36008E-07         0.16764E-19         0.00000E+00
    0.35987E-07        -0.54017E-19         0.00000E+00
    0.35965E-07         0.55879E-20         0.00000E+00
    0.35942E-07        -0.93132E-20         0.00000E+00
    0.35918E-07        -0.37253E-20         0.00000E+00
    0.35893E-07        -0.22352E-19         0.00000E+00
    0.35866E-07         0.22352E-19         0.00000E+00
    0.35839E-07         0.38145E-20         0.00000E+00
    0.35811E-07         0.20346E-20         0.00000E+00
    0.35782E-07        -0.49559E-20         0.00000E+00
    0.35752E-07        -0.18122E-19         0.00000E+00
    0.35722E-07         0.18626E-20         0.00000E+00
    0.35691E-07        -0.88836E-20         0.00000E+00
    0.35659E-07         0.00000E+00         0.00000E+00
    0.35626E-07        -0.74506E-20         0.00000E+00
    0.35593E-07         0.37253E-20         0.00000E+00
    0.35560E-07        -0.31665E-19         0.00000E+00
    0.35526E-07         0.16597E-19         0.00000E+00
    0.35491E-07        -0.29802E-19         0.00000E+00
    0.35457E-07         0.39116E-19         0.00000E+00
    0.35422E-07         0.18626E-20         0.00000E+00
    0.35387E-07         0.00000E+00         0.00000E+00
    0.35351E-07        -0.55879E-20         0.00000E+00
    0.35316E-07        -0.93132E-20         0.00000E+00
    0.35281E-07         0.00000E+00         0.00000E+00
    0.35245E-07        -0.83659E-20         0.00000E+00
    0.35210E-07        -0.11176E-19         0.00000E+00
    0.35175E-07        -0.37253E-20         0.00000E+00
    0.35140E-07        -0.29903E-20         0.00000E+00
    0.35105E-07        -0.12932E-19         0.00000E+00
    0.35070E-07        -0.93132E-20         0.00000E+00
    0.35036E-07        -0.35011E-19         0.00000E+00
    0.35002E-07        -0.20489E-19         0.00000E+00
    0.34968E-07        -0.16764E-19         0.00000E+00
    0.34935E-07        -0.35390E-19         0.00000E+00
    0.34902E-07        -0.20489E-19         0.00000E+00
    0.34870E-07        -0.19301E-20         0.00000E+00
    0.34838E-07        -0.11356E-19         0.00000E+00
    0.34807E-07        -0.18626E-19         0.00000E+00
    0.34776E-07        -0.20069E-19         0.00000E+00
    0.34746E-07        -0.38184E-19         0.00000E+00
    0.34717E-07        -0.18626E-19         0.00000E+00
    0.34688E-07        -0.55489E-20         0.00000E+00
    0.34660E-07        -0.36322E-19         0.00000E+00
    0.34632E-07        -0.74506E-20         0.00000E+00
    0.34605E-07        -0.29802E-19         0.00000E+00
    0.34579E-07        -0.14901E-19         0.00000E+00
    0.34554E-07        -0.31958E-19         0.00000E+00
    0.34529E-07        -0.29802E-19         0.00000E+00
    0.34506E-07        -0.35390E-19         0.00000E+00
    0.34482E-07        -0.24463E-19         0.00000E+00
    0.34460E-07        -0.35323E-20         0.00000E+00
    0.34438E-07        -0.25780E-19         0.00000E+00
    0.34418E-07        -0.65193E-20         0.00000E+00
    0.34397E-07         0.27940E-20         0.00000E+00
    0.34378E-07        -0.93132E-20         0.00000E+00
    0.34360E-07         0.27940E-19         0.00000E+00
    0.34342E-07         0.13039E-19         0.00000E+00
    0.34325E-07         0.13039E-19         0.00000E+00
    0.34308E-07         0.33528E-19         0.00000E+00
    0.34293E-07         0.22352E-19         0.00000E+00
    0.34278E-07         0.13039E-19         0.00000E+00
    0.34264E-07         0.31665E-19         0.00000E+00
    0.34250E-07         0.37253E-20         0.00000E+00
    0.34237E-07         0.13039E-19         0.00000E+00
    0.34225E-07         0.30612E-19         0.00000E+00
    0.34214E-07         0.12715E-19         0.00000E+00
    0.34203E-07         0.33690E-19         0.00000E+00
    0.34193E-07         0.15184E-19         0.00000E+00
    0.34183E-07         0.23080E-19         0.00000E+00
    0.34175E-07         0.72086E-20         0.00000E+00
    0.34166E-07         0.43772E-19         0.00000E+00
    0.34159E-07         0.17291E-19         0.00000E+00
    0.34151E-07         0.29519E-19         0.00000E+00
    0.34145E-07         0.74506E-20         0.00000E+00
    0.34139E-07         0.29802E-19         0.00000E+00
    0.34134E-07         0.13162E-19         0.00000E+00
    0.34129E-07         0.19920E-19         0.00000E+00
    0.34124E-07         0.22352E-19         0.00000E+00
    0.34121E-07         0.11176E-19         0.00000E+00
    0.34117E-07         0.11176E-19         0.00000E+00
    0.34115E-07         0.16764E-19         0.00000E+00
    0.34112E-07         0.33528E-19         0.00000E+00
    0.34111E-07         0.93132E-20         0.00000E+00
    0.34109E-07         0.37253E-20         0.00000E+00
    0.34109E-07         0.93132E-20         0.00000E+00
    0.34108E-07        -0.13743E-21         0.00000E+00
    0.36153E-07         0.00000E+00         0.00000E+00
    0.36152E-07         0.18626E-19         0.00000E+00
    0.36150E-07         0.18626E-19         0.00000E+00
    0.36146E-07         0.63330E-19         0.00000E+00
    0.36140E-07         0.70781E-19         0.00000E+00
    0.36134E-07         0.52154E-19         0.00000E+00
    0.36125E-07         0.26077E-19         0.00000E+00
    0.36116E-07         0.11176E-19         0.00000E+00
    0.36104E-07         0.44703E-19         0.00000E+00
    0.36092E-07         0.24214E-19         0.00000E+00
    0.36077E-07        -0.11176E-19         0.00000E+00
    0.36062E-07         0.18929E-19         0.00000E+00
    0.36045E-07         0.18626E-19         0.00000E+00
    0.36027E-07         0.37299E-19         0.00000E+00
    0.36008E-07         0.26077E-19         0.00000E+00
    0.35987E-07        -0.13039E-19         0.00000E+00
    0.35965E-07         0.14901E-19         0.00000E+00
    0.35942E-07        -0.41908E-20         0.00000E+00
    0.35918E-07         0.16764E-19         0.00000E+00
    0.35893E-07        -0.37253E-20         0.00000E+00
    0.35866E-07         0.20489E-19         0.00000E+00
    0.35839E-07        -0.38145E-20         0.00000E+00
    0.35811E-07         0.12695E-19         0.00000E+00
    0.35782E-07         0.10245E-19         0.00000E+00
    0.35752E-07        -0.28871E-19         0.00000E+00
    0.35722E-07        -0.37253E-20         0.00000E+00
    0.35691E-07        -0.20919E-19         0.00000E+00
    0.35659E-07         0.13039E-19         0.00000E+00
    0.35626E-07        -0.55879E-20         0.00000E+00
    0.35593E-07        -0.17023E-19         0.00000E+00
    0.35560E-07        -0.13970E-19         0.00000E+00
    0.35526E-07        -0.44898E-20         0.00000E+00
    0.35491E-07         0.37253E-20         0.00000E+00
    0.35457E-07         0.23876E-19         0.00000E+00
    0.35422E-07         0.18036E-19         0.00000E+00
    0.35387E-07         0.55879E-20         0.00000E+00
    0.35351E-07         0.00000E+00         0.00000E+00
    0.35316E-07        -0.24214E-19         0.00000E+00
    0.35281E-07        -0.20489E-19         0.00000E+00
    0.35245E-07        -0.93132E-20         0.00000E+00
    0.35210E-07        -0.18626E-19         0.00000E+00
    0.35175E-07        -0.93132E-20         0.00000E+00
    0.35140E-07        -0.16663E-20         0.00000E+00
    0.35105E-07        -0.12214E-19         0.00000E+00
    0.35070E-07        -0.20792E-19         0.00000E+00
    0.35036E-07        -0.27387E-19         0.00000E+00
    0.35002E-07        -0.17695E-19         0.00000E+00
    0.34968E-07        -0.26077E-19         0.00000E+00
    0.34935E-07        -0.39116E-19         0.00000E+00
    0.34902E-07        -0.93132E-20         0.00000E+00
    0.34870E-07        -0.17952E-20         0.00000E+00
    0.34838E-07        -0.74506E-20         0.00000E+00
    0.34807E-07        -0.26077E-19         0.00000E+00
    0.34776E-07        -0.55879E-20         0.00000E+00
    0.34746E-07        -0.34442E-19         0.00000E+00
    0.34717E-07        -0.31665E-19         0.00000E+00
    0.34688E-07        -0.65583E-20         0.00000E+00
    0.34660E-07        -0.45236E-19         0.00000E+00
    0.34632E-07         0.93132E-21         0.00000E+00
    0.34605E-07        -0.43772E-19         0.00000E+00
    0.34579E-07        -0.35390E-19         0.00000E+00
    0.34554E-07        -0.34166E-19         0.00000E+00
    0.34529E-07        -0.46566E-19         0.00000E+00
    0.34506E-07        -0.29802E-19         0.00000E+00
    0.34482E-07        -0.18626E-19         0.00000E+00
    0.34460E-07        -0.22352E-19         0.00000E+00
    0.34438E-07        -0.32893E-19         0.00000E+00
    0.34418E-07         0.11321E-19         0.00000E+00
    0.34397E-07        -0.20833E-19         0.00000E+00
    0.34378E-07         0.18626E-20         0.00000E+00
    0.34360E-07         0.16764E-19         0.00000E+00
    0.34342E-07        -0.11176E-19         0.00000E+00
    0.34325E-07         0.11176E-19         0.00000E+00
    0.34308E-07         0.24214E-19         0.00000E+00
    0.34293E-07         0.55879E-20         0.00000E+00
    0.34278E-07         0.74506E-20         0.00000E+00
    0.34264E-07         0.11176E-19         0.00000E+00
    0.34250E-07         0.13039E-19         0.00000E+00
    0.34237E-07         0.13039E-19         0.00000E+00
    0.34225E-07         0.20489E-19         0.00000E+00
    0.34214E-07        -0.24704E-20         0.00000E+00
    0.34203E-07         0.26846E-19         0.00000E+00
    0.34193E-07         0.55879E-20         0.00000E+00
    0.34183E-07         0.26077E-19         0.00000E+00
    0.34175E-07         0.10729E-19         0.00000E+00
    0.34166E-07         0.33284E-19         0.00000E+00
    0.34159E-07         0.87859E-20         0.00000E+00
    0.34151E-07         0.19274E-19         0.00000E+00
    0.34145E-07         0.38878E-20         0.00000E+00
    0.34139E-07         0.22352E-19         0.00000E+00
    0.34134E-07         0.12915E-19         0.00000E+00
    0.34129E-07         0.12107E-19         0.00000E+00
    0.34124E-07         0.23283E-19         0.00000E+00
    0.34121E-07         0.15832E-19         0.00000E+00
    0.34117E-07         0.13039E-19         0.00000E+00
    0.34115E-07         0.26077E-19         0.00000E+00
    0.34112E-07         0.35390E-19         0.00000E+00
    0.34111E-07         0.18626E-20         0.00000E+00
    0.34109E-07         0.18626E-20         0.00000E+00
    0.34109E-07         0.16764E-19         0.00000E+00
    0.34108E-07         0.00000E+00         0.00000E+00
    0.36153E-07         0.00000E+00         0.00000E+00
    0.36152E-07        -0.11176E-19         0.00000E+00
    0.36150E-07         0.22352E-19         0.00000E+00
    0.36146E-07         0.73857E-19         0.00000E+00
    0.36140E-07         0.59605E-19         0.00000E+00
    0.36134E-07         0.33528E-19         0.00000E+00
    0.36125E-07         0.19095E-19         0.00000E+00
    0.36116E-07         0.29802E-19         0.00000E+00
    0.36104E-07         0.26077E-19         0.00000E+00
    0.36092E-07         0.11176E-19         0.00000E+00
    0.36077E-07         0.16764E-19         0.00000E+00
    0.36062E-07         0.68337E-20         0.00000E+00
    0.36045E-07         0.46188E-19         0.00000E+00
    0.36027E-07         0.14901E-19         0.00000E+00
    0.36008E-07         0.20489E-19         0.00000E+00
    0.35987E-07         0.72408E-20         0.00000E+00
    0.35965E-07         0.20489E-19         0.00000E+00
    0.35942E-07         0.11641E-19         0.00000E+00
    0.35918E-07        -0.13039E-19         0.00000E+00
    0.35893E-07         0.26077E-19         0.00000E+00
    0.35866E-07        -0.16764E-19         0.00000E+00
    0.35839E-07         0.35390E-19         0.00000E+00
    0.35811E-07         0.57599E-20         0.00000E+00
    0.35782E-07         0.11808E-19         0.00000E+00
    0.35752E-07        -0.23709E-19         0.00000E+00
    0.35722E-07        -0.37253E-20         0.00000E+00
    0.35691E-07        -0.20489E-19         0.00000E+00
    0.35659E-07         0.14901E-19         0.00000E+00
    0.35626E-07         0.13039E-19         0.00000E+00
    0.35593E-07        -0.18626E-19         0.00000E+00
    0.35560E-07         0.32135E-20         0.00000E+00
    0.35526E-07         0.12107E-19         0.00000E+00
    0.35491E-07         0.33528E-19         0.00000E+00
    0.35457E-07         0.20489E-19         0.00000E+00
    0.35422E-07         0.40637E-19         0.00000E+00
    0.35387E-07         0.13039E-19         0.00000E+00
    0.35351E-07        -0.55879E-20         0.00000E+00
    0.35316E-07         0.00000E+00         0.00000E+00
    0.35281E-07        -0.27940E-19         0.00000E+00
    0.35245E-07        -0.37253E-20         0.00000E+00
    0.35210E-07        -0.18861E-19         0.00000E+00
    0.35175E-07        -0.13039E-19         0.00000E+00
    0.35140E-07         0.73496E-21         0.00000E+00
    0.35105E-07         0.37253E-20         0.00000E+00
    0.35070E-07        -0.18626E-19         0.00000E+00
    0.35036E-07        -0.27940E-19         0.00000E+00
    0.35002E-07        -0.10115E-19         0.00000E+00
    0.34968E-07        -0.46566E-19         0.00000E+00
    0.34935E-07        -0.35758E-19         0.00000E+00
    0.34902E-07        -0.93132E-20         0.00000E+00
    0.34870E-07        -0.14901E-19         0.00000E+00
    0.34838E-07         0.74506E-20         0.00000E+00
    0.34807E-07        -0.20489E-19         0.00000E+00
    0.34776E-07         0.88935E-20         0.00000E+00
    0.34746E-07        -0.29802E-19         0.00000E+00
    0.34717E-07        -0.29802E-19         0.00000E+00
    0.34688E-07        -0.18626E-19         0.00000E+00
    0.34660E-07        -0.13039E-19         0.00000E+00
    0.34632E-07        -0.27102E-19         0.00000E+00
    0.34605E-07        -0.30388E-19         0.00000E+00
    0.34579E-07        -0.54948E-19         0.00000E+00
    0.34554E-07        -0.26077E-19         0.00000E+00
    0.34529E-07        -0.43772E-19         0.00000E+00
    0.34506E-07        -0.29802E-19         0.00000E+00
    0.34482E-07        -0.18626E-19         0.00000E+00
    0.34460E-07        -0.39116E-19         0.00000E+00
    0.34438E-07        -0.55879E-20         0.00000E+00
    0.34418E-07        -0.21565E-19         0.00000E+00
    0.34397E-07        -0.14557E-19         0.00000E+00
    0.34378E-07        -0.20489E-19         0.00000E+00
    0.34360E-07         0.93132E-20         0.00000E+00
    0.34342E-07        -0.74506E-20         0.00000E+00
    0.34325E-07         0.18626E-19         0.00000E+00
    0.34308E-07        -0.93132E-20         0.00000E+00
    0.34293E-07         0.00000E+00         0.00000E+00
    0.34278E-07         0.22352E-19         0.00000E+00
    0.34264E-07         0.24214E-19         0.00000E+00
    0.34250E-07         0.55879E-20         0.00000E+00
    0.34237E-07         0.11176E-19         0.00000E+00
    0.34225E-07        -0.11176E-19         0.00000E+00
    0.34214E-07        -0.13039E-19         0.00000E+00
    0.34203E-07         0.37253E-20         0.00000E+00
    0.34193E-07         0.18626E-19         0.00000E+00
    0.34183E-07         0.13039E-19         0.00000E+00
    0.34175E-07         0.21178E-19         0.00000E+00
    0.34166E-07         0.30977E-19         0.00000E+00
    0.34159E-07         0.13039E-19         0.00000E+00
    0.34151E-07         0.15832E-19         0.00000E+00
    0.34145E-07         0.00000E+00         0.00000E+00
    0.34139E-07         0.14256E-19         0.00000E+00
    0.34134E-07         0.22352E-19         0.00000E+00
    0.34129E-07         0.61575E-20         0.00000E+00
    0.34124E-07         0.27093E-19         0.00000E+00
    0.34121E-07         0.32196E-19         0.00000E+00
    0.34117E-07         0.11176E-19         0.00000E+00
    0.34115E-07         0.41910E-19         0.00000E+00
    0.34112E-07         0.74582E-20         0.00000E+00
    0.34111E-07         0.93132E-20         0.00000E+00
    0.34109E-07         0.18626E-20         0.00000E+00
    0.34109E-07         0.14901E-19         0.00000E+00
    0.34108E-07         0.00000E+00         0.00000E+00
    0.36153E-07         0.00000E+00         0.00000E+00
    0.36152E-07        -0.22352E-19         0.00000E+00
    0.36150E-07         0.33528E-19         0.00000E+00
    0.36146E-07         0.59605E-19         0.00000E+00
    0.36140E-07         0.33528E-19         0.00000E+00
    0.36134E-07         0.22352E-19         0.00000E+00
    0.36125E-07         0.37253E-20         0.00000E+00
    0.36116E-07         0.48429E-19         0.00000E+00
    0.36104E-07         0.18626E-19         0.00000E+00
    0.36092E-07         0.13039E-19         0.00000E+00
    0.36077E-07         0.44703E-19         0.00000E+00
    0.36062E-07         0.83819E-20         0.00000E+00
    0.36045E-07         0.42841E-19         0.00000E+00
    0.36027E-07         0.42841E-19         0.00000E+00
    0.36008E-07         0.16764E-19         0.00000E+00
    0.35987E-07         0.37253E-20         0.00000E+00
    0.35965E-07         0.33528E-19         0.00000E+00
    0.35942E-07         0.31199E-19         0.00000E+00
    0.35918E-07         0.00000E+00         0.00000E+00
    0.35893E-07         0.14901E-19         0.00000E+00
    0.35866E-07        -0.29802E-19         0.00000E+00
    0.35839E-07         0.29802E-19         0.00000E+00
    0.35811E-07        -0.74506E-20         0.00000E+00
    0.35782E-07        -0.18626E-20         0.00000E+00
    0.35752E-07        -0.17695E-19         0.00000E+00
    0.35722E-07        -0.14848E-20         0.00000E+00
    0.35691E-07        -0.20489E-19         0.00000E+00
    0.35659E-07         0.13039E-19         0.00000E+00
    0.35626E-07         0.93132E-20         0.00000E+00
    0.35593E-07        -0.55879E-20         0.00000E+00
    0.35560E-07        -0.55879E-20         0.00000E+00
    0.35526E-07         0.14137E-19         0.00000E+00
    0.35491E-07         0.18626E-19         0.00000E+00
    0.35457E-07         0.13039E-19         0.00000E+00
    0.35422E-07         0.25487E-19         0.00000E+00
    0.35387E-07         0.20489E-19         0.00000E+00
    0.35351E-07        -0.18626E-20         0.00000E+00
    0.35316E-07         0.37253E-20         0.00000E+00
    0.35281E-07        -0.55879E-20         0.00000E+00
    0.35245E-07        -0.11176E-19         0.00000E+00
    0.35210E-07        -0.19558E-19         0.00000E+00
    0.35175E-07        -0.16764E-19         0.00000E+00
    0.35140E-07        -0.20489E-19         0.00000E+00
    0.35105E-07        -0.83819E-20         0.00000E+00
    0.35070E-07        -0.22352E-19         0.00000E+00
    0.35036E-07        -0.19558E-19         0.00000E+00
    0.35002E-07        -0.31665E-19         0.00000E+00
    0.34968E-07        -0.39116E-19         0.00000E+00
    0.34935E-07        -0.18626E-19         0.00000E+00
    0.34902E-07        -0.16764E-19         0.00000E+00
    0.34870E-07        -0.11108E-19         0.00000E+00
    0.34838E-07        -0.74506E-20         0.00000E+00
    0.34807E-07        -0.11176E-19         0.00000E+00
    0.34776E-07        -0.18626E-19         0.00000E+00
    0.34746E-07        -0.27940E-19         0.00000E+00
    0.34717E-07        -0.31665E-19         0.00000E+00
    0.34688E-07        -0.35390E-19         0.00000E+00
    0.34660E-07         0.37253E-20         0.00000E+00
    0.34632E-07        -0.22352E-19         0.00000E+00
    0.34605E-07        -0.44703E-19         0.00000E+00
    0.34579E-07        -0.49507E-19         0.00000E+00
    0.34554E-07        -0.40978E-19         0.00000E+00
    0.34529E-07        -0.28138E-19         0.00000E+00
    0.34506E-07        -0.24214E-19         0.00000E+00
    0.34482E-07        -0.20489E-19         0.00000E+00
    0.34460E-07        -0.30734E-19         0.00000E+00
    0.34438E-07         0.18626E-19         0.00000E+00
    0.34418E-07        -0.22352E-19         0.00000E+00
    0.34397E-07        -0.13383E-19         0.00000E+00
    0.34378E-07        -0.26077E-19         0.00000E+00
    0.34360E-07        -0.13039E-19         0.00000E+00
    0.34342E-07         0.00000E+00         0.00000E+00
    0.34325E-07         0.55879E-20         0.00000E+00
    0.34308E-07        -0.16764E-19         0.00000E+00
    0.34293E-07         0.55879E-20         0.00000E+00
    0.34278E-07         0.26077E-19         0.00000E+00
    0.34264E-07         0.29802E-19         0.00000E+00
    0.34250E-07        -0.37253E-20         0.00000E+00
    0.34237E-07         0.93132E-20         0.00000E+00
    0.34225E-07        -0.26077E-19         0.00000E+00
    0.34214E-07         0.00000E+00         0.00000E+00
    0.34203E-07        -0.18626E-20         0.00000E+00
    0.34193E-07         0.20489E-19         0.00000E+00
    0.34183E-07         0.14901E-19         0.00000E+00
    0.34175E-07         0.16074E-19         0.00000E+00
    0.34166E-07         0.21420E-19         0.00000E+00
    0.34159E-07         0.12107E-19         0.00000E+00
    0.34151E-07         0.40330E-19         0.00000E+00
    0.34145E-07         0.00000E+00         0.00000E+00
    0.34139E-07         0.14293E-19         0.00000E+00
    0.34134E-07         0.23283E-19         0.00000E+00
    0.34129E-07         0.93132E-20         0.00000E+00
    0.34124E-07         0.22352E-19         0.00000E+00
    0.34121E-07         0.23283E-19         0.00000E+00
    0.34117E-07         0.27008E-19         0.00000E+00
    0.34115E-07         0.43333E-19         0.00000E+00
    0.34112E-07         0.10245E-19         0.00000E+00
    0.34111E-07         0.74506E-20         0.00000E+00
    0.34109E-07         0.18626E-20         0.00000E+00
    0.34109E-07         0.11176E-19         0.00000E+00
    0.34108E-07         0.00000E+00         0.00000E+00
    0.36153E-07         0.00000E+00         0.00000E+00
    0.36152E-07        -0.37253E-20         0.00000E+00
    0.36150E-07         0.27940E-19         0.00000E+00
    0.36146E-07         0.15550E-19         0.00000E+00
    0.36140E-07         0.40978E-19         0.00000E+00
    0.36134E-07         0.14901E-19         0.00000E+00
    0.36125E-07         0.66586E-19         0.00000E+00
    0.36116E-07         0.37253E-19         0.00000E+00
    0.36104E-07         0.22352E-19         0.00000E+00
    0.36092E-07         0.42841E-19         0.00000E+00
    0.36077E-07         0.13039E-19         0.00000E+00
    0.36062E-07         0.34144E-19         0.00000E+00
    0.36045E-07         0.30181E-19         0.00000E+00
    0.36027E-07         0.61467E-19         0.00000E+00
    0.36008E-07         0.55879E-20         0.00000E+00
    0.35987E-07         0.24214E-19         0.00000E+00
    0.35965E-07         0.40047E-19         0.00000E+00
    0.35942E-07         0.11641E-19         0.00000E+00
    0.35918E-07         0.24214E-19         0.00000E+00
    0.35893E-07        -0.27940E-19         0.00000E+00
    0.35866E-07        -0.11176E-19         0.00000E+00
    0.35839E-07        -0.36807E-20         0.00000E+00
    0.35811E-07         0.24042E-19         0.00000E+00
    0.35782E-07        -0.90140E-20         0.00000E+00
    0.35752E-07         0.11602E-19         0.00000E+00
    0.35722E-07        -0.93132E-20         0.00000E+00
    0.35691E-07        -0.18626E-20         0.00000E+00
    0.35659E-07         0.55879E-20         0.00000E+00
    0.35626E-07        -0.13039E-19         0.00000E+00
    0.35593E-07        -0.93132E-20         0.00000E+00
    0.35560E-07        -0.24214E-19         0.00000E+00
    0.35526E-07         0.65193E-20         0.00000E+00
    0.35491E-07         0.46566E-20         0.00000E+00
    0.35457E-07        -0.18626E-20         0.00000E+00
    0.35422E-07         0.52467E-20         0.00000E+00
    0.35387E-07         0.83819E-20         0.00000E+00
    0.35351E-07         0.74506E-20         0.00000E+00
    0.35316E-07        -0.11176E-19         0.00000E+00
    0.35281E-07         0.37253E-20         0.00000E+00
    0.35245E-07        -0.20489E-19         0.00000E+00
    0.35210E-07        -0.40744E-19         0.00000E+00
    0.35175E-07        -0.17695E-19         0.00000E+00
    0.35140E-07        -0.40047E-19         0.00000E+00
    0.35105E-07        -0.26024E-19         0.00000E+00
    0.35070E-07        -0.43144E-19         0.00000E+00
    0.35036E-07        -0.33149E-19         0.00000E+00
    0.35002E-07        -0.40978E-19         0.00000E+00
    0.34968E-07        -0.31784E-19         0.00000E+00
    0.34935E-07        -0.10808E-19         0.00000E+00
    0.34902E-07        -0.33528E-19         0.00000E+00
    0.34870E-07        -0.56554E-20         0.00000E+00
    0.34838E-07        -0.28871E-19         0.00000E+00
    0.34807E-07        -0.22352E-19         0.00000E+00
    0.34776E-07        -0.44703E-19         0.00000E+00
    0.34746E-07        -0.44703E-19         0.00000E+00
    0.34717E-07        -0.48429E-19         0.00000E+00
    0.34688E-07        -0.55879E-19         0.00000E+00
    0.34660E-07        -0.16764E-19         0.00000E+00
    0.34632E-07        -0.11176E-19         0.00000E+00
    0.34605E-07        -0.54017E-19         0.00000E+00
    0.34579E-07        -0.29802E-19         0.00000E+00
    0.34554E-07        -0.51223E-19         0.00000E+00
    0.34529E-07        -0.35192E-19         0.00000E+00
    0.34506E-07        -0.24214E-19         0.00000E+00
    0.34482E-07        -0.13039E-19         0.00000E+00
    0.34460E-07        -0.76436E-20         0.00000E+00
    0.34438E-07         0.11176E-19         0.00000E+00
    0.34418E-07         0.74506E-20         0.00000E+00
    0.34397E-07        -0.32252E-19         0.00000E+00
    0.34378E-07        -0.11176E-19         0.00000E+00
    0.34360E-07        -0.13039E-19         0.00000E+00
    0.34342E-07         0.37253E-20         0.00000E+00
    0.34325E-07         0.37253E-20         0.00000E+00
    0.34308E-07        -0.12107E-19         0.00000E+00
    0.34293E-07         0.12107E-19         0.00000E+00
    0.34278E-07         0.93132E-20         0.00000E+00
    0.34264E-07         0.13039E-19         0.00000E+00
    0.34250E-07        -0.93132E-20         0.00000E+00
    0.34237E-07         0.37253E-20         0.00000E+00
    0.34225E-07        -0.13039E-19         0.00000E+00
    0.34214E-07         0.35390E-19         0.00000E+00
    0.34203E-07        -0.74506E-20         0.00000E+00
    0.34193E-07         0.16764E-19         0.00000E+00
    0.34183E-07         0.11176E-19         0.00000E+00
    0.34175E-07         0.72086E-20         0.00000E+00
    0.34166E-07         0.25502E-20         0.00000E+00
    0.34159E-07         0.53859E-20         0.00000E+00
    0.34151E-07         0.48429E-19         0.00000E+00
    0.34145E-07         0.29965E-19         0.00000E+00
    0.34139E-07         0.15832E-19         0.00000E+00
    0.34134E-07         0.27132E-19         0.00000E+00
    0.34129E-07         0.10245E-19         0.00000E+00
    0.34124E-07         0.34459E-19         0.00000E+00
    0.34121E-07         0.17164E-19         0.00000E+00
    0.34117E-07         0.41955E-19         0.00000E+00
    0.34115E-07         0.33528E-19         0.00000E+00
    0.34112E-07         0.15825E-19         0.00000E+00
    0.34111E-07         0.18626E-19         0.00000E+00
    0.34109E-07         0.00000E+00         0.00000E+00
    0.34109E-07         0.13039E-19         0.00000E+00
    0.34108E-07         0.00000E+00         0.00000E+00
    0.36153E-07         0.00000E+00         0.00000E+00
    0.36152E-07         0.23906E-19         0.00000E+00
    0.36150E-07         0.29170E-19         0.00000E+00
    0.36146E-07         0.27291E-19         0.00000E+00
    0.36140E-07         0.43374E-19         0.00000E+00
    0.36134E-07         0.33528E-19         0.00000E+00
    0.36125E-07         0.74975E-19         0.00000E+00
    0.36116E-07         0.67055E-19         0.00000E+00
    0.36104E-07         0.23161E-19         0.00000E+00
    0.36092E-07         0.37253E-19         0.00000E+00
    0.36077E-07        -0.93132E-20         0.00000E+00
    0.36062E-07         0.43772E-19         0.00000E+00
    0.36045E-07         0.44325E-19         0.00000E+00
    0.36027E-07         0.33528E-19         0.00000E+00
    0.36008E-07        -0.55879E-20         0.00000E+00
    0.35987E-07         0.33528E-19         0.00000E+00
    0.35965E-07         0.33190E-19         0.00000E+00
    0.35942E-07        -0.18626E-20         0.00000E+00
    0.35918E-07         0.74506E-20         0.00000E+00
    0.35893E-07        -0.52154E-19         0.00000E+00
    0.35866E-07        -0.37253E-20         0.00000E+00
    0.35839E-07        -0.44601E-22         0.00000E+00
    0.35811E-07         0.46566E-19         0.00000E+00
    0.35782E-07        -0.15200E-19         0.00000E+00
    0.35752E-07         0.23788E-19         0.00000E+00
    0.35722E-07        -0.22352E-19         0.00000E+00
    0.35691E-07         0.31665E-19         0.00000E+00
    0.35659E-07        -0.14901E-19         0.00000E+00
    0.35626E-07        -0.74506E-20         0.00000E+00
    0.35593E-07        -0.22352E-19         0.00000E+00
    0.35560E-07        -0.23283E-19         0.00000E+00
    0.35526E-07        -0.12274E-19         0.00000E+00
    0.35491E-07         0.73648E-20         0.00000E+00
    0.35457E-07        -0.11514E-19         0.00000E+00
    0.35422E-07         0.00000E+00         0.00000E+00
    0.35387E-07         0.38147E-20         0.00000E+00
    0.35351E-07         0.93132E-20         0.00000E+00
    0.35316E-07        -0.33010E-19         0.00000E+00
    0.35281E-07        -0.18626E-19         0.00000E+00
    0.35245E-07        -0.20489E-19         0.00000E+00
    0.35210E-07        -0.40281E-19         0.00000E+00
    0.35175E-07        -0.33081E-19         0.00000E+00
    0.35140E-07        -0.36125E-19         0.00000E+00
    0.35105E-07        -0.27993E-19         0.00000E+00
    0.35070E-07        -0.27940E-19         0.00000E+00
    0.35036E-07        -0.49912E-19         0.00000E+00
    0.35002E-07        -0.25947E-19         0.00000E+00
    0.34968E-07        -0.51223E-19         0.00000E+00
    0.34935E-07        -0.32032E-19         0.00000E+00
    0.34902E-07        -0.29802E-19         0.00000E+00
    0.34870E-07        -0.25078E-19         0.00000E+00
    0.34838E-07        -0.30914E-19         0.00000E+00
    0.34807E-07        -0.46566E-19         0.00000E+00
    0.34776E-07        -0.42841E-19         0.00000E+00
    0.34746E-07        -0.39116E-19         0.00000E+00
    0.34717E-07        -0.48429E-19         0.00000E+00
    0.34688E-07        -0.31665E-19         0.00000E+00
    0.34660E-07        -0.29802E-19         0.00000E+00
    0.34632E-07        -0.34459E-19         0.00000E+00
    0.34605E-07        -0.28871E-19         0.00000E+00
    0.34579E-07        -0.32596E-19         0.00000E+00
    0.34554E-07        -0.24853E-19         0.00000E+00
    0.34529E-07        -0.48627E-19         0.00000E+00
    0.34506E-07        -0.55879E-20         0.00000E+00
    0.34482E-07        -0.15832E-19         0.00000E+00
    0.34460E-07        -0.26010E-20         0.00000E+00
    0.34438E-07        -0.58848E-20         0.00000E+00
    0.34418E-07        -0.43668E-20         0.00000E+00
    0.34397E-07        -0.26077E-19         0.00000E+00
    0.34378E-07         0.38233E-20         0.00000E+00
    0.34360E-07         0.70599E-20         0.00000E+00
    0.34342E-07         0.37253E-20         0.00000E+00
    0.34325E-07         0.93132E-20         0.00000E+00
    0.34308E-07        -0.18551E-20         0.00000E+00
    0.34293E-07        -0.69994E-20         0.00000E+00
    0.34278E-07        -0.93132E-20         0.00000E+00
    0.34264E-07        -0.37253E-20         0.00000E+00
    0.34250E-07         0.18626E-20         0.00000E+00
    0.34237E-07        -0.13039E-19         0.00000E+00
    0.34225E-07         0.11176E-19         0.00000E+00
    0.34214E-07         0.20489E-19         0.00000E+00
    0.34203E-07         0.11176E-19         0.00000E+00
    0.34193E-07         0.16764E-19         0.00000E+00
    0.34183E-07         0.65193E-20         0.00000E+00
    0.34175E-07         0.20731E-19         0.00000E+00
    0.34166E-07        -0.65193E-20         0.00000E+00
    0.34159E-07         0.33730E-19         0.00000E+00
    0.34151E-07         0.26077E-19         0.00000E+00
    0.34145E-07         0.41910E-19         0.00000E+00
    0.34139E-07         0.32273E-19         0.00000E+00
    0.34134E-07         0.22475E-19         0.00000E+00
    0.34129E-07         0.15471E-19         0.00000E+00
    0.34124E-07         0.28956E-19         0.00000E+00
    0.34121E-07         0.38715E-19         0.00000E+00
    0.34117E-07         0.35390E-19         0.00000E+00
    0.34115E-07         0.26077E-19         0.00000E+00
    0.34112E-07         0.74582E-20         0.00000E+00
    0.34111E-07         0.26077E-19         0.00000E+00
    0.34109E-07         0.93132E-20         0.00000E+00
    0.34109E-07        -0.18626E-20         0.00000E+00
    0.34108E-07         0.00000E+00         0.00000E+00
    0.36153E-07         0.00000E+00         0.00000E+00
    0.36152E-07         0.21106E-19         0.00000E+00
    0.36150E-07         0.29205E-19         0.00000E+00
    0.36146E-07         0.50940E-19         0.00000E+00
    0.36140E-07         0.32462E-19         0.00000E+00
    0.36134E-07         0.52154E-19         0.00000E+00
    0.36125E-07         0.62861E-19         0.00000E+00
    0.36116E-07         0.70781E-19         0.00000E+00
    0.36104E-07         0.41222E-19         0.00000E+00
    0.36092E-07        -0.11176E-19         0.00000E+00
    0.36077E-07         0.74506E-20         0.00000E+00
    0.36062E-07         0.50920E-19         0.00000E+00
    0.36045E-07         0.19005E-19         0.00000E+00
    0.36027E-07         0.29802E-19         0.00000E+00
    0.36008E-07         0.14901E-19         0.00000E+00
    0.35987E-07         0.39325E-19         0.00000E+00
    0.35965E-07        -0.30499E-20         0.00000E+00
    0.35942E-07         0.24214E-19         0.00000E+00
    0.35918E-07         0.13970E-19         0.00000E+00
    0.35893E-07        -0.37253E-19         0.00000E+00
    0.35866E-07        -0.26077E-19         0.00000E+00
    0.35839E-07         0.55879E-20         0.00000E+00
    0.35811E-07         0.10589E-19         0.00000E+00
    0.35782E-07         0.52551E-20         0.00000E+00
    0.35752E-07         0.78770E-20         0.00000E+00
    0.35722E-07        -0.96910E-20         0.00000E+00
    0.35691E-07         0.22352E-19         0.00000E+00
    0.35659E-07        -0.16764E-19         0.00000E+00
    0.35626E-07         0.00000E+00         0.00000E+00
    0.35593E-07        -0.22352E-19         0.00000E+00
    0.35560E-07         0.33057E-20         0.00000E+00
    0.35526E-07        -0.17695E-19         0.00000E+00
    0.35491E-07         0.76221E-20         0.00000E+00
    0.35457E-07        -0.18882E-19         0.00000E+00
    0.35422E-07        -0.37253E-20         0.00000E+00
    0.35387E-07         0.82925E-20         0.00000E+00
    0.35351E-07         0.11176E-19         0.00000E+00
    0.35316E-07        -0.33114E-19         0.00000E+00
    0.35281E-07        -0.31665E-19         0.00000E+00
    0.35245E-07        -0.16764E-19         0.00000E+00
    0.35210E-07        -0.34224E-19         0.00000E+00
    0.35175E-07        -0.51669E-19         0.00000E+00
    0.35140E-07        -0.50488E-19         0.00000E+00
    0.35105E-07        -0.29749E-19         0.00000E+00
    0.35070E-07        -0.31990E-19         0.00000E+00
    0.35036E-07        -0.44530E-19         0.00000E+00
    0.35002E-07        -0.46826E-19         0.00000E+00
    0.34968E-07        -0.50173E-19         0.00000E+00
    0.34935E-07        -0.42473E-19         0.00000E+00
    0.34902E-07        -0.39116E-19         0.00000E+00
    0.34870E-07        -0.43840E-19         0.00000E+00
    0.34838E-07        -0.35210E-19         0.00000E+00
    0.34807E-07        -0.33528E-19         0.00000E+00
    0.34776E-07        -0.37253E-19         0.00000E+00
    0.34746E-07        -0.16764E-19         0.00000E+00
    0.34717E-07        -0.16764E-19         0.00000E+00
    0.34688E-07        -0.26077E-19         0.00000E+00
    0.34660E-07        -0.20489E-19         0.00000E+00
    0.34632E-07        -0.37159E-19         0.00000E+00
    0.34605E-07        -0.77959E-20         0.00000E+00
    0.34579E-07        -0.22205E-19         0.00000E+00
    0.34554E-07        -0.40184E-20         0.00000E+00
    0.34529E-07        -0.35192E-19         0.00000E+00
    0.34506E-07         0.14659E-19         0.00000E+00
    0.34482E-07        -0.99964E-20         0.00000E+00
    0.34460E-07        -0.12300E-19         0.00000E+00
    0.34438E-07         0.15251E-20         0.00000E+00
    0.34418E-07        -0.11466E-19         0.00000E+00
    0.34397E-07         0.00000E+00         0.00000E+00
    0.34378E-07        -0.19606E-20         0.00000E+00
    0.34360E-07         0.41160E-20         0.00000E+00
    0.34342E-07         0.37253E-20         0.00000E+00
    0.34325E-07         0.46566E-20         0.00000E+00
    0.34308E-07         0.14894E-19         0.00000E+00
    0.34293E-07        -0.13490E-19         0.00000E+00
    0.34278E-07        -0.37253E-20         0.00000E+00
    0.34264E-07        -0.93132E-20         0.00000E+00
    0.34250E-07         0.93132E-20         0.00000E+00
    0.34237E-07        -0.37253E-20         0.00000E+00
    0.34225E-07         0.16764E-19         0.00000E+00
    0.34214E-07         0.13039E-19         0.00000E+00
    0.34203E-07         0.26077E-19         0.00000E+00
    0.34193E-07         0.20489E-19         0.00000E+00
    0.34183E-07         0.20693E-19         0.00000E+00
    0.34175E-07         0.18384E-19         0.00000E+00
    0.34166E-07         0.21064E-20         0.00000E+00
    0.34159E-07         0.24012E-19         0.00000E+00
    0.34151E-07         0.13970E-19         0.00000E+00
    0.34145E-07         0.32271E-19         0.00000E+00
    0.34139E-07         0.56525E-19         0.00000E+00
    0.34134E-07         0.14654E-19         0.00000E+00
    0.34129E-07         0.18419E-19         0.00000E+00
    0.34124E-07         0.35562E-20         0.00000E+00
    0.34121E-07         0.35791E-19         0.00000E+00
    0.34117E-07         0.16718E-19         0.00000E+00
    0.34115E-07         0.15340E-19         0.00000E+00
    0.34112E-07         0.33520E-19         0.00000E+00
    0.34111E-07         0.55879E-20         0.00000E+00
    0.34109E-07         0.14901E-19         0.00000E+00
    0.34109E-07        -0.74506E-20         0.00000E+00
    0.34108E-07         0.00000E+00         0.00000E+00
    0.36153E-07         0.00000E+00         0.00000E+00
    0.36152E-07         0.14284E-19         0.00000E+00
    0.36150E-07         0.52751E-19         0.00000E+00
    0.36146E-07         0.23566E-19         0.00000E+00
    0.36140E-07         0.29006E-19         0.00000E+00
    0.36134E-07         0.48429E-19         0.00000E+00
    0.36125E-07         0.63799E-19         0.00000E+00
    0.36116E-07         0.48429E-19         0.00000E+00
    0.36104E-07         0.35146E-19         0.00000E+00
    0.36092E-07         0.10990E-19         0.00000E+00
    0.36077E-07         0.93132E-20         0.00000E+00
    0.36062E-07         0.34761E-19         0.00000E+00
    0.36045E-07        -0.17142E-19         0.00000E+00
    0.36027E-07         0.27940E-19         0.00000E+00
    0.36008E-07         0.35390E-19         0.00000E+00
    0.35987E-07         0.24005E-19         0.00000E+00
    0.35965E-07        -0.17439E-19         0.00000E+00
    0.35942E-07         0.10245E-19         0.00000E+00
    0.35918E-07        -0.99065E-20         0.00000E+00
    0.35893E-07        -0.24214E-19         0.00000E+00
    0.35866E-07        -0.48429E-19         0.00000E+00
    0.35839E-07        -0.22352E-19         0.00000E+00
    0.35811E-07         0.17351E-19         0.00000E+00
    0.35782E-07         0.12641E-20         0.00000E+00
    0.35752E-07        -0.20916E-19         0.00000E+00
    0.35722E-07        -0.55879E-20         0.00000E+00
    0.35691E-07        -0.11176E-19         0.00000E+00
    0.35659E-07        -0.37253E-20         0.00000E+00
    0.35626E-07        -0.55879E-20         0.00000E+00
    0.35593E-07        -0.93132E-20         0.00000E+00
    0.35560E-07         0.88015E-20         0.00000E+00
    0.35526E-07        -0.21254E-19         0.00000E+00
    0.35491E-07         0.75979E-21         0.00000E+00
    0.35457E-07        -0.14646E-19         0.00000E+00
    0.35422E-07         0.12107E-19         0.00000E+00
    0.35387E-07         0.37253E-20         0.00000E+00
    0.35351E-07         0.54258E-20         0.00000E+00
    0.35316E-07        -0.69327E-20         0.00000E+00
    0.35281E-07        -0.27940E-19         0.00000E+00
    0.35245E-07        -0.14901E-19         0.00000E+00
    0.35210E-07        -0.38653E-19         0.00000E+00
    0.35175E-07        -0.54017E-19         0.00000E+00
    0.35140E-07        -0.57742E-19         0.00000E+00
    0.35105E-07        -0.29856E-19         0.00000E+00
    0.35070E-07        -0.63005E-19         0.00000E+00
    0.35036E-07        -0.41151E-19         0.00000E+00
    0.35002E-07        -0.77040E-19         0.00000E+00
    0.34968E-07        -0.40166E-19         0.00000E+00
    0.34935E-07        -0.78231E-19         0.00000E+00
    0.34902E-07        -0.20489E-19         0.00000E+00
    0.34870E-07        -0.42841E-19         0.00000E+00
    0.34838E-07        -0.46566E-19         0.00000E+00
    0.34807E-07        -0.14901E-19         0.00000E+00
    0.34776E-07        -0.33528E-19         0.00000E+00
    0.34746E-07        -0.16764E-19         0.00000E+00
    0.34717E-07        -0.74506E-20         0.00000E+00
    0.34688E-07        -0.39116E-19         0.00000E+00
    0.34660E-07        -0.20489E-19         0.00000E+00
    0.34632E-07        -0.25239E-19         0.00000E+00
    0.34605E-07        -0.13624E-19         0.00000E+00
    0.34579E-07         0.82353E-20         0.00000E+00
    0.34554E-07        -0.37253E-20         0.00000E+00
    0.34529E-07        -0.48547E-20         0.00000E+00
    0.34506E-07        -0.34829E-20         0.00000E+00
    0.34482E-07         0.78856E-20         0.00000E+00
    0.34460E-07         0.13424E-19         0.00000E+00
    0.34438E-07         0.18033E-19         0.00000E+00
    0.34418E-07        -0.54430E-20         0.00000E+00
    0.34397E-07         0.00000E+00         0.00000E+00
    0.34378E-07        -0.82839E-20         0.00000E+00
    0.34360E-07         0.13039E-19         0.00000E+00
    0.34342E-07        -0.37253E-20         0.00000E+00
    0.34325E-07         0.98086E-20         0.00000E+00
    0.34308E-07         0.16771E-19         0.00000E+00
    0.34293E-07         0.15352E-19         0.00000E+00
    0.34278E-07         0.74506E-20         0.00000E+00
    0.34264E-07        -0.18626E-20         0.00000E+00
    0.34250E-07         0.18626E-20         0.00000E+00
    0.34237E-07         0.37253E-20         0.00000E+00
    0.34225E-07         0.13039E-19         0.00000E+00
    0.34214E-07         0.22352E-19         0.00000E+00
    0.34203E-07         0.22352E-19         0.00000E+00
    0.34193E-07         0.33528E-19         0.00000E+00
    0.34183E-07         0.17492E-19         0.00000E+00
    0.34175E-07         0.24198E-21         0.00000E+00
    0.34166E-07         0.17451E-19         0.00000E+00
    0.34159E-07         0.57899E-20         0.00000E+00
    0.34151E-07         0.14618E-19         0.00000E+00
    0.34145E-07         0.22677E-19         0.00000E+00
    0.34139E-07         0.34136E-19         0.00000E+00
    0.34134E-07         0.30049E-19         0.00000E+00
    0.34129E-07         0.10452E-19         0.00000E+00
    0.34124E-07         0.20658E-19         0.00000E+00
    0.34121E-07         0.21020E-19         0.00000E+00
    0.34117E-07         0.20535E-19         0.00000E+00
    0.34115E-07         0.20050E-19         0.00000E+00
    0.34112E-07         0.29802E-19         0.00000E+00
    0.34111E-07         0.13493E-19         0.00000E+00
    0.34109E-07         0.16764E-19         0.00000E+00
    0.34109E-07        -0.11176E-19         0.00000E+00
    0.34108E-07         0.00000E+00         0.00000E+00
    0.36153E-07         0.00000E+00         0.00000E+00
    0.36152E-07        -0.18318E-19         0.00000E+00
    0.36150E-07         0.36023E-19         0.00000E+00
    0.36146E-07         0.43490E-19         0.00000E+00
    0.36140E-07         0.18093E-19         0.00000E+00
    0.36134E-07         0.44703E-19         0.00000E+00
    0.36125E-07         0.40509E-19         0.00000E+00
    0.36116E-07         0.29802E-19         0.00000E+00
    0.36104E-07         0.42032E-19         0.00000E+00
    0.36092E-07         0.15087E-19         0.00000E+00
    0.36077E-07         0.74506E-20         0.00000E+00
    0.36062E-07        -0.15518E-19         0.00000E+00
    0.36045E-07        -0.25699E-19         0.00000E+00
    0.36027E-07        -0.13039E-19         0.00000E+00
    0.36008E-07         0.20489E-19         0.00000E+00
    0.35987E-07         0.20489E-19         0.00000E+00
    0.35965E-07        -0.21083E-19         0.00000E+00
    0.35942E-07        -0.13504E-19         0.00000E+00
    0.35918E-07        -0.43179E-19         0.00000E+00
    0.35893E-07        -0.14901E-19         0.00000E+00
    0.35866E-07        -0.44703E-19         0.00000E+00
    0.35839E-07        -0.26077E-19         0.00000E+00
    0.35811E-07         0.31837E-19         0.00000E+00
    0.35782E-07        -0.24947E-20         0.00000E+00
    0.35752E-07        -0.16337E-19         0.00000E+00
    0.35722E-07        -0.52101E-20         0.00000E+00
    0.35691E-07        -0.18626E-20         0.00000E+00
    0.35659E-07         0.00000E+00         0.00000E+00
    0.35626E-07         0.18626E-20         0.00000E+00
    0.35593E-07        -0.18626E-20         0.00000E+00
    0.35560E-07        -0.74506E-20         0.00000E+00
    0.35526E-07         0.27940E-20         0.00000E+00
    0.35491E-07         0.56737E-20         0.00000E+00
    0.35457E-07         0.11514E-19         0.00000E+00
    0.35422E-07         0.28281E-19         0.00000E+00
    0.35387E-07        -0.37253E-20         0.00000E+00
    0.35351E-07         0.16218E-21         0.00000E+00
    0.35316E-07         0.13452E-19         0.00000E+00
    0.35281E-07        -0.22352E-19         0.00000E+00
    0.35245E-07        -0.55879E-20         0.00000E+00
    0.35210E-07        -0.42372E-19         0.00000E+00
    0.35175E-07        -0.37253E-19         0.00000E+00
    0.35140E-07        -0.27940E-19         0.00000E+00
    0.35105E-07        -0.38131E-19         0.00000E+00
    0.35070E-07        -0.49988E-19         0.00000E+00
    0.35036E-07        -0.27766E-19         0.00000E+00
    0.35002E-07        -0.67315E-19         0.00000E+00
    0.34968E-07        -0.46566E-19         0.00000E+00
    0.34935E-07        -0.80094E-19         0.00000E+00
    0.34902E-07        -0.11176E-19         0.00000E+00
    0.34870E-07        -0.31665E-19         0.00000E+00
    0.34838E-07        -0.48429E-19         0.00000E+00
    0.34807E-07        -0.13039E-19         0.00000E+00
    0.34776E-07        -0.26077E-19         0.00000E+00
    0.34746E-07        -0.37253E-19         0.00000E+00
    0.34717E-07        -0.26077E-19         0.00000E+00
    0.34688E-07        -0.63330E-19         0.00000E+00
    0.34660E-07        -0.39116E-19         0.00000E+00
    0.34632E-07        -0.40978E-19         0.00000E+00
    0.34605E-07        -0.34459E-19         0.00000E+00
    0.34579E-07        -0.74506E-20         0.00000E+00
    0.34554E-07        -0.11176E-19         0.00000E+00
    0.34529E-07         0.65193E-20         0.00000E+00
    0.34506E-07        -0.20489E-19         0.00000E+00
    0.34482E-07         0.24816E-21         0.00000E+00
    0.34460E-07         0.13777E-19         0.00000E+00
    0.34438E-07        -0.62224E-20         0.00000E+00
    0.34418E-07        -0.66641E-20         0.00000E+00
    0.34397E-07        -0.14901E-19         0.00000E+00
    0.34378E-07        -0.28920E-20         0.00000E+00
    0.34360E-07         0.37253E-20         0.00000E+00
    0.34342E-07        -0.14901E-19         0.00000E+00
    0.34325E-07         0.78865E-20         0.00000E+00
    0.34308E-07         0.15825E-19         0.00000E+00
    0.34293E-07         0.13519E-19         0.00000E+00
    0.34278E-07         0.00000E+00         0.00000E+00
    0.34264E-07         0.00000E+00         0.00000E+00
    0.34250E-07         0.74506E-20         0.00000E+00
    0.34237E-07        -0.93132E-20         0.00000E+00
    0.34225E-07         0.13039E-19         0.00000E+00
    0.34214E-07        -0.74506E-20         0.00000E+00
    0.34203E-07         0.14901E-19         0.00000E+00
    0.34193E-07         0.22352E-19         0.00000E+00
    0.34183E-07         0.11176E-19         0.00000E+00
    0.34175E-07         0.22352E-19         0.00000E+00
    0.34166E-07         0.13039E-19         0.00000E+00
    0.34159E-07         0.15630E-19         0.00000E+00
    0.34151E-07         0.30086E-19         0.00000E+00
    0.34145E-07         0.18464E-19         0.00000E+00
    0.34139E-07         0.74506E-20         0.00000E+00
    0.34134E-07         0.51907E-19         0.00000E+00
    0.34129E-07         0.16194E-19         0.00000E+00
    0.34124E-07         0.20320E-19         0.00000E+00
    0.34121E-07         0.12107E-19         0.00000E+00
    0.34117E-07         0.25146E-19         0.00000E+00
    0.34115E-07         0.30241E-19         0.00000E+00
    0.34112E-07         0.23283E-19         0.00000E+00
    0.34111E-07         0.25623E-19         0.00000E+00
    0.34109E-07         0.13039E-19         0.00000E+00
    0.34109E-07        -0.11176E-19         0.00000E+00
    0.34108E-07         0.00000E+00         0.00000E+00
    0.36153E-07         0.00000E+00         0.00000E+00
    0.36152E-07        -0.29802E-19         0.00000E+00
    0.36150E-07         0.26077E-19         0.00000E+00
    0.36146E-07         0.51505E-19         0.00000E+00
    0.36140E-07         0.29802E-19         0.00000E+00
    0.36134E-07         0.37253E-19         0.00000E+00
    0.36125E-07         0.19095E-19         0.00000E+00
    0.36116E-07         0.29802E-19         0.00000E+00
    0.36104E-07         0.26077E-19         0.00000E+00
    0.36092E-07        -0.24214E-19         0.00000E+00
    0.36077E-07        -0.18626E-20         0.00000E+00
    0.36062E-07        -0.44703E-19         0.00000E+00
    0.36045E-07         0.33468E-20         0.00000E+00
    0.36027E-07        -0.37253E-19         0.00000E+00
    0.36008E-07        -0.37253E-20         0.00000E+00
    0.35987E-07         0.54017E-19         0.00000E+00
    0.35965E-07         0.18626E-19         0.00000E+00
    0.35942E-07        -0.79164E-20         0.00000E+00
    0.35918E-07        -0.33528E-19         0.00000E+00
    0.35893E-07         0.55879E-20         0.00000E+00
    0.35866E-07        -0.11176E-19         0.00000E+00
    0.35839E-07        -0.55879E-20         0.00000E+00
    0.35811E-07         0.74506E-20         0.00000E+00
    0.35782E-07         0.11475E-19         0.00000E+00
    0.35752E-07        -0.13578E-20         0.00000E+00
    0.35722E-07         0.13039E-19         0.00000E+00
    0.35691E-07         0.13039E-19         0.00000E+00
    0.35659E-07        -0.37253E-20         0.00000E+00
    0.35626E-07         0.74506E-20         0.00000E+00
    0.35593E-07         0.65193E-20         0.00000E+00
    0.35560E-07         0.11176E-19         0.00000E+00
    0.35526E-07         0.34292E-19         0.00000E+00
    0.35491E-07         0.00000E+00         0.00000E+00
    0.35457E-07         0.27940E-19         0.00000E+00
    0.35422E-07         0.17354E-19         0.00000E+00
    0.35387E-07         0.11176E-19         0.00000E+00
    0.35351E-07        -0.14901E-19         0.00000E+00
    0.35316E-07         0.18626E-19         0.00000E+00
    0.35281E-07        -0.55879E-20         0.00000E+00
    0.35245E-07        -0.22352E-19         0.00000E+00
    0.35210E-07        -0.33528E-19         0.00000E+00
    0.35175E-07        -0.31665E-19         0.00000E+00
    0.35140E-07        -0.37253E-19         0.00000E+00
    0.35105E-07        -0.50291E-19         0.00000E+00
    0.35070E-07        -0.26077E-19         0.00000E+00
    0.35036E-07        -0.40599E-19         0.00000E+00
    0.35002E-07        -0.42581E-19         0.00000E+00
    0.34968E-07        -0.52035E-19         0.00000E+00
    0.34935E-07        -0.45071E-19         0.00000E+00
    0.34902E-07        -0.48429E-19         0.00000E+00
    0.34870E-07        -0.27872E-19         0.00000E+00
    0.34838E-07        -0.44703E-19         0.00000E+00
    0.34807E-07        -0.14901E-19         0.00000E+00
    0.34776E-07        -0.22352E-19         0.00000E+00
    0.34746E-07        -0.37253E-19         0.00000E+00
    0.34717E-07        -0.27940E-19         0.00000E+00
    0.34688E-07        -0.83819E-19         0.00000E+00
    0.34660E-07        -0.59605E-19         0.00000E+00
    0.34632E-07        -0.59605E-19         0.00000E+00
    0.34605E-07        -0.26422E-19         0.00000E+00
    0.34579E-07        -0.31665E-19         0.00000E+00
    0.34554E-07        -0.31665E-19         0.00000E+00
    0.34529E-07         0.29921E-20         0.00000E+00
    0.34506E-07        -0.16764E-19         0.00000E+00
    0.34482E-07        -0.13039E-19         0.00000E+00
    0.34460E-07         0.16697E-20         0.00000E+00
    0.34438E-07        -0.16764E-19         0.00000E+00
    0.34418E-07        -0.34459E-19         0.00000E+00
    0.34397E-07        -0.18626E-20         0.00000E+00
    0.34378E-07         0.18626E-20         0.00000E+00
    0.34360E-07        -0.93132E-20         0.00000E+00
    0.34342E-07        -0.55879E-20         0.00000E+00
    0.34325E-07        -0.55879E-20         0.00000E+00
    0.34308E-07         0.22352E-19         0.00000E+00
    0.34293E-07         0.93132E-20         0.00000E+00
    0.34278E-07        -0.74506E-20         0.00000E+00
    0.34264E-07         0.14901E-19         0.00000E+00
    0.34250E-07         0.11176E-19         0.00000E+00
    0.34237E-07        -0.93132E-20         0.00000E+00
    0.34225E-07         0.13039E-19         0.00000E+00
    0.34214E-07        -0.14901E-19         0.00000E+00
    0.34203E-07         0.13039E-19         0.00000E+00
    0.34193E-07         0.18626E-19         0.00000E+00
    0.34183E-07         0.93132E-20         0.00000E+00
    0.34175E-07         0.26077E-19         0.00000E+00
    0.34166E-07         0.93132E-21         0.00000E+00
    0.34159E-07         0.16764E-19         0.00000E+00
    0.34151E-07         0.28588E-19         0.00000E+00
    0.34145E-07         0.22352E-19         0.00000E+00
    0.34139E-07         0.23283E-19         0.00000E+00
    0.34134E-07         0.44827E-19         0.00000E+00
    0.34129E-07         0.32596E-19         0.00000E+00
    0.34124E-07        -0.26249E-20         0.00000E+00
    0.34121E-07         0.25546E-19         0.00000E+00
    0.34117E-07         0.28825E-19         0.00000E+00
    0.34115E-07         0.15394E-19         0.00000E+00
    0.34112E-07         0.25153E-19         0.00000E+00
    0.34111E-07         0.26077E-19         0.00000E+00
    0.34109E-07         0.37253E-20         0.00000E+00
    0.34109E-07        -0.18626E-20         0.00000E+00
    0.34108E-07         0.00000E+00         0.00000E+00
    0.36153E-07         0.00000E+00         0.00000E+00
    0.36152E-07         0.22352E-19         0.00000E+00
    0.36150E-07         0.40978E-19         0.00000E+00
    0.36146E-07         0.22352E-19         0.00000E+00
    0.36140E-07         0.44703E-19         0.00000E+00
    0.36134E-07         0.44703E-19         0.00000E+00
    0.36125E-07         0.44703E-19         0.00000E+00
    0.36116E-07         0.33528E-19         0.00000E+00
    0.36104E-07         0.14901E-19         0.00000E+00
    0.36092E-07        -0.93132E-20         0.00000E+00
    0.36077E-07         0.37253E-20         0.00000E+00
    0.36062E-07        -0.21420E-19         0.00000E+00
    0.36045E-07        -0.20489E-19         0.00000E+00
    0.36027E-07        -0.93132E-20         0.00000E+00
    0.36008E-07         0.20489E-19         0.00000E+00
    0.35987E-07         0.61467E-19         0.00000E+00
    0.35965E-07         0.42841E-19         0.00000E+00
    0.35942E-07         0.16764E-19         0.00000E+00
    0.35918E-07        -0.11176E-19         0.00000E+00
    0.35893E-07         0.31665E-19         0.00000E+00
    0.35866E-07         0.55879E-20         0.00000E+00
    0.35839E-07        -0.11176E-19         0.00000E+00
    0.35811E-07        -0.93132E-20         0.00000E+00
    0.35782E-07         0.10877E-19         0.00000E+00
    0.35752E-07        -0.10245E-19         0.00000E+00
    0.35722E-07         0.16386E-19         0.00000E+00
    0.35691E-07         0.16764E-19         0.00000E+00
    0.35659E-07        -0.55879E-20         0.00000E+00
    0.35626E-07         0.11176E-19         0.00000E+00
    0.35593E-07         0.44031E-19         0.00000E+00
    0.35560E-07         0.25146E-19         0.00000E+00
    0.35526E-07         0.13039E-19         0.00000E+00
    0.35491E-07         0.11176E-19         0.00000E+00
    0.35457E-07         0.29802E-19         0.00000E+00
    0.35422E-07        -0.27940E-20         0.00000E+00
    0.35387E-07         0.27940E-19         0.00000E+00
    0.35351E-07        -0.29802E-19         0.00000E+00
    0.35316E-07        -0.55879E-20         0.00000E+00
    0.35281E-07         0.55879E-20         0.00000E+00
    0.35245E-07        -0.37253E-19         0.00000E+00
    0.35210E-07        -0.37487E-19         0.00000E+00
    0.35175E-07        -0.39116E-19         0.00000E+00
    0.35140E-07        -0.46566E-19         0.00000E+00
    0.35105E-07        -0.47497E-19         0.00000E+00
    0.35070E-07        -0.41607E-19         0.00000E+00
    0.35036E-07        -0.75058E-19         0.00000E+00
    0.35002E-07        -0.34589E-19         0.00000E+00
    0.34968E-07        -0.64261E-19         0.00000E+00
    0.34935E-07        -0.29435E-19         0.00000E+00
    0.34902E-07        -0.50291E-19         0.00000E+00
    0.34870E-07        -0.33595E-19         0.00000E+00
    0.34838E-07        -0.29802E-19         0.00000E+00
    0.34807E-07        -0.25146E-19         0.00000E+00
    0.34776E-07        -0.10245E-19         0.00000E+00
    0.34746E-07        -0.13039E-19         0.00000E+00
    0.34717E-07        -0.42841E-19         0.00000E+00
    0.34688E-07        -0.52154E-19         0.00000E+00
    0.34660E-07        -0.56278E-19         0.00000E+00
    0.34632E-07        -0.65193E-19         0.00000E+00
    0.34605E-07        -0.26663E-19         0.00000E+00
    0.34579E-07        -0.28871E-19         0.00000E+00
    0.34554E-07        -0.39116E-19         0.00000E+00
    0.34529E-07        -0.18626E-20         0.00000E+00
    0.34506E-07         0.00000E+00         0.00000E+00
    0.34482E-07         0.74506E-20         0.00000E+00
    0.34460E-07         0.20556E-20         0.00000E+00
    0.34438E-07         0.00000E+00         0.00000E+00
    0.34418E-07        -0.39902E-19         0.00000E+00
    0.34397E-07         0.21420E-19         0.00000E+00
    0.34378E-07         0.37253E-20         0.00000E+00
    0.34360E-07        -0.55879E-20         0.00000E+00
    0.34342E-07         0.20489E-19         0.00000E+00
    0.34325E-07         0.14901E-19         0.00000E+00
    0.34308E-07         0.18626E-19         0.00000E+00
    0.34293E-07         0.31665E-19         0.00000E+00
    0.34278E-07        -0.74506E-20         0.00000E+00
    0.34264E-07         0.16764E-19         0.00000E+00
    0.34250E-07         0.16764E-19         0.00000E+00
    0.34237E-07         0.74506E-20         0.00000E+00
    0.34225E-07         0.22352E-19         0.00000E+00
    0.34214E-07        -0.55879E-20         0.00000E+00
    0.34203E-07         0.22352E-19         0.00000E+00
    0.34193E-07         0.37253E-20         0.00000E+00
    0.34183E-07         0.55879E-20         0.00000E+00
    0.34175E-07         0.24214E-19         0.00000E+00
    0.34166E-07         0.11420E-19         0.00000E+00
    0.34159E-07         0.25146E-19         0.00000E+00
    0.34151E-07         0.22352E-19         0.00000E+00
    0.34145E-07         0.16601E-19         0.00000E+00
    0.34139E-07         0.34136E-19         0.00000E+00
    0.34134E-07         0.94366E-20         0.00000E+00
    0.34129E-07         0.47859E-19         0.00000E+00
    0.34124E-07         0.92287E-20         0.00000E+00
    0.34121E-07         0.40047E-19         0.00000E+00
    0.34117E-07         0.26077E-19         0.00000E+00
    0.34115E-07         0.19119E-19         0.00000E+00
    0.34112E-07         0.24207E-19         0.00000E+00
    0.34111E-07         0.16764E-19         0.00000E+00
    0.34109E-07         0.00000E+00         0.00000E+00
    0.34109E-07         0.18626E-19         0.00000E+00
    0.34108E-07         0.00000E+00         0.00000E+00
    0.36153E-07         0.00000E+00         0.00000E+00
    0.36152E-07         0.48429E-19         0.00000E+00
    0.36150E-07         0.37253E-20         0.00000E+00
    0.36146E-07         0.26726E-19         0.00000E+00
    0.36140E-07         0.18626E-19         0.00000E+00
    0.36134E-07         0.59605E-19         0.00000E+00
    0.36125E-07         0.62861E-19         0.00000E+00
    0.36116E-07         0.22352E-19         0.00000E+00
    0.36104E-07         0.22352E-19         0.00000E+00
    0.36092E-07         0.27940E-19         0.00000E+00
    0.36077E-07        -0.74506E-20         0.00000E+00
    0.36062E-07         0.31445E-21         0.00000E+00
    0.36045E-07        -0.38737E-19         0.00000E+00
    0.36027E-07        -0.74506E-20         0.00000E+00
    0.36008E-07         0.13039E-19         0.00000E+00
    0.35987E-07         0.74716E-19         0.00000E+00
    0.35965E-07         0.20489E-19         0.00000E+00
    0.35942E-07         0.42375E-19         0.00000E+00
    0.35918E-07        -0.18626E-20         0.00000E+00
    0.35893E-07         0.27940E-19         0.00000E+00
    0.35866E-07        -0.55879E-20         0.00000E+00
    0.35839E-07        -0.24170E-19         0.00000E+00
    0.35811E-07        -0.13798E-19         0.00000E+00
    0.35782E-07         0.49559E-20         0.00000E+00
    0.35752E-07        -0.17269E-19         0.00000E+00
    0.35722E-07         0.13039E-19         0.00000E+00
    0.35691E-07         0.37253E-20         0.00000E+00
    0.35659E-07        -0.18626E-20         0.00000E+00
    0.35626E-07         0.14901E-19         0.00000E+00
    0.35593E-07         0.35132E-19         0.00000E+00
    0.35560E-07         0.18207E-19         0.00000E+00
    0.35526E-07        -0.20489E-19         0.00000E+00
    0.35491E-07         0.26077E-19         0.00000E+00
    0.35457E-07         0.33528E-19         0.00000E+00
    0.35422E-07         0.12725E-20         0.00000E+00
    0.35387E-07         0.22441E-19         0.00000E+00
    0.35351E-07        -0.14901E-19         0.00000E+00
    0.35316E-07        -0.26077E-19         0.00000E+00
    0.35281E-07        -0.26077E-19         0.00000E+00
    0.35245E-07        -0.22352E-19         0.00000E+00
    0.35210E-07        -0.27008E-19         0.00000E+00
    0.35175E-07        -0.54948E-19         0.00000E+00
    0.35140E-07        -0.44703E-19         0.00000E+00
    0.35105E-07        -0.41032E-19         0.00000E+00
    0.35070E-07        -0.52760E-19         0.00000E+00
    0.35036E-07        -0.65193E-19         0.00000E+00
    0.35002E-07        -0.40848E-19         0.00000E+00
    0.34968E-07        -0.92439E-19         0.00000E+00
    0.34935E-07        -0.74506E-20         0.00000E+00
    0.34902E-07        -0.39116E-19         0.00000E+00
    0.34870E-07        -0.39116E-19         0.00000E+00
    0.34838E-07        -0.16764E-19         0.00000E+00
    0.34807E-07        -0.28691E-20         0.00000E+00
    0.34776E-07        -0.22863E-19         0.00000E+00
    0.34746E-07         0.93132E-20         0.00000E+00
    0.34717E-07        -0.61467E-19         0.00000E+00
    0.34688E-07        -0.29802E-19         0.00000E+00
    0.34660E-07        -0.50824E-19         0.00000E+00
    0.34632E-07        -0.70781E-19         0.00000E+00
    0.34605E-07        -0.54362E-19         0.00000E+00
    0.34579E-07        -0.17549E-19         0.00000E+00
    0.34554E-07        -0.35390E-19         0.00000E+00
    0.34529E-07        -0.13039E-19         0.00000E+00
    0.34506E-07        -0.55879E-20         0.00000E+00
    0.34482E-07         0.29802E-19         0.00000E+00
    0.34460E-07        -0.11176E-19         0.00000E+00
    0.34438E-07        -0.55879E-20         0.00000E+00
    0.34418E-07        -0.13039E-19         0.00000E+00
    0.34397E-07         0.12694E-19         0.00000E+00
    0.34378E-07         0.75486E-20         0.00000E+00
    0.34360E-07        -0.11176E-19         0.00000E+00
    0.34342E-07         0.18626E-19         0.00000E+00
    0.34325E-07         0.18626E-19         0.00000E+00
    0.34308E-07         0.37253E-20         0.00000E+00
    0.34293E-07         0.24214E-19         0.00000E+00
    0.34278E-07         0.14901E-19         0.00000E+00
    0.34264E-07        -0.37253E-20         0.00000E+00
    0.34250E-07        -0.37253E-20         0.00000E+00
    0.34237E-07         0.24214E-19         0.00000E+00
    0.34225E-07        -0.18626E-20         0.00000E+00
    0.34214E-07         0.13039E-19         0.00000E+00
    0.34203E-07         0.27940E-20         0.00000E+00
    0.34193E-07        -0.93132E-20         0.00000E+00
    0.34183E-07         0.13039E-19         0.00000E+00
    0.34175E-07         0.12107E-19         0.00000E+00
    0.34166E-07         0.44129E-20         0.00000E+00
    0.34159E-07         0.25348E-19         0.00000E+00
    0.34151E-07         0.19558E-19         0.00000E+00
    0.34145E-07         0.31990E-19         0.00000E+00
    0.34139E-07         0.55879E-20         0.00000E+00
    0.34134E-07         0.18626E-19         0.00000E+00
    0.34129E-07         0.28147E-19         0.00000E+00
    0.34124E-07         0.31749E-19         0.00000E+00
    0.34121E-07         0.30864E-19         0.00000E+00
    0.34117E-07         0.23375E-19         0.00000E+00
    0.34115E-07         0.24161E-19         0.00000E+00
    0.34112E-07         0.20489E-19         0.00000E+00
    0.34111E-07         0.15832E-19         0.00000E+00
    0.34109E-07        -0.18626E-20         0.00000E+00
    0.34109E-07         0.27940E-19         0.00000E+00
    0.34108E-07         0.00000E+00         0.00000E+00
    0.36153E-07         0.00000E+00         0.00000E+00
    0.36152E-07         0.48429E-19         0.00000E+00
    0.36150E-07        -0.22352E-19         0.00000E+00
    0.36146E-07         0.11176E-19         0.00000E+00
    0.36140E-07         0.44703E-19         0.00000E+00
    0.36134E-07         0.44703E-19         0.00000E+00
    0.36125E-07         0.48429E-19         0.00000E+00
    0.36116E-07         0.29802E-19         0.00000E+00
    0.36104E-07         0.18626E-19         0.00000E+00
    0.36092E-07         0.68918E-19         0.00000E+00
    0.36077E-07         0.18626E-20         0.00000E+00
    0.36062E-07         0.49590E-20         0.00000E+00
    0.36045E-07         0.37253E-20         0.00000E+00
    0.36027E-07         0.55879E-20         0.00000E+00
    0.36008E-07         0.37253E-20         0.00000E+00
    0.35987E-07         0.29593E-19         0.00000E+00
    0.35965E-07         0.29802E-19         0.00000E+00
    0.35942E-07         0.22817E-19         0.00000E+00
    0.35918E-07         0.65193E-20         0.00000E+00
    0.35893E-07         0.00000E+00         0.00000E+00
    0.35866E-07         0.29802E-19         0.00000E+00
    0.35839E-07        -0.74952E-20         0.00000E+00
    0.35811E-07        -0.23627E-19         0.00000E+00
    0.35782E-07         0.99453E-20         0.00000E+00
    0.35752E-07         0.46566E-20         0.00000E+00
    0.35722E-07         0.24214E-19         0.00000E+00
    0.35691E-07        -0.11176E-19         0.00000E+00
    0.35659E-07         0.27940E-19         0.00000E+00
    0.35626E-07         0.55879E-20         0.00000E+00
    0.35593E-07         0.93132E-20         0.00000E+00
    0.35560E-07         0.18115E-19         0.00000E+00
    0.35526E-07        -0.83819E-20         0.00000E+00
    0.35491E-07         0.31665E-19         0.00000E+00
    0.35457E-07         0.39116E-19         0.00000E+00
    0.35422E-07         0.15214E-20         0.00000E+00
    0.35387E-07         0.20400E-19         0.00000E+00
    0.35351E-07         0.11176E-19         0.00000E+00
    0.35316E-07        -0.74506E-20         0.00000E+00
    0.35281E-07        -0.20489E-19         0.00000E+00
    0.35245E-07        -0.93132E-20         0.00000E+00
    0.35210E-07        -0.20255E-19         0.00000E+00
    0.35175E-07        -0.60090E-19         0.00000E+00
    0.35140E-07        -0.35390E-19         0.00000E+00
    0.35105E-07        -0.40871E-19         0.00000E+00
    0.35070E-07        -0.65193E-19         0.00000E+00
    0.35036E-07        -0.44151E-19         0.00000E+00
    0.35002E-07        -0.52284E-19         0.00000E+00
    0.34968E-07        -0.72524E-19         0.00000E+00
    0.34935E-07        -0.11176E-19         0.00000E+00
    0.34902E-07        -0.54017E-19         0.00000E+00
    0.34870E-07        -0.35390E-19         0.00000E+00
    0.34838E-07         0.55879E-20         0.00000E+00
    0.34807E-07        -0.74506E-20         0.00000E+00
    0.34776E-07        -0.27008E-19         0.00000E+00
    0.34746E-07         0.93132E-20         0.00000E+00
    0.34717E-07        -0.37253E-19         0.00000E+00
    0.34688E-07        -0.26077E-19         0.00000E+00
    0.34660E-07        -0.62798E-19         0.00000E+00
    0.34632E-07        -0.68918E-19         0.00000E+00
    0.34605E-07        -0.46221E-19         0.00000E+00
    0.34579E-07        -0.21420E-19         0.00000E+00
    0.34554E-07        -0.24214E-19         0.00000E+00
    0.34529E-07        -0.19558E-19         0.00000E+00
    0.34506E-07        -0.18626E-20         0.00000E+00
    0.34482E-07         0.74506E-20         0.00000E+00
    0.34460E-07         0.37253E-20         0.00000E+00
    0.34438E-07        -0.22352E-19         0.00000E+00
    0.34418E-07         0.26077E-19         0.00000E+00
    0.34397E-07        -0.71062E-20         0.00000E+00
    0.34378E-07         0.92152E-20         0.00000E+00
    0.34360E-07        -0.12107E-19         0.00000E+00
    0.34342E-07        -0.93132E-21         0.00000E+00
    0.34325E-07         0.55879E-20         0.00000E+00
    0.34308E-07         0.93132E-21         0.00000E+00
    0.34293E-07         0.74506E-20         0.00000E+00
    0.34278E-07         0.18626E-19         0.00000E+00
    0.34264E-07        -0.18626E-19         0.00000E+00
    0.34250E-07         0.00000E+00         0.00000E+00
    0.34237E-07         0.11176E-19         0.00000E+00
    0.34225E-07        -0.55879E-20         0.00000E+00
    0.34214E-07         0.22352E-19         0.00000E+00
    0.34203E-07        -0.91505E-20         0.00000E+00
    0.34193E-07         0.74506E-20         0.00000E+00
    0.34183E-07         0.74506E-20         0.00000E+00
    0.34175E-07         0.68935E-21         0.00000E+00
    0.34166E-07         0.55879E-20         0.00000E+00
    0.34159E-07         0.98405E-20         0.00000E+00
    0.34151E-07         0.13322E-19         0.00000E+00
    0.34145E-07         0.24214E-19         0.00000E+00
    0.34139E-07         0.00000E+00         0.00000E+00
    0.34134E-07         0.20366E-19         0.00000E+00
    0.34129E-07         0.35175E-20         0.00000E+00
    0.34124E-07         0.25061E-19         0.00000E+00
    0.34121E-07         0.23153E-19         0.00000E+00
    0.34117E-07         0.22306E-19         0.00000E+00
    0.34115E-07         0.14901E-19         0.00000E+00
    0.34112E-07         0.93132E-20         0.00000E+00
    0.34111E-07         0.12561E-19         0.00000E+00
    0.34109E-07         0.83819E-20         0.00000E+00
    0.34109E-07        -0.27940E-20         0.00000E+00
    0.34108E-07         0.00000E+00         0.00000E+00
    0.36153E-07         0.00000E+00         0.00000E+00
    0.36152E-07         0.11176E-19         0.00000E+00
    0.36150E-07         0.18626E-19         0.00000E+00
    0.36146E-07        -0.11825E-19         0.00000E+00
    0.36140E-07         0.67055E-19         0.00000E+00
    0.36134E-07         0.44703E-19         0.00000E+00
    0.36125E-07         0.71249E-19         0.00000E+00
    0.36116E-07         0.33528E-19         0.00000E+00
    0.36104E-07         0.33528E-19         0.00000E+00
    0.36092E-07         0.41723E-19         0.00000E+00
    0.36077E-07         0.57742E-19         0.00000E+00
    0.36062E-07         0.27940E-20         0.00000E+00
    0.36045E-07         0.25699E-19         0.00000E+00
    0.36027E-07         0.50291E-19         0.00000E+00
    0.36008E-07         0.55879E-20         0.00000E+00
    0.35987E-07        -0.37253E-20         0.00000E+00
    0.35965E-07         0.37253E-20         0.00000E+00
    0.35942E-07        -0.15367E-19         0.00000E+00
    0.35918E-07         0.16171E-19         0.00000E+00
    0.35893E-07        -0.18626E-20         0.00000E+00
    0.35866E-07         0.39116E-19         0.00000E+00
    0.35839E-07        -0.18626E-20         0.00000E+00
    0.35811E-07        -0.39116E-19         0.00000E+00
    0.35782E-07         0.10877E-19         0.00000E+00
    0.35752E-07         0.27513E-19         0.00000E+00
    0.35722E-07         0.31665E-19         0.00000E+00
    0.35691E-07         0.18626E-20         0.00000E+00
    0.35659E-07         0.42841E-19         0.00000E+00
    0.35626E-07        -0.55879E-20         0.00000E+00
    0.35593E-07         0.55879E-20         0.00000E+00
    0.35560E-07         0.13970E-19         0.00000E+00
    0.35526E-07         0.16931E-19         0.00000E+00
    0.35491E-07         0.20489E-19         0.00000E+00
    0.35457E-07         0.36915E-19         0.00000E+00
    0.35422E-07        -0.10835E-19         0.00000E+00
    0.35387E-07         0.16764E-19         0.00000E+00
    0.35351E-07        -0.16218E-21         0.00000E+00
    0.35316E-07        -0.18626E-20         0.00000E+00
    0.35281E-07        -0.18626E-20         0.00000E+00
    0.35245E-07        -0.22352E-19         0.00000E+00
    0.35210E-07        -0.20724E-19         0.00000E+00
    0.35175E-07        -0.40978E-19         0.00000E+00
    0.35140E-07        -0.16371E-19         0.00000E+00
    0.35105E-07        -0.53192E-19         0.00000E+00
    0.35070E-07        -0.66124E-19         0.00000E+00
    0.35036E-07        -0.51775E-19         0.00000E+00
    0.35002E-07        -0.55879E-19         0.00000E+00
    0.34968E-07        -0.16883E-19         0.00000E+00
    0.34935E-07        -0.54017E-19         0.00000E+00
    0.34902E-07        -0.45319E-19         0.00000E+00
    0.34870E-07        -0.29802E-19         0.00000E+00
    0.34838E-07         0.74506E-20         0.00000E+00
    0.34807E-07        -0.24996E-19         0.00000E+00
    0.34776E-07        -0.14809E-19         0.00000E+00
    0.34746E-07        -0.13039E-19         0.00000E+00
    0.34717E-07        -0.11176E-19         0.00000E+00
    0.34688E-07        -0.33528E-19         0.00000E+00
    0.34660E-07        -0.67587E-19         0.00000E+00
    0.34632E-07        -0.31665E-19         0.00000E+00
    0.34605E-07        -0.19558E-19         0.00000E+00
    0.34579E-07        -0.44850E-19         0.00000E+00
    0.34554E-07        -0.27940E-19         0.00000E+00
    0.34529E-07        -0.67174E-20         0.00000E+00
    0.34506E-07         0.21050E-20         0.00000E+00
    0.34482E-07        -0.11176E-19         0.00000E+00
    0.34460E-07         0.31665E-19         0.00000E+00
    0.34438E-07        -0.13039E-19         0.00000E+00
    0.34418E-07         0.20489E-19         0.00000E+00
    0.34397E-07        -0.77949E-20         0.00000E+00
    0.34378E-07        -0.64213E-20         0.00000E+00
    0.34360E-07         0.12648E-19         0.00000E+00
    0.34342E-07         0.75028E-20         0.00000E+00
    0.34325E-07         0.18626E-20         0.00000E+00
    0.34308E-07         0.11183E-19         0.00000E+00
    0.34293E-07         0.11176E-19         0.00000E+00
    0.34278E-07         0.93132E-20         0.00000E+00
    0.34264E-07        -0.11176E-19         0.00000E+00
    0.34250E-07         0.13039E-19         0.00000E+00
    0.34237E-07        -0.18626E-20         0.00000E+00
    0.34225E-07         0.55879E-20         0.00000E+00
    0.34214E-07         0.20489E-19         0.00000E+00
    0.34203E-07        -0.15995E-19         0.00000E+00
    0.34193E-07         0.10245E-19         0.00000E+00
    0.34183E-07         0.46566E-20         0.00000E+00
    0.34175E-07        -0.14659E-19         0.00000E+00
    0.34166E-07         0.20489E-19         0.00000E+00
    0.34159E-07         0.31980E-20         0.00000E+00
    0.34151E-07        -0.28347E-21         0.00000E+00
    0.34145E-07         0.13970E-19         0.00000E+00
    0.34139E-07         0.20489E-19         0.00000E+00
    0.34134E-07         0.38486E-20         0.00000E+00
    0.34129E-07         0.16040E-19         0.00000E+00
    0.34124E-07         0.14901E-19         0.00000E+00
    0.34121E-07         0.24745E-19         0.00000E+00
    0.34117E-07         0.27986E-19         0.00000E+00
    0.34115E-07         0.16325E-19         0.00000E+00
    0.34112E-07         0.55879E-20         0.00000E+00
    0.34111E-07         0.93132E-20         0.00000E+00
    0.34109E-07         0.22321E-19         0.00000E+00
    0.34109E-07        -0.11275E-19         0.00000E+00
    0.34108E-07         0.00000E+00         0.00000E+00
    0.36153E-07         0.00000E+00         0.00000E+00
    0.36152E-07        -0.74506E-20         0.00000E+00
    0.36150E-07        -0.37253E-20         0.00000E+00
    0.36146E-07         0.15550E-19         0.00000E+00
    0.36140E-07         0.29802E-19         0.00000E+00
    0.36134E-07         0.44703E-19         0.00000E+00
    0.36125E-07         0.70312E-19         0.00000E+00
    0.36116E-07         0.48429E-19         0.00000E+00
    0.36104E-07         0.59605E-19         0.00000E+00
    0.36092E-07         0.16019E-19         0.00000E+00
    0.36077E-07         0.37253E-19         0.00000E+00
    0.36062E-07         0.18010E-19         0.00000E+00
    0.36045E-07         0.24593E-19         0.00000E+00
    0.36027E-07         0.48429E-19         0.00000E+00
    0.36008E-07         0.18626E-19         0.00000E+00
    0.35987E-07         0.76604E-20         0.00000E+00
    0.35965E-07        -0.29802E-19         0.00000E+00
    0.35942E-07        -0.19558E-19         0.00000E+00
    0.35918E-07        -0.40634E-20         0.00000E+00
    0.35893E-07         0.16764E-19         0.00000E+00
    0.35866E-07        -0.74506E-20         0.00000E+00
    0.35839E-07         0.00000E+00         0.00000E+00
    0.35811E-07        -0.38944E-19         0.00000E+00
    0.35782E-07        -0.46566E-20         0.00000E+00
    0.35752E-07         0.21847E-19         0.00000E+00
    0.35722E-07         0.15279E-19         0.00000E+00
    0.35691E-07         0.24214E-19         0.00000E+00
    0.35659E-07         0.24214E-19         0.00000E+00
    0.35626E-07        -0.55879E-20         0.00000E+00
    0.35593E-07         0.18626E-19         0.00000E+00
    0.35560E-07         0.42370E-20         0.00000E+00
    0.35526E-07        -0.85487E-20         0.00000E+00
    0.35491E-07         0.37253E-20         0.00000E+00
    0.35457E-07         0.22007E-20         0.00000E+00
    0.35422E-07         0.18626E-20         0.00000E+00
    0.35387E-07        -0.65193E-20         0.00000E+00
    0.35351E-07        -0.18464E-19         0.00000E+00
    0.35316E-07        -0.93132E-20         0.00000E+00
    0.35281E-07        -0.18626E-20         0.00000E+00
    0.35245E-07        -0.27008E-19         0.00000E+00
    0.35210E-07         0.44220E-20         0.00000E+00
    0.35175E-07        -0.61914E-19         0.00000E+00
    0.35140E-07        -0.13431E-19         0.00000E+00
    0.35105E-07        -0.53085E-19         0.00000E+00
    0.35070E-07        -0.52479E-19         0.00000E+00
    0.35036E-07        -0.56637E-19         0.00000E+00
    0.35002E-07        -0.53085E-19         0.00000E+00
    0.34968E-07        -0.54691E-20         0.00000E+00
    0.34935E-07        -0.48429E-19         0.00000E+00
    0.34902E-07        -0.30118E-19         0.00000E+00
    0.34870E-07        -0.31665E-19         0.00000E+00
    0.34838E-07        -0.26077E-19         0.00000E+00
    0.34807E-07        -0.65944E-20         0.00000E+00
    0.34776E-07        -0.38171E-20         0.00000E+00
    0.34746E-07        -0.35390E-19         0.00000E+00
    0.34717E-07        -0.14901E-19         0.00000E+00
    0.34688E-07        -0.16764E-19         0.00000E+00
    0.34660E-07        -0.71180E-19         0.00000E+00
    0.34632E-07         0.12107E-19         0.00000E+00
    0.34605E-07        -0.17109E-19         0.00000E+00
    0.34579E-07        -0.35244E-19         0.00000E+00
    0.34554E-07        -0.16764E-19         0.00000E+00
    0.34529E-07        -0.46566E-20         0.00000E+00
    0.34506E-07         0.72082E-20         0.00000E+00
    0.34482E-07         0.46566E-20         0.00000E+00
    0.34460E-07         0.22352E-19         0.00000E+00
    0.34438E-07         0.16764E-19         0.00000E+00
    0.34418E-07         0.37253E-20         0.00000E+00
    0.34397E-07        -0.58696E-21         0.00000E+00
    0.34378E-07        -0.17793E-19         0.00000E+00
    0.34360E-07         0.17154E-19         0.00000E+00
    0.34342E-07         0.15780E-19         0.00000E+00
    0.34325E-07         0.37253E-20         0.00000E+00
    0.34308E-07         0.17688E-19         0.00000E+00
    0.34293E-07         0.13039E-19         0.00000E+00
    0.34278E-07         0.16764E-19         0.00000E+00
    0.34264E-07         0.13039E-19         0.00000E+00
    0.34250E-07        -0.55879E-20         0.00000E+00
    0.34237E-07        -0.37253E-20         0.00000E+00
    0.34225E-07         0.74506E-20         0.00000E+00
    0.34214E-07         0.00000E+00         0.00000E+00
    0.34203E-07        -0.10245E-19         0.00000E+00
    0.34193E-07         0.15802E-20         0.00000E+00
    0.34183E-07         0.39288E-20         0.00000E+00
    0.34175E-07        -0.16764E-19         0.00000E+00
    0.34166E-07         0.46566E-20         0.00000E+00
    0.34159E-07         0.18626E-20         0.00000E+00
    0.34151E-07        -0.71671E-20         0.00000E+00
    0.34145E-07         0.21095E-19         0.00000E+00
    0.34139E-07         0.34459E-19         0.00000E+00
    0.34134E-07         0.72039E-20         0.00000E+00
    0.34129E-07         0.24576E-19         0.00000E+00
    0.34124E-07         0.27008E-19         0.00000E+00
    0.34121E-07         0.11576E-19         0.00000E+00
    0.34117E-07         0.19512E-19         0.00000E+00
    0.34115E-07         0.13477E-19         0.00000E+00
    0.34112E-07        -0.18626E-20         0.00000E+00
    0.34111E-07         0.13039E-19         0.00000E+00
    0.34109E-07         0.11206E-19         0.00000E+00
    0.34109E-07         0.10306E-20         0.00000E+00
    0.34108E-07         0.00000E+00         0.00000E+00
    0.36153E-07         0.00000E+00         0.00000E+00
    0.36152E-07         0.37253E-20         0.00000E+00
    0.36150E-07        -0.11176E-19         0.00000E+00
    0.36146E-07         0.29802E-19         0.00000E+00
    0.36140E-07         0.29802E-19         0.00000E+00
    0.36134E-07         0.48429E-19         0.00000E+00
    0.36125E-07         0.14901E-19         0.00000E+00
    0.36116E-07         0.59605E-19         0.00000E+00
    0.36104E-07         0.48429E-19         0.00000E+00
    0.36092E-07         0.29802E-19         0.00000E+00
    0.36077E-07        -0.13039E-19         0.00000E+00
    0.36062E-07         0.19558E-19         0.00000E+00
    0.36045E-07         0.16764E-19         0.00000E+00
    0.36027E-07         0.00000E+00         0.00000E+00
    0.36008E-07         0.67055E-19         0.00000E+00
    0.35987E-07        -0.11176E-19         0.00000E+00
    0.35965E-07        -0.74506E-20         0.00000E+00
    0.35942E-07        -0.12573E-19         0.00000E+00
    0.35918E-07        -0.31665E-19         0.00000E+00
    0.35893E-07        -0.55879E-20         0.00000E+00
    0.35866E-07        -0.40978E-19         0.00000E+00
    0.35839E-07        -0.18626E-20         0.00000E+00
    0.35811E-07        -0.50291E-19         0.00000E+00
    0.35782E-07        -0.34260E-20         0.00000E+00
    0.35752E-07        -0.37253E-20         0.00000E+00
    0.35722E-07        -0.13970E-19         0.00000E+00
    0.35691E-07         0.50291E-19         0.00000E+00
    0.35659E-07         0.18626E-20         0.00000E+00
    0.35626E-07         0.11176E-19         0.00000E+00
    0.35593E-07         0.24214E-19         0.00000E+00
    0.35560E-07         0.18626E-20         0.00000E+00
    0.35526E-07        -0.26077E-19         0.00000E+00
    0.35491E-07         0.37253E-20         0.00000E+00
    0.35457E-07        -0.74506E-20         0.00000E+00
    0.35422E-07         0.52467E-20         0.00000E+00
    0.35387E-07        -0.20400E-19         0.00000E+00
    0.35351E-07        -0.16764E-19         0.00000E+00
    0.35316E-07        -0.22352E-19         0.00000E+00
    0.35281E-07         0.00000E+00         0.00000E+00
    0.35245E-07        -0.13054E-19         0.00000E+00
    0.35210E-07         0.30734E-19         0.00000E+00
    0.35175E-07        -0.67055E-19         0.00000E+00
    0.35140E-07        -0.26077E-19         0.00000E+00
    0.35105E-07        -0.54895E-19         0.00000E+00
    0.35070E-07        -0.19232E-19         0.00000E+00
    0.35036E-07        -0.48429E-19         0.00000E+00
    0.35002E-07        -0.55078E-19         0.00000E+00
    0.34968E-07        -0.31665E-19         0.00000E+00
    0.34935E-07        -0.31665E-19         0.00000E+00
    0.34902E-07        -0.21105E-19         0.00000E+00
    0.34870E-07        -0.39116E-19         0.00000E+00
    0.34838E-07        -0.12858E-19         0.00000E+00
    0.34807E-07        -0.93132E-20         0.00000E+00
    0.34776E-07        -0.10664E-19         0.00000E+00
    0.34746E-07        -0.22352E-19         0.00000E+00
    0.34717E-07        -0.40978E-19         0.00000E+00
    0.34688E-07         0.37253E-20         0.00000E+00
    0.34660E-07        -0.39648E-19         0.00000E+00
    0.34632E-07         0.11270E-19         0.00000E+00
    0.34605E-07        -0.17350E-19         0.00000E+00
    0.34579E-07        -0.31812E-19         0.00000E+00
    0.34554E-07         0.18626E-20         0.00000E+00
    0.34529E-07        -0.24948E-19         0.00000E+00
    0.34506E-07         0.20489E-19         0.00000E+00
    0.34482E-07        -0.72024E-20         0.00000E+00
    0.34460E-07         0.11176E-19         0.00000E+00
    0.34438E-07         0.22352E-19         0.00000E+00
    0.34418E-07         0.24214E-19         0.00000E+00
    0.34397E-07        -0.27940E-20         0.00000E+00
    0.34378E-07        -0.18626E-19         0.00000E+00
    0.34360E-07         0.14720E-20         0.00000E+00
    0.34342E-07         0.55879E-20         0.00000E+00
    0.34325E-07         0.11176E-19         0.00000E+00
    0.34308E-07         0.16764E-19         0.00000E+00
    0.34293E-07         0.18626E-19         0.00000E+00
    0.34278E-07         0.13039E-19         0.00000E+00
    0.34264E-07         0.23861E-20         0.00000E+00
    0.34250E-07         0.74506E-20         0.00000E+00
    0.34237E-07        -0.37253E-20         0.00000E+00
    0.34225E-07         0.93132E-20         0.00000E+00
    0.34214E-07        -0.93132E-20         0.00000E+00
    0.34203E-07        -0.91505E-20         0.00000E+00
    0.34193E-07        -0.62368E-20         0.00000E+00
    0.34183E-07        -0.20351E-21         0.00000E+00
    0.34175E-07        -0.93132E-20         0.00000E+00
    0.34166E-07        -0.13726E-19         0.00000E+00
    0.34159E-07        -0.57899E-20         0.00000E+00
    0.34151E-07        -0.40088E-20         0.00000E+00
    0.34145E-07         0.10570E-19         0.00000E+00
    0.34139E-07         0.32919E-19         0.00000E+00
    0.34134E-07         0.14901E-19         0.00000E+00
    0.34129E-07         0.21990E-19         0.00000E+00
    0.34124E-07         0.22267E-19         0.00000E+00
    0.34121E-07        -0.40044E-21         0.00000E+00
    0.34117E-07        -0.37253E-20         0.00000E+00
    0.34115E-07         0.16764E-19         0.00000E+00
    0.34112E-07         0.55879E-20         0.00000E+00
    0.34111E-07         0.18172E-19         0.00000E+00
    0.34109E-07         0.92826E-20         0.00000E+00
    0.34109E-07        -0.37253E-20         0.00000E+00
    0.34108E-07         0.00000E+00         0.00000E+00
    0.36153E-07         0.00000E+00         0.00000E+00
    0.36152E-07         0.00000E+00         0.00000E+00
    0.36150E-07         0.74506E-20         0.00000E+00
    0.36146E-07         0.26077E-19         0.00000E+00
    0.36140E-07         0.52154E-19         0.00000E+00
    0.36134E-07         0.48429E-19         0.00000E+00
    0.36125E-07         0.14901E-19         0.00000E+00
    0.36116E-07         0.48429E-19         0.00000E+00
    0.36104E-07         0.37253E-19         0.00000E+00
    0.36092E-07         0.29802E-19         0.00000E+00
    0.36077E-07        -0.74506E-20         0.00000E+00
    0.36062E-07         0.80675E-20         0.00000E+00
    0.36045E-07         0.13039E-19         0.00000E+00
    0.36027E-07        -0.55879E-20         0.00000E+00
    0.36008E-07         0.39116E-19         0.00000E+00
    0.35987E-07         0.00000E+00         0.00000E+00
    0.35965E-07         0.31665E-19         0.00000E+00
    0.35942E-07         0.10710E-19         0.00000E+00
    0.35918E-07        -0.42841E-19         0.00000E+00
    0.35893E-07        -0.38184E-19         0.00000E+00
    0.35866E-07        -0.20489E-19         0.00000E+00
    0.35839E-07        -0.31665E-19         0.00000E+00
    0.35811E-07        -0.50463E-19         0.00000E+00
    0.35782E-07        -0.12406E-19         0.00000E+00
    0.35752E-07        -0.11176E-19         0.00000E+00
    0.35722E-07        -0.14348E-19         0.00000E+00
    0.35691E-07         0.24214E-19         0.00000E+00
    0.35659E-07         0.18626E-19         0.00000E+00
    0.35626E-07         0.16764E-19         0.00000E+00
    0.35593E-07         0.13970E-19         0.00000E+00
    0.35560E-07         0.22352E-19         0.00000E+00
    0.35526E-07        -0.55879E-20         0.00000E+00
    0.35491E-07        -0.18626E-20         0.00000E+00
    0.35457E-07        -0.55879E-20         0.00000E+00
    0.35422E-07         0.87231E-20         0.00000E+00
    0.35387E-07        -0.14059E-19         0.00000E+00
    0.35351E-07        -0.11176E-19         0.00000E+00
    0.35316E-07        -0.24214E-19         0.00000E+00
    0.35281E-07        -0.21420E-19         0.00000E+00
    0.35245E-07        -0.17679E-19         0.00000E+00
    0.35210E-07        -0.88440E-20         0.00000E+00
    0.35175E-07        -0.20489E-19         0.00000E+00
    0.35140E-07        -0.57742E-19         0.00000E+00
    0.35105E-07        -0.48429E-19         0.00000E+00
    0.35070E-07        -0.25774E-19         0.00000E+00
    0.35036E-07        -0.30355E-19         0.00000E+00
    0.35002E-07        -0.38054E-19         0.00000E+00
    0.34968E-07        -0.46566E-19         0.00000E+00
    0.34935E-07        -0.24214E-19         0.00000E+00
    0.34902E-07        -0.24530E-19         0.00000E+00
    0.34870E-07        -0.18626E-19         0.00000E+00
    0.34838E-07        -0.20670E-19         0.00000E+00
    0.34807E-07        -0.18626E-20         0.00000E+00
    0.34776E-07        -0.13970E-19         0.00000E+00
    0.34746E-07        -0.20489E-19         0.00000E+00
    0.34717E-07        -0.48429E-19         0.00000E+00
    0.34688E-07        -0.37253E-20         0.00000E+00
    0.34660E-07        -0.16764E-19         0.00000E+00
    0.34632E-07         0.45630E-20         0.00000E+00
    0.34605E-07        -0.25146E-19         0.00000E+00
    0.34579E-07        -0.32450E-19         0.00000E+00
    0.34554E-07         0.18626E-20         0.00000E+00
    0.34529E-07        -0.18626E-19         0.00000E+00
    0.34506E-07         0.55879E-20         0.00000E+00
    0.34482E-07        -0.19806E-19         0.00000E+00
    0.34460E-07         0.74506E-20         0.00000E+00
    0.34438E-07         0.28871E-19         0.00000E+00
    0.34418E-07         0.17695E-19         0.00000E+00
    0.34397E-07         0.71062E-20         0.00000E+00
    0.34378E-07        -0.13039E-19         0.00000E+00
    0.34360E-07        -0.28480E-19         0.00000E+00
    0.34342E-07         0.00000E+00         0.00000E+00
    0.34325E-07         0.00000E+00         0.00000E+00
    0.34308E-07         0.16764E-19         0.00000E+00
    0.34293E-07        -0.93132E-21         0.00000E+00
    0.34278E-07         0.13039E-19         0.00000E+00
    0.34264E-07        -0.11699E-19         0.00000E+00
    0.34250E-07         0.74506E-20         0.00000E+00
    0.34237E-07         0.10245E-19         0.00000E+00
    0.34225E-07         0.93132E-21         0.00000E+00
    0.34214E-07         0.00000E+00         0.00000E+00
    0.34203E-07        -0.29965E-19         0.00000E+00
    0.34193E-07        -0.11176E-19         0.00000E+00
    0.34183E-07        -0.16560E-19         0.00000E+00
    0.34175E-07        -0.17006E-19         0.00000E+00
    0.34166E-07        -0.11176E-19         0.00000E+00
    0.34159E-07        -0.55879E-20         0.00000E+00
    0.34151E-07        -0.64785E-21         0.00000E+00
    0.34145E-07         0.23121E-19         0.00000E+00
    0.34139E-07         0.17695E-19         0.00000E+00
    0.34134E-07         0.13162E-19         0.00000E+00
    0.34129E-07         0.32027E-19         0.00000E+00
    0.34124E-07         0.93978E-20         0.00000E+00
    0.34121E-07        -0.74506E-20         0.00000E+00
    0.34117E-07         0.13039E-19         0.00000E+00
    0.34115E-07         0.11176E-19         0.00000E+00
    0.34112E-07         0.14901E-19         0.00000E+00
    0.34111E-07         0.74506E-20         0.00000E+00
    0.34109E-07         0.23314E-19         0.00000E+00
    0.34109E-07         0.00000E+00         0.00000E+00
    0.34108E-07         0.00000E+00         0.00000E+00
    0.36153E-07         0.00000E+00         0.00000E+00
    0.36152E-07         0.29802E-19         0.00000E+00
    0.36150E-07        -0.29802E-19         0.00000E+00
    0.36146E-07         0.18626E-19         0.00000E+00
    0.36140E-07         0.55879E-19         0.00000E+00
    0.36134E-07         0.55879E-20         0.00000E+00
    0.36125E-07         0.37253E-19         0.00000E+00
    0.36116E-07         0.48429E-19         0.00000E+00
    0.36104E-07         0.52154E-19         0.00000E+00
    0.36092E-07         0.27940E-19         0.00000E+00
    0.36077E-07         0.23283E-19         0.00000E+00
    0.36062E-07         0.13353E-19         0.00000E+00
    0.36045E-07        -0.13039E-19         0.00000E+00
    0.36027E-07         0.26077E-19         0.00000E+00
    0.36008E-07         0.14901E-19         0.00000E+00
    0.35987E-07         0.27940E-19         0.00000E+00
    0.35965E-07         0.55879E-20         0.00000E+00
    0.35942E-07         0.69848E-20         0.00000E+00
    0.35918E-07        -0.18626E-20         0.00000E+00
    0.35893E-07        -0.43051E-19         0.00000E+00
    0.35866E-07         0.13039E-19         0.00000E+00
    0.35839E-07        -0.42841E-19         0.00000E+00
    0.35811E-07        -0.42669E-19         0.00000E+00
    0.35782E-07        -0.24547E-19         0.00000E+00
    0.35752E-07         0.37253E-20         0.00000E+00
    0.35722E-07         0.74506E-20         0.00000E+00
    0.35691E-07        -0.18626E-19         0.00000E+00
    0.35659E-07         0.31665E-19         0.00000E+00
    0.35626E-07         0.93132E-20         0.00000E+00
    0.35593E-07         0.12366E-19         0.00000E+00
    0.35560E-07         0.29802E-19         0.00000E+00
    0.35526E-07         0.37253E-20         0.00000E+00
    0.35491E-07        -0.18626E-19         0.00000E+00
    0.35457E-07        -0.25739E-19         0.00000E+00
    0.35422E-07         0.28530E-19         0.00000E+00
    0.35387E-07        -0.16764E-19         0.00000E+00
    0.35351E-07        -0.93132E-20         0.00000E+00
    0.35316E-07        -0.12107E-19         0.00000E+00
    0.35281E-07        -0.26344E-19         0.00000E+00
    0.35245E-07        -0.74665E-20         0.00000E+00
    0.35210E-07        -0.46566E-19         0.00000E+00
    0.35175E-07         0.13485E-19         0.00000E+00
    0.35140E-07        -0.70781E-19         0.00000E+00
    0.35105E-07        -0.46566E-19         0.00000E+00
    0.35070E-07        -0.40675E-19         0.00000E+00
    0.35036E-07        -0.17143E-19         0.00000E+00
    0.35002E-07        -0.33658E-19         0.00000E+00
    0.34968E-07        -0.37134E-19         0.00000E+00
    0.34935E-07        -0.20489E-19         0.00000E+00
    0.34902E-07        -0.33528E-19         0.00000E+00
    0.34870E-07        -0.11176E-19         0.00000E+00
    0.34838E-07        -0.23853E-19         0.00000E+00
    0.34807E-07        -0.55879E-20         0.00000E+00
    0.34776E-07        -0.88935E-20         0.00000E+00
    0.34746E-07        -0.42841E-19         0.00000E+00
    0.34717E-07        -0.20489E-19         0.00000E+00
    0.34688E-07        -0.11176E-19         0.00000E+00
    0.34660E-07        -0.13438E-19         0.00000E+00
    0.34632E-07         0.12107E-19         0.00000E+00
    0.34605E-07        -0.45980E-19         0.00000E+00
    0.34579E-07        -0.55879E-20         0.00000E+00
    0.34554E-07        -0.77437E-20         0.00000E+00
    0.34529E-07        -0.18626E-20         0.00000E+00
    0.34506E-07        -0.16764E-19         0.00000E+00
    0.34482E-07        -0.18626E-19         0.00000E+00
    0.34460E-07         0.55879E-20         0.00000E+00
    0.34438E-07         0.31031E-19         0.00000E+00
    0.34418E-07         0.73057E-20         0.00000E+00
    0.34397E-07         0.68636E-20         0.00000E+00
    0.34378E-07         0.00000E+00         0.00000E+00
    0.34360E-07        -0.41910E-19         0.00000E+00
    0.34342E-07         0.74506E-20         0.00000E+00
    0.34325E-07        -0.11176E-19         0.00000E+00
    0.34308E-07        -0.18626E-20         0.00000E+00
    0.34293E-07        -0.45117E-21         0.00000E+00
    0.34278E-07         0.00000E+00         0.00000E+00
    0.34264E-07         0.00000E+00         0.00000E+00
    0.34250E-07         0.00000E+00         0.00000E+00
    0.34237E-07         0.80166E-20         0.00000E+00
    0.34225E-07        -0.81002E-21         0.00000E+00
    0.34214E-07         0.18626E-20         0.00000E+00
    0.34203E-07        -0.24052E-19         0.00000E+00
    0.34193E-07        -0.37253E-20         0.00000E+00
    0.34183E-07        -0.21217E-19         0.00000E+00
    0.34175E-07        -0.11176E-19         0.00000E+00
    0.34166E-07        -0.46566E-20         0.00000E+00
    0.34159E-07        -0.22352E-19         0.00000E+00
    0.34151E-07         0.18626E-19         0.00000E+00
    0.34145E-07         0.26846E-19         0.00000E+00
    0.34139E-07         0.22675E-19         0.00000E+00
    0.34134E-07         0.73272E-20         0.00000E+00
    0.34129E-07         0.41340E-19         0.00000E+00
    0.34124E-07         0.92287E-20         0.00000E+00
    0.34121E-07        -0.14622E-20         0.00000E+00
    0.34117E-07         0.18580E-19         0.00000E+00
    0.34115E-07         0.88743E-20         0.00000E+00
    0.34112E-07         0.18626E-19         0.00000E+00
    0.34111E-07         0.93132E-20         0.00000E+00
    0.34109E-07         0.37253E-20         0.00000E+00
    0.34109E-07         0.13039E-19         0.00000E+00
    0.34108E-07         0.00000E+00         0.00000E+00
    0.36153E-07         0.00000E+00         0.00000E+00
    0.36152E-07         0.29802E-19         0.00000E+00
    0.36150E-07        -0.18626E-19         0.00000E+00
    0.36146E-07         0.14252E-19         0.00000E+00
    0.36140E-07         0.37253E-19         0.00000E+00
    0.36134E-07         0.16263E-19         0.00000E+00
    0.36125E-07         0.37722E-19         0.00000E+00
    0.36116E-07         0.40978E-19         0.00000E+00
    0.36104E-07         0.40978E-19         0.00000E+00
    0.36092E-07         0.27940E-19         0.00000E+00
    0.36077E-07         0.29121E-19         0.00000E+00
    0.36062E-07         0.31351E-19         0.00000E+00
    0.36045E-07        -0.17142E-19         0.00000E+00
    0.36027E-07         0.18626E-19         0.00000E+00
    0.36008E-07         0.48429E-19         0.00000E+00
    0.35987E-07         0.14901E-19         0.00000E+00
    0.35965E-07        -0.14901E-19         0.00000E+00
    0.35942E-07         0.00000E+00         0.00000E+00
    0.35918E-07         0.42841E-19         0.00000E+00
    0.35893E-07        -0.54738E-19         0.00000E+00
    0.35866E-07         0.16681E-19         0.00000E+00
    0.35839E-07        -0.18626E-19         0.00000E+00
    0.35811E-07        -0.39288E-19         0.00000E+00
    0.35782E-07        -0.13970E-19         0.00000E+00
    0.35752E-07        -0.22891E-20         0.00000E+00
    0.35722E-07         0.93132E-20         0.00000E+00
    0.35691E-07        -0.93132E-20         0.00000E+00
    0.35659E-07        -0.18626E-20         0.00000E+00
    0.35626E-07         0.33528E-19         0.00000E+00
    0.35593E-07         0.34666E-20         0.00000E+00
    0.35560E-07         0.13970E-19         0.00000E+00
    0.35526E-07         0.93132E-20         0.00000E+00
    0.35491E-07        -0.35390E-19         0.00000E+00
    0.35457E-07        -0.20827E-19         0.00000E+00
    0.35422E-07         0.18626E-19         0.00000E+00
    0.35387E-07        -0.26077E-19         0.00000E+00
    0.35351E-07        -0.13039E-19         0.00000E+00
    0.35316E-07        -0.32075E-20         0.00000E+00
    0.35281E-07         0.67860E-20         0.00000E+00
    0.35245E-07        -0.24198E-19         0.00000E+00
    0.35210E-07        -0.31665E-19         0.00000E+00
    0.35175E-07         0.24214E-19         0.00000E+00
    0.35140E-07        -0.52154E-19         0.00000E+00
    0.35105E-07        -0.43772E-19         0.00000E+00
    0.35070E-07        -0.37556E-19         0.00000E+00
    0.35036E-07        -0.66925E-20         0.00000E+00
    0.35002E-07        -0.27810E-19         0.00000E+00
    0.34968E-07        -0.13970E-19         0.00000E+00
    0.34935E-07        -0.26077E-19         0.00000E+00
    0.34902E-07        -0.23283E-19         0.00000E+00
    0.34870E-07        -0.40978E-19         0.00000E+00
    0.34838E-07         0.89523E-20         0.00000E+00
    0.34807E-07        -0.26077E-19         0.00000E+00
    0.34776E-07        -0.25565E-19         0.00000E+00
    0.34746E-07        -0.37253E-19         0.00000E+00
    0.34717E-07         0.00000E+00         0.00000E+00
    0.34688E-07        -0.22352E-19         0.00000E+00
    0.34660E-07         0.37253E-20         0.00000E+00
    0.34632E-07         0.56816E-20         0.00000E+00
    0.34605E-07        -0.25732E-19         0.00000E+00
    0.34579E-07        -0.83819E-20         0.00000E+00
    0.34554E-07        -0.14608E-19         0.00000E+00
    0.34529E-07        -0.18626E-20         0.00000E+00
    0.34506E-07        -0.26077E-19         0.00000E+00
    0.34482E-07        -0.35390E-19         0.00000E+00
    0.34460E-07         0.13039E-19         0.00000E+00
    0.34438E-07         0.14604E-19         0.00000E+00
    0.34418E-07         0.10389E-19         0.00000E+00
    0.34397E-07        -0.31383E-20         0.00000E+00
    0.34378E-07        -0.18626E-20         0.00000E+00
    0.34360E-07        -0.69099E-20         0.00000E+00
    0.34342E-07        -0.55879E-20         0.00000E+00
    0.34325E-07        -0.14901E-19         0.00000E+00
    0.34308E-07        -0.74506E-20         0.00000E+00
    0.34293E-07         0.32451E-20         0.00000E+00
    0.34278E-07        -0.36266E-22         0.00000E+00
    0.34264E-07        -0.18626E-20         0.00000E+00
    0.34250E-07        -0.11176E-19         0.00000E+00
    0.34237E-07         0.15266E-19         0.00000E+00
    0.34225E-07        -0.11176E-19         0.00000E+00
    0.34214E-07        -0.37253E-20         0.00000E+00
    0.34203E-07        -0.66820E-20         0.00000E+00
    0.34193E-07        -0.83819E-20         0.00000E+00
    0.34183E-07        -0.18102E-19         0.00000E+00
    0.34175E-07         0.11733E-20         0.00000E+00
    0.34166E-07         0.44129E-20         0.00000E+00
    0.34159E-07        -0.22352E-19         0.00000E+00
    0.34151E-07         0.32596E-19         0.00000E+00
    0.34145E-07         0.17858E-19         0.00000E+00
    0.34139E-07         0.17372E-19         0.00000E+00
    0.34134E-07         0.11423E-19         0.00000E+00
    0.34129E-07         0.20127E-19         0.00000E+00
    0.34124E-07         0.18711E-19         0.00000E+00
    0.34121E-07         0.18626E-19         0.00000E+00
    0.34117E-07         0.83819E-20         0.00000E+00
    0.34115E-07         0.60268E-20         0.00000E+00
    0.34112E-07         0.16764E-19         0.00000E+00
    0.34111E-07         0.16764E-19         0.00000E+00
    0.34109E-07        -0.46566E-20         0.00000E+00
    0.34109E-07         0.13039E-19         0.00000E+00
    0.34108E-07         0.00000E+00         0.00000E+00
    0.36153E-07         0.00000E+00         0.00000E+00
    0.36152E-07        -0.22352E-19         0.00000E+00
    0.36150E-07         0.44703E-19         0.00000E+00
    0.36146E-07         0.34176E-19         0.00000E+00
    0.36140E-07         0.18626E-19         0.00000E+00
    0.36134E-07         0.42841E-19         0.00000E+00
    0.36125E-07         0.21883E-19         0.00000E+00
    0.36116E-07         0.37253E-20         0.00000E+00
    0.36104E-07         0.26077E-19         0.00000E+00
    0.36092E-07         0.22352E-19         0.00000E+00
    0.36077E-07         0.23283E-19         0.00000E+00
    0.36062E-07         0.86964E-20         0.00000E+00
    0.36045E-07         0.37853E-21         0.00000E+00
    0.36027E-07         0.24214E-19         0.00000E+00
    0.36008E-07         0.35390E-19         0.00000E+00
    0.35987E-07        -0.39351E-20         0.00000E+00
    0.35965E-07         0.54017E-19         0.00000E+00
    0.35942E-07        -0.27940E-20         0.00000E+00
    0.35918E-07         0.18626E-19         0.00000E+00
    0.35893E-07        -0.55879E-20         0.00000E+00
    0.35866E-07        -0.18626E-20         0.00000E+00
    0.35839E-07         0.65193E-20         0.00000E+00
    0.35811E-07        -0.11004E-19         0.00000E+00
    0.35782E-07        -0.28239E-19         0.00000E+00
    0.35752E-07        -0.51615E-20         0.00000E+00
    0.35722E-07         0.00000E+00         0.00000E+00
    0.35691E-07         0.55879E-20         0.00000E+00
    0.35659E-07         0.55879E-20         0.00000E+00
    0.35626E-07         0.44703E-19         0.00000E+00
    0.35593E-07         0.23283E-19         0.00000E+00
    0.35560E-07         0.12527E-19         0.00000E+00
    0.35526E-07         0.14901E-19         0.00000E+00
    0.35491E-07        -0.22352E-19         0.00000E+00
    0.35457E-07         0.18626E-20         0.00000E+00
    0.35422E-07        -0.10245E-19         0.00000E+00
    0.35387E-07        -0.31665E-19         0.00000E+00
    0.35351E-07        -0.22352E-19         0.00000E+00
    0.35316E-07         0.00000E+00         0.00000E+00
    0.35281E-07         0.11176E-19         0.00000E+00
    0.35245E-07        -0.31665E-19         0.00000E+00
    0.35210E-07        -0.83819E-20         0.00000E+00
    0.35175E-07         0.17695E-19         0.00000E+00
    0.35140E-07        -0.24214E-19         0.00000E+00
    0.35105E-07        -0.44757E-19         0.00000E+00
    0.35070E-07        -0.50291E-19         0.00000E+00
    0.35036E-07        -0.93132E-21         0.00000E+00
    0.35002E-07        -0.20619E-19         0.00000E+00
    0.34968E-07        -0.12226E-19         0.00000E+00
    0.34935E-07        -0.19558E-19         0.00000E+00
    0.34902E-07        -0.34098E-20         0.00000E+00
    0.34870E-07        -0.31665E-19         0.00000E+00
    0.34838E-07         0.14901E-19         0.00000E+00
    0.34807E-07        -0.11176E-19         0.00000E+00
    0.34776E-07        -0.33528E-19         0.00000E+00
    0.34746E-07        -0.33528E-19         0.00000E+00
    0.34717E-07        -0.18626E-19         0.00000E+00
    0.34688E-07        -0.27940E-19         0.00000E+00
    0.34660E-07        -0.74506E-20         0.00000E+00
    0.34632E-07        -0.94069E-20         0.00000E+00
    0.34605E-07         0.52426E-20         0.00000E+00
    0.34579E-07        -0.29018E-19         0.00000E+00
    0.34554E-07        -0.26077E-19         0.00000E+00
    0.34529E-07        -0.11176E-19         0.00000E+00
    0.34506E-07        -0.24214E-19         0.00000E+00
    0.34482E-07        -0.16764E-19         0.00000E+00
    0.34460E-07        -0.37253E-20         0.00000E+00
    0.34438E-07         0.55879E-20         0.00000E+00
    0.34418E-07         0.18626E-19         0.00000E+00
    0.34397E-07         0.31383E-20         0.00000E+00
    0.34378E-07        -0.12107E-19         0.00000E+00
    0.34360E-07        -0.18626E-20         0.00000E+00
    0.34342E-07        -0.13039E-19         0.00000E+00
    0.34325E-07        -0.24214E-19         0.00000E+00
    0.34308E-07         0.14901E-19         0.00000E+00
    0.34293E-07        -0.55879E-20         0.00000E+00
    0.34278E-07         0.83819E-20         0.00000E+00
    0.34264E-07         0.18626E-20         0.00000E+00
    0.34250E-07        -0.24214E-19         0.00000E+00
    0.34237E-07         0.10245E-19         0.00000E+00
    0.34225E-07        -0.93132E-21         0.00000E+00
    0.34214E-07        -0.16764E-19         0.00000E+00
    0.34203E-07         0.37253E-20         0.00000E+00
    0.34193E-07        -0.15184E-19         0.00000E+00
    0.34183E-07        -0.81784E-20         0.00000E+00
    0.34175E-07        -0.67612E-20         0.00000E+00
    0.34166E-07         0.14901E-19         0.00000E+00
    0.34159E-07        -0.72486E-20         0.00000E+00
    0.34151E-07         0.31948E-19         0.00000E+00
    0.34145E-07         0.11176E-19         0.00000E+00
    0.34139E-07         0.65193E-20         0.00000E+00
    0.34134E-07         0.13970E-19         0.00000E+00
    0.34129E-07        -0.10814E-19         0.00000E+00
    0.34124E-07         0.24130E-19         0.00000E+00
    0.34121E-07         0.23814E-19         0.00000E+00
    0.34117E-07         0.10291E-19         0.00000E+00
    0.34115E-07         0.13039E-19         0.00000E+00
    0.34112E-07         0.13970E-19         0.00000E+00
    0.34111E-07         0.20489E-19         0.00000E+00
    0.34109E-07         0.33497E-19         0.00000E+00
    0.34109E-07         0.37253E-20         0.00000E+00
    0.34108E-07         0.00000E+00         0.00000E+00
    0.36153E-07         0.00000E+00         0.00000E+00
    0.36152E-07        -0.33528E-19         0.00000E+00
    0.36150E-07         0.59605E-19         0.00000E+00
    0.36146E-07         0.44055E-19         0.00000E+00
    0.36140E-07         0.29802E-19         0.00000E+00
    0.36134E-07         0.28441E-19         0.00000E+00
    0.36125E-07         0.41941E-20         0.00000E+00
    0.36116E-07        -0.18626E-20         0.00000E+00
    0.36104E-07         0.74506E-20         0.00000E+00
    0.36092E-07         0.15832E-19         0.00000E+00
    0.36077E-07         0.68097E-21         0.00000E+00
    0.36062E-07        -0.31084E-20         0.00000E+00
    0.36045E-07         0.89347E-20         0.00000E+00
    0.36027E-07         0.42841E-19         0.00000E+00
    0.36008E-07         0.37253E-20         0.00000E+00
    0.35987E-07        -0.13039E-19         0.00000E+00
    0.35965E-07         0.70781E-19         0.00000E+00
    0.35942E-07        -0.18161E-19         0.00000E+00
    0.35918E-07        -0.83819E-20         0.00000E+00
    0.35893E-07         0.35390E-19         0.00000E+00
    0.35866E-07        -0.35307E-19         0.00000E+00
    0.35839E-07         0.22396E-19         0.00000E+00
    0.35811E-07        -0.17198E-21         0.00000E+00
    0.35782E-07        -0.35091E-19         0.00000E+00
    0.35752E-07        -0.15328E-19         0.00000E+00
    0.35722E-07         0.20489E-19         0.00000E+00
    0.35691E-07         0.14901E-19         0.00000E+00
    0.35659E-07         0.83819E-20         0.00000E+00
    0.35626E-07         0.33528E-19         0.00000E+00
    0.35593E-07         0.40306E-19         0.00000E+00
    0.35560E-07         0.00000E+00         0.00000E+00
    0.35526E-07         0.22352E-19         0.00000E+00
    0.35491E-07        -0.93132E-20         0.00000E+00
    0.35457E-07        -0.33872E-20         0.00000E+00
    0.35422E-07        -0.32255E-19         0.00000E+00
    0.35387E-07        -0.43772E-19         0.00000E+00
    0.35351E-07        -0.13039E-19         0.00000E+00
    0.35316E-07        -0.70371E-20         0.00000E+00
    0.35281E-07         0.00000E+00         0.00000E+00
    0.35245E-07        -0.11176E-19         0.00000E+00
    0.35210E-07        -0.10479E-19         0.00000E+00
    0.35175E-07        -0.15348E-19         0.00000E+00
    0.35140E-07        -0.13970E-19         0.00000E+00
    0.35105E-07        -0.41856E-19         0.00000E+00
    0.35070E-07        -0.50291E-19         0.00000E+00
    0.35036E-07        -0.26456E-19         0.00000E+00
    0.35002E-07        -0.11046E-19         0.00000E+00
    0.34968E-07        -0.24096E-19         0.00000E+00
    0.34935E-07        -0.14705E-19         0.00000E+00
    0.34902E-07        -0.49721E-20         0.00000E+00
    0.34870E-07        -0.11176E-19         0.00000E+00
    0.34838E-07        -0.94937E-20         0.00000E+00
    0.34807E-07        -0.74506E-20         0.00000E+00
    0.34776E-07        -0.13039E-19         0.00000E+00
    0.34746E-07        -0.54017E-19         0.00000E+00
    0.34717E-07        -0.29802E-19         0.00000E+00
    0.34688E-07        -0.35390E-19         0.00000E+00
    0.34660E-07        -0.14635E-20         0.00000E+00
    0.34632E-07        -0.25983E-19         0.00000E+00
    0.34605E-07         0.27940E-20         0.00000E+00
    0.34579E-07        -0.13970E-19         0.00000E+00
    0.34554E-07        -0.46566E-19         0.00000E+00
    0.34529E-07        -0.18626E-19         0.00000E+00
    0.34506E-07        -0.29802E-19         0.00000E+00
    0.34482E-07         0.14901E-19         0.00000E+00
    0.34460E-07        -0.26077E-19         0.00000E+00
    0.34438E-07         0.96101E-20         0.00000E+00
    0.34418E-07         0.20489E-19         0.00000E+00
    0.34397E-07         0.46566E-20         0.00000E+00
    0.34378E-07        -0.83332E-21         0.00000E+00
    0.34360E-07        -0.16764E-19         0.00000E+00
    0.34342E-07        -0.65193E-20         0.00000E+00
    0.34325E-07        -0.24214E-19         0.00000E+00
    0.34308E-07         0.13039E-19         0.00000E+00
    0.34293E-07         0.11176E-19         0.00000E+00
    0.34278E-07         0.14006E-19         0.00000E+00
    0.34264E-07         0.14901E-19         0.00000E+00
    0.34250E-07        -0.16764E-19         0.00000E+00
    0.34237E-07        -0.18992E-19         0.00000E+00
    0.34225E-07         0.11055E-19         0.00000E+00
    0.34214E-07        -0.20489E-19         0.00000E+00
    0.34203E-07         0.23283E-19         0.00000E+00
    0.34193E-07        -0.10893E-19         0.00000E+00
    0.34183E-07         0.74506E-20         0.00000E+00
    0.34175E-07        -0.13039E-19         0.00000E+00
    0.34166E-07         0.93132E-21         0.00000E+00
    0.34159E-07         0.35233E-20         0.00000E+00
    0.34151E-07         0.26725E-19         0.00000E+00
    0.34145E-07         0.18626E-20         0.00000E+00
    0.34139E-07         0.21743E-19         0.00000E+00
    0.34134E-07         0.36019E-20         0.00000E+00
    0.34129E-07        -0.36176E-21         0.00000E+00
    0.34124E-07         0.13123E-19         0.00000E+00
    0.34121E-07         0.24214E-19         0.00000E+00
    0.34117E-07         0.36793E-20         0.00000E+00
    0.34115E-07         0.16764E-19         0.00000E+00
    0.34112E-07         0.13985E-19         0.00000E+00
    0.34111E-07         0.29325E-19         0.00000E+00
    0.34109E-07         0.36352E-19         0.00000E+00
    0.34109E-07        -0.18626E-20         0.00000E+00
    0.34108E-07         0.18626E-20         0.00000E+00
    0.36153E-07         0.00000E+00         0.00000E+00
    0.36152E-07         0.37253E-20         0.00000E+00
    0.36150E-07         0.22352E-19         0.00000E+00
    0.36146E-07         0.37253E-19         0.00000E+00
    0.36140E-07         0.52154E-19         0.00000E+00
    0.36134E-07         0.14901E-19         0.00000E+00
    0.36125E-07         0.48429E-19         0.00000E+00
    0.36116E-07         0.10302E-19         0.00000E+00
    0.36104E-07        -0.93132E-20         0.00000E+00
    0.36092E-07         0.25891E-19         0.00000E+00
    0.36077E-07        -0.24214E-19         0.00000E+00
    0.36062E-07         0.55879E-20         0.00000E+00
    0.36045E-07         0.31665E-19         0.00000E+00
    0.36027E-07        -0.37253E-20         0.00000E+00
    0.36008E-07         0.13120E-19         0.00000E+00
    0.35987E-07        -0.72408E-20         0.00000E+00
    0.35965E-07         0.46566E-20         0.00000E+00
    0.35942E-07        -0.13970E-19         0.00000E+00
    0.35918E-07        -0.89751E-20         0.00000E+00
    0.35893E-07         0.27940E-19         0.00000E+00
    0.35866E-07        -0.37253E-19         0.00000E+00
    0.35839E-07        -0.10289E-19         0.00000E+00
    0.35811E-07         0.18626E-20         0.00000E+00
    0.35782E-07        -0.11475E-19         0.00000E+00
    0.35752E-07        -0.27940E-19         0.00000E+00
    0.35722E-07         0.28317E-19         0.00000E+00
    0.35691E-07         0.20489E-19         0.00000E+00
    0.35659E-07         0.22104E-19         0.00000E+00
    0.35626E-07         0.26083E-19         0.00000E+00
    0.35593E-07         0.00000E+00         0.00000E+00
    0.35560E-07         0.33057E-20         0.00000E+00
    0.35526E-07        -0.55879E-20         0.00000E+00
    0.35491E-07         0.13039E-19         0.00000E+00
    0.35457E-07        -0.28278E-19         0.00000E+00
    0.35422E-07        -0.41910E-19         0.00000E+00
    0.35387E-07        -0.47408E-19         0.00000E+00
    0.35351E-07         0.35631E-20         0.00000E+00
    0.35316E-07        -0.55879E-20         0.00000E+00
    0.35281E-07         0.12107E-19         0.00000E+00
    0.35245E-07        -0.14901E-19         0.00000E+00
    0.35210E-07        -0.16764E-19         0.00000E+00
    0.35175E-07        -0.28425E-19         0.00000E+00
    0.35140E-07        -0.15636E-19         0.00000E+00
    0.35105E-07        -0.20489E-19         0.00000E+00
    0.35070E-07        -0.23911E-19         0.00000E+00
    0.35036E-07        -0.59052E-19         0.00000E+00
    0.35002E-07        -0.66492E-20         0.00000E+00
    0.34968E-07        -0.33528E-19         0.00000E+00
    0.34935E-07        -0.48530E-20         0.00000E+00
    0.34902E-07        -0.11176E-19         0.00000E+00
    0.34870E-07         0.37253E-20         0.00000E+00
    0.34838E-07        -0.22171E-19         0.00000E+00
    0.34807E-07        -0.93132E-20         0.00000E+00
    0.34776E-07        -0.74506E-20         0.00000E+00
    0.34746E-07        -0.55879E-19         0.00000E+00
    0.34717E-07        -0.26077E-19         0.00000E+00
    0.34688E-07        -0.40978E-19         0.00000E+00
    0.34660E-07         0.13039E-19         0.00000E+00
    0.34632E-07        -0.26171E-19         0.00000E+00
    0.34605E-07        -0.14556E-19         0.00000E+00
    0.34579E-07         0.10391E-19         0.00000E+00
    0.34554E-07        -0.34459E-19         0.00000E+00
    0.34529E-07        -0.14901E-19         0.00000E+00
    0.34506E-07        -0.40978E-19         0.00000E+00
    0.34482E-07         0.93132E-20         0.00000E+00
    0.34460E-07        -0.26077E-19         0.00000E+00
    0.34438E-07        -0.13335E-19         0.00000E+00
    0.34418E-07         0.26077E-19         0.00000E+00
    0.34397E-07         0.33809E-20         0.00000E+00
    0.34378E-07        -0.55879E-20         0.00000E+00
    0.34360E-07        -0.46566E-20         0.00000E+00
    0.34342E-07        -0.92610E-20         0.00000E+00
    0.34325E-07        -0.10245E-19         0.00000E+00
    0.34308E-07        -0.55879E-20         0.00000E+00
    0.34293E-07         0.93132E-21         0.00000E+00
    0.34278E-07         0.24214E-19         0.00000E+00
    0.34264E-07         0.18626E-19         0.00000E+00
    0.34250E-07        -0.74506E-20         0.00000E+00
    0.34237E-07        -0.24780E-19         0.00000E+00
    0.34225E-07         0.13160E-19         0.00000E+00
    0.34214E-07         0.15391E-20         0.00000E+00
    0.34203E-07         0.30896E-19         0.00000E+00
    0.34193E-07        -0.40078E-20         0.00000E+00
    0.34183E-07         0.16764E-19         0.00000E+00
    0.34175E-07         0.00000E+00         0.00000E+00
    0.34166E-07        -0.90695E-20         0.00000E+00
    0.34159E-07         0.13039E-19         0.00000E+00
    0.34151E-07         0.93132E-21         0.00000E+00
    0.34145E-07         0.20327E-19         0.00000E+00
    0.34139E-07         0.23283E-19         0.00000E+00
    0.34134E-07         0.45333E-20         0.00000E+00
    0.34129E-07         0.96750E-20         0.00000E+00
    0.34124E-07         0.14817E-19         0.00000E+00
    0.34121E-07         0.34859E-19         0.00000E+00
    0.34117E-07         0.14901E-19         0.00000E+00
    0.34115E-07        -0.55879E-20         0.00000E+00
    0.34112E-07         0.18611E-19         0.00000E+00
    0.34111E-07         0.20035E-19         0.00000E+00
    0.34109E-07         0.15832E-19         0.00000E+00
    0.34109E-07        -0.37253E-20         0.00000E+00
    0.34108E-07         0.17252E-20         0.00000E+00
    0.36153E-07         0.00000E+00         0.00000E+00
    0.36152E-07         0.15209E-19         0.00000E+00
    0.36150E-07         0.15534E-19         0.00000E+00
    0.36146E-07         0.15550E-19         0.00000E+00
    0.36140E-07         0.55346E-19         0.00000E+00
    0.36134E-07         0.29802E-19         0.00000E+00
    0.36125E-07         0.40509E-19         0.00000E+00
    0.36116E-07         0.64613E-20         0.00000E+00
    0.36104E-07         0.29161E-20         0.00000E+00
    0.36092E-07        -0.12852E-19         0.00000E+00
    0.36077E-07         0.14901E-19         0.00000E+00
    0.36062E-07        -0.71361E-20         0.00000E+00
    0.36045E-07         0.35769E-19         0.00000E+00
    0.36027E-07        -0.24214E-19         0.00000E+00
    0.36008E-07         0.11094E-19         0.00000E+00
    0.35987E-07         0.14901E-19         0.00000E+00
    0.35965E-07        -0.33190E-19         0.00000E+00
    0.35942E-07         0.60534E-20         0.00000E+00
    0.35918E-07        -0.23621E-19         0.00000E+00
    0.35893E-07         0.11418E-20         0.00000E+00
    0.35866E-07        -0.13039E-19         0.00000E+00
    0.35839E-07        -0.69849E-19         0.00000E+00
    0.35811E-07        -0.35533E-20         0.00000E+00
    0.35782E-07        -0.16465E-19         0.00000E+00
    0.35752E-07        -0.88868E-20         0.00000E+00
    0.35722E-07         0.14848E-20         0.00000E+00
    0.35691E-07         0.16764E-19         0.00000E+00
    0.35659E-07         0.25394E-19         0.00000E+00
    0.35626E-07         0.27934E-19         0.00000E+00
    0.35593E-07        -0.65193E-20         0.00000E+00
    0.35560E-07         0.74506E-20         0.00000E+00
    0.35526E-07        -0.37253E-19         0.00000E+00
    0.35491E-07         0.14987E-19         0.00000E+00
    0.35457E-07        -0.18626E-19         0.00000E+00
    0.35422E-07        -0.50633E-19         0.00000E+00
    0.35387E-07        -0.27008E-19         0.00000E+00
    0.35351E-07         0.57501E-20         0.00000E+00
    0.35316E-07         0.55879E-20         0.00000E+00
    0.35281E-07        -0.62525E-20         0.00000E+00
    0.35245E-07        -0.74506E-20         0.00000E+00
    0.35210E-07         0.83819E-20         0.00000E+00
    0.35175E-07        -0.32404E-20         0.00000E+00
    0.35140E-07        -0.17695E-19         0.00000E+00
    0.35105E-07        -0.83819E-20         0.00000E+00
    0.35070E-07        -0.58909E-20         0.00000E+00
    0.35036E-07        -0.48429E-19         0.00000E+00
    0.35002E-07        -0.63893E-20         0.00000E+00
    0.34968E-07        -0.26077E-19         0.00000E+00
    0.34935E-07        -0.16764E-19         0.00000E+00
    0.34902E-07        -0.15471E-20         0.00000E+00
    0.34870E-07         0.14901E-19         0.00000E+00
    0.34838E-07        -0.48429E-19         0.00000E+00
    0.34807E-07        -0.16764E-19         0.00000E+00
    0.34776E-07        -0.29802E-19         0.00000E+00
    0.34746E-07        -0.46566E-20         0.00000E+00
    0.34717E-07        -0.33528E-19         0.00000E+00
    0.34688E-07        -0.18626E-19         0.00000E+00
    0.34660E-07        -0.18626E-20         0.00000E+00
    0.34632E-07        -0.16670E-19         0.00000E+00
    0.34605E-07        -0.50020E-20         0.00000E+00
    0.34579E-07         0.46566E-20         0.00000E+00
    0.34554E-07        -0.18920E-19         0.00000E+00
    0.34529E-07        -0.16764E-19         0.00000E+00
    0.34506E-07        -0.30734E-19         0.00000E+00
    0.34482E-07        -0.16764E-19         0.00000E+00
    0.34460E-07        -0.31665E-19         0.00000E+00
    0.34438E-07        -0.21124E-19         0.00000E+00
    0.34418E-07         0.13039E-19         0.00000E+00
    0.34397E-07        -0.11763E-19         0.00000E+00
    0.34378E-07        -0.16764E-19         0.00000E+00
    0.34360E-07         0.31846E-20         0.00000E+00
    0.34342E-07        -0.18679E-19         0.00000E+00
    0.34325E-07        -0.10680E-19         0.00000E+00
    0.34308E-07        -0.37253E-20         0.00000E+00
    0.34293E-07        -0.10725E-19         0.00000E+00
    0.34278E-07         0.13039E-19         0.00000E+00
    0.34264E-07         0.74506E-20         0.00000E+00
    0.34250E-07        -0.55879E-20         0.00000E+00
    0.34237E-07        -0.13970E-19         0.00000E+00
    0.34225E-07         0.82606E-20         0.00000E+00
    0.34214E-07         0.14901E-19         0.00000E+00
    0.34203E-07         0.46566E-20         0.00000E+00
    0.34193E-07         0.14252E-19         0.00000E+00
    0.34183E-07         0.55879E-20         0.00000E+00
    0.34175E-07         0.95552E-20         0.00000E+00
    0.34166E-07        -0.15145E-19         0.00000E+00
    0.34159E-07         0.93132E-21         0.00000E+00
    0.34151E-07        -0.95967E-20         0.00000E+00
    0.34145E-07         0.18789E-19         0.00000E+00
    0.34139E-07         0.15398E-20         0.00000E+00
    0.34134E-07         0.29802E-19         0.00000E+00
    0.34129E-07        -0.87437E-20         0.00000E+00
    0.34124E-07         0.29887E-19         0.00000E+00
    0.34121E-07         0.14501E-19         0.00000E+00
    0.34117E-07         0.37253E-19         0.00000E+00
    0.34115E-07        -0.11176E-19         0.00000E+00
    0.34112E-07         0.17695E-19         0.00000E+00
    0.34111E-07         0.12561E-19         0.00000E+00
    0.34109E-07         0.13008E-19         0.00000E+00
    0.34109E-07         0.18626E-20         0.00000E+00
    0.34108E-07        -0.18626E-20         0.00000E+00
    0.36153E-07         0.00000E+00         0.00000E+00
    0.36152E-07         0.34170E-20         0.00000E+00
    0.36150E-07         0.40345E-19         0.00000E+00
    0.36146E-07         0.11176E-19         0.00000E+00
    0.36140E-07         0.37786E-19         0.00000E+00
    0.36134E-07         0.18626E-19         0.00000E+00
    0.36125E-07        -0.11176E-19         0.00000E+00
    0.36116E-07         0.00000E+00         0.00000E+00
    0.36104E-07         0.25024E-19         0.00000E+00
    0.36092E-07        -0.33714E-19         0.00000E+00
    0.36077E-07         0.74506E-20         0.00000E+00
    0.36062E-07        -0.27008E-19         0.00000E+00
    0.36045E-07         0.20489E-19         0.00000E+00
    0.36027E-07        -0.74506E-20         0.00000E+00
    0.36008E-07         0.11176E-19         0.00000E+00
    0.35987E-07         0.11176E-19         0.00000E+00
    0.35965E-07        -0.23621E-19         0.00000E+00
    0.35942E-07         0.11642E-19         0.00000E+00
    0.35918E-07        -0.80438E-20         0.00000E+00
    0.35893E-07        -0.34669E-19         0.00000E+00
    0.35866E-07        -0.13039E-19         0.00000E+00
    0.35839E-07        -0.28826E-19         0.00000E+00
    0.35811E-07        -0.20489E-19         0.00000E+00
    0.35782E-07        -0.15200E-19         0.00000E+00
    0.35752E-07        -0.55879E-20         0.00000E+00
    0.35722E-07        -0.93132E-20         0.00000E+00
    0.35691E-07        -0.13039E-19         0.00000E+00
    0.35659E-07         0.22352E-19         0.00000E+00
    0.35626E-07         0.14901E-19         0.00000E+00
    0.35593E-07         0.43979E-20         0.00000E+00
    0.35560E-07        -0.28871E-19         0.00000E+00
    0.35526E-07        -0.22352E-19         0.00000E+00
    0.35491E-07         0.16678E-19         0.00000E+00
    0.35457E-07        -0.10838E-19         0.00000E+00
    0.35422E-07        -0.47156E-19         0.00000E+00
    0.35387E-07        -0.94026E-20         0.00000E+00
    0.35351E-07         0.72884E-20         0.00000E+00
    0.35316E-07         0.14901E-19         0.00000E+00
    0.35281E-07        -0.31932E-19         0.00000E+00
    0.35245E-07        -0.18626E-20         0.00000E+00
    0.35210E-07         0.32831E-19         0.00000E+00
    0.35175E-07         0.88283E-20         0.00000E+00
    0.35140E-07        -0.76469E-20         0.00000E+00
    0.35105E-07        -0.10298E-19         0.00000E+00
    0.35070E-07        -0.32596E-19         0.00000E+00
    0.35036E-07        -0.46566E-20         0.00000E+00
    0.35002E-07        -0.14100E-19         0.00000E+00
    0.34968E-07         0.83819E-20         0.00000E+00
    0.34935E-07        -0.22719E-19         0.00000E+00
    0.34902E-07        -0.77661E-20         0.00000E+00
    0.34870E-07         0.93132E-20         0.00000E+00
    0.34838E-07        -0.44703E-19         0.00000E+00
    0.34807E-07        -0.22352E-19         0.00000E+00
    0.34776E-07        -0.29383E-19         0.00000E+00
    0.34746E-07        -0.17147E-22         0.00000E+00
    0.34717E-07        -0.24214E-19         0.00000E+00
    0.34688E-07        -0.27940E-20         0.00000E+00
    0.34660E-07        -0.18626E-20         0.00000E+00
    0.34632E-07        -0.21514E-19         0.00000E+00
    0.34605E-07         0.55879E-20         0.00000E+00
    0.34579E-07        -0.66659E-20         0.00000E+00
    0.34554E-07        -0.14608E-19         0.00000E+00
    0.34529E-07        -0.21420E-19         0.00000E+00
    0.34506E-07        -0.30045E-19         0.00000E+00
    0.34482E-07        -0.33528E-19         0.00000E+00
    0.34460E-07        -0.27747E-19         0.00000E+00
    0.34438E-07        -0.49535E-20         0.00000E+00
    0.34418E-07        -0.23283E-19         0.00000E+00
    0.34397E-07        -0.13970E-19         0.00000E+00
    0.34378E-07        -0.10343E-19         0.00000E+00
    0.34360E-07        -0.16764E-19         0.00000E+00
    0.34342E-07        -0.25093E-19         0.00000E+00
    0.34325E-07         0.18626E-20         0.00000E+00
    0.34308E-07        -0.13039E-19         0.00000E+00
    0.34293E-07         0.42054E-20         0.00000E+00
    0.34278E-07        -0.37253E-20         0.00000E+00
    0.34264E-07        -0.13970E-19         0.00000E+00
    0.34250E-07        -0.65193E-20         0.00000E+00
    0.34237E-07        -0.23648E-19         0.00000E+00
    0.34225E-07         0.11176E-19         0.00000E+00
    0.34214E-07        -0.18303E-19         0.00000E+00
    0.34203E-07        -0.66820E-20         0.00000E+00
    0.34193E-07         0.11825E-19         0.00000E+00
    0.34183E-07        -0.93132E-20         0.00000E+00
    0.34175E-07        -0.67612E-20         0.00000E+00
    0.34166E-07        -0.11863E-19         0.00000E+00
    0.34159E-07        -0.25920E-20         0.00000E+00
    0.34151E-07        -0.34418E-20         0.00000E+00
    0.34145E-07         0.37253E-20         0.00000E+00
    0.34139E-07        -0.77734E-20         0.00000E+00
    0.34134E-07         0.42841E-19         0.00000E+00
    0.34129E-07        -0.14901E-19         0.00000E+00
    0.34124E-07         0.26924E-19         0.00000E+00
    0.34121E-07         0.19958E-19         0.00000E+00
    0.34117E-07         0.18626E-19         0.00000E+00
    0.34115E-07         0.10737E-19         0.00000E+00
    0.34112E-07        -0.18550E-20         0.00000E+00
    0.34111E-07         0.20035E-19         0.00000E+00
    0.34109E-07         0.65498E-20         0.00000E+00
    0.34109E-07         0.55879E-20         0.00000E+00
    0.34108E-07        -0.17252E-20         0.00000E+00
    0.36153E-07         0.00000E+00         0.00000E+00
    0.36152E-07         0.14901E-19         0.00000E+00
    0.36150E-07         0.26077E-19         0.00000E+00
    0.36146E-07         0.40978E-19         0.00000E+00
    0.36140E-07         0.18626E-19         0.00000E+00
    0.36134E-07         0.74506E-20         0.00000E+00
    0.36125E-07        -0.44703E-19         0.00000E+00
    0.36116E-07        -0.18626E-19         0.00000E+00
    0.36104E-07         0.74506E-20         0.00000E+00
    0.36092E-07         0.10431E-19         0.00000E+00
    0.36077E-07        -0.31665E-19         0.00000E+00
    0.36062E-07        -0.31445E-21         0.00000E+00
    0.36045E-07         0.14901E-19         0.00000E+00
    0.36027E-07         0.24214E-19         0.00000E+00
    0.36008E-07         0.11176E-19         0.00000E+00
    0.35987E-07         0.18417E-19         0.00000E+00
    0.35965E-07        -0.27940E-20         0.00000E+00
    0.35942E-07        -0.14901E-19         0.00000E+00
    0.35918E-07         0.71125E-20         0.00000E+00
    0.35893E-07        -0.13039E-19         0.00000E+00
    0.35866E-07        -0.22352E-19         0.00000E+00
    0.35839E-07        -0.19072E-20         0.00000E+00
    0.35811E-07        -0.31837E-19         0.00000E+00
    0.35782E-07         0.12306E-20         0.00000E+00
    0.35752E-07        -0.26077E-19         0.00000E+00
    0.35722E-07        -0.55879E-20         0.00000E+00
    0.35691E-07        -0.33528E-19         0.00000E+00
    0.35659E-07         0.22352E-19         0.00000E+00
    0.35626E-07         0.37253E-20         0.00000E+00
    0.35593E-07        -0.22093E-19         0.00000E+00
    0.35560E-07        -0.52666E-19         0.00000E+00
    0.35526E-07        -0.13039E-19         0.00000E+00
    0.35491E-07         0.55879E-20         0.00000E+00
    0.35457E-07        -0.31665E-19         0.00000E+00
    0.35422E-07        -0.29802E-19         0.00000E+00
    0.35387E-07         0.10207E-20         0.00000E+00
    0.35351E-07         0.94754E-20         0.00000E+00
    0.35316E-07        -0.13039E-19         0.00000E+00
    0.35281E-07         0.00000E+00         0.00000E+00
    0.35245E-07         0.55879E-20         0.00000E+00
    0.35210E-07        -0.39599E-20         0.00000E+00
    0.35175E-07         0.12592E-19         0.00000E+00
    0.35140E-07        -0.73496E-21         0.00000E+00
    0.35105E-07        -0.28871E-19         0.00000E+00
    0.35070E-07        -0.32293E-19         0.00000E+00
    0.35036E-07        -0.15453E-19         0.00000E+00
    0.35002E-07        -0.13039E-19         0.00000E+00
    0.34968E-07         0.17576E-19         0.00000E+00
    0.34935E-07        -0.89458E-20         0.00000E+00
    0.34902E-07        -0.18626E-19         0.00000E+00
    0.34870E-07        -0.93132E-20         0.00000E+00
    0.34838E-07        -0.11356E-19         0.00000E+00
    0.34807E-07        -0.28871E-19         0.00000E+00
    0.34776E-07        -0.17184E-19         0.00000E+00
    0.34746E-07        -0.23266E-19         0.00000E+00
    0.34717E-07        -0.25146E-19         0.00000E+00
    0.34688E-07         0.39072E-22         0.00000E+00
    0.34660E-07        -0.55879E-20         0.00000E+00
    0.34632E-07        -0.46566E-20         0.00000E+00
    0.34605E-07         0.11176E-19         0.00000E+00
    0.34579E-07        -0.11176E-19         0.00000E+00
    0.34554E-07        -0.12745E-19         0.00000E+00
    0.34529E-07        -0.30536E-19         0.00000E+00
    0.34506E-07        -0.28629E-19         0.00000E+00
    0.34482E-07        -0.25146E-19         0.00000E+00
    0.34460E-07        -0.22545E-19         0.00000E+00
    0.34438E-07        -0.18626E-20         0.00000E+00
    0.34418E-07        -0.18771E-19         0.00000E+00
    0.34397E-07        -0.12757E-20         0.00000E+00
    0.34378E-07        -0.13872E-19         0.00000E+00
    0.34360E-07        -0.24214E-19         0.00000E+00
    0.34342E-07        -0.22352E-19         0.00000E+00
    0.34325E-07        -0.14267E-20         0.00000E+00
    0.34308E-07        -0.16764E-19         0.00000E+00
    0.34293E-07         0.65193E-20         0.00000E+00
    0.34278E-07        -0.74506E-20         0.00000E+00
    0.34264E-07        -0.16356E-19         0.00000E+00
    0.34250E-07        -0.55088E-20         0.00000E+00
    0.34237E-07        -0.15832E-19         0.00000E+00
    0.34225E-07         0.00000E+00         0.00000E+00
    0.34214E-07        -0.15832E-19         0.00000E+00
    0.34203E-07         0.00000E+00         0.00000E+00
    0.34193E-07        -0.53055E-20         0.00000E+00
    0.34183E-07         0.14901E-19         0.00000E+00
    0.34175E-07        -0.13728E-19         0.00000E+00
    0.34166E-07        -0.18626E-20         0.00000E+00
    0.34159E-07         0.17695E-19         0.00000E+00
    0.34151E-07        -0.13322E-19         0.00000E+00
    0.34145E-07        -0.10938E-20         0.00000E+00
    0.34139E-07         0.10567E-19         0.00000E+00
    0.34134E-07         0.16887E-19         0.00000E+00
    0.34129E-07         0.74506E-20         0.00000E+00
    0.34124E-07         0.20489E-19         0.00000E+00
    0.34121E-07         0.16764E-19         0.00000E+00
    0.34117E-07         0.16810E-19         0.00000E+00
    0.34115E-07         0.93132E-20         0.00000E+00
    0.34112E-07        -0.11183E-19         0.00000E+00
    0.34111E-07         0.26077E-19         0.00000E+00
    0.34109E-07        -0.18626E-20         0.00000E+00
    0.34109E-07         0.15832E-19         0.00000E+00
    0.34108E-07         0.00000E+00         0.00000E+00
    0.36153E-07         0.00000E+00         0.00000E+00
    0.36152E-07         0.13347E-19         0.00000E+00
    0.36150E-07         0.11809E-19         0.00000E+00
    0.36146E-07         0.52154E-19         0.00000E+00
    0.36140E-07         0.50549E-20         0.00000E+00
    0.36134E-07         0.13039E-19         0.00000E+00
    0.36125E-07        -0.18626E-19         0.00000E+00
    0.36116E-07        -0.44703E-19         0.00000E+00
    0.36104E-07         0.66413E-20         0.00000E+00
    0.36092E-07         0.19372E-19         0.00000E+00
    0.36077E-07         0.27940E-20         0.00000E+00
    0.36062E-07         0.21735E-19         0.00000E+00
    0.36045E-07         0.24214E-19         0.00000E+00
    0.36027E-07         0.31665E-19         0.00000E+00
    0.36008E-07        -0.16764E-19         0.00000E+00
    0.35987E-07         0.55879E-20         0.00000E+00
    0.35965E-07         0.14308E-19         0.00000E+00
    0.35942E-07        -0.18626E-20         0.00000E+00
    0.35918E-07         0.22007E-20         0.00000E+00
    0.35893E-07         0.33528E-19         0.00000E+00
    0.35866E-07        -0.74506E-20         0.00000E+00
    0.35839E-07        -0.37253E-20         0.00000E+00
    0.35811E-07        -0.24042E-19         0.00000E+00
    0.35782E-07        -0.28538E-19         0.00000E+00
    0.35752E-07         0.55879E-20         0.00000E+00
    0.35722E-07        -0.55879E-20         0.00000E+00
    0.35691E-07        -0.31665E-19         0.00000E+00
    0.35659E-07         0.55879E-20         0.00000E+00
    0.35626E-07         0.37253E-20         0.00000E+00
    0.35593E-07         0.00000E+00         0.00000E+00
    0.35560E-07        -0.48429E-19         0.00000E+00
    0.35526E-07        -0.12872E-19         0.00000E+00
    0.35491E-07        -0.10159E-19         0.00000E+00
    0.35457E-07        -0.26415E-19         0.00000E+00
    0.35422E-07        -0.13039E-19         0.00000E+00
    0.35387E-07        -0.13970E-19         0.00000E+00
    0.35351E-07        -0.57501E-20         0.00000E+00
    0.35316E-07        -0.29802E-19         0.00000E+00
    0.35281E-07         0.13039E-19         0.00000E+00
    0.35245E-07         0.20489E-19         0.00000E+00
    0.35210E-07        -0.23283E-19         0.00000E+00
    0.35175E-07         0.41717E-20         0.00000E+00
    0.35140E-07        -0.10245E-19         0.00000E+00
    0.35105E-07        -0.39009E-19         0.00000E+00
    0.35070E-07        -0.40283E-20         0.00000E+00
    0.35036E-07        -0.26077E-19         0.00000E+00
    0.35002E-07        -0.83819E-20         0.00000E+00
    0.34968E-07         0.13039E-19         0.00000E+00
    0.34935E-07        -0.59554E-20         0.00000E+00
    0.34902E-07        -0.27940E-19         0.00000E+00
    0.34870E-07        -0.16764E-19         0.00000E+00
    0.34838E-07        -0.10995E-19         0.00000E+00
    0.34807E-07        -0.31740E-19         0.00000E+00
    0.34776E-07        -0.18626E-19         0.00000E+00
    0.34746E-07        -0.18626E-20         0.00000E+00
    0.34717E-07        -0.15356E-19         0.00000E+00
    0.34688E-07         0.10205E-19         0.00000E+00
    0.34660E-07        -0.16764E-19         0.00000E+00
    0.34632E-07         0.75442E-20         0.00000E+00
    0.34605E-07        -0.89679E-20         0.00000E+00
    0.34579E-07        -0.93132E-21         0.00000E+00
    0.34554E-07        -0.16126E-19         0.00000E+00
    0.34529E-07        -0.32992E-19         0.00000E+00
    0.34506E-07        -0.14901E-19         0.00000E+00
    0.34482E-07        -0.16516E-19         0.00000E+00
    0.34460E-07        -0.27008E-19         0.00000E+00
    0.34438E-07        -0.24214E-19         0.00000E+00
    0.34418E-07        -0.54430E-20         0.00000E+00
    0.34397E-07        -0.19558E-19         0.00000E+00
    0.34378E-07        -0.12107E-19         0.00000E+00
    0.34360E-07        -0.18626E-19         0.00000E+00
    0.34342E-07        -0.15832E-19         0.00000E+00
    0.34325E-07        -0.43591E-21         0.00000E+00
    0.34308E-07        -0.14901E-19         0.00000E+00
    0.34293E-07         0.23138E-20         0.00000E+00
    0.34278E-07        -0.37253E-20         0.00000E+00
    0.34264E-07        -0.29279E-19         0.00000E+00
    0.34250E-07        -0.12186E-19         0.00000E+00
    0.34237E-07         0.31593E-20         0.00000E+00
    0.34225E-07        -0.43772E-19         0.00000E+00
    0.34214E-07         0.13646E-19         0.00000E+00
    0.34203E-07        -0.65193E-20         0.00000E+00
    0.34193E-07         0.64885E-21         0.00000E+00
    0.34183E-07        -0.74506E-20         0.00000E+00
    0.34175E-07         0.83819E-20         0.00000E+00
    0.34166E-07        -0.55879E-20         0.00000E+00
    0.34159E-07         0.23810E-19         0.00000E+00
    0.34151E-07        -0.11824E-19         0.00000E+00
    0.34145E-07         0.10938E-20         0.00000E+00
    0.34139E-07         0.18626E-19         0.00000E+00
    0.34134E-07        -0.55879E-20         0.00000E+00
    0.34129E-07         0.21420E-19         0.00000E+00
    0.34124E-07         0.93132E-20         0.00000E+00
    0.34121E-07         0.11176E-19         0.00000E+00
    0.34117E-07         0.34459E-19         0.00000E+00
    0.34115E-07         0.23015E-20         0.00000E+00
    0.34112E-07         0.74582E-20         0.00000E+00
    0.34111E-07         0.74506E-20         0.00000E+00
    0.34109E-07         0.55879E-20         0.00000E+00
    0.34109E-07         0.11592E-19         0.00000E+00
    0.34108E-07         0.00000E+00         0.00000E+00
    0.36153E-07         0.00000E+00         0.00000E+00
    0.36152E-07         0.45949E-19         0.00000E+00
    0.36150E-07         0.45301E-19         0.00000E+00
    0.36146E-07         0.74506E-20         0.00000E+00
    0.36140E-07         0.19692E-19         0.00000E+00
    0.36134E-07        -0.98141E-20         0.00000E+00
    0.36125E-07        -0.74506E-20         0.00000E+00
    0.36116E-07        -0.44703E-19         0.00000E+00
    0.36104E-07         0.18382E-19         0.00000E+00
    0.36092E-07         0.21607E-19         0.00000E+00
    0.36077E-07         0.36572E-19         0.00000E+00
    0.36062E-07         0.55879E-20         0.00000E+00
    0.36045E-07         0.33528E-19         0.00000E+00
    0.36027E-07         0.93132E-20         0.00000E+00
    0.36008E-07        -0.37253E-20         0.00000E+00
    0.35987E-07        -0.26077E-19         0.00000E+00
    0.35965E-07         0.17020E-19         0.00000E+00
    0.35942E-07         0.37253E-20         0.00000E+00
    0.35918E-07         0.21082E-19         0.00000E+00
    0.35893E-07         0.55879E-20         0.00000E+00
    0.35866E-07         0.12956E-19         0.00000E+00
    0.35839E-07         0.56325E-20         0.00000E+00
    0.35811E-07        -0.16764E-19         0.00000E+00
    0.35782E-07        -0.41610E-19         0.00000E+00
    0.35752E-07         0.37253E-19         0.00000E+00
    0.35722E-07        -0.24214E-19         0.00000E+00
    0.35691E-07        -0.29802E-19         0.00000E+00
    0.35659E-07        -0.18626E-19         0.00000E+00
    0.35626E-07        -0.18626E-19         0.00000E+00
    0.35593E-07         0.18368E-19         0.00000E+00
    0.35560E-07        -0.24214E-19         0.00000E+00
    0.35526E-07        -0.31665E-19         0.00000E+00
    0.35491E-07        -0.16004E-19         0.00000E+00
    0.35457E-07        -0.13039E-19         0.00000E+00
    0.35422E-07        -0.11176E-19         0.00000E+00
    0.35387E-07        -0.15922E-19         0.00000E+00
    0.35351E-07        -0.18464E-19         0.00000E+00
    0.35316E-07        -0.18626E-20         0.00000E+00
    0.35281E-07        -0.74506E-20         0.00000E+00
    0.35245E-07         0.13039E-19         0.00000E+00
    0.35210E-07         0.86165E-20         0.00000E+00
    0.35175E-07         0.60728E-20         0.00000E+00
    0.35140E-07        -0.17891E-19         0.00000E+00
    0.35105E-07        -0.19611E-19         0.00000E+00
    0.35070E-07         0.93132E-20         0.00000E+00
    0.35036E-07        -0.12107E-19         0.00000E+00
    0.35002E-07        -0.14641E-19         0.00000E+00
    0.34968E-07         0.26196E-19         0.00000E+00
    0.34935E-07         0.40927E-20         0.00000E+00
    0.34902E-07        -0.19558E-19         0.00000E+00
    0.34870E-07        -0.16764E-19         0.00000E+00
    0.34838E-07        -0.94937E-20         0.00000E+00
    0.34807E-07        -0.83068E-20         0.00000E+00
    0.34776E-07        -0.13039E-19         0.00000E+00
    0.34746E-07         0.65021E-20         0.00000E+00
    0.34717E-07        -0.60648E-20         0.00000E+00
    0.34688E-07         0.18626E-20         0.00000E+00
    0.34660E-07         0.93132E-20         0.00000E+00
    0.34632E-07        -0.17789E-19         0.00000E+00
    0.34605E-07        -0.31665E-19         0.00000E+00
    0.34579E-07         0.85285E-20         0.00000E+00
    0.34554E-07        -0.93132E-20         0.00000E+00
    0.34529E-07        -0.39849E-19         0.00000E+00
    0.34506E-07         0.00000E+00         0.00000E+00
    0.34482E-07        -0.15149E-19         0.00000E+00
    0.34460E-07        -0.17888E-19         0.00000E+00
    0.34438E-07        -0.27643E-19         0.00000E+00
    0.34418E-07        -0.10389E-19         0.00000E+00
    0.34397E-07        -0.27595E-19         0.00000E+00
    0.34378E-07        -0.12205E-19         0.00000E+00
    0.34360E-07        -0.16764E-19         0.00000E+00
    0.34342E-07        -0.19610E-19         0.00000E+00
    0.34325E-07         0.41612E-20         0.00000E+00
    0.34308E-07        -0.13970E-19         0.00000E+00
    0.34293E-07         0.79307E-20         0.00000E+00
    0.34278E-07        -0.20489E-19         0.00000E+00
    0.34264E-07        -0.31665E-19         0.00000E+00
    0.34250E-07         0.93132E-21         0.00000E+00
    0.34237E-07        -0.27940E-20         0.00000E+00
    0.34225E-07        -0.52033E-19         0.00000E+00
    0.34214E-07         0.11176E-19         0.00000E+00
    0.34203E-07        -0.91505E-20         0.00000E+00
    0.34193E-07         0.15832E-19         0.00000E+00
    0.34183E-07        -0.26077E-19         0.00000E+00
    0.34175E-07         0.17453E-19         0.00000E+00
    0.34166E-07        -0.10245E-19         0.00000E+00
    0.34159E-07        -0.25920E-20         0.00000E+00
    0.34151E-07        -0.18626E-20         0.00000E+00
    0.34145E-07         0.12107E-19         0.00000E+00
    0.34139E-07         0.22352E-19         0.00000E+00
    0.34134E-07        -0.46566E-20         0.00000E+00
    0.34129E-07         0.11745E-19         0.00000E+00
    0.34124E-07        -0.26249E-20         0.00000E+00
    0.34121E-07         0.39116E-19         0.00000E+00
    0.34117E-07         0.36793E-20         0.00000E+00
    0.34115E-07         0.74506E-20         0.00000E+00
    0.34112E-07         0.83743E-20         0.00000E+00
    0.34111E-07         0.13039E-19         0.00000E+00
    0.34109E-07         0.27940E-20         0.00000E+00
    0.34109E-07         0.79659E-20         0.00000E+00
    0.34108E-07         0.00000E+00         0.00000E+00
    0.36153E-07         0.00000E+00         0.00000E+00
    0.36152E-07         0.74506E-19         0.00000E+00
    0.36150E-07         0.48429E-19         0.00000E+00
    0.36146E-07        -0.15550E-19         0.00000E+00
    0.36140E-07         0.37253E-20         0.00000E+00
    0.36134E-07        -0.22352E-19         0.00000E+00
    0.36125E-07        -0.21883E-19         0.00000E+00
    0.36116E-07        -0.31665E-19         0.00000E+00
    0.36104E-07        -0.13039E-19         0.00000E+00
    0.36092E-07         0.27940E-19         0.00000E+00
    0.36077E-07         0.93132E-21         0.00000E+00
    0.36062E-07         0.27940E-19         0.00000E+00
    0.36045E-07         0.52094E-20         0.00000E+00
    0.36027E-07         0.37253E-20         0.00000E+00
    0.36008E-07         0.33528E-19         0.00000E+00
    0.35987E-07        -0.16764E-19         0.00000E+00
    0.35965E-07         0.32596E-19         0.00000E+00
    0.35942E-07        -0.11176E-19         0.00000E+00
    0.35918E-07         0.24214E-19         0.00000E+00
    0.35893E-07        -0.24214E-19         0.00000E+00
    0.35866E-07         0.33528E-19         0.00000E+00
    0.35839E-07        -0.29802E-19         0.00000E+00
    0.35811E-07        -0.31665E-19         0.00000E+00
    0.35782E-07        -0.26077E-19         0.00000E+00
    0.35752E-07         0.26582E-19         0.00000E+00
    0.35722E-07        -0.20111E-19         0.00000E+00
    0.35691E-07        -0.37253E-20         0.00000E+00
    0.35659E-07        -0.29802E-19         0.00000E+00
    0.35626E-07        -0.32596E-19         0.00000E+00
    0.35593E-07         0.13039E-19         0.00000E+00
    0.35560E-07         0.15832E-19         0.00000E+00
    0.35526E-07        -0.29038E-19         0.00000E+00
    0.35491E-07        -0.20489E-19         0.00000E+00
    0.35457E-07        -0.55879E-20         0.00000E+00
    0.35422E-07        -0.55879E-20         0.00000E+00
    0.35387E-07        -0.74506E-20         0.00000E+00
    0.35351E-07         0.37253E-20         0.00000E+00
    0.35316E-07         0.11176E-19         0.00000E+00
    0.35281E-07        -0.28871E-19         0.00000E+00
    0.35245E-07         0.26077E-19         0.00000E+00
    0.35210E-07         0.00000E+00         0.00000E+00
    0.35175E-07         0.97596E-20         0.00000E+00
    0.35140E-07        -0.35390E-19         0.00000E+00
    0.35105E-07         0.93132E-20         0.00000E+00
    0.35070E-07         0.15204E-19         0.00000E+00
    0.35036E-07         0.37902E-21         0.00000E+00
    0.35002E-07        -0.17825E-19         0.00000E+00
    0.34968E-07         0.12920E-19         0.00000E+00
    0.34935E-07         0.55879E-20         0.00000E+00
    0.34902E-07        -0.12723E-19         0.00000E+00
    0.34870E-07        -0.26077E-19         0.00000E+00
    0.34838E-07        -0.72701E-20         0.00000E+00
    0.34807E-07         0.00000E+00         0.00000E+00
    0.34776E-07         0.00000E+00         0.00000E+00
    0.34746E-07        -0.12090E-19         0.00000E+00
    0.34717E-07        -0.10245E-19         0.00000E+00
    0.34688E-07         0.83819E-20         0.00000E+00
    0.34660E-07         0.21021E-19         0.00000E+00
    0.34632E-07        -0.13970E-19         0.00000E+00
    0.34605E-07        -0.27008E-19         0.00000E+00
    0.34579E-07        -0.74506E-20         0.00000E+00
    0.34554E-07        -0.93132E-21         0.00000E+00
    0.34529E-07        -0.30734E-19         0.00000E+00
    0.34506E-07         0.00000E+00         0.00000E+00
    0.34482E-07        -0.58361E-20         0.00000E+00
    0.34460E-07        -0.37253E-20         0.00000E+00
    0.34438E-07        -0.24511E-19         0.00000E+00
    0.34418E-07        -0.26077E-19         0.00000E+00
    0.34397E-07        -0.18039E-19         0.00000E+00
    0.34378E-07        -0.24214E-19         0.00000E+00
    0.34360E-07        -0.14901E-19         0.00000E+00
    0.34342E-07        -0.21420E-19         0.00000E+00
    0.34325E-07        -0.41612E-20         0.00000E+00
    0.34308E-07         0.55954E-20         0.00000E+00
    0.34293E-07         0.65193E-20         0.00000E+00
    0.34278E-07        -0.22352E-19         0.00000E+00
    0.34264E-07        -0.30734E-19         0.00000E+00
    0.34250E-07         0.36461E-20         0.00000E+00
    0.34237E-07        -0.22280E-20         0.00000E+00
    0.34225E-07        -0.29924E-19         0.00000E+00
    0.34214E-07         0.93132E-20         0.00000E+00
    0.34203E-07        -0.94759E-20         0.00000E+00
    0.34193E-07         0.15184E-19         0.00000E+00
    0.34183E-07         0.00000E+00         0.00000E+00
    0.34175E-07         0.74506E-20         0.00000E+00
    0.34166E-07        -0.67630E-20         0.00000E+00
    0.34159E-07        -0.55879E-20         0.00000E+00
    0.34151E-07        -0.55879E-20         0.00000E+00
    0.34145E-07         0.10082E-19         0.00000E+00
    0.34139E-07         0.18626E-19         0.00000E+00
    0.34134E-07         0.19860E-20         0.00000E+00
    0.34129E-07        -0.11391E-20         0.00000E+00
    0.34124E-07         0.15748E-19         0.00000E+00
    0.34121E-07         0.34459E-19         0.00000E+00
    0.34117E-07        -0.83359E-20         0.00000E+00
    0.34115E-07         0.14238E-20         0.00000E+00
    0.34112E-07        -0.37253E-20         0.00000E+00
    0.34111E-07         0.29802E-19         0.00000E+00
    0.34109E-07         0.18321E-20         0.00000E+00
    0.34109E-07         0.83819E-20         0.00000E+00
    0.34108E-07         0.00000E+00         0.00000E+00
    0.36153E-07         0.00000E+00         0.00000E+00
    0.36152E-07         0.33836E-19         0.00000E+00
    0.36150E-07         0.37886E-19         0.00000E+00
    0.36146E-07         0.43741E-20         0.00000E+00
    0.36140E-07        -0.45236E-19         0.00000E+00
    0.36134E-07        -0.10675E-19         0.00000E+00
    0.36125E-07        -0.26546E-19         0.00000E+00
    0.36116E-07        -0.49302E-19         0.00000E+00
    0.36104E-07        -0.25024E-19         0.00000E+00
    0.36092E-07         0.27940E-19         0.00000E+00
    0.36077E-07        -0.11817E-20         0.00000E+00
    0.36062E-07         0.93132E-20         0.00000E+00
    0.36045E-07        -0.18248E-19         0.00000E+00
    0.36027E-07         0.00000E+00         0.00000E+00
    0.36008E-07         0.28022E-19         0.00000E+00
    0.35987E-07         0.11386E-19         0.00000E+00
    0.35965E-07         0.68570E-20         0.00000E+00
    0.35942E-07         0.65193E-20         0.00000E+00
    0.35918E-07        -0.16764E-19         0.00000E+00
    0.35893E-07         0.76610E-20         0.00000E+00
    0.35866E-07         0.24297E-19         0.00000E+00
    0.35839E-07        -0.50291E-19         0.00000E+00
    0.35811E-07        -0.35390E-19         0.00000E+00
    0.35782E-07        -0.74506E-20         0.00000E+00
    0.35752E-07         0.24641E-19         0.00000E+00
    0.35722E-07         0.33475E-20         0.00000E+00
    0.35691E-07         0.13039E-19         0.00000E+00
    0.35659E-07        -0.15832E-19         0.00000E+00
    0.35626E-07        -0.22346E-19         0.00000E+00
    0.35593E-07         0.77093E-20         0.00000E+00
    0.35560E-07         0.30314E-19         0.00000E+00
    0.35526E-07         0.57547E-20         0.00000E+00
    0.35491E-07        -0.36395E-20         0.00000E+00
    0.35457E-07        -0.18288E-19         0.00000E+00
    0.35422E-07         0.83819E-20         0.00000E+00
    0.35387E-07         0.46566E-20         0.00000E+00
    0.35351E-07         0.20489E-19         0.00000E+00
    0.35316E-07        -0.18626E-20         0.00000E+00
    0.35281E-07        -0.31398E-19         0.00000E+00
    0.35245E-07         0.33528E-19         0.00000E+00
    0.35210E-07        -0.18861E-19         0.00000E+00
    0.35175E-07         0.48490E-21         0.00000E+00
    0.35140E-07        -0.22352E-19         0.00000E+00
    0.35105E-07         0.37253E-20         0.00000E+00
    0.35070E-07         0.83819E-20         0.00000E+00
    0.35036E-07         0.15453E-19         0.00000E+00
    0.35002E-07         0.00000E+00         0.00000E+00
    0.34968E-07        -0.11176E-19         0.00000E+00
    0.34935E-07        -0.18626E-20         0.00000E+00
    0.34902E-07        -0.14285E-19         0.00000E+00
    0.34870E-07        -0.26077E-19         0.00000E+00
    0.34838E-07        -0.22532E-19         0.00000E+00
    0.34807E-07        -0.93132E-20         0.00000E+00
    0.34776E-07        -0.74506E-20         0.00000E+00
    0.34746E-07        -0.20489E-19         0.00000E+00
    0.34717E-07        -0.69737E-20         0.00000E+00
    0.34688E-07         0.20528E-19         0.00000E+00
    0.34660E-07        -0.33262E-20         0.00000E+00
    0.34632E-07         0.11270E-19         0.00000E+00
    0.34605E-07        -0.26422E-19         0.00000E+00
    0.34579E-07        -0.29802E-19         0.00000E+00
    0.34554E-07         0.21558E-20         0.00000E+00
    0.34529E-07        -0.26275E-19         0.00000E+00
    0.34506E-07        -0.93132E-20         0.00000E+00
    0.34482E-07        -0.99964E-20         0.00000E+00
    0.34460E-07         0.10245E-19         0.00000E+00
    0.34438E-07        -0.20489E-19         0.00000E+00
    0.34418E-07        -0.45635E-19         0.00000E+00
    0.34397E-07         0.93132E-21         0.00000E+00
    0.34378E-07        -0.24116E-19         0.00000E+00
    0.34360E-07        -0.23283E-19         0.00000E+00
    0.34342E-07        -0.14849E-19         0.00000E+00
    0.34325E-07         0.15337E-19         0.00000E+00
    0.34308E-07         0.12100E-19         0.00000E+00
    0.34293E-07         0.14115E-20         0.00000E+00
    0.34278E-07        -0.93132E-20         0.00000E+00
    0.34264E-07        -0.34982E-19         0.00000E+00
    0.34250E-07        -0.27148E-20         0.00000E+00
    0.34237E-07         0.12967E-20         0.00000E+00
    0.34225E-07        -0.10123E-19         0.00000E+00
    0.34214E-07         0.21862E-20         0.00000E+00
    0.34203E-07         0.38880E-20         0.00000E+00
    0.34193E-07        -0.21451E-20         0.00000E+00
    0.34183E-07         0.93132E-20         0.00000E+00
    0.34175E-07        -0.34833E-20         0.00000E+00
    0.34166E-07         0.00000E+00         0.00000E+00
    0.34159E-07         0.00000E+00         0.00000E+00
    0.34151E-07        -0.16764E-19         0.00000E+00
    0.34145E-07         0.74506E-20         0.00000E+00
    0.34139E-07         0.00000E+00         0.00000E+00
    0.34134E-07         0.13846E-19         0.00000E+00
    0.34129E-07        -0.50184E-20         0.00000E+00
    0.34124E-07         0.16764E-19         0.00000E+00
    0.34121E-07         0.13569E-19         0.00000E+00
    0.34117E-07        -0.46566E-20         0.00000E+00
    0.34115E-07        -0.14238E-20         0.00000E+00
    0.34112E-07         0.13970E-19         0.00000E+00
    0.34111E-07         0.18626E-19         0.00000E+00
    0.34109E-07         0.25176E-19         0.00000E+00
    0.34109E-07         0.13473E-20         0.00000E+00
    0.34108E-07        -0.18626E-20         0.00000E+00
    0.36153E-07         0.00000E+00         0.00000E+00
    0.36152E-07        -0.26077E-19         0.00000E+00
    0.36150E-07         0.48429E-19         0.00000E+00
    0.36146E-07        -0.15550E-19         0.00000E+00
    0.36140E-07        -0.37253E-19         0.00000E+00
    0.36134E-07         0.11176E-19         0.00000E+00
    0.36125E-07        -0.21883E-19         0.00000E+00
    0.36116E-07        -0.41967E-19         0.00000E+00
    0.36104E-07         0.00000E+00         0.00000E+00
    0.36092E-07        -0.18626E-20         0.00000E+00
    0.36077E-07         0.22352E-19         0.00000E+00
    0.36062E-07        -0.12107E-19         0.00000E+00
    0.36045E-07        -0.20868E-19         0.00000E+00
    0.36027E-07         0.13039E-19         0.00000E+00
    0.36008E-07         0.92314E-20         0.00000E+00
    0.35987E-07         0.29802E-19         0.00000E+00
    0.35965E-07        -0.13039E-19         0.00000E+00
    0.35942E-07         0.17229E-19         0.00000E+00
    0.35918E-07        -0.22352E-19         0.00000E+00
    0.35893E-07         0.91028E-20         0.00000E+00
    0.35866E-07         0.16764E-19         0.00000E+00
    0.35839E-07        -0.35390E-19         0.00000E+00
    0.35811E-07        -0.74506E-20         0.00000E+00
    0.35782E-07         0.55879E-20         0.00000E+00
    0.35752E-07         0.18200E-19         0.00000E+00
    0.35722E-07         0.13039E-19         0.00000E+00
    0.35691E-07         0.93132E-20         0.00000E+00
    0.35659E-07        -0.11424E-19         0.00000E+00
    0.35626E-07         0.10239E-19         0.00000E+00
    0.35593E-07        -0.77093E-20         0.00000E+00
    0.35560E-07         0.22352E-19         0.00000E+00
    0.35526E-07         0.17528E-19         0.00000E+00
    0.35491E-07         0.55879E-20         0.00000E+00
    0.35457E-07        -0.22690E-19         0.00000E+00
    0.35422E-07         0.12697E-19         0.00000E+00
    0.35387E-07         0.66086E-20         0.00000E+00
    0.35351E-07         0.18626E-20         0.00000E+00
    0.35316E-07        -0.17177E-19         0.00000E+00
    0.35281E-07        -0.16099E-19         0.00000E+00
    0.35245E-07         0.65193E-20         0.00000E+00
    0.35210E-07        -0.11176E-19         0.00000E+00
    0.35175E-07         0.27940E-20         0.00000E+00
    0.35140E-07        -0.55879E-20         0.00000E+00
    0.35105E-07        -0.93132E-21         0.00000E+00
    0.35070E-07        -0.15507E-19         0.00000E+00
    0.35036E-07         0.15832E-19         0.00000E+00
    0.35002E-07        -0.11176E-19         0.00000E+00
    0.34968E-07        -0.27821E-19         0.00000E+00
    0.34935E-07        -0.22301E-20         0.00000E+00
    0.34902E-07        -0.32596E-19         0.00000E+00
    0.34870E-07        -0.11176E-19         0.00000E+00
    0.34838E-07        -0.54075E-20         0.00000E+00
    0.34807E-07        -0.16764E-19         0.00000E+00
    0.34776E-07        -0.18626E-19         0.00000E+00
    0.34746E-07        -0.83819E-20         0.00000E+00
    0.34717E-07        -0.20489E-19         0.00000E+00
    0.34688E-07         0.15793E-19         0.00000E+00
    0.34660E-07         0.23949E-20         0.00000E+00
    0.34632E-07        -0.10250E-20         0.00000E+00
    0.34605E-07        -0.20144E-19         0.00000E+00
    0.34579E-07        -0.40978E-19         0.00000E+00
    0.34554E-07         0.43635E-20         0.00000E+00
    0.34529E-07        -0.34261E-19         0.00000E+00
    0.34506E-07        -0.37253E-20         0.00000E+00
    0.34482E-07        -0.27940E-19         0.00000E+00
    0.34460E-07         0.11243E-20         0.00000E+00
    0.34438E-07        -0.46566E-20         0.00000E+00
    0.34418E-07        -0.39902E-19         0.00000E+00
    0.34397E-07         0.96576E-20         0.00000E+00
    0.34378E-07        -0.74506E-20         0.00000E+00
    0.34360E-07        -0.23674E-19         0.00000E+00
    0.34342E-07        -0.98356E-21         0.00000E+00
    0.34325E-07         0.18626E-20         0.00000E+00
    0.34308E-07         0.14901E-19         0.00000E+00
    0.34293E-07        -0.28229E-20         0.00000E+00
    0.34278E-07        -0.18626E-19         0.00000E+00
    0.34264E-07        -0.21828E-19         0.00000E+00
    0.34250E-07        -0.93132E-20         0.00000E+00
    0.34237E-07         0.27940E-20         0.00000E+00
    0.34225E-07         0.93132E-21         0.00000E+00
    0.34214E-07         0.00000E+00         0.00000E+00
    0.34203E-07         0.44939E-20         0.00000E+00
    0.34193E-07         0.14252E-19         0.00000E+00
    0.34183E-07         0.37253E-20         0.00000E+00
    0.34175E-07        -0.39673E-20         0.00000E+00
    0.34166E-07        -0.17695E-19         0.00000E+00
    0.34159E-07        -0.65193E-20         0.00000E+00
    0.34151E-07        -0.14901E-19         0.00000E+00
    0.34145E-07        -0.24690E-20         0.00000E+00
    0.34139E-07         0.37253E-20         0.00000E+00
    0.34134E-07         0.74506E-20         0.00000E+00
    0.34129E-07         0.00000E+00         0.00000E+00
    0.34124E-07        -0.37253E-20         0.00000E+00
    0.34121E-07         0.18626E-20         0.00000E+00
    0.34117E-07        -0.14016E-19         0.00000E+00
    0.34115E-07        -0.18626E-20         0.00000E+00
    0.34112E-07         0.12115E-19         0.00000E+00
    0.34111E-07        -0.74506E-20         0.00000E+00
    0.34109E-07         0.17695E-19         0.00000E+00
    0.34109E-07         0.18626E-20         0.00000E+00
    0.34108E-07         0.13743E-21         0.00000E+00
    0.36153E-07         0.00000E+00         0.00000E+00
    0.36152E-07        -0.29802E-19         0.00000E+00
    0.36150E-07         0.26077E-19         0.00000E+00
    0.36146E-07        -0.21703E-19         0.00000E+00
    0.36140E-07        -0.14901E-19         0.00000E+00
    0.36134E-07         0.16764E-19         0.00000E+00
    0.36125E-07         0.69818E-20         0.00000E+00
    0.36116E-07        -0.11176E-19         0.00000E+00
    0.36104E-07         0.93132E-20         0.00000E+00
    0.36092E-07        -0.37253E-20         0.00000E+00
    0.36077E-07         0.16764E-19         0.00000E+00
    0.36062E-07         0.22969E-19         0.00000E+00
    0.36045E-07        -0.12660E-19         0.00000E+00
    0.36027E-07         0.74506E-20         0.00000E+00
    0.36008E-07        -0.37253E-20         0.00000E+00
    0.35987E-07         0.27940E-19         0.00000E+00
    0.35965E-07        -0.93132E-21         0.00000E+00
    0.35942E-07         0.25612E-19         0.00000E+00
    0.35918E-07        -0.46566E-20         0.00000E+00
    0.35893E-07         0.93132E-21         0.00000E+00
    0.35866E-07         0.22352E-19         0.00000E+00
    0.35839E-07         0.55879E-20         0.00000E+00
    0.35811E-07         0.54160E-20         0.00000E+00
    0.35782E-07        -0.83819E-20         0.00000E+00
    0.35752E-07         0.88083E-20         0.00000E+00
    0.35722E-07         0.13970E-19         0.00000E+00
    0.35691E-07        -0.18626E-20         0.00000E+00
    0.35659E-07         0.11793E-20         0.00000E+00
    0.35626E-07         0.14901E-19         0.00000E+00
    0.35593E-07        -0.18626E-19         0.00000E+00
    0.35560E-07        -0.18626E-20         0.00000E+00
    0.35526E-07         0.13039E-19         0.00000E+00
    0.35491E-07         0.55879E-20         0.00000E+00
    0.35457E-07        -0.89752E-20         0.00000E+00
    0.35422E-07         0.12448E-19         0.00000E+00
    0.35387E-07         0.27940E-20         0.00000E+00
    0.35351E-07        -0.83819E-20         0.00000E+00
    0.35316E-07        -0.17695E-19         0.00000E+00
    0.35281E-07         0.93132E-21         0.00000E+00
    0.35245E-07        -0.83979E-20         0.00000E+00
    0.35210E-07        -0.14901E-19         0.00000E+00
    0.35175E-07        -0.14162E-20         0.00000E+00
    0.35140E-07        -0.12107E-19         0.00000E+00
    0.35105E-07         0.55345E-20         0.00000E+00
    0.35070E-07        -0.80789E-20         0.00000E+00
    0.35036E-07         0.24150E-20         0.00000E+00
    0.35002E-07        -0.14901E-19         0.00000E+00
    0.34968E-07        -0.14901E-19         0.00000E+00
    0.34935E-07        -0.20122E-19         0.00000E+00
    0.34902E-07        -0.16448E-19         0.00000E+00
    0.34870E-07        -0.46566E-20         0.00000E+00
    0.34838E-07         0.14901E-19         0.00000E+00
    0.34807E-07        -0.20489E-19         0.00000E+00
    0.34776E-07        -0.93132E-20         0.00000E+00
    0.34746E-07        -0.46738E-20         0.00000E+00
    0.34717E-07        -0.17695E-19         0.00000E+00
    0.34688E-07         0.11176E-19         0.00000E+00
    0.34660E-07         0.27940E-20         0.00000E+00
    0.34632E-07        -0.19558E-19         0.00000E+00
    0.34605E-07        -0.10590E-19         0.00000E+00
    0.34579E-07        -0.24214E-19         0.00000E+00
    0.34554E-07        -0.74506E-20         0.00000E+00
    0.34529E-07        -0.55879E-20         0.00000E+00
    0.34506E-07        -0.55879E-20         0.00000E+00
    0.34482E-07        -0.17695E-19         0.00000E+00
    0.34460E-07        -0.13039E-19         0.00000E+00
    0.34438E-07         0.30909E-20         0.00000E+00
    0.34418E-07        -0.21420E-19         0.00000E+00
    0.34397E-07        -0.12757E-20         0.00000E+00
    0.34378E-07         0.36273E-20         0.00000E+00
    0.34360E-07        -0.46566E-20         0.00000E+00
    0.34342E-07        -0.93132E-21         0.00000E+00
    0.34325E-07        -0.15832E-19         0.00000E+00
    0.34308E-07         0.13970E-19         0.00000E+00
    0.34293E-07        -0.37253E-20         0.00000E+00
    0.34278E-07        -0.19558E-19         0.00000E+00
    0.34264E-07        -0.93132E-20         0.00000E+00
    0.34250E-07        -0.15832E-19         0.00000E+00
    0.34237E-07        -0.50219E-20         0.00000E+00
    0.34225E-07         0.12796E-19         0.00000E+00
    0.34214E-07         0.18626E-20         0.00000E+00
    0.34203E-07         0.46566E-20         0.00000E+00
    0.34193E-07         0.55879E-20         0.00000E+00
    0.34183E-07        -0.37253E-20         0.00000E+00
    0.34175E-07        -0.37253E-20         0.00000E+00
    0.34166E-07        -0.16520E-19         0.00000E+00
    0.34159E-07         0.29960E-20         0.00000E+00
    0.34151E-07         0.00000E+00         0.00000E+00
    0.34145E-07        -0.29564E-20         0.00000E+00
    0.34139E-07         0.65193E-20         0.00000E+00
    0.34134E-07        -0.18750E-19         0.00000E+00
    0.34129E-07         0.37253E-20         0.00000E+00
    0.34124E-07         0.46566E-20         0.00000E+00
    0.34121E-07         0.00000E+00         0.00000E+00
    0.34117E-07        -0.18626E-19         0.00000E+00
    0.34115E-07        -0.43889E-21         0.00000E+00
    0.34112E-07        -0.37329E-20         0.00000E+00
    0.34111E-07        -0.93132E-20         0.00000E+00
    0.34109E-07        -0.18932E-20         0.00000E+00
    0.34109E-07        -0.22786E-20         0.00000E+00
    0.34108E-07        -0.13743E-21         0.00000E+00
    0.36153E-07         0.00000E+00         0.00000E+00
    0.36152E-07         0.61667E-21         0.00000E+00
    0.36150E-07        -0.61851E-20         0.00000E+00
    0.36146E-07        -0.74506E-20         0.00000E+00
    0.36140E-07        -0.23418E-19         0.00000E+00
    0.36134E-07         0.27235E-20         0.00000E+00
    0.36125E-07         0.74506E-20         0.00000E+00
    0.36116E-07         0.00000E+00         0.00000E+00
    0.36104E-07         0.21068E-20         0.00000E+00
    0.36092E-07         0.30175E-19         0.00000E+00
    0.36077E-07         0.42260E-20         0.00000E+00
    0.36062E-07         0.36648E-19         0.00000E+00
    0.36045E-07         0.37253E-20         0.00000E+00
    0.36027E-07        -0.37253E-20         0.00000E+00
    0.36008E-07        -0.18626E-19         0.00000E+00
    0.35987E-07         0.33528E-19         0.00000E+00
    0.35965E-07        -0.16088E-19         0.00000E+00
    0.35942E-07         0.36321E-19         0.00000E+00
    0.35918E-07        -0.62641E-20         0.00000E+00
    0.35893E-07         0.14418E-20         0.00000E+00
    0.35866E-07         0.11010E-19         0.00000E+00
    0.35839E-07         0.26077E-19         0.00000E+00
    0.35811E-07         0.68791E-21         0.00000E+00
    0.35782E-07        -0.19891E-19         0.00000E+00
    0.35752E-07         0.00000E+00         0.00000E+00
    0.35722E-07         0.12283E-19         0.00000E+00
    0.35691E-07        -0.11176E-19         0.00000E+00
    0.35659E-07         0.00000E+00         0.00000E+00
    0.35626E-07         0.37253E-20         0.00000E+00
    0.35593E-07        -0.22352E-19         0.00000E+00
    0.35560E-07        -0.14901E-19         0.00000E+00
    0.35526E-07         0.74506E-20         0.00000E+00
    0.35491E-07        -0.35538E-20         0.00000E+00
    0.35457E-07        -0.37253E-20         0.00000E+00
    0.35422E-07         0.10493E-19         0.00000E+00
    0.35387E-07         0.16585E-19         0.00000E+00
    0.35351E-07        -0.12714E-19         0.00000E+00
    0.35316E-07        -0.13247E-19         0.00000E+00
    0.35281E-07         0.12505E-19         0.00000E+00
    0.35245E-07        -0.14901E-19         0.00000E+00
    0.35210E-07        -0.21883E-19         0.00000E+00
    0.35175E-07        -0.64808E-20         0.00000E+00
    0.35140E-07        -0.97060E-20         0.00000E+00
    0.35105E-07         0.19695E-20         0.00000E+00
    0.35070E-07         0.21095E-19         0.00000E+00
    0.35036E-07        -0.14901E-19         0.00000E+00
    0.35002E-07         0.10916E-19         0.00000E+00
    0.34968E-07         0.37253E-20         0.00000E+00
    0.34935E-07        -0.33528E-19         0.00000E+00
    0.34902E-07         0.21090E-19         0.00000E+00
    0.34870E-07        -0.16899E-19         0.00000E+00
    0.34838E-07         0.78115E-20         0.00000E+00
    0.34807E-07        -0.18626E-19         0.00000E+00
    0.34776E-07        -0.37253E-20         0.00000E+00
    0.34746E-07        -0.11142E-19         0.00000E+00
    0.34717E-07        -0.46790E-20         0.00000E+00
    0.34688E-07         0.37253E-20         0.00000E+00
    0.34660E-07        -0.85150E-20         0.00000E+00
    0.34632E-07        -0.20302E-19         0.00000E+00
    0.34605E-07        -0.11176E-19         0.00000E+00
    0.34579E-07        -0.74506E-20         0.00000E+00
    0.34554E-07        -0.18626E-19         0.00000E+00
    0.34529E-07         0.18626E-19         0.00000E+00
    0.34506E-07        -0.11661E-19         0.00000E+00
    0.34482E-07         0.23590E-20         0.00000E+00
    0.34460E-07        -0.11562E-19         0.00000E+00
    0.34438E-07         0.00000E+00         0.00000E+00
    0.34418E-07        -0.13328E-19         0.00000E+00
    0.34397E-07        -0.10487E-19         0.00000E+00
    0.34378E-07         0.37253E-20         0.00000E+00
    0.34360E-07         0.63693E-20         0.00000E+00
    0.34342E-07        -0.16868E-19         0.00000E+00
    0.34325E-07        -0.47161E-20         0.00000E+00
    0.34308E-07         0.92982E-20         0.00000E+00
    0.34293E-07         0.57961E-22         0.00000E+00
    0.34278E-07        -0.12966E-19         0.00000E+00
    0.34264E-07        -0.81567E-21         0.00000E+00
    0.34250E-07        -0.54296E-20         0.00000E+00
    0.34237E-07        -0.18626E-19         0.00000E+00
    0.34225E-07         0.28425E-19         0.00000E+00
    0.34214E-07        -0.11823E-19         0.00000E+00
    0.34203E-07         0.20815E-19         0.00000E+00
    0.34193E-07        -0.22917E-19         0.00000E+00
    0.34183E-07        -0.37253E-20         0.00000E+00
    0.34175E-07        -0.11660E-19         0.00000E+00
    0.34166E-07         0.60754E-20         0.00000E+00
    0.34159E-07         0.33213E-20         0.00000E+00
    0.34151E-07         0.74506E-20         0.00000E+00
    0.34145E-07         0.71256E-20         0.00000E+00
    0.34139E-07        -0.12171E-20         0.00000E+00
    0.34134E-07        -0.26077E-19         0.00000E+00
    0.34129E-07         0.11899E-19         0.00000E+00
    0.34124E-07         0.20320E-19         0.00000E+00
    0.34121E-07        -0.29244E-20         0.00000E+00
    0.34117E-07        -0.18626E-19         0.00000E+00
    0.34115E-07         0.87777E-21         0.00000E+00
    0.34112E-07         0.00000E+00         0.00000E+00
    0.34111E-07         0.28170E-20         0.00000E+00
    0.34109E-07        -0.17403E-20         0.00000E+00
    0.34109E-07        -0.45573E-20         0.00000E+00
    0.34108E-07         0.27487E-21         0.00000E+00
CELL_DATA       5000
TENSORS stressef double 
   -0.14547E+08         0.24194E+06         0.00000E+00
    0.24194E+06        -0.27132E+08         0.00000E+00
    0.00000E+00         0.00000E+00        -0.14646E+08
 
   -0.14587E+08         0.63008E+06         0.00000E+00
    0.63008E+06        -0.27316E+08         0.00000E+00
    0.00000E+00         0.00000E+00        -0.14646E+08
 
   -0.14599E+08         0.89122E+06         0.00000E+00
    0.89122E+06        -0.27607E+08         0.00000E+00
    0.00000E+00         0.00000E+00        -0.14646E+08
 
   -0.14608E+08         0.10992E+07         0.00000E+00
    0.10992E+07        -0.27962E+08         0.00000E+00
    0.00000E+00         0.00000E+00        -0.14646E+08
 
   -0.14615E+08         0.12681E+07         0.00000E+00
    0.12681E+07        -0.28369E+08         0.00000E+00
    0.00000E+00         0.00000E+00        -0.14646E+08
 
   -0.14621E+08         0.14046E+07         0.00000E+00
    0.14046E+07        -0.28818E+08         0.00000E+00
    0.00000E+00         0.00000E+00        -0.14646E+08
 
   -0.14628E+08         0.15097E+07         0.00000E+00
    0.15097E+07        -0.29302E+08         0.00000E+00
    0.00000E+00         0.00000E+00        -0.14646E+08
 
   -0.14636E+08         0.15783E+07         0.00000E+00
    0.15783E+07        -0.29817E+08         0.00000E+00
    0.00000E+00         0.00000E+00        -0.14646E+08
 
   -0.14669E+08         0.15814E+07         0.00000E+00
    0.15814E+07        -0.30366E+08         0.00000E+00
    0.00000E+00         0.00000E+00        -0.14664E+08
 
   -0.14836E+08         0.15219E+07         0.00000E+00
    0.15219E+07        -0.30772E+08         0.00000E+00
    0.00000E+00         0.00000E+00        -0.14840E+08
 
   -0.15071E+08         0.14894E+07         0.00000E+00
    0.14894E+07        -0.31091E+08         0.00000E+00
    0.00000E+00         0.00000E+00        -0.15086E+08
 
   -0.15304E+08         0.15001E+07         0.00000E+00
    0.15001E+07        -0.31427E+08         0.00000E+00
    0.00000E+00         0.00000E+00        -0.15323E+08
 
   -0.15528E+08         0.15324E+07         0.00000E+00
    0.15324E+07        -0.31783E+08         0.00000E+00
    0.00000E+00         0.00000E+00        -0.15549E+08
 
   -0.15742E+08         0.15773E+07         0.00000E+00
    0.15773E+07        -0.32150E+08         0.00000E+00
    0.00000E+00         0.00000E+00        -0.15763E+08
 
   -0.15945E+08         0.16289E+07         0.00000E+00
    0.16289E+07        -0.32524E+08         0.00000E+00
    0.00000E+00         0.00000E+00        -0.15966E+08
 
   -0.16137E+08         0.16835E+07         0.00000E+00
    0.16835E+07        -0.32903E+08         0.00000E+00
    0.00000E+00         0.00000E+00        -0.16157E+08
 
   -0.16317E+08         0.17385E+07         0.00000E+00
    0.17385E+07        -0.33285E+08         0.00000E+00
    0.00000E+00         0.00000E+00        -0.16336E+08
 
   -0.16487E+08         0.17921E+07         0.00000E+00
    0.17921E+07        -0.33669E+08         0.00000E+00
    0.00000E+00         0.00000E+00        -0.16505E+08
 
   -0.16647E+08         0.18427E+07         0.00000E+00
    0.18427E+07        -0.34055E+08         0.00000E+00
    0.00000E+00         0.00000E+00        -0.16664E+08
 
   -0.16798E+08         0.18895E+07         0.00000E+00
    0.18895E+07        -0.34443E+08         0.00000E+00
    0.00000E+00         0.00000E+00        -0.16812E+08
 
   -0.16939E+08         0.19316E+07         0.00000E+00
    0.19316E+07        -0.34832E+08         0.00000E+00
    0.00000E+00         0.00000E+00        -0.16952E+08
 
   -0.17071E+08         0.19684E+07         0.00000E+00
    0.19684E+07        -0.35223E+08         0.00000E+00
    0.00000E+00         0.00000E+00        -0.17083E+08
 
   -0.17196E+08         0.19994E+07         0.00000E+00
    0.19994E+07        -0.35616E+08         0.00000E+00
    0.00000E+00         0.00000E+00        -0.17206E+08
 
   -0.17314E+08         0.20238E+07         0.00000E+00
    0.20238E+07        -0.36011E+08         0.00000E+00
    0.00000E+00         0.00000E+00        -0.17322E+08
 
   -0.17426E+08         0.20406E+07         0.00000E+00
    0.20406E+07        -0.36407E+08         0.00000E+00
    0.00000E+00         0.00000E+00        -0.17432E+08
 
   -0.17533E+08         0.20449E+07         0.00000E+00
    0.20449E+07        -0.36802E+08         0.00000E+00
    0.00000E+00         0.00000E+00        -0.17535E+08
 
   -0.17652E+08         0.20323E+07         0.00000E+00
    0.20323E+07        -0.37172E+08         0.00000E+00
    0.00000E+00         0.00000E+00        -0.17652E+08
 
   -0.17799E+08         0.20153E+07         0.00000E+00
    0.20153E+07        -0.37507E+08         0.00000E+00
    0.00000E+00         0.00000E+00        -0.17803E+08
 
   -0.17949E+08         0.20118E+07         0.00000E+00
    0.20118E+07        -0.37848E+08         0.00000E+00
    0.00000E+00         0.00000E+00        -0.17954E+08
 
   -0.18096E+08         0.20130E+07         0.00000E+00
    0.20130E+07        -0.38195E+08         0.00000E+00
    0.00000E+00         0.00000E+00        -0.18102E+08
 
   -0.18240E+08         0.20162E+07         0.00000E+00
    0.20162E+07        -0.38546E+08         0.00000E+00
    0.00000E+00         0.00000E+00        -0.18245E+08
 
   -0.18380E+08         0.20201E+07         0.00000E+00
    0.20201E+07        -0.38900E+08         0.00000E+00
    0.00000E+00         0.00000E+00        -0.18385E+08
 
   -0.18517E+08         0.20241E+07         0.00000E+00
    0.20241E+07        -0.39257E+08         0.00000E+00
    0.00000E+00         0.00000E+00        -0.18522E+08
 
   -0.18651E+08         0.20273E+07         0.00000E+00
    0.20273E+07        -0.39617E+08         0.00000E+00
    0.00000E+00         0.00000E+00        -0.18655E+08
 
   -0.18782E+08         0.20294E+07         0.00000E+00
    0.20294E+07        -0.39979E+08         0.00000E+00
    0.00000E+00         0.00000E+00        -0.18786E+08
 
   -0.18911E+08         0.20299E+07         0.00000E+00
    0.20299E+07        -0.40344E+08         0.00000E+00
    0.00000E+00         0.00000E+00        -0.18914E+08
 
   -0.19037E+08         0.20283E+07         0.00000E+00
    0.20283E+07        -0.40712E+08         0.00000E+00
    0.00000E+00         0.00000E+00        -0.19040E+08
 
   -0.19161E+08         0.20240E+07         0.00000E+00
    0.20240E+07        -0.41081E+08         0.00000E+00
    0.00000E+00         0.00000E+00        -0.19163E+08
 
   -0.19283E+08         0.20163E+07         0.00000E+00
    0.20163E+07        -0.41453E+08         0.00000E+00
    0.00000E+00         0.00000E+00        -0.19284E+08
 
   -0.19404E+08         0.20026E+07         0.00000E+00
    0.20026E+07        -0.41826E+08         0.00000E+00
    0.00000E+00         0.00000E+00        -0.19404E+08
 
   -0.19530E+08         0.19803E+07         0.00000E+00
    0.19803E+07        -0.42188E+08         0.00000E+00
    0.00000E+00         0.00000E+00        -0.19528E+08
 
   -0.19675E+08         0.19537E+07         0.00000E+00
    0.19537E+07        -0.42527E+08         0.00000E+00
    0.00000E+00         0.00000E+00        -0.19675E+08
 
   -0.19826E+08         0.19343E+07         0.00000E+00
    0.19343E+07        -0.42868E+08         0.00000E+00
    0.00000E+00         0.00000E+00        -0.19827E+08
 
   -0.19977E+08         0.19192E+07         0.00000E+00
    0.19192E+07        -0.43213E+08         0.00000E+00
    0.00000E+00         0.00000E+00        -0.19978E+08
 
   -0.20127E+08         0.19057E+07         0.00000E+00
    0.19057E+07        -0.43562E+08         0.00000E+00
    0.00000E+00         0.00000E+00        -0.20129E+08
 
   -0.20277E+08         0.18928E+07         0.00000E+00
    0.18928E+07        -0.43915E+08         0.00000E+00
    0.00000E+00         0.00000E+00        -0.20278E+08
 
   -0.20426E+08         0.18797E+07         0.00000E+00
    0.18797E+07        -0.44269E+08         0.00000E+00
    0.00000E+00         0.00000E+00        -0.20427E+08
 
   -0.20574E+08         0.18657E+07         0.00000E+00
    0.18657E+07        -0.44626E+08         0.00000E+00
    0.00000E+00         0.00000E+00        -0.20575E+08
 
   -0.20722E+08         0.18488E+07         0.00000E+00
    0.18488E+07        -0.44984E+08         0.00000E+00
    0.00000E+00         0.00000E+00        -0.20722E+08
 
   -0.20877E+08         0.18280E+07         0.00000E+00
    0.18280E+07        -0.45335E+08         0.00000E+00
    0.00000E+00         0.00000E+00        -0.20876E+08
 
   -0.21041E+08         0.18078E+07         0.00000E+00
    0.18078E+07        -0.45673E+08         0.00000E+00
    0.00000E+00         0.00000E+00        -0.21041E+08
 
   -0.21207E+08         0.17921E+07         0.00000E+00
    0.17921E+07        -0.46014E+08         0.00000E+00
    0.00000E+00         0.00000E+00        -0.21207E+08
 
   -0.21372E+08         0.17784E+07         0.00000E+00
    0.17784E+07        -0.46357E+08         0.00000E+00
    0.00000E+00         0.00000E+00        -0.21373E+08
 
   -0.21538E+08         0.17657E+07         0.00000E+00
    0.17657E+07        -0.46702E+08         0.00000E+00
    0.00000E+00         0.00000E+00        -0.21539E+08
 
   -0.21703E+08         0.17537E+07         0.00000E+00
    0.17537E+07        -0.47049E+08         0.00000E+00
    0.00000E+00         0.00000E+00        -0.21704E+08
 
   -0.21869E+08         0.17419E+07         0.00000E+00
    0.17419E+07        -0.47398E+08         0.00000E+00
    0.00000E+00         0.00000E+00        -0.21870E+08
 
   -0.22034E+08         0.17297E+07         0.00000E+00
    0.17297E+07        -0.47747E+08         0.00000E+00
    0.00000E+00         0.00000E+00        -0.22035E+08
 
   -0.22202E+08         0.17163E+07         0.00000E+00
    0.17163E+07        -0.48094E+08         0.00000E+00
    0.00000E+00         0.00000E+00        -0.22202E+08
 
   -0.22374E+08         0.17026E+07         0.00000E+00
    0.17026E+07        -0.48434E+08         0.00000E+00
    0.00000E+00         0.00000E+00        -0.22375E+08
 
   -0.22548E+08         0.16912E+07         0.00000E+00
    0.16912E+07        -0.48774E+08         0.00000E+00
    0.00000E+00         0.00000E+00        -0.22549E+08
 
   -0.22722E+08         0.16814E+07         0.00000E+00
    0.16814E+07        -0.49116E+08         0.00000E+00
    0.00000E+00         0.00000E+00        -0.22723E+08
 
   -0.22896E+08         0.16726E+07         0.00000E+00
    0.16726E+07        -0.49458E+08         0.00000E+00
    0.00000E+00         0.00000E+00        -0.22898E+08
 
   -0.23071E+08         0.16646E+07         0.00000E+00
    0.16646E+07        -0.49801E+08         0.00000E+00
    0.00000E+00         0.00000E+00        -0.23073E+08
 
   -0.23246E+08         0.16570E+07         0.00000E+00
    0.16570E+07        -0.50144E+08         0.00000E+00
    0.00000E+00         0.00000E+00        -0.23247E+08
 
   -0.23420E+08         0.16498E+07         0.00000E+00
    0.16498E+07        -0.50488E+08         0.00000E+00
    0.00000E+00         0.00000E+00        -0.23422E+08
 
   -0.23595E+08         0.16429E+07         0.00000E+00
    0.16429E+07        -0.50832E+08         0.00000E+00
    0.00000E+00         0.00000E+00        -0.23597E+08
 
   -0.23770E+08         0.16361E+07         0.00000E+00
    0.16361E+07        -0.51177E+08         0.00000E+00
    0.00000E+00         0.00000E+00        -0.23772E+08
 
   -0.23946E+08         0.16293E+07         0.00000E+00
    0.16293E+07        -0.51521E+08         0.00000E+00
    0.00000E+00         0.00000E+00        -0.23947E+08
 
   -0.24121E+08         0.16224E+07         0.00000E+00
    0.16224E+07        -0.51866E+08         0.00000E+00
    0.00000E+00         0.00000E+00        -0.24123E+08
 
   -0.24300E+08         0.16150E+07         0.00000E+00
    0.16150E+07        -0.52208E+08         0.00000E+00
    0.00000E+00         0.00000E+00        -0.24301E+08
 
   -0.24479E+08         0.16072E+07         0.00000E+00
    0.16072E+07        -0.52549E+08         0.00000E+00
    0.00000E+00         0.00000E+00        -0.24480E+08
 
   -0.24658E+08         0.15991E+07         0.00000E+00
    0.15991E+07        -0.52891E+08         0.00000E+00
    0.00000E+00         0.00000E+00        -0.24659E+08
 
   -0.24838E+08         0.15905E+07         0.00000E+00
    0.15905E+07        -0.53233E+08         0.00000E+00
    0.00000E+00         0.00000E+00        -0.24839E+08
 
   -0.25018E+08         0.15813E+07         0.00000E+00
    0.15813E+07        -0.53576E+08         0.00000E+00
    0.00000E+00         0.00000E+00        -0.25019E+08
 
   -0.25199E+08         0.15713E+07         0.00000E+00
    0.15713E+07        -0.53920E+08         0.00000E+00
    0.00000E+00         0.00000E+00        -0.25199E+08
 
   -0.25380E+08         0.15604E+07         0.00000E+00
    0.15604E+07        -0.54265E+08         0.00000E+00
    0.00000E+00         0.00000E+00        -0.25379E+08
 
   -0.25561E+08         0.15484E+07         0.00000E+00
    0.15484E+07        -0.54610E+08         0.00000E+00
    0.00000E+00         0.00000E+00        -0.25560E+08
 
   -0.25743E+08         0.15350E+07         0.00000E+00
    0.15350E+07        -0.54957E+08         0.00000E+00
    0.00000E+00         0.00000E+00        -0.25742E+08
 
   -0.25925E+08         0.15200E+07         0.00000E+00
    0.15200E+07        -0.55306E+08         0.00000E+00
    0.00000E+00         0.00000E+00        -0.25924E+08
 
   -0.26109E+08         0.15031E+07         0.00000E+00
    0.15031E+07        -0.55656E+08         0.00000E+00
    0.00000E+00         0.00000E+00        -0.26107E+08
 
   -0.26293E+08         0.14841E+07         0.00000E+00
    0.14841E+07        -0.56009E+08         0.00000E+00
    0.00000E+00         0.00000E+00        -0.26291E+08
 
   -0.26479E+08         0.14626E+07         0.00000E+00
    0.14626E+07        -0.56364E+08         0.00000E+00
    0.00000E+00         0.00000E+00        -0.26476E+08
 
   -0.26666E+08         0.14383E+07         0.00000E+00
    0.14383E+07        -0.56722E+08         0.00000E+00
    0.00000E+00         0.00000E+00        -0.26663E+08
 
   -0.26855E+08         0.14110E+07         0.00000E+00
    0.14110E+07        -0.57083E+08         0.00000E+00
    0.00000E+00         0.00000E+00        -0.26851E+08
 
   -0.27045E+08         0.13803E+07         0.00000E+00
    0.13803E+07        -0.57448E+08         0.00000E+00
    0.00000E+00         0.00000E+00        -0.27040E+08
 
   -0.27237E+08         0.13462E+07         0.00000E+00
    0.13462E+07        -0.57817E+08         0.00000E+00
    0.00000E+00         0.00000E+00        -0.27231E+08
 
   -0.27431E+08         0.13083E+07         0.00000E+00
    0.13083E+07        -0.58189E+08         0.00000E+00
    0.00000E+00         0.00000E+00        -0.27424E+08
 
   -0.27626E+08         0.12667E+07         0.00000E+00
    0.12667E+07        -0.58565E+08         0.00000E+00
    0.00000E+00         0.00000E+00        -0.27619E+08
 
   -0.27823E+08         0.12213E+07         0.00000E+00
    0.12213E+07        -0.58943E+08         0.00000E+00
    0.00000E+00         0.00000E+00        -0.27815E+08
 
   -0.28021E+08         0.11722E+07         0.00000E+00
    0.11722E+07        -0.59324E+08         0.00000E+00
    0.00000E+00         0.00000E+00        -0.28012E+08
 
   -0.28219E+08         0.11196E+07         0.00000E+00
    0.11196E+07        -0.59706E+08         0.00000E+00
    0.00000E+00         0.00000E+00        -0.28210E+08
 
   -0.28417E+08         0.10634E+07         0.00000E+00
    0.10634E+07        -0.60088E+08         0.00000E+00
    0.00000E+00         0.00000E+00        -0.28407E+08
 
   -0.28614E+08         0.10034E+07         0.00000E+00
    0.10034E+07        -0.60467E+08         0.00000E+00
    0.00000E+00         0.00000E+00        -0.28603E+08
 
   -0.28809E+08         0.93887E+06         0.00000E+00
    0.93887E+06        -0.60841E+08         0.00000E+00
    0.00000E+00         0.00000E+00        -0.28796E+08
 
   -0.29000E+08         0.86789E+06         0.00000E+00
    0.86789E+06        -0.61209E+08         0.00000E+00
    0.00000E+00         0.00000E+00        -0.28986E+08
 
   -0.29186E+08         0.78763E+06         0.00000E+00
    0.78763E+06        -0.61566E+08         0.00000E+00
    0.00000E+00         0.00000E+00        -0.29170E+08
 
   -0.29367E+08         0.69222E+06         0.00000E+00
    0.69222E+06        -0.61914E+08         0.00000E+00
    0.00000E+00         0.00000E+00        -0.29347E+08
 
   -0.29541E+08         0.57344E+06         0.00000E+00
    0.57344E+06        -0.62245E+08         0.00000E+00
    0.00000E+00         0.00000E+00        -0.29514E+08
 
   -0.29712E+08         0.41649E+06         0.00000E+00
    0.41649E+06        -0.62569E+08         0.00000E+00
    0.00000E+00         0.00000E+00        -0.29677E+08
 
   -0.29874E+08         0.16298E+06         0.00000E+00
    0.16298E+06        -0.62852E+08         0.00000E+00
    0.00000E+00         0.00000E+00        -0.29806E+08
 
   -0.14359E+08         0.20646E+06         0.00000E+00
    0.20646E+06        -0.27218E+08         0.00000E+00
    0.00000E+00         0.00000E+00        -0.14646E+08
 
   -0.14466E+08         0.56165E+06         0.00000E+00
    0.56165E+06        -0.27378E+08         0.00000E+00
    0.00000E+00         0.00000E+00        -0.14646E+08
 
   -0.14505E+08         0.82357E+06         0.00000E+00
    0.82357E+06        -0.27652E+08         0.00000E+00
    0.00000E+00         0.00000E+00        -0.14646E+08
 
   -0.14532E+08         0.10297E+07         0.00000E+00
    0.10297E+07        -0.27999E+08         0.00000E+00
    0.00000E+00         0.00000E+00        -0.14646E+08
 
   -0.14553E+08         0.11984E+07         0.00000E+00
    0.11984E+07        -0.28400E+08         0.00000E+00
    0.00000E+00         0.00000E+00        -0.14646E+08
 
   -0.14572E+08         0.13348E+07         0.00000E+00
    0.13348E+07        -0.28842E+08         0.00000E+00
    0.00000E+00         0.00000E+00        -0.14646E+08
 
   -0.14591E+08         0.14401E+07         0.00000E+00
    0.14401E+07        -0.29320E+08         0.00000E+00
    0.00000E+00         0.00000E+00        -0.14646E+08
 
   -0.14615E+08         0.15106E+07         0.00000E+00
    0.15106E+07        -0.29827E+08         0.00000E+00
    0.00000E+00         0.00000E+00        -0.14646E+08
 
   -0.14669E+08         0.15269E+07         0.00000E+00
    0.15269E+07        -0.30360E+08         0.00000E+00
    0.00000E+00         0.00000E+00        -0.14661E+08
 
   -0.14818E+08         0.14910E+07         0.00000E+00
    0.14910E+07        -0.30761E+08         0.00000E+00
    0.00000E+00         0.00000E+00        -0.14831E+08
 
   -0.15031E+08         0.14637E+07         0.00000E+00
    0.14637E+07        -0.31089E+08         0.00000E+00
    0.00000E+00         0.00000E+00        -0.15076E+08
 
   -0.15255E+08         0.14729E+07         0.00000E+00
    0.14729E+07        -0.31432E+08         0.00000E+00
    0.00000E+00         0.00000E+00        -0.15311E+08
 
   -0.15474E+08         0.15038E+07         0.00000E+00
    0.15038E+07        -0.31791E+08         0.00000E+00
    0.00000E+00         0.00000E+00        -0.15535E+08
 
   -0.15686E+08         0.15468E+07         0.00000E+00
    0.15468E+07        -0.32160E+08         0.00000E+00
    0.00000E+00         0.00000E+00        -0.15749E+08
 
   -0.15888E+08         0.15964E+07         0.00000E+00
    0.15964E+07        -0.32535E+08         0.00000E+00
    0.00000E+00         0.00000E+00        -0.15950E+08
 
   -0.16081E+08         0.16490E+07         0.00000E+00
    0.16490E+07        -0.32914E+08         0.00000E+00
    0.00000E+00         0.00000E+00        -0.16141E+08
 
   -0.16263E+08         0.17019E+07         0.00000E+00
    0.17019E+07        -0.33296E+08         0.00000E+00
    0.00000E+00         0.00000E+00        -0.16320E+08
 
   -0.16436E+08         0.17534E+07         0.00000E+00
    0.17534E+07        -0.33680E+08         0.00000E+00
    0.00000E+00         0.00000E+00        -0.16488E+08
 
   -0.16598E+08         0.18022E+07         0.00000E+00
    0.18022E+07        -0.34065E+08         0.00000E+00
    0.00000E+00         0.00000E+00        -0.16646E+08
 
   -0.16751E+08         0.18472E+07         0.00000E+00
    0.18472E+07        -0.34452E+08         0.00000E+00
    0.00000E+00         0.00000E+00        -0.16794E+08
 
   -0.16895E+08         0.18876E+07         0.00000E+00
    0.18876E+07        -0.34840E+08         0.00000E+00
    0.00000E+00         0.00000E+00        -0.16934E+08
 
   -0.17031E+08         0.19229E+07         0.00000E+00
    0.19229E+07        -0.35230E+08         0.00000E+00
    0.00000E+00         0.00000E+00        -0.17065E+08
 
   -0.17160E+08         0.19524E+07         0.00000E+00
    0.19524E+07        -0.35622E+08         0.00000E+00
    0.00000E+00         0.00000E+00        -0.17188E+08
 
   -0.17281E+08         0.19756E+07         0.00000E+00
    0.19756E+07        -0.36015E+08         0.00000E+00
    0.00000E+00         0.00000E+00        -0.17305E+08
 
   -0.17397E+08         0.19913E+07         0.00000E+00
    0.19913E+07        -0.36409E+08         0.00000E+00
    0.00000E+00         0.00000E+00        -0.17415E+08
 
   -0.17512E+08         0.19960E+07         0.00000E+00
    0.19960E+07        -0.36800E+08         0.00000E+00
    0.00000E+00         0.00000E+00        -0.17518E+08
 
   -0.17636E+08         0.19880E+07         0.00000E+00
    0.19880E+07        -0.37169E+08         0.00000E+00
    0.00000E+00         0.00000E+00        -0.17637E+08
 
   -0.17779E+08         0.19740E+07         0.00000E+00
    0.19740E+07        -0.37505E+08         0.00000E+00
    0.00000E+00         0.00000E+00        -0.17791E+08
 
   -0.17927E+08         0.19703E+07         0.00000E+00
    0.19703E+07        -0.37848E+08         0.00000E+00
    0.00000E+00         0.00000E+00        -0.17942E+08
 
   -0.18074E+08         0.19708E+07         0.00000E+00
    0.19708E+07        -0.38195E+08         0.00000E+00
    0.00000E+00         0.00000E+00        -0.18089E+08
 
   -0.18217E+08         0.19735E+07         0.00000E+00
    0.19735E+07        -0.38547E+08         0.00000E+00
    0.00000E+00         0.00000E+00        -0.18233E+08
 
   -0.18358E+08         0.19769E+07         0.00000E+00
    0.19769E+07        -0.38901E+08         0.00000E+00
    0.00000E+00         0.00000E+00        -0.18373E+08
 
   -0.18496E+08         0.19803E+07         0.00000E+00
    0.19803E+07        -0.39258E+08         0.00000E+00
    0.00000E+00         0.00000E+00        -0.18510E+08
 
   -0.18630E+08         0.19831E+07         0.00000E+00
    0.19831E+07        -0.39618E+08         0.00000E+00
    0.00000E+00         0.00000E+00        -0.18643E+08
 
   -0.18763E+08         0.19847E+07         0.00000E+00
    0.19847E+07        -0.39980E+08         0.00000E+00
    0.00000E+00         0.00000E+00        -0.18774E+08
 
   -0.18893E+08         0.19848E+07         0.00000E+00
    0.19848E+07        -0.40344E+08         0.00000E+00
    0.00000E+00         0.00000E+00        -0.18903E+08
 
   -0.19020E+08         0.19828E+07         0.00000E+00
    0.19828E+07        -0.40711E+08         0.00000E+00
    0.00000E+00         0.00000E+00        -0.19029E+08
 
   -0.19146E+08         0.19782E+07         0.00000E+00
    0.19782E+07        -0.41080E+08         0.00000E+00
    0.00000E+00         0.00000E+00        -0.19152E+08
 
   -0.19270E+08         0.19703E+07         0.00000E+00
    0.19703E+07        -0.41451E+08         0.00000E+00
    0.00000E+00         0.00000E+00        -0.19274E+08
 
   -0.19395E+08         0.19567E+07         0.00000E+00
    0.19567E+07        -0.41822E+08         0.00000E+00
    0.00000E+00         0.00000E+00        -0.19393E+08
 
   -0.19526E+08         0.19374E+07         0.00000E+00
    0.19374E+07        -0.42183E+08         0.00000E+00
    0.00000E+00         0.00000E+00        -0.19520E+08
 
   -0.19669E+08         0.19130E+07         0.00000E+00
    0.19130E+07        -0.42523E+08         0.00000E+00
    0.00000E+00         0.00000E+00        -0.19668E+08
 
   -0.19818E+08         0.18942E+07         0.00000E+00
    0.18942E+07        -0.42864E+08         0.00000E+00
    0.00000E+00         0.00000E+00        -0.19820E+08
 
   -0.19968E+08         0.18791E+07         0.00000E+00
    0.18791E+07        -0.43210E+08         0.00000E+00
    0.00000E+00         0.00000E+00        -0.19971E+08
 
   -0.20118E+08         0.18655E+07         0.00000E+00
    0.18655E+07        -0.43560E+08         0.00000E+00
    0.00000E+00         0.00000E+00        -0.20122E+08
 
   -0.20268E+08         0.18526E+07         0.00000E+00
    0.18526E+07        -0.43912E+08         0.00000E+00
    0.00000E+00         0.00000E+00        -0.20271E+08
 
   -0.20418E+08         0.18395E+07         0.00000E+00
    0.18395E+07        -0.44267E+08         0.00000E+00
    0.00000E+00         0.00000E+00        -0.20420E+08
 
   -0.20567E+08         0.18255E+07         0.00000E+00
    0.18255E+07        -0.44624E+08         0.00000E+00
    0.00000E+00         0.00000E+00        -0.20568E+08
 
   -0.20717E+08         0.18092E+07         0.00000E+00
    0.18092E+07        -0.44981E+08         0.00000E+00
    0.00000E+00         0.00000E+00        -0.20716E+08
 
   -0.20872E+08         0.17902E+07         0.00000E+00
    0.17902E+07        -0.45330E+08         0.00000E+00
    0.00000E+00         0.00000E+00        -0.20870E+08
 
   -0.21035E+08         0.17712E+07         0.00000E+00
    0.17712E+07        -0.45669E+08         0.00000E+00
    0.00000E+00         0.00000E+00        -0.21036E+08
 
   -0.21200E+08         0.17556E+07         0.00000E+00
    0.17556E+07        -0.46011E+08         0.00000E+00
    0.00000E+00         0.00000E+00        -0.21202E+08
 
   -0.21365E+08         0.17419E+07         0.00000E+00
    0.17419E+07        -0.46354E+08         0.00000E+00
    0.00000E+00         0.00000E+00        -0.21368E+08
 
   -0.21531E+08         0.17293E+07         0.00000E+00
    0.17293E+07        -0.46700E+08         0.00000E+00
    0.00000E+00         0.00000E+00        -0.21534E+08
 
   -0.21696E+08         0.17174E+07         0.00000E+00
    0.17174E+07        -0.47047E+08         0.00000E+00
    0.00000E+00         0.00000E+00        -0.21700E+08
 
   -0.21862E+08         0.17057E+07         0.00000E+00
    0.17057E+07        -0.47395E+08         0.00000E+00
    0.00000E+00         0.00000E+00        -0.21865E+08
 
   -0.22028E+08         0.16936E+07         0.00000E+00
    0.16936E+07        -0.47744E+08         0.00000E+00
    0.00000E+00         0.00000E+00        -0.22030E+08
 
   -0.22196E+08         0.16811E+07         0.00000E+00
    0.16811E+07        -0.48091E+08         0.00000E+00
    0.00000E+00         0.00000E+00        -0.22198E+08
 
   -0.22368E+08         0.16680E+07         0.00000E+00
    0.16680E+07        -0.48432E+08         0.00000E+00
    0.00000E+00         0.00000E+00        -0.22370E+08
 
   -0.22541E+08         0.16568E+07         0.00000E+00
    0.16568E+07        -0.48772E+08         0.00000E+00
    0.00000E+00         0.00000E+00        -0.22545E+08
 
   -0.22715E+08         0.16471E+07         0.00000E+00
    0.16471E+07        -0.49114E+08         0.00000E+00
    0.00000E+00         0.00000E+00        -0.22719E+08
 
   -0.22889E+08         0.16384E+07         0.00000E+00
    0.16384E+07        -0.49456E+08         0.00000E+00
    0.00000E+00         0.00000E+00        -0.22894E+08
 
   -0.23064E+08         0.16304E+07         0.00000E+00
    0.16304E+07        -0.49799E+08         0.00000E+00
    0.00000E+00         0.00000E+00        -0.23068E+08
 
   -0.23238E+08         0.16230E+07         0.00000E+00
    0.16230E+07        -0.50143E+08         0.00000E+00
    0.00000E+00         0.00000E+00        -0.23243E+08
 
   -0.23413E+08         0.16159E+07         0.00000E+00
    0.16159E+07        -0.50487E+08         0.00000E+00
    0.00000E+00         0.00000E+00        -0.23418E+08
 
   -0.23588E+08         0.16090E+07         0.00000E+00
    0.16090E+07        -0.50831E+08         0.00000E+00
    0.00000E+00         0.00000E+00        -0.23592E+08
 
   -0.23763E+08         0.16022E+07         0.00000E+00
    0.16022E+07        -0.51175E+08         0.00000E+00
    0.00000E+00         0.00000E+00        -0.23767E+08
 
   -0.23938E+08         0.15955E+07         0.00000E+00
    0.15955E+07        -0.51520E+08         0.00000E+00
    0.00000E+00         0.00000E+00        -0.23942E+08
 
   -0.24115E+08         0.15886E+07         0.00000E+00
    0.15886E+07        -0.51864E+08         0.00000E+00
    0.00000E+00         0.00000E+00        -0.24118E+08
 
   -0.24293E+08         0.15813E+07         0.00000E+00
    0.15813E+07        -0.52206E+08         0.00000E+00
    0.00000E+00         0.00000E+00        -0.24297E+08
 
   -0.24473E+08         0.15737E+07         0.00000E+00
    0.15737E+07        -0.52547E+08         0.00000E+00
    0.00000E+00         0.00000E+00        -0.24476E+08
 
   -0.24653E+08         0.15657E+07         0.00000E+00
    0.15657E+07        -0.52889E+08         0.00000E+00
    0.00000E+00         0.00000E+00        -0.24655E+08
 
   -0.24833E+08         0.15572E+07         0.00000E+00
    0.15572E+07        -0.53231E+08         0.00000E+00
    0.00000E+00         0.00000E+00        -0.24834E+08
 
   -0.25013E+08         0.15481E+07         0.00000E+00
    0.15481E+07        -0.53574E+08         0.00000E+00
    0.00000E+00         0.00000E+00        -0.25014E+08
 
   -0.25193E+08         0.15382E+07         0.00000E+00
    0.15382E+07        -0.53917E+08         0.00000E+00
    0.00000E+00         0.00000E+00        -0.25194E+08
 
   -0.25374E+08         0.15275E+07         0.00000E+00
    0.15275E+07        -0.54261E+08         0.00000E+00
    0.00000E+00         0.00000E+00        -0.25374E+08
 
   -0.25556E+08         0.15156E+07         0.00000E+00
    0.15156E+07        -0.54607E+08         0.00000E+00
    0.00000E+00         0.00000E+00        -0.25555E+08
 
   -0.25738E+08         0.15024E+07         0.00000E+00
    0.15024E+07        -0.54953E+08         0.00000E+00
    0.00000E+00         0.00000E+00        -0.25736E+08
 
   -0.25921E+08         0.14876E+07         0.00000E+00
    0.14876E+07        -0.55302E+08         0.00000E+00
    0.00000E+00         0.00000E+00        -0.25917E+08
 
   -0.26105E+08         0.14710E+07         0.00000E+00
    0.14710E+07        -0.55652E+08         0.00000E+00
    0.00000E+00         0.00000E+00        -0.26100E+08
 
   -0.26290E+08         0.14523E+07         0.00000E+00
    0.14523E+07        -0.56004E+08         0.00000E+00
    0.00000E+00         0.00000E+00        -0.26283E+08
 
   -0.26476E+08         0.14311E+07         0.00000E+00
    0.14311E+07        -0.56359E+08         0.00000E+00
    0.00000E+00         0.00000E+00        -0.26467E+08
 
   -0.26664E+08         0.14072E+07         0.00000E+00
    0.14072E+07        -0.56716E+08         0.00000E+00
    0.00000E+00         0.00000E+00        -0.26653E+08
 
   -0.26853E+08         0.13802E+07         0.00000E+00
    0.13802E+07        -0.57077E+08         0.00000E+00
    0.00000E+00         0.00000E+00        -0.26840E+08
 
   -0.27044E+08         0.13500E+07         0.00000E+00
    0.13500E+07        -0.57441E+08         0.00000E+00
    0.00000E+00         0.00000E+00        -0.27029E+08
 
   -0.27236E+08         0.13162E+07         0.00000E+00
    0.13162E+07        -0.57809E+08         0.00000E+00
    0.00000E+00         0.00000E+00        -0.27219E+08
 
   -0.27430E+08         0.12787E+07         0.00000E+00
    0.12787E+07        -0.58181E+08         0.00000E+00
    0.00000E+00         0.00000E+00        -0.27411E+08
 
   -0.27626E+08         0.12374E+07         0.00000E+00
    0.12374E+07        -0.58556E+08         0.00000E+00
    0.00000E+00         0.00000E+00        -0.27604E+08
 
   -0.27824E+08         0.11923E+07         0.00000E+00
    0.11923E+07        -0.58934E+08         0.00000E+00
    0.00000E+00         0.00000E+00        -0.27799E+08
 
   -0.28022E+08         0.11434E+07         0.00000E+00
    0.11434E+07        -0.59314E+08         0.00000E+00
    0.00000E+00         0.00000E+00        -0.27995E+08
 
   -0.28222E+08         0.10908E+07         0.00000E+00
    0.10908E+07        -0.59696E+08         0.00000E+00
    0.00000E+00         0.00000E+00        -0.28192E+08
 
   -0.28420E+08         0.10345E+07         0.00000E+00
    0.10345E+07        -0.60077E+08         0.00000E+00
    0.00000E+00         0.00000E+00        -0.28388E+08
 
   -0.28618E+08         0.97415E+06         0.00000E+00
    0.97415E+06        -0.60455E+08         0.00000E+00
    0.00000E+00         0.00000E+00        -0.28583E+08
 
   -0.28813E+08         0.90906E+06         0.00000E+00
    0.90906E+06        -0.60829E+08         0.00000E+00
    0.00000E+00         0.00000E+00        -0.28775E+08
 
   -0.29005E+08         0.83722E+06         0.00000E+00
    0.83722E+06        -0.61195E+08         0.00000E+00
    0.00000E+00         0.00000E+00        -0.28962E+08
 
   -0.29193E+08         0.75619E+06         0.00000E+00
    0.75619E+06        -0.61551E+08         0.00000E+00
    0.00000E+00         0.00000E+00        -0.29143E+08
 
   -0.29376E+08         0.65907E+06         0.00000E+00
    0.65907E+06        -0.61893E+08         0.00000E+00
    0.00000E+00         0.00000E+00        -0.29314E+08
 
   -0.29554E+08         0.54101E+06         0.00000E+00
    0.54101E+06        -0.62221E+08         0.00000E+00
    0.00000E+00         0.00000E+00        -0.29474E+08
 
   -0.29726E+08         0.37803E+06         0.00000E+00
    0.37803E+06        -0.62530E+08         0.00000E+00
    0.00000E+00         0.00000E+00        -0.29620E+08
 
   -0.29911E+08         0.13975E+06         0.00000E+00
    0.13975E+06        -0.62795E+08         0.00000E+00
    0.00000E+00         0.00000E+00        -0.29708E+08
 
   -0.14189E+08         0.17945E+06         0.00000E+00
    0.17945E+06        -0.27294E+08         0.00000E+00
    0.00000E+00         0.00000E+00        -0.14646E+08
 
   -0.14342E+08         0.50307E+06         0.00000E+00
    0.50307E+06        -0.27437E+08         0.00000E+00
    0.00000E+00         0.00000E+00        -0.14646E+08
 
   -0.14409E+08         0.75929E+06         0.00000E+00
    0.75929E+06        -0.27697E+08         0.00000E+00
    0.00000E+00         0.00000E+00        -0.14646E+08
 
   -0.14454E+08         0.96348E+06         0.00000E+00
    0.96348E+06        -0.28036E+08         0.00000E+00
    0.00000E+00         0.00000E+00        -0.14646E+08
 
   -0.14489E+08         0.11312E+07         0.00000E+00
    0.11312E+07        -0.28430E+08         0.00000E+00
    0.00000E+00         0.00000E+00        -0.14646E+08
 
   -0.14520E+08         0.12674E+07         0.00000E+00
    0.12674E+07        -0.28866E+08         0.00000E+00
    0.00000E+00         0.00000E+00        -0.14646E+08
 
   -0.14552E+08         0.13732E+07         0.00000E+00
    0.13732E+07        -0.29337E+08         0.00000E+00
    0.00000E+00         0.00000E+00        -0.14646E+08
 
   -0.14591E+08         0.14464E+07         0.00000E+00
    0.14464E+07        -0.29838E+08         0.00000E+00
    0.00000E+00         0.00000E+00        -0.14646E+08
 
   -0.14660E+08         0.14740E+07         0.00000E+00
    0.14740E+07        -0.30358E+08         0.00000E+00
    0.00000E+00         0.00000E+00        -0.14659E+08
 
   -0.14798E+08         0.14551E+07         0.00000E+00
    0.14551E+07        -0.30753E+08         0.00000E+00
    0.00000E+00         0.00000E+00        -0.14825E+08
 
   -0.14994E+08         0.14352E+07         0.00000E+00
    0.14352E+07        -0.31088E+08         0.00000E+00
    0.00000E+00         0.00000E+00        -0.15067E+08
 
   -0.15208E+08         0.14445E+07         0.00000E+00
    0.14445E+07        -0.31437E+08         0.00000E+00
    0.00000E+00         0.00000E+00        -0.15300E+08
 
   -0.15423E+08         0.14746E+07         0.00000E+00
    0.14746E+07        -0.31798E+08         0.00000E+00
    0.00000E+00         0.00000E+00        -0.15523E+08
 
   -0.15632E+08         0.15161E+07         0.00000E+00
    0.15161E+07        -0.32169E+08         0.00000E+00
    0.00000E+00         0.00000E+00        -0.15735E+08
 
   -0.15835E+08         0.15640E+07         0.00000E+00
    0.15640E+07        -0.32545E+08         0.00000E+00
    0.00000E+00         0.00000E+00        -0.15936E+08
 
   -0.16028E+08         0.16146E+07         0.00000E+00
    0.16146E+07        -0.32925E+08         0.00000E+00
    0.00000E+00         0.00000E+00        -0.16125E+08
 
   -0.16212E+08         0.16656E+07         0.00000E+00
    0.16656E+07        -0.33306E+08         0.00000E+00
    0.00000E+00         0.00000E+00        -0.16304E+08
 
   -0.16386E+08         0.17152E+07         0.00000E+00
    0.17152E+07        -0.33690E+08         0.00000E+00
    0.00000E+00         0.00000E+00        -0.16471E+08
 
   -0.16550E+08         0.17621E+07         0.00000E+00
    0.17621E+07        -0.34074E+08         0.00000E+00
    0.00000E+00         0.00000E+00        -0.16629E+08
 
   -0.16706E+08         0.18054E+07         0.00000E+00
    0.18054E+07        -0.34460E+08         0.00000E+00
    0.00000E+00         0.00000E+00        -0.16777E+08
 
   -0.16853E+08         0.18442E+07         0.00000E+00
    0.18442E+07        -0.34847E+08         0.00000E+00
    0.00000E+00         0.00000E+00        -0.16916E+08
 
   -0.16992E+08         0.18780E+07         0.00000E+00
    0.18780E+07        -0.35236E+08         0.00000E+00
    0.00000E+00         0.00000E+00        -0.17047E+08
 
   -0.17124E+08         0.19062E+07         0.00000E+00
    0.19062E+07        -0.35627E+08         0.00000E+00
    0.00000E+00         0.00000E+00        -0.17171E+08
 
   -0.17249E+08         0.19282E+07         0.00000E+00
    0.19282E+07        -0.36019E+08         0.00000E+00
    0.00000E+00         0.00000E+00        -0.17287E+08
 
   -0.17370E+08         0.19430E+07         0.00000E+00
    0.19430E+07        -0.36412E+08         0.00000E+00
    0.00000E+00         0.00000E+00        -0.17398E+08
 
   -0.17490E+08         0.19488E+07         0.00000E+00
    0.19488E+07        -0.36800E+08         0.00000E+00
    0.00000E+00         0.00000E+00        -0.17502E+08
 
   -0.17618E+08         0.19435E+07         0.00000E+00
    0.19435E+07        -0.37166E+08         0.00000E+00
    0.00000E+00         0.00000E+00        -0.17624E+08
 
   -0.17759E+08         0.19321E+07         0.00000E+00
    0.19321E+07        -0.37504E+08         0.00000E+00
    0.00000E+00         0.00000E+00        -0.17779E+08
 
   -0.17906E+08         0.19285E+07         0.00000E+00
    0.19285E+07        -0.37848E+08         0.00000E+00
    0.00000E+00         0.00000E+00        -0.17930E+08
 
   -0.18052E+08         0.19287E+07         0.00000E+00
    0.19287E+07        -0.38196E+08         0.00000E+00
    0.00000E+00         0.00000E+00        -0.18077E+08
 
   -0.18195E+08         0.19308E+07         0.00000E+00
    0.19308E+07        -0.38547E+08         0.00000E+00
    0.00000E+00         0.00000E+00        -0.18221E+08
 
   -0.18336E+08         0.19337E+07         0.00000E+00
    0.19337E+07        -0.38902E+08         0.00000E+00
    0.00000E+00         0.00000E+00        -0.18361E+08
 
   -0.18474E+08         0.19366E+07         0.00000E+00
    0.19366E+07        -0.39259E+08         0.00000E+00
    0.00000E+00         0.00000E+00        -0.18498E+08
 
   -0.18610E+08         0.19390E+07         0.00000E+00
    0.19390E+07        -0.39618E+08         0.00000E+00
    0.00000E+00         0.00000E+00        -0.18632E+08
 
   -0.18744E+08         0.19402E+07         0.00000E+00
    0.19402E+07        -0.39980E+08         0.00000E+00
    0.00000E+00         0.00000E+00        -0.18763E+08
 
   -0.18875E+08         0.19399E+07         0.00000E+00
    0.19399E+07        -0.40344E+08         0.00000E+00
    0.00000E+00         0.00000E+00        -0.18891E+08
 
   -0.19004E+08         0.19376E+07         0.00000E+00
    0.19376E+07        -0.40711E+08         0.00000E+00
    0.00000E+00         0.00000E+00        -0.19018E+08
 
   -0.19131E+08         0.19328E+07         0.00000E+00
    0.19328E+07        -0.41079E+08         0.00000E+00
    0.00000E+00         0.00000E+00        -0.19141E+08
 
   -0.19258E+08         0.19248E+07         0.00000E+00
    0.19248E+07        -0.41449E+08         0.00000E+00
    0.00000E+00         0.00000E+00        -0.19263E+08
 
   -0.19386E+08         0.19118E+07         0.00000E+00
    0.19118E+07        -0.41819E+08         0.00000E+00
    0.00000E+00         0.00000E+00        -0.19383E+08
 
   -0.19519E+08         0.18947E+07         0.00000E+00
    0.18947E+07        -0.42179E+08         0.00000E+00
    0.00000E+00         0.00000E+00        -0.19511E+08
 
   -0.19661E+08         0.18719E+07         0.00000E+00
    0.18719E+07        -0.42519E+08         0.00000E+00
    0.00000E+00         0.00000E+00        -0.19661E+08
 
   -0.19809E+08         0.18540E+07         0.00000E+00
    0.18540E+07        -0.42861E+08         0.00000E+00
    0.00000E+00         0.00000E+00        -0.19813E+08
 
   -0.19959E+08         0.18389E+07         0.00000E+00
    0.18389E+07        -0.43208E+08         0.00000E+00
    0.00000E+00         0.00000E+00        -0.19965E+08
 
   -0.20109E+08         0.18254E+07         0.00000E+00
    0.18254E+07        -0.43557E+08         0.00000E+00
    0.00000E+00         0.00000E+00        -0.20115E+08
 
   -0.20259E+08         0.18125E+07         0.00000E+00
    0.18125E+07        -0.43909E+08         0.00000E+00
    0.00000E+00         0.00000E+00        -0.20265E+08
 
   -0.20409E+08         0.17995E+07         0.00000E+00
    0.17995E+07        -0.44264E+08         0.00000E+00
    0.00000E+00         0.00000E+00        -0.20414E+08
 
   -0.20560E+08         0.17855E+07         0.00000E+00
    0.17855E+07        -0.44620E+08         0.00000E+00
    0.00000E+00         0.00000E+00        -0.20562E+08
 
   -0.20711E+08         0.17700E+07         0.00000E+00
    0.17700E+07        -0.44977E+08         0.00000E+00
    0.00000E+00         0.00000E+00        -0.20710E+08
 
   -0.20867E+08         0.17522E+07         0.00000E+00
    0.17522E+07        -0.45326E+08         0.00000E+00
    0.00000E+00         0.00000E+00        -0.20865E+08
 
   -0.21029E+08         0.17343E+07         0.00000E+00
    0.17343E+07        -0.45666E+08         0.00000E+00
    0.00000E+00         0.00000E+00        -0.21032E+08
 
   -0.21193E+08         0.17189E+07         0.00000E+00
    0.17189E+07        -0.46008E+08         0.00000E+00
    0.00000E+00         0.00000E+00        -0.21198E+08
 
   -0.21358E+08         0.17053E+07         0.00000E+00
    0.17053E+07        -0.46352E+08         0.00000E+00
    0.00000E+00         0.00000E+00        -0.21364E+08
 
   -0.21524E+08         0.16929E+07         0.00000E+00
    0.16929E+07        -0.46698E+08         0.00000E+00
    0.00000E+00         0.00000E+00        -0.21529E+08
 
   -0.21689E+08         0.16810E+07         0.00000E+00
    0.16810E+07        -0.47045E+08         0.00000E+00
    0.00000E+00         0.00000E+00        -0.21695E+08
 
   -0.21855E+08         0.16695E+07         0.00000E+00
    0.16695E+07        -0.47393E+08         0.00000E+00
    0.00000E+00         0.00000E+00        -0.21860E+08
 
   -0.22022E+08         0.16576E+07         0.00000E+00
    0.16576E+07        -0.47742E+08         0.00000E+00
    0.00000E+00         0.00000E+00        -0.22026E+08
 
   -0.22190E+08         0.16458E+07         0.00000E+00
    0.16458E+07        -0.48088E+08         0.00000E+00
    0.00000E+00         0.00000E+00        -0.22193E+08
 
   -0.22362E+08         0.16332E+07         0.00000E+00
    0.16332E+07        -0.48429E+08         0.00000E+00
    0.00000E+00         0.00000E+00        -0.22366E+08
 
   -0.22534E+08         0.16224E+07         0.00000E+00
    0.16224E+07        -0.48770E+08         0.00000E+00
    0.00000E+00         0.00000E+00        -0.22541E+08
 
   -0.22708E+08         0.16128E+07         0.00000E+00
    0.16128E+07        -0.49112E+08         0.00000E+00
    0.00000E+00         0.00000E+00        -0.22715E+08
 
   -0.22882E+08         0.16042E+07         0.00000E+00
    0.16042E+07        -0.49455E+08         0.00000E+00
    0.00000E+00         0.00000E+00        -0.22890E+08
 
   -0.23057E+08         0.15963E+07         0.00000E+00
    0.15963E+07        -0.49798E+08         0.00000E+00
    0.00000E+00         0.00000E+00        -0.23064E+08
 
   -0.23231E+08         0.15889E+07         0.00000E+00
    0.15889E+07        -0.50141E+08         0.00000E+00
    0.00000E+00         0.00000E+00        -0.23239E+08
 
   -0.23406E+08         0.15819E+07         0.00000E+00
    0.15819E+07        -0.50485E+08         0.00000E+00
    0.00000E+00         0.00000E+00        -0.23413E+08
 
   -0.23581E+08         0.15751E+07         0.00000E+00
    0.15751E+07        -0.50829E+08         0.00000E+00
    0.00000E+00         0.00000E+00        -0.23588E+08
 
   -0.23756E+08         0.15684E+07         0.00000E+00
    0.15684E+07        -0.51174E+08         0.00000E+00
    0.00000E+00         0.00000E+00        -0.23763E+08
 
   -0.23931E+08         0.15618E+07         0.00000E+00
    0.15618E+07        -0.51518E+08         0.00000E+00
    0.00000E+00         0.00000E+00        -0.23938E+08
 
   -0.24108E+08         0.15549E+07         0.00000E+00
    0.15549E+07        -0.51862E+08         0.00000E+00
    0.00000E+00         0.00000E+00        -0.24114E+08
 
   -0.24287E+08         0.15477E+07         0.00000E+00
    0.15477E+07        -0.52203E+08         0.00000E+00
    0.00000E+00         0.00000E+00        -0.24293E+08
 
   -0.24467E+08         0.15401E+07         0.00000E+00
    0.15401E+07        -0.52545E+08         0.00000E+00
    0.00000E+00         0.00000E+00        -0.24472E+08
 
   -0.24647E+08         0.15322E+07         0.00000E+00
    0.15322E+07        -0.52886E+08         0.00000E+00
    0.00000E+00         0.00000E+00        -0.24651E+08
 
   -0.24827E+08         0.15239E+07         0.00000E+00
    0.15239E+07        -0.53228E+08         0.00000E+00
    0.00000E+00         0.00000E+00        -0.24830E+08
 
   -0.25007E+08         0.15149E+07         0.00000E+00
    0.15149E+07        -0.53571E+08         0.00000E+00
    0.00000E+00         0.00000E+00        -0.25009E+08
 
   -0.25188E+08         0.15052E+07         0.00000E+00
    0.15052E+07        -0.53914E+08         0.00000E+00
    0.00000E+00         0.00000E+00        -0.25189E+08
 
   -0.25370E+08         0.14946E+07         0.00000E+00
    0.14946E+07        -0.54258E+08         0.00000E+00
    0.00000E+00         0.00000E+00        -0.25369E+08
 
   -0.25551E+08         0.14829E+07         0.00000E+00
    0.14829E+07        -0.54603E+08         0.00000E+00
    0.00000E+00         0.00000E+00        -0.25549E+08
 
   -0.25734E+08         0.14699E+07         0.00000E+00
    0.14699E+07        -0.54950E+08         0.00000E+00
    0.00000E+00         0.00000E+00        -0.25729E+08
 
   -0.25917E+08         0.14554E+07         0.00000E+00
    0.14554E+07        -0.55298E+08         0.00000E+00
    0.00000E+00         0.00000E+00        -0.25911E+08
 
   -0.26101E+08         0.14390E+07         0.00000E+00
    0.14390E+07        -0.55647E+08         0.00000E+00
    0.00000E+00         0.00000E+00        -0.26092E+08
 
   -0.26287E+08         0.14206E+07         0.00000E+00
    0.14206E+07        -0.55999E+08         0.00000E+00
    0.00000E+00         0.00000E+00        -0.26275E+08
 
   -0.26473E+08         0.13997E+07         0.00000E+00
    0.13997E+07        -0.56353E+08         0.00000E+00
    0.00000E+00         0.00000E+00        -0.26459E+08
 
   -0.26661E+08         0.13762E+07         0.00000E+00
    0.13762E+07        -0.56710E+08         0.00000E+00
    0.00000E+00         0.00000E+00        -0.26643E+08
 
   -0.26851E+08         0.13496E+07         0.00000E+00
    0.13496E+07        -0.57070E+08         0.00000E+00
    0.00000E+00         0.00000E+00        -0.26829E+08
 
   -0.27042E+08         0.13197E+07         0.00000E+00
    0.13197E+07        -0.57434E+08         0.00000E+00
    0.00000E+00         0.00000E+00        -0.27017E+08
 
   -0.27235E+08         0.12864E+07         0.00000E+00
    0.12864E+07        -0.57801E+08         0.00000E+00
    0.00000E+00         0.00000E+00        -0.27206E+08
 
   -0.27430E+08         0.12493E+07         0.00000E+00
    0.12493E+07        -0.58172E+08         0.00000E+00
    0.00000E+00         0.00000E+00        -0.27397E+08
 
   -0.27627E+08         0.12083E+07         0.00000E+00
    0.12083E+07        -0.58547E+08         0.00000E+00
    0.00000E+00         0.00000E+00        -0.27589E+08
 
   -0.27825E+08         0.11635E+07         0.00000E+00
    0.11635E+07        -0.58924E+08         0.00000E+00
    0.00000E+00         0.00000E+00        -0.27783E+08
 
   -0.28024E+08         0.11148E+07         0.00000E+00
    0.11148E+07        -0.59304E+08         0.00000E+00
    0.00000E+00         0.00000E+00        -0.27979E+08
 
   -0.28224E+08         0.10622E+07         0.00000E+00
    0.10622E+07        -0.59685E+08         0.00000E+00
    0.00000E+00         0.00000E+00        -0.28174E+08
 
   -0.28423E+08         0.10058E+07         0.00000E+00
    0.10058E+07        -0.60065E+08         0.00000E+00
    0.00000E+00         0.00000E+00        -0.28370E+08
 
   -0.28622E+08         0.94511E+06         0.00000E+00
    0.94511E+06        -0.60443E+08         0.00000E+00
    0.00000E+00         0.00000E+00        -0.28563E+08
 
   -0.28818E+08         0.87938E+06         0.00000E+00
    0.87938E+06        -0.60816E+08         0.00000E+00
    0.00000E+00         0.00000E+00        -0.28754E+08
 
   -0.29011E+08         0.80698E+06         0.00000E+00
    0.80698E+06        -0.61180E+08         0.00000E+00
    0.00000E+00         0.00000E+00        -0.28939E+08
 
   -0.29200E+08         0.72474E+06         0.00000E+00
    0.72474E+06        -0.61534E+08         0.00000E+00
    0.00000E+00         0.00000E+00        -0.29116E+08
 
   -0.29385E+08         0.62721E+06         0.00000E+00
    0.62721E+06        -0.61873E+08         0.00000E+00
    0.00000E+00         0.00000E+00        -0.29281E+08
 
   -0.29566E+08         0.50791E+06         0.00000E+00
    0.50791E+06        -0.62197E+08         0.00000E+00
    0.00000E+00         0.00000E+00        -0.29434E+08
 
   -0.29744E+08         0.34274E+06         0.00000E+00
    0.34274E+06        -0.62491E+08         0.00000E+00
    0.00000E+00         0.00000E+00        -0.29560E+08
 
   -0.29949E+08         0.12187E+06         0.00000E+00
    0.12187E+06        -0.62746E+08         0.00000E+00
    0.00000E+00         0.00000E+00        -0.29619E+08
 
   -0.14032E+08         0.15790E+06         0.00000E+00
    0.15790E+06        -0.27361E+08         0.00000E+00
    0.00000E+00         0.00000E+00        -0.14646E+08
 
   -0.14218E+08         0.45230E+06         0.00000E+00
    0.45230E+06        -0.27494E+08         0.00000E+00
    0.00000E+00         0.00000E+00        -0.14646E+08
 
   -0.14312E+08         0.69904E+06         0.00000E+00
    0.69904E+06        -0.27742E+08         0.00000E+00
    0.00000E+00         0.00000E+00        -0.14646E+08
 
   -0.14374E+08         0.90037E+06         0.00000E+00
    0.90037E+06        -0.28073E+08         0.00000E+00
    0.00000E+00         0.00000E+00        -0.14646E+08
 
   -0.14424E+08         0.10667E+07         0.00000E+00
    0.10667E+07        -0.28460E+08         0.00000E+00
    0.00000E+00         0.00000E+00        -0.14646E+08
 
   -0.14468E+08         0.12025E+07         0.00000E+00
    0.12025E+07        -0.28891E+08         0.00000E+00
    0.00000E+00         0.00000E+00        -0.14646E+08
 
   -0.14512E+08         0.13089E+07         0.00000E+00
    0.13089E+07        -0.29356E+08         0.00000E+00
    0.00000E+00         0.00000E+00        -0.14646E+08
 
   -0.14565E+08         0.13852E+07         0.00000E+00
    0.13852E+07        -0.29850E+08         0.00000E+00
    0.00000E+00         0.00000E+00        -0.14646E+08
 
   -0.14644E+08         0.14222E+07         0.00000E+00
    0.14222E+07        -0.30359E+08         0.00000E+00
    0.00000E+00         0.00000E+00        -0.14658E+08
 
   -0.14776E+08         0.14157E+07         0.00000E+00
    0.14157E+07        -0.30748E+08         0.00000E+00
    0.00000E+00         0.00000E+00        -0.14820E+08
 
   -0.14958E+08         0.14041E+07         0.00000E+00
    0.14041E+07        -0.31087E+08         0.00000E+00
    0.00000E+00         0.00000E+00        -0.15060E+08
 
   -0.15164E+08         0.14149E+07         0.00000E+00
    0.14149E+07        -0.31441E+08         0.00000E+00
    0.00000E+00         0.00000E+00        -0.15291E+08
 
   -0.15374E+08         0.14447E+07         0.00000E+00
    0.14447E+07        -0.31806E+08         0.00000E+00
    0.00000E+00         0.00000E+00        -0.15512E+08
 
   -0.15582E+08         0.14852E+07         0.00000E+00
    0.14852E+07        -0.32178E+08         0.00000E+00
    0.00000E+00         0.00000E+00        -0.15723E+08
 
   -0.15783E+08         0.15316E+07         0.00000E+00
    0.15316E+07        -0.32555E+08         0.00000E+00
    0.00000E+00         0.00000E+00        -0.15922E+08
 
   -0.15977E+08         0.15805E+07         0.00000E+00
    0.15805E+07        -0.32935E+08         0.00000E+00
    0.00000E+00         0.00000E+00        -0.16111E+08
 
   -0.16162E+08         0.16296E+07         0.00000E+00
    0.16296E+07        -0.33316E+08         0.00000E+00
    0.00000E+00         0.00000E+00        -0.16288E+08
 
   -0.16338E+08         0.16774E+07         0.00000E+00
    0.16774E+07        -0.33699E+08         0.00000E+00
    0.00000E+00         0.00000E+00        -0.16455E+08
 
   -0.16505E+08         0.17226E+07         0.00000E+00
    0.17226E+07        -0.34083E+08         0.00000E+00
    0.00000E+00         0.00000E+00        -0.16613E+08
 
   -0.16663E+08         0.17641E+07         0.00000E+00
    0.17641E+07        -0.34468E+08         0.00000E+00
    0.00000E+00         0.00000E+00        -0.16760E+08
 
   -0.16812E+08         0.18014E+07         0.00000E+00
    0.18014E+07        -0.34854E+08         0.00000E+00
    0.00000E+00         0.00000E+00        -0.16899E+08
 
   -0.16954E+08         0.18337E+07         0.00000E+00
    0.18337E+07        -0.35242E+08         0.00000E+00
    0.00000E+00         0.00000E+00        -0.17030E+08
 
   -0.17089E+08         0.18606E+07         0.00000E+00
    0.18606E+07        -0.35632E+08         0.00000E+00
    0.00000E+00         0.00000E+00        -0.17154E+08
 
   -0.17218E+08         0.18815E+07         0.00000E+00
    0.18815E+07        -0.36023E+08         0.00000E+00
    0.00000E+00         0.00000E+00        -0.17271E+08
 
   -0.17343E+08         0.18957E+07         0.00000E+00
    0.18957E+07        -0.36414E+08         0.00000E+00
    0.00000E+00         0.00000E+00        -0.17381E+08
 
   -0.17468E+08         0.19030E+07         0.00000E+00
    0.19030E+07        -0.36801E+08         0.00000E+00
    0.00000E+00         0.00000E+00        -0.17485E+08
 
   -0.17600E+08         0.18988E+07         0.00000E+00
    0.18988E+07        -0.37163E+08         0.00000E+00
    0.00000E+00         0.00000E+00        -0.17613E+08
 
   -0.17740E+08         0.18898E+07         0.00000E+00
    0.18898E+07        -0.37503E+08         0.00000E+00
    0.00000E+00         0.00000E+00        -0.17768E+08
 
   -0.17885E+08         0.18865E+07         0.00000E+00
    0.18865E+07        -0.37848E+08         0.00000E+00
    0.00000E+00         0.00000E+00        -0.17918E+08
 
   -0.18030E+08         0.18864E+07         0.00000E+00
    0.18864E+07        -0.38196E+08         0.00000E+00
    0.00000E+00         0.00000E+00        -0.18065E+08
 
   -0.18174E+08         0.18882E+07         0.00000E+00
    0.18882E+07        -0.38548E+08         0.00000E+00
    0.00000E+00         0.00000E+00        -0.18209E+08
 
   -0.18315E+08         0.18907E+07         0.00000E+00
    0.18907E+07        -0.38902E+08         0.00000E+00
    0.00000E+00         0.00000E+00        -0.18349E+08
 
   -0.18454E+08         0.18932E+07         0.00000E+00
    0.18932E+07        -0.39259E+08         0.00000E+00
    0.00000E+00         0.00000E+00        -0.18486E+08
 
   -0.18591E+08         0.18951E+07         0.00000E+00
    0.18951E+07        -0.39618E+08         0.00000E+00
    0.00000E+00         0.00000E+00        -0.18620E+08
 
   -0.18725E+08         0.18960E+07         0.00000E+00
    0.18960E+07        -0.39980E+08         0.00000E+00
    0.00000E+00         0.00000E+00        -0.18751E+08
 
   -0.18857E+08         0.18954E+07         0.00000E+00
    0.18954E+07        -0.40344E+08         0.00000E+00
    0.00000E+00         0.00000E+00        -0.18880E+08
 
   -0.18988E+08         0.18928E+07         0.00000E+00
    0.18928E+07        -0.40710E+08         0.00000E+00
    0.00000E+00         0.00000E+00        -0.19007E+08
 
   -0.19117E+08         0.18878E+07         0.00000E+00
    0.18878E+07        -0.41078E+08         0.00000E+00
    0.00000E+00         0.00000E+00        -0.19131E+08
 
   -0.19246E+08         0.18798E+07         0.00000E+00
    0.18798E+07        -0.41447E+08         0.00000E+00
    0.00000E+00         0.00000E+00        -0.19253E+08
 
   -0.19376E+08         0.18676E+07         0.00000E+00
    0.18676E+07        -0.41816E+08         0.00000E+00
    0.00000E+00         0.00000E+00        -0.19373E+08
 
   -0.19512E+08         0.18521E+07         0.00000E+00
    0.18521E+07        -0.42174E+08         0.00000E+00
    0.00000E+00         0.00000E+00        -0.19503E+08
 
   -0.19654E+08         0.18307E+07         0.00000E+00
    0.18307E+07        -0.42515E+08         0.00000E+00
    0.00000E+00         0.00000E+00        -0.19654E+08
 
   -0.19801E+08         0.18135E+07         0.00000E+00
    0.18135E+07        -0.42858E+08         0.00000E+00
    0.00000E+00         0.00000E+00        -0.19807E+08
 
   -0.19951E+08         0.17988E+07         0.00000E+00
    0.17988E+07        -0.43205E+08         0.00000E+00
    0.00000E+00         0.00000E+00        -0.19958E+08
 
   -0.20101E+08         0.17854E+07         0.00000E+00
    0.17854E+07        -0.43555E+08         0.00000E+00
    0.00000E+00         0.00000E+00        -0.20109E+08
 
   -0.20251E+08         0.17725E+07         0.00000E+00
    0.17725E+07        -0.43907E+08         0.00000E+00
    0.00000E+00         0.00000E+00        -0.20259E+08
 
   -0.20401E+08         0.17596E+07         0.00000E+00
    0.17596E+07        -0.44261E+08         0.00000E+00
    0.00000E+00         0.00000E+00        -0.20408E+08
 
   -0.20552E+08         0.17458E+07         0.00000E+00
    0.17458E+07        -0.44618E+08         0.00000E+00
    0.00000E+00         0.00000E+00        -0.20556E+08
 
   -0.20705E+08         0.17310E+07         0.00000E+00
    0.17310E+07        -0.44974E+08         0.00000E+00
    0.00000E+00         0.00000E+00        -0.20704E+08
 
   -0.20862E+08         0.17142E+07         0.00000E+00
    0.17142E+07        -0.45323E+08         0.00000E+00
    0.00000E+00         0.00000E+00        -0.20860E+08
 
   -0.21023E+08         0.16972E+07         0.00000E+00
    0.16972E+07        -0.45663E+08         0.00000E+00
    0.00000E+00         0.00000E+00        -0.21027E+08
 
   -0.21187E+08         0.16822E+07         0.00000E+00
    0.16822E+07        -0.46005E+08         0.00000E+00
    0.00000E+00         0.00000E+00        -0.21193E+08
 
   -0.21352E+08         0.16688E+07         0.00000E+00
    0.16688E+07        -0.46349E+08         0.00000E+00
    0.00000E+00         0.00000E+00        -0.21359E+08
 
   -0.21517E+08         0.16564E+07         0.00000E+00
    0.16564E+07        -0.46695E+08         0.00000E+00
    0.00000E+00         0.00000E+00        -0.21525E+08
 
   -0.21683E+08         0.16447E+07         0.00000E+00
    0.16447E+07        -0.47042E+08         0.00000E+00
    0.00000E+00         0.00000E+00        -0.21690E+08
 
   -0.21849E+08         0.16333E+07         0.00000E+00
    0.16333E+07        -0.47391E+08         0.00000E+00
    0.00000E+00         0.00000E+00        -0.21856E+08
 
   -0.22016E+08         0.16218E+07         0.00000E+00
    0.16218E+07        -0.47739E+08         0.00000E+00
    0.00000E+00         0.00000E+00        -0.22021E+08
 
   -0.22185E+08         0.16105E+07         0.00000E+00
    0.16105E+07        -0.48086E+08         0.00000E+00
    0.00000E+00         0.00000E+00        -0.22189E+08
 
   -0.22356E+08         0.15984E+07         0.00000E+00
    0.15984E+07        -0.48427E+08         0.00000E+00
    0.00000E+00         0.00000E+00        -0.22362E+08
 
   -0.22528E+08         0.15879E+07         0.00000E+00
    0.15879E+07        -0.48768E+08         0.00000E+00
    0.00000E+00         0.00000E+00        -0.22537E+08
 
   -0.22702E+08         0.15784E+07         0.00000E+00
    0.15784E+07        -0.49110E+08         0.00000E+00
    0.00000E+00         0.00000E+00        -0.22711E+08
 
   -0.22876E+08         0.15700E+07         0.00000E+00
    0.15700E+07        -0.49453E+08         0.00000E+00
    0.00000E+00         0.00000E+00        -0.22886E+08
 
   -0.23050E+08         0.15621E+07         0.00000E+00
    0.15621E+07        -0.49796E+08         0.00000E+00
    0.00000E+00         0.00000E+00        -0.23060E+08
 
   -0.23224E+08         0.15548E+07         0.00000E+00
    0.15548E+07        -0.50140E+08         0.00000E+00
    0.00000E+00         0.00000E+00        -0.23235E+08
 
   -0.23399E+08         0.15479E+07         0.00000E+00
    0.15479E+07        -0.50484E+08         0.00000E+00
    0.00000E+00         0.00000E+00        -0.23409E+08
 
   -0.23574E+08         0.15412E+07         0.00000E+00
    0.15412E+07        -0.50828E+08         0.00000E+00
    0.00000E+00         0.00000E+00        -0.23584E+08
 
   -0.23749E+08         0.15346E+07         0.00000E+00
    0.15346E+07        -0.51173E+08         0.00000E+00
    0.00000E+00         0.00000E+00        -0.23759E+08
 
   -0.23925E+08         0.15281E+07         0.00000E+00
    0.15281E+07        -0.51517E+08         0.00000E+00
    0.00000E+00         0.00000E+00        -0.23933E+08
 
   -0.24102E+08         0.15213E+07         0.00000E+00
    0.15213E+07        -0.51860E+08         0.00000E+00
    0.00000E+00         0.00000E+00        -0.24110E+08
 
   -0.24281E+08         0.15141E+07         0.00000E+00
    0.15141E+07        -0.52201E+08         0.00000E+00
    0.00000E+00         0.00000E+00        -0.24289E+08
 
   -0.24461E+08         0.15066E+07         0.00000E+00
    0.15066E+07        -0.52542E+08         0.00000E+00
    0.00000E+00         0.00000E+00        -0.24467E+08
 
   -0.24641E+08         0.14988E+07         0.00000E+00
    0.14988E+07        -0.52884E+08         0.00000E+00
    0.00000E+00         0.00000E+00        -0.24646E+08
 
   -0.24822E+08         0.14906E+07         0.00000E+00
    0.14906E+07        -0.53226E+08         0.00000E+00
    0.00000E+00         0.00000E+00        -0.24825E+08
 
   -0.25002E+08         0.14818E+07         0.00000E+00
    0.14818E+07        -0.53568E+08         0.00000E+00
    0.00000E+00         0.00000E+00        -0.25004E+08
 
   -0.25183E+08         0.14722E+07         0.00000E+00
    0.14722E+07        -0.53911E+08         0.00000E+00
    0.00000E+00         0.00000E+00        -0.25184E+08
 
   -0.25365E+08         0.14618E+07         0.00000E+00
    0.14618E+07        -0.54255E+08         0.00000E+00
    0.00000E+00         0.00000E+00        -0.25363E+08
 
   -0.25547E+08         0.14503E+07         0.00000E+00
    0.14503E+07        -0.54600E+08         0.00000E+00
    0.00000E+00         0.00000E+00        -0.25543E+08
 
   -0.25730E+08         0.14375E+07         0.00000E+00
    0.14375E+07        -0.54946E+08         0.00000E+00
    0.00000E+00         0.00000E+00        -0.25723E+08
 
   -0.25913E+08         0.14232E+07         0.00000E+00
    0.14232E+07        -0.55294E+08         0.00000E+00
    0.00000E+00         0.00000E+00        -0.25904E+08
 
   -0.26098E+08         0.14071E+07         0.00000E+00
    0.14071E+07        -0.55643E+08         0.00000E+00
    0.00000E+00         0.00000E+00        -0.26085E+08
 
   -0.26284E+08         0.13890E+07         0.00000E+00
    0.13890E+07        -0.55994E+08         0.00000E+00
    0.00000E+00         0.00000E+00        -0.26267E+08
 
   -0.26471E+08         0.13684E+07         0.00000E+00
    0.13684E+07        -0.56348E+08         0.00000E+00
    0.00000E+00         0.00000E+00        -0.26450E+08
 
   -0.26659E+08         0.13452E+07         0.00000E+00
    0.13452E+07        -0.56705E+08         0.00000E+00
    0.00000E+00         0.00000E+00        -0.26634E+08
 
   -0.26849E+08         0.13191E+07         0.00000E+00
    0.13191E+07        -0.57064E+08         0.00000E+00
    0.00000E+00         0.00000E+00        -0.26819E+08
 
   -0.27041E+08         0.12896E+07         0.00000E+00
    0.12896E+07        -0.57427E+08         0.00000E+00
    0.00000E+00         0.00000E+00        -0.27006E+08
 
   -0.27235E+08         0.12567E+07         0.00000E+00
    0.12567E+07        -0.57794E+08         0.00000E+00
    0.00000E+00         0.00000E+00        -0.27194E+08
 
   -0.27430E+08         0.12200E+07         0.00000E+00
    0.12200E+07        -0.58164E+08         0.00000E+00
    0.00000E+00         0.00000E+00        -0.27383E+08
 
   -0.27628E+08         0.11794E+07         0.00000E+00
    0.11794E+07        -0.58538E+08         0.00000E+00
    0.00000E+00         0.00000E+00        -0.27575E+08
 
   -0.27826E+08         0.11349E+07         0.00000E+00
    0.11349E+07        -0.58915E+08         0.00000E+00
    0.00000E+00         0.00000E+00        -0.27768E+08
 
   -0.28026E+08         0.10864E+07         0.00000E+00
    0.10864E+07        -0.59294E+08         0.00000E+00
    0.00000E+00         0.00000E+00        -0.27962E+08
 
   -0.28227E+08         0.10338E+07         0.00000E+00
    0.10338E+07        -0.59674E+08         0.00000E+00
    0.00000E+00         0.00000E+00        -0.28156E+08
 
   -0.28427E+08         0.97721E+06         0.00000E+00
    0.97721E+06        -0.60054E+08         0.00000E+00
    0.00000E+00         0.00000E+00        -0.28351E+08
 
   -0.28626E+08         0.91622E+06         0.00000E+00
    0.91622E+06        -0.60431E+08         0.00000E+00
    0.00000E+00         0.00000E+00        -0.28543E+08
 
   -0.28823E+08         0.84996E+06         0.00000E+00
    0.84996E+06        -0.60803E+08         0.00000E+00
    0.00000E+00         0.00000E+00        -0.28732E+08
 
   -0.29017E+08         0.77692E+06         0.00000E+00
    0.77692E+06        -0.61166E+08         0.00000E+00
    0.00000E+00         0.00000E+00        -0.28914E+08
 
   -0.29207E+08         0.69370E+06         0.00000E+00
    0.69370E+06        -0.61517E+08         0.00000E+00
    0.00000E+00         0.00000E+00        -0.29088E+08
 
   -0.29395E+08         0.59597E+06         0.00000E+00
    0.59597E+06        -0.61853E+08         0.00000E+00
    0.00000E+00         0.00000E+00        -0.29248E+08
 
   -0.29579E+08         0.47491E+06         0.00000E+00
    0.47491E+06        -0.62171E+08         0.00000E+00
    0.00000E+00         0.00000E+00        -0.29392E+08
 
   -0.29764E+08         0.31101E+06         0.00000E+00
    0.31101E+06        -0.62454E+08         0.00000E+00
    0.00000E+00         0.00000E+00        -0.29499E+08
 
   -0.29988E+08         0.10765E+06         0.00000E+00
    0.10765E+06        -0.62703E+08         0.00000E+00
    0.00000E+00         0.00000E+00        -0.29536E+08
 
   -0.13885E+08         0.14003E+06         0.00000E+00
    0.14003E+06        -0.27420E+08         0.00000E+00
    0.00000E+00         0.00000E+00        -0.14646E+08
 
   -0.14095E+08         0.40773E+06         0.00000E+00
    0.40773E+06        -0.27546E+08         0.00000E+00
    0.00000E+00         0.00000E+00        -0.14646E+08
 
   -0.14214E+08         0.64294E+06         0.00000E+00
    0.64294E+06        -0.27786E+08         0.00000E+00
    0.00000E+00         0.00000E+00        -0.14646E+08
 
   -0.14293E+08         0.84033E+06         0.00000E+00
    0.84033E+06        -0.28109E+08         0.00000E+00
    0.00000E+00         0.00000E+00        -0.14646E+08
 
   -0.14357E+08         0.10049E+07         0.00000E+00
    0.10049E+07        -0.28490E+08         0.00000E+00
    0.00000E+00         0.00000E+00        -0.14646E+08
 
   -0.14414E+08         0.11401E+07         0.00000E+00
    0.11401E+07        -0.28915E+08         0.00000E+00
    0.00000E+00         0.00000E+00        -0.14646E+08
 
   -0.14471E+08         0.12472E+07         0.00000E+00
    0.12472E+07        -0.29374E+08         0.00000E+00
    0.00000E+00         0.00000E+00        -0.14646E+08
 
   -0.14535E+08         0.13263E+07         0.00000E+00
    0.13263E+07        -0.29862E+08         0.00000E+00
    0.00000E+00         0.00000E+00        -0.14646E+08
 
   -0.14624E+08         0.13714E+07         0.00000E+00
    0.13714E+07        -0.30361E+08         0.00000E+00
    0.00000E+00         0.00000E+00        -0.14658E+08
 
   -0.14752E+08         0.13741E+07         0.00000E+00
    0.13741E+07        -0.30746E+08         0.00000E+00
    0.00000E+00         0.00000E+00        -0.14817E+08
 
   -0.14923E+08         0.13706E+07         0.00000E+00
    0.13706E+07        -0.31087E+08         0.00000E+00
    0.00000E+00         0.00000E+00        -0.15054E+08
 
   -0.15121E+08         0.13842E+07         0.00000E+00
    0.13842E+07        -0.31446E+08         0.00000E+00
    0.00000E+00         0.00000E+00        -0.15283E+08
 
   -0.15328E+08         0.14143E+07         0.00000E+00
    0.14143E+07        -0.31813E+08         0.00000E+00
    0.00000E+00         0.00000E+00        -0.15503E+08
 
   -0.15533E+08         0.14541E+07         0.00000E+00
    0.14541E+07        -0.32187E+08         0.00000E+00
    0.00000E+00         0.00000E+00        -0.15712E+08
 
   -0.15734E+08         0.14991E+07         0.00000E+00
    0.14991E+07        -0.32564E+08         0.00000E+00
    0.00000E+00         0.00000E+00        -0.15910E+08
 
   -0.15928E+08         0.15465E+07         0.00000E+00
    0.15465E+07        -0.32944E+08         0.00000E+00
    0.00000E+00         0.00000E+00        -0.16097E+08
 
   -0.16114E+08         0.15939E+07         0.00000E+00
    0.15939E+07        -0.33326E+08         0.00000E+00
    0.00000E+00         0.00000E+00        -0.16274E+08
 
   -0.16292E+08         0.16400E+07         0.00000E+00
    0.16400E+07        -0.33708E+08         0.00000E+00
    0.00000E+00         0.00000E+00        -0.16440E+08
 
   -0.16461E+08         0.16835E+07         0.00000E+00
    0.16835E+07        -0.34092E+08         0.00000E+00
    0.00000E+00         0.00000E+00        -0.16597E+08
 
   -0.16621E+08         0.17234E+07         0.00000E+00
    0.17234E+07        -0.34476E+08         0.00000E+00
    0.00000E+00         0.00000E+00        -0.16744E+08
 
   -0.16773E+08         0.17591E+07         0.00000E+00
    0.17591E+07        -0.34861E+08         0.00000E+00
    0.00000E+00         0.00000E+00        -0.16883E+08
 
   -0.16918E+08         0.17900E+07         0.00000E+00
    0.17900E+07        -0.35248E+08         0.00000E+00
    0.00000E+00         0.00000E+00        -0.17014E+08
 
   -0.17056E+08         0.18157E+07         0.00000E+00
    0.18157E+07        -0.35637E+08         0.00000E+00
    0.00000E+00         0.00000E+00        -0.17137E+08
 
   -0.17188E+08         0.18355E+07         0.00000E+00
    0.18355E+07        -0.36026E+08         0.00000E+00
    0.00000E+00         0.00000E+00        -0.17254E+08
 
   -0.17317E+08         0.18493E+07         0.00000E+00
    0.18493E+07        -0.36416E+08         0.00000E+00
    0.00000E+00         0.00000E+00        -0.17365E+08
 
   -0.17446E+08         0.18581E+07         0.00000E+00
    0.18581E+07        -0.36802E+08         0.00000E+00
    0.00000E+00         0.00000E+00        -0.17469E+08
 
   -0.17581E+08         0.18542E+07         0.00000E+00
    0.18542E+07        -0.37161E+08         0.00000E+00
    0.00000E+00         0.00000E+00        -0.17602E+08
 
   -0.17720E+08         0.18472E+07         0.00000E+00
    0.18472E+07        -0.37502E+08         0.00000E+00
    0.00000E+00         0.00000E+00        -0.17756E+08
 
   -0.17864E+08         0.18444E+07         0.00000E+00
    0.18444E+07        -0.37847E+08         0.00000E+00
    0.00000E+00         0.00000E+00        -0.17907E+08
 
   -0.18009E+08         0.18441E+07         0.00000E+00
    0.18441E+07        -0.38196E+08         0.00000E+00
    0.00000E+00         0.00000E+00        -0.18054E+08
 
   -0.18153E+08         0.18456E+07         0.00000E+00
    0.18456E+07        -0.38548E+08         0.00000E+00
    0.00000E+00         0.00000E+00        -0.18197E+08
 
   -0.18294E+08         0.18477E+07         0.00000E+00
    0.18477E+07        -0.38903E+08         0.00000E+00
    0.00000E+00         0.00000E+00        -0.18337E+08
 
   -0.18434E+08         0.18498E+07         0.00000E+00
    0.18498E+07        -0.39259E+08         0.00000E+00
    0.00000E+00         0.00000E+00        -0.18475E+08
 
   -0.18571E+08         0.18514E+07         0.00000E+00
    0.18514E+07        -0.39619E+08         0.00000E+00
    0.00000E+00         0.00000E+00        -0.18609E+08
 
   -0.18707E+08         0.18520E+07         0.00000E+00
    0.18520E+07        -0.39980E+08         0.00000E+00
    0.00000E+00         0.00000E+00        -0.18740E+08
 
   -0.18840E+08         0.18510E+07         0.00000E+00
    0.18510E+07        -0.40343E+08         0.00000E+00
    0.00000E+00         0.00000E+00        -0.18869E+08
 
   -0.18972E+08         0.18482E+07         0.00000E+00
    0.18482E+07        -0.40709E+08         0.00000E+00
    0.00000E+00         0.00000E+00        -0.18996E+08
 
   -0.19103E+08         0.18431E+07         0.00000E+00
    0.18431E+07        -0.41076E+08         0.00000E+00
    0.00000E+00         0.00000E+00        -0.19121E+08
 
   -0.19234E+08         0.18352E+07         0.00000E+00
    0.18352E+07        -0.41445E+08         0.00000E+00
    0.00000E+00         0.00000E+00        -0.19243E+08
 
   -0.19367E+08         0.18240E+07         0.00000E+00
    0.18240E+07        -0.41813E+08         0.00000E+00
    0.00000E+00         0.00000E+00        -0.19364E+08
 
   -0.19504E+08         0.18095E+07         0.00000E+00
    0.18095E+07        -0.42171E+08         0.00000E+00
    0.00000E+00         0.00000E+00        -0.19495E+08
 
   -0.19646E+08         0.17894E+07         0.00000E+00
    0.17894E+07        -0.42511E+08         0.00000E+00
    0.00000E+00         0.00000E+00        -0.19647E+08
 
   -0.19793E+08         0.17730E+07         0.00000E+00
    0.17730E+07        -0.42855E+08         0.00000E+00
    0.00000E+00         0.00000E+00        -0.19800E+08
 
   -0.19942E+08         0.17585E+07         0.00000E+00
    0.17585E+07        -0.43202E+08         0.00000E+00
    0.00000E+00         0.00000E+00        -0.19952E+08
 
   -0.20092E+08         0.17453E+07         0.00000E+00
    0.17453E+07        -0.43552E+08         0.00000E+00
    0.00000E+00         0.00000E+00        -0.20102E+08
 
   -0.20243E+08         0.17326E+07         0.00000E+00
    0.17326E+07        -0.43904E+08         0.00000E+00
    0.00000E+00         0.00000E+00        -0.20252E+08
 
   -0.20394E+08         0.17198E+07         0.00000E+00
    0.17198E+07        -0.44259E+08         0.00000E+00
    0.00000E+00         0.00000E+00        -0.20402E+08
 
   -0.20546E+08         0.17063E+07         0.00000E+00
    0.17063E+07        -0.44615E+08         0.00000E+00
    0.00000E+00         0.00000E+00        -0.20550E+08
 
   -0.20699E+08         0.16923E+07         0.00000E+00
    0.16923E+07        -0.44971E+08         0.00000E+00
    0.00000E+00         0.00000E+00        -0.20698E+08
 
   -0.20857E+08         0.16762E+07         0.00000E+00
    0.16762E+07        -0.45319E+08         0.00000E+00
    0.00000E+00         0.00000E+00        -0.20856E+08
 
   -0.21017E+08         0.16599E+07         0.00000E+00
    0.16599E+07        -0.45660E+08         0.00000E+00
    0.00000E+00         0.00000E+00        -0.21022E+08
 
   -0.21181E+08         0.16454E+07         0.00000E+00
    0.16454E+07        -0.46002E+08         0.00000E+00
    0.00000E+00         0.00000E+00        -0.21188E+08
 
   -0.21345E+08         0.16322E+07         0.00000E+00
    0.16322E+07        -0.46347E+08         0.00000E+00
    0.00000E+00         0.00000E+00        -0.21354E+08
 
   -0.21510E+08         0.16200E+07         0.00000E+00
    0.16200E+07        -0.46693E+08         0.00000E+00
    0.00000E+00         0.00000E+00        -0.21520E+08
 
   -0.21676E+08         0.16085E+07         0.00000E+00
    0.16085E+07        -0.47040E+08         0.00000E+00
    0.00000E+00         0.00000E+00        -0.21686E+08
 
   -0.21842E+08         0.15972E+07         0.00000E+00
    0.15972E+07        -0.47388E+08         0.00000E+00
    0.00000E+00         0.00000E+00        -0.21851E+08
 
   -0.22010E+08         0.15860E+07         0.00000E+00
    0.15860E+07        -0.47737E+08         0.00000E+00
    0.00000E+00         0.00000E+00        -0.22017E+08
 
   -0.22179E+08         0.15752E+07         0.00000E+00
    0.15752E+07        -0.48084E+08         0.00000E+00
    0.00000E+00         0.00000E+00        -0.22185E+08
 
   -0.22350E+08         0.15636E+07         0.00000E+00
    0.15636E+07        -0.48425E+08         0.00000E+00
    0.00000E+00         0.00000E+00        -0.22358E+08
 
   -0.22522E+08         0.15533E+07         0.00000E+00
    0.15533E+07        -0.48766E+08         0.00000E+00
    0.00000E+00         0.00000E+00        -0.22533E+08
 
   -0.22695E+08         0.15440E+07         0.00000E+00
    0.15440E+07        -0.49109E+08         0.00000E+00
    0.00000E+00         0.00000E+00        -0.22707E+08
 
   -0.22869E+08         0.15357E+07         0.00000E+00
    0.15357E+07        -0.49451E+08         0.00000E+00
    0.00000E+00         0.00000E+00        -0.22882E+08
 
   -0.23043E+08         0.15280E+07         0.00000E+00
    0.15280E+07        -0.49795E+08         0.00000E+00
    0.00000E+00         0.00000E+00        -0.23056E+08
 
   -0.23218E+08         0.15208E+07         0.00000E+00
    0.15208E+07        -0.50138E+08         0.00000E+00
    0.00000E+00         0.00000E+00        -0.23231E+08
 
   -0.23392E+08         0.15139E+07         0.00000E+00
    0.15139E+07        -0.50482E+08         0.00000E+00
    0.00000E+00         0.00000E+00        -0.23405E+08
 
   -0.23567E+08         0.15073E+07         0.00000E+00
    0.15073E+07        -0.50827E+08         0.00000E+00
    0.00000E+00         0.00000E+00        -0.23580E+08
 
   -0.23743E+08         0.15008E+07         0.00000E+00
    0.15008E+07        -0.51171E+08         0.00000E+00
    0.00000E+00         0.00000E+00        -0.23754E+08
 
   -0.23918E+08         0.14944E+07         0.00000E+00
    0.14944E+07        -0.51516E+08         0.00000E+00
    0.00000E+00         0.00000E+00        -0.23929E+08
 
   -0.24096E+08         0.14876E+07         0.00000E+00
    0.14876E+07        -0.51858E+08         0.00000E+00
    0.00000E+00         0.00000E+00        -0.24106E+08
 
   -0.24276E+08         0.14805E+07         0.00000E+00
    0.14805E+07        -0.52199E+08         0.00000E+00
    0.00000E+00         0.00000E+00        -0.24285E+08
 
   -0.24456E+08         0.14731E+07         0.00000E+00
    0.14731E+07        -0.52540E+08         0.00000E+00
    0.00000E+00         0.00000E+00        -0.24463E+08
 
   -0.24636E+08         0.14655E+07         0.00000E+00
    0.14655E+07        -0.52882E+08         0.00000E+00
    0.00000E+00         0.00000E+00        -0.24642E+08
 
   -0.24817E+08         0.14573E+07         0.00000E+00
    0.14573E+07        -0.53223E+08         0.00000E+00
    0.00000E+00         0.00000E+00        -0.24821E+08
 
   -0.24997E+08         0.14487E+07         0.00000E+00
    0.14487E+07        -0.53566E+08         0.00000E+00
    0.00000E+00         0.00000E+00        -0.25000E+08
 
   -0.25179E+08         0.14393E+07         0.00000E+00
    0.14393E+07        -0.53909E+08         0.00000E+00
    0.00000E+00         0.00000E+00        -0.25179E+08
 
   -0.25360E+08         0.14290E+07         0.00000E+00
    0.14290E+07        -0.54252E+08         0.00000E+00
    0.00000E+00         0.00000E+00        -0.25358E+08
 
   -0.25543E+08         0.14177E+07         0.00000E+00
    0.14177E+07        -0.54597E+08         0.00000E+00
    0.00000E+00         0.00000E+00        -0.25537E+08
 
   -0.25726E+08         0.14051E+07         0.00000E+00
    0.14051E+07        -0.54943E+08         0.00000E+00
    0.00000E+00         0.00000E+00        -0.25717E+08
 
   -0.25910E+08         0.13911E+07         0.00000E+00
    0.13911E+07        -0.55290E+08         0.00000E+00
    0.00000E+00         0.00000E+00        -0.25897E+08
 
   -0.26095E+08         0.13753E+07         0.00000E+00
    0.13753E+07        -0.55639E+08         0.00000E+00
    0.00000E+00         0.00000E+00        -0.26078E+08
 
   -0.26281E+08         0.13574E+07         0.00000E+00
    0.13574E+07        -0.55990E+08         0.00000E+00
    0.00000E+00         0.00000E+00        -0.26259E+08
 
   -0.26468E+08         0.13373E+07         0.00000E+00
    0.13373E+07        -0.56343E+08         0.00000E+00
    0.00000E+00         0.00000E+00        -0.26441E+08
 
   -0.26657E+08         0.13145E+07         0.00000E+00
    0.13145E+07        -0.56699E+08         0.00000E+00
    0.00000E+00         0.00000E+00        -0.26624E+08
 
   -0.26848E+08         0.12887E+07         0.00000E+00
    0.12887E+07        -0.57058E+08         0.00000E+00
    0.00000E+00         0.00000E+00        -0.26809E+08
 
   -0.27040E+08         0.12597E+07         0.00000E+00
    0.12597E+07        -0.57420E+08         0.00000E+00
    0.00000E+00         0.00000E+00        -0.26994E+08
 
   -0.27234E+08         0.12271E+07         0.00000E+00
    0.12271E+07        -0.57786E+08         0.00000E+00
    0.00000E+00         0.00000E+00        -0.27181E+08
 
   -0.27430E+08         0.11909E+07         0.00000E+00
    0.11909E+07        -0.58156E+08         0.00000E+00
    0.00000E+00         0.00000E+00        -0.27370E+08
 
   -0.27628E+08         0.11506E+07         0.00000E+00
    0.11506E+07        -0.58529E+08         0.00000E+00
    0.00000E+00         0.00000E+00        -0.27560E+08
 
   -0.27828E+08         0.11064E+07         0.00000E+00
    0.11064E+07        -0.58905E+08         0.00000E+00
    0.00000E+00         0.00000E+00        -0.27752E+08
 
   -0.28028E+08         0.10581E+07         0.00000E+00
    0.10581E+07        -0.59284E+08         0.00000E+00
    0.00000E+00         0.00000E+00        -0.27945E+08
 
   -0.28229E+08         0.10056E+07         0.00000E+00
    0.10056E+07        -0.59663E+08         0.00000E+00
    0.00000E+00         0.00000E+00        -0.28138E+08
 
   -0.28430E+08         0.94884E+06         0.00000E+00
    0.94884E+06        -0.60042E+08         0.00000E+00
    0.00000E+00         0.00000E+00        -0.28331E+08
 
   -0.28630E+08         0.88751E+06         0.00000E+00
    0.88751E+06        -0.60419E+08         0.00000E+00
    0.00000E+00         0.00000E+00        -0.28523E+08
 
   -0.28828E+08         0.82079E+06         0.00000E+00
    0.82079E+06        -0.60790E+08         0.00000E+00
    0.00000E+00         0.00000E+00        -0.28710E+08
 
   -0.29023E+08         0.74707E+06         0.00000E+00
    0.74707E+06        -0.61151E+08         0.00000E+00
    0.00000E+00         0.00000E+00        -0.28890E+08
 
   -0.29215E+08         0.66319E+06         0.00000E+00
    0.66319E+06        -0.61501E+08         0.00000E+00
    0.00000E+00         0.00000E+00        -0.29060E+08
 
   -0.29405E+08         0.56509E+06         0.00000E+00
    0.56509E+06        -0.61833E+08         0.00000E+00
    0.00000E+00         0.00000E+00        -0.29215E+08
 
   -0.29592E+08         0.44268E+06         0.00000E+00
    0.44268E+06        -0.62144E+08         0.00000E+00
    0.00000E+00         0.00000E+00        -0.29349E+08
 
   -0.29786E+08         0.28272E+06         0.00000E+00
    0.28272E+06        -0.62418E+08         0.00000E+00
    0.00000E+00         0.00000E+00        -0.29439E+08
 
   -0.30025E+08         0.96052E+05         0.00000E+00
    0.96052E+05        -0.62665E+08         0.00000E+00
    0.00000E+00         0.00000E+00        -0.29460E+08
 
   -0.13747E+08         0.12474E+06         0.00000E+00
    0.12474E+06        -0.27473E+08         0.00000E+00
    0.00000E+00         0.00000E+00        -0.14646E+08
 
   -0.13975E+08         0.36811E+06         0.00000E+00
    0.36811E+06        -0.27595E+08         0.00000E+00
    0.00000E+00         0.00000E+00        -0.14646E+08
 
   -0.14115E+08         0.59087E+06         0.00000E+00
    0.59087E+06        -0.27828E+08         0.00000E+00
    0.00000E+00         0.00000E+00        -0.14646E+08
 
   -0.14211E+08         0.78334E+06         0.00000E+00
    0.78334E+06        -0.28145E+08         0.00000E+00
    0.00000E+00         0.00000E+00        -0.14646E+08
 
   -0.14289E+08         0.94566E+06         0.00000E+00
    0.94566E+06        -0.28520E+08         0.00000E+00
    0.00000E+00         0.00000E+00        -0.14646E+08
 
   -0.14359E+08         0.10801E+07         0.00000E+00
    0.10801E+07        -0.28939E+08         0.00000E+00
    0.00000E+00         0.00000E+00        -0.14646E+08
 
   -0.14427E+08         0.11878E+07         0.00000E+00
    0.11878E+07        -0.29393E+08         0.00000E+00
    0.00000E+00         0.00000E+00        -0.14646E+08
 
   -0.14503E+08         0.12696E+07         0.00000E+00
    0.12696E+07        -0.29876E+08         0.00000E+00
    0.00000E+00         0.00000E+00        -0.14646E+08
 
   -0.14599E+08         0.13216E+07         0.00000E+00
    0.13216E+07        -0.30366E+08         0.00000E+00
    0.00000E+00         0.00000E+00        -0.14659E+08
 
   -0.14726E+08         0.13309E+07         0.00000E+00
    0.13309E+07        -0.30746E+08         0.00000E+00
    0.00000E+00         0.00000E+00        -0.14817E+08
 
   -0.14890E+08         0.13353E+07         0.00000E+00
    0.13353E+07        -0.31089E+08         0.00000E+00
    0.00000E+00         0.00000E+00        -0.15050E+08
 
   -0.15081E+08         0.13524E+07         0.00000E+00
    0.13524E+07        -0.31451E+08         0.00000E+00
    0.00000E+00         0.00000E+00        -0.15277E+08
 
   -0.15283E+08         0.13833E+07         0.00000E+00
    0.13833E+07        -0.31820E+08         0.00000E+00
    0.00000E+00         0.00000E+00        -0.15494E+08
 
   -0.15487E+08         0.14227E+07         0.00000E+00
    0.14227E+07        -0.32195E+08         0.00000E+00
    0.00000E+00         0.00000E+00        -0.15702E+08
 
   -0.15688E+08         0.14667E+07         0.00000E+00
    0.14667E+07        -0.32574E+08         0.00000E+00
    0.00000E+00         0.00000E+00        -0.15898E+08
 
   -0.15882E+08         0.15126E+07         0.00000E+00
    0.15126E+07        -0.32954E+08         0.00000E+00
    0.00000E+00         0.00000E+00        -0.16084E+08
 
   -0.16069E+08         0.15585E+07         0.00000E+00
    0.15585E+07        -0.33335E+08         0.00000E+00
    0.00000E+00         0.00000E+00        -0.16260E+08
 
   -0.16248E+08         0.16029E+07         0.00000E+00
    0.16029E+07        -0.33717E+08         0.00000E+00
    0.00000E+00         0.00000E+00        -0.16425E+08
 
   -0.16418E+08         0.16448E+07         0.00000E+00
    0.16448E+07        -0.34100E+08         0.00000E+00
    0.00000E+00         0.00000E+00        -0.16581E+08
 
   -0.16581E+08         0.16831E+07         0.00000E+00
    0.16831E+07        -0.34483E+08         0.00000E+00
    0.00000E+00         0.00000E+00        -0.16728E+08
 
   -0.16735E+08         0.17173E+07         0.00000E+00
    0.17173E+07        -0.34868E+08         0.00000E+00
    0.00000E+00         0.00000E+00        -0.16867E+08
 
   -0.16883E+08         0.17469E+07         0.00000E+00
    0.17469E+07        -0.35254E+08         0.00000E+00
    0.00000E+00         0.00000E+00        -0.16998E+08
 
   -0.17024E+08         0.17714E+07         0.00000E+00
    0.17714E+07        -0.35641E+08         0.00000E+00
    0.00000E+00         0.00000E+00        -0.17121E+08
 
   -0.17159E+08         0.17903E+07         0.00000E+00
    0.17903E+07        -0.36030E+08         0.00000E+00
    0.00000E+00         0.00000E+00        -0.17238E+08
 
   -0.17291E+08         0.18036E+07         0.00000E+00
    0.18036E+07        -0.36418E+08         0.00000E+00
    0.00000E+00         0.00000E+00        -0.17348E+08
 
   -0.17424E+08         0.18139E+07         0.00000E+00
    0.18139E+07        -0.36803E+08         0.00000E+00
    0.00000E+00         0.00000E+00        -0.17454E+08
 
   -0.17561E+08         0.18099E+07         0.00000E+00
    0.18099E+07        -0.37159E+08         0.00000E+00
    0.00000E+00         0.00000E+00        -0.17591E+08
 
   -0.17700E+08         0.18045E+07         0.00000E+00
    0.18045E+07        -0.37501E+08         0.00000E+00
    0.00000E+00         0.00000E+00        -0.17745E+08
 
   -0.17844E+08         0.18021E+07         0.00000E+00
    0.18021E+07        -0.37847E+08         0.00000E+00
    0.00000E+00         0.00000E+00        -0.17896E+08
 
   -0.17989E+08         0.18019E+07         0.00000E+00
    0.18019E+07        -0.38196E+08         0.00000E+00
    0.00000E+00         0.00000E+00        -0.18042E+08
 
   -0.18132E+08         0.18030E+07         0.00000E+00
    0.18030E+07        -0.38548E+08         0.00000E+00
    0.00000E+00         0.00000E+00        -0.18186E+08
 
   -0.18274E+08         0.18048E+07         0.00000E+00
    0.18048E+07        -0.38903E+08         0.00000E+00
    0.00000E+00         0.00000E+00        -0.18326E+08
 
   -0.18414E+08         0.18066E+07         0.00000E+00
    0.18066E+07        -0.39260E+08         0.00000E+00
    0.00000E+00         0.00000E+00        -0.18463E+08
 
   -0.18552E+08         0.18079E+07         0.00000E+00
    0.18079E+07        -0.39619E+08         0.00000E+00
    0.00000E+00         0.00000E+00        -0.18598E+08
 
   -0.18689E+08         0.18082E+07         0.00000E+00
    0.18082E+07        -0.39980E+08         0.00000E+00
    0.00000E+00         0.00000E+00        -0.18729E+08
 
   -0.18824E+08         0.18070E+07         0.00000E+00
    0.18070E+07        -0.40343E+08         0.00000E+00
    0.00000E+00         0.00000E+00        -0.18859E+08
 
   -0.18957E+08         0.18040E+07         0.00000E+00
    0.18040E+07        -0.40708E+08         0.00000E+00
    0.00000E+00         0.00000E+00        -0.18986E+08
 
   -0.19089E+08         0.17988E+07         0.00000E+00
    0.17988E+07        -0.41075E+08         0.00000E+00
    0.00000E+00         0.00000E+00        -0.19110E+08
 
   -0.19222E+08         0.17911E+07         0.00000E+00
    0.17911E+07        -0.41443E+08         0.00000E+00
    0.00000E+00         0.00000E+00        -0.19233E+08
 
   -0.19357E+08         0.17809E+07         0.00000E+00
    0.17809E+07        -0.41810E+08         0.00000E+00
    0.00000E+00         0.00000E+00        -0.19354E+08
 
   -0.19495E+08         0.17669E+07         0.00000E+00
    0.17669E+07        -0.42167E+08         0.00000E+00
    0.00000E+00         0.00000E+00        -0.19487E+08
 
   -0.19638E+08         0.17481E+07         0.00000E+00
    0.17481E+07        -0.42508E+08         0.00000E+00
    0.00000E+00         0.00000E+00        -0.19641E+08
 
   -0.19785E+08         0.17324E+07         0.00000E+00
    0.17324E+07        -0.42852E+08         0.00000E+00
    0.00000E+00         0.00000E+00        -0.19794E+08
 
   -0.19934E+08         0.17183E+07         0.00000E+00
    0.17183E+07        -0.43199E+08         0.00000E+00
    0.00000E+00         0.00000E+00        -0.19945E+08
 
   -0.20084E+08         0.17053E+07         0.00000E+00
    0.17053E+07        -0.43549E+08         0.00000E+00
    0.00000E+00         0.00000E+00        -0.20096E+08
 
   -0.20235E+08         0.16927E+07         0.00000E+00
    0.16927E+07        -0.43902E+08         0.00000E+00
    0.00000E+00         0.00000E+00        -0.20246E+08
 
   -0.20386E+08         0.16801E+07         0.00000E+00
    0.16801E+07        -0.44256E+08         0.00000E+00
    0.00000E+00         0.00000E+00        -0.20396E+08
 
   -0.20539E+08         0.16670E+07         0.00000E+00
    0.16670E+07        -0.44612E+08         0.00000E+00
    0.00000E+00         0.00000E+00        -0.20544E+08
 
   -0.20693E+08         0.16537E+07         0.00000E+00
    0.16537E+07        -0.44969E+08         0.00000E+00
    0.00000E+00         0.00000E+00        -0.20692E+08
 
   -0.20851E+08         0.16382E+07         0.00000E+00
    0.16382E+07        -0.45316E+08         0.00000E+00
    0.00000E+00         0.00000E+00        -0.20851E+08
 
   -0.21011E+08         0.16226E+07         0.00000E+00
    0.16226E+07        -0.45657E+08         0.00000E+00
    0.00000E+00         0.00000E+00        -0.21017E+08
 
   -0.21174E+08         0.16085E+07         0.00000E+00
    0.16085E+07        -0.46000E+08         0.00000E+00
    0.00000E+00         0.00000E+00        -0.21184E+08
 
   -0.21339E+08         0.15955E+07         0.00000E+00
    0.15955E+07        -0.46344E+08         0.00000E+00
    0.00000E+00         0.00000E+00        -0.21350E+08
 
   -0.21504E+08         0.15836E+07         0.00000E+00
    0.15836E+07        -0.46690E+08         0.00000E+00
    0.00000E+00         0.00000E+00        -0.21516E+08
 
   -0.21670E+08         0.15722E+07         0.00000E+00
    0.15722E+07        -0.47038E+08         0.00000E+00
    0.00000E+00         0.00000E+00        -0.21681E+08
 
   -0.21836E+08         0.15612E+07         0.00000E+00
    0.15612E+07        -0.47386E+08         0.00000E+00
    0.00000E+00         0.00000E+00        -0.21847E+08
 
   -0.22004E+08         0.15503E+07         0.00000E+00
    0.15503E+07        -0.47735E+08         0.00000E+00
    0.00000E+00         0.00000E+00        -0.22012E+08
 
   -0.22173E+08         0.15399E+07         0.00000E+00
    0.15399E+07        -0.48081E+08         0.00000E+00
    0.00000E+00         0.00000E+00        -0.22180E+08
 
   -0.22344E+08         0.15286E+07         0.00000E+00
    0.15286E+07        -0.48423E+08         0.00000E+00
    0.00000E+00         0.00000E+00        -0.22355E+08
 
   -0.22516E+08         0.15186E+07         0.00000E+00
    0.15186E+07        -0.48764E+08         0.00000E+00
    0.00000E+00         0.00000E+00        -0.22529E+08
 
   -0.22689E+08         0.15096E+07         0.00000E+00
    0.15096E+07        -0.49107E+08         0.00000E+00
    0.00000E+00         0.00000E+00        -0.22703E+08
 
   -0.22863E+08         0.15014E+07         0.00000E+00
    0.15014E+07        -0.49450E+08         0.00000E+00
    0.00000E+00         0.00000E+00        -0.22878E+08
 
   -0.23037E+08         0.14938E+07         0.00000E+00
    0.14938E+07        -0.49793E+08         0.00000E+00
    0.00000E+00         0.00000E+00        -0.23052E+08
 
   -0.23211E+08         0.14867E+07         0.00000E+00
    0.14867E+07        -0.50137E+08         0.00000E+00
    0.00000E+00         0.00000E+00        -0.23227E+08
 
   -0.23386E+08         0.14800E+07         0.00000E+00
    0.14800E+07        -0.50481E+08         0.00000E+00
    0.00000E+00         0.00000E+00        -0.23401E+08
 
   -0.23561E+08         0.14734E+07         0.00000E+00
    0.14734E+07        -0.50825E+08         0.00000E+00
    0.00000E+00         0.00000E+00        -0.23576E+08
 
   -0.23736E+08         0.14670E+07         0.00000E+00
    0.14670E+07        -0.51170E+08         0.00000E+00
    0.00000E+00         0.00000E+00        -0.23750E+08
 
   -0.23912E+08         0.14606E+07         0.00000E+00
    0.14606E+07        -0.51514E+08         0.00000E+00
    0.00000E+00         0.00000E+00        -0.23925E+08
 
   -0.24091E+08         0.14539E+07         0.00000E+00
    0.14539E+07        -0.51856E+08         0.00000E+00
    0.00000E+00         0.00000E+00        -0.24102E+08
 
   -0.24270E+08         0.14469E+07         0.00000E+00
    0.14469E+07        -0.52197E+08         0.00000E+00
    0.00000E+00         0.00000E+00        -0.24281E+08
 
   -0.24451E+08         0.14397E+07         0.00000E+00
    0.14397E+07        -0.52538E+08         0.00000E+00
    0.00000E+00         0.00000E+00        -0.24459E+08
 
   -0.24631E+08         0.14321E+07         0.00000E+00
    0.14321E+07        -0.52879E+08         0.00000E+00
    0.00000E+00         0.00000E+00        -0.24638E+08
 
   -0.24812E+08         0.14241E+07         0.00000E+00
    0.14241E+07        -0.53221E+08         0.00000E+00
    0.00000E+00         0.00000E+00        -0.24816E+08
 
   -0.24993E+08         0.14156E+07         0.00000E+00
    0.14156E+07        -0.53563E+08         0.00000E+00
    0.00000E+00         0.00000E+00        -0.24995E+08
 
   -0.25174E+08         0.14064E+07         0.00000E+00
    0.14064E+07        -0.53906E+08         0.00000E+00
    0.00000E+00         0.00000E+00        -0.25174E+08
 
   -0.25356E+08         0.13963E+07         0.00000E+00
    0.13963E+07        -0.54250E+08         0.00000E+00
    0.00000E+00         0.00000E+00        -0.25352E+08
 
   -0.25539E+08         0.13852E+07         0.00000E+00
    0.13852E+07        -0.54594E+08         0.00000E+00
    0.00000E+00         0.00000E+00        -0.25531E+08
 
   -0.25722E+08         0.13728E+07         0.00000E+00
    0.13728E+07        -0.54939E+08         0.00000E+00
    0.00000E+00         0.00000E+00        -0.25711E+08
 
   -0.25906E+08         0.13591E+07         0.00000E+00
    0.13591E+07        -0.55286E+08         0.00000E+00
    0.00000E+00         0.00000E+00        -0.25890E+08
 
   -0.26092E+08         0.13435E+07         0.00000E+00
    0.13435E+07        -0.55635E+08         0.00000E+00
    0.00000E+00         0.00000E+00        -0.26070E+08
 
   -0.26278E+08         0.13260E+07         0.00000E+00
    0.13260E+07        -0.55985E+08         0.00000E+00
    0.00000E+00         0.00000E+00        -0.26251E+08
 
   -0.26466E+08         0.13062E+07         0.00000E+00
    0.13062E+07        -0.56338E+08         0.00000E+00
    0.00000E+00         0.00000E+00        -0.26432E+08
 
   -0.26655E+08         0.12838E+07         0.00000E+00
    0.12838E+07        -0.56693E+08         0.00000E+00
    0.00000E+00         0.00000E+00        -0.26615E+08
 
   -0.26846E+08         0.12584E+07         0.00000E+00
    0.12584E+07        -0.57052E+08         0.00000E+00
    0.00000E+00         0.00000E+00        -0.26798E+08
 
   -0.27039E+08         0.12298E+07         0.00000E+00
    0.12298E+07        -0.57414E+08         0.00000E+00
    0.00000E+00         0.00000E+00        -0.26983E+08
 
   -0.27234E+08         0.11977E+07         0.00000E+00
    0.11977E+07        -0.57779E+08         0.00000E+00
    0.00000E+00         0.00000E+00        -0.27169E+08
 
   -0.27431E+08         0.11619E+07         0.00000E+00
    0.11619E+07        -0.58148E+08         0.00000E+00
    0.00000E+00         0.00000E+00        -0.27357E+08
 
   -0.27629E+08         0.11220E+07         0.00000E+00
    0.11220E+07        -0.58520E+08         0.00000E+00
    0.00000E+00         0.00000E+00        -0.27546E+08
 
   -0.27829E+08         0.10781E+07         0.00000E+00
    0.10781E+07        -0.58896E+08         0.00000E+00
    0.00000E+00         0.00000E+00        -0.27736E+08
 
   -0.28031E+08         0.10299E+07         0.00000E+00
    0.10299E+07        -0.59274E+08         0.00000E+00
    0.00000E+00         0.00000E+00        -0.27928E+08
 
   -0.28232E+08         0.97750E+06         0.00000E+00
    0.97750E+06        -0.59653E+08         0.00000E+00
    0.00000E+00         0.00000E+00        -0.28120E+08
 
   -0.28434E+08         0.92064E+06         0.00000E+00
    0.92064E+06        -0.60031E+08         0.00000E+00
    0.00000E+00         0.00000E+00        -0.28312E+08
 
   -0.28635E+08         0.85901E+06         0.00000E+00
    0.85901E+06        -0.60407E+08         0.00000E+00
    0.00000E+00         0.00000E+00        -0.28502E+08
 
   -0.28833E+08         0.79184E+06         0.00000E+00
    0.79184E+06        -0.60776E+08         0.00000E+00
    0.00000E+00         0.00000E+00        -0.28687E+08
 
   -0.29030E+08         0.71750E+06         0.00000E+00
    0.71750E+06        -0.61137E+08         0.00000E+00
    0.00000E+00         0.00000E+00        -0.28865E+08
 
   -0.29224E+08         0.63315E+06         0.00000E+00
    0.63315E+06        -0.61484E+08         0.00000E+00
    0.00000E+00         0.00000E+00        -0.29031E+08
 
   -0.29416E+08         0.53455E+06         0.00000E+00
    0.53455E+06        -0.61813E+08         0.00000E+00
    0.00000E+00         0.00000E+00        -0.29181E+08
 
   -0.29607E+08         0.41171E+06         0.00000E+00
    0.41171E+06        -0.62117E+08         0.00000E+00
    0.00000E+00         0.00000E+00        -0.29305E+08
 
   -0.29810E+08         0.25756E+06         0.00000E+00
    0.25756E+06        -0.62385E+08         0.00000E+00
    0.00000E+00         0.00000E+00        -0.29380E+08
 
   -0.30062E+08         0.86366E+05         0.00000E+00
    0.86366E+05        -0.62631E+08         0.00000E+00
    0.00000E+00         0.00000E+00        -0.29388E+08
 
   -0.13615E+08         0.11132E+06         0.00000E+00
    0.11132E+06        -0.27520E+08         0.00000E+00
    0.00000E+00         0.00000E+00        -0.14646E+08
 
   -0.13857E+08         0.33248E+06         0.00000E+00
    0.33248E+06        -0.27641E+08         0.00000E+00
    0.00000E+00         0.00000E+00        -0.14646E+08
 
   -0.14015E+08         0.54257E+06         0.00000E+00
    0.54257E+06        -0.27869E+08         0.00000E+00
    0.00000E+00         0.00000E+00        -0.14646E+08
 
   -0.14129E+08         0.72939E+06         0.00000E+00
    0.72939E+06        -0.28180E+08         0.00000E+00
    0.00000E+00         0.00000E+00        -0.14646E+08
 
   -0.14220E+08         0.88906E+06         0.00000E+00
    0.88906E+06        -0.28549E+08         0.00000E+00
    0.00000E+00         0.00000E+00        -0.14646E+08
 
   -0.14302E+08         0.10225E+07         0.00000E+00
    0.10225E+07        -0.28963E+08         0.00000E+00
    0.00000E+00         0.00000E+00        -0.14646E+08
 
   -0.14382E+08         0.11308E+07         0.00000E+00
    0.11308E+07        -0.29412E+08         0.00000E+00
    0.00000E+00         0.00000E+00        -0.14646E+08
 
   -0.14468E+08         0.12147E+07         0.00000E+00
    0.12147E+07        -0.29890E+08         0.00000E+00
    0.00000E+00         0.00000E+00        -0.14646E+08
 
   -0.14572E+08         0.12726E+07         0.00000E+00
    0.12726E+07        -0.30372E+08         0.00000E+00
    0.00000E+00         0.00000E+00        -0.14661E+08
 
   -0.14698E+08         0.12869E+07         0.00000E+00
    0.12869E+07        -0.30747E+08         0.00000E+00
    0.00000E+00         0.00000E+00        -0.14818E+08
 
   -0.14856E+08         0.12985E+07         0.00000E+00
    0.12985E+07        -0.31091E+08         0.00000E+00
    0.00000E+00         0.00000E+00        -0.15048E+08
 
   -0.15042E+08         0.13196E+07         0.00000E+00
    0.13196E+07        -0.31456E+08         0.00000E+00
    0.00000E+00         0.00000E+00        -0.15272E+08
 
   -0.15241E+08         0.13518E+07         0.00000E+00
    0.13518E+07        -0.31828E+08         0.00000E+00
    0.00000E+00         0.00000E+00        -0.15487E+08
 
   -0.15444E+08         0.13911E+07         0.00000E+00
    0.13911E+07        -0.32204E+08         0.00000E+00
    0.00000E+00         0.00000E+00        -0.15692E+08
 
   -0.15643E+08         0.14342E+07         0.00000E+00
    0.14342E+07        -0.32582E+08         0.00000E+00
    0.00000E+00         0.00000E+00        -0.15887E+08
 
   -0.15838E+08         0.14789E+07         0.00000E+00
    0.14789E+07        -0.32963E+08         0.00000E+00
    0.00000E+00         0.00000E+00        -0.16072E+08
 
   -0.16025E+08         0.15233E+07         0.00000E+00
    0.15233E+07        -0.33344E+08         0.00000E+00
    0.00000E+00         0.00000E+00        -0.16247E+08
 
   -0.16205E+08         0.15662E+07         0.00000E+00
    0.15662E+07        -0.33726E+08         0.00000E+00
    0.00000E+00         0.00000E+00        -0.16411E+08
 
   -0.16378E+08         0.16064E+07         0.00000E+00
    0.16064E+07        -0.34108E+08         0.00000E+00
    0.00000E+00         0.00000E+00        -0.16567E+08
 
   -0.16542E+08         0.16433E+07         0.00000E+00
    0.16433E+07        -0.34490E+08         0.00000E+00
    0.00000E+00         0.00000E+00        -0.16713E+08
 
   -0.16699E+08         0.16760E+07         0.00000E+00
    0.16760E+07        -0.34874E+08         0.00000E+00
    0.00000E+00         0.00000E+00        -0.16851E+08
 
   -0.16849E+08         0.17043E+07         0.00000E+00
    0.17043E+07        -0.35259E+08         0.00000E+00
    0.00000E+00         0.00000E+00        -0.16982E+08
 
   -0.16992E+08         0.17277E+07         0.00000E+00
    0.17277E+07        -0.35645E+08         0.00000E+00
    0.00000E+00         0.00000E+00        -0.17105E+08
 
   -0.17131E+08         0.17458E+07         0.00000E+00
    0.17458E+07        -0.36033E+08         0.00000E+00
    0.00000E+00         0.00000E+00        -0.17222E+08
 
   -0.17266E+08         0.17587E+07         0.00000E+00
    0.17587E+07        -0.36420E+08         0.00000E+00
    0.00000E+00         0.00000E+00        -0.17333E+08
 
   -0.17403E+08         0.17700E+07         0.00000E+00
    0.17700E+07        -0.36804E+08         0.00000E+00
    0.00000E+00         0.00000E+00        -0.17441E+08
 
   -0.17540E+08         0.17660E+07         0.00000E+00
    0.17660E+07        -0.37158E+08         0.00000E+00
    0.00000E+00         0.00000E+00        -0.17580E+08
 
   -0.17681E+08         0.17618E+07         0.00000E+00
    0.17618E+07        -0.37501E+08         0.00000E+00
    0.00000E+00         0.00000E+00        -0.17734E+08
 
   -0.17824E+08         0.17597E+07         0.00000E+00
    0.17597E+07        -0.37847E+08         0.00000E+00
    0.00000E+00         0.00000E+00        -0.17884E+08
 
   -0.17968E+08         0.17595E+07         0.00000E+00
    0.17595E+07        -0.38197E+08         0.00000E+00
    0.00000E+00         0.00000E+00        -0.18031E+08
 
   -0.18112E+08         0.17605E+07         0.00000E+00
    0.17605E+07        -0.38549E+08         0.00000E+00
    0.00000E+00         0.00000E+00        -0.18175E+08
 
   -0.18254E+08         0.17621E+07         0.00000E+00
    0.17621E+07        -0.38903E+08         0.00000E+00
    0.00000E+00         0.00000E+00        -0.18315E+08
 
   -0.18395E+08         0.17636E+07         0.00000E+00
    0.17636E+07        -0.39260E+08         0.00000E+00
    0.00000E+00         0.00000E+00        -0.18452E+08
 
   -0.18534E+08         0.17646E+07         0.00000E+00
    0.17646E+07        -0.39619E+08         0.00000E+00
    0.00000E+00         0.00000E+00        -0.18587E+08
 
   -0.18671E+08         0.17646E+07         0.00000E+00
    0.17646E+07        -0.39980E+08         0.00000E+00
    0.00000E+00         0.00000E+00        -0.18719E+08
 
   -0.18807E+08         0.17632E+07         0.00000E+00
    0.17632E+07        -0.40343E+08         0.00000E+00
    0.00000E+00         0.00000E+00        -0.18848E+08
 
   -0.18942E+08         0.17600E+07         0.00000E+00
    0.17600E+07        -0.40707E+08         0.00000E+00
    0.00000E+00         0.00000E+00        -0.18975E+08
 
   -0.19076E+08         0.17548E+07         0.00000E+00
    0.17548E+07        -0.41074E+08         0.00000E+00
    0.00000E+00         0.00000E+00        -0.19100E+08
 
   -0.19210E+08         0.17474E+07         0.00000E+00
    0.17474E+07        -0.41441E+08         0.00000E+00
    0.00000E+00         0.00000E+00        -0.19224E+08
 
   -0.19347E+08         0.17382E+07         0.00000E+00
    0.17382E+07        -0.41808E+08         0.00000E+00
    0.00000E+00         0.00000E+00        -0.19345E+08
 
   -0.19487E+08         0.17244E+07         0.00000E+00
    0.17244E+07        -0.42163E+08         0.00000E+00
    0.00000E+00         0.00000E+00        -0.19480E+08
 
   -0.19629E+08         0.17069E+07         0.00000E+00
    0.17069E+07        -0.42504E+08         0.00000E+00
    0.00000E+00         0.00000E+00        -0.19634E+08
 
   -0.19776E+08         0.16918E+07         0.00000E+00
    0.16918E+07        -0.42849E+08         0.00000E+00
    0.00000E+00         0.00000E+00        -0.19787E+08
 
   -0.19925E+08         0.16781E+07         0.00000E+00
    0.16781E+07        -0.43197E+08         0.00000E+00
    0.00000E+00         0.00000E+00        -0.19939E+08
 
   -0.20075E+08         0.16653E+07         0.00000E+00
    0.16653E+07        -0.43547E+08         0.00000E+00
    0.00000E+00         0.00000E+00        -0.20090E+08
 
   -0.20227E+08         0.16530E+07         0.00000E+00
    0.16530E+07        -0.43899E+08         0.00000E+00
    0.00000E+00         0.00000E+00        -0.20240E+08
 
   -0.20379E+08         0.16405E+07         0.00000E+00
    0.16405E+07        -0.44254E+08         0.00000E+00
    0.00000E+00         0.00000E+00        -0.20390E+08
 
   -0.20532E+08         0.16278E+07         0.00000E+00
    0.16278E+07        -0.44609E+08         0.00000E+00
    0.00000E+00         0.00000E+00        -0.20538E+08
 
   -0.20687E+08         0.16152E+07         0.00000E+00
    0.16152E+07        -0.44966E+08         0.00000E+00
    0.00000E+00         0.00000E+00        -0.20686E+08
 
   -0.20845E+08         0.16002E+07         0.00000E+00
    0.16002E+07        -0.45312E+08         0.00000E+00
    0.00000E+00         0.00000E+00        -0.20846E+08
 
   -0.21006E+08         0.15853E+07         0.00000E+00
    0.15853E+07        -0.45654E+08         0.00000E+00
    0.00000E+00         0.00000E+00        -0.21013E+08
 
   -0.21168E+08         0.15715E+07         0.00000E+00
    0.15715E+07        -0.45997E+08         0.00000E+00
    0.00000E+00         0.00000E+00        -0.21179E+08
 
   -0.21332E+08         0.15589E+07         0.00000E+00
    0.15589E+07        -0.46342E+08         0.00000E+00
    0.00000E+00         0.00000E+00        -0.21345E+08
 
   -0.21497E+08         0.15471E+07         0.00000E+00
    0.15471E+07        -0.46688E+08         0.00000E+00
    0.00000E+00         0.00000E+00        -0.21511E+08
 
   -0.21663E+08         0.15360E+07         0.00000E+00
    0.15360E+07        -0.47036E+08         0.00000E+00
    0.00000E+00         0.00000E+00        -0.21677E+08
 
   -0.21830E+08         0.15252E+07         0.00000E+00
    0.15252E+07        -0.47384E+08         0.00000E+00
    0.00000E+00         0.00000E+00        -0.21842E+08
 
   -0.21998E+08         0.15147E+07         0.00000E+00
    0.15147E+07        -0.47733E+08         0.00000E+00
    0.00000E+00         0.00000E+00        -0.22008E+08
 
   -0.22167E+08         0.15045E+07         0.00000E+00
    0.15045E+07        -0.48079E+08         0.00000E+00
    0.00000E+00         0.00000E+00        -0.22176E+08
 
   -0.22338E+08         0.14937E+07         0.00000E+00
    0.14937E+07        -0.48421E+08         0.00000E+00
    0.00000E+00         0.00000E+00        -0.22351E+08
 
   -0.22510E+08         0.14840E+07         0.00000E+00
    0.14840E+07        -0.48763E+08         0.00000E+00
    0.00000E+00         0.00000E+00        -0.22525E+08
 
   -0.22683E+08         0.14752E+07         0.00000E+00
    0.14752E+07        -0.49105E+08         0.00000E+00
    0.00000E+00         0.00000E+00        -0.22700E+08
 
   -0.22857E+08         0.14671E+07         0.00000E+00
    0.14671E+07        -0.49448E+08         0.00000E+00
    0.00000E+00         0.00000E+00        -0.22874E+08
 
   -0.23031E+08         0.14596E+07         0.00000E+00
    0.14596E+07        -0.49792E+08         0.00000E+00
    0.00000E+00         0.00000E+00        -0.23048E+08
 
   -0.23205E+08         0.14526E+07         0.00000E+00
    0.14526E+07        -0.50136E+08         0.00000E+00
    0.00000E+00         0.00000E+00        -0.23223E+08
 
   -0.23380E+08         0.14460E+07         0.00000E+00
    0.14460E+07        -0.50480E+08         0.00000E+00
    0.00000E+00         0.00000E+00        -0.23397E+08
 
   -0.23555E+08         0.14396E+07         0.00000E+00
    0.14396E+07        -0.50824E+08         0.00000E+00
    0.00000E+00         0.00000E+00        -0.23571E+08
 
   -0.23730E+08         0.14333E+07         0.00000E+00
    0.14333E+07        -0.51169E+08         0.00000E+00
    0.00000E+00         0.00000E+00        -0.23746E+08
 
   -0.23906E+08         0.14269E+07         0.00000E+00
    0.14269E+07        -0.51513E+08         0.00000E+00
    0.00000E+00         0.00000E+00        -0.23921E+08
 
   -0.24085E+08         0.14203E+07         0.00000E+00
    0.14203E+07        -0.51854E+08         0.00000E+00
    0.00000E+00         0.00000E+00        -0.24098E+08
 
   -0.24265E+08         0.14134E+07         0.00000E+00
    0.14134E+07        -0.52195E+08         0.00000E+00
    0.00000E+00         0.00000E+00        -0.24277E+08
 
   -0.24446E+08         0.14063E+07         0.00000E+00
    0.14063E+07        -0.52536E+08         0.00000E+00
    0.00000E+00         0.00000E+00        -0.24455E+08
 
   -0.24626E+08         0.13989E+07         0.00000E+00
    0.13989E+07        -0.52877E+08         0.00000E+00
    0.00000E+00         0.00000E+00        -0.24633E+08
 
   -0.24807E+08         0.13910E+07         0.00000E+00
    0.13910E+07        -0.53219E+08         0.00000E+00
    0.00000E+00         0.00000E+00        -0.24812E+08
 
   -0.24988E+08         0.13826E+07         0.00000E+00
    0.13826E+07        -0.53561E+08         0.00000E+00
    0.00000E+00         0.00000E+00        -0.24990E+08
 
   -0.25170E+08         0.13735E+07         0.00000E+00
    0.13735E+07        -0.53903E+08         0.00000E+00
    0.00000E+00         0.00000E+00        -0.25168E+08
 
   -0.25352E+08         0.13636E+07         0.00000E+00
    0.13636E+07        -0.54247E+08         0.00000E+00
    0.00000E+00         0.00000E+00        -0.25347E+08
 
   -0.25535E+08         0.13527E+07         0.00000E+00
    0.13527E+07        -0.54591E+08         0.00000E+00
    0.00000E+00         0.00000E+00        -0.25526E+08
 
   -0.25719E+08         0.13406E+07         0.00000E+00
    0.13406E+07        -0.54936E+08         0.00000E+00
    0.00000E+00         0.00000E+00        -0.25705E+08
 
   -0.25903E+08         0.13271E+07         0.00000E+00
    0.13271E+07        -0.55283E+08         0.00000E+00
    0.00000E+00         0.00000E+00        -0.25884E+08
 
   -0.26089E+08         0.13119E+07         0.00000E+00
    0.13119E+07        -0.55631E+08         0.00000E+00
    0.00000E+00         0.00000E+00        -0.26063E+08
 
   -0.26276E+08         0.12947E+07         0.00000E+00
    0.12947E+07        -0.55981E+08         0.00000E+00
    0.00000E+00         0.00000E+00        -0.26243E+08
 
   -0.26464E+08         0.12752E+07         0.00000E+00
    0.12752E+07        -0.56333E+08         0.00000E+00
    0.00000E+00         0.00000E+00        -0.26424E+08
 
   -0.26654E+08         0.12532E+07         0.00000E+00
    0.12532E+07        -0.56688E+08         0.00000E+00
    0.00000E+00         0.00000E+00        -0.26605E+08
 
   -0.26845E+08         0.12282E+07         0.00000E+00
    0.12282E+07        -0.57046E+08         0.00000E+00
    0.00000E+00         0.00000E+00        -0.26788E+08
 
   -0.27039E+08         0.12001E+07         0.00000E+00
    0.12001E+07        -0.57407E+08         0.00000E+00
    0.00000E+00         0.00000E+00        -0.26972E+08
 
   -0.27234E+08         0.11684E+07         0.00000E+00
    0.11684E+07        -0.57772E+08         0.00000E+00
    0.00000E+00         0.00000E+00        -0.27157E+08
 
   -0.27431E+08         0.11330E+07         0.00000E+00
    0.11330E+07        -0.58140E+08         0.00000E+00
    0.00000E+00         0.00000E+00        -0.27343E+08
 
   -0.27631E+08         0.10936E+07         0.00000E+00
    0.10936E+07        -0.58511E+08         0.00000E+00
    0.00000E+00         0.00000E+00        -0.27531E+08
 
   -0.27831E+08         0.10499E+07         0.00000E+00
    0.10499E+07        -0.58886E+08         0.00000E+00
    0.00000E+00         0.00000E+00        -0.27721E+08
 
   -0.28033E+08         0.10020E+07         0.00000E+00
    0.10020E+07        -0.59263E+08         0.00000E+00
    0.00000E+00         0.00000E+00        -0.27911E+08
 
   -0.28236E+08         0.94961E+06         0.00000E+00
    0.94961E+06        -0.59642E+08         0.00000E+00
    0.00000E+00         0.00000E+00        -0.28102E+08
 
   -0.28438E+08         0.89264E+06         0.00000E+00
    0.89264E+06        -0.60019E+08         0.00000E+00
    0.00000E+00         0.00000E+00        -0.28293E+08
 
   -0.28639E+08         0.83072E+06         0.00000E+00
    0.83072E+06        -0.60394E+08         0.00000E+00
    0.00000E+00         0.00000E+00        -0.28481E+08
 
   -0.28839E+08         0.76312E+06         0.00000E+00
    0.76312E+06        -0.60763E+08         0.00000E+00
    0.00000E+00         0.00000E+00        -0.28664E+08
 
   -0.29037E+08         0.68824E+06         0.00000E+00
    0.68824E+06        -0.61122E+08         0.00000E+00
    0.00000E+00         0.00000E+00        -0.28839E+08
 
   -0.29233E+08         0.60354E+06         0.00000E+00
    0.60354E+06        -0.61466E+08         0.00000E+00
    0.00000E+00         0.00000E+00        -0.29002E+08
 
   -0.29427E+08         0.50447E+06         0.00000E+00
    0.50447E+06        -0.61792E+08         0.00000E+00
    0.00000E+00         0.00000E+00        -0.29146E+08
 
   -0.29623E+08         0.38229E+06         0.00000E+00
    0.38229E+06        -0.62091E+08         0.00000E+00
    0.00000E+00         0.00000E+00        -0.29260E+08
 
   -0.29836E+08         0.23514E+06         0.00000E+00
    0.23514E+06        -0.62354E+08         0.00000E+00
    0.00000E+00         0.00000E+00        -0.29322E+08
 
   -0.30099E+08         0.78126E+05         0.00000E+00
    0.78126E+05        -0.62600E+08         0.00000E+00
    0.00000E+00         0.00000E+00        -0.29322E+08
 
   -0.13488E+08         0.99302E+05         0.00000E+00
    0.99302E+05        -0.27562E+08         0.00000E+00
    0.00000E+00         0.00000E+00        -0.14646E+08
 
   -0.13742E+08         0.30012E+06         0.00000E+00
    0.30012E+06        -0.27683E+08         0.00000E+00
    0.00000E+00         0.00000E+00        -0.14646E+08
 
   -0.13916E+08         0.49776E+06         0.00000E+00
    0.49776E+06        -0.27908E+08         0.00000E+00
    0.00000E+00         0.00000E+00        -0.14646E+08
 
   -0.14045E+08         0.67843E+06         0.00000E+00
    0.67843E+06        -0.28214E+08         0.00000E+00
    0.00000E+00         0.00000E+00        -0.14646E+08
 
   -0.14151E+08         0.83504E+06         0.00000E+00
    0.83504E+06        -0.28578E+08         0.00000E+00
    0.00000E+00         0.00000E+00        -0.14646E+08
 
   -0.14245E+08         0.96728E+06         0.00000E+00
    0.96728E+06        -0.28987E+08         0.00000E+00
    0.00000E+00         0.00000E+00        -0.14646E+08
 
   -0.14336E+08         0.10759E+07         0.00000E+00
    0.10759E+07        -0.29431E+08         0.00000E+00
    0.00000E+00         0.00000E+00        -0.14646E+08
 
   -0.14431E+08         0.11616E+07         0.00000E+00
    0.11616E+07        -0.29905E+08         0.00000E+00
    0.00000E+00         0.00000E+00        -0.14646E+08
 
   -0.14541E+08         0.12244E+07         0.00000E+00
    0.12244E+07        -0.30379E+08         0.00000E+00
    0.00000E+00         0.00000E+00        -0.14665E+08
 
   -0.14668E+08         0.12423E+07         0.00000E+00
    0.12423E+07        -0.30749E+08         0.00000E+00
    0.00000E+00         0.00000E+00        -0.14820E+08
 
   -0.14823E+08         0.12606E+07         0.00000E+00
    0.12606E+07        -0.31095E+08         0.00000E+00
    0.00000E+00         0.00000E+00        -0.15047E+08
 
   -0.15005E+08         0.12861E+07         0.00000E+00
    0.12861E+07        -0.31462E+08         0.00000E+00
    0.00000E+00         0.00000E+00        -0.15268E+08
 
   -0.15202E+08         0.13198E+07         0.00000E+00
    0.13198E+07        -0.31835E+08         0.00000E+00
    0.00000E+00         0.00000E+00        -0.15481E+08
 
   -0.15402E+08         0.13592E+07         0.00000E+00
    0.13592E+07        -0.32212E+08         0.00000E+00
    0.00000E+00         0.00000E+00        -0.15684E+08
 
   -0.15601E+08         0.14017E+07         0.00000E+00
    0.14017E+07        -0.32591E+08         0.00000E+00
    0.00000E+00         0.00000E+00        -0.15877E+08
 
   -0.15796E+08         0.14452E+07         0.00000E+00
    0.14452E+07        -0.32972E+08         0.00000E+00
    0.00000E+00         0.00000E+00        -0.16061E+08
 
   -0.15984E+08         0.14883E+07         0.00000E+00
    0.14883E+07        -0.33353E+08         0.00000E+00
    0.00000E+00         0.00000E+00        -0.16234E+08
 
   -0.16165E+08         0.15297E+07         0.00000E+00
    0.15297E+07        -0.33734E+08         0.00000E+00
    0.00000E+00         0.00000E+00        -0.16398E+08
 
   -0.16339E+08         0.15684E+07         0.00000E+00
    0.15684E+07        -0.34115E+08         0.00000E+00
    0.00000E+00         0.00000E+00        -0.16552E+08
 
   -0.16505E+08         0.16038E+07         0.00000E+00
    0.16038E+07        -0.34497E+08         0.00000E+00
    0.00000E+00         0.00000E+00        -0.16698E+08
 
   -0.16664E+08         0.16352E+07         0.00000E+00
    0.16352E+07        -0.34880E+08         0.00000E+00
    0.00000E+00         0.00000E+00        -0.16836E+08
 
   -0.16816E+08         0.16622E+07         0.00000E+00
    0.16622E+07        -0.35264E+08         0.00000E+00
    0.00000E+00         0.00000E+00        -0.16966E+08
 
   -0.16962E+08         0.16845E+07         0.00000E+00
    0.16845E+07        -0.35649E+08         0.00000E+00
    0.00000E+00         0.00000E+00        -0.17090E+08
 
   -0.17103E+08         0.17019E+07         0.00000E+00
    0.17019E+07        -0.36036E+08         0.00000E+00
    0.00000E+00         0.00000E+00        -0.17206E+08
 
   -0.17242E+08         0.17147E+07         0.00000E+00
    0.17147E+07        -0.36422E+08         0.00000E+00
    0.00000E+00         0.00000E+00        -0.17317E+08
 
   -0.17382E+08         0.17264E+07         0.00000E+00
    0.17264E+07        -0.36805E+08         0.00000E+00
    0.00000E+00         0.00000E+00        -0.17428E+08
 
   -0.17520E+08         0.17223E+07         0.00000E+00
    0.17223E+07        -0.37157E+08         0.00000E+00
    0.00000E+00         0.00000E+00        -0.17569E+08
 
   -0.17661E+08         0.17189E+07         0.00000E+00
    0.17189E+07        -0.37500E+08         0.00000E+00
    0.00000E+00         0.00000E+00        -0.17723E+08
 
   -0.17804E+08         0.17173E+07         0.00000E+00
    0.17173E+07        -0.37847E+08         0.00000E+00
    0.00000E+00         0.00000E+00        -0.17873E+08
 
   -0.17948E+08         0.17172E+07         0.00000E+00
    0.17172E+07        -0.38197E+08         0.00000E+00
    0.00000E+00         0.00000E+00        -0.18020E+08
 
   -0.18092E+08         0.17181E+07         0.00000E+00
    0.17181E+07        -0.38549E+08         0.00000E+00
    0.00000E+00         0.00000E+00        -0.18163E+08
 
   -0.18235E+08         0.17194E+07         0.00000E+00
    0.17194E+07        -0.38904E+08         0.00000E+00
    0.00000E+00         0.00000E+00        -0.18304E+08
 
   -0.18376E+08         0.17207E+07         0.00000E+00
    0.17207E+07        -0.39260E+08         0.00000E+00
    0.00000E+00         0.00000E+00        -0.18441E+08
 
   -0.18516E+08         0.17214E+07         0.00000E+00
    0.17214E+07        -0.39619E+08         0.00000E+00
    0.00000E+00         0.00000E+00        -0.18576E+08
 
   -0.18654E+08         0.17212E+07         0.00000E+00
    0.17212E+07        -0.39980E+08         0.00000E+00
    0.00000E+00         0.00000E+00        -0.18708E+08
 
   -0.18791E+08         0.17196E+07         0.00000E+00
    0.17196E+07        -0.40342E+08         0.00000E+00
    0.00000E+00         0.00000E+00        -0.18838E+08
 
   -0.18927E+08         0.17163E+07         0.00000E+00
    0.17163E+07        -0.40707E+08         0.00000E+00
    0.00000E+00         0.00000E+00        -0.18965E+08
 
   -0.19063E+08         0.17111E+07         0.00000E+00
    0.17111E+07        -0.41073E+08         0.00000E+00
    0.00000E+00         0.00000E+00        -0.19091E+08
 
   -0.19199E+08         0.17040E+07         0.00000E+00
    0.17040E+07        -0.41440E+08         0.00000E+00
    0.00000E+00         0.00000E+00        -0.19214E+08
 
   -0.19337E+08         0.16958E+07         0.00000E+00
    0.16958E+07        -0.41807E+08         0.00000E+00
    0.00000E+00         0.00000E+00        -0.19336E+08
 
   -0.19478E+08         0.16820E+07         0.00000E+00
    0.16820E+07        -0.42159E+08         0.00000E+00
    0.00000E+00         0.00000E+00        -0.19474E+08
 
   -0.19621E+08         0.16656E+07         0.00000E+00
    0.16656E+07        -0.42501E+08         0.00000E+00
    0.00000E+00         0.00000E+00        -0.19628E+08
 
   -0.19768E+08         0.16511E+07         0.00000E+00
    0.16511E+07        -0.42846E+08         0.00000E+00
    0.00000E+00         0.00000E+00        -0.19781E+08
 
   -0.19917E+08         0.16379E+07         0.00000E+00
    0.16379E+07        -0.43194E+08         0.00000E+00
    0.00000E+00         0.00000E+00        -0.19933E+08
 
   -0.20067E+08         0.16254E+07         0.00000E+00
    0.16254E+07        -0.43544E+08         0.00000E+00
    0.00000E+00         0.00000E+00        -0.20084E+08
 
   -0.20219E+08         0.16133E+07         0.00000E+00
    0.16133E+07        -0.43897E+08         0.00000E+00
    0.00000E+00         0.00000E+00        -0.20235E+08
 
   -0.20371E+08         0.16011E+07         0.00000E+00
    0.16011E+07        -0.44251E+08         0.00000E+00
    0.00000E+00         0.00000E+00        -0.20384E+08
 
   -0.20525E+08         0.15888E+07         0.00000E+00
    0.15888E+07        -0.44607E+08         0.00000E+00
    0.00000E+00         0.00000E+00        -0.20533E+08
 
   -0.20681E+08         0.15768E+07         0.00000E+00
    0.15768E+07        -0.44963E+08         0.00000E+00
    0.00000E+00         0.00000E+00        -0.20681E+08
 
   -0.20839E+08         0.15623E+07         0.00000E+00
    0.15623E+07        -0.45309E+08         0.00000E+00
    0.00000E+00         0.00000E+00        -0.20842E+08
 
   -0.21000E+08         0.15479E+07         0.00000E+00
    0.15479E+07        -0.45651E+08         0.00000E+00
    0.00000E+00         0.00000E+00        -0.21009E+08
 
   -0.21162E+08         0.15346E+07         0.00000E+00
    0.15346E+07        -0.45994E+08         0.00000E+00
    0.00000E+00         0.00000E+00        -0.21175E+08
 
   -0.21326E+08         0.15222E+07         0.00000E+00
    0.15222E+07        -0.46339E+08         0.00000E+00
    0.00000E+00         0.00000E+00        -0.21341E+08
 
   -0.21491E+08         0.15107E+07         0.00000E+00
    0.15107E+07        -0.46686E+08         0.00000E+00
    0.00000E+00         0.00000E+00        -0.21507E+08
 
   -0.21657E+08         0.14998E+07         0.00000E+00
    0.14998E+07        -0.47033E+08         0.00000E+00
    0.00000E+00         0.00000E+00        -0.21673E+08
 
   -0.21824E+08         0.14892E+07         0.00000E+00
    0.14892E+07        -0.47382E+08         0.00000E+00
    0.00000E+00         0.00000E+00        -0.21838E+08
 
   -0.21992E+08         0.14791E+07         0.00000E+00
    0.14791E+07        -0.47731E+08         0.00000E+00
    0.00000E+00         0.00000E+00        -0.22004E+08
 
   -0.22161E+08         0.14692E+07         0.00000E+00
    0.14692E+07        -0.48077E+08         0.00000E+00
    0.00000E+00         0.00000E+00        -0.22172E+08
 
   -0.22332E+08         0.14588E+07         0.00000E+00
    0.14588E+07        -0.48419E+08         0.00000E+00
    0.00000E+00         0.00000E+00        -0.22347E+08
 
   -0.22504E+08         0.14493E+07         0.00000E+00
    0.14493E+07        -0.48761E+08         0.00000E+00
    0.00000E+00         0.00000E+00        -0.22521E+08
 
   -0.22677E+08         0.14407E+07         0.00000E+00
    0.14407E+07        -0.49103E+08         0.00000E+00
    0.00000E+00         0.00000E+00        -0.22696E+08
 
   -0.22851E+08         0.14328E+07         0.00000E+00
    0.14328E+07        -0.49447E+08         0.00000E+00
    0.00000E+00         0.00000E+00        -0.22870E+08
 
   -0.23025E+08         0.14254E+07         0.00000E+00
    0.14254E+07        -0.49790E+08         0.00000E+00
    0.00000E+00         0.00000E+00        -0.23045E+08
 
   -0.23199E+08         0.14186E+07         0.00000E+00
    0.14186E+07        -0.50134E+08         0.00000E+00
    0.00000E+00         0.00000E+00        -0.23219E+08
 
   -0.23374E+08         0.14120E+07         0.00000E+00
    0.14120E+07        -0.50479E+08         0.00000E+00
    0.00000E+00         0.00000E+00        -0.23393E+08
 
   -0.23549E+08         0.14057E+07         0.00000E+00
    0.14057E+07        -0.50823E+08         0.00000E+00
    0.00000E+00         0.00000E+00        -0.23567E+08
 
   -0.23724E+08         0.13995E+07         0.00000E+00
    0.13995E+07        -0.51167E+08         0.00000E+00
    0.00000E+00         0.00000E+00        -0.23742E+08
 
   -0.23901E+08         0.13933E+07         0.00000E+00
    0.13933E+07        -0.51511E+08         0.00000E+00
    0.00000E+00         0.00000E+00        -0.23917E+08
 
   -0.24080E+08         0.13867E+07         0.00000E+00
    0.13867E+07        -0.51852E+08         0.00000E+00
    0.00000E+00         0.00000E+00        -0.24094E+08
 
   -0.24260E+08         0.13799E+07         0.00000E+00
    0.13799E+07        -0.52193E+08         0.00000E+00
    0.00000E+00         0.00000E+00        -0.24273E+08
 
   -0.24441E+08         0.13729E+07         0.00000E+00
    0.13729E+07        -0.52534E+08         0.00000E+00
    0.00000E+00         0.00000E+00        -0.24451E+08
 
   -0.24622E+08         0.13656E+07         0.00000E+00
    0.13656E+07        -0.52875E+08         0.00000E+00
    0.00000E+00         0.00000E+00        -0.24629E+08
 
   -0.24803E+08         0.13579E+07         0.00000E+00
    0.13579E+07        -0.53217E+08         0.00000E+00
    0.00000E+00         0.00000E+00        -0.24807E+08
 
   -0.24984E+08         0.13496E+07         0.00000E+00
    0.13496E+07        -0.53559E+08         0.00000E+00
    0.00000E+00         0.00000E+00        -0.24985E+08
 
   -0.25166E+08         0.13407E+07         0.00000E+00
    0.13407E+07        -0.53901E+08         0.00000E+00
    0.00000E+00         0.00000E+00        -0.25163E+08
 
   -0.25348E+08         0.13310E+07         0.00000E+00
    0.13310E+07        -0.54244E+08         0.00000E+00
    0.00000E+00         0.00000E+00        -0.25342E+08
 
   -0.25532E+08         0.13203E+07         0.00000E+00
    0.13203E+07        -0.54588E+08         0.00000E+00
    0.00000E+00         0.00000E+00        -0.25520E+08
 
   -0.25715E+08         0.13085E+07         0.00000E+00
    0.13085E+07        -0.54933E+08         0.00000E+00
    0.00000E+00         0.00000E+00        -0.25698E+08
 
   -0.25900E+08         0.12952E+07         0.00000E+00
    0.12952E+07        -0.55279E+08         0.00000E+00
    0.00000E+00         0.00000E+00        -0.25877E+08
 
   -0.26086E+08         0.12803E+07         0.00000E+00
    0.12803E+07        -0.55627E+08         0.00000E+00
    0.00000E+00         0.00000E+00        -0.26056E+08
 
   -0.26273E+08         0.12634E+07         0.00000E+00
    0.12634E+07        -0.55977E+08         0.00000E+00
    0.00000E+00         0.00000E+00        -0.26235E+08
 
   -0.26462E+08         0.12443E+07         0.00000E+00
    0.12443E+07        -0.56328E+08         0.00000E+00
    0.00000E+00         0.00000E+00        -0.26415E+08
 
   -0.26652E+08         0.12227E+07         0.00000E+00
    0.12227E+07        -0.56683E+08         0.00000E+00
    0.00000E+00         0.00000E+00        -0.26596E+08
 
   -0.26844E+08         0.11982E+07         0.00000E+00
    0.11982E+07        -0.57040E+08         0.00000E+00
    0.00000E+00         0.00000E+00        -0.26778E+08
 
   -0.27038E+08         0.11705E+07         0.00000E+00
    0.11705E+07        -0.57401E+08         0.00000E+00
    0.00000E+00         0.00000E+00        -0.26960E+08
 
   -0.27234E+08         0.11393E+07         0.00000E+00
    0.11393E+07        -0.57765E+08         0.00000E+00
    0.00000E+00         0.00000E+00        -0.27145E+08
 
   -0.27432E+08         0.11043E+07         0.00000E+00
    0.11043E+07        -0.58132E+08         0.00000E+00
    0.00000E+00         0.00000E+00        -0.27330E+08
 
   -0.27632E+08         0.10652E+07         0.00000E+00
    0.10652E+07        -0.58503E+08         0.00000E+00
    0.00000E+00         0.00000E+00        -0.27517E+08
 
   -0.27833E+08         0.10219E+07         0.00000E+00
    0.10219E+07        -0.58877E+08         0.00000E+00
    0.00000E+00         0.00000E+00        -0.27705E+08
 
   -0.28036E+08         0.97420E+06         0.00000E+00
    0.97420E+06        -0.59253E+08         0.00000E+00
    0.00000E+00         0.00000E+00        -0.27894E+08
 
   -0.28239E+08         0.92190E+06         0.00000E+00
    0.92190E+06        -0.59631E+08         0.00000E+00
    0.00000E+00         0.00000E+00        -0.28084E+08
 
   -0.28442E+08         0.86483E+06         0.00000E+00
    0.86483E+06        -0.60008E+08         0.00000E+00
    0.00000E+00         0.00000E+00        -0.28273E+08
 
   -0.28645E+08         0.80266E+06         0.00000E+00
    0.80266E+06        -0.60382E+08         0.00000E+00
    0.00000E+00         0.00000E+00        -0.28460E+08
 
   -0.28846E+08         0.73465E+06         0.00000E+00
    0.73465E+06        -0.60749E+08         0.00000E+00
    0.00000E+00         0.00000E+00        -0.28641E+08
 
   -0.29045E+08         0.65933E+06         0.00000E+00
    0.65933E+06        -0.61107E+08         0.00000E+00
    0.00000E+00         0.00000E+00        -0.28814E+08
 
   -0.29242E+08         0.57434E+06         0.00000E+00
    0.57434E+06        -0.61449E+08         0.00000E+00
    0.00000E+00         0.00000E+00        -0.28972E+08
 
   -0.29439E+08         0.47502E+06         0.00000E+00
    0.47502E+06        -0.61772E+08         0.00000E+00
    0.00000E+00         0.00000E+00        -0.29111E+08
 
   -0.29640E+08         0.35457E+06         0.00000E+00
    0.35457E+06        -0.62065E+08         0.00000E+00
    0.00000E+00         0.00000E+00        -0.29215E+08
 
   -0.29863E+08         0.21509E+06         0.00000E+00
    0.21509E+06        -0.62326E+08         0.00000E+00
    0.00000E+00         0.00000E+00        -0.29266E+08
 
   -0.30134E+08         0.71002E+05         0.00000E+00
    0.71002E+05        -0.62572E+08         0.00000E+00
    0.00000E+00         0.00000E+00        -0.29260E+08
 
   -0.13366E+08         0.88348E+05         0.00000E+00
    0.88348E+05        -0.27600E+08         0.00000E+00
    0.00000E+00         0.00000E+00        -0.14646E+08
 
   -0.13628E+08         0.27046E+06         0.00000E+00
    0.27046E+06        -0.27721E+08         0.00000E+00
    0.00000E+00         0.00000E+00        -0.14646E+08
 
   -0.13817E+08         0.45617E+06         0.00000E+00
    0.45617E+06        -0.27946E+08         0.00000E+00
    0.00000E+00         0.00000E+00        -0.14646E+08
 
   -0.13961E+08         0.63039E+06         0.00000E+00
    0.63039E+06        -0.28247E+08         0.00000E+00
    0.00000E+00         0.00000E+00        -0.14646E+08
 
   -0.14080E+08         0.78355E+06         0.00000E+00
    0.78355E+06        -0.28607E+08         0.00000E+00
    0.00000E+00         0.00000E+00        -0.14646E+08
 
   -0.14186E+08         0.91431E+06         0.00000E+00
    0.91431E+06        -0.29011E+08         0.00000E+00
    0.00000E+00         0.00000E+00        -0.14646E+08
 
   -0.14287E+08         0.10231E+07         0.00000E+00
    0.10231E+07        -0.29451E+08         0.00000E+00
    0.00000E+00         0.00000E+00        -0.14646E+08
 
   -0.14392E+08         0.11101E+07         0.00000E+00
    0.11101E+07        -0.29920E+08         0.00000E+00
    0.00000E+00         0.00000E+00        -0.14646E+08
 
   -0.14509E+08         0.11769E+07         0.00000E+00
    0.11769E+07        -0.30386E+08         0.00000E+00
    0.00000E+00         0.00000E+00        -0.14669E+08
 
   -0.14637E+08         0.11975E+07         0.00000E+00
    0.11975E+07        -0.30753E+08         0.00000E+00
    0.00000E+00         0.00000E+00        -0.14825E+08
 
   -0.14791E+08         0.12219E+07         0.00000E+00
    0.12219E+07        -0.31100E+08         0.00000E+00
    0.00000E+00         0.00000E+00        -0.15048E+08
 
   -0.14970E+08         0.12519E+07         0.00000E+00
    0.12519E+07        -0.31468E+08         0.00000E+00
    0.00000E+00         0.00000E+00        -0.15266E+08
 
   -0.15164E+08         0.12875E+07         0.00000E+00
    0.12875E+07        -0.31842E+08         0.00000E+00
    0.00000E+00         0.00000E+00        -0.15476E+08
 
   -0.15363E+08         0.13272E+07         0.00000E+00
    0.13272E+07        -0.32220E+08         0.00000E+00
    0.00000E+00         0.00000E+00        -0.15677E+08
 
   -0.15561E+08         0.13691E+07         0.00000E+00
    0.13691E+07        -0.32600E+08         0.00000E+00
    0.00000E+00         0.00000E+00        -0.15868E+08
 
   -0.15755E+08         0.14116E+07         0.00000E+00
    0.14116E+07        -0.32980E+08         0.00000E+00
    0.00000E+00         0.00000E+00        -0.16050E+08
 
   -0.15944E+08         0.14534E+07         0.00000E+00
    0.14534E+07        -0.33361E+08         0.00000E+00
    0.00000E+00         0.00000E+00        -0.16222E+08
 
   -0.16126E+08         0.14934E+07         0.00000E+00
    0.14934E+07        -0.33742E+08         0.00000E+00
    0.00000E+00         0.00000E+00        -0.16385E+08
 
   -0.16301E+08         0.15308E+07         0.00000E+00
    0.15308E+07        -0.34123E+08         0.00000E+00
    0.00000E+00         0.00000E+00        -0.16539E+08
 
   -0.16469E+08         0.15647E+07         0.00000E+00
    0.15647E+07        -0.34504E+08         0.00000E+00
    0.00000E+00         0.00000E+00        -0.16684E+08
 
   -0.16630E+08         0.15948E+07         0.00000E+00
    0.15948E+07        -0.34886E+08         0.00000E+00
    0.00000E+00         0.00000E+00        -0.16821E+08
 
   -0.16784E+08         0.16206E+07         0.00000E+00
    0.16206E+07        -0.35269E+08         0.00000E+00
    0.00000E+00         0.00000E+00        -0.16951E+08
 
   -0.16932E+08         0.16418E+07         0.00000E+00
    0.16418E+07        -0.35653E+08         0.00000E+00
    0.00000E+00         0.00000E+00        -0.17074E+08
 
   -0.17076E+08         0.16585E+07         0.00000E+00
    0.16585E+07        -0.36039E+08         0.00000E+00
    0.00000E+00         0.00000E+00        -0.17191E+08
 
   -0.17218E+08         0.16713E+07         0.00000E+00
    0.16713E+07        -0.36425E+08         0.00000E+00
    0.00000E+00         0.00000E+00        -0.17302E+08
 
   -0.17360E+08         0.16831E+07         0.00000E+00
    0.16831E+07        -0.36805E+08         0.00000E+00
    0.00000E+00         0.00000E+00        -0.17416E+08
 
   -0.17500E+08         0.16788E+07         0.00000E+00
    0.16788E+07        -0.37156E+08         0.00000E+00
    0.00000E+00         0.00000E+00        -0.17559E+08
 
   -0.17641E+08         0.16761E+07         0.00000E+00
    0.16761E+07        -0.37499E+08         0.00000E+00
    0.00000E+00         0.00000E+00        -0.17713E+08
 
   -0.17785E+08         0.16749E+07         0.00000E+00
    0.16749E+07        -0.37847E+08         0.00000E+00
    0.00000E+00         0.00000E+00        -0.17863E+08
 
   -0.17929E+08         0.16749E+07         0.00000E+00
    0.16749E+07        -0.38197E+08         0.00000E+00
    0.00000E+00         0.00000E+00        -0.18009E+08
 
   -0.18073E+08         0.16757E+07         0.00000E+00
    0.16757E+07        -0.38549E+08         0.00000E+00
    0.00000E+00         0.00000E+00        -0.18153E+08
 
   -0.18216E+08         0.16768E+07         0.00000E+00
    0.16768E+07        -0.38904E+08         0.00000E+00
    0.00000E+00         0.00000E+00        -0.18293E+08
 
   -0.18358E+08         0.16779E+07         0.00000E+00
    0.16779E+07        -0.39261E+08         0.00000E+00
    0.00000E+00         0.00000E+00        -0.18431E+08
 
   -0.18498E+08         0.16784E+07         0.00000E+00
    0.16784E+07        -0.39619E+08         0.00000E+00
    0.00000E+00         0.00000E+00        -0.18565E+08
 
   -0.18638E+08         0.16780E+07         0.00000E+00
    0.16780E+07        -0.39979E+08         0.00000E+00
    0.00000E+00         0.00000E+00        -0.18698E+08
 
   -0.18776E+08         0.16763E+07         0.00000E+00
    0.16763E+07        -0.40342E+08         0.00000E+00
    0.00000E+00         0.00000E+00        -0.18828E+08
 
   -0.18913E+08         0.16729E+07         0.00000E+00
    0.16729E+07        -0.40706E+08         0.00000E+00
    0.00000E+00         0.00000E+00        -0.18955E+08
 
   -0.19050E+08         0.16678E+07         0.00000E+00
    0.16678E+07        -0.41071E+08         0.00000E+00
    0.00000E+00         0.00000E+00        -0.19081E+08
 
   -0.19187E+08         0.16609E+07         0.00000E+00
    0.16609E+07        -0.41438E+08         0.00000E+00
    0.00000E+00         0.00000E+00        -0.19205E+08
 
   -0.19327E+08         0.16536E+07         0.00000E+00
    0.16536E+07        -0.41805E+08         0.00000E+00
    0.00000E+00         0.00000E+00        -0.19327E+08
 
   -0.19469E+08         0.16398E+07         0.00000E+00
    0.16398E+07        -0.42156E+08         0.00000E+00
    0.00000E+00         0.00000E+00        -0.19468E+08
 
   -0.19612E+08         0.16244E+07         0.00000E+00
    0.16244E+07        -0.42498E+08         0.00000E+00
    0.00000E+00         0.00000E+00        -0.19622E+08
 
   -0.19759E+08         0.16105E+07         0.00000E+00
    0.16105E+07        -0.42843E+08         0.00000E+00
    0.00000E+00         0.00000E+00        -0.19775E+08
 
   -0.19908E+08         0.15977E+07         0.00000E+00
    0.15977E+07        -0.43192E+08         0.00000E+00
    0.00000E+00         0.00000E+00        -0.19927E+08
 
   -0.20059E+08         0.15855E+07         0.00000E+00
    0.15855E+07        -0.43542E+08         0.00000E+00
    0.00000E+00         0.00000E+00        -0.20079E+08
 
   -0.20211E+08         0.15737E+07         0.00000E+00
    0.15737E+07        -0.43895E+08         0.00000E+00
    0.00000E+00         0.00000E+00        -0.20229E+08
 
   -0.20364E+08         0.15618E+07         0.00000E+00
    0.15618E+07        -0.44249E+08         0.00000E+00
    0.00000E+00         0.00000E+00        -0.20378E+08
 
   -0.20518E+08         0.15499E+07         0.00000E+00
    0.15499E+07        -0.44605E+08         0.00000E+00
    0.00000E+00         0.00000E+00        -0.20527E+08
 
   -0.20675E+08         0.15384E+07         0.00000E+00
    0.15384E+07        -0.44961E+08         0.00000E+00
    0.00000E+00         0.00000E+00        -0.20676E+08
 
   -0.20833E+08         0.15243E+07         0.00000E+00
    0.15243E+07        -0.45306E+08         0.00000E+00
    0.00000E+00         0.00000E+00        -0.20837E+08
 
   -0.20994E+08         0.15105E+07         0.00000E+00
    0.15105E+07        -0.45648E+08         0.00000E+00
    0.00000E+00         0.00000E+00        -0.21004E+08
 
   -0.21156E+08         0.14976E+07         0.00000E+00
    0.14976E+07        -0.45992E+08         0.00000E+00
    0.00000E+00         0.00000E+00        -0.21171E+08
 
   -0.21320E+08         0.14856E+07         0.00000E+00
    0.14856E+07        -0.46337E+08         0.00000E+00
    0.00000E+00         0.00000E+00        -0.21337E+08
 
   -0.21485E+08         0.14743E+07         0.00000E+00
    0.14743E+07        -0.46684E+08         0.00000E+00
    0.00000E+00         0.00000E+00        -0.21503E+08
 
   -0.21651E+08         0.14636E+07         0.00000E+00
    0.14636E+07        -0.47031E+08         0.00000E+00
    0.00000E+00         0.00000E+00        -0.21669E+08
 
   -0.21818E+08         0.14533E+07         0.00000E+00
    0.14533E+07        -0.47380E+08         0.00000E+00
    0.00000E+00         0.00000E+00        -0.21834E+08
 
   -0.21986E+08         0.14436E+07         0.00000E+00
    0.14436E+07        -0.47729E+08         0.00000E+00
    0.00000E+00         0.00000E+00        -0.22000E+08
 
   -0.22156E+08         0.14339E+07         0.00000E+00
    0.14339E+07        -0.48075E+08         0.00000E+00
    0.00000E+00         0.00000E+00        -0.22169E+08
 
   -0.22327E+08         0.14238E+07         0.00000E+00
    0.14238E+07        -0.48417E+08         0.00000E+00
    0.00000E+00         0.00000E+00        -0.22343E+08
 
   -0.22498E+08         0.14146E+07         0.00000E+00
    0.14146E+07        -0.48759E+08         0.00000E+00
    0.00000E+00         0.00000E+00        -0.22518E+08
 
   -0.22671E+08         0.14062E+07         0.00000E+00
    0.14062E+07        -0.49102E+08         0.00000E+00
    0.00000E+00         0.00000E+00        -0.22692E+08
 
   -0.22845E+08         0.13984E+07         0.00000E+00
    0.13984E+07        -0.49445E+08         0.00000E+00
    0.00000E+00         0.00000E+00        -0.22867E+08
 
   -0.23019E+08         0.13912E+07         0.00000E+00
    0.13912E+07        -0.49789E+08         0.00000E+00
    0.00000E+00         0.00000E+00        -0.23041E+08
 
   -0.23193E+08         0.13845E+07         0.00000E+00
    0.13845E+07        -0.50133E+08         0.00000E+00
    0.00000E+00         0.00000E+00        -0.23215E+08
 
   -0.23368E+08         0.13781E+07         0.00000E+00
    0.13781E+07        -0.50477E+08         0.00000E+00
    0.00000E+00         0.00000E+00        -0.23389E+08
 
   -0.23543E+08         0.13719E+07         0.00000E+00
    0.13719E+07        -0.50822E+08         0.00000E+00
    0.00000E+00         0.00000E+00        -0.23563E+08
 
   -0.23719E+08         0.13658E+07         0.00000E+00
    0.13658E+07        -0.51166E+08         0.00000E+00
    0.00000E+00         0.00000E+00        -0.23738E+08
 
   -0.23895E+08         0.13596E+07         0.00000E+00
    0.13596E+07        -0.51510E+08         0.00000E+00
    0.00000E+00         0.00000E+00        -0.23913E+08
 
   -0.24075E+08         0.13531E+07         0.00000E+00
    0.13531E+07        -0.51851E+08         0.00000E+00
    0.00000E+00         0.00000E+00        -0.24091E+08
 
   -0.24256E+08         0.13465E+07         0.00000E+00
    0.13465E+07        -0.52191E+08         0.00000E+00
    0.00000E+00         0.00000E+00        -0.24269E+08
 
   -0.24436E+08         0.13396E+07         0.00000E+00
    0.13396E+07        -0.52532E+08         0.00000E+00
    0.00000E+00         0.00000E+00        -0.24447E+08
 
   -0.24617E+08         0.13324E+07         0.00000E+00
    0.13324E+07        -0.52873E+08         0.00000E+00
    0.00000E+00         0.00000E+00        -0.24625E+08
 
   -0.24798E+08         0.13248E+07         0.00000E+00
    0.13248E+07        -0.53215E+08         0.00000E+00
    0.00000E+00         0.00000E+00        -0.24803E+08
 
   -0.24980E+08         0.13167E+07         0.00000E+00
    0.13167E+07        -0.53556E+08         0.00000E+00
    0.00000E+00         0.00000E+00        -0.24981E+08
 
   -0.25162E+08         0.13080E+07         0.00000E+00
    0.13080E+07        -0.53899E+08         0.00000E+00
    0.00000E+00         0.00000E+00        -0.25158E+08
 
   -0.25345E+08         0.12985E+07         0.00000E+00
    0.12985E+07        -0.54241E+08         0.00000E+00
    0.00000E+00         0.00000E+00        -0.25336E+08
 
   -0.25528E+08         0.12880E+07         0.00000E+00
    0.12880E+07        -0.54585E+08         0.00000E+00
    0.00000E+00         0.00000E+00        -0.25514E+08
 
   -0.25712E+08         0.12764E+07         0.00000E+00
    0.12764E+07        -0.54930E+08         0.00000E+00
    0.00000E+00         0.00000E+00        -0.25692E+08
 
   -0.25898E+08         0.12634E+07         0.00000E+00
    0.12634E+07        -0.55276E+08         0.00000E+00
    0.00000E+00         0.00000E+00        -0.25870E+08
 
   -0.26084E+08         0.12488E+07         0.00000E+00
    0.12488E+07        -0.55623E+08         0.00000E+00
    0.00000E+00         0.00000E+00        -0.26049E+08
 
   -0.26271E+08         0.12323E+07         0.00000E+00
    0.12323E+07        -0.55972E+08         0.00000E+00
    0.00000E+00         0.00000E+00        -0.26228E+08
 
   -0.26460E+08         0.12135E+07         0.00000E+00
    0.12135E+07        -0.56324E+08         0.00000E+00
    0.00000E+00         0.00000E+00        -0.26407E+08
 
   -0.26651E+08         0.11923E+07         0.00000E+00
    0.11923E+07        -0.56678E+08         0.00000E+00
    0.00000E+00         0.00000E+00        -0.26587E+08
 
   -0.26844E+08         0.11683E+07         0.00000E+00
    0.11683E+07        -0.57034E+08         0.00000E+00
    0.00000E+00         0.00000E+00        -0.26768E+08
 
   -0.27038E+08         0.11410E+07         0.00000E+00
    0.11410E+07        -0.57394E+08         0.00000E+00
    0.00000E+00         0.00000E+00        -0.26949E+08
 
   -0.27235E+08         0.11103E+07         0.00000E+00
    0.11103E+07        -0.57757E+08         0.00000E+00
    0.00000E+00         0.00000E+00        -0.27132E+08
 
   -0.27433E+08         0.10757E+07         0.00000E+00
    0.10757E+07        -0.58124E+08         0.00000E+00
    0.00000E+00         0.00000E+00        -0.27317E+08
 
   -0.27633E+08         0.10371E+07         0.00000E+00
    0.10371E+07        -0.58494E+08         0.00000E+00
    0.00000E+00         0.00000E+00        -0.27502E+08
 
   -0.27835E+08         0.99409E+06         0.00000E+00
    0.99409E+06        -0.58868E+08         0.00000E+00
    0.00000E+00         0.00000E+00        -0.27689E+08
 
   -0.28039E+08         0.94659E+06         0.00000E+00
    0.94659E+06        -0.59243E+08         0.00000E+00
    0.00000E+00         0.00000E+00        -0.27877E+08
 
   -0.28243E+08         0.89437E+06         0.00000E+00
    0.89437E+06        -0.59620E+08         0.00000E+00
    0.00000E+00         0.00000E+00        -0.28066E+08
 
   -0.28447E+08         0.83723E+06         0.00000E+00
    0.83723E+06        -0.59996E+08         0.00000E+00
    0.00000E+00         0.00000E+00        -0.28253E+08
 
   -0.28650E+08         0.77482E+06         0.00000E+00
    0.77482E+06        -0.60369E+08         0.00000E+00
    0.00000E+00         0.00000E+00        -0.28438E+08
 
   -0.28852E+08         0.70645E+06         0.00000E+00
    0.70645E+06        -0.60735E+08         0.00000E+00
    0.00000E+00         0.00000E+00        -0.28617E+08
 
   -0.29053E+08         0.63078E+06         0.00000E+00
    0.63078E+06        -0.61091E+08         0.00000E+00
    0.00000E+00         0.00000E+00        -0.28787E+08
 
   -0.29252E+08         0.54557E+06         0.00000E+00
    0.54557E+06        -0.61432E+08         0.00000E+00
    0.00000E+00         0.00000E+00        -0.28942E+08
 
   -0.29452E+08         0.44636E+06         0.00000E+00
    0.44636E+06        -0.61751E+08         0.00000E+00
    0.00000E+00         0.00000E+00        -0.29075E+08
 
   -0.29659E+08         0.32857E+06         0.00000E+00
    0.32857E+06        -0.62041E+08         0.00000E+00
    0.00000E+00         0.00000E+00        -0.29170E+08
 
   -0.29890E+08         0.19708E+06         0.00000E+00
    0.19708E+06        -0.62300E+08         0.00000E+00
    0.00000E+00         0.00000E+00        -0.29212E+08
 
   -0.30169E+08         0.64754E+05         0.00000E+00
    0.64754E+05        -0.62547E+08         0.00000E+00
    0.00000E+00         0.00000E+00        -0.29201E+08
 
   -0.13246E+08         0.78228E+05         0.00000E+00
    0.78228E+05        -0.27633E+08         0.00000E+00
    0.00000E+00         0.00000E+00        -0.14646E+08
 
   -0.13517E+08         0.24310E+06         0.00000E+00
    0.24310E+06        -0.27757E+08         0.00000E+00
    0.00000E+00         0.00000E+00        -0.14646E+08
 
   -0.13718E+08         0.41755E+06         0.00000E+00
    0.41755E+06        -0.27981E+08         0.00000E+00
    0.00000E+00         0.00000E+00        -0.14646E+08
 
   -0.13877E+08         0.58518E+06         0.00000E+00
    0.58518E+06        -0.28280E+08         0.00000E+00
    0.00000E+00         0.00000E+00        -0.14646E+08
 
   -0.14008E+08         0.73453E+06         0.00000E+00
    0.73453E+06        -0.28635E+08         0.00000E+00
    0.00000E+00         0.00000E+00        -0.14646E+08
 
   -0.14126E+08         0.86353E+06         0.00000E+00
    0.86353E+06        -0.29035E+08         0.00000E+00
    0.00000E+00         0.00000E+00        -0.14646E+08
 
   -0.14238E+08         0.97226E+06         0.00000E+00
    0.97226E+06        -0.29470E+08         0.00000E+00
    0.00000E+00         0.00000E+00        -0.14646E+08
 
   -0.14352E+08         0.10603E+07         0.00000E+00
    0.10603E+07        -0.29935E+08         0.00000E+00
    0.00000E+00         0.00000E+00        -0.14646E+08
 
   -0.14474E+08         0.11302E+07         0.00000E+00
    0.11302E+07        -0.30394E+08         0.00000E+00
    0.00000E+00         0.00000E+00        -0.14674E+08
 
   -0.14605E+08         0.11527E+07         0.00000E+00
    0.11527E+07        -0.30758E+08         0.00000E+00
    0.00000E+00         0.00000E+00        -0.14831E+08
 
   -0.14758E+08         0.11829E+07         0.00000E+00
    0.11829E+07        -0.31106E+08         0.00000E+00
    0.00000E+00         0.00000E+00        -0.15050E+08
 
   -0.14935E+08         0.12173E+07         0.00000E+00
    0.12173E+07        -0.31475E+08         0.00000E+00
    0.00000E+00         0.00000E+00        -0.15265E+08
 
   -0.15127E+08         0.12548E+07         0.00000E+00
    0.12548E+07        -0.31850E+08         0.00000E+00
    0.00000E+00         0.00000E+00        -0.15472E+08
 
   -0.15325E+08         0.12949E+07         0.00000E+00
    0.12949E+07        -0.32228E+08         0.00000E+00
    0.00000E+00         0.00000E+00        -0.15671E+08
 
   -0.15523E+08         0.13364E+07         0.00000E+00
    0.13364E+07        -0.32608E+08         0.00000E+00
    0.00000E+00         0.00000E+00        -0.15860E+08
 
   -0.15717E+08         0.13780E+07         0.00000E+00
    0.13780E+07        -0.32989E+08         0.00000E+00
    0.00000E+00         0.00000E+00        -0.16040E+08
 
   -0.15906E+08         0.14186E+07         0.00000E+00
    0.14186E+07        -0.33369E+08         0.00000E+00
    0.00000E+00         0.00000E+00        -0.16211E+08
 
   -0.16089E+08         0.14573E+07         0.00000E+00
    0.14573E+07        -0.33749E+08         0.00000E+00
    0.00000E+00         0.00000E+00        -0.16372E+08
 
   -0.16265E+08         0.14933E+07         0.00000E+00
    0.14933E+07        -0.34130E+08         0.00000E+00
    0.00000E+00         0.00000E+00        -0.16525E+08
 
   -0.16434E+08         0.15260E+07         0.00000E+00
    0.15260E+07        -0.34510E+08         0.00000E+00
    0.00000E+00         0.00000E+00        -0.16670E+08
 
   -0.16597E+08         0.15548E+07         0.00000E+00
    0.15548E+07        -0.34891E+08         0.00000E+00
    0.00000E+00         0.00000E+00        -0.16807E+08
 
   -0.16753E+08         0.15793E+07         0.00000E+00
    0.15793E+07        -0.35273E+08         0.00000E+00
    0.00000E+00         0.00000E+00        -0.16937E+08
 
   -0.16904E+08         0.15997E+07         0.00000E+00
    0.15997E+07        -0.35657E+08         0.00000E+00
    0.00000E+00         0.00000E+00        -0.17059E+08
 
   -0.17050E+08         0.16158E+07         0.00000E+00
    0.16158E+07        -0.36041E+08         0.00000E+00
    0.00000E+00         0.00000E+00        -0.17176E+08
 
   -0.17195E+08         0.16285E+07         0.00000E+00
    0.16285E+07        -0.36427E+08         0.00000E+00
    0.00000E+00         0.00000E+00        -0.17287E+08
 
   -0.17338E+08         0.16399E+07         0.00000E+00
    0.16399E+07        -0.36806E+08         0.00000E+00
    0.00000E+00         0.00000E+00        -0.17403E+08
 
   -0.17479E+08         0.16356E+07         0.00000E+00
    0.16356E+07        -0.37156E+08         0.00000E+00
    0.00000E+00         0.00000E+00        -0.17549E+08
 
   -0.17621E+08         0.16334E+07         0.00000E+00
    0.16334E+07        -0.37499E+08         0.00000E+00
    0.00000E+00         0.00000E+00        -0.17702E+08
 
   -0.17765E+08         0.16325E+07         0.00000E+00
    0.16325E+07        -0.37846E+08         0.00000E+00
    0.00000E+00         0.00000E+00        -0.17852E+08
 
   -0.17910E+08         0.16326E+07         0.00000E+00
    0.16326E+07        -0.38197E+08         0.00000E+00
    0.00000E+00         0.00000E+00        -0.17999E+08
 
   -0.18054E+08         0.16333E+07         0.00000E+00
    0.16333E+07        -0.38549E+08         0.00000E+00
    0.00000E+00         0.00000E+00        -0.18142E+08
 
   -0.18197E+08         0.16343E+07         0.00000E+00
    0.16343E+07        -0.38904E+08         0.00000E+00
    0.00000E+00         0.00000E+00        -0.18282E+08
 
   -0.18340E+08         0.16353E+07         0.00000E+00
    0.16353E+07        -0.39261E+08         0.00000E+00
    0.00000E+00         0.00000E+00        -0.18420E+08
 
   -0.18481E+08         0.16356E+07         0.00000E+00
    0.16356E+07        -0.39619E+08         0.00000E+00
    0.00000E+00         0.00000E+00        -0.18555E+08
 
   -0.18621E+08         0.16350E+07         0.00000E+00
    0.16350E+07        -0.39979E+08         0.00000E+00
    0.00000E+00         0.00000E+00        -0.18688E+08
 
   -0.18760E+08         0.16332E+07         0.00000E+00
    0.16332E+07        -0.40341E+08         0.00000E+00
    0.00000E+00         0.00000E+00        -0.18818E+08
 
   -0.18899E+08         0.16298E+07         0.00000E+00
    0.16298E+07        -0.40705E+08         0.00000E+00
    0.00000E+00         0.00000E+00        -0.18946E+08
 
   -0.19037E+08         0.16247E+07         0.00000E+00
    0.16247E+07        -0.41070E+08         0.00000E+00
    0.00000E+00         0.00000E+00        -0.19072E+08
 
   -0.19176E+08         0.16181E+07         0.00000E+00
    0.16181E+07        -0.41437E+08         0.00000E+00
    0.00000E+00         0.00000E+00        -0.19196E+08
 
   -0.19317E+08         0.16117E+07         0.00000E+00
    0.16117E+07        -0.41803E+08         0.00000E+00
    0.00000E+00         0.00000E+00        -0.19319E+08
 
   -0.19460E+08         0.15979E+07         0.00000E+00
    0.15979E+07        -0.42153E+08         0.00000E+00
    0.00000E+00         0.00000E+00        -0.19462E+08
 
   -0.19604E+08         0.15832E+07         0.00000E+00
    0.15832E+07        -0.42496E+08         0.00000E+00
    0.00000E+00         0.00000E+00        -0.19616E+08
 
   -0.19751E+08         0.15699E+07         0.00000E+00
    0.15699E+07        -0.42841E+08         0.00000E+00
    0.00000E+00         0.00000E+00        -0.19769E+08
 
   -0.19900E+08         0.15575E+07         0.00000E+00
    0.15575E+07        -0.43189E+08         0.00000E+00
    0.00000E+00         0.00000E+00        -0.19922E+08
 
   -0.20051E+08         0.15457E+07         0.00000E+00
    0.15457E+07        -0.43540E+08         0.00000E+00
    0.00000E+00         0.00000E+00        -0.20073E+08
 
   -0.20203E+08         0.15341E+07         0.00000E+00
    0.15341E+07        -0.43892E+08         0.00000E+00
    0.00000E+00         0.00000E+00        -0.20223E+08
 
   -0.20357E+08         0.15226E+07         0.00000E+00
    0.15226E+07        -0.44246E+08         0.00000E+00
    0.00000E+00         0.00000E+00        -0.20373E+08
 
   -0.20512E+08         0.15112E+07         0.00000E+00
    0.15112E+07        -0.44602E+08         0.00000E+00
    0.00000E+00         0.00000E+00        -0.20522E+08
 
   -0.20669E+08         0.15001E+07         0.00000E+00
    0.15001E+07        -0.44958E+08         0.00000E+00
    0.00000E+00         0.00000E+00        -0.20672E+08
 
   -0.20827E+08         0.14864E+07         0.00000E+00
    0.14864E+07        -0.45304E+08         0.00000E+00
    0.00000E+00         0.00000E+00        -0.20833E+08
 
   -0.20988E+08         0.14731E+07         0.00000E+00
    0.14731E+07        -0.45646E+08         0.00000E+00
    0.00000E+00         0.00000E+00        -0.21000E+08
 
   -0.21150E+08         0.14606E+07         0.00000E+00
    0.14606E+07        -0.45989E+08         0.00000E+00
    0.00000E+00         0.00000E+00        -0.21167E+08
 
   -0.21314E+08         0.14489E+07         0.00000E+00
    0.14489E+07        -0.46335E+08         0.00000E+00
    0.00000E+00         0.00000E+00        -0.21333E+08
 
   -0.21479E+08         0.14379E+07         0.00000E+00
    0.14379E+07        -0.46681E+08         0.00000E+00
    0.00000E+00         0.00000E+00        -0.21499E+08
 
   -0.21645E+08         0.14275E+07         0.00000E+00
    0.14275E+07        -0.47029E+08         0.00000E+00
    0.00000E+00         0.00000E+00        -0.21665E+08
 
   -0.21812E+08         0.14175E+07         0.00000E+00
    0.14175E+07        -0.47378E+08         0.00000E+00
    0.00000E+00         0.00000E+00        -0.21830E+08
 
   -0.21981E+08         0.14080E+07         0.00000E+00
    0.14080E+07        -0.47727E+08         0.00000E+00
    0.00000E+00         0.00000E+00        -0.21996E+08
 
   -0.22150E+08         0.13986E+07         0.00000E+00
    0.13986E+07        -0.48073E+08         0.00000E+00
    0.00000E+00         0.00000E+00        -0.22165E+08
 
   -0.22321E+08         0.13889E+07         0.00000E+00
    0.13889E+07        -0.48415E+08         0.00000E+00
    0.00000E+00         0.00000E+00        -0.22340E+08
 
   -0.22493E+08         0.13799E+07         0.00000E+00
    0.13799E+07        -0.48757E+08         0.00000E+00
    0.00000E+00         0.00000E+00        -0.22514E+08
 
   -0.22666E+08         0.13717E+07         0.00000E+00
    0.13717E+07        -0.49100E+08         0.00000E+00
    0.00000E+00         0.00000E+00        -0.22689E+08
 
   -0.22839E+08         0.13641E+07         0.00000E+00
    0.13641E+07        -0.49444E+08         0.00000E+00
    0.00000E+00         0.00000E+00        -0.22863E+08
 
   -0.23013E+08         0.13571E+07         0.00000E+00
    0.13571E+07        -0.49788E+08         0.00000E+00
    0.00000E+00         0.00000E+00        -0.23037E+08
 
   -0.23187E+08         0.13504E+07         0.00000E+00
    0.13504E+07        -0.50132E+08         0.00000E+00
    0.00000E+00         0.00000E+00        -0.23211E+08
 
   -0.23362E+08         0.13441E+07         0.00000E+00
    0.13441E+07        -0.50476E+08         0.00000E+00
    0.00000E+00         0.00000E+00        -0.23385E+08
 
   -0.23538E+08         0.13381E+07         0.00000E+00
    0.13381E+07        -0.50820E+08         0.00000E+00
    0.00000E+00         0.00000E+00        -0.23560E+08
 
   -0.23713E+08         0.13321E+07         0.00000E+00
    0.13321E+07        -0.51165E+08         0.00000E+00
    0.00000E+00         0.00000E+00        -0.23734E+08
 
   -0.23890E+08         0.13260E+07         0.00000E+00
    0.13260E+07        -0.51508E+08         0.00000E+00
    0.00000E+00         0.00000E+00        -0.23909E+08
 
   -0.24070E+08         0.13196E+07         0.00000E+00
    0.13196E+07        -0.51849E+08         0.00000E+00
    0.00000E+00         0.00000E+00        -0.24087E+08
 
   -0.24251E+08         0.13131E+07         0.00000E+00
    0.13131E+07        -0.52189E+08         0.00000E+00
    0.00000E+00         0.00000E+00        -0.24265E+08
 
   -0.24432E+08         0.13063E+07         0.00000E+00
    0.13063E+07        -0.52530E+08         0.00000E+00
    0.00000E+00         0.00000E+00        -0.24443E+08
 
   -0.24613E+08         0.12993E+07         0.00000E+00
    0.12993E+07        -0.52871E+08         0.00000E+00
    0.00000E+00         0.00000E+00        -0.24621E+08
 
   -0.24794E+08         0.12918E+07         0.00000E+00
    0.12918E+07        -0.53212E+08         0.00000E+00
    0.00000E+00         0.00000E+00        -0.24798E+08
 
   -0.24976E+08         0.12839E+07         0.00000E+00
    0.12839E+07        -0.53554E+08         0.00000E+00
    0.00000E+00         0.00000E+00        -0.24976E+08
 
   -0.25159E+08         0.12753E+07         0.00000E+00
    0.12753E+07        -0.53896E+08         0.00000E+00
    0.00000E+00         0.00000E+00        -0.25154E+08
 
   -0.25342E+08         0.12660E+07         0.00000E+00
    0.12660E+07        -0.54239E+08         0.00000E+00
    0.00000E+00         0.00000E+00        -0.25331E+08
 
   -0.25525E+08         0.12557E+07         0.00000E+00
    0.12557E+07        -0.54582E+08         0.00000E+00
    0.00000E+00         0.00000E+00        -0.25509E+08
 
   -0.25710E+08         0.12443E+07         0.00000E+00
    0.12443E+07        -0.54927E+08         0.00000E+00
    0.00000E+00         0.00000E+00        -0.25686E+08
 
   -0.25895E+08         0.12316E+07         0.00000E+00
    0.12316E+07        -0.55272E+08         0.00000E+00
    0.00000E+00         0.00000E+00        -0.25864E+08
 
   -0.26082E+08         0.12173E+07         0.00000E+00
    0.12173E+07        -0.55620E+08         0.00000E+00
    0.00000E+00         0.00000E+00        -0.26042E+08
 
   -0.26270E+08         0.12012E+07         0.00000E+00
    0.12012E+07        -0.55968E+08         0.00000E+00
    0.00000E+00         0.00000E+00        -0.26220E+08
 
   -0.26459E+08         0.11828E+07         0.00000E+00
    0.11828E+07        -0.56319E+08         0.00000E+00
    0.00000E+00         0.00000E+00        -0.26398E+08
 
   -0.26650E+08         0.11620E+07         0.00000E+00
    0.11620E+07        -0.56673E+08         0.00000E+00
    0.00000E+00         0.00000E+00        -0.26578E+08
 
   -0.26843E+08         0.11384E+07         0.00000E+00
    0.11384E+07        -0.57029E+08         0.00000E+00
    0.00000E+00         0.00000E+00        -0.26758E+08
 
   -0.27038E+08         0.11116E+07         0.00000E+00
    0.11116E+07        -0.57388E+08         0.00000E+00
    0.00000E+00         0.00000E+00        -0.26938E+08
 
   -0.27235E+08         0.10814E+07         0.00000E+00
    0.10814E+07        -0.57751E+08         0.00000E+00
    0.00000E+00         0.00000E+00        -0.27120E+08
 
   -0.27434E+08         0.10473E+07         0.00000E+00
    0.10473E+07        -0.58117E+08         0.00000E+00
    0.00000E+00         0.00000E+00        -0.27304E+08
 
   -0.27635E+08         0.10090E+07         0.00000E+00
    0.10090E+07        -0.58486E+08         0.00000E+00
    0.00000E+00         0.00000E+00        -0.27488E+08
 
   -0.27838E+08         0.96642E+06         0.00000E+00
    0.96642E+06        -0.58858E+08         0.00000E+00
    0.00000E+00         0.00000E+00        -0.27674E+08
 
   -0.28042E+08         0.91916E+06         0.00000E+00
    0.91916E+06        -0.59233E+08         0.00000E+00
    0.00000E+00         0.00000E+00        -0.27860E+08
 
   -0.28247E+08         0.86704E+06         0.00000E+00
    0.86704E+06        -0.59609E+08         0.00000E+00
    0.00000E+00         0.00000E+00        -0.28047E+08
 
   -0.28452E+08         0.80984E+06         0.00000E+00
    0.80984E+06        -0.59984E+08         0.00000E+00
    0.00000E+00         0.00000E+00        -0.28233E+08
 
   -0.28656E+08         0.74723E+06         0.00000E+00
    0.74723E+06        -0.60356E+08         0.00000E+00
    0.00000E+00         0.00000E+00        -0.28416E+08
 
   -0.28859E+08         0.67855E+06         0.00000E+00
    0.67855E+06        -0.60722E+08         0.00000E+00
    0.00000E+00         0.00000E+00        -0.28593E+08
 
   -0.29061E+08         0.60261E+06         0.00000E+00
    0.60261E+06        -0.61076E+08         0.00000E+00
    0.00000E+00         0.00000E+00        -0.28761E+08
 
   -0.29263E+08         0.51727E+06         0.00000E+00
    0.51727E+06        -0.61415E+08         0.00000E+00
    0.00000E+00         0.00000E+00        -0.28912E+08
 
   -0.29466E+08         0.41862E+06         0.00000E+00
    0.41862E+06        -0.61731E+08         0.00000E+00
    0.00000E+00         0.00000E+00        -0.29039E+08
 
   -0.29679E+08         0.30426E+06         0.00000E+00
    0.30426E+06        -0.62018E+08         0.00000E+00
    0.00000E+00         0.00000E+00        -0.29126E+08
 
   -0.29919E+08         0.18080E+06         0.00000E+00
    0.18080E+06        -0.62276E+08         0.00000E+00
    0.00000E+00         0.00000E+00        -0.29160E+08
 
   -0.30203E+08         0.59209E+05         0.00000E+00
    0.59209E+05        -0.62525E+08         0.00000E+00
    0.00000E+00         0.00000E+00        -0.29146E+08
 
   -0.13130E+08         0.68776E+05         0.00000E+00
    0.68776E+05        -0.27663E+08         0.00000E+00
    0.00000E+00         0.00000E+00        -0.14646E+08
 
   -0.13406E+08         0.21772E+06         0.00000E+00
    0.21772E+06        -0.27790E+08         0.00000E+00
    0.00000E+00         0.00000E+00        -0.14646E+08
 
   -0.13620E+08         0.38173E+06         0.00000E+00
    0.38173E+06        -0.28016E+08         0.00000E+00
    0.00000E+00         0.00000E+00        -0.14646E+08
 
   -0.13792E+08         0.54271E+06         0.00000E+00
    0.54271E+06        -0.28311E+08         0.00000E+00
    0.00000E+00         0.00000E+00        -0.14646E+08
 
   -0.13936E+08         0.68791E+06         0.00000E+00
    0.68791E+06        -0.28663E+08         0.00000E+00
    0.00000E+00         0.00000E+00        -0.14646E+08
 
   -0.14065E+08         0.81488E+06         0.00000E+00
    0.81488E+06        -0.29059E+08         0.00000E+00
    0.00000E+00         0.00000E+00        -0.14646E+08
 
   -0.14187E+08         0.92342E+06         0.00000E+00
    0.92342E+06        -0.29490E+08         0.00000E+00
    0.00000E+00         0.00000E+00        -0.14646E+08
 
   -0.14309E+08         0.10121E+07         0.00000E+00
    0.10121E+07        -0.29951E+08         0.00000E+00
    0.00000E+00         0.00000E+00        -0.14646E+08
 
   -0.14438E+08         0.10842E+07         0.00000E+00
    0.10842E+07        -0.30402E+08         0.00000E+00
    0.00000E+00         0.00000E+00        -0.14680E+08
 
   -0.14571E+08         0.11082E+07         0.00000E+00
    0.11082E+07        -0.30764E+08         0.00000E+00
    0.00000E+00         0.00000E+00        -0.14839E+08
 
   -0.14725E+08         0.11438E+07         0.00000E+00
    0.11438E+07        -0.31113E+08         0.00000E+00
    0.00000E+00         0.00000E+00        -0.15054E+08
 
   -0.14902E+08         0.11823E+07         0.00000E+00
    0.11823E+07        -0.31482E+08         0.00000E+00
    0.00000E+00         0.00000E+00        -0.15265E+08
 
   -0.15093E+08         0.12218E+07         0.00000E+00
    0.12218E+07        -0.31858E+08         0.00000E+00
    0.00000E+00         0.00000E+00        -0.15469E+08
 
   -0.15289E+08         0.12625E+07         0.00000E+00
    0.12625E+07        -0.32237E+08         0.00000E+00
    0.00000E+00         0.00000E+00        -0.15665E+08
 
   -0.15487E+08         0.13037E+07         0.00000E+00
    0.13037E+07        -0.32617E+08         0.00000E+00
    0.00000E+00         0.00000E+00        -0.15853E+08
 
   -0.15681E+08         0.13445E+07         0.00000E+00
    0.13445E+07        -0.32997E+08         0.00000E+00
    0.00000E+00         0.00000E+00        -0.16031E+08
 
   -0.15870E+08         0.13840E+07         0.00000E+00
    0.13840E+07        -0.33377E+08         0.00000E+00
    0.00000E+00         0.00000E+00        -0.16200E+08
 
   -0.16054E+08         0.14215E+07         0.00000E+00
    0.14215E+07        -0.33757E+08         0.00000E+00
    0.00000E+00         0.00000E+00        -0.16361E+08
 
   -0.16231E+08         0.14562E+07         0.00000E+00
    0.14562E+07        -0.34136E+08         0.00000E+00
    0.00000E+00         0.00000E+00        -0.16513E+08
 
   -0.16401E+08         0.14875E+07         0.00000E+00
    0.14875E+07        -0.34516E+08         0.00000E+00
    0.00000E+00         0.00000E+00        -0.16656E+08
 
   -0.16565E+08         0.15151E+07         0.00000E+00
    0.15151E+07        -0.34896E+08         0.00000E+00
    0.00000E+00         0.00000E+00        -0.16793E+08
 
   -0.16723E+08         0.15385E+07         0.00000E+00
    0.15385E+07        -0.35278E+08         0.00000E+00
    0.00000E+00         0.00000E+00        -0.16922E+08
 
   -0.16876E+08         0.15579E+07         0.00000E+00
    0.15579E+07        -0.35661E+08         0.00000E+00
    0.00000E+00         0.00000E+00        -0.17045E+08
 
   -0.17025E+08         0.15736E+07         0.00000E+00
    0.15736E+07        -0.36044E+08         0.00000E+00
    0.00000E+00         0.00000E+00        -0.17162E+08
 
   -0.17172E+08         0.15861E+07         0.00000E+00
    0.15861E+07        -0.36429E+08         0.00000E+00
    0.00000E+00         0.00000E+00        -0.17273E+08
 
   -0.17317E+08         0.15970E+07         0.00000E+00
    0.15970E+07        -0.36807E+08         0.00000E+00
    0.00000E+00         0.00000E+00        -0.17391E+08
 
   -0.17459E+08         0.15926E+07         0.00000E+00
    0.15926E+07        -0.37155E+08         0.00000E+00
    0.00000E+00         0.00000E+00        -0.17539E+08
 
   -0.17602E+08         0.15908E+07         0.00000E+00
    0.15908E+07        -0.37499E+08         0.00000E+00
    0.00000E+00         0.00000E+00        -0.17692E+08
 
   -0.17746E+08         0.15902E+07         0.00000E+00
    0.15902E+07        -0.37846E+08         0.00000E+00
    0.00000E+00         0.00000E+00        -0.17842E+08
 
   -0.17891E+08         0.15904E+07         0.00000E+00
    0.15904E+07        -0.38197E+08         0.00000E+00
    0.00000E+00         0.00000E+00        -0.17988E+08
 
   -0.18035E+08         0.15910E+07         0.00000E+00
    0.15910E+07        -0.38550E+08         0.00000E+00
    0.00000E+00         0.00000E+00        -0.18131E+08
 
   -0.18179E+08         0.15920E+07         0.00000E+00
    0.15920E+07        -0.38904E+08         0.00000E+00
    0.00000E+00         0.00000E+00        -0.18272E+08
 
   -0.18322E+08         0.15927E+07         0.00000E+00
    0.15927E+07        -0.39261E+08         0.00000E+00
    0.00000E+00         0.00000E+00        -0.18410E+08
 
   -0.18464E+08         0.15930E+07         0.00000E+00
    0.15930E+07        -0.39619E+08         0.00000E+00
    0.00000E+00         0.00000E+00        -0.18545E+08
 
   -0.18605E+08         0.15922E+07         0.00000E+00
    0.15922E+07        -0.39979E+08         0.00000E+00
    0.00000E+00         0.00000E+00        -0.18678E+08
 
   -0.18745E+08         0.15903E+07         0.00000E+00
    0.15903E+07        -0.40341E+08         0.00000E+00
    0.00000E+00         0.00000E+00        -0.18808E+08
 
   -0.18885E+08         0.15869E+07         0.00000E+00
    0.15869E+07        -0.40704E+08         0.00000E+00
    0.00000E+00         0.00000E+00        -0.18936E+08
 
   -0.19024E+08         0.15819E+07         0.00000E+00
    0.15819E+07        -0.41069E+08         0.00000E+00
    0.00000E+00         0.00000E+00        -0.19062E+08
 
   -0.19165E+08         0.15757E+07         0.00000E+00
    0.15757E+07        -0.41435E+08         0.00000E+00
    0.00000E+00         0.00000E+00        -0.19187E+08
 
   -0.19307E+08         0.15698E+07         0.00000E+00
    0.15698E+07        -0.41801E+08         0.00000E+00
    0.00000E+00         0.00000E+00        -0.19311E+08
 
   -0.19450E+08         0.15560E+07         0.00000E+00
    0.15560E+07        -0.42150E+08         0.00000E+00
    0.00000E+00         0.00000E+00        -0.19456E+08
 
   -0.19595E+08         0.15421E+07         0.00000E+00
    0.15421E+07        -0.42493E+08         0.00000E+00
    0.00000E+00         0.00000E+00        -0.19610E+08
 
   -0.19742E+08         0.15293E+07         0.00000E+00
    0.15293E+07        -0.42838E+08         0.00000E+00
    0.00000E+00         0.00000E+00        -0.19764E+08
 
   -0.19892E+08         0.15174E+07         0.00000E+00
    0.15174E+07        -0.43187E+08         0.00000E+00
    0.00000E+00         0.00000E+00        -0.19916E+08
 
   -0.20043E+08         0.15059E+07         0.00000E+00
    0.15059E+07        -0.43537E+08         0.00000E+00
    0.00000E+00         0.00000E+00        -0.20067E+08
 
   -0.20196E+08         0.14947E+07         0.00000E+00
    0.14947E+07        -0.43890E+08         0.00000E+00
    0.00000E+00         0.00000E+00        -0.20218E+08
 
   -0.20349E+08         0.14835E+07         0.00000E+00
    0.14835E+07        -0.44244E+08         0.00000E+00
    0.00000E+00         0.00000E+00        -0.20368E+08
 
   -0.20505E+08         0.14725E+07         0.00000E+00
    0.14725E+07        -0.44600E+08         0.00000E+00
    0.00000E+00         0.00000E+00        -0.20517E+08
 
   -0.20662E+08         0.14619E+07         0.00000E+00
    0.14619E+07        -0.44956E+08         0.00000E+00
    0.00000E+00         0.00000E+00        -0.20667E+08
 
   -0.20821E+08         0.14486E+07         0.00000E+00
    0.14486E+07        -0.45301E+08         0.00000E+00
    0.00000E+00         0.00000E+00        -0.20829E+08
 
   -0.20982E+08         0.14357E+07         0.00000E+00
    0.14357E+07        -0.45643E+08         0.00000E+00
    0.00000E+00         0.00000E+00        -0.20996E+08
 
   -0.21144E+08         0.14236E+07         0.00000E+00
    0.14236E+07        -0.45987E+08         0.00000E+00
    0.00000E+00         0.00000E+00        -0.21163E+08
 
   -0.21308E+08         0.14122E+07         0.00000E+00
    0.14122E+07        -0.46333E+08         0.00000E+00
    0.00000E+00         0.00000E+00        -0.21329E+08
 
   -0.21473E+08         0.14015E+07         0.00000E+00
    0.14015E+07        -0.46679E+08         0.00000E+00
    0.00000E+00         0.00000E+00        -0.21495E+08
 
   -0.21639E+08         0.13913E+07         0.00000E+00
    0.13913E+07        -0.47027E+08         0.00000E+00
    0.00000E+00         0.00000E+00        -0.21661E+08
 
   -0.21807E+08         0.13816E+07         0.00000E+00
    0.13816E+07        -0.47376E+08         0.00000E+00
    0.00000E+00         0.00000E+00        -0.21826E+08
 
   -0.21975E+08         0.13725E+07         0.00000E+00
    0.13725E+07        -0.47725E+08         0.00000E+00
    0.00000E+00         0.00000E+00        -0.21992E+08
 
   -0.22145E+08         0.13633E+07         0.00000E+00
    0.13633E+07        -0.48071E+08         0.00000E+00
    0.00000E+00         0.00000E+00        -0.22162E+08
 
   -0.22316E+08         0.13539E+07         0.00000E+00
    0.13539E+07        -0.48413E+08         0.00000E+00
    0.00000E+00         0.00000E+00        -0.22336E+08
 
   -0.22487E+08         0.13452E+07         0.00000E+00
    0.13452E+07        -0.48755E+08         0.00000E+00
    0.00000E+00         0.00000E+00        -0.22511E+08
 
   -0.22660E+08         0.13371E+07         0.00000E+00
    0.13371E+07        -0.49099E+08         0.00000E+00
    0.00000E+00         0.00000E+00        -0.22685E+08
 
   -0.22834E+08         0.13298E+07         0.00000E+00
    0.13298E+07        -0.49442E+08         0.00000E+00
    0.00000E+00         0.00000E+00        -0.22859E+08
 
   -0.23008E+08         0.13229E+07         0.00000E+00
    0.13229E+07        -0.49786E+08         0.00000E+00
    0.00000E+00         0.00000E+00        -0.23034E+08
 
   -0.23182E+08         0.13164E+07         0.00000E+00
    0.13164E+07        -0.50130E+08         0.00000E+00
    0.00000E+00         0.00000E+00        -0.23208E+08
 
   -0.23357E+08         0.13102E+07         0.00000E+00
    0.13102E+07        -0.50475E+08         0.00000E+00
    0.00000E+00         0.00000E+00        -0.23382E+08
 
   -0.23532E+08         0.13043E+07         0.00000E+00
    0.13043E+07        -0.50819E+08         0.00000E+00
    0.00000E+00         0.00000E+00        -0.23556E+08
 
   -0.23708E+08         0.12984E+07         0.00000E+00
    0.12984E+07        -0.51164E+08         0.00000E+00
    0.00000E+00         0.00000E+00        -0.23730E+08
 
   -0.23886E+08         0.12924E+07         0.00000E+00
    0.12924E+07        -0.51507E+08         0.00000E+00
    0.00000E+00         0.00000E+00        -0.23905E+08
 
   -0.24066E+08         0.12861E+07         0.00000E+00
    0.12861E+07        -0.51847E+08         0.00000E+00
    0.00000E+00         0.00000E+00        -0.24083E+08
 
   -0.24247E+08         0.12797E+07         0.00000E+00
    0.12797E+07        -0.52188E+08         0.00000E+00
    0.00000E+00         0.00000E+00        -0.24261E+08
 
   -0.24428E+08         0.12730E+07         0.00000E+00
    0.12730E+07        -0.52528E+08         0.00000E+00
    0.00000E+00         0.00000E+00        -0.24439E+08
 
   -0.24609E+08         0.12661E+07         0.00000E+00
    0.12661E+07        -0.52869E+08         0.00000E+00
    0.00000E+00         0.00000E+00        -0.24616E+08
 
   -0.24791E+08         0.12588E+07         0.00000E+00
    0.12588E+07        -0.53210E+08         0.00000E+00
    0.00000E+00         0.00000E+00        -0.24794E+08
 
   -0.24973E+08         0.12511E+07         0.00000E+00
    0.12511E+07        -0.53552E+08         0.00000E+00
    0.00000E+00         0.00000E+00        -0.24971E+08
 
   -0.25155E+08         0.12427E+07         0.00000E+00
    0.12427E+07        -0.53894E+08         0.00000E+00
    0.00000E+00         0.00000E+00        -0.25149E+08
 
   -0.25338E+08         0.12335E+07         0.00000E+00
    0.12335E+07        -0.54236E+08         0.00000E+00
    0.00000E+00         0.00000E+00        -0.25326E+08
 
   -0.25522E+08         0.12235E+07         0.00000E+00
    0.12235E+07        -0.54580E+08         0.00000E+00
    0.00000E+00         0.00000E+00        -0.25503E+08
 
   -0.25707E+08         0.12124E+07         0.00000E+00
    0.12124E+07        -0.54924E+08         0.00000E+00
    0.00000E+00         0.00000E+00        -0.25680E+08
 
   -0.25893E+08         0.12000E+07         0.00000E+00
    0.12000E+07        -0.55269E+08         0.00000E+00
    0.00000E+00         0.00000E+00        -0.25857E+08
 
   -0.26080E+08         0.11860E+07         0.00000E+00
    0.11860E+07        -0.55616E+08         0.00000E+00
    0.00000E+00         0.00000E+00        -0.26035E+08
 
   -0.26268E+08         0.11702E+07         0.00000E+00
    0.11702E+07        -0.55964E+08         0.00000E+00
    0.00000E+00         0.00000E+00        -0.26212E+08
 
   -0.26458E+08         0.11522E+07         0.00000E+00
    0.11522E+07        -0.56315E+08         0.00000E+00
    0.00000E+00         0.00000E+00        -0.26390E+08
 
   -0.26649E+08         0.11319E+07         0.00000E+00
    0.11319E+07        -0.56668E+08         0.00000E+00
    0.00000E+00         0.00000E+00        -0.26569E+08
 
   -0.26843E+08         0.11087E+07         0.00000E+00
    0.11087E+07        -0.57023E+08         0.00000E+00
    0.00000E+00         0.00000E+00        -0.26748E+08
 
   -0.27038E+08         0.10824E+07         0.00000E+00
    0.10824E+07        -0.57382E+08         0.00000E+00
    0.00000E+00         0.00000E+00        -0.26928E+08
 
   -0.27236E+08         0.10526E+07         0.00000E+00
    0.10526E+07        -0.57744E+08         0.00000E+00
    0.00000E+00         0.00000E+00        -0.27108E+08
 
   -0.27435E+08         0.10190E+07         0.00000E+00
    0.10190E+07        -0.58109E+08         0.00000E+00
    0.00000E+00         0.00000E+00        -0.27291E+08
 
   -0.27637E+08         0.98117E+06         0.00000E+00
    0.98117E+06        -0.58478E+08         0.00000E+00
    0.00000E+00         0.00000E+00        -0.27474E+08
 
   -0.27840E+08         0.93890E+06         0.00000E+00
    0.93890E+06        -0.58849E+08         0.00000E+00
    0.00000E+00         0.00000E+00        -0.27658E+08
 
   -0.28045E+08         0.89190E+06         0.00000E+00
    0.89190E+06        -0.59223E+08         0.00000E+00
    0.00000E+00         0.00000E+00        -0.27843E+08
 
   -0.28251E+08         0.83991E+06         0.00000E+00
    0.83991E+06        -0.59598E+08         0.00000E+00
    0.00000E+00         0.00000E+00        -0.28029E+08
 
   -0.28457E+08         0.78269E+06         0.00000E+00
    0.78269E+06        -0.59972E+08         0.00000E+00
    0.00000E+00         0.00000E+00        -0.28213E+08
 
   -0.28662E+08         0.71990E+06         0.00000E+00
    0.71990E+06        -0.60343E+08         0.00000E+00
    0.00000E+00         0.00000E+00        -0.28394E+08
 
   -0.28867E+08         0.65096E+06         0.00000E+00
    0.65096E+06        -0.60708E+08         0.00000E+00
    0.00000E+00         0.00000E+00        -0.28569E+08
 
   -0.29071E+08         0.57483E+06         0.00000E+00
    0.57483E+06        -0.61061E+08         0.00000E+00
    0.00000E+00         0.00000E+00        -0.28733E+08
 
   -0.29274E+08         0.48952E+06         0.00000E+00
    0.48952E+06        -0.61397E+08         0.00000E+00
    0.00000E+00         0.00000E+00        -0.28881E+08
 
   -0.29481E+08         0.39190E+06         0.00000E+00
    0.39190E+06        -0.61711E+08         0.00000E+00
    0.00000E+00         0.00000E+00        -0.29002E+08
 
   -0.29700E+08         0.28157E+06         0.00000E+00
    0.28157E+06        -0.61995E+08         0.00000E+00
    0.00000E+00         0.00000E+00        -0.29082E+08
 
   -0.29947E+08         0.16602E+06         0.00000E+00
    0.16602E+06        -0.62254E+08         0.00000E+00
    0.00000E+00         0.00000E+00        -0.29110E+08
 
   -0.30237E+08         0.54234E+05         0.00000E+00
    0.54234E+05        -0.62504E+08         0.00000E+00
    0.00000E+00         0.00000E+00        -0.29093E+08
 
   -0.13015E+08         0.59875E+05         0.00000E+00
    0.59875E+05        -0.27689E+08         0.00000E+00
    0.00000E+00         0.00000E+00        -0.14646E+08
 
   -0.13297E+08         0.19414E+06         0.00000E+00
    0.19414E+06        -0.27821E+08         0.00000E+00
    0.00000E+00         0.00000E+00        -0.14646E+08
 
   -0.13522E+08         0.34856E+06         0.00000E+00
    0.34856E+06        -0.28048E+08         0.00000E+00
    0.00000E+00         0.00000E+00        -0.14646E+08
 
   -0.13707E+08         0.50289E+06         0.00000E+00
    0.50289E+06        -0.28341E+08         0.00000E+00
    0.00000E+00         0.00000E+00        -0.14646E+08
 
   -0.13864E+08         0.64363E+06         0.00000E+00
    0.64363E+06        -0.28689E+08         0.00000E+00
    0.00000E+00         0.00000E+00        -0.14646E+08
 
   -0.14003E+08         0.76825E+06         0.00000E+00
    0.76825E+06        -0.29082E+08         0.00000E+00
    0.00000E+00         0.00000E+00        -0.14646E+08
 
   -0.14134E+08         0.87645E+06         0.00000E+00
    0.87645E+06        -0.29510E+08         0.00000E+00
    0.00000E+00         0.00000E+00        -0.14646E+08
 
   -0.14266E+08         0.96555E+06         0.00000E+00
    0.96555E+06        -0.29967E+08         0.00000E+00
    0.00000E+00         0.00000E+00        -0.14646E+08
 
   -0.14400E+08         0.10388E+07         0.00000E+00
    0.10388E+07        -0.30411E+08         0.00000E+00
    0.00000E+00         0.00000E+00        -0.14687E+08
 
   -0.14536E+08         0.10642E+07         0.00000E+00
    0.10642E+07        -0.30771E+08         0.00000E+00
    0.00000E+00         0.00000E+00        -0.14848E+08
 
   -0.14693E+08         0.11049E+07         0.00000E+00
    0.11049E+07        -0.31121E+08         0.00000E+00
    0.00000E+00         0.00000E+00        -0.15059E+08
 
   -0.14870E+08         0.11472E+07         0.00000E+00
    0.11472E+07        -0.31490E+08         0.00000E+00
    0.00000E+00         0.00000E+00        -0.15266E+08
 
   -0.15060E+08         0.11886E+07         0.00000E+00
    0.11886E+07        -0.31866E+08         0.00000E+00
    0.00000E+00         0.00000E+00        -0.15467E+08
 
   -0.15256E+08         0.12299E+07         0.00000E+00
    0.12299E+07        -0.32245E+08         0.00000E+00
    0.00000E+00         0.00000E+00        -0.15660E+08
 
   -0.15452E+08         0.12708E+07         0.00000E+00
    0.12708E+07        -0.32625E+08         0.00000E+00
    0.00000E+00         0.00000E+00        -0.15846E+08
 
   -0.15646E+08         0.13109E+07         0.00000E+00
    0.13109E+07        -0.33005E+08         0.00000E+00
    0.00000E+00         0.00000E+00        -0.16022E+08
 
   -0.15836E+08         0.13494E+07         0.00000E+00
    0.13494E+07        -0.33385E+08         0.00000E+00
    0.00000E+00         0.00000E+00        -0.16190E+08
 
   -0.16020E+08         0.13858E+07         0.00000E+00
    0.13858E+07        -0.33764E+08         0.00000E+00
    0.00000E+00         0.00000E+00        -0.16349E+08
 
   -0.16198E+08         0.14192E+07         0.00000E+00
    0.14192E+07        -0.34143E+08         0.00000E+00
    0.00000E+00         0.00000E+00        -0.16500E+08
 
   -0.16370E+08         0.14494E+07         0.00000E+00
    0.14494E+07        -0.34522E+08         0.00000E+00
    0.00000E+00         0.00000E+00        -0.16643E+08
 
   -0.16535E+08         0.14757E+07         0.00000E+00
    0.14757E+07        -0.34901E+08         0.00000E+00
    0.00000E+00         0.00000E+00        -0.16779E+08
 
   -0.16695E+08         0.14981E+07         0.00000E+00
    0.14981E+07        -0.35282E+08         0.00000E+00
    0.00000E+00         0.00000E+00        -0.16908E+08
 
   -0.16849E+08         0.15166E+07         0.00000E+00
    0.15166E+07        -0.35664E+08         0.00000E+00
    0.00000E+00         0.00000E+00        -0.17031E+08
 
   -0.17000E+08         0.15317E+07         0.00000E+00
    0.15317E+07        -0.36047E+08         0.00000E+00
    0.00000E+00         0.00000E+00        -0.17147E+08
 
   -0.17149E+08         0.15441E+07         0.00000E+00
    0.15441E+07        -0.36432E+08         0.00000E+00
    0.00000E+00         0.00000E+00        -0.17258E+08
 
   -0.17295E+08         0.15543E+07         0.00000E+00
    0.15543E+07        -0.36807E+08         0.00000E+00
    0.00000E+00         0.00000E+00        -0.17379E+08
 
   -0.17438E+08         0.15498E+07         0.00000E+00
    0.15498E+07        -0.37155E+08         0.00000E+00
    0.00000E+00         0.00000E+00        -0.17529E+08
 
   -0.17582E+08         0.15483E+07         0.00000E+00
    0.15483E+07        -0.37499E+08         0.00000E+00
    0.00000E+00         0.00000E+00        -0.17682E+08
 
   -0.17727E+08         0.15479E+07         0.00000E+00
    0.15479E+07        -0.37846E+08         0.00000E+00
    0.00000E+00         0.00000E+00        -0.17831E+08
 
   -0.17872E+08         0.15482E+07         0.00000E+00
    0.15482E+07        -0.38197E+08         0.00000E+00
    0.00000E+00         0.00000E+00        -0.17978E+08
 
   -0.18017E+08         0.15488E+07         0.00000E+00
    0.15488E+07        -0.38550E+08         0.00000E+00
    0.00000E+00         0.00000E+00        -0.18121E+08
 
   -0.18161E+08         0.15497E+07         0.00000E+00
    0.15497E+07        -0.38905E+08         0.00000E+00
    0.00000E+00         0.00000E+00        -0.18262E+08
 
   -0.18305E+08         0.15503E+07         0.00000E+00
    0.15503E+07        -0.39261E+08         0.00000E+00
    0.00000E+00         0.00000E+00        -0.18399E+08
 
   -0.18447E+08         0.15505E+07         0.00000E+00
    0.15505E+07        -0.39619E+08         0.00000E+00
    0.00000E+00         0.00000E+00        -0.18535E+08
 
   -0.18589E+08         0.15496E+07         0.00000E+00
    0.15496E+07        -0.39979E+08         0.00000E+00
    0.00000E+00         0.00000E+00        -0.18668E+08
 
   -0.18730E+08         0.15476E+07         0.00000E+00
    0.15476E+07        -0.40340E+08         0.00000E+00
    0.00000E+00         0.00000E+00        -0.18798E+08
 
   -0.18871E+08         0.15443E+07         0.00000E+00
    0.15443E+07        -0.40703E+08         0.00000E+00
    0.00000E+00         0.00000E+00        -0.18927E+08
 
   -0.19012E+08         0.15394E+07         0.00000E+00
    0.15394E+07        -0.41068E+08         0.00000E+00
    0.00000E+00         0.00000E+00        -0.19053E+08
 
   -0.19154E+08         0.15336E+07         0.00000E+00
    0.15336E+07        -0.41434E+08         0.00000E+00
    0.00000E+00         0.00000E+00        -0.19178E+08
 
   -0.19297E+08         0.15281E+07         0.00000E+00
    0.15281E+07        -0.41799E+08         0.00000E+00
    0.00000E+00         0.00000E+00        -0.19304E+08
 
   -0.19441E+08         0.15144E+07         0.00000E+00
    0.15144E+07        -0.42147E+08         0.00000E+00
    0.00000E+00         0.00000E+00        -0.19450E+08
 
   -0.19586E+08         0.15011E+07         0.00000E+00
    0.15011E+07        -0.42490E+08         0.00000E+00
    0.00000E+00         0.00000E+00        -0.19604E+08
 
   -0.19734E+08         0.14888E+07         0.00000E+00
    0.14888E+07        -0.42836E+08         0.00000E+00
    0.00000E+00         0.00000E+00        -0.19758E+08
 
   -0.19884E+08         0.14773E+07         0.00000E+00
    0.14773E+07        -0.43184E+08         0.00000E+00
    0.00000E+00         0.00000E+00        -0.19910E+08
 
   -0.20035E+08         0.14662E+07         0.00000E+00
    0.14662E+07        -0.43535E+08         0.00000E+00
    0.00000E+00         0.00000E+00        -0.20062E+08
 
   -0.20188E+08         0.14554E+07         0.00000E+00
    0.14554E+07        -0.43888E+08         0.00000E+00
    0.00000E+00         0.00000E+00        -0.20213E+08
 
   -0.20342E+08         0.14445E+07         0.00000E+00
    0.14445E+07        -0.44242E+08         0.00000E+00
    0.00000E+00         0.00000E+00        -0.20363E+08
 
   -0.20498E+08         0.14339E+07         0.00000E+00
    0.14339E+07        -0.44598E+08         0.00000E+00
    0.00000E+00         0.00000E+00        -0.20512E+08
 
   -0.20656E+08         0.14237E+07         0.00000E+00
    0.14237E+07        -0.44954E+08         0.00000E+00
    0.00000E+00         0.00000E+00        -0.20662E+08
 
   -0.20815E+08         0.14107E+07         0.00000E+00
    0.14107E+07        -0.45298E+08         0.00000E+00
    0.00000E+00         0.00000E+00        -0.20825E+08
 
   -0.20976E+08         0.13983E+07         0.00000E+00
    0.13983E+07        -0.45641E+08         0.00000E+00
    0.00000E+00         0.00000E+00        -0.20992E+08
 
   -0.21138E+08         0.13865E+07         0.00000E+00
    0.13865E+07        -0.45985E+08         0.00000E+00
    0.00000E+00         0.00000E+00        -0.21159E+08
 
   -0.21302E+08         0.13755E+07         0.00000E+00
    0.13755E+07        -0.46330E+08         0.00000E+00
    0.00000E+00         0.00000E+00        -0.21325E+08
 
   -0.21467E+08         0.13651E+07         0.00000E+00
    0.13651E+07        -0.46677E+08         0.00000E+00
    0.00000E+00         0.00000E+00        -0.21491E+08
 
   -0.21634E+08         0.13553E+07         0.00000E+00
    0.13553E+07        -0.47025E+08         0.00000E+00
    0.00000E+00         0.00000E+00        -0.21657E+08
 
   -0.21801E+08         0.13458E+07         0.00000E+00
    0.13458E+07        -0.47374E+08         0.00000E+00
    0.00000E+00         0.00000E+00        -0.21822E+08
 
   -0.21970E+08         0.13370E+07         0.00000E+00
    0.13370E+07        -0.47724E+08         0.00000E+00
    0.00000E+00         0.00000E+00        -0.21988E+08
 
   -0.22140E+08         0.13280E+07         0.00000E+00
    0.13280E+07        -0.48069E+08         0.00000E+00
    0.00000E+00         0.00000E+00        -0.22158E+08
 
   -0.22310E+08         0.13189E+07         0.00000E+00
    0.13189E+07        -0.48411E+08         0.00000E+00
    0.00000E+00         0.00000E+00        -0.22333E+08
 
   -0.22482E+08         0.13104E+07         0.00000E+00
    0.13104E+07        -0.48754E+08         0.00000E+00
    0.00000E+00         0.00000E+00        -0.22507E+08
 
   -0.22655E+08         0.13026E+07         0.00000E+00
    0.13026E+07        -0.49097E+08         0.00000E+00
    0.00000E+00         0.00000E+00        -0.22682E+08
 
   -0.22828E+08         0.12954E+07         0.00000E+00
    0.12954E+07        -0.49441E+08         0.00000E+00
    0.00000E+00         0.00000E+00        -0.22856E+08
 
   -0.23002E+08         0.12887E+07         0.00000E+00
    0.12887E+07        -0.49785E+08         0.00000E+00
    0.00000E+00         0.00000E+00        -0.23030E+08
 
   -0.23177E+08         0.12824E+07         0.00000E+00
    0.12824E+07        -0.50129E+08         0.00000E+00
    0.00000E+00         0.00000E+00        -0.23204E+08
 
   -0.23352E+08         0.12763E+07         0.00000E+00
    0.12763E+07        -0.50474E+08         0.00000E+00
    0.00000E+00         0.00000E+00        -0.23378E+08
 
   -0.23527E+08         0.12705E+07         0.00000E+00
    0.12705E+07        -0.50818E+08         0.00000E+00
    0.00000E+00         0.00000E+00        -0.23552E+08
 
   -0.23703E+08         0.12647E+07         0.00000E+00
    0.12647E+07        -0.51163E+08         0.00000E+00
    0.00000E+00         0.00000E+00        -0.23726E+08
 
   -0.23881E+08         0.12588E+07         0.00000E+00
    0.12588E+07        -0.51505E+08         0.00000E+00
    0.00000E+00         0.00000E+00        -0.23901E+08
 
   -0.24062E+08         0.12526E+07         0.00000E+00
    0.12526E+07        -0.51846E+08         0.00000E+00
    0.00000E+00         0.00000E+00        -0.24079E+08
 
   -0.24243E+08         0.12463E+07         0.00000E+00
    0.12463E+07        -0.52186E+08         0.00000E+00
    0.00000E+00         0.00000E+00        -0.24257E+08
 
   -0.24424E+08         0.12398E+07         0.00000E+00
    0.12398E+07        -0.52527E+08         0.00000E+00
    0.00000E+00         0.00000E+00        -0.24435E+08
 
   -0.24605E+08         0.12331E+07         0.00000E+00
    0.12331E+07        -0.52867E+08         0.00000E+00
    0.00000E+00         0.00000E+00        -0.24612E+08
 
   -0.24787E+08         0.12259E+07         0.00000E+00
    0.12259E+07        -0.53209E+08         0.00000E+00
    0.00000E+00         0.00000E+00        -0.24789E+08
 
   -0.24969E+08         0.12183E+07         0.00000E+00
    0.12183E+07        -0.53550E+08         0.00000E+00
    0.00000E+00         0.00000E+00        -0.24967E+08
 
   -0.25152E+08         0.12101E+07         0.00000E+00
    0.12101E+07        -0.53892E+08         0.00000E+00
    0.00000E+00         0.00000E+00        -0.25144E+08
 
   -0.25336E+08         0.12012E+07         0.00000E+00
    0.12012E+07        -0.54234E+08         0.00000E+00
    0.00000E+00         0.00000E+00        -0.25321E+08
 
   -0.25520E+08         0.11914E+07         0.00000E+00
    0.11914E+07        -0.54577E+08         0.00000E+00
    0.00000E+00         0.00000E+00        -0.25497E+08
 
   -0.25705E+08         0.11805E+07         0.00000E+00
    0.11805E+07        -0.54921E+08         0.00000E+00
    0.00000E+00         0.00000E+00        -0.25674E+08
 
   -0.25891E+08         0.11683E+07         0.00000E+00
    0.11683E+07        -0.55266E+08         0.00000E+00
    0.00000E+00         0.00000E+00        -0.25851E+08
 
   -0.26078E+08         0.11547E+07         0.00000E+00
    0.11547E+07        -0.55613E+08         0.00000E+00
    0.00000E+00         0.00000E+00        -0.26028E+08
 
   -0.26267E+08         0.11392E+07         0.00000E+00
    0.11392E+07        -0.55961E+08         0.00000E+00
    0.00000E+00         0.00000E+00        -0.26205E+08
 
   -0.26457E+08         0.11217E+07         0.00000E+00
    0.11217E+07        -0.56311E+08         0.00000E+00
    0.00000E+00         0.00000E+00        -0.26382E+08
 
   -0.26649E+08         0.11018E+07         0.00000E+00
    0.11018E+07        -0.56663E+08         0.00000E+00
    0.00000E+00         0.00000E+00        -0.26559E+08
 
   -0.26843E+08         0.10791E+07         0.00000E+00
    0.10791E+07        -0.57018E+08         0.00000E+00
    0.00000E+00         0.00000E+00        -0.26738E+08
 
   -0.27038E+08         0.10533E+07         0.00000E+00
    0.10533E+07        -0.57376E+08         0.00000E+00
    0.00000E+00         0.00000E+00        -0.26917E+08
 
   -0.27237E+08         0.10239E+07         0.00000E+00
    0.10239E+07        -0.57737E+08         0.00000E+00
    0.00000E+00         0.00000E+00        -0.27097E+08
 
   -0.27437E+08         0.99079E+06         0.00000E+00
    0.99079E+06        -0.58102E+08         0.00000E+00
    0.00000E+00         0.00000E+00        -0.27278E+08
 
   -0.27639E+08         0.95344E+06         0.00000E+00
    0.95344E+06        -0.58469E+08         0.00000E+00
    0.00000E+00         0.00000E+00        -0.27460E+08
 
   -0.27843E+08         0.91155E+06         0.00000E+00
    0.91155E+06        -0.58840E+08         0.00000E+00
    0.00000E+00         0.00000E+00        -0.27643E+08
 
   -0.28049E+08         0.86483E+06         0.00000E+00
    0.86483E+06        -0.59213E+08         0.00000E+00
    0.00000E+00         0.00000E+00        -0.27826E+08
 
   -0.28255E+08         0.81299E+06         0.00000E+00
    0.81299E+06        -0.59587E+08         0.00000E+00
    0.00000E+00         0.00000E+00        -0.28010E+08
 
   -0.28462E+08         0.75577E+06         0.00000E+00
    0.75577E+06        -0.59961E+08         0.00000E+00
    0.00000E+00         0.00000E+00        -0.28193E+08
 
   -0.28669E+08         0.69284E+06         0.00000E+00
    0.69284E+06        -0.60331E+08         0.00000E+00
    0.00000E+00         0.00000E+00        -0.28372E+08
 
   -0.28875E+08         0.62371E+06         0.00000E+00
    0.62371E+06        -0.60694E+08         0.00000E+00
    0.00000E+00         0.00000E+00        -0.28544E+08
 
   -0.29080E+08         0.54747E+06         0.00000E+00
    0.54747E+06        -0.61045E+08         0.00000E+00
    0.00000E+00         0.00000E+00        -0.28706E+08
 
   -0.29287E+08         0.46237E+06         0.00000E+00
    0.46237E+06        -0.61380E+08         0.00000E+00
    0.00000E+00         0.00000E+00        -0.28849E+08
 
   -0.29497E+08         0.36625E+06         0.00000E+00
    0.36625E+06        -0.61692E+08         0.00000E+00
    0.00000E+00         0.00000E+00        -0.28965E+08
 
   -0.29722E+08         0.26037E+06         0.00000E+00
    0.26037E+06        -0.61975E+08         0.00000E+00
    0.00000E+00         0.00000E+00        -0.29038E+08
 
   -0.29976E+08         0.15251E+06         0.00000E+00
    0.15251E+06        -0.62234E+08         0.00000E+00
    0.00000E+00         0.00000E+00        -0.29062E+08
 
   -0.30270E+08         0.49728E+05         0.00000E+00
    0.49728E+05        -0.62485E+08         0.00000E+00
    0.00000E+00         0.00000E+00        -0.29043E+08
 
   -0.12901E+08         0.51459E+05         0.00000E+00
    0.51459E+05        -0.27712E+08         0.00000E+00
    0.00000E+00         0.00000E+00        -0.14646E+08
 
   -0.13189E+08         0.17223E+06         0.00000E+00
    0.17223E+06        -0.27849E+08         0.00000E+00
    0.00000E+00         0.00000E+00        -0.14646E+08
 
   -0.13425E+08         0.31796E+06         0.00000E+00
    0.31796E+06        -0.28079E+08         0.00000E+00
    0.00000E+00         0.00000E+00        -0.14646E+08
 
   -0.13622E+08         0.46561E+06         0.00000E+00
    0.46561E+06        -0.28371E+08         0.00000E+00
    0.00000E+00         0.00000E+00        -0.14646E+08
 
   -0.13791E+08         0.60161E+06         0.00000E+00
    0.60161E+06        -0.28716E+08         0.00000E+00
    0.00000E+00         0.00000E+00        -0.14646E+08
 
   -0.13940E+08         0.72357E+06         0.00000E+00
    0.72357E+06        -0.29106E+08         0.00000E+00
    0.00000E+00         0.00000E+00        -0.14646E+08
 
   -0.14081E+08         0.83126E+06         0.00000E+00
    0.83126E+06        -0.29530E+08         0.00000E+00
    0.00000E+00         0.00000E+00        -0.14646E+08
 
   -0.14221E+08         0.92065E+06         0.00000E+00
    0.92065E+06        -0.29983E+08         0.00000E+00
    0.00000E+00         0.00000E+00        -0.14646E+08
 
   -0.14361E+08         0.99402E+06         0.00000E+00
    0.99402E+06        -0.30419E+08         0.00000E+00
    0.00000E+00         0.00000E+00        -0.14695E+08
 
   -0.14501E+08         0.10210E+07         0.00000E+00
    0.10210E+07        -0.30778E+08         0.00000E+00
    0.00000E+00         0.00000E+00        -0.14858E+08
 
   -0.14660E+08         0.10664E+07         0.00000E+00
    0.10664E+07        -0.31130E+08         0.00000E+00
    0.00000E+00         0.00000E+00        -0.15065E+08
 
   -0.14839E+08         0.11121E+07         0.00000E+00
    0.11121E+07        -0.31499E+08         0.00000E+00
    0.00000E+00         0.00000E+00        -0.15268E+08
 
   -0.15028E+08         0.11553E+07         0.00000E+00
    0.11553E+07        -0.31875E+08         0.00000E+00
    0.00000E+00         0.00000E+00        -0.15466E+08
 
   -0.15224E+08         0.11972E+07         0.00000E+00
    0.11972E+07        -0.32253E+08         0.00000E+00
    0.00000E+00         0.00000E+00        -0.15657E+08
 
   -0.15420E+08         0.12379E+07         0.00000E+00
    0.12379E+07        -0.32633E+08         0.00000E+00
    0.00000E+00         0.00000E+00        -0.15840E+08
 
   -0.15614E+08         0.12774E+07         0.00000E+00
    0.12774E+07        -0.33013E+08         0.00000E+00
    0.00000E+00         0.00000E+00        -0.16014E+08
 
   -0.15803E+08         0.13150E+07         0.00000E+00
    0.13150E+07        -0.33392E+08         0.00000E+00
    0.00000E+00         0.00000E+00        -0.16180E+08
 
   -0.15988E+08         0.13502E+07         0.00000E+00
    0.13502E+07        -0.33771E+08         0.00000E+00
    0.00000E+00         0.00000E+00        -0.16338E+08
 
   -0.16166E+08         0.13825E+07         0.00000E+00
    0.13825E+07        -0.34149E+08         0.00000E+00
    0.00000E+00         0.00000E+00        -0.16488E+08
 
   -0.16339E+08         0.14114E+07         0.00000E+00
    0.14114E+07        -0.34527E+08         0.00000E+00
    0.00000E+00         0.00000E+00        -0.16631E+08
 
   -0.16506E+08         0.14367E+07         0.00000E+00
    0.14367E+07        -0.34906E+08         0.00000E+00
    0.00000E+00         0.00000E+00        -0.16766E+08
 
   -0.16667E+08         0.14580E+07         0.00000E+00
    0.14580E+07        -0.35286E+08         0.00000E+00
    0.00000E+00         0.00000E+00        -0.16894E+08
 
   -0.16823E+08         0.14757E+07         0.00000E+00
    0.14757E+07        -0.35667E+08         0.00000E+00
    0.00000E+00         0.00000E+00        -0.17017E+08
 
   -0.16976E+08         0.14903E+07         0.00000E+00
    0.14903E+07        -0.36050E+08         0.00000E+00
    0.00000E+00         0.00000E+00        -0.17133E+08
 
   -0.17126E+08         0.15025E+07         0.00000E+00
    0.15025E+07        -0.36434E+08         0.00000E+00
    0.00000E+00         0.00000E+00        -0.17244E+08
 
   -0.17274E+08         0.15118E+07         0.00000E+00
    0.15118E+07        -0.36807E+08         0.00000E+00
    0.00000E+00         0.00000E+00        -0.17368E+08
 
   -0.17418E+08         0.15073E+07         0.00000E+00
    0.15073E+07        -0.37154E+08         0.00000E+00
    0.00000E+00         0.00000E+00        -0.17519E+08
 
   -0.17563E+08         0.15059E+07         0.00000E+00
    0.15059E+07        -0.37499E+08         0.00000E+00
    0.00000E+00         0.00000E+00        -0.17672E+08
 
   -0.17708E+08         0.15057E+07         0.00000E+00
    0.15057E+07        -0.37846E+08         0.00000E+00
    0.00000E+00         0.00000E+00        -0.17821E+08
 
   -0.17854E+08         0.15060E+07         0.00000E+00
    0.15060E+07        -0.38197E+08         0.00000E+00
    0.00000E+00         0.00000E+00        -0.17967E+08
 
   -0.17999E+08         0.15067E+07         0.00000E+00
    0.15067E+07        -0.38550E+08         0.00000E+00
    0.00000E+00         0.00000E+00        -0.18111E+08
 
   -0.18143E+08         0.15075E+07         0.00000E+00
    0.15075E+07        -0.38905E+08         0.00000E+00
    0.00000E+00         0.00000E+00        -0.18251E+08
 
   -0.18288E+08         0.15081E+07         0.00000E+00
    0.15081E+07        -0.39261E+08         0.00000E+00
    0.00000E+00         0.00000E+00        -0.18389E+08
 
   -0.18431E+08         0.15081E+07         0.00000E+00
    0.15081E+07        -0.39619E+08         0.00000E+00
    0.00000E+00         0.00000E+00        -0.18525E+08
 
   -0.18574E+08         0.15072E+07         0.00000E+00
    0.15072E+07        -0.39978E+08         0.00000E+00
    0.00000E+00         0.00000E+00        -0.18658E+08
 
   -0.18716E+08         0.15052E+07         0.00000E+00
    0.15052E+07        -0.40340E+08         0.00000E+00
    0.00000E+00         0.00000E+00        -0.18789E+08
 
   -0.18858E+08         0.15019E+07         0.00000E+00
    0.15019E+07        -0.40702E+08         0.00000E+00
    0.00000E+00         0.00000E+00        -0.18918E+08
 
   -0.19000E+08         0.14972E+07         0.00000E+00
    0.14972E+07        -0.41067E+08         0.00000E+00
    0.00000E+00         0.00000E+00        -0.19044E+08
 
   -0.19143E+08         0.14917E+07         0.00000E+00
    0.14917E+07        -0.41433E+08         0.00000E+00
    0.00000E+00         0.00000E+00        -0.19169E+08
 
   -0.19287E+08         0.14864E+07         0.00000E+00
    0.14864E+07        -0.41797E+08         0.00000E+00
    0.00000E+00         0.00000E+00        -0.19297E+08
 
   -0.19431E+08         0.14728E+07         0.00000E+00
    0.14728E+07        -0.42145E+08         0.00000E+00
    0.00000E+00         0.00000E+00        -0.19444E+08
 
   -0.19577E+08         0.14601E+07         0.00000E+00
    0.14601E+07        -0.42488E+08         0.00000E+00
    0.00000E+00         0.00000E+00        -0.19599E+08
 
   -0.19725E+08         0.14483E+07         0.00000E+00
    0.14483E+07        -0.42834E+08         0.00000E+00
    0.00000E+00         0.00000E+00        -0.19752E+08
 
   -0.19875E+08         0.14373E+07         0.00000E+00
    0.14373E+07        -0.43182E+08         0.00000E+00
    0.00000E+00         0.00000E+00        -0.19905E+08
 
   -0.20027E+08         0.14266E+07         0.00000E+00
    0.14266E+07        -0.43533E+08         0.00000E+00
    0.00000E+00         0.00000E+00        -0.20057E+08
 
   -0.20180E+08         0.14161E+07         0.00000E+00
    0.14161E+07        -0.43886E+08         0.00000E+00
    0.00000E+00         0.00000E+00        -0.20207E+08
 
   -0.20335E+08         0.14056E+07         0.00000E+00
    0.14056E+07        -0.44240E+08         0.00000E+00
    0.00000E+00         0.00000E+00        -0.20357E+08
 
   -0.20492E+08         0.13954E+07         0.00000E+00
    0.13954E+07        -0.44596E+08         0.00000E+00
    0.00000E+00         0.00000E+00        -0.20507E+08
 
   -0.20650E+08         0.13856E+07         0.00000E+00
    0.13856E+07        -0.44951E+08         0.00000E+00
    0.00000E+00         0.00000E+00        -0.20658E+08
 
   -0.20809E+08         0.13730E+07         0.00000E+00
    0.13730E+07        -0.45296E+08         0.00000E+00
    0.00000E+00         0.00000E+00        -0.20821E+08
 
   -0.20970E+08         0.13609E+07         0.00000E+00
    0.13609E+07        -0.45638E+08         0.00000E+00
    0.00000E+00         0.00000E+00        -0.20988E+08
 
   -0.21132E+08         0.13495E+07         0.00000E+00
    0.13495E+07        -0.45982E+08         0.00000E+00
    0.00000E+00         0.00000E+00        -0.21155E+08
 
   -0.21296E+08         0.13389E+07         0.00000E+00
    0.13389E+07        -0.46328E+08         0.00000E+00
    0.00000E+00         0.00000E+00        -0.21321E+08
 
   -0.21461E+08         0.13288E+07         0.00000E+00
    0.13288E+07        -0.46675E+08         0.00000E+00
    0.00000E+00         0.00000E+00        -0.21487E+08
 
   -0.21628E+08         0.13192E+07         0.00000E+00
    0.13192E+07        -0.47023E+08         0.00000E+00
    0.00000E+00         0.00000E+00        -0.21653E+08
 
   -0.21796E+08         0.13101E+07         0.00000E+00
    0.13101E+07        -0.47372E+08         0.00000E+00
    0.00000E+00         0.00000E+00        -0.21819E+08
 
   -0.21965E+08         0.13016E+07         0.00000E+00
    0.13016E+07        -0.47722E+08         0.00000E+00
    0.00000E+00         0.00000E+00        -0.21984E+08
 
   -0.22134E+08         0.12928E+07         0.00000E+00
    0.12928E+07        -0.48067E+08         0.00000E+00
    0.00000E+00         0.00000E+00        -0.22155E+08
 
   -0.22305E+08         0.12839E+07         0.00000E+00
    0.12839E+07        -0.48409E+08         0.00000E+00
    0.00000E+00         0.00000E+00        -0.22329E+08
 
   -0.22477E+08         0.12757E+07         0.00000E+00
    0.12757E+07        -0.48752E+08         0.00000E+00
    0.00000E+00         0.00000E+00        -0.22504E+08
 
   -0.22650E+08         0.12681E+07         0.00000E+00
    0.12681E+07        -0.49096E+08         0.00000E+00
    0.00000E+00         0.00000E+00        -0.22678E+08
 
   -0.22823E+08         0.12611E+07         0.00000E+00
    0.12611E+07        -0.49439E+08         0.00000E+00
    0.00000E+00         0.00000E+00        -0.22852E+08
 
   -0.22997E+08         0.12545E+07         0.00000E+00
    0.12545E+07        -0.49784E+08         0.00000E+00
    0.00000E+00         0.00000E+00        -0.23027E+08
 
   -0.23172E+08         0.12483E+07         0.00000E+00
    0.12483E+07        -0.50128E+08         0.00000E+00
    0.00000E+00         0.00000E+00        -0.23200E+08
 
   -0.23347E+08         0.12424E+07         0.00000E+00
    0.12424E+07        -0.50472E+08         0.00000E+00
    0.00000E+00         0.00000E+00        -0.23374E+08
 
   -0.23522E+08         0.12367E+07         0.00000E+00
    0.12367E+07        -0.50817E+08         0.00000E+00
    0.00000E+00         0.00000E+00        -0.23548E+08
 
   -0.23698E+08         0.12311E+07         0.00000E+00
    0.12311E+07        -0.51162E+08         0.00000E+00
    0.00000E+00         0.00000E+00        -0.23722E+08
 
   -0.23877E+08         0.12252E+07         0.00000E+00
    0.12252E+07        -0.51504E+08         0.00000E+00
    0.00000E+00         0.00000E+00        -0.23898E+08
 
   -0.24058E+08         0.12192E+07         0.00000E+00
    0.12192E+07        -0.51844E+08         0.00000E+00
    0.00000E+00         0.00000E+00        -0.24076E+08
 
   -0.24239E+08         0.12130E+07         0.00000E+00
    0.12130E+07        -0.52184E+08         0.00000E+00
    0.00000E+00         0.00000E+00        -0.24253E+08
 
   -0.24420E+08         0.12067E+07         0.00000E+00
    0.12067E+07        -0.52525E+08         0.00000E+00
    0.00000E+00         0.00000E+00        -0.24431E+08
 
   -0.24602E+08         0.12000E+07         0.00000E+00
    0.12000E+07        -0.52866E+08         0.00000E+00
    0.00000E+00         0.00000E+00        -0.24608E+08
 
   -0.24784E+08         0.11930E+07         0.00000E+00
    0.11930E+07        -0.53207E+08         0.00000E+00
    0.00000E+00         0.00000E+00        -0.24785E+08
 
   -0.24966E+08         0.11856E+07         0.00000E+00
    0.11856E+07        -0.53548E+08         0.00000E+00
    0.00000E+00         0.00000E+00        -0.24962E+08
 
   -0.25149E+08         0.11776E+07         0.00000E+00
    0.11776E+07        -0.53890E+08         0.00000E+00
    0.00000E+00         0.00000E+00        -0.25139E+08
 
   -0.25333E+08         0.11688E+07         0.00000E+00
    0.11688E+07        -0.54232E+08         0.00000E+00
    0.00000E+00         0.00000E+00        -0.25315E+08
 
   -0.25517E+08         0.11593E+07         0.00000E+00
    0.11593E+07        -0.54575E+08         0.00000E+00
    0.00000E+00         0.00000E+00        -0.25492E+08
 
   -0.25703E+08         0.11486E+07         0.00000E+00
    0.11486E+07        -0.54918E+08         0.00000E+00
    0.00000E+00         0.00000E+00        -0.25668E+08
 
   -0.25889E+08         0.11368E+07         0.00000E+00
    0.11368E+07        -0.55263E+08         0.00000E+00
    0.00000E+00         0.00000E+00        -0.25844E+08
 
   -0.26077E+08         0.11235E+07         0.00000E+00
    0.11235E+07        -0.55609E+08         0.00000E+00
    0.00000E+00         0.00000E+00        -0.26021E+08
 
   -0.26266E+08         0.11084E+07         0.00000E+00
    0.11084E+07        -0.55957E+08         0.00000E+00
    0.00000E+00         0.00000E+00        -0.26197E+08
 
   -0.26456E+08         0.10913E+07         0.00000E+00
    0.10913E+07        -0.56307E+08         0.00000E+00
    0.00000E+00         0.00000E+00        -0.26374E+08
 
   -0.26648E+08         0.10718E+07         0.00000E+00
    0.10718E+07        -0.56658E+08         0.00000E+00
    0.00000E+00         0.00000E+00        -0.26551E+08
 
   -0.26843E+08         0.10495E+07         0.00000E+00
    0.10495E+07        -0.57013E+08         0.00000E+00
    0.00000E+00         0.00000E+00        -0.26728E+08
 
   -0.27039E+08         0.10242E+07         0.00000E+00
    0.10242E+07        -0.57370E+08         0.00000E+00
    0.00000E+00         0.00000E+00        -0.26906E+08
 
   -0.27238E+08         0.99541E+06         0.00000E+00
    0.99541E+06        -0.57731E+08         0.00000E+00
    0.00000E+00         0.00000E+00        -0.27085E+08
 
   -0.27438E+08         0.96275E+06         0.00000E+00
    0.96275E+06        -0.58094E+08         0.00000E+00
    0.00000E+00         0.00000E+00        -0.27265E+08
 
   -0.27641E+08         0.92585E+06         0.00000E+00
    0.92585E+06        -0.58461E+08         0.00000E+00
    0.00000E+00         0.00000E+00        -0.27445E+08
 
   -0.27846E+08         0.88436E+06         0.00000E+00
    0.88436E+06        -0.58831E+08         0.00000E+00
    0.00000E+00         0.00000E+00        -0.27627E+08
 
   -0.28052E+08         0.83794E+06         0.00000E+00
    0.83794E+06        -0.59203E+08         0.00000E+00
    0.00000E+00         0.00000E+00        -0.27809E+08
 
   -0.28260E+08         0.78628E+06         0.00000E+00
    0.78628E+06        -0.59576E+08         0.00000E+00
    0.00000E+00         0.00000E+00        -0.27991E+08
 
   -0.28468E+08         0.72910E+06         0.00000E+00
    0.72910E+06        -0.59949E+08         0.00000E+00
    0.00000E+00         0.00000E+00        -0.28172E+08
 
   -0.28676E+08         0.66609E+06         0.00000E+00
    0.66609E+06        -0.60318E+08         0.00000E+00
    0.00000E+00         0.00000E+00        -0.28349E+08
 
   -0.28883E+08         0.59682E+06         0.00000E+00
    0.59682E+06        -0.60680E+08         0.00000E+00
    0.00000E+00         0.00000E+00        -0.28519E+08
 
   -0.29091E+08         0.52056E+06         0.00000E+00
    0.52056E+06        -0.61030E+08         0.00000E+00
    0.00000E+00         0.00000E+00        -0.28678E+08
 
   -0.29300E+08         0.43591E+06         0.00000E+00
    0.43591E+06        -0.61363E+08         0.00000E+00
    0.00000E+00         0.00000E+00        -0.28817E+08
 
   -0.29514E+08         0.34170E+06         0.00000E+00
    0.34170E+06        -0.61673E+08         0.00000E+00
    0.00000E+00         0.00000E+00        -0.28927E+08
 
   -0.29745E+08         0.24057E+06         0.00000E+00
    0.24057E+06        -0.61955E+08         0.00000E+00
    0.00000E+00         0.00000E+00        -0.28995E+08
 
   -0.30004E+08         0.14010E+06         0.00000E+00
    0.14010E+06        -0.62215E+08         0.00000E+00
    0.00000E+00         0.00000E+00        -0.29016E+08
 
   -0.30302E+08         0.45613E+05         0.00000E+00
    0.45613E+05        -0.62468E+08         0.00000E+00
    0.00000E+00         0.00000E+00        -0.28996E+08
 
   -0.12787E+08         0.43512E+05         0.00000E+00
    0.43512E+05        -0.27732E+08         0.00000E+00
    0.00000E+00         0.00000E+00        -0.14646E+08
 
   -0.13082E+08         0.15199E+06         0.00000E+00
    0.15199E+06        -0.27875E+08         0.00000E+00
    0.00000E+00         0.00000E+00        -0.14646E+08
 
   -0.13328E+08         0.28988E+06         0.00000E+00
    0.28988E+06        -0.28108E+08         0.00000E+00
    0.00000E+00         0.00000E+00        -0.14646E+08
 
   -0.13538E+08         0.43073E+06         0.00000E+00
    0.43073E+06        -0.28399E+08         0.00000E+00
    0.00000E+00         0.00000E+00        -0.14646E+08
 
   -0.13717E+08         0.56176E+06         0.00000E+00
    0.56176E+06        -0.28741E+08         0.00000E+00
    0.00000E+00         0.00000E+00        -0.14646E+08
 
   -0.13877E+08         0.68077E+06         0.00000E+00
    0.68077E+06        -0.29128E+08         0.00000E+00
    0.00000E+00         0.00000E+00        -0.14646E+08
 
   -0.14026E+08         0.78771E+06         0.00000E+00
    0.78771E+06        -0.29550E+08         0.00000E+00
    0.00000E+00         0.00000E+00        -0.14646E+08
 
   -0.14174E+08         0.87750E+06         0.00000E+00
    0.87750E+06        -0.29998E+08         0.00000E+00
    0.00000E+00         0.00000E+00        -0.14646E+08
 
   -0.14320E+08         0.94978E+06         0.00000E+00
    0.94978E+06        -0.30428E+08         0.00000E+00
    0.00000E+00         0.00000E+00        -0.14703E+08
 
   -0.14464E+08         0.97872E+06         0.00000E+00
    0.97872E+06        -0.30787E+08         0.00000E+00
    0.00000E+00         0.00000E+00        -0.14870E+08
 
   -0.14629E+08         0.10284E+07         0.00000E+00
    0.10284E+07        -0.31140E+08         0.00000E+00
    0.00000E+00         0.00000E+00        -0.15072E+08
 
   -0.14809E+08         0.10770E+07         0.00000E+00
    0.10770E+07        -0.31508E+08         0.00000E+00
    0.00000E+00         0.00000E+00        -0.15271E+08
 
   -0.14998E+08         0.11218E+07         0.00000E+00
    0.11218E+07        -0.31883E+08         0.00000E+00
    0.00000E+00         0.00000E+00        -0.15466E+08
 
   -0.15193E+08         0.11643E+07         0.00000E+00
    0.11643E+07        -0.32262E+08         0.00000E+00
    0.00000E+00         0.00000E+00        -0.15654E+08
 
   -0.15389E+08         0.12050E+07         0.00000E+00
    0.12050E+07        -0.32641E+08         0.00000E+00
    0.00000E+00         0.00000E+00        -0.15834E+08
 
   -0.15582E+08         0.12438E+07         0.00000E+00
    0.12438E+07        -0.33020E+08         0.00000E+00
    0.00000E+00         0.00000E+00        -0.16007E+08
 
   -0.15772E+08         0.12805E+07         0.00000E+00
    0.12805E+07        -0.33399E+08         0.00000E+00
    0.00000E+00         0.00000E+00        -0.16171E+08
 
   -0.15957E+08         0.13147E+07         0.00000E+00
    0.13147E+07        -0.33777E+08         0.00000E+00
    0.00000E+00         0.00000E+00        -0.16328E+08
 
   -0.16136E+08         0.13459E+07         0.00000E+00
    0.13459E+07        -0.34155E+08         0.00000E+00
    0.00000E+00         0.00000E+00        -0.16477E+08
 
   -0.16310E+08         0.13737E+07         0.00000E+00
    0.13737E+07        -0.34533E+08         0.00000E+00
    0.00000E+00         0.00000E+00        -0.16618E+08
 
   -0.16478E+08         0.13979E+07         0.00000E+00
    0.13979E+07        -0.34911E+08         0.00000E+00
    0.00000E+00         0.00000E+00        -0.16753E+08
 
   -0.16640E+08         0.14182E+07         0.00000E+00
    0.14182E+07        -0.35290E+08         0.00000E+00
    0.00000E+00         0.00000E+00        -0.16881E+08
 
   -0.16798E+08         0.14350E+07         0.00000E+00
    0.14350E+07        -0.35670E+08         0.00000E+00
    0.00000E+00         0.00000E+00        -0.17003E+08
 
   -0.16952E+08         0.14492E+07         0.00000E+00
    0.14492E+07        -0.36052E+08         0.00000E+00
    0.00000E+00         0.00000E+00        -0.17120E+08
 
   -0.17104E+08         0.14612E+07         0.00000E+00
    0.14612E+07        -0.36436E+08         0.00000E+00
    0.00000E+00         0.00000E+00        -0.17231E+08
 
   -0.17253E+08         0.14694E+07         0.00000E+00
    0.14694E+07        -0.36808E+08         0.00000E+00
    0.00000E+00         0.00000E+00        -0.17356E+08
 
   -0.17398E+08         0.14650E+07         0.00000E+00
    0.14650E+07        -0.37154E+08         0.00000E+00
    0.00000E+00         0.00000E+00        -0.17509E+08
 
   -0.17544E+08         0.14638E+07         0.00000E+00
    0.14638E+07        -0.37499E+08         0.00000E+00
    0.00000E+00         0.00000E+00        -0.17662E+08
 
   -0.17690E+08         0.14636E+07         0.00000E+00
    0.14636E+07        -0.37846E+08         0.00000E+00
    0.00000E+00         0.00000E+00        -0.17811E+08
 
   -0.17835E+08         0.14640E+07         0.00000E+00
    0.14640E+07        -0.38197E+08         0.00000E+00
    0.00000E+00         0.00000E+00        -0.17957E+08
 
   -0.17981E+08         0.14646E+07         0.00000E+00
    0.14646E+07        -0.38550E+08         0.00000E+00
    0.00000E+00         0.00000E+00        -0.18101E+08
 
   -0.18126E+08         0.14654E+07         0.00000E+00
    0.14654E+07        -0.38905E+08         0.00000E+00
    0.00000E+00         0.00000E+00        -0.18241E+08
 
   -0.18271E+08         0.14660E+07         0.00000E+00
    0.14660E+07        -0.39261E+08         0.00000E+00
    0.00000E+00         0.00000E+00        -0.18380E+08
 
   -0.18415E+08         0.14659E+07         0.00000E+00
    0.14659E+07        -0.39619E+08         0.00000E+00
    0.00000E+00         0.00000E+00        -0.18515E+08
 
   -0.18558E+08         0.14650E+07         0.00000E+00
    0.14650E+07        -0.39978E+08         0.00000E+00
    0.00000E+00         0.00000E+00        -0.18649E+08
 
   -0.18702E+08         0.14629E+07         0.00000E+00
    0.14629E+07        -0.40339E+08         0.00000E+00
    0.00000E+00         0.00000E+00        -0.18780E+08
 
   -0.18844E+08         0.14597E+07         0.00000E+00
    0.14597E+07        -0.40702E+08         0.00000E+00
    0.00000E+00         0.00000E+00        -0.18909E+08
 
   -0.18988E+08         0.14552E+07         0.00000E+00
    0.14552E+07        -0.41066E+08         0.00000E+00
    0.00000E+00         0.00000E+00        -0.19036E+08
 
   -0.19132E+08         0.14500E+07         0.00000E+00
    0.14500E+07        -0.41432E+08         0.00000E+00
    0.00000E+00         0.00000E+00        -0.19161E+08
 
   -0.19277E+08         0.14449E+07         0.00000E+00
    0.14449E+07        -0.41795E+08         0.00000E+00
    0.00000E+00         0.00000E+00        -0.19290E+08
 
   -0.19422E+08         0.14315E+07         0.00000E+00
    0.14315E+07        -0.42142E+08         0.00000E+00
    0.00000E+00         0.00000E+00        -0.19439E+08
 
   -0.19568E+08         0.14192E+07         0.00000E+00
    0.14192E+07        -0.42485E+08         0.00000E+00
    0.00000E+00         0.00000E+00        -0.19593E+08
 
   -0.19717E+08         0.14080E+07         0.00000E+00
    0.14080E+07        -0.42831E+08         0.00000E+00
    0.00000E+00         0.00000E+00        -0.19747E+08
 
   -0.19867E+08         0.13973E+07         0.00000E+00
    0.13973E+07        -0.43180E+08         0.00000E+00
    0.00000E+00         0.00000E+00        -0.19900E+08
 
   -0.20019E+08         0.13870E+07         0.00000E+00
    0.13870E+07        -0.43531E+08         0.00000E+00
    0.00000E+00         0.00000E+00        -0.20051E+08
 
   -0.20173E+08         0.13769E+07         0.00000E+00
    0.13769E+07        -0.43884E+08         0.00000E+00
    0.00000E+00         0.00000E+00        -0.20202E+08
 
   -0.20328E+08         0.13668E+07         0.00000E+00
    0.13668E+07        -0.44238E+08         0.00000E+00
    0.00000E+00         0.00000E+00        -0.20353E+08
 
   -0.20485E+08         0.13570E+07         0.00000E+00
    0.13570E+07        -0.44594E+08         0.00000E+00
    0.00000E+00         0.00000E+00        -0.20502E+08
 
   -0.20643E+08         0.13475E+07         0.00000E+00
    0.13475E+07        -0.44949E+08         0.00000E+00
    0.00000E+00         0.00000E+00        -0.20654E+08
 
   -0.20803E+08         0.13352E+07         0.00000E+00
    0.13352E+07        -0.45293E+08         0.00000E+00
    0.00000E+00         0.00000E+00        -0.20817E+08
 
   -0.20964E+08         0.13235E+07         0.00000E+00
    0.13235E+07        -0.45636E+08         0.00000E+00
    0.00000E+00         0.00000E+00        -0.20984E+08
 
   -0.21126E+08         0.13126E+07         0.00000E+00
    0.13126E+07        -0.45980E+08         0.00000E+00
    0.00000E+00         0.00000E+00        -0.21151E+08
 
   -0.21290E+08         0.13022E+07         0.00000E+00
    0.13022E+07        -0.46326E+08         0.00000E+00
    0.00000E+00         0.00000E+00        -0.21317E+08
 
   -0.21456E+08         0.12925E+07         0.00000E+00
    0.12925E+07        -0.46673E+08         0.00000E+00
    0.00000E+00         0.00000E+00        -0.21484E+08
 
   -0.21622E+08         0.12832E+07         0.00000E+00
    0.12832E+07        -0.47022E+08         0.00000E+00
    0.00000E+00         0.00000E+00        -0.21649E+08
 
   -0.21790E+08         0.12744E+07         0.00000E+00
    0.12744E+07        -0.47370E+08         0.00000E+00
    0.00000E+00         0.00000E+00        -0.21815E+08
 
   -0.21959E+08         0.12661E+07         0.00000E+00
    0.12661E+07        -0.47720E+08         0.00000E+00
    0.00000E+00         0.00000E+00        -0.21980E+08
 
   -0.22129E+08         0.12575E+07         0.00000E+00
    0.12575E+07        -0.48065E+08         0.00000E+00
    0.00000E+00         0.00000E+00        -0.22152E+08
 
   -0.22300E+08         0.12489E+07         0.00000E+00
    0.12489E+07        -0.48408E+08         0.00000E+00
    0.00000E+00         0.00000E+00        -0.22326E+08
 
   -0.22472E+08         0.12410E+07         0.00000E+00
    0.12410E+07        -0.48751E+08         0.00000E+00
    0.00000E+00         0.00000E+00        -0.22501E+08
 
   -0.22645E+08         0.12336E+07         0.00000E+00
    0.12336E+07        -0.49094E+08         0.00000E+00
    0.00000E+00         0.00000E+00        -0.22675E+08
 
   -0.22818E+08         0.12267E+07         0.00000E+00
    0.12267E+07        -0.49438E+08         0.00000E+00
    0.00000E+00         0.00000E+00        -0.22849E+08
 
   -0.22992E+08         0.12204E+07         0.00000E+00
    0.12204E+07        -0.49782E+08         0.00000E+00
    0.00000E+00         0.00000E+00        -0.23023E+08
 
   -0.23167E+08         0.12143E+07         0.00000E+00
    0.12143E+07        -0.50127E+08         0.00000E+00
    0.00000E+00         0.00000E+00        -0.23197E+08
 
   -0.23342E+08         0.12086E+07         0.00000E+00
    0.12086E+07        -0.50471E+08         0.00000E+00
    0.00000E+00         0.00000E+00        -0.23371E+08
 
   -0.23518E+08         0.12030E+07         0.00000E+00
    0.12030E+07        -0.50816E+08         0.00000E+00
    0.00000E+00         0.00000E+00        -0.23544E+08
 
   -0.23694E+08         0.11974E+07         0.00000E+00
    0.11974E+07        -0.51160E+08         0.00000E+00
    0.00000E+00         0.00000E+00        -0.23718E+08
 
   -0.23873E+08         0.11917E+07         0.00000E+00
    0.11917E+07        -0.51502E+08         0.00000E+00
    0.00000E+00         0.00000E+00        -0.23894E+08
 
   -0.24054E+08         0.11858E+07         0.00000E+00
    0.11858E+07        -0.51842E+08         0.00000E+00
    0.00000E+00         0.00000E+00        -0.24072E+08
 
   -0.24235E+08         0.11798E+07         0.00000E+00
    0.11798E+07        -0.52183E+08         0.00000E+00
    0.00000E+00         0.00000E+00        -0.24249E+08
 
   -0.24416E+08         0.11735E+07         0.00000E+00
    0.11735E+07        -0.52523E+08         0.00000E+00
    0.00000E+00         0.00000E+00        -0.24427E+08
 
   -0.24598E+08         0.11670E+07         0.00000E+00
    0.11670E+07        -0.52864E+08         0.00000E+00
    0.00000E+00         0.00000E+00        -0.24604E+08
 
   -0.24781E+08         0.11602E+07         0.00000E+00
    0.11602E+07        -0.53205E+08         0.00000E+00
    0.00000E+00         0.00000E+00        -0.24781E+08
 
   -0.24963E+08         0.11529E+07         0.00000E+00
    0.11529E+07        -0.53546E+08         0.00000E+00
    0.00000E+00         0.00000E+00        -0.24957E+08
 
   -0.25147E+08         0.11451E+07         0.00000E+00
    0.11451E+07        -0.53888E+08         0.00000E+00
    0.00000E+00         0.00000E+00        -0.25134E+08
 
   -0.25331E+08         0.11366E+07         0.00000E+00
    0.11366E+07        -0.54230E+08         0.00000E+00
    0.00000E+00         0.00000E+00        -0.25310E+08
 
   -0.25515E+08         0.11272E+07         0.00000E+00
    0.11272E+07        -0.54572E+08         0.00000E+00
    0.00000E+00         0.00000E+00        -0.25486E+08
 
   -0.25701E+08         0.11169E+07         0.00000E+00
    0.11169E+07        -0.54916E+08         0.00000E+00
    0.00000E+00         0.00000E+00        -0.25662E+08
 
   -0.25887E+08         0.11053E+07         0.00000E+00
    0.11053E+07        -0.55260E+08         0.00000E+00
    0.00000E+00         0.00000E+00        -0.25838E+08
 
   -0.26075E+08         0.10923E+07         0.00000E+00
    0.10923E+07        -0.55606E+08         0.00000E+00
    0.00000E+00         0.00000E+00        -0.26014E+08
 
   -0.26265E+08         0.10776E+07         0.00000E+00
    0.10776E+07        -0.55953E+08         0.00000E+00
    0.00000E+00         0.00000E+00        -0.26190E+08
 
   -0.26455E+08         0.10609E+07         0.00000E+00
    0.10609E+07        -0.56302E+08         0.00000E+00
    0.00000E+00         0.00000E+00        -0.26365E+08
 
   -0.26648E+08         0.10419E+07         0.00000E+00
    0.10419E+07        -0.56654E+08         0.00000E+00
    0.00000E+00         0.00000E+00        -0.26542E+08
 
   -0.26843E+08         0.10201E+07         0.00000E+00
    0.10201E+07        -0.57008E+08         0.00000E+00
    0.00000E+00         0.00000E+00        -0.26718E+08
 
   -0.27040E+08         0.99529E+06         0.00000E+00
    0.99529E+06        -0.57364E+08         0.00000E+00
    0.00000E+00         0.00000E+00        -0.26895E+08
 
   -0.27239E+08         0.96699E+06         0.00000E+00
    0.96699E+06        -0.57724E+08         0.00000E+00
    0.00000E+00         0.00000E+00        -0.27073E+08
 
   -0.27440E+08         0.93483E+06         0.00000E+00
    0.93483E+06        -0.58087E+08         0.00000E+00
    0.00000E+00         0.00000E+00        -0.27252E+08
 
   -0.27643E+08         0.89841E+06         0.00000E+00
    0.89841E+06        -0.58453E+08         0.00000E+00
    0.00000E+00         0.00000E+00        -0.27431E+08
 
   -0.27849E+08         0.85733E+06         0.00000E+00
    0.85733E+06        -0.58822E+08         0.00000E+00
    0.00000E+00         0.00000E+00        -0.27612E+08
 
   -0.28056E+08         0.81124E+06         0.00000E+00
    0.81124E+06        -0.59193E+08         0.00000E+00
    0.00000E+00         0.00000E+00        -0.27792E+08
 
   -0.28264E+08         0.75979E+06         0.00000E+00
    0.75979E+06        -0.59565E+08         0.00000E+00
    0.00000E+00         0.00000E+00        -0.27973E+08
 
   -0.28474E+08         0.70269E+06         0.00000E+00
    0.70269E+06        -0.59937E+08         0.00000E+00
    0.00000E+00         0.00000E+00        -0.28151E+08
 
   -0.28683E+08         0.63964E+06         0.00000E+00
    0.63964E+06        -0.60305E+08         0.00000E+00
    0.00000E+00         0.00000E+00        -0.28326E+08
 
   -0.28892E+08         0.57032E+06         0.00000E+00
    0.57032E+06        -0.60666E+08         0.00000E+00
    0.00000E+00         0.00000E+00        -0.28494E+08
 
   -0.29102E+08         0.49415E+06         0.00000E+00
    0.49415E+06        -0.61015E+08         0.00000E+00
    0.00000E+00         0.00000E+00        -0.28650E+08
 
   -0.29313E+08         0.41017E+06         0.00000E+00
    0.41017E+06        -0.61346E+08         0.00000E+00
    0.00000E+00         0.00000E+00        -0.28785E+08
 
   -0.29532E+08         0.31826E+06         0.00000E+00
    0.31826E+06        -0.61655E+08         0.00000E+00
    0.00000E+00         0.00000E+00        -0.28890E+08
 
   -0.29768E+08         0.22203E+06         0.00000E+00
    0.22203E+06        -0.61937E+08         0.00000E+00
    0.00000E+00         0.00000E+00        -0.28954E+08
 
   -0.30033E+08         0.12864E+06         0.00000E+00
    0.12864E+06        -0.62199E+08         0.00000E+00
    0.00000E+00         0.00000E+00        -0.28971E+08
 
   -0.30334E+08         0.41826E+05         0.00000E+00
    0.41826E+05        -0.62453E+08         0.00000E+00
    0.00000E+00         0.00000E+00        -0.28950E+08
 
   -0.12673E+08         0.36098E+05         0.00000E+00
    0.36098E+05        -0.27748E+08         0.00000E+00
    0.00000E+00         0.00000E+00        -0.14646E+08
 
   -0.12975E+08         0.13351E+06         0.00000E+00
    0.13351E+06        -0.27900E+08         0.00000E+00
    0.00000E+00         0.00000E+00        -0.14646E+08
 
   -0.13232E+08         0.26433E+06         0.00000E+00
    0.26433E+06        -0.28137E+08         0.00000E+00
    0.00000E+00         0.00000E+00        -0.14646E+08
 
   -0.13454E+08         0.39813E+06         0.00000E+00
    0.39813E+06        -0.28425E+08         0.00000E+00
    0.00000E+00         0.00000E+00        -0.14646E+08
 
   -0.13644E+08         0.52402E+06         0.00000E+00
    0.52402E+06        -0.28766E+08         0.00000E+00
    0.00000E+00         0.00000E+00        -0.14646E+08
 
   -0.13813E+08         0.63982E+06         0.00000E+00
    0.63982E+06        -0.29151E+08         0.00000E+00
    0.00000E+00         0.00000E+00        -0.14646E+08
 
   -0.13970E+08         0.74558E+06         0.00000E+00
    0.74558E+06        -0.29570E+08         0.00000E+00
    0.00000E+00         0.00000E+00        -0.14646E+08
 
   -0.14126E+08         0.83621E+06         0.00000E+00
    0.83621E+06        -0.30013E+08         0.00000E+00
    0.00000E+00         0.00000E+00        -0.14646E+08
 
   -0.14277E+08         0.90597E+06         0.00000E+00
    0.90597E+06        -0.30436E+08         0.00000E+00
    0.00000E+00         0.00000E+00        -0.14712E+08
 
   -0.14428E+08         0.93785E+06         0.00000E+00
    0.93785E+06        -0.30797E+08         0.00000E+00
    0.00000E+00         0.00000E+00        -0.14883E+08
 
   -0.14598E+08         0.99128E+06         0.00000E+00
    0.99128E+06        -0.31150E+08         0.00000E+00
    0.00000E+00         0.00000E+00        -0.15080E+08
 
   -0.14780E+08         0.10420E+07         0.00000E+00
    0.10420E+07        -0.31517E+08         0.00000E+00
    0.00000E+00         0.00000E+00        -0.15275E+08
 
   -0.14970E+08         0.10883E+07         0.00000E+00
    0.10883E+07        -0.31892E+08         0.00000E+00
    0.00000E+00         0.00000E+00        -0.15466E+08
 
   -0.15164E+08         0.11314E+07         0.00000E+00
    0.11314E+07        -0.32270E+08         0.00000E+00
    0.00000E+00         0.00000E+00        -0.15651E+08
 
   -0.15360E+08         0.11719E+07         0.00000E+00
    0.11719E+07        -0.32649E+08         0.00000E+00
    0.00000E+00         0.00000E+00        -0.15829E+08
 
   -0.15553E+08         0.12102E+07         0.00000E+00
    0.12102E+07        -0.33028E+08         0.00000E+00
    0.00000E+00         0.00000E+00        -0.16000E+08
 
   -0.15743E+08         0.12461E+07         0.00000E+00
    0.12461E+07        -0.33406E+08         0.00000E+00
    0.00000E+00         0.00000E+00        -0.16163E+08
 
   -0.15928E+08         0.12793E+07         0.00000E+00
    0.12793E+07        -0.33784E+08         0.00000E+00
    0.00000E+00         0.00000E+00        -0.16318E+08
 
   -0.16107E+08         0.13095E+07         0.00000E+00
    0.13095E+07        -0.34161E+08         0.00000E+00
    0.00000E+00         0.00000E+00        -0.16466E+08
 
   -0.16282E+08         0.13362E+07         0.00000E+00
    0.13362E+07        -0.34538E+08         0.00000E+00
    0.00000E+00         0.00000E+00        -0.16606E+08
 
   -0.16451E+08         0.13594E+07         0.00000E+00
    0.13594E+07        -0.34915E+08         0.00000E+00
    0.00000E+00         0.00000E+00        -0.16740E+08
 
   -0.16615E+08         0.13787E+07         0.00000E+00
    0.13787E+07        -0.35293E+08         0.00000E+00
    0.00000E+00         0.00000E+00        -0.16868E+08
 
   -0.16774E+08         0.13947E+07         0.00000E+00
    0.13947E+07        -0.35673E+08         0.00000E+00
    0.00000E+00         0.00000E+00        -0.16990E+08
 
   -0.16929E+08         0.14083E+07         0.00000E+00
    0.14083E+07        -0.36055E+08         0.00000E+00
    0.00000E+00         0.00000E+00        -0.17106E+08
 
   -0.17083E+08         0.14201E+07         0.00000E+00
    0.14201E+07        -0.36438E+08         0.00000E+00
    0.00000E+00         0.00000E+00        -0.17217E+08
 
   -0.17231E+08         0.14270E+07         0.00000E+00
    0.14270E+07        -0.36808E+08         0.00000E+00
    0.00000E+00         0.00000E+00        -0.17344E+08
 
   -0.17378E+08         0.14230E+07         0.00000E+00
    0.14230E+07        -0.37153E+08         0.00000E+00
    0.00000E+00         0.00000E+00        -0.17499E+08
 
   -0.17525E+08         0.14217E+07         0.00000E+00
    0.14217E+07        -0.37498E+08         0.00000E+00
    0.00000E+00         0.00000E+00        -0.17652E+08
 
   -0.17671E+08         0.14216E+07         0.00000E+00
    0.14216E+07        -0.37846E+08         0.00000E+00
    0.00000E+00         0.00000E+00        -0.17801E+08
 
   -0.17818E+08         0.14220E+07         0.00000E+00
    0.14220E+07        -0.38197E+08         0.00000E+00
    0.00000E+00         0.00000E+00        -0.17947E+08
 
   -0.17963E+08         0.14227E+07         0.00000E+00
    0.14227E+07        -0.38550E+08         0.00000E+00
    0.00000E+00         0.00000E+00        -0.18091E+08
 
   -0.18109E+08         0.14234E+07         0.00000E+00
    0.14234E+07        -0.38905E+08         0.00000E+00
    0.00000E+00         0.00000E+00        -0.18232E+08
 
   -0.18254E+08         0.14239E+07         0.00000E+00
    0.14239E+07        -0.39261E+08         0.00000E+00
    0.00000E+00         0.00000E+00        -0.18370E+08
 
   -0.18399E+08         0.14239E+07         0.00000E+00
    0.14239E+07        -0.39619E+08         0.00000E+00
    0.00000E+00         0.00000E+00        -0.18506E+08
 
   -0.18543E+08         0.14229E+07         0.00000E+00
    0.14229E+07        -0.39978E+08         0.00000E+00
    0.00000E+00         0.00000E+00        -0.18639E+08
 
   -0.18687E+08         0.14209E+07         0.00000E+00
    0.14209E+07        -0.40339E+08         0.00000E+00
    0.00000E+00         0.00000E+00        -0.18771E+08
 
   -0.18831E+08         0.14177E+07         0.00000E+00
    0.14177E+07        -0.40701E+08         0.00000E+00
    0.00000E+00         0.00000E+00        -0.18900E+08
 
   -0.18976E+08         0.14135E+07         0.00000E+00
    0.14135E+07        -0.41065E+08         0.00000E+00
    0.00000E+00         0.00000E+00        -0.19027E+08
 
   -0.19121E+08         0.14085E+07         0.00000E+00
    0.14085E+07        -0.41431E+08         0.00000E+00
    0.00000E+00         0.00000E+00        -0.19152E+08
 
   -0.19266E+08         0.14035E+07         0.00000E+00
    0.14035E+07        -0.41794E+08         0.00000E+00
    0.00000E+00         0.00000E+00        -0.19283E+08
 
   -0.19412E+08         0.13902E+07         0.00000E+00
    0.13902E+07        -0.42139E+08         0.00000E+00
    0.00000E+00         0.00000E+00        -0.19433E+08
 
   -0.19559E+08         0.13784E+07         0.00000E+00
    0.13784E+07        -0.42483E+08         0.00000E+00
    0.00000E+00         0.00000E+00        -0.19588E+08
 
   -0.19708E+08         0.13677E+07         0.00000E+00
    0.13677E+07        -0.42829E+08         0.00000E+00
    0.00000E+00         0.00000E+00        -0.19742E+08
 
   -0.19859E+08         0.13575E+07         0.00000E+00
    0.13575E+07        -0.43178E+08         0.00000E+00
    0.00000E+00         0.00000E+00        -0.19895E+08
 
   -0.20011E+08         0.13476E+07         0.00000E+00
    0.13476E+07        -0.43529E+08         0.00000E+00
    0.00000E+00         0.00000E+00        -0.20046E+08
 
   -0.20165E+08         0.13378E+07         0.00000E+00
    0.13378E+07        -0.43882E+08         0.00000E+00
    0.00000E+00         0.00000E+00        -0.20197E+08
 
   -0.20321E+08         0.13281E+07         0.00000E+00
    0.13281E+07        -0.44236E+08         0.00000E+00
    0.00000E+00         0.00000E+00        -0.20348E+08
 
   -0.20478E+08         0.13186E+07         0.00000E+00
    0.13186E+07        -0.44592E+08         0.00000E+00
    0.00000E+00         0.00000E+00        -0.20497E+08
 
   -0.20637E+08         0.13094E+07         0.00000E+00
    0.13094E+07        -0.44947E+08         0.00000E+00
    0.00000E+00         0.00000E+00        -0.20649E+08
 
   -0.20797E+08         0.12975E+07         0.00000E+00
    0.12975E+07        -0.45291E+08         0.00000E+00
    0.00000E+00         0.00000E+00        -0.20813E+08
 
   -0.20958E+08         0.12862E+07         0.00000E+00
    0.12862E+07        -0.45634E+08         0.00000E+00
    0.00000E+00         0.00000E+00        -0.20981E+08
 
   -0.21120E+08         0.12756E+07         0.00000E+00
    0.12756E+07        -0.45978E+08         0.00000E+00
    0.00000E+00         0.00000E+00        -0.21147E+08
 
   -0.21285E+08         0.12656E+07         0.00000E+00
    0.12656E+07        -0.46324E+08         0.00000E+00
    0.00000E+00         0.00000E+00        -0.21314E+08
 
   -0.21450E+08         0.12562E+07         0.00000E+00
    0.12562E+07        -0.46671E+08         0.00000E+00
    0.00000E+00         0.00000E+00        -0.21480E+08
 
   -0.21617E+08         0.12472E+07         0.00000E+00
    0.12472E+07        -0.47020E+08         0.00000E+00
    0.00000E+00         0.00000E+00        -0.21646E+08
 
   -0.21785E+08         0.12386E+07         0.00000E+00
    0.12386E+07        -0.47369E+08         0.00000E+00
    0.00000E+00         0.00000E+00        -0.21811E+08
 
   -0.21954E+08         0.12307E+07         0.00000E+00
    0.12307E+07        -0.47719E+08         0.00000E+00
    0.00000E+00         0.00000E+00        -0.21977E+08
 
   -0.22124E+08         0.12223E+07         0.00000E+00
    0.12223E+07        -0.48064E+08         0.00000E+00
    0.00000E+00         0.00000E+00        -0.22148E+08
 
   -0.22295E+08         0.12140E+07         0.00000E+00
    0.12140E+07        -0.48406E+08         0.00000E+00
    0.00000E+00         0.00000E+00        -0.22323E+08
 
   -0.22467E+08         0.12062E+07         0.00000E+00
    0.12062E+07        -0.48749E+08         0.00000E+00
    0.00000E+00         0.00000E+00        -0.22497E+08
 
   -0.22640E+08         0.11991E+07         0.00000E+00
    0.11991E+07        -0.49093E+08         0.00000E+00
    0.00000E+00         0.00000E+00        -0.22672E+08
 
   -0.22813E+08         0.11924E+07         0.00000E+00
    0.11924E+07        -0.49437E+08         0.00000E+00
    0.00000E+00         0.00000E+00        -0.22846E+08
 
   -0.22987E+08         0.11862E+07         0.00000E+00
    0.11862E+07        -0.49781E+08         0.00000E+00
    0.00000E+00         0.00000E+00        -0.23020E+08
 
   -0.23162E+08         0.11803E+07         0.00000E+00
    0.11803E+07        -0.50126E+08         0.00000E+00
    0.00000E+00         0.00000E+00        -0.23194E+08
 
   -0.23337E+08         0.11747E+07         0.00000E+00
    0.11747E+07        -0.50470E+08         0.00000E+00
    0.00000E+00         0.00000E+00        -0.23367E+08
 
   -0.23513E+08         0.11692E+07         0.00000E+00
    0.11692E+07        -0.50815E+08         0.00000E+00
    0.00000E+00         0.00000E+00        -0.23541E+08
 
   -0.23689E+08         0.11638E+07         0.00000E+00
    0.11638E+07        -0.51159E+08         0.00000E+00
    0.00000E+00         0.00000E+00        -0.23714E+08
 
   -0.23869E+08         0.11582E+07         0.00000E+00
    0.11582E+07        -0.51501E+08         0.00000E+00
    0.00000E+00         0.00000E+00        -0.23891E+08
 
   -0.24050E+08         0.11524E+07         0.00000E+00
    0.11524E+07        -0.51841E+08         0.00000E+00
    0.00000E+00         0.00000E+00        -0.24068E+08
 
   -0.24231E+08         0.11465E+07         0.00000E+00
    0.11465E+07        -0.52181E+08         0.00000E+00
    0.00000E+00         0.00000E+00        -0.24246E+08
 
   -0.24413E+08         0.11404E+07         0.00000E+00
    0.11404E+07        -0.52522E+08         0.00000E+00
    0.00000E+00         0.00000E+00        -0.24423E+08
 
   -0.24595E+08         0.11341E+07         0.00000E+00
    0.11341E+07        -0.52862E+08         0.00000E+00
    0.00000E+00         0.00000E+00        -0.24600E+08
 
   -0.24778E+08         0.11274E+07         0.00000E+00
    0.11274E+07        -0.53203E+08         0.00000E+00
    0.00000E+00         0.00000E+00        -0.24776E+08
 
   -0.24961E+08         0.11203E+07         0.00000E+00
    0.11203E+07        -0.53544E+08         0.00000E+00
    0.00000E+00         0.00000E+00        -0.24953E+08
 
   -0.25144E+08         0.11126E+07         0.00000E+00
    0.11126E+07        -0.53886E+08         0.00000E+00
    0.00000E+00         0.00000E+00        -0.25129E+08
 
   -0.25328E+08         0.11043E+07         0.00000E+00
    0.11043E+07        -0.54227E+08         0.00000E+00
    0.00000E+00         0.00000E+00        -0.25305E+08
 
   -0.25513E+08         0.10952E+07         0.00000E+00
    0.10952E+07        -0.54570E+08         0.00000E+00
    0.00000E+00         0.00000E+00        -0.25481E+08
 
   -0.25699E+08         0.10852E+07         0.00000E+00
    0.10852E+07        -0.54913E+08         0.00000E+00
    0.00000E+00         0.00000E+00        -0.25656E+08
 
   -0.25886E+08         0.10739E+07         0.00000E+00
    0.10739E+07        -0.55257E+08         0.00000E+00
    0.00000E+00         0.00000E+00        -0.25832E+08
 
   -0.26074E+08         0.10613E+07         0.00000E+00
    0.10613E+07        -0.55603E+08         0.00000E+00
    0.00000E+00         0.00000E+00        -0.26007E+08
 
   -0.26264E+08         0.10469E+07         0.00000E+00
    0.10469E+07        -0.55950E+08         0.00000E+00
    0.00000E+00         0.00000E+00        -0.26182E+08
 
   -0.26455E+08         0.10306E+07         0.00000E+00
    0.10306E+07        -0.56299E+08         0.00000E+00
    0.00000E+00         0.00000E+00        -0.26357E+08
 
   -0.26648E+08         0.10120E+07         0.00000E+00
    0.10120E+07        -0.56649E+08         0.00000E+00
    0.00000E+00         0.00000E+00        -0.26533E+08
 
   -0.26843E+08         0.99078E+06         0.00000E+00
    0.99078E+06        -0.57003E+08         0.00000E+00
    0.00000E+00         0.00000E+00        -0.26709E+08
 
   -0.27041E+08         0.96646E+06         0.00000E+00
    0.96646E+06        -0.57359E+08         0.00000E+00
    0.00000E+00         0.00000E+00        -0.26885E+08
 
   -0.27240E+08         0.93869E+06         0.00000E+00
    0.93869E+06        -0.57718E+08         0.00000E+00
    0.00000E+00         0.00000E+00        -0.27061E+08
 
   -0.27442E+08         0.90704E+06         0.00000E+00
    0.90704E+06        -0.58080E+08         0.00000E+00
    0.00000E+00         0.00000E+00        -0.27239E+08
 
   -0.27646E+08         0.87111E+06         0.00000E+00
    0.87111E+06        -0.58445E+08         0.00000E+00
    0.00000E+00         0.00000E+00        -0.27417E+08
 
   -0.27852E+08         0.83047E+06         0.00000E+00
    0.83047E+06        -0.58813E+08         0.00000E+00
    0.00000E+00         0.00000E+00        -0.27596E+08
 
   -0.28060E+08         0.78473E+06         0.00000E+00
    0.78473E+06        -0.59183E+08         0.00000E+00
    0.00000E+00         0.00000E+00        -0.27775E+08
 
   -0.28270E+08         0.73353E+06         0.00000E+00
    0.73353E+06        -0.59555E+08         0.00000E+00
    0.00000E+00         0.00000E+00        -0.27954E+08
 
   -0.28480E+08         0.67656E+06         0.00000E+00
    0.67656E+06        -0.59925E+08         0.00000E+00
    0.00000E+00         0.00000E+00        -0.28130E+08
 
   -0.28691E+08         0.61354E+06         0.00000E+00
    0.61354E+06        -0.60292E+08         0.00000E+00
    0.00000E+00         0.00000E+00        -0.28303E+08
 
   -0.28901E+08         0.54424E+06         0.00000E+00
    0.54424E+06        -0.60651E+08         0.00000E+00
    0.00000E+00         0.00000E+00        -0.28468E+08
 
   -0.29113E+08         0.46828E+06         0.00000E+00
    0.46828E+06        -0.60999E+08         0.00000E+00
    0.00000E+00         0.00000E+00        -0.28621E+08
 
   -0.29328E+08         0.38522E+06         0.00000E+00
    0.38522E+06        -0.61330E+08         0.00000E+00
    0.00000E+00         0.00000E+00        -0.28753E+08
 
   -0.29551E+08         0.29590E+06         0.00000E+00
    0.29590E+06        -0.61637E+08         0.00000E+00
    0.00000E+00         0.00000E+00        -0.28853E+08
 
   -0.29793E+08         0.20465E+06         0.00000E+00
    0.20465E+06        -0.61920E+08         0.00000E+00
    0.00000E+00         0.00000E+00        -0.28913E+08
 
   -0.30062E+08         0.11800E+06         0.00000E+00
    0.11800E+06        -0.62183E+08         0.00000E+00
    0.00000E+00         0.00000E+00        -0.28928E+08
 
   -0.30366E+08         0.38317E+05         0.00000E+00
    0.38317E+05        -0.62438E+08         0.00000E+00
    0.00000E+00         0.00000E+00        -0.28907E+08
 
   -0.12557E+08         0.29407E+05         0.00000E+00
    0.29407E+05        -0.27763E+08         0.00000E+00
    0.00000E+00         0.00000E+00        -0.14646E+08
 
   -0.12868E+08         0.11704E+06         0.00000E+00
    0.11704E+06        -0.27923E+08         0.00000E+00
    0.00000E+00         0.00000E+00        -0.14646E+08
 
   -0.13138E+08         0.24131E+06         0.00000E+00
    0.24131E+06        -0.28163E+08         0.00000E+00
    0.00000E+00         0.00000E+00        -0.14646E+08
 
   -0.13370E+08         0.36764E+06         0.00000E+00
    0.36764E+06        -0.28451E+08         0.00000E+00
    0.00000E+00         0.00000E+00        -0.14646E+08
 
   -0.13570E+08         0.48828E+06         0.00000E+00
    0.48828E+06        -0.28790E+08         0.00000E+00
    0.00000E+00         0.00000E+00        -0.14646E+08
 
   -0.13749E+08         0.60077E+06         0.00000E+00
    0.60077E+06        -0.29172E+08         0.00000E+00
    0.00000E+00         0.00000E+00        -0.14646E+08
 
   -0.13914E+08         0.70453E+06         0.00000E+00
    0.70453E+06        -0.29590E+08         0.00000E+00
    0.00000E+00         0.00000E+00        -0.14646E+08
 
   -0.14075E+08         0.79691E+06         0.00000E+00
    0.79691E+06        -0.30028E+08         0.00000E+00
    0.00000E+00         0.00000E+00        -0.14646E+08
 
   -0.14233E+08         0.86246E+06         0.00000E+00
    0.86246E+06        -0.30444E+08         0.00000E+00
    0.00000E+00         0.00000E+00        -0.14721E+08
 
   -0.14391E+08         0.89887E+06         0.00000E+00
    0.89887E+06        -0.30808E+08         0.00000E+00
    0.00000E+00         0.00000E+00        -0.14897E+08
 
   -0.14567E+08         0.95489E+06         0.00000E+00
    0.95489E+06        -0.31161E+08         0.00000E+00
    0.00000E+00         0.00000E+00        -0.15089E+08
 
   -0.14752E+08         0.10073E+07         0.00000E+00
    0.10073E+07        -0.31527E+08         0.00000E+00
    0.00000E+00         0.00000E+00        -0.15280E+08
 
   -0.14943E+08         0.10549E+07         0.00000E+00
    0.10549E+07        -0.31901E+08         0.00000E+00
    0.00000E+00         0.00000E+00        -0.15468E+08
 
   -0.15137E+08         0.10984E+07         0.00000E+00
    0.10984E+07        -0.32278E+08         0.00000E+00
    0.00000E+00         0.00000E+00        -0.15650E+08
 
   -0.15332E+08         0.11388E+07         0.00000E+00
    0.11388E+07        -0.32657E+08         0.00000E+00
    0.00000E+00         0.00000E+00        -0.15825E+08
 
   -0.15525E+08         0.11766E+07         0.00000E+00
    0.11766E+07        -0.33035E+08         0.00000E+00
    0.00000E+00         0.00000E+00        -0.15993E+08
 
   -0.15714E+08         0.12117E+07         0.00000E+00
    0.12117E+07        -0.33413E+08         0.00000E+00
    0.00000E+00         0.00000E+00        -0.16154E+08
 
   -0.15900E+08         0.12440E+07         0.00000E+00
    0.12440E+07        -0.33790E+08         0.00000E+00
    0.00000E+00         0.00000E+00        -0.16308E+08
 
   -0.16080E+08         0.12731E+07         0.00000E+00
    0.12731E+07        -0.34167E+08         0.00000E+00
    0.00000E+00         0.00000E+00        -0.16455E+08
 
   -0.16255E+08         0.12989E+07         0.00000E+00
    0.12989E+07        -0.34543E+08         0.00000E+00
    0.00000E+00         0.00000E+00        -0.16595E+08
 
   -0.16425E+08         0.13210E+07         0.00000E+00
    0.13210E+07        -0.34919E+08         0.00000E+00
    0.00000E+00         0.00000E+00        -0.16728E+08
 
   -0.16590E+08         0.13395E+07         0.00000E+00
    0.13395E+07        -0.35297E+08         0.00000E+00
    0.00000E+00         0.00000E+00        -0.16855E+08
 
   -0.16750E+08         0.13547E+07         0.00000E+00
    0.13547E+07        -0.35676E+08         0.00000E+00
    0.00000E+00         0.00000E+00        -0.16977E+08
 
   -0.16907E+08         0.13676E+07         0.00000E+00
    0.13676E+07        -0.36058E+08         0.00000E+00
    0.00000E+00         0.00000E+00        -0.17093E+08
 
   -0.17061E+08         0.13795E+07         0.00000E+00
    0.13795E+07        -0.36440E+08         0.00000E+00
    0.00000E+00         0.00000E+00        -0.17204E+08
 
   -0.17211E+08         0.13846E+07         0.00000E+00
    0.13846E+07        -0.36807E+08         0.00000E+00
    0.00000E+00         0.00000E+00        -0.17335E+08
 
   -0.17359E+08         0.13813E+07         0.00000E+00
    0.13813E+07        -0.37153E+08         0.00000E+00
    0.00000E+00         0.00000E+00        -0.17490E+08
 
   -0.17506E+08         0.13798E+07         0.00000E+00
    0.13798E+07        -0.37498E+08         0.00000E+00
    0.00000E+00         0.00000E+00        -0.17642E+08
 
   -0.17653E+08         0.13796E+07         0.00000E+00
    0.13796E+07        -0.37846E+08         0.00000E+00
    0.00000E+00         0.00000E+00        -0.17791E+08
 
   -0.17800E+08         0.13801E+07         0.00000E+00
    0.13801E+07        -0.38197E+08         0.00000E+00
    0.00000E+00         0.00000E+00        -0.17938E+08
 
   -0.17946E+08         0.13808E+07         0.00000E+00
    0.13808E+07        -0.38550E+08         0.00000E+00
    0.00000E+00         0.00000E+00        -0.18081E+08
 
   -0.18092E+08         0.13816E+07         0.00000E+00
    0.13816E+07        -0.38905E+08         0.00000E+00
    0.00000E+00         0.00000E+00        -0.18222E+08
 
   -0.18238E+08         0.13821E+07         0.00000E+00
    0.13821E+07        -0.39261E+08         0.00000E+00
    0.00000E+00         0.00000E+00        -0.18360E+08
 
   -0.18384E+08         0.13820E+07         0.00000E+00
    0.13820E+07        -0.39619E+08         0.00000E+00
    0.00000E+00         0.00000E+00        -0.18496E+08
 
   -0.18529E+08         0.13810E+07         0.00000E+00
    0.13810E+07        -0.39978E+08         0.00000E+00
    0.00000E+00         0.00000E+00        -0.18630E+08
 
   -0.18674E+08         0.13790E+07         0.00000E+00
    0.13790E+07        -0.40338E+08         0.00000E+00
    0.00000E+00         0.00000E+00        -0.18762E+08
 
   -0.18818E+08         0.13759E+07         0.00000E+00
    0.13759E+07        -0.40700E+08         0.00000E+00
    0.00000E+00         0.00000E+00        -0.18891E+08
 
   -0.18964E+08         0.13719E+07         0.00000E+00
    0.13719E+07        -0.41064E+08         0.00000E+00
    0.00000E+00         0.00000E+00        -0.19019E+08
 
   -0.19110E+08         0.13672E+07         0.00000E+00
    0.13672E+07        -0.41430E+08         0.00000E+00
    0.00000E+00         0.00000E+00        -0.19144E+08
 
   -0.19256E+08         0.13622E+07         0.00000E+00
    0.13622E+07        -0.41792E+08         0.00000E+00
    0.00000E+00         0.00000E+00        -0.19276E+08
 
   -0.19402E+08         0.13491E+07         0.00000E+00
    0.13491E+07        -0.42137E+08         0.00000E+00
    0.00000E+00         0.00000E+00        -0.19428E+08
 
   -0.19550E+08         0.13378E+07         0.00000E+00
    0.13378E+07        -0.42481E+08         0.00000E+00
    0.00000E+00         0.00000E+00        -0.19583E+08
 
   -0.19699E+08         0.13275E+07         0.00000E+00
    0.13275E+07        -0.42827E+08         0.00000E+00
    0.00000E+00         0.00000E+00        -0.19737E+08
 
   -0.19851E+08         0.13177E+07         0.00000E+00
    0.13177E+07        -0.43176E+08         0.00000E+00
    0.00000E+00         0.00000E+00        -0.19889E+08
 
   -0.20004E+08         0.13082E+07         0.00000E+00
    0.13082E+07        -0.43527E+08         0.00000E+00
    0.00000E+00         0.00000E+00        -0.20041E+08
 
   -0.20158E+08         0.12988E+07         0.00000E+00
    0.12988E+07        -0.43880E+08         0.00000E+00
    0.00000E+00         0.00000E+00        -0.20193E+08
 
   -0.20314E+08         0.12895E+07         0.00000E+00
    0.12895E+07        -0.44234E+08         0.00000E+00
    0.00000E+00         0.00000E+00        -0.20343E+08
 
   -0.20472E+08         0.12803E+07         0.00000E+00
    0.12803E+07        -0.44590E+08         0.00000E+00
    0.00000E+00         0.00000E+00        -0.20493E+08
 
   -0.20631E+08         0.12715E+07         0.00000E+00
    0.12715E+07        -0.44945E+08         0.00000E+00
    0.00000E+00         0.00000E+00        -0.20645E+08
 
   -0.20790E+08         0.12598E+07         0.00000E+00
    0.12598E+07        -0.45289E+08         0.00000E+00
    0.00000E+00         0.00000E+00        -0.20810E+08
 
   -0.20952E+08         0.12489E+07         0.00000E+00
    0.12489E+07        -0.45632E+08         0.00000E+00
    0.00000E+00         0.00000E+00        -0.20977E+08
 
   -0.21115E+08         0.12387E+07         0.00000E+00
    0.12387E+07        -0.45976E+08         0.00000E+00
    0.00000E+00         0.00000E+00        -0.21144E+08
 
   -0.21279E+08         0.12290E+07         0.00000E+00
    0.12290E+07        -0.46322E+08         0.00000E+00
    0.00000E+00         0.00000E+00        -0.21310E+08
 
   -0.21445E+08         0.12199E+07         0.00000E+00
    0.12199E+07        -0.46670E+08         0.00000E+00
    0.00000E+00         0.00000E+00        -0.21476E+08
 
   -0.21612E+08         0.12112E+07         0.00000E+00
    0.12112E+07        -0.47018E+08         0.00000E+00
    0.00000E+00         0.00000E+00        -0.21642E+08
 
   -0.21780E+08         0.12030E+07         0.00000E+00
    0.12030E+07        -0.47367E+08         0.00000E+00
    0.00000E+00         0.00000E+00        -0.21808E+08
 
   -0.21949E+08         0.11953E+07         0.00000E+00
    0.11953E+07        -0.47717E+08         0.00000E+00
    0.00000E+00         0.00000E+00        -0.21973E+08
 
   -0.22119E+08         0.11871E+07         0.00000E+00
    0.11871E+07        -0.48062E+08         0.00000E+00
    0.00000E+00         0.00000E+00        -0.22145E+08
 
   -0.22290E+08         0.11790E+07         0.00000E+00
    0.11790E+07        -0.48405E+08         0.00000E+00
    0.00000E+00         0.00000E+00        -0.22320E+08
 
   -0.22462E+08         0.11715E+07         0.00000E+00
    0.11715E+07        -0.48748E+08         0.00000E+00
    0.00000E+00         0.00000E+00        -0.22494E+08
 
   -0.22635E+08         0.11646E+07         0.00000E+00
    0.11646E+07        -0.49091E+08         0.00000E+00
    0.00000E+00         0.00000E+00        -0.22668E+08
 
   -0.22809E+08         0.11581E+07         0.00000E+00
    0.11581E+07        -0.49436E+08         0.00000E+00
    0.00000E+00         0.00000E+00        -0.22842E+08
 
   -0.22983E+08         0.11521E+07         0.00000E+00
    0.11521E+07        -0.49780E+08         0.00000E+00
    0.00000E+00         0.00000E+00        -0.23016E+08
 
   -0.23158E+08         0.11464E+07         0.00000E+00
    0.11464E+07        -0.50124E+08         0.00000E+00
    0.00000E+00         0.00000E+00        -0.23190E+08
 
   -0.23333E+08         0.11409E+07         0.00000E+00
    0.11409E+07        -0.50469E+08         0.00000E+00
    0.00000E+00         0.00000E+00        -0.23364E+08
 
   -0.23509E+08         0.11355E+07         0.00000E+00
    0.11355E+07        -0.50814E+08         0.00000E+00
    0.00000E+00         0.00000E+00        -0.23537E+08
 
   -0.23686E+08         0.11303E+07         0.00000E+00
    0.11303E+07        -0.51158E+08         0.00000E+00
    0.00000E+00         0.00000E+00        -0.23711E+08
 
   -0.23865E+08         0.11248E+07         0.00000E+00
    0.11248E+07        -0.51499E+08         0.00000E+00
    0.00000E+00         0.00000E+00        -0.23887E+08
 
   -0.24047E+08         0.11191E+07         0.00000E+00
    0.11191E+07        -0.51840E+08         0.00000E+00
    0.00000E+00         0.00000E+00        -0.24065E+08
 
   -0.24228E+08         0.11133E+07         0.00000E+00
    0.11133E+07        -0.52180E+08         0.00000E+00
    0.00000E+00         0.00000E+00        -0.24242E+08
 
   -0.24410E+08         0.11074E+07         0.00000E+00
    0.11074E+07        -0.52520E+08         0.00000E+00
    0.00000E+00         0.00000E+00        -0.24419E+08
 
   -0.24592E+08         0.11012E+07         0.00000E+00
    0.11012E+07        -0.52861E+08         0.00000E+00
    0.00000E+00         0.00000E+00        -0.24595E+08
 
   -0.24775E+08         0.10947E+07         0.00000E+00
    0.10947E+07        -0.53201E+08         0.00000E+00
    0.00000E+00         0.00000E+00        -0.24772E+08
 
   -0.24958E+08         0.10877E+07         0.00000E+00
    0.10877E+07        -0.53542E+08         0.00000E+00
    0.00000E+00         0.00000E+00        -0.24948E+08
 
   -0.25142E+08         0.10803E+07         0.00000E+00
    0.10803E+07        -0.53884E+08         0.00000E+00
    0.00000E+00         0.00000E+00        -0.25124E+08
 
   -0.25326E+08         0.10722E+07         0.00000E+00
    0.10722E+07        -0.54225E+08         0.00000E+00
    0.00000E+00         0.00000E+00        -0.25300E+08
 
   -0.25512E+08         0.10633E+07         0.00000E+00
    0.10633E+07        -0.54568E+08         0.00000E+00
    0.00000E+00         0.00000E+00        -0.25475E+08
 
   -0.25698E+08         0.10535E+07         0.00000E+00
    0.10535E+07        -0.54911E+08         0.00000E+00
    0.00000E+00         0.00000E+00        -0.25650E+08
 
   -0.25885E+08         0.10426E+07         0.00000E+00
    0.10426E+07        -0.55255E+08         0.00000E+00
    0.00000E+00         0.00000E+00        -0.25825E+08
 
   -0.26073E+08         0.10303E+07         0.00000E+00
    0.10303E+07        -0.55600E+08         0.00000E+00
    0.00000E+00         0.00000E+00        -0.26000E+08
 
   -0.26263E+08         0.10163E+07         0.00000E+00
    0.10163E+07        -0.55947E+08         0.00000E+00
    0.00000E+00         0.00000E+00        -0.26175E+08
 
   -0.26455E+08         0.10004E+07         0.00000E+00
    0.10004E+07        -0.56295E+08         0.00000E+00
    0.00000E+00         0.00000E+00        -0.26349E+08
 
   -0.26648E+08         0.98230E+06         0.00000E+00
    0.98230E+06        -0.56645E+08         0.00000E+00
    0.00000E+00         0.00000E+00        -0.26524E+08
 
   -0.26844E+08         0.96153E+06         0.00000E+00
    0.96153E+06        -0.56998E+08         0.00000E+00
    0.00000E+00         0.00000E+00        -0.26699E+08
 
   -0.27042E+08         0.93773E+06         0.00000E+00
    0.93773E+06        -0.57353E+08         0.00000E+00
    0.00000E+00         0.00000E+00        -0.26874E+08
 
   -0.27242E+08         0.91049E+06         0.00000E+00
    0.91049E+06        -0.57712E+08         0.00000E+00
    0.00000E+00         0.00000E+00        -0.27050E+08
 
   -0.27444E+08         0.87938E+06         0.00000E+00
    0.87938E+06        -0.58073E+08         0.00000E+00
    0.00000E+00         0.00000E+00        -0.27226E+08
 
   -0.27649E+08         0.84395E+06         0.00000E+00
    0.84395E+06        -0.58437E+08         0.00000E+00
    0.00000E+00         0.00000E+00        -0.27403E+08
 
   -0.27856E+08         0.80377E+06         0.00000E+00
    0.80377E+06        -0.58804E+08         0.00000E+00
    0.00000E+00         0.00000E+00        -0.27581E+08
 
   -0.28064E+08         0.75842E+06         0.00000E+00
    0.75842E+06        -0.59174E+08         0.00000E+00
    0.00000E+00         0.00000E+00        -0.27758E+08
 
   -0.28275E+08         0.70751E+06         0.00000E+00
    0.70751E+06        -0.59544E+08         0.00000E+00
    0.00000E+00         0.00000E+00        -0.27935E+08
 
   -0.28486E+08         0.65071E+06         0.00000E+00
    0.65071E+06        -0.59913E+08         0.00000E+00
    0.00000E+00         0.00000E+00        -0.28109E+08
 
   -0.28699E+08         0.58779E+06         0.00000E+00
    0.58779E+06        -0.60279E+08         0.00000E+00
    0.00000E+00         0.00000E+00        -0.28280E+08
 
   -0.28911E+08         0.51859E+06         0.00000E+00
    0.51859E+06        -0.60637E+08         0.00000E+00
    0.00000E+00         0.00000E+00        -0.28442E+08
 
   -0.29126E+08         0.44298E+06         0.00000E+00
    0.44298E+06        -0.60984E+08         0.00000E+00
    0.00000E+00         0.00000E+00        -0.28592E+08
 
   -0.29344E+08         0.36107E+06         0.00000E+00
    0.36107E+06        -0.61314E+08         0.00000E+00
    0.00000E+00         0.00000E+00        -0.28720E+08
 
   -0.29571E+08         0.27460E+06         0.00000E+00
    0.27460E+06        -0.61621E+08         0.00000E+00
    0.00000E+00         0.00000E+00        -0.28816E+08
 
   -0.29817E+08         0.18833E+06         0.00000E+00
    0.18833E+06        -0.61904E+08         0.00000E+00
    0.00000E+00         0.00000E+00        -0.28873E+08
 
   -0.30091E+08         0.10808E+06         0.00000E+00
    0.10808E+06        -0.62169E+08         0.00000E+00
    0.00000E+00         0.00000E+00        -0.28887E+08
 
   -0.30398E+08         0.35047E+05         0.00000E+00
    0.35047E+05        -0.62425E+08         0.00000E+00
    0.00000E+00         0.00000E+00        -0.28865E+08
 
   -0.12438E+08         0.23845E+05         0.00000E+00
    0.23845E+05        -0.27774E+08         0.00000E+00
    0.00000E+00         0.00000E+00        -0.14646E+08
 
   -0.12762E+08         0.10301E+06         0.00000E+00
    0.10301E+06        -0.27945E+08         0.00000E+00
    0.00000E+00         0.00000E+00        -0.14646E+08
 
   -0.13044E+08         0.22079E+06         0.00000E+00
    0.22079E+06        -0.28189E+08         0.00000E+00
    0.00000E+00         0.00000E+00        -0.14646E+08
 
   -0.13287E+08         0.33908E+06         0.00000E+00
    0.33908E+06        -0.28475E+08         0.00000E+00
    0.00000E+00         0.00000E+00        -0.14646E+08
 
   -0.13496E+08         0.45438E+06         0.00000E+00
    0.45438E+06        -0.28813E+08         0.00000E+00
    0.00000E+00         0.00000E+00        -0.14646E+08
 
   -0.13685E+08         0.56385E+06         0.00000E+00
    0.56385E+06        -0.29193E+08         0.00000E+00
    0.00000E+00         0.00000E+00        -0.14646E+08
 
   -0.13858E+08         0.66403E+06         0.00000E+00
    0.66403E+06        -0.29611E+08         0.00000E+00
    0.00000E+00         0.00000E+00        -0.14646E+08
 
   -0.14022E+08         0.75975E+06         0.00000E+00
    0.75975E+06        -0.30042E+08         0.00000E+00
    0.00000E+00         0.00000E+00        -0.14646E+08
 
   -0.14186E+08         0.81916E+06         0.00000E+00
    0.81916E+06        -0.30452E+08         0.00000E+00
    0.00000E+00         0.00000E+00        -0.14731E+08
 
   -0.14355E+08         0.86251E+06         0.00000E+00
    0.86251E+06        -0.30820E+08         0.00000E+00
    0.00000E+00         0.00000E+00        -0.14912E+08
 
   -0.14538E+08         0.91906E+06         0.00000E+00
    0.91906E+06        -0.31172E+08         0.00000E+00
    0.00000E+00         0.00000E+00        -0.15099E+08
 
   -0.14725E+08         0.97296E+06         0.00000E+00
    0.97296E+06        -0.31538E+08         0.00000E+00
    0.00000E+00         0.00000E+00        -0.15286E+08
 
   -0.14917E+08         0.10214E+07         0.00000E+00
    0.10214E+07        -0.31910E+08         0.00000E+00
    0.00000E+00         0.00000E+00        -0.15470E+08
 
   -0.15111E+08         0.10653E+07         0.00000E+00
    0.10653E+07        -0.32287E+08         0.00000E+00
    0.00000E+00         0.00000E+00        -0.15649E+08
 
   -0.15306E+08         0.11056E+07         0.00000E+00
    0.11056E+07        -0.32664E+08         0.00000E+00
    0.00000E+00         0.00000E+00        -0.15821E+08
 
   -0.15498E+08         0.11429E+07         0.00000E+00
    0.11429E+07        -0.33042E+08         0.00000E+00
    0.00000E+00         0.00000E+00        -0.15987E+08
 
   -0.15688E+08         0.11773E+07         0.00000E+00
    0.11773E+07        -0.33420E+08         0.00000E+00
    0.00000E+00         0.00000E+00        -0.16147E+08
 
   -0.15873E+08         0.12087E+07         0.00000E+00
    0.12087E+07        -0.33796E+08         0.00000E+00
    0.00000E+00         0.00000E+00        -0.16299E+08
 
   -0.16053E+08         0.12369E+07         0.00000E+00
    0.12369E+07        -0.34172E+08         0.00000E+00
    0.00000E+00         0.00000E+00        -0.16444E+08
 
   -0.16229E+08         0.12617E+07         0.00000E+00
    0.12617E+07        -0.34547E+08         0.00000E+00
    0.00000E+00         0.00000E+00        -0.16583E+08
 
   -0.16400E+08         0.12829E+07         0.00000E+00
    0.12829E+07        -0.34923E+08         0.00000E+00
    0.00000E+00         0.00000E+00        -0.16716E+08
 
   -0.16566E+08         0.13005E+07         0.00000E+00
    0.13005E+07        -0.35300E+08         0.00000E+00
    0.00000E+00         0.00000E+00        -0.16843E+08
 
   -0.16727E+08         0.13149E+07         0.00000E+00
    0.13149E+07        -0.35679E+08         0.00000E+00
    0.00000E+00         0.00000E+00        -0.16964E+08
 
   -0.16885E+08         0.13272E+07         0.00000E+00
    0.13272E+07        -0.36060E+08         0.00000E+00
    0.00000E+00         0.00000E+00        -0.17080E+08
 
   -0.17040E+08         0.13390E+07         0.00000E+00
    0.13390E+07        -0.36443E+08         0.00000E+00
    0.00000E+00         0.00000E+00        -0.17191E+08
 
   -0.17192E+08         0.13425E+07         0.00000E+00
    0.13425E+07        -0.36806E+08         0.00000E+00
    0.00000E+00         0.00000E+00        -0.17325E+08
 
   -0.17340E+08         0.13396E+07         0.00000E+00
    0.13396E+07        -0.37152E+08         0.00000E+00
    0.00000E+00         0.00000E+00        -0.17480E+08
 
   -0.17488E+08         0.13380E+07         0.00000E+00
    0.13380E+07        -0.37498E+08         0.00000E+00
    0.00000E+00         0.00000E+00        -0.17632E+08
 
   -0.17635E+08         0.13378E+07         0.00000E+00
    0.13378E+07        -0.37847E+08         0.00000E+00
    0.00000E+00         0.00000E+00        -0.17782E+08
 
   -0.17782E+08         0.13382E+07         0.00000E+00
    0.13382E+07        -0.38198E+08         0.00000E+00
    0.00000E+00         0.00000E+00        -0.17928E+08
 
   -0.17929E+08         0.13390E+07         0.00000E+00
    0.13390E+07        -0.38551E+08         0.00000E+00
    0.00000E+00         0.00000E+00        -0.18071E+08
 
   -0.18076E+08         0.13398E+07         0.00000E+00
    0.13398E+07        -0.38905E+08         0.00000E+00
    0.00000E+00         0.00000E+00        -0.18212E+08
 
   -0.18222E+08         0.13403E+07         0.00000E+00
    0.13403E+07        -0.39261E+08         0.00000E+00
    0.00000E+00         0.00000E+00        -0.18351E+08
 
   -0.18368E+08         0.13402E+07         0.00000E+00
    0.13402E+07        -0.39619E+08         0.00000E+00
    0.00000E+00         0.00000E+00        -0.18487E+08
 
   -0.18514E+08         0.13393E+07         0.00000E+00
    0.13393E+07        -0.39977E+08         0.00000E+00
    0.00000E+00         0.00000E+00        -0.18621E+08
 
   -0.18660E+08         0.13373E+07         0.00000E+00
    0.13373E+07        -0.40338E+08         0.00000E+00
    0.00000E+00         0.00000E+00        -0.18753E+08
 
   -0.18806E+08         0.13343E+07         0.00000E+00
    0.13343E+07        -0.40699E+08         0.00000E+00
    0.00000E+00         0.00000E+00        -0.18883E+08
 
   -0.18952E+08         0.13305E+07         0.00000E+00
    0.13305E+07        -0.41063E+08         0.00000E+00
    0.00000E+00         0.00000E+00        -0.19010E+08
 
   -0.19099E+08         0.13261E+07         0.00000E+00
    0.13261E+07        -0.41429E+08         0.00000E+00
    0.00000E+00         0.00000E+00        -0.19136E+08
 
   -0.19246E+08         0.13209E+07         0.00000E+00
    0.13209E+07        -0.41790E+08         0.00000E+00
    0.00000E+00         0.00000E+00        -0.19270E+08
 
   -0.19392E+08         0.13081E+07         0.00000E+00
    0.13081E+07        -0.42135E+08         0.00000E+00
    0.00000E+00         0.00000E+00        -0.19422E+08
 
   -0.19541E+08         0.12972E+07         0.00000E+00
    0.12972E+07        -0.42479E+08         0.00000E+00
    0.00000E+00         0.00000E+00        -0.19578E+08
 
   -0.19691E+08         0.12873E+07         0.00000E+00
    0.12873E+07        -0.42825E+08         0.00000E+00
    0.00000E+00         0.00000E+00        -0.19732E+08
 
   -0.19842E+08         0.12780E+07         0.00000E+00
    0.12780E+07        -0.43174E+08         0.00000E+00
    0.00000E+00         0.00000E+00        -0.19885E+08
 
   -0.19996E+08         0.12688E+07         0.00000E+00
    0.12688E+07        -0.43525E+08         0.00000E+00
    0.00000E+00         0.00000E+00        -0.20037E+08
 
   -0.20151E+08         0.12598E+07         0.00000E+00
    0.12598E+07        -0.43878E+08         0.00000E+00
    0.00000E+00         0.00000E+00        -0.20188E+08
 
   -0.20307E+08         0.12509E+07         0.00000E+00
    0.12509E+07        -0.44232E+08         0.00000E+00
    0.00000E+00         0.00000E+00        -0.20338E+08
 
   -0.20465E+08         0.12421E+07         0.00000E+00
    0.12421E+07        -0.44588E+08         0.00000E+00
    0.00000E+00         0.00000E+00        -0.20488E+08
 
   -0.20624E+08         0.12335E+07         0.00000E+00
    0.12335E+07        -0.44943E+08         0.00000E+00
    0.00000E+00         0.00000E+00        -0.20641E+08
 
   -0.20784E+08         0.12222E+07         0.00000E+00
    0.12222E+07        -0.45287E+08         0.00000E+00
    0.00000E+00         0.00000E+00        -0.20806E+08
 
   -0.20946E+08         0.12116E+07         0.00000E+00
    0.12116E+07        -0.45629E+08         0.00000E+00
    0.00000E+00         0.00000E+00        -0.20973E+08
 
   -0.21109E+08         0.12018E+07         0.00000E+00
    0.12018E+07        -0.45974E+08         0.00000E+00
    0.00000E+00         0.00000E+00        -0.21140E+08
 
   -0.21274E+08         0.11925E+07         0.00000E+00
    0.11925E+07        -0.46321E+08         0.00000E+00
    0.00000E+00         0.00000E+00        -0.21307E+08
 
   -0.21439E+08         0.11837E+07         0.00000E+00
    0.11837E+07        -0.46668E+08         0.00000E+00
    0.00000E+00         0.00000E+00        -0.21473E+08
 
   -0.21607E+08         0.11753E+07         0.00000E+00
    0.11753E+07        -0.47016E+08         0.00000E+00
    0.00000E+00         0.00000E+00        -0.21639E+08
 
   -0.21775E+08         0.11673E+07         0.00000E+00
    0.11673E+07        -0.47366E+08         0.00000E+00
    0.00000E+00         0.00000E+00        -0.21805E+08
 
   -0.21944E+08         0.11599E+07         0.00000E+00
    0.11599E+07        -0.47716E+08         0.00000E+00
    0.00000E+00         0.00000E+00        -0.21970E+08
 
   -0.22115E+08         0.11519E+07         0.00000E+00
    0.11519E+07        -0.48060E+08         0.00000E+00
    0.00000E+00         0.00000E+00        -0.22142E+08
 
   -0.22286E+08         0.11441E+07         0.00000E+00
    0.11441E+07        -0.48403E+08         0.00000E+00
    0.00000E+00         0.00000E+00        -0.22317E+08
 
   -0.22458E+08         0.11368E+07         0.00000E+00
    0.11368E+07        -0.48746E+08         0.00000E+00
    0.00000E+00         0.00000E+00        -0.22491E+08
 
   -0.22631E+08         0.11301E+07         0.00000E+00
    0.11301E+07        -0.49090E+08         0.00000E+00
    0.00000E+00         0.00000E+00        -0.22665E+08
 
   -0.22804E+08         0.11238E+07         0.00000E+00
    0.11238E+07        -0.49434E+08         0.00000E+00
    0.00000E+00         0.00000E+00        -0.22839E+08
 
   -0.22979E+08         0.11180E+07         0.00000E+00
    0.11180E+07        -0.49779E+08         0.00000E+00
    0.00000E+00         0.00000E+00        -0.23013E+08
 
   -0.23153E+08         0.11124E+07         0.00000E+00
    0.11124E+07        -0.50123E+08         0.00000E+00
    0.00000E+00         0.00000E+00        -0.23187E+08
 
   -0.23329E+08         0.11071E+07         0.00000E+00
    0.11071E+07        -0.50468E+08         0.00000E+00
    0.00000E+00         0.00000E+00        -0.23360E+08
 
   -0.23505E+08         0.11019E+07         0.00000E+00
    0.11019E+07        -0.50813E+08         0.00000E+00
    0.00000E+00         0.00000E+00        -0.23534E+08
 
   -0.23682E+08         0.10967E+07         0.00000E+00
    0.10967E+07        -0.51157E+08         0.00000E+00
    0.00000E+00         0.00000E+00        -0.23707E+08
 
   -0.23862E+08         0.10913E+07         0.00000E+00
    0.10913E+07        -0.51498E+08         0.00000E+00
    0.00000E+00         0.00000E+00        -0.23884E+08
 
   -0.24043E+08         0.10858E+07         0.00000E+00
    0.10858E+07        -0.51838E+08         0.00000E+00
    0.00000E+00         0.00000E+00        -0.24061E+08
 
   -0.24225E+08         0.10802E+07         0.00000E+00
    0.10802E+07        -0.52178E+08         0.00000E+00
    0.00000E+00         0.00000E+00        -0.24238E+08
 
   -0.24407E+08         0.10744E+07         0.00000E+00
    0.10744E+07        -0.52519E+08         0.00000E+00
    0.00000E+00         0.00000E+00        -0.24415E+08
 
   -0.24590E+08         0.10683E+07         0.00000E+00
    0.10683E+07        -0.52859E+08         0.00000E+00
    0.00000E+00         0.00000E+00        -0.24591E+08
 
   -0.24773E+08         0.10620E+07         0.00000E+00
    0.10620E+07        -0.53200E+08         0.00000E+00
    0.00000E+00         0.00000E+00        -0.24767E+08
 
   -0.24956E+08         0.10552E+07         0.00000E+00
    0.10552E+07        -0.53541E+08         0.00000E+00
    0.00000E+00         0.00000E+00        -0.24943E+08
 
   -0.25140E+08         0.10479E+07         0.00000E+00
    0.10479E+07        -0.53882E+08         0.00000E+00
    0.00000E+00         0.00000E+00        -0.25119E+08
 
   -0.25325E+08         0.10401E+07         0.00000E+00
    0.10401E+07        -0.54223E+08         0.00000E+00
    0.00000E+00         0.00000E+00        -0.25295E+08
 
   -0.25510E+08         0.10315E+07         0.00000E+00
    0.10315E+07        -0.54566E+08         0.00000E+00
    0.00000E+00         0.00000E+00        -0.25470E+08
 
   -0.25697E+08         0.10219E+07         0.00000E+00
    0.10219E+07        -0.54908E+08         0.00000E+00
    0.00000E+00         0.00000E+00        -0.25644E+08
 
   -0.25884E+08         0.10113E+07         0.00000E+00
    0.10113E+07        -0.55252E+08         0.00000E+00
    0.00000E+00         0.00000E+00        -0.25819E+08
 
   -0.26073E+08         0.99932E+06         0.00000E+00
    0.99932E+06        -0.55597E+08         0.00000E+00
    0.00000E+00         0.00000E+00        -0.25993E+08
 
   -0.26263E+08         0.98576E+06         0.00000E+00
    0.98576E+06        -0.55943E+08         0.00000E+00
    0.00000E+00         0.00000E+00        -0.26167E+08
 
   -0.26455E+08         0.97032E+06         0.00000E+00
    0.97032E+06        -0.56291E+08         0.00000E+00
    0.00000E+00         0.00000E+00        -0.26341E+08
 
   -0.26649E+08         0.95265E+06         0.00000E+00
    0.95265E+06        -0.56641E+08         0.00000E+00
    0.00000E+00         0.00000E+00        -0.26515E+08
 
   -0.26845E+08         0.93238E+06         0.00000E+00
    0.93238E+06        -0.56993E+08         0.00000E+00
    0.00000E+00         0.00000E+00        -0.26689E+08
 
   -0.27043E+08         0.90911E+06         0.00000E+00
    0.90911E+06        -0.57348E+08         0.00000E+00
    0.00000E+00         0.00000E+00        -0.26864E+08
 
   -0.27243E+08         0.88241E+06         0.00000E+00
    0.88241E+06        -0.57706E+08         0.00000E+00
    0.00000E+00         0.00000E+00        -0.27038E+08
 
   -0.27446E+08         0.85183E+06         0.00000E+00
    0.85183E+06        -0.58066E+08         0.00000E+00
    0.00000E+00         0.00000E+00        -0.27214E+08
 
   -0.27652E+08         0.81693E+06         0.00000E+00
    0.81693E+06        -0.58430E+08         0.00000E+00
    0.00000E+00         0.00000E+00        -0.27389E+08
 
   -0.27859E+08         0.77723E+06         0.00000E+00
    0.77723E+06        -0.58796E+08         0.00000E+00
    0.00000E+00         0.00000E+00        -0.27565E+08
 
   -0.28069E+08         0.73230E+06         0.00000E+00
    0.73230E+06        -0.59164E+08         0.00000E+00
    0.00000E+00         0.00000E+00        -0.27741E+08
 
   -0.28280E+08         0.68173E+06         0.00000E+00
    0.68173E+06        -0.59533E+08         0.00000E+00
    0.00000E+00         0.00000E+00        -0.27916E+08
 
   -0.28493E+08         0.62517E+06         0.00000E+00
    0.62517E+06        -0.59901E+08         0.00000E+00
    0.00000E+00         0.00000E+00        -0.28088E+08
 
   -0.28707E+08         0.56241E+06         0.00000E+00
    0.56241E+06        -0.60266E+08         0.00000E+00
    0.00000E+00         0.00000E+00        -0.28256E+08
 
   -0.28922E+08         0.49341E+06         0.00000E+00
    0.49341E+06        -0.60623E+08         0.00000E+00
    0.00000E+00         0.00000E+00        -0.28416E+08
 
   -0.29139E+08         0.41830E+06         0.00000E+00
    0.41830E+06        -0.60969E+08         0.00000E+00
    0.00000E+00         0.00000E+00        -0.28562E+08
 
   -0.29360E+08         0.33777E+06         0.00000E+00
    0.33777E+06        -0.61298E+08         0.00000E+00
    0.00000E+00         0.00000E+00        -0.28687E+08
 
   -0.29592E+08         0.25431E+06         0.00000E+00
    0.25431E+06        -0.61605E+08         0.00000E+00
    0.00000E+00         0.00000E+00        -0.28780E+08
 
   -0.29843E+08         0.17296E+06         0.00000E+00
    0.17296E+06        -0.61889E+08         0.00000E+00
    0.00000E+00         0.00000E+00        -0.28834E+08
 
   -0.30120E+08         0.98776E+05         0.00000E+00
    0.98776E+05        -0.62156E+08         0.00000E+00
    0.00000E+00         0.00000E+00        -0.28847E+08
 
   -0.30429E+08         0.31983E+05         0.00000E+00
    0.31983E+05        -0.62414E+08         0.00000E+00
    0.00000E+00         0.00000E+00        -0.28825E+08
 
   -0.12313E+08         0.20232E+05         0.00000E+00
    0.20232E+05        -0.27784E+08         0.00000E+00
    0.00000E+00         0.00000E+00        -0.14646E+08
 
   -0.12658E+08         0.92060E+05         0.00000E+00
    0.92060E+05        -0.27965E+08         0.00000E+00
    0.00000E+00         0.00000E+00        -0.14646E+08
 
   -0.12952E+08         0.20259E+06         0.00000E+00
    0.20259E+06        -0.28212E+08         0.00000E+00
    0.00000E+00         0.00000E+00        -0.14646E+08
 
   -0.13204E+08         0.31223E+06         0.00000E+00
    0.31223E+06        -0.28497E+08         0.00000E+00
    0.00000E+00         0.00000E+00        -0.14646E+08
 
   -0.13422E+08         0.42231E+06         0.00000E+00
    0.42231E+06        -0.28835E+08         0.00000E+00
    0.00000E+00         0.00000E+00        -0.14646E+08
 
   -0.13619E+08         0.52883E+06         0.00000E+00
    0.52883E+06        -0.29214E+08         0.00000E+00
    0.00000E+00         0.00000E+00        -0.14646E+08
 
   -0.13802E+08         0.62509E+06         0.00000E+00
    0.62509E+06        -0.29629E+08         0.00000E+00
    0.00000E+00         0.00000E+00        -0.14646E+08
 
   -0.13979E+08         0.72376E+06         0.00000E+00
    0.72376E+06        -0.30057E+08         0.00000E+00
    0.00000E+00         0.00000E+00        -0.14658E+08
 
   -0.14146E+08         0.77722E+06         0.00000E+00
    0.77722E+06        -0.30464E+08         0.00000E+00
    0.00000E+00         0.00000E+00        -0.14751E+08
 
   -0.14322E+08         0.82784E+06         0.00000E+00
    0.82784E+06        -0.30830E+08         0.00000E+00
    0.00000E+00         0.00000E+00        -0.14928E+08
 
   -0.14510E+08         0.88401E+06         0.00000E+00
    0.88401E+06        -0.31184E+08         0.00000E+00
    0.00000E+00         0.00000E+00        -0.15110E+08
 
   -0.14700E+08         0.93897E+06         0.00000E+00
    0.93897E+06        -0.31548E+08         0.00000E+00
    0.00000E+00         0.00000E+00        -0.15293E+08
 
   -0.14892E+08         0.98805E+06         0.00000E+00
    0.98805E+06        -0.31919E+08         0.00000E+00
    0.00000E+00         0.00000E+00        -0.15472E+08
 
   -0.15087E+08         0.10322E+07         0.00000E+00
    0.10322E+07        -0.32295E+08         0.00000E+00
    0.00000E+00         0.00000E+00        -0.15648E+08
 
   -0.15281E+08         0.10723E+07         0.00000E+00
    0.10723E+07        -0.32672E+08         0.00000E+00
    0.00000E+00         0.00000E+00        -0.15818E+08
 
   -0.15473E+08         0.11091E+07         0.00000E+00
    0.11091E+07        -0.33049E+08         0.00000E+00
    0.00000E+00         0.00000E+00        -0.15982E+08
 
   -0.15662E+08         0.11428E+07         0.00000E+00
    0.11428E+07        -0.33426E+08         0.00000E+00
    0.00000E+00         0.00000E+00        -0.16139E+08
 
   -0.15848E+08         0.11734E+07         0.00000E+00
    0.11734E+07        -0.33802E+08         0.00000E+00
    0.00000E+00         0.00000E+00        -0.16290E+08
 
   -0.16028E+08         0.12008E+07         0.00000E+00
    0.12008E+07        -0.34177E+08         0.00000E+00
    0.00000E+00         0.00000E+00        -0.16434E+08
 
   -0.16204E+08         0.12247E+07         0.00000E+00
    0.12247E+07        -0.34552E+08         0.00000E+00
    0.00000E+00         0.00000E+00        -0.16572E+08
 
   -0.16376E+08         0.12450E+07         0.00000E+00
    0.12450E+07        -0.34927E+08         0.00000E+00
    0.00000E+00         0.00000E+00        -0.16704E+08
 
   -0.16543E+08         0.12617E+07         0.00000E+00
    0.12617E+07        -0.35303E+08         0.00000E+00
    0.00000E+00         0.00000E+00        -0.16830E+08
 
   -0.16705E+08         0.12753E+07         0.00000E+00
    0.12753E+07        -0.35681E+08         0.00000E+00
    0.00000E+00         0.00000E+00        -0.16951E+08
 
   -0.16864E+08         0.12869E+07         0.00000E+00
    0.12869E+07        -0.36062E+08         0.00000E+00
    0.00000E+00         0.00000E+00        -0.17067E+08
 
   -0.17020E+08         0.12987E+07         0.00000E+00
    0.12987E+07        -0.36445E+08         0.00000E+00
    0.00000E+00         0.00000E+00        -0.17179E+08
 
   -0.17172E+08         0.13006E+07         0.00000E+00
    0.13006E+07        -0.36806E+08         0.00000E+00
    0.00000E+00         0.00000E+00        -0.17316E+08
 
   -0.17321E+08         0.12981E+07         0.00000E+00
    0.12981E+07        -0.37152E+08         0.00000E+00
    0.00000E+00         0.00000E+00        -0.17471E+08
 
   -0.17470E+08         0.12964E+07         0.00000E+00
    0.12964E+07        -0.37498E+08         0.00000E+00
    0.00000E+00         0.00000E+00        -0.17623E+08
 
   -0.17618E+08         0.12960E+07         0.00000E+00
    0.12960E+07        -0.37847E+08         0.00000E+00
    0.00000E+00         0.00000E+00        -0.17772E+08
 
   -0.17765E+08         0.12965E+07         0.00000E+00
    0.12965E+07        -0.38198E+08         0.00000E+00
    0.00000E+00         0.00000E+00        -0.17918E+08
 
   -0.17912E+08         0.12973E+07         0.00000E+00
    0.12973E+07        -0.38551E+08         0.00000E+00
    0.00000E+00         0.00000E+00        -0.18062E+08
 
   -0.18060E+08         0.12981E+07         0.00000E+00
    0.12981E+07        -0.38905E+08         0.00000E+00
    0.00000E+00         0.00000E+00        -0.18203E+08
 
   -0.18207E+08         0.12987E+07         0.00000E+00
    0.12987E+07        -0.39261E+08         0.00000E+00
    0.00000E+00         0.00000E+00        -0.18342E+08
 
   -0.18353E+08         0.12986E+07         0.00000E+00
    0.12986E+07        -0.39619E+08         0.00000E+00
    0.00000E+00         0.00000E+00        -0.18478E+08
 
   -0.18500E+08         0.12977E+07         0.00000E+00
    0.12977E+07        -0.39977E+08         0.00000E+00
    0.00000E+00         0.00000E+00        -0.18612E+08
 
   -0.18647E+08         0.12958E+07         0.00000E+00
    0.12958E+07        -0.40337E+08         0.00000E+00
    0.00000E+00         0.00000E+00        -0.18744E+08
 
   -0.18793E+08         0.12929E+07         0.00000E+00
    0.12929E+07        -0.40699E+08         0.00000E+00
    0.00000E+00         0.00000E+00        -0.18874E+08
 
   -0.18940E+08         0.12893E+07         0.00000E+00
    0.12893E+07        -0.41062E+08         0.00000E+00
    0.00000E+00         0.00000E+00        -0.19002E+08
 
   -0.19088E+08         0.12852E+07         0.00000E+00
    0.12852E+07        -0.41428E+08         0.00000E+00
    0.00000E+00         0.00000E+00        -0.19128E+08
 
   -0.19235E+08         0.12798E+07         0.00000E+00
    0.12798E+07        -0.41788E+08         0.00000E+00
    0.00000E+00         0.00000E+00        -0.19263E+08
 
   -0.19383E+08         0.12672E+07         0.00000E+00
    0.12672E+07        -0.42132E+08         0.00000E+00
    0.00000E+00         0.00000E+00        -0.19417E+08
 
   -0.19532E+08         0.12568E+07         0.00000E+00
    0.12568E+07        -0.42477E+08         0.00000E+00
    0.00000E+00         0.00000E+00        -0.19572E+08
 
   -0.19682E+08         0.12473E+07         0.00000E+00
    0.12473E+07        -0.42823E+08         0.00000E+00
    0.00000E+00         0.00000E+00        -0.19727E+08
 
   -0.19834E+08         0.12383E+07         0.00000E+00
    0.12383E+07        -0.43172E+08         0.00000E+00
    0.00000E+00         0.00000E+00        -0.19880E+08
 
   -0.19988E+08         0.12296E+07         0.00000E+00
    0.12296E+07        -0.43523E+08         0.00000E+00
    0.00000E+00         0.00000E+00        -0.20032E+08
 
   -0.20143E+08         0.12210E+07         0.00000E+00
    0.12210E+07        -0.43876E+08         0.00000E+00
    0.00000E+00         0.00000E+00        -0.20183E+08
 
   -0.20300E+08         0.12124E+07         0.00000E+00
    0.12124E+07        -0.44230E+08         0.00000E+00
    0.00000E+00         0.00000E+00        -0.20334E+08
 
   -0.20458E+08         0.12040E+07         0.00000E+00
    0.12040E+07        -0.44587E+08         0.00000E+00
    0.00000E+00         0.00000E+00        -0.20484E+08
 
   -0.20618E+08         0.11956E+07         0.00000E+00
    0.11956E+07        -0.44941E+08         0.00000E+00
    0.00000E+00         0.00000E+00        -0.20637E+08
 
   -0.20778E+08         0.11846E+07         0.00000E+00
    0.11846E+07        -0.45284E+08         0.00000E+00
    0.00000E+00         0.00000E+00        -0.20803E+08
 
   -0.20940E+08         0.11744E+07         0.00000E+00
    0.11744E+07        -0.45627E+08         0.00000E+00
    0.00000E+00         0.00000E+00        -0.20970E+08
 
   -0.21103E+08         0.11649E+07         0.00000E+00
    0.11649E+07        -0.45972E+08         0.00000E+00
    0.00000E+00         0.00000E+00        -0.21137E+08
 
   -0.21268E+08         0.11560E+07         0.00000E+00
    0.11560E+07        -0.46319E+08         0.00000E+00
    0.00000E+00         0.00000E+00        -0.21304E+08
 
   -0.21434E+08         0.11475E+07         0.00000E+00
    0.11475E+07        -0.46666E+08         0.00000E+00
    0.00000E+00         0.00000E+00        -0.21470E+08
 
   -0.21601E+08         0.11394E+07         0.00000E+00
    0.11394E+07        -0.47015E+08         0.00000E+00
    0.00000E+00         0.00000E+00        -0.21636E+08
 
   -0.21770E+08         0.11317E+07         0.00000E+00
    0.11317E+07        -0.47364E+08         0.00000E+00
    0.00000E+00         0.00000E+00        -0.21801E+08
 
   -0.21940E+08         0.11246E+07         0.00000E+00
    0.11246E+07        -0.47714E+08         0.00000E+00
    0.00000E+00         0.00000E+00        -0.21967E+08
 
   -0.22110E+08         0.11167E+07         0.00000E+00
    0.11167E+07        -0.48059E+08         0.00000E+00
    0.00000E+00         0.00000E+00        -0.22139E+08
 
   -0.22281E+08         0.11092E+07         0.00000E+00
    0.11092E+07        -0.48401E+08         0.00000E+00
    0.00000E+00         0.00000E+00        -0.22314E+08
 
   -0.22453E+08         0.11021E+07         0.00000E+00
    0.11021E+07        -0.48745E+08         0.00000E+00
    0.00000E+00         0.00000E+00        -0.22488E+08
 
   -0.22626E+08         0.10956E+07         0.00000E+00
    0.10956E+07        -0.49089E+08         0.00000E+00
    0.00000E+00         0.00000E+00        -0.22662E+08
 
   -0.22800E+08         0.10895E+07         0.00000E+00
    0.10895E+07        -0.49433E+08         0.00000E+00
    0.00000E+00         0.00000E+00        -0.22836E+08
 
   -0.22974E+08         0.10839E+07         0.00000E+00
    0.10839E+07        -0.49778E+08         0.00000E+00
    0.00000E+00         0.00000E+00        -0.23010E+08
 
   -0.23149E+08         0.10785E+07         0.00000E+00
    0.10785E+07        -0.50122E+08         0.00000E+00
    0.00000E+00         0.00000E+00        -0.23183E+08
 
   -0.23325E+08         0.10733E+07         0.00000E+00
    0.10733E+07        -0.50467E+08         0.00000E+00
    0.00000E+00         0.00000E+00        -0.23357E+08
 
   -0.23501E+08         0.10682E+07         0.00000E+00
    0.10682E+07        -0.50812E+08         0.00000E+00
    0.00000E+00         0.00000E+00        -0.23530E+08
 
   -0.23678E+08         0.10632E+07         0.00000E+00
    0.10632E+07        -0.51156E+08         0.00000E+00
    0.00000E+00         0.00000E+00        -0.23704E+08
 
   -0.23859E+08         0.10580E+07         0.00000E+00
    0.10580E+07        -0.51497E+08         0.00000E+00
    0.00000E+00         0.00000E+00        -0.23880E+08
 
   -0.24040E+08         0.10526E+07         0.00000E+00
    0.10526E+07        -0.51837E+08         0.00000E+00
    0.00000E+00         0.00000E+00        -0.24057E+08
 
   -0.24222E+08         0.10471E+07         0.00000E+00
    0.10471E+07        -0.52177E+08         0.00000E+00
    0.00000E+00         0.00000E+00        -0.24234E+08
 
   -0.24405E+08         0.10414E+07         0.00000E+00
    0.10414E+07        -0.52517E+08         0.00000E+00
    0.00000E+00         0.00000E+00        -0.24411E+08
 
   -0.24587E+08         0.10355E+07         0.00000E+00
    0.10355E+07        -0.52858E+08         0.00000E+00
    0.00000E+00         0.00000E+00        -0.24587E+08
 
   -0.24770E+08         0.10293E+07         0.00000E+00
    0.10293E+07        -0.53198E+08         0.00000E+00
    0.00000E+00         0.00000E+00        -0.24763E+08
 
   -0.24954E+08         0.10227E+07         0.00000E+00
    0.10227E+07        -0.53539E+08         0.00000E+00
    0.00000E+00         0.00000E+00        -0.24939E+08
 
   -0.25138E+08         0.10157E+07         0.00000E+00
    0.10157E+07        -0.53880E+08         0.00000E+00
    0.00000E+00         0.00000E+00        -0.25114E+08
 
   -0.25323E+08         0.10080E+07         0.00000E+00
    0.10080E+07        -0.54222E+08         0.00000E+00
    0.00000E+00         0.00000E+00        -0.25289E+08
 
   -0.25509E+08         0.99965E+06         0.00000E+00
    0.99965E+06        -0.54564E+08         0.00000E+00
    0.00000E+00         0.00000E+00        -0.25464E+08
 
   -0.25696E+08         0.99039E+06         0.00000E+00
    0.99039E+06        -0.54906E+08         0.00000E+00
    0.00000E+00         0.00000E+00        -0.25639E+08
 
   -0.25883E+08         0.98007E+06         0.00000E+00
    0.98007E+06        -0.55250E+08         0.00000E+00
    0.00000E+00         0.00000E+00        -0.25813E+08
 
   -0.26073E+08         0.96845E+06         0.00000E+00
    0.96845E+06        -0.55594E+08         0.00000E+00
    0.00000E+00         0.00000E+00        -0.25986E+08
 
   -0.26263E+08         0.95529E+06         0.00000E+00
    0.95529E+06        -0.55940E+08         0.00000E+00
    0.00000E+00         0.00000E+00        -0.26160E+08
 
   -0.26455E+08         0.94027E+06         0.00000E+00
    0.94027E+06        -0.56288E+08         0.00000E+00
    0.00000E+00         0.00000E+00        -0.26333E+08
 
   -0.26650E+08         0.92307E+06         0.00000E+00
    0.92307E+06        -0.56637E+08         0.00000E+00
    0.00000E+00         0.00000E+00        -0.26507E+08
 
   -0.26846E+08         0.90331E+06         0.00000E+00
    0.90331E+06        -0.56989E+08         0.00000E+00
    0.00000E+00         0.00000E+00        -0.26680E+08
 
   -0.27044E+08         0.88057E+06         0.00000E+00
    0.88057E+06        -0.57343E+08         0.00000E+00
    0.00000E+00         0.00000E+00        -0.26853E+08
 
   -0.27245E+08         0.85443E+06         0.00000E+00
    0.85443E+06        -0.57700E+08         0.00000E+00
    0.00000E+00         0.00000E+00        -0.27027E+08
 
   -0.27449E+08         0.82441E+06         0.00000E+00
    0.82441E+06        -0.58059E+08         0.00000E+00
    0.00000E+00         0.00000E+00        -0.27201E+08
 
   -0.27655E+08         0.79005E+06         0.00000E+00
    0.79005E+06        -0.58422E+08         0.00000E+00
    0.00000E+00         0.00000E+00        -0.27375E+08
 
   -0.27863E+08         0.75087E+06         0.00000E+00
    0.75087E+06        -0.58787E+08         0.00000E+00
    0.00000E+00         0.00000E+00        -0.27550E+08
 
   -0.28074E+08         0.70639E+06         0.00000E+00
    0.70639E+06        -0.59154E+08         0.00000E+00
    0.00000E+00         0.00000E+00        -0.27724E+08
 
   -0.28286E+08         0.65620E+06         0.00000E+00
    0.65620E+06        -0.59522E+08         0.00000E+00
    0.00000E+00         0.00000E+00        -0.27897E+08
 
   -0.28500E+08         0.59994E+06         0.00000E+00
    0.59994E+06        -0.59889E+08         0.00000E+00
    0.00000E+00         0.00000E+00        -0.28067E+08
 
   -0.28716E+08         0.53744E+06         0.00000E+00
    0.53744E+06        -0.60253E+08         0.00000E+00
    0.00000E+00         0.00000E+00        -0.28232E+08
 
   -0.28933E+08         0.46874E+06         0.00000E+00
    0.46874E+06        -0.60609E+08         0.00000E+00
    0.00000E+00         0.00000E+00        -0.28389E+08
 
   -0.29152E+08         0.39428E+06         0.00000E+00
    0.39428E+06        -0.60954E+08         0.00000E+00
    0.00000E+00         0.00000E+00        -0.28532E+08
 
   -0.29377E+08         0.31532E+06         0.00000E+00
    0.31532E+06        -0.61283E+08         0.00000E+00
    0.00000E+00         0.00000E+00        -0.28654E+08
 
   -0.29613E+08         0.23500E+06         0.00000E+00
    0.23500E+06        -0.61590E+08         0.00000E+00
    0.00000E+00         0.00000E+00        -0.28744E+08
 
   -0.29868E+08         0.15846E+06         0.00000E+00
    0.15846E+06        -0.61876E+08         0.00000E+00
    0.00000E+00         0.00000E+00        -0.28795E+08
 
   -0.30149E+08         0.90026E+05         0.00000E+00
    0.90026E+05        -0.62145E+08         0.00000E+00
    0.00000E+00         0.00000E+00        -0.28808E+08
 
   -0.30460E+08         0.29098E+05         0.00000E+00
    0.29098E+05        -0.62403E+08         0.00000E+00
    0.00000E+00         0.00000E+00        -0.28787E+08
 
   -0.12184E+08         0.19740E+05         0.00000E+00
    0.19740E+05        -0.27792E+08         0.00000E+00
    0.00000E+00         0.00000E+00        -0.14647E+08
 
   -0.12558E+08         0.85295E+05         0.00000E+00
    0.85295E+05        -0.27985E+08         0.00000E+00
    0.00000E+00         0.00000E+00        -0.14646E+08
 
   -0.12862E+08         0.18608E+06         0.00000E+00
    0.18608E+06        -0.28234E+08         0.00000E+00
    0.00000E+00         0.00000E+00        -0.14646E+08
 
   -0.13121E+08         0.28696E+06         0.00000E+00
    0.28696E+06        -0.28518E+08         0.00000E+00
    0.00000E+00         0.00000E+00        -0.14646E+08
 
   -0.13349E+08         0.39211E+06         0.00000E+00
    0.39211E+06        -0.28857E+08         0.00000E+00
    0.00000E+00         0.00000E+00        -0.14646E+08
 
   -0.13554E+08         0.49522E+06         0.00000E+00
    0.49522E+06        -0.29235E+08         0.00000E+00
    0.00000E+00         0.00000E+00        -0.14646E+08
 
   -0.13747E+08         0.58946E+06         0.00000E+00
    0.58946E+06        -0.29646E+08         0.00000E+00
    0.00000E+00         0.00000E+00        -0.14646E+08
 
   -0.13934E+08         0.68803E+06         0.00000E+00
    0.68803E+06        -0.30071E+08         0.00000E+00
    0.00000E+00         0.00000E+00        -0.14672E+08
 
   -0.14108E+08         0.73742E+06         0.00000E+00
    0.73742E+06        -0.30477E+08         0.00000E+00
    0.00000E+00         0.00000E+00        -0.14773E+08
 
   -0.14290E+08         0.79369E+06         0.00000E+00
    0.79369E+06        -0.30840E+08         0.00000E+00
    0.00000E+00         0.00000E+00        -0.14945E+08
 
   -0.14482E+08         0.84999E+06         0.00000E+00
    0.84999E+06        -0.31196E+08         0.00000E+00
    0.00000E+00         0.00000E+00        -0.15122E+08
 
   -0.14675E+08         0.90527E+06         0.00000E+00
    0.90527E+06        -0.31558E+08         0.00000E+00
    0.00000E+00         0.00000E+00        -0.15300E+08
 
   -0.14869E+08         0.95479E+06         0.00000E+00
    0.95479E+06        -0.31929E+08         0.00000E+00
    0.00000E+00         0.00000E+00        -0.15476E+08
 
   -0.15064E+08         0.99905E+06         0.00000E+00
    0.99905E+06        -0.32303E+08         0.00000E+00
    0.00000E+00         0.00000E+00        -0.15648E+08
 
   -0.15258E+08         0.10390E+07         0.00000E+00
    0.10390E+07        -0.32680E+08         0.00000E+00
    0.00000E+00         0.00000E+00        -0.15815E+08
 
   -0.15450E+08         0.10753E+07         0.00000E+00
    0.10753E+07        -0.33056E+08         0.00000E+00
    0.00000E+00         0.00000E+00        -0.15977E+08
 
   -0.15638E+08         0.11083E+07         0.00000E+00
    0.11083E+07        -0.33433E+08         0.00000E+00
    0.00000E+00         0.00000E+00        -0.16132E+08
 
   -0.15823E+08         0.11381E+07         0.00000E+00
    0.11381E+07        -0.33808E+08         0.00000E+00
    0.00000E+00         0.00000E+00        -0.16281E+08
 
   -0.16004E+08         0.11646E+07         0.00000E+00
    0.11646E+07        -0.34182E+08         0.00000E+00
    0.00000E+00         0.00000E+00        -0.16424E+08
 
   -0.16181E+08         0.11877E+07         0.00000E+00
    0.11877E+07        -0.34556E+08         0.00000E+00
    0.00000E+00         0.00000E+00        -0.16561E+08
 
   -0.16352E+08         0.12072E+07         0.00000E+00
    0.12072E+07        -0.34931E+08         0.00000E+00
    0.00000E+00         0.00000E+00        -0.16693E+08
 
   -0.16520E+08         0.12231E+07         0.00000E+00
    0.12231E+07        -0.35306E+08         0.00000E+00
    0.00000E+00         0.00000E+00        -0.16818E+08
 
   -0.16684E+08         0.12360E+07         0.00000E+00
    0.12360E+07        -0.35684E+08         0.00000E+00
    0.00000E+00         0.00000E+00        -0.16939E+08
 
   -0.16844E+08         0.12468E+07         0.00000E+00
    0.12468E+07        -0.36064E+08         0.00000E+00
    0.00000E+00         0.00000E+00        -0.17055E+08
 
   -0.17001E+08         0.12584E+07         0.00000E+00
    0.12584E+07        -0.36446E+08         0.00000E+00
    0.00000E+00         0.00000E+00        -0.17168E+08
 
   -0.17153E+08         0.12590E+07         0.00000E+00
    0.12590E+07        -0.36805E+08         0.00000E+00
    0.00000E+00         0.00000E+00        -0.17307E+08
 
   -0.17303E+08         0.12566E+07         0.00000E+00
    0.12566E+07        -0.37151E+08         0.00000E+00
    0.00000E+00         0.00000E+00        -0.17462E+08
 
   -0.17452E+08         0.12548E+07         0.00000E+00
    0.12548E+07        -0.37498E+08         0.00000E+00
    0.00000E+00         0.00000E+00        -0.17614E+08
 
   -0.17600E+08         0.12544E+07         0.00000E+00
    0.12544E+07        -0.37847E+08         0.00000E+00
    0.00000E+00         0.00000E+00        -0.17763E+08
 
   -0.17748E+08         0.12549E+07         0.00000E+00
    0.12549E+07        -0.38198E+08         0.00000E+00
    0.00000E+00         0.00000E+00        -0.17909E+08
 
   -0.17896E+08         0.12557E+07         0.00000E+00
    0.12557E+07        -0.38551E+08         0.00000E+00
    0.00000E+00         0.00000E+00        -0.18053E+08
 
   -0.18044E+08         0.12566E+07         0.00000E+00
    0.12566E+07        -0.38906E+08         0.00000E+00
    0.00000E+00         0.00000E+00        -0.18194E+08
 
   -0.18191E+08         0.12572E+07         0.00000E+00
    0.12572E+07        -0.39261E+08         0.00000E+00
    0.00000E+00         0.00000E+00        -0.18333E+08
 
   -0.18339E+08         0.12572E+07         0.00000E+00
    0.12572E+07        -0.39618E+08         0.00000E+00
    0.00000E+00         0.00000E+00        -0.18469E+08
 
   -0.18486E+08         0.12563E+07         0.00000E+00
    0.12563E+07        -0.39977E+08         0.00000E+00
    0.00000E+00         0.00000E+00        -0.18604E+08
 
   -0.18633E+08         0.12545E+07         0.00000E+00
    0.12545E+07        -0.40337E+08         0.00000E+00
    0.00000E+00         0.00000E+00        -0.18736E+08
 
   -0.18781E+08         0.12516E+07         0.00000E+00
    0.12516E+07        -0.40698E+08         0.00000E+00
    0.00000E+00         0.00000E+00        -0.18866E+08
 
   -0.18928E+08         0.12483E+07         0.00000E+00
    0.12483E+07        -0.41062E+08         0.00000E+00
    0.00000E+00         0.00000E+00        -0.18994E+08
 
   -0.19077E+08         0.12444E+07         0.00000E+00
    0.12444E+07        -0.41427E+08         0.00000E+00
    0.00000E+00         0.00000E+00        -0.19121E+08
 
   -0.19225E+08         0.12387E+07         0.00000E+00
    0.12387E+07        -0.41786E+08         0.00000E+00
    0.00000E+00         0.00000E+00        -0.19257E+08
 
   -0.19373E+08         0.12265E+07         0.00000E+00
    0.12265E+07        -0.42130E+08         0.00000E+00
    0.00000E+00         0.00000E+00        -0.19412E+08
 
   -0.19522E+08         0.12165E+07         0.00000E+00
    0.12165E+07        -0.42475E+08         0.00000E+00
    0.00000E+00         0.00000E+00        -0.19568E+08
 
   -0.19673E+08         0.12074E+07         0.00000E+00
    0.12074E+07        -0.42822E+08         0.00000E+00
    0.00000E+00         0.00000E+00        -0.19722E+08
 
   -0.19826E+08         0.11988E+07         0.00000E+00
    0.11988E+07        -0.43171E+08         0.00000E+00
    0.00000E+00         0.00000E+00        -0.19875E+08
 
   -0.19980E+08         0.11905E+07         0.00000E+00
    0.11905E+07        -0.43522E+08         0.00000E+00
    0.00000E+00         0.00000E+00        -0.20027E+08
 
   -0.20136E+08         0.11822E+07         0.00000E+00
    0.11822E+07        -0.43874E+08         0.00000E+00
    0.00000E+00         0.00000E+00        -0.20179E+08
 
   -0.20293E+08         0.11740E+07         0.00000E+00
    0.11740E+07        -0.44229E+08         0.00000E+00
    0.00000E+00         0.00000E+00        -0.20329E+08
 
   -0.20452E+08         0.11659E+07         0.00000E+00
    0.11659E+07        -0.44585E+08         0.00000E+00
    0.00000E+00         0.00000E+00        -0.20479E+08
 
   -0.20612E+08         0.11578E+07         0.00000E+00
    0.11578E+07        -0.44939E+08         0.00000E+00
    0.00000E+00         0.00000E+00        -0.20634E+08
 
   -0.20772E+08         0.11471E+07         0.00000E+00
    0.11471E+07        -0.45282E+08         0.00000E+00
    0.00000E+00         0.00000E+00        -0.20799E+08
 
   -0.20934E+08         0.11372E+07         0.00000E+00
    0.11372E+07        -0.45626E+08         0.00000E+00
    0.00000E+00         0.00000E+00        -0.20967E+08
 
   -0.21098E+08         0.11280E+07         0.00000E+00
    0.11280E+07        -0.45971E+08         0.00000E+00
    0.00000E+00         0.00000E+00        -0.21134E+08
 
   -0.21263E+08         0.11195E+07         0.00000E+00
    0.11195E+07        -0.46317E+08         0.00000E+00
    0.00000E+00         0.00000E+00        -0.21300E+08
 
   -0.21429E+08         0.11113E+07         0.00000E+00
    0.11113E+07        -0.46665E+08         0.00000E+00
    0.00000E+00         0.00000E+00        -0.21467E+08
 
   -0.21596E+08         0.11035E+07         0.00000E+00
    0.11035E+07        -0.47013E+08         0.00000E+00
    0.00000E+00         0.00000E+00        -0.21632E+08
 
   -0.21765E+08         0.10961E+07         0.00000E+00
    0.10961E+07        -0.47363E+08         0.00000E+00
    0.00000E+00         0.00000E+00        -0.21798E+08
 
   -0.21935E+08         0.10892E+07         0.00000E+00
    0.10892E+07        -0.47713E+08         0.00000E+00
    0.00000E+00         0.00000E+00        -0.21964E+08
 
   -0.22105E+08         0.10816E+07         0.00000E+00
    0.10816E+07        -0.48057E+08         0.00000E+00
    0.00000E+00         0.00000E+00        -0.22136E+08
 
   -0.22277E+08         0.10743E+07         0.00000E+00
    0.10743E+07        -0.48400E+08         0.00000E+00
    0.00000E+00         0.00000E+00        -0.22311E+08
 
   -0.22449E+08         0.10675E+07         0.00000E+00
    0.10675E+07        -0.48744E+08         0.00000E+00
    0.00000E+00         0.00000E+00        -0.22485E+08
 
   -0.22622E+08         0.10612E+07         0.00000E+00
    0.10612E+07        -0.49088E+08         0.00000E+00
    0.00000E+00         0.00000E+00        -0.22659E+08
 
   -0.22796E+08         0.10553E+07         0.00000E+00
    0.10553E+07        -0.49432E+08         0.00000E+00
    0.00000E+00         0.00000E+00        -0.22833E+08
 
   -0.22970E+08         0.10498E+07         0.00000E+00
    0.10498E+07        -0.49777E+08         0.00000E+00
    0.00000E+00         0.00000E+00        -0.23007E+08
 
   -0.23145E+08         0.10446E+07         0.00000E+00
    0.10446E+07        -0.50121E+08         0.00000E+00
    0.00000E+00         0.00000E+00        -0.23180E+08
 
   -0.23321E+08         0.10395E+07         0.00000E+00
    0.10395E+07        -0.50466E+08         0.00000E+00
    0.00000E+00         0.00000E+00        -0.23354E+08
 
   -0.23498E+08         0.10346E+07         0.00000E+00
    0.10346E+07        -0.50811E+08         0.00000E+00
    0.00000E+00         0.00000E+00        -0.23527E+08
 
   -0.23675E+08         0.10297E+07         0.00000E+00
    0.10297E+07        -0.51155E+08         0.00000E+00
    0.00000E+00         0.00000E+00        -0.23701E+08
 
   -0.23856E+08         0.10246E+07         0.00000E+00
    0.10246E+07        -0.51496E+08         0.00000E+00
    0.00000E+00         0.00000E+00        -0.23877E+08
 
   -0.24037E+08         0.10194E+07         0.00000E+00
    0.10194E+07        -0.51836E+08         0.00000E+00
    0.00000E+00         0.00000E+00        -0.24054E+08
 
   -0.24220E+08         0.10140E+07         0.00000E+00
    0.10140E+07        -0.52176E+08         0.00000E+00
    0.00000E+00         0.00000E+00        -0.24230E+08
 
   -0.24402E+08         0.10085E+07         0.00000E+00
    0.10085E+07        -0.52516E+08         0.00000E+00
    0.00000E+00         0.00000E+00        -0.24407E+08
 
   -0.24585E+08         0.10028E+07         0.00000E+00
    0.10028E+07        -0.52856E+08         0.00000E+00
    0.00000E+00         0.00000E+00        -0.24583E+08
 
   -0.24768E+08         0.99673E+06         0.00000E+00
    0.99673E+06        -0.53197E+08         0.00000E+00
    0.00000E+00         0.00000E+00        -0.24759E+08
 
   -0.24952E+08         0.99033E+06         0.00000E+00
    0.99033E+06        -0.53538E+08         0.00000E+00
    0.00000E+00         0.00000E+00        -0.24934E+08
 
   -0.25137E+08         0.98346E+06         0.00000E+00
    0.98346E+06        -0.53878E+08         0.00000E+00
    0.00000E+00         0.00000E+00        -0.25109E+08
 
   -0.25322E+08         0.97603E+06         0.00000E+00
    0.97603E+06        -0.54220E+08         0.00000E+00
    0.00000E+00         0.00000E+00        -0.25284E+08
 
   -0.25508E+08         0.96790E+06         0.00000E+00
    0.96790E+06        -0.54562E+08         0.00000E+00
    0.00000E+00         0.00000E+00        -0.25459E+08
 
   -0.25695E+08         0.95892E+06         0.00000E+00
    0.95892E+06        -0.54904E+08         0.00000E+00
    0.00000E+00         0.00000E+00        -0.25633E+08
 
   -0.25883E+08         0.94891E+06         0.00000E+00
    0.94891E+06        -0.55247E+08         0.00000E+00
    0.00000E+00         0.00000E+00        -0.25806E+08
 
   -0.26072E+08         0.93765E+06         0.00000E+00
    0.93765E+06        -0.55592E+08         0.00000E+00
    0.00000E+00         0.00000E+00        -0.25980E+08
 
   -0.26263E+08         0.92488E+06         0.00000E+00
    0.92488E+06        -0.55937E+08         0.00000E+00
    0.00000E+00         0.00000E+00        -0.26153E+08
 
   -0.26456E+08         0.91030E+06         0.00000E+00
    0.91030E+06        -0.56284E+08         0.00000E+00
    0.00000E+00         0.00000E+00        -0.26326E+08
 
   -0.26650E+08         0.89357E+06         0.00000E+00
    0.89357E+06        -0.56633E+08         0.00000E+00
    0.00000E+00         0.00000E+00        -0.26498E+08
 
   -0.26847E+08         0.87432E+06         0.00000E+00
    0.87432E+06        -0.56984E+08         0.00000E+00
    0.00000E+00         0.00000E+00        -0.26671E+08
 
   -0.27046E+08         0.85213E+06         0.00000E+00
    0.85213E+06        -0.57338E+08         0.00000E+00
    0.00000E+00         0.00000E+00        -0.26843E+08
 
   -0.27248E+08         0.82656E+06         0.00000E+00
    0.82656E+06        -0.57694E+08         0.00000E+00
    0.00000E+00         0.00000E+00        -0.27016E+08
 
   -0.27452E+08         0.79711E+06         0.00000E+00
    0.79711E+06        -0.58053E+08         0.00000E+00
    0.00000E+00         0.00000E+00        -0.27189E+08
 
   -0.27658E+08         0.76332E+06         0.00000E+00
    0.76332E+06        -0.58415E+08         0.00000E+00
    0.00000E+00         0.00000E+00        -0.27362E+08
 
   -0.27867E+08         0.72467E+06         0.00000E+00
    0.72467E+06        -0.58779E+08         0.00000E+00
    0.00000E+00         0.00000E+00        -0.27534E+08
 
   -0.28079E+08         0.68069E+06         0.00000E+00
    0.68069E+06        -0.59145E+08         0.00000E+00
    0.00000E+00         0.00000E+00        -0.27707E+08
 
   -0.28292E+08         0.63093E+06         0.00000E+00
    0.63093E+06        -0.59512E+08         0.00000E+00
    0.00000E+00         0.00000E+00        -0.27878E+08
 
   -0.28508E+08         0.57504E+06         0.00000E+00
    0.57504E+06        -0.59877E+08         0.00000E+00
    0.00000E+00         0.00000E+00        -0.28046E+08
 
   -0.28725E+08         0.51288E+06         0.00000E+00
    0.51288E+06        -0.60240E+08         0.00000E+00
    0.00000E+00         0.00000E+00        -0.28208E+08
 
   -0.28944E+08         0.44460E+06         0.00000E+00
    0.44460E+06        -0.60596E+08         0.00000E+00
    0.00000E+00         0.00000E+00        -0.28363E+08
 
   -0.29166E+08         0.37094E+06         0.00000E+00
    0.37094E+06        -0.60940E+08         0.00000E+00
    0.00000E+00         0.00000E+00        -0.28503E+08
 
   -0.29395E+08         0.29372E+06         0.00000E+00
    0.29372E+06        -0.61268E+08         0.00000E+00
    0.00000E+00         0.00000E+00        -0.28621E+08
 
   -0.29635E+08         0.21662E+06         0.00000E+00
    0.21662E+06        -0.61576E+08         0.00000E+00
    0.00000E+00         0.00000E+00        -0.28708E+08
 
   -0.29894E+08         0.14474E+06         0.00000E+00
    0.14474E+06        -0.61863E+08         0.00000E+00
    0.00000E+00         0.00000E+00        -0.28758E+08
 
   -0.30179E+08         0.81764E+05         0.00000E+00
    0.81764E+05        -0.62134E+08         0.00000E+00
    0.00000E+00         0.00000E+00        -0.28771E+08
 
   -0.30490E+08         0.26369E+05         0.00000E+00
    0.26369E+05        -0.62394E+08         0.00000E+00
    0.00000E+00         0.00000E+00        -0.28750E+08
 
   -0.12103E+08         0.19980E+05         0.00000E+00
    0.19980E+05        -0.27793E+08         0.00000E+00
    0.00000E+00         0.00000E+00        -0.14682E+08
 
   -0.12464E+08         0.81590E+05         0.00000E+00
    0.81590E+05        -0.28013E+08         0.00000E+00
    0.00000E+00         0.00000E+00        -0.14646E+08
 
   -0.12773E+08         0.17022E+06         0.00000E+00
    0.17022E+06        -0.28250E+08         0.00000E+00
    0.00000E+00         0.00000E+00        -0.14646E+08
 
   -0.13039E+08         0.26357E+06         0.00000E+00
    0.26357E+06        -0.28539E+08         0.00000E+00
    0.00000E+00         0.00000E+00        -0.14646E+08
 
   -0.13275E+08         0.36356E+06         0.00000E+00
    0.36356E+06        -0.28877E+08         0.00000E+00
    0.00000E+00         0.00000E+00        -0.14646E+08
 
   -0.13488E+08         0.46300E+06         0.00000E+00
    0.46300E+06        -0.29255E+08         0.00000E+00
    0.00000E+00         0.00000E+00        -0.14646E+08
 
   -0.13690E+08         0.55700E+06         0.00000E+00
    0.55700E+06        -0.29663E+08         0.00000E+00
    0.00000E+00         0.00000E+00        -0.14646E+08
 
   -0.13888E+08         0.65246E+06         0.00000E+00
    0.65246E+06        -0.30085E+08         0.00000E+00
    0.00000E+00         0.00000E+00        -0.14686E+08
 
   -0.14070E+08         0.70033E+06         0.00000E+00
    0.70033E+06        -0.30490E+08         0.00000E+00
    0.00000E+00         0.00000E+00        -0.14796E+08
 
   -0.14260E+08         0.76018E+06         0.00000E+00
    0.76018E+06        -0.30851E+08         0.00000E+00
    0.00000E+00         0.00000E+00        -0.14962E+08
 
   -0.14456E+08         0.81681E+06         0.00000E+00
    0.81681E+06        -0.31207E+08         0.00000E+00
    0.00000E+00         0.00000E+00        -0.15134E+08
 
   -0.14652E+08         0.87195E+06         0.00000E+00
    0.87195E+06        -0.31569E+08         0.00000E+00
    0.00000E+00         0.00000E+00        -0.15308E+08
 
   -0.14847E+08         0.92165E+06         0.00000E+00
    0.92165E+06        -0.31938E+08         0.00000E+00
    0.00000E+00         0.00000E+00        -0.15480E+08
 
   -0.15042E+08         0.96589E+06         0.00000E+00
    0.96589E+06        -0.32312E+08         0.00000E+00
    0.00000E+00         0.00000E+00        -0.15649E+08
 
   -0.15235E+08         0.10056E+07         0.00000E+00
    0.10056E+07        -0.32687E+08         0.00000E+00
    0.00000E+00         0.00000E+00        -0.15813E+08
 
   -0.15427E+08         0.10414E+07         0.00000E+00
    0.10414E+07        -0.33063E+08         0.00000E+00
    0.00000E+00         0.00000E+00        -0.15972E+08
 
   -0.15615E+08         0.10738E+07         0.00000E+00
    0.10738E+07        -0.33439E+08         0.00000E+00
    0.00000E+00         0.00000E+00        -0.16126E+08
 
   -0.15800E+08         0.11029E+07         0.00000E+00
    0.11029E+07        -0.33813E+08         0.00000E+00
    0.00000E+00         0.00000E+00        -0.16273E+08
 
   -0.15981E+08         0.11286E+07         0.00000E+00
    0.11286E+07        -0.34187E+08         0.00000E+00
    0.00000E+00         0.00000E+00        -0.16415E+08
 
   -0.16158E+08         0.11508E+07         0.00000E+00
    0.11508E+07        -0.34561E+08         0.00000E+00
    0.00000E+00         0.00000E+00        -0.16551E+08
 
   -0.16330E+08         0.11695E+07         0.00000E+00
    0.11695E+07        -0.34934E+08         0.00000E+00
    0.00000E+00         0.00000E+00        -0.16681E+08
 
   -0.16498E+08         0.11847E+07         0.00000E+00
    0.11847E+07        -0.35309E+08         0.00000E+00
    0.00000E+00         0.00000E+00        -0.16807E+08
 
   -0.16663E+08         0.11968E+07         0.00000E+00
    0.11968E+07        -0.35686E+08         0.00000E+00
    0.00000E+00         0.00000E+00        -0.16927E+08
 
   -0.16824E+08         0.12071E+07         0.00000E+00
    0.12071E+07        -0.36066E+08         0.00000E+00
    0.00000E+00         0.00000E+00        -0.17042E+08
 
   -0.16982E+08         0.12181E+07         0.00000E+00
    0.12181E+07        -0.36447E+08         0.00000E+00
    0.00000E+00         0.00000E+00        -0.17157E+08
 
   -0.17134E+08         0.12176E+07         0.00000E+00
    0.12176E+07        -0.36805E+08         0.00000E+00
    0.00000E+00         0.00000E+00        -0.17298E+08
 
   -0.17284E+08         0.12152E+07         0.00000E+00
    0.12152E+07        -0.37151E+08         0.00000E+00
    0.00000E+00         0.00000E+00        -0.17453E+08
 
   -0.17434E+08         0.12133E+07         0.00000E+00
    0.12133E+07        -0.37498E+08         0.00000E+00
    0.00000E+00         0.00000E+00        -0.17604E+08
 
   -0.17583E+08         0.12129E+07         0.00000E+00
    0.12129E+07        -0.37847E+08         0.00000E+00
    0.00000E+00         0.00000E+00        -0.17753E+08
 
   -0.17732E+08         0.12133E+07         0.00000E+00
    0.12133E+07        -0.38198E+08         0.00000E+00
    0.00000E+00         0.00000E+00        -0.17900E+08
 
   -0.17880E+08         0.12142E+07         0.00000E+00
    0.12142E+07        -0.38551E+08         0.00000E+00
    0.00000E+00         0.00000E+00        -0.18043E+08
 
   -0.18028E+08         0.12151E+07         0.00000E+00
    0.12151E+07        -0.38906E+08         0.00000E+00
    0.00000E+00         0.00000E+00        -0.18185E+08
 
   -0.18176E+08         0.12158E+07         0.00000E+00
    0.12158E+07        -0.39261E+08         0.00000E+00
    0.00000E+00         0.00000E+00        -0.18324E+08
 
   -0.18324E+08         0.12158E+07         0.00000E+00
    0.12158E+07        -0.39618E+08         0.00000E+00
    0.00000E+00         0.00000E+00        -0.18460E+08
 
   -0.18472E+08         0.12151E+07         0.00000E+00
    0.12151E+07        -0.39976E+08         0.00000E+00
    0.00000E+00         0.00000E+00        -0.18595E+08
 
   -0.18620E+08         0.12133E+07         0.00000E+00
    0.12133E+07        -0.40336E+08         0.00000E+00
    0.00000E+00         0.00000E+00        -0.18727E+08
 
   -0.18768E+08         0.12106E+07         0.00000E+00
    0.12106E+07        -0.40697E+08         0.00000E+00
    0.00000E+00         0.00000E+00        -0.18858E+08
 
   -0.18917E+08         0.12073E+07         0.00000E+00
    0.12073E+07        -0.41061E+08         0.00000E+00
    0.00000E+00         0.00000E+00        -0.18986E+08
 
   -0.19066E+08         0.12038E+07         0.00000E+00
    0.12038E+07        -0.41426E+08         0.00000E+00
    0.00000E+00         0.00000E+00        -0.19113E+08
 
   -0.19214E+08         0.11977E+07         0.00000E+00
    0.11977E+07        -0.41784E+08         0.00000E+00
    0.00000E+00         0.00000E+00        -0.19251E+08
 
   -0.19363E+08         0.11860E+07         0.00000E+00
    0.11860E+07        -0.42128E+08         0.00000E+00
    0.00000E+00         0.00000E+00        -0.19407E+08
 
   -0.19513E+08         0.11763E+07         0.00000E+00
    0.11763E+07        -0.42473E+08         0.00000E+00
    0.00000E+00         0.00000E+00        -0.19563E+08
 
   -0.19665E+08         0.11675E+07         0.00000E+00
    0.11675E+07        -0.42820E+08         0.00000E+00
    0.00000E+00         0.00000E+00        -0.19717E+08
 
   -0.19818E+08         0.11594E+07         0.00000E+00
    0.11594E+07        -0.43169E+08         0.00000E+00
    0.00000E+00         0.00000E+00        -0.19870E+08
 
   -0.19973E+08         0.11514E+07         0.00000E+00
    0.11514E+07        -0.43520E+08         0.00000E+00
    0.00000E+00         0.00000E+00        -0.20023E+08
 
   -0.20129E+08         0.11435E+07         0.00000E+00
    0.11435E+07        -0.43873E+08         0.00000E+00
    0.00000E+00         0.00000E+00        -0.20174E+08
 
   -0.20286E+08         0.11357E+07         0.00000E+00
    0.11357E+07        -0.44227E+08         0.00000E+00
    0.00000E+00         0.00000E+00        -0.20325E+08
 
   -0.20445E+08         0.11279E+07         0.00000E+00
    0.11279E+07        -0.44584E+08         0.00000E+00
    0.00000E+00         0.00000E+00        -0.20475E+08
 
   -0.20605E+08         0.11200E+07         0.00000E+00
    0.11200E+07        -0.44937E+08         0.00000E+00
    0.00000E+00         0.00000E+00        -0.20630E+08
 
   -0.20766E+08         0.11096E+07         0.00000E+00
    0.11096E+07        -0.45280E+08         0.00000E+00
    0.00000E+00         0.00000E+00        -0.20796E+08
 
   -0.20929E+08         0.11000E+07         0.00000E+00
    0.11000E+07        -0.45624E+08         0.00000E+00
    0.00000E+00         0.00000E+00        -0.20964E+08
 
   -0.21092E+08         0.10913E+07         0.00000E+00
    0.10913E+07        -0.45969E+08         0.00000E+00
    0.00000E+00         0.00000E+00        -0.21131E+08
 
   -0.21257E+08         0.10830E+07         0.00000E+00
    0.10830E+07        -0.46315E+08         0.00000E+00
    0.00000E+00         0.00000E+00        -0.21297E+08
 
   -0.21424E+08         0.10752E+07         0.00000E+00
    0.10752E+07        -0.46663E+08         0.00000E+00
    0.00000E+00         0.00000E+00        -0.21464E+08
 
   -0.21592E+08         0.10677E+07         0.00000E+00
    0.10677E+07        -0.47012E+08         0.00000E+00
    0.00000E+00         0.00000E+00        -0.21629E+08
 
   -0.21760E+08         0.10606E+07         0.00000E+00
    0.10606E+07        -0.47361E+08         0.00000E+00
    0.00000E+00         0.00000E+00        -0.21795E+08
 
   -0.21930E+08         0.10539E+07         0.00000E+00
    0.10539E+07        -0.47711E+08         0.00000E+00
    0.00000E+00         0.00000E+00        -0.21961E+08
 
   -0.22101E+08         0.10465E+07         0.00000E+00
    0.10465E+07        -0.48056E+08         0.00000E+00
    0.00000E+00         0.00000E+00        -0.22133E+08
 
   -0.22272E+08         0.10394E+07         0.00000E+00
    0.10394E+07        -0.48399E+08         0.00000E+00
    0.00000E+00         0.00000E+00        -0.22308E+08
 
   -0.22445E+08         0.10328E+07         0.00000E+00
    0.10328E+07        -0.48742E+08         0.00000E+00
    0.00000E+00         0.00000E+00        -0.22482E+08
 
   -0.22618E+08         0.10267E+07         0.00000E+00
    0.10267E+07        -0.49086E+08         0.00000E+00
    0.00000E+00         0.00000E+00        -0.22656E+08
 
   -0.22792E+08         0.10211E+07         0.00000E+00
    0.10211E+07        -0.49431E+08         0.00000E+00
    0.00000E+00         0.00000E+00        -0.22830E+08
 
   -0.22966E+08         0.10157E+07         0.00000E+00
    0.10157E+07        -0.49776E+08         0.00000E+00
    0.00000E+00         0.00000E+00        -0.23004E+08
 
   -0.23142E+08         0.10107E+07         0.00000E+00
    0.10107E+07        -0.50120E+08         0.00000E+00
    0.00000E+00         0.00000E+00        -0.23177E+08
 
   -0.23318E+08         0.10058E+07         0.00000E+00
    0.10058E+07        -0.50465E+08         0.00000E+00
    0.00000E+00         0.00000E+00        -0.23350E+08
 
   -0.23494E+08         0.10011E+07         0.00000E+00
    0.10011E+07        -0.50810E+08         0.00000E+00
    0.00000E+00         0.00000E+00        -0.23523E+08
 
   -0.23672E+08         0.99629E+06         0.00000E+00
    0.99629E+06        -0.51154E+08         0.00000E+00
    0.00000E+00         0.00000E+00        -0.23697E+08
 
   -0.23853E+08         0.99131E+06         0.00000E+00
    0.99131E+06        -0.51494E+08         0.00000E+00
    0.00000E+00         0.00000E+00        -0.23873E+08
 
   -0.24035E+08         0.98621E+06         0.00000E+00
    0.98621E+06        -0.51834E+08         0.00000E+00
    0.00000E+00         0.00000E+00        -0.24050E+08
 
   -0.24217E+08         0.98101E+06         0.00000E+00
    0.98101E+06        -0.52175E+08         0.00000E+00
    0.00000E+00         0.00000E+00        -0.24227E+08
 
   -0.24400E+08         0.97564E+06         0.00000E+00
    0.97564E+06        -0.52515E+08         0.00000E+00
    0.00000E+00         0.00000E+00        -0.24403E+08
 
   -0.24583E+08         0.97006E+06         0.00000E+00
    0.97006E+06        -0.52855E+08         0.00000E+00
    0.00000E+00         0.00000E+00        -0.24579E+08
 
   -0.24767E+08         0.96419E+06         0.00000E+00
    0.96419E+06        -0.53195E+08         0.00000E+00
    0.00000E+00         0.00000E+00        -0.24754E+08
 
   -0.24951E+08         0.95796E+06         0.00000E+00
    0.95796E+06        -0.53536E+08         0.00000E+00
    0.00000E+00         0.00000E+00        -0.24930E+08
 
   -0.25136E+08         0.95130E+06         0.00000E+00
    0.95130E+06        -0.53877E+08         0.00000E+00
    0.00000E+00         0.00000E+00        -0.25105E+08
 
   -0.25321E+08         0.94409E+06         0.00000E+00
    0.94409E+06        -0.54218E+08         0.00000E+00
    0.00000E+00         0.00000E+00        -0.25279E+08
 
   -0.25507E+08         0.93621E+06         0.00000E+00
    0.93621E+06        -0.54560E+08         0.00000E+00
    0.00000E+00         0.00000E+00        -0.25453E+08
 
   -0.25694E+08         0.92752E+06         0.00000E+00
    0.92752E+06        -0.54902E+08         0.00000E+00
    0.00000E+00         0.00000E+00        -0.25627E+08
 
   -0.25883E+08         0.91782E+06         0.00000E+00
    0.91782E+06        -0.55245E+08         0.00000E+00
    0.00000E+00         0.00000E+00        -0.25800E+08
 
   -0.26072E+08         0.90691E+06         0.00000E+00
    0.90691E+06        -0.55589E+08         0.00000E+00
    0.00000E+00         0.00000E+00        -0.25973E+08
 
   -0.26264E+08         0.89454E+06         0.00000E+00
    0.89454E+06        -0.55934E+08         0.00000E+00
    0.00000E+00         0.00000E+00        -0.26146E+08
 
   -0.26457E+08         0.88040E+06         0.00000E+00
    0.88040E+06        -0.56281E+08         0.00000E+00
    0.00000E+00         0.00000E+00        -0.26318E+08
 
   -0.26651E+08         0.86415E+06         0.00000E+00
    0.86415E+06        -0.56629E+08         0.00000E+00
    0.00000E+00         0.00000E+00        -0.26490E+08
 
   -0.26849E+08         0.84542E+06         0.00000E+00
    0.84542E+06        -0.56980E+08         0.00000E+00
    0.00000E+00         0.00000E+00        -0.26661E+08
 
   -0.27048E+08         0.82379E+06         0.00000E+00
    0.82379E+06        -0.57333E+08         0.00000E+00
    0.00000E+00         0.00000E+00        -0.26833E+08
 
   -0.27250E+08         0.79879E+06         0.00000E+00
    0.79879E+06        -0.57688E+08         0.00000E+00
    0.00000E+00         0.00000E+00        -0.27005E+08
 
   -0.27454E+08         0.76993E+06         0.00000E+00
    0.76993E+06        -0.58046E+08         0.00000E+00
    0.00000E+00         0.00000E+00        -0.27176E+08
 
   -0.27662E+08         0.73672E+06         0.00000E+00
    0.73672E+06        -0.58407E+08         0.00000E+00
    0.00000E+00         0.00000E+00        -0.27348E+08
 
   -0.27871E+08         0.69864E+06         0.00000E+00
    0.69864E+06        -0.58770E+08         0.00000E+00
    0.00000E+00         0.00000E+00        -0.27519E+08
 
   -0.28084E+08         0.65520E+06         0.00000E+00
    0.65520E+06        -0.59135E+08         0.00000E+00
    0.00000E+00         0.00000E+00        -0.27690E+08
 
   -0.28298E+08         0.60593E+06         0.00000E+00
    0.60593E+06        -0.59501E+08         0.00000E+00
    0.00000E+00         0.00000E+00        -0.27858E+08
 
   -0.28515E+08         0.55049E+06         0.00000E+00
    0.55049E+06        -0.59866E+08         0.00000E+00
    0.00000E+00         0.00000E+00        -0.28024E+08
 
   -0.28734E+08         0.48876E+06         0.00000E+00
    0.48876E+06        -0.60227E+08         0.00000E+00
    0.00000E+00         0.00000E+00        -0.28184E+08
 
   -0.28956E+08         0.42103E+06         0.00000E+00
    0.42103E+06        -0.60582E+08         0.00000E+00
    0.00000E+00         0.00000E+00        -0.28335E+08
 
   -0.29181E+08         0.34832E+06         0.00000E+00
    0.34832E+06        -0.60925E+08         0.00000E+00
    0.00000E+00         0.00000E+00        -0.28472E+08
 
   -0.29413E+08         0.27297E+06         0.00000E+00
    0.27297E+06        -0.61253E+08         0.00000E+00
    0.00000E+00         0.00000E+00        -0.28587E+08
 
   -0.29658E+08         0.19911E+06         0.00000E+00
    0.19911E+06        -0.61562E+08         0.00000E+00
    0.00000E+00         0.00000E+00        -0.28672E+08
 
   -0.29921E+08         0.13175E+06         0.00000E+00
    0.13175E+06        -0.61852E+08         0.00000E+00
    0.00000E+00         0.00000E+00        -0.28722E+08
 
   -0.30208E+08         0.73933E+05         0.00000E+00
    0.73933E+05        -0.62125E+08         0.00000E+00
    0.00000E+00         0.00000E+00        -0.28734E+08
 
   -0.30521E+08         0.23777E+05         0.00000E+00
    0.23777E+05        -0.62385E+08         0.00000E+00
    0.00000E+00         0.00000E+00        -0.28714E+08
 
   -0.12034E+08         0.17678E+05         0.00000E+00
    0.17678E+05        -0.27794E+08         0.00000E+00
    0.00000E+00         0.00000E+00        -0.14727E+08
 
   -0.12373E+08         0.76647E+05         0.00000E+00
    0.76647E+05        -0.28038E+08         0.00000E+00
    0.00000E+00         0.00000E+00        -0.14646E+08
 
   -0.12685E+08         0.15489E+06         0.00000E+00
    0.15489E+06        -0.28264E+08         0.00000E+00
    0.00000E+00         0.00000E+00        -0.14646E+08
 
   -0.12958E+08         0.24210E+06         0.00000E+00
    0.24210E+06        -0.28559E+08         0.00000E+00
    0.00000E+00         0.00000E+00        -0.14646E+08
 
   -0.13202E+08         0.33664E+06         0.00000E+00
    0.33664E+06        -0.28896E+08         0.00000E+00
    0.00000E+00         0.00000E+00        -0.14646E+08
 
   -0.13422E+08         0.43184E+06         0.00000E+00
    0.43184E+06        -0.29275E+08         0.00000E+00
    0.00000E+00         0.00000E+00        -0.14646E+08
 
   -0.13631E+08         0.52757E+06         0.00000E+00
    0.52757E+06        -0.29680E+08         0.00000E+00
    0.00000E+00         0.00000E+00        -0.14646E+08
 
   -0.13839E+08         0.61726E+06         0.00000E+00
    0.61726E+06        -0.30098E+08         0.00000E+00
    0.00000E+00         0.00000E+00        -0.14701E+08
 
   -0.14032E+08         0.66632E+06         0.00000E+00
    0.66632E+06        -0.30504E+08         0.00000E+00
    0.00000E+00         0.00000E+00        -0.14820E+08
 
   -0.14231E+08         0.72749E+06         0.00000E+00
    0.72749E+06        -0.30862E+08         0.00000E+00
    0.00000E+00         0.00000E+00        -0.14981E+08
 
   -0.14431E+08         0.78431E+06         0.00000E+00
    0.78431E+06        -0.31218E+08         0.00000E+00
    0.00000E+00         0.00000E+00        -0.15147E+08
 
   -0.14629E+08         0.83903E+06         0.00000E+00
    0.83903E+06        -0.31579E+08         0.00000E+00
    0.00000E+00         0.00000E+00        -0.15316E+08
 
   -0.14826E+08         0.88863E+06         0.00000E+00
    0.88863E+06        -0.31948E+08         0.00000E+00
    0.00000E+00         0.00000E+00        -0.15484E+08
 
   -0.15021E+08         0.93273E+06         0.00000E+00
    0.93273E+06        -0.32320E+08         0.00000E+00
    0.00000E+00         0.00000E+00        -0.15649E+08
 
   -0.15214E+08         0.97211E+06         0.00000E+00
    0.97211E+06        -0.32695E+08         0.00000E+00
    0.00000E+00         0.00000E+00        -0.15811E+08
 
   -0.15406E+08         0.10075E+07         0.00000E+00
    0.10075E+07        -0.33070E+08         0.00000E+00
    0.00000E+00         0.00000E+00        -0.15968E+08
 
   -0.15594E+08         0.10392E+07         0.00000E+00
    0.10392E+07        -0.33445E+08         0.00000E+00
    0.00000E+00         0.00000E+00        -0.16119E+08
 
   -0.15778E+08         0.10676E+07         0.00000E+00
    0.10676E+07        -0.33819E+08         0.00000E+00
    0.00000E+00         0.00000E+00        -0.16265E+08
 
   -0.15959E+08         0.10925E+07         0.00000E+00
    0.10925E+07        -0.34192E+08         0.00000E+00
    0.00000E+00         0.00000E+00        -0.16406E+08
 
   -0.16136E+08         0.11140E+07         0.00000E+00
    0.11140E+07        -0.34565E+08         0.00000E+00
    0.00000E+00         0.00000E+00        -0.16541E+08
 
   -0.16309E+08         0.11319E+07         0.00000E+00
    0.11319E+07        -0.34937E+08         0.00000E+00
    0.00000E+00         0.00000E+00        -0.16670E+08
 
   -0.16478E+08         0.11463E+07         0.00000E+00
    0.11463E+07        -0.35312E+08         0.00000E+00
    0.00000E+00         0.00000E+00        -0.16795E+08
 
   -0.16643E+08         0.11578E+07         0.00000E+00
    0.11578E+07        -0.35688E+08         0.00000E+00
    0.00000E+00         0.00000E+00        -0.16915E+08
 
   -0.16804E+08         0.11675E+07         0.00000E+00
    0.11675E+07        -0.36068E+08         0.00000E+00
    0.00000E+00         0.00000E+00        -0.17030E+08
 
   -0.16963E+08         0.11778E+07         0.00000E+00
    0.11778E+07        -0.36448E+08         0.00000E+00
    0.00000E+00         0.00000E+00        -0.17147E+08
 
   -0.17116E+08         0.11763E+07         0.00000E+00
    0.11763E+07        -0.36805E+08         0.00000E+00
    0.00000E+00         0.00000E+00        -0.17289E+08
 
   -0.17267E+08         0.11739E+07         0.00000E+00
    0.11739E+07        -0.37150E+08         0.00000E+00
    0.00000E+00         0.00000E+00        -0.17443E+08
 
   -0.17417E+08         0.11719E+07         0.00000E+00
    0.11719E+07        -0.37497E+08         0.00000E+00
    0.00000E+00         0.00000E+00        -0.17595E+08
 
   -0.17566E+08         0.11714E+07         0.00000E+00
    0.11714E+07        -0.37847E+08         0.00000E+00
    0.00000E+00         0.00000E+00        -0.17744E+08
 
   -0.17715E+08         0.11719E+07         0.00000E+00
    0.11719E+07        -0.38198E+08         0.00000E+00
    0.00000E+00         0.00000E+00        -0.17890E+08
 
   -0.17864E+08         0.11728E+07         0.00000E+00
    0.11728E+07        -0.38551E+08         0.00000E+00
    0.00000E+00         0.00000E+00        -0.18034E+08
 
   -0.18012E+08         0.11738E+07         0.00000E+00
    0.11738E+07        -0.38906E+08         0.00000E+00
    0.00000E+00         0.00000E+00        -0.18176E+08
 
   -0.18161E+08         0.11745E+07         0.00000E+00
    0.11745E+07        -0.39262E+08         0.00000E+00
    0.00000E+00         0.00000E+00        -0.18315E+08
 
   -0.18310E+08         0.11746E+07         0.00000E+00
    0.11746E+07        -0.39618E+08         0.00000E+00
    0.00000E+00         0.00000E+00        -0.18452E+08
 
   -0.18458E+08         0.11739E+07         0.00000E+00
    0.11739E+07        -0.39976E+08         0.00000E+00
    0.00000E+00         0.00000E+00        -0.18587E+08
 
   -0.18607E+08         0.11722E+07         0.00000E+00
    0.11722E+07        -0.40336E+08         0.00000E+00
    0.00000E+00         0.00000E+00        -0.18719E+08
 
   -0.18756E+08         0.11696E+07         0.00000E+00
    0.11696E+07        -0.40697E+08         0.00000E+00
    0.00000E+00         0.00000E+00        -0.18850E+08
 
   -0.18905E+08         0.11665E+07         0.00000E+00
    0.11665E+07        -0.41060E+08         0.00000E+00
    0.00000E+00         0.00000E+00        -0.18979E+08
 
   -0.19055E+08         0.11633E+07         0.00000E+00
    0.11633E+07        -0.41425E+08         0.00000E+00
    0.00000E+00         0.00000E+00        -0.19106E+08
 
   -0.19204E+08         0.11567E+07         0.00000E+00
    0.11567E+07        -0.41782E+08         0.00000E+00
    0.00000E+00         0.00000E+00        -0.19246E+08
 
   -0.19353E+08         0.11457E+07         0.00000E+00
    0.11457E+07        -0.42126E+08         0.00000E+00
    0.00000E+00         0.00000E+00        -0.19402E+08
 
   -0.19504E+08         0.11362E+07         0.00000E+00
    0.11362E+07        -0.42471E+08         0.00000E+00
    0.00000E+00         0.00000E+00        -0.19558E+08
 
   -0.19656E+08         0.11278E+07         0.00000E+00
    0.11278E+07        -0.42818E+08         0.00000E+00
    0.00000E+00         0.00000E+00        -0.19712E+08
 
   -0.19810E+08         0.11200E+07         0.00000E+00
    0.11200E+07        -0.43167E+08         0.00000E+00
    0.00000E+00         0.00000E+00        -0.19866E+08
 
   -0.19965E+08         0.11124E+07         0.00000E+00
    0.11124E+07        -0.43518E+08         0.00000E+00
    0.00000E+00         0.00000E+00        -0.20018E+08
 
   -0.20122E+08         0.11049E+07         0.00000E+00
    0.11049E+07        -0.43871E+08         0.00000E+00
    0.00000E+00         0.00000E+00        -0.20170E+08
 
   -0.20280E+08         0.10974E+07         0.00000E+00
    0.10974E+07        -0.44226E+08         0.00000E+00
    0.00000E+00         0.00000E+00        -0.20321E+08
 
   -0.20439E+08         0.10899E+07         0.00000E+00
    0.10899E+07        -0.44582E+08         0.00000E+00
    0.00000E+00         0.00000E+00        -0.20471E+08
 
   -0.20599E+08         0.10823E+07         0.00000E+00
    0.10823E+07        -0.44935E+08         0.00000E+00
    0.00000E+00         0.00000E+00        -0.20626E+08
 
   -0.20760E+08         0.10721E+07         0.00000E+00
    0.10721E+07        -0.45278E+08         0.00000E+00
    0.00000E+00         0.00000E+00        -0.20793E+08
 
   -0.20923E+08         0.10629E+07         0.00000E+00
    0.10629E+07        -0.45622E+08         0.00000E+00
    0.00000E+00         0.00000E+00        -0.20961E+08
 
   -0.21087E+08         0.10545E+07         0.00000E+00
    0.10545E+07        -0.45967E+08         0.00000E+00
    0.00000E+00         0.00000E+00        -0.21128E+08
 
   -0.21252E+08         0.10466E+07         0.00000E+00
    0.10466E+07        -0.46314E+08         0.00000E+00
    0.00000E+00         0.00000E+00        -0.21294E+08
 
   -0.21419E+08         0.10391E+07         0.00000E+00
    0.10391E+07        -0.46662E+08         0.00000E+00
    0.00000E+00         0.00000E+00        -0.21460E+08
 
   -0.21587E+08         0.10320E+07         0.00000E+00
    0.10320E+07        -0.47010E+08         0.00000E+00
    0.00000E+00         0.00000E+00        -0.21626E+08
 
   -0.21756E+08         0.10251E+07         0.00000E+00
    0.10251E+07        -0.47360E+08         0.00000E+00
    0.00000E+00         0.00000E+00        -0.21792E+08
 
   -0.21926E+08         0.10186E+07         0.00000E+00
    0.10186E+07        -0.47710E+08         0.00000E+00
    0.00000E+00         0.00000E+00        -0.21958E+08
 
   -0.22097E+08         0.10114E+07         0.00000E+00
    0.10114E+07        -0.48054E+08         0.00000E+00
    0.00000E+00         0.00000E+00        -0.22131E+08
 
   -0.22268E+08         0.10046E+07         0.00000E+00
    0.10046E+07        -0.48397E+08         0.00000E+00
    0.00000E+00         0.00000E+00        -0.22305E+08
 
   -0.22441E+08         0.99821E+06         0.00000E+00
    0.99821E+06        -0.48741E+08         0.00000E+00
    0.00000E+00         0.00000E+00        -0.22479E+08
 
   -0.22614E+08         0.99232E+06         0.00000E+00
    0.99232E+06        -0.49085E+08         0.00000E+00
    0.00000E+00         0.00000E+00        -0.22653E+08
 
   -0.22788E+08         0.98684E+06         0.00000E+00
    0.98684E+06        -0.49430E+08         0.00000E+00
    0.00000E+00         0.00000E+00        -0.22827E+08
 
   -0.22963E+08         0.98171E+06         0.00000E+00
    0.98171E+06        -0.49775E+08         0.00000E+00
    0.00000E+00         0.00000E+00        -0.23001E+08
 
   -0.23138E+08         0.97682E+06         0.00000E+00
    0.97682E+06        -0.50119E+08         0.00000E+00
    0.00000E+00         0.00000E+00        -0.23174E+08
 
   -0.23314E+08         0.97212E+06         0.00000E+00
    0.97212E+06        -0.50464E+08         0.00000E+00
    0.00000E+00         0.00000E+00        -0.23347E+08
 
   -0.23491E+08         0.96751E+06         0.00000E+00
    0.96751E+06        -0.50809E+08         0.00000E+00
    0.00000E+00         0.00000E+00        -0.23520E+08
 
   -0.23669E+08         0.96288E+06         0.00000E+00
    0.96288E+06        -0.51153E+08         0.00000E+00
    0.00000E+00         0.00000E+00        -0.23694E+08
 
   -0.23850E+08         0.95804E+06         0.00000E+00
    0.95804E+06        -0.51493E+08         0.00000E+00
    0.00000E+00         0.00000E+00        -0.23870E+08
 
   -0.24032E+08         0.95309E+06         0.00000E+00
    0.95309E+06        -0.51833E+08         0.00000E+00
    0.00000E+00         0.00000E+00        -0.24047E+08
 
   -0.24215E+08         0.94803E+06         0.00000E+00
    0.94803E+06        -0.52173E+08         0.00000E+00
    0.00000E+00         0.00000E+00        -0.24223E+08
 
   -0.24398E+08         0.94282E+06         0.00000E+00
    0.94282E+06        -0.52513E+08         0.00000E+00
    0.00000E+00         0.00000E+00        -0.24399E+08
 
   -0.24581E+08         0.93739E+06         0.00000E+00
    0.93739E+06        -0.52854E+08         0.00000E+00
    0.00000E+00         0.00000E+00        -0.24575E+08
 
   -0.24765E+08         0.93170E+06         0.00000E+00
    0.93170E+06        -0.53194E+08         0.00000E+00
    0.00000E+00         0.00000E+00        -0.24750E+08
 
   -0.24949E+08         0.92566E+06         0.00000E+00
    0.92566E+06        -0.53535E+08         0.00000E+00
    0.00000E+00         0.00000E+00        -0.24925E+08
 
   -0.25134E+08         0.91919E+06         0.00000E+00
    0.91919E+06        -0.53875E+08         0.00000E+00
    0.00000E+00         0.00000E+00        -0.25100E+08
 
   -0.25320E+08         0.91221E+06         0.00000E+00
    0.91221E+06        -0.54217E+08         0.00000E+00
    0.00000E+00         0.00000E+00        -0.25274E+08
 
   -0.25507E+08         0.90458E+06         0.00000E+00
    0.90458E+06        -0.54558E+08         0.00000E+00
    0.00000E+00         0.00000E+00        -0.25448E+08
 
   -0.25694E+08         0.89617E+06         0.00000E+00
    0.89617E+06        -0.54900E+08         0.00000E+00
    0.00000E+00         0.00000E+00        -0.25621E+08
 
   -0.25883E+08         0.88679E+06         0.00000E+00
    0.88679E+06        -0.55243E+08         0.00000E+00
    0.00000E+00         0.00000E+00        -0.25794E+08
 
   -0.26073E+08         0.87624E+06         0.00000E+00
    0.87624E+06        -0.55587E+08         0.00000E+00
    0.00000E+00         0.00000E+00        -0.25966E+08
 
   -0.26264E+08         0.86426E+06         0.00000E+00
    0.86426E+06        -0.55932E+08         0.00000E+00
    0.00000E+00         0.00000E+00        -0.26138E+08
 
   -0.26458E+08         0.85057E+06         0.00000E+00
    0.85057E+06        -0.56278E+08         0.00000E+00
    0.00000E+00         0.00000E+00        -0.26310E+08
 
   -0.26653E+08         0.83481E+06         0.00000E+00
    0.83481E+06        -0.56626E+08         0.00000E+00
    0.00000E+00         0.00000E+00        -0.26481E+08
 
   -0.26850E+08         0.81661E+06         0.00000E+00
    0.81661E+06        -0.56976E+08         0.00000E+00
    0.00000E+00         0.00000E+00        -0.26652E+08
 
   -0.27050E+08         0.79553E+06         0.00000E+00
    0.79553E+06        -0.57328E+08         0.00000E+00
    0.00000E+00         0.00000E+00        -0.26823E+08
 
   -0.27252E+08         0.77112E+06         0.00000E+00
    0.77112E+06        -0.57683E+08         0.00000E+00
    0.00000E+00         0.00000E+00        -0.26993E+08
 
   -0.27457E+08         0.74287E+06         0.00000E+00
    0.74287E+06        -0.58040E+08         0.00000E+00
    0.00000E+00         0.00000E+00        -0.27164E+08
 
   -0.27665E+08         0.71027E+06         0.00000E+00
    0.71027E+06        -0.58400E+08         0.00000E+00
    0.00000E+00         0.00000E+00        -0.27334E+08
 
   -0.27876E+08         0.67279E+06         0.00000E+00
    0.67279E+06        -0.58762E+08         0.00000E+00
    0.00000E+00         0.00000E+00        -0.27504E+08
 
   -0.28089E+08         0.62992E+06         0.00000E+00
    0.62992E+06        -0.59126E+08         0.00000E+00
    0.00000E+00         0.00000E+00        -0.27672E+08
 
   -0.28305E+08         0.58120E+06         0.00000E+00
    0.58120E+06        -0.59490E+08         0.00000E+00
    0.00000E+00         0.00000E+00        -0.27839E+08
 
   -0.28523E+08         0.52629E+06         0.00000E+00
    0.52629E+06        -0.59854E+08         0.00000E+00
    0.00000E+00         0.00000E+00        -0.28002E+08
 
   -0.28744E+08         0.46510E+06         0.00000E+00
    0.46510E+06        -0.60214E+08         0.00000E+00
    0.00000E+00         0.00000E+00        -0.28160E+08
 
   -0.28968E+08         0.39804E+06         0.00000E+00
    0.39804E+06        -0.60568E+08         0.00000E+00
    0.00000E+00         0.00000E+00        -0.28308E+08
 
   -0.29197E+08         0.32643E+06         0.00000E+00
    0.32643E+06        -0.60911E+08         0.00000E+00
    0.00000E+00         0.00000E+00        -0.28442E+08
 
   -0.29433E+08         0.25308E+06         0.00000E+00
    0.25308E+06        -0.61240E+08         0.00000E+00
    0.00000E+00         0.00000E+00        -0.28554E+08
 
   -0.29681E+08         0.18244E+06         0.00000E+00
    0.18244E+06        -0.61550E+08         0.00000E+00
    0.00000E+00         0.00000E+00        -0.28637E+08
 
   -0.29947E+08         0.11941E+06         0.00000E+00
    0.11941E+06        -0.61841E+08         0.00000E+00
    0.00000E+00         0.00000E+00        -0.28686E+08
 
   -0.30237E+08         0.66489E+05         0.00000E+00
    0.66489E+05        -0.62116E+08         0.00000E+00
    0.00000E+00         0.00000E+00        -0.28699E+08
 
   -0.30551E+08         0.21308E+05         0.00000E+00
    0.21308E+05        -0.62378E+08         0.00000E+00
    0.00000E+00         0.00000E+00        -0.28679E+08
 
   -0.11960E+08         0.14005E+05         0.00000E+00
    0.14005E+05        -0.27795E+08         0.00000E+00
    0.00000E+00         0.00000E+00        -0.14770E+08
 
   -0.12281E+08         0.70038E+05         0.00000E+00
    0.70038E+05        -0.28061E+08         0.00000E+00
    0.00000E+00         0.00000E+00        -0.14646E+08
 
   -0.12598E+08         0.14015E+06         0.00000E+00
    0.14015E+06        -0.28276E+08         0.00000E+00
    0.00000E+00         0.00000E+00        -0.14646E+08
 
   -0.12877E+08         0.22242E+06         0.00000E+00
    0.22242E+06        -0.28579E+08         0.00000E+00
    0.00000E+00         0.00000E+00        -0.14646E+08
 
   -0.13128E+08         0.31135E+06         0.00000E+00
    0.31135E+06        -0.28914E+08         0.00000E+00
    0.00000E+00         0.00000E+00        -0.14646E+08
 
   -0.13357E+08         0.40180E+06         0.00000E+00
    0.40180E+06        -0.29294E+08         0.00000E+00
    0.00000E+00         0.00000E+00        -0.14646E+08
 
   -0.13575E+08         0.50051E+06         0.00000E+00
    0.50051E+06        -0.29693E+08         0.00000E+00
    0.00000E+00         0.00000E+00        -0.14652E+08
 
   -0.13790E+08         0.58308E+06         0.00000E+00
    0.58308E+06        -0.30114E+08         0.00000E+00
    0.00000E+00         0.00000E+00        -0.14716E+08
 
   -0.13996E+08         0.63554E+06         0.00000E+00
    0.63554E+06        -0.30518E+08         0.00000E+00
    0.00000E+00         0.00000E+00        -0.14845E+08
 
   -0.14204E+08         0.69566E+06         0.00000E+00
    0.69566E+06        -0.30874E+08         0.00000E+00
    0.00000E+00         0.00000E+00        -0.14999E+08
 
   -0.14407E+08         0.75244E+06         0.00000E+00
    0.75244E+06        -0.31230E+08         0.00000E+00
    0.00000E+00         0.00000E+00        -0.15161E+08
 
   -0.14608E+08         0.80648E+06         0.00000E+00
    0.80648E+06        -0.31590E+08         0.00000E+00
    0.00000E+00         0.00000E+00        -0.15325E+08
 
   -0.14806E+08         0.85575E+06         0.00000E+00
    0.85575E+06        -0.31957E+08         0.00000E+00
    0.00000E+00         0.00000E+00        -0.15489E+08
 
   -0.15001E+08         0.89957E+06         0.00000E+00
    0.89957E+06        -0.32329E+08         0.00000E+00
    0.00000E+00         0.00000E+00        -0.15651E+08
 
   -0.15194E+08         0.93857E+06         0.00000E+00
    0.93857E+06        -0.32702E+08         0.00000E+00
    0.00000E+00         0.00000E+00        -0.15809E+08
 
   -0.15385E+08         0.97342E+06         0.00000E+00
    0.97342E+06        -0.33077E+08         0.00000E+00
    0.00000E+00         0.00000E+00        -0.15964E+08
 
   -0.15573E+08         0.10046E+07         0.00000E+00
    0.10046E+07        -0.33451E+08         0.00000E+00
    0.00000E+00         0.00000E+00        -0.16113E+08
 
   -0.15757E+08         0.10322E+07         0.00000E+00
    0.10322E+07        -0.33824E+08         0.00000E+00
    0.00000E+00         0.00000E+00        -0.16257E+08
 
   -0.15938E+08         0.10565E+07         0.00000E+00
    0.10565E+07        -0.34196E+08         0.00000E+00
    0.00000E+00         0.00000E+00        -0.16397E+08
 
   -0.16115E+08         0.10772E+07         0.00000E+00
    0.10772E+07        -0.34568E+08         0.00000E+00
    0.00000E+00         0.00000E+00        -0.16531E+08
 
   -0.16288E+08         0.10944E+07         0.00000E+00
    0.10944E+07        -0.34941E+08         0.00000E+00
    0.00000E+00         0.00000E+00        -0.16660E+08
 
   -0.16457E+08         0.11082E+07         0.00000E+00
    0.11082E+07        -0.35314E+08         0.00000E+00
    0.00000E+00         0.00000E+00        -0.16784E+08
 
   -0.16623E+08         0.11189E+07         0.00000E+00
    0.11189E+07        -0.35690E+08         0.00000E+00
    0.00000E+00         0.00000E+00        -0.16903E+08
 
   -0.16785E+08         0.11281E+07         0.00000E+00
    0.11281E+07        -0.36070E+08         0.00000E+00
    0.00000E+00         0.00000E+00        -0.17018E+08
 
   -0.16944E+08         0.11375E+07         0.00000E+00
    0.11375E+07        -0.36449E+08         0.00000E+00
    0.00000E+00         0.00000E+00        -0.17137E+08
 
   -0.17098E+08         0.11353E+07         0.00000E+00
    0.11353E+07        -0.36804E+08         0.00000E+00
    0.00000E+00         0.00000E+00        -0.17280E+08
 
   -0.17249E+08         0.11326E+07         0.00000E+00
    0.11326E+07        -0.37150E+08         0.00000E+00
    0.00000E+00         0.00000E+00        -0.17434E+08
 
   -0.17399E+08         0.11307E+07         0.00000E+00
    0.11307E+07        -0.37497E+08         0.00000E+00
    0.00000E+00         0.00000E+00        -0.17586E+08
 
   -0.17549E+08         0.11301E+07         0.00000E+00
    0.11301E+07        -0.37847E+08         0.00000E+00
    0.00000E+00         0.00000E+00        -0.17735E+08
 
   -0.17699E+08         0.11305E+07         0.00000E+00
    0.11305E+07        -0.38198E+08         0.00000E+00
    0.00000E+00         0.00000E+00        -0.17881E+08
 
   -0.17848E+08         0.11315E+07         0.00000E+00
    0.11315E+07        -0.38552E+08         0.00000E+00
    0.00000E+00         0.00000E+00        -0.18025E+08
 
   -0.17997E+08         0.11325E+07         0.00000E+00
    0.11325E+07        -0.38906E+08         0.00000E+00
    0.00000E+00         0.00000E+00        -0.18167E+08
 
   -0.18146E+08         0.11333E+07         0.00000E+00
    0.11333E+07        -0.39262E+08         0.00000E+00
    0.00000E+00         0.00000E+00        -0.18306E+08
 
   -0.18296E+08         0.11336E+07         0.00000E+00
    0.11336E+07        -0.39618E+08         0.00000E+00
    0.00000E+00         0.00000E+00        -0.18443E+08
 
   -0.18445E+08         0.11330E+07         0.00000E+00
    0.11330E+07        -0.39976E+08         0.00000E+00
    0.00000E+00         0.00000E+00        -0.18578E+08
 
   -0.18595E+08         0.11314E+07         0.00000E+00
    0.11314E+07        -0.40335E+08         0.00000E+00
    0.00000E+00         0.00000E+00        -0.18711E+08
 
   -0.18744E+08         0.11288E+07         0.00000E+00
    0.11288E+07        -0.40696E+08         0.00000E+00
    0.00000E+00         0.00000E+00        -0.18842E+08
 
   -0.18894E+08         0.11258E+07         0.00000E+00
    0.11258E+07        -0.41060E+08         0.00000E+00
    0.00000E+00         0.00000E+00        -0.18971E+08
 
   -0.19045E+08         0.11230E+07         0.00000E+00
    0.11230E+07        -0.41425E+08         0.00000E+00
    0.00000E+00         0.00000E+00        -0.19099E+08
 
   -0.19194E+08         0.11158E+07         0.00000E+00
    0.11158E+07        -0.41780E+08         0.00000E+00
    0.00000E+00         0.00000E+00        -0.19241E+08
 
   -0.19344E+08         0.11054E+07         0.00000E+00
    0.11054E+07        -0.42124E+08         0.00000E+00
    0.00000E+00         0.00000E+00        -0.19398E+08
 
   -0.19495E+08         0.10962E+07         0.00000E+00
    0.10962E+07        -0.42469E+08         0.00000E+00
    0.00000E+00         0.00000E+00        -0.19553E+08
 
   -0.19648E+08         0.10882E+07         0.00000E+00
    0.10882E+07        -0.42817E+08         0.00000E+00
    0.00000E+00         0.00000E+00        -0.19708E+08
 
   -0.19802E+08         0.10807E+07         0.00000E+00
    0.10807E+07        -0.43166E+08         0.00000E+00
    0.00000E+00         0.00000E+00        -0.19862E+08
 
   -0.19957E+08         0.10735E+07         0.00000E+00
    0.10735E+07        -0.43517E+08         0.00000E+00
    0.00000E+00         0.00000E+00        -0.20014E+08
 
   -0.20114E+08         0.10664E+07         0.00000E+00
    0.10664E+07        -0.43870E+08         0.00000E+00
    0.00000E+00         0.00000E+00        -0.20166E+08
 
   -0.20273E+08         0.10592E+07         0.00000E+00
    0.10592E+07        -0.44224E+08         0.00000E+00
    0.00000E+00         0.00000E+00        -0.20317E+08
 
   -0.20433E+08         0.10520E+07         0.00000E+00
    0.10520E+07        -0.44581E+08         0.00000E+00
    0.00000E+00         0.00000E+00        -0.20467E+08
 
   -0.20593E+08         0.10446E+07         0.00000E+00
    0.10446E+07        -0.44933E+08         0.00000E+00
    0.00000E+00         0.00000E+00        -0.20623E+08
 
   -0.20754E+08         0.10347E+07         0.00000E+00
    0.10347E+07        -0.45276E+08         0.00000E+00
    0.00000E+00         0.00000E+00        -0.20790E+08
 
   -0.20917E+08         0.10259E+07         0.00000E+00
    0.10259E+07        -0.45620E+08         0.00000E+00
    0.00000E+00         0.00000E+00        -0.20958E+08
 
   -0.21081E+08         0.10178E+07         0.00000E+00
    0.10178E+07        -0.45966E+08         0.00000E+00
    0.00000E+00         0.00000E+00        -0.21125E+08
 
   -0.21247E+08         0.10103E+07         0.00000E+00
    0.10103E+07        -0.46312E+08         0.00000E+00
    0.00000E+00         0.00000E+00        -0.21291E+08
 
   -0.21414E+08         0.10031E+07         0.00000E+00
    0.10031E+07        -0.46660E+08         0.00000E+00
    0.00000E+00         0.00000E+00        -0.21458E+08
 
   -0.21582E+08         0.99622E+06         0.00000E+00
    0.99622E+06        -0.47009E+08         0.00000E+00
    0.00000E+00         0.00000E+00        -0.21623E+08
 
   -0.21751E+08         0.98963E+06         0.00000E+00
    0.98963E+06        -0.47359E+08         0.00000E+00
    0.00000E+00         0.00000E+00        -0.21789E+08
 
   -0.21921E+08         0.98336E+06         0.00000E+00
    0.98336E+06        -0.47709E+08         0.00000E+00
    0.00000E+00         0.00000E+00        -0.21955E+08
 
   -0.22092E+08         0.97637E+06         0.00000E+00
    0.97637E+06        -0.48053E+08         0.00000E+00
    0.00000E+00         0.00000E+00        -0.22128E+08
 
   -0.22264E+08         0.96976E+06         0.00000E+00
    0.96976E+06        -0.48396E+08         0.00000E+00
    0.00000E+00         0.00000E+00        -0.22302E+08
 
   -0.22437E+08         0.96361E+06         0.00000E+00
    0.96361E+06        -0.48740E+08         0.00000E+00
    0.00000E+00         0.00000E+00        -0.22477E+08
 
   -0.22610E+08         0.95793E+06         0.00000E+00
    0.95793E+06        -0.49084E+08         0.00000E+00
    0.00000E+00         0.00000E+00        -0.22651E+08
 
   -0.22784E+08         0.95266E+06         0.00000E+00
    0.95266E+06        -0.49429E+08         0.00000E+00
    0.00000E+00         0.00000E+00        -0.22824E+08
 
   -0.22959E+08         0.94771E+06         0.00000E+00
    0.94771E+06        -0.49774E+08         0.00000E+00
    0.00000E+00         0.00000E+00        -0.22998E+08
 
   -0.23135E+08         0.94300E+06         0.00000E+00
    0.94300E+06        -0.50118E+08         0.00000E+00
    0.00000E+00         0.00000E+00        -0.23171E+08
 
   -0.23311E+08         0.93846E+06         0.00000E+00
    0.93846E+06        -0.50463E+08         0.00000E+00
    0.00000E+00         0.00000E+00        -0.23344E+08
 
   -0.23488E+08         0.93400E+06         0.00000E+00
    0.93400E+06        -0.50808E+08         0.00000E+00
    0.00000E+00         0.00000E+00        -0.23517E+08
 
   -0.23666E+08         0.92952E+06         0.00000E+00
    0.92952E+06        -0.51152E+08         0.00000E+00
    0.00000E+00         0.00000E+00        -0.23690E+08
 
   -0.23848E+08         0.92481E+06         0.00000E+00
    0.92481E+06        -0.51492E+08         0.00000E+00
    0.00000E+00         0.00000E+00        -0.23867E+08
 
   -0.24030E+08         0.92001E+06         0.00000E+00
    0.92001E+06        -0.51832E+08         0.00000E+00
    0.00000E+00         0.00000E+00        -0.24043E+08
 
   -0.24213E+08         0.91511E+06         0.00000E+00
    0.91511E+06        -0.52172E+08         0.00000E+00
    0.00000E+00         0.00000E+00        -0.24219E+08
 
   -0.24396E+08         0.91005E+06         0.00000E+00
    0.91005E+06        -0.52512E+08         0.00000E+00
    0.00000E+00         0.00000E+00        -0.24395E+08
 
   -0.24580E+08         0.90478E+06         0.00000E+00
    0.90478E+06        -0.52853E+08         0.00000E+00
    0.00000E+00         0.00000E+00        -0.24571E+08
 
   -0.24764E+08         0.89925E+06         0.00000E+00
    0.89925E+06        -0.53193E+08         0.00000E+00
    0.00000E+00         0.00000E+00        -0.24746E+08
 
   -0.24948E+08         0.89340E+06         0.00000E+00
    0.89340E+06        -0.53533E+08         0.00000E+00
    0.00000E+00         0.00000E+00        -0.24921E+08
 
   -0.25134E+08         0.88714E+06         0.00000E+00
    0.88714E+06        -0.53874E+08         0.00000E+00
    0.00000E+00         0.00000E+00        -0.25095E+08
 
   -0.25320E+08         0.88038E+06         0.00000E+00
    0.88038E+06        -0.54215E+08         0.00000E+00
    0.00000E+00         0.00000E+00        -0.25269E+08
 
   -0.25506E+08         0.87301E+06         0.00000E+00
    0.87301E+06        -0.54556E+08         0.00000E+00
    0.00000E+00         0.00000E+00        -0.25442E+08
 
   -0.25694E+08         0.86488E+06         0.00000E+00
    0.86488E+06        -0.54898E+08         0.00000E+00
    0.00000E+00         0.00000E+00        -0.25615E+08
 
   -0.25883E+08         0.85582E+06         0.00000E+00
    0.85582E+06        -0.55241E+08         0.00000E+00
    0.00000E+00         0.00000E+00        -0.25788E+08
 
   -0.26073E+08         0.84563E+06         0.00000E+00
    0.84563E+06        -0.55584E+08         0.00000E+00
    0.00000E+00         0.00000E+00        -0.25960E+08
 
   -0.26265E+08         0.83405E+06         0.00000E+00
    0.83405E+06        -0.55929E+08         0.00000E+00
    0.00000E+00         0.00000E+00        -0.26131E+08
 
   -0.26459E+08         0.82080E+06         0.00000E+00
    0.82080E+06        -0.56275E+08         0.00000E+00
    0.00000E+00         0.00000E+00        -0.26302E+08
 
   -0.26654E+08         0.80554E+06         0.00000E+00
    0.80554E+06        -0.56622E+08         0.00000E+00
    0.00000E+00         0.00000E+00        -0.26473E+08
 
   -0.26852E+08         0.78787E+06         0.00000E+00
    0.78787E+06        -0.56972E+08         0.00000E+00
    0.00000E+00         0.00000E+00        -0.26643E+08
 
   -0.27052E+08         0.76736E+06         0.00000E+00
    0.76736E+06        -0.57323E+08         0.00000E+00
    0.00000E+00         0.00000E+00        -0.26813E+08
 
   -0.27255E+08         0.74355E+06         0.00000E+00
    0.74355E+06        -0.57677E+08         0.00000E+00
    0.00000E+00         0.00000E+00        -0.26982E+08
 
   -0.27461E+08         0.71592E+06         0.00000E+00
    0.71592E+06        -0.58034E+08         0.00000E+00
    0.00000E+00         0.00000E+00        -0.27152E+08
 
   -0.27669E+08         0.68395E+06         0.00000E+00
    0.68395E+06        -0.58393E+08         0.00000E+00
    0.00000E+00         0.00000E+00        -0.27320E+08
 
   -0.27881E+08         0.64711E+06         0.00000E+00
    0.64711E+06        -0.58754E+08         0.00000E+00
    0.00000E+00         0.00000E+00        -0.27489E+08
 
   -0.28095E+08         0.60487E+06         0.00000E+00
    0.60487E+06        -0.59117E+08         0.00000E+00
    0.00000E+00         0.00000E+00        -0.27655E+08
 
   -0.28312E+08         0.55676E+06         0.00000E+00
    0.55676E+06        -0.59480E+08         0.00000E+00
    0.00000E+00         0.00000E+00        -0.27820E+08
 
   -0.28532E+08         0.50246E+06         0.00000E+00
    0.50246E+06        -0.59842E+08         0.00000E+00
    0.00000E+00         0.00000E+00        -0.27981E+08
 
   -0.28755E+08         0.44192E+06         0.00000E+00
    0.44192E+06        -0.60202E+08         0.00000E+00
    0.00000E+00         0.00000E+00        -0.28136E+08
 
   -0.28981E+08         0.37567E+06         0.00000E+00
    0.37567E+06        -0.60555E+08         0.00000E+00
    0.00000E+00         0.00000E+00        -0.28281E+08
 
   -0.29213E+08         0.30530E+06         0.00000E+00
    0.30530E+06        -0.60898E+08         0.00000E+00
    0.00000E+00         0.00000E+00        -0.28412E+08
 
   -0.29452E+08         0.23402E+06         0.00000E+00
    0.23402E+06        -0.61226E+08         0.00000E+00
    0.00000E+00         0.00000E+00        -0.28521E+08
 
   -0.29704E+08         0.16656E+06         0.00000E+00
    0.16656E+06        -0.61538E+08         0.00000E+00
    0.00000E+00         0.00000E+00        -0.28603E+08
 
   -0.29974E+08         0.10767E+06         0.00000E+00
    0.10767E+06        -0.61832E+08         0.00000E+00
    0.00000E+00         0.00000E+00        -0.28651E+08
 
   -0.30266E+08         0.59392E+05         0.00000E+00
    0.59392E+05        -0.62109E+08         0.00000E+00
    0.00000E+00         0.00000E+00        -0.28665E+08
 
   -0.30582E+08         0.18947E+05         0.00000E+00
    0.18947E+05        -0.62371E+08         0.00000E+00
    0.00000E+00         0.00000E+00        -0.28646E+08
 
   -0.11885E+08         0.86779E+04         0.00000E+00
    0.86779E+04        -0.27795E+08         0.00000E+00
    0.00000E+00         0.00000E+00        -0.14810E+08
 
   -0.12188E+08         0.62058E+05         0.00000E+00
    0.62058E+05        -0.28081E+08         0.00000E+00
    0.00000E+00         0.00000E+00        -0.14650E+08
 
   -0.12513E+08         0.12683E+06         0.00000E+00
    0.12683E+06        -0.28291E+08         0.00000E+00
    0.00000E+00         0.00000E+00        -0.14646E+08
 
   -0.12797E+08         0.20412E+06         0.00000E+00
    0.20412E+06        -0.28595E+08         0.00000E+00
    0.00000E+00         0.00000E+00        -0.14646E+08
 
   -0.13054E+08         0.28723E+06         0.00000E+00
    0.28723E+06        -0.28932E+08         0.00000E+00
    0.00000E+00         0.00000E+00        -0.14646E+08
 
   -0.13292E+08         0.37491E+06         0.00000E+00
    0.37491E+06        -0.29312E+08         0.00000E+00
    0.00000E+00         0.00000E+00        -0.14646E+08
 
   -0.13529E+08         0.47429E+06         0.00000E+00
    0.47429E+06        -0.29703E+08         0.00000E+00
    0.00000E+00         0.00000E+00        -0.14670E+08
 
   -0.13742E+08         0.55036E+06         0.00000E+00
    0.55036E+06        -0.30137E+08         0.00000E+00
    0.00000E+00         0.00000E+00        -0.14733E+08
 
   -0.13962E+08         0.60765E+06         0.00000E+00
    0.60765E+06        -0.30528E+08         0.00000E+00
    0.00000E+00         0.00000E+00        -0.14870E+08
 
   -0.14177E+08         0.66475E+06         0.00000E+00
    0.66475E+06        -0.30886E+08         0.00000E+00
    0.00000E+00         0.00000E+00        -0.15018E+08
 
   -0.14385E+08         0.72113E+06         0.00000E+00
    0.72113E+06        -0.31241E+08         0.00000E+00
    0.00000E+00         0.00000E+00        -0.15174E+08
 
   -0.14588E+08         0.77428E+06         0.00000E+00
    0.77428E+06        -0.31600E+08         0.00000E+00
    0.00000E+00         0.00000E+00        -0.15334E+08
 
   -0.14786E+08         0.82301E+06         0.00000E+00
    0.82301E+06        -0.31966E+08         0.00000E+00
    0.00000E+00         0.00000E+00        -0.15494E+08
 
   -0.14982E+08         0.86641E+06         0.00000E+00
    0.86641E+06        -0.32337E+08         0.00000E+00
    0.00000E+00         0.00000E+00        -0.15652E+08
 
   -0.15176E+08         0.90498E+06         0.00000E+00
    0.90498E+06        -0.32710E+08         0.00000E+00
    0.00000E+00         0.00000E+00        -0.15808E+08
 
   -0.15366E+08         0.93930E+06         0.00000E+00
    0.93930E+06        -0.33083E+08         0.00000E+00
    0.00000E+00         0.00000E+00        -0.15960E+08
 
   -0.15553E+08         0.96984E+06         0.00000E+00
    0.96984E+06        -0.33457E+08         0.00000E+00
    0.00000E+00         0.00000E+00        -0.16107E+08
 
   -0.15737E+08         0.99684E+06         0.00000E+00
    0.99684E+06        -0.33829E+08         0.00000E+00
    0.00000E+00         0.00000E+00        -0.16250E+08
 
   -0.15918E+08         0.10204E+07         0.00000E+00
    0.10204E+07        -0.34201E+08         0.00000E+00
    0.00000E+00         0.00000E+00        -0.16388E+08
 
   -0.16095E+08         0.10404E+07         0.00000E+00
    0.10404E+07        -0.34572E+08         0.00000E+00
    0.00000E+00         0.00000E+00        -0.16521E+08
 
   -0.16268E+08         0.10570E+07         0.00000E+00
    0.10570E+07        -0.34944E+08         0.00000E+00
    0.00000E+00         0.00000E+00        -0.16649E+08
 
   -0.16438E+08         0.10701E+07         0.00000E+00
    0.10701E+07        -0.35316E+08         0.00000E+00
    0.00000E+00         0.00000E+00        -0.16773E+08
 
   -0.16604E+08         0.10802E+07         0.00000E+00
    0.10802E+07        -0.35692E+08         0.00000E+00
    0.00000E+00         0.00000E+00        -0.16892E+08
 
   -0.16767E+08         0.10888E+07         0.00000E+00
    0.10888E+07        -0.36072E+08         0.00000E+00
    0.00000E+00         0.00000E+00        -0.17007E+08
 
   -0.16926E+08         0.10972E+07         0.00000E+00
    0.10972E+07        -0.36450E+08         0.00000E+00
    0.00000E+00         0.00000E+00        -0.17126E+08
 
   -0.17080E+08         0.10943E+07         0.00000E+00
    0.10943E+07        -0.36804E+08         0.00000E+00
    0.00000E+00         0.00000E+00        -0.17271E+08
 
   -0.17232E+08         0.10914E+07         0.00000E+00
    0.10914E+07        -0.37149E+08         0.00000E+00
    0.00000E+00         0.00000E+00        -0.17425E+08
 
   -0.17382E+08         0.10895E+07         0.00000E+00
    0.10895E+07        -0.37497E+08         0.00000E+00
    0.00000E+00         0.00000E+00        -0.17577E+08
 
   -0.17533E+08         0.10888E+07         0.00000E+00
    0.10888E+07        -0.37847E+08         0.00000E+00
    0.00000E+00         0.00000E+00        -0.17726E+08
 
   -0.17683E+08         0.10893E+07         0.00000E+00
    0.10893E+07        -0.38198E+08         0.00000E+00
    0.00000E+00         0.00000E+00        -0.17872E+08
 
   -0.17832E+08         0.10903E+07         0.00000E+00
    0.10903E+07        -0.38552E+08         0.00000E+00
    0.00000E+00         0.00000E+00        -0.18017E+08
 
   -0.17982E+08         0.10914E+07         0.00000E+00
    0.10914E+07        -0.38906E+08         0.00000E+00
    0.00000E+00         0.00000E+00        -0.18158E+08
 
   -0.18132E+08         0.10923E+07         0.00000E+00
    0.10923E+07        -0.39262E+08         0.00000E+00
    0.00000E+00         0.00000E+00        -0.18298E+08
 
   -0.18282E+08         0.10926E+07         0.00000E+00
    0.10926E+07        -0.39618E+08         0.00000E+00
    0.00000E+00         0.00000E+00        -0.18435E+08
 
   -0.18432E+08         0.10921E+07         0.00000E+00
    0.10921E+07        -0.39976E+08         0.00000E+00
    0.00000E+00         0.00000E+00        -0.18570E+08
 
   -0.18582E+08         0.10906E+07         0.00000E+00
    0.10906E+07        -0.40335E+08         0.00000E+00
    0.00000E+00         0.00000E+00        -0.18703E+08
 
   -0.18733E+08         0.10882E+07         0.00000E+00
    0.10882E+07        -0.40696E+08         0.00000E+00
    0.00000E+00         0.00000E+00        -0.18835E+08
 
   -0.18883E+08         0.10853E+07         0.00000E+00
    0.10853E+07        -0.41059E+08         0.00000E+00
    0.00000E+00         0.00000E+00        -0.18964E+08
 
   -0.19034E+08         0.10828E+07         0.00000E+00
    0.10828E+07        -0.41424E+08         0.00000E+00
    0.00000E+00         0.00000E+00        -0.19091E+08
 
   -0.19184E+08         0.10750E+07         0.00000E+00
    0.10750E+07        -0.41777E+08         0.00000E+00
    0.00000E+00         0.00000E+00        -0.19236E+08
 
   -0.19334E+08         0.10651E+07         0.00000E+00
    0.10651E+07        -0.42122E+08         0.00000E+00
    0.00000E+00         0.00000E+00        -0.19393E+08
 
   -0.19486E+08         0.10563E+07         0.00000E+00
    0.10563E+07        -0.42468E+08         0.00000E+00
    0.00000E+00         0.00000E+00        -0.19549E+08
 
   -0.19639E+08         0.10486E+07         0.00000E+00
    0.10486E+07        -0.42815E+08         0.00000E+00
    0.00000E+00         0.00000E+00        -0.19704E+08
 
   -0.19794E+08         0.10416E+07         0.00000E+00
    0.10416E+07        -0.43165E+08         0.00000E+00
    0.00000E+00         0.00000E+00        -0.19857E+08
 
   -0.19950E+08         0.10347E+07         0.00000E+00
    0.10347E+07        -0.43516E+08         0.00000E+00
    0.00000E+00         0.00000E+00        -0.20010E+08
 
   -0.20107E+08         0.10279E+07         0.00000E+00
    0.10279E+07        -0.43868E+08         0.00000E+00
    0.00000E+00         0.00000E+00        -0.20162E+08
 
   -0.20266E+08         0.10211E+07         0.00000E+00
    0.10211E+07        -0.44223E+08         0.00000E+00
    0.00000E+00         0.00000E+00        -0.20313E+08
 
   -0.20426E+08         0.10142E+07         0.00000E+00
    0.10142E+07        -0.44579E+08         0.00000E+00
    0.00000E+00         0.00000E+00        -0.20463E+08
 
   -0.20587E+08         0.10069E+07         0.00000E+00
    0.10069E+07        -0.44932E+08         0.00000E+00
    0.00000E+00         0.00000E+00        -0.20619E+08
 
   -0.20749E+08         0.99737E+06         0.00000E+00
    0.99737E+06        -0.45274E+08         0.00000E+00
    0.00000E+00         0.00000E+00        -0.20787E+08
 
   -0.20912E+08         0.98888E+06         0.00000E+00
    0.98888E+06        -0.45619E+08         0.00000E+00
    0.00000E+00         0.00000E+00        -0.20955E+08
 
   -0.21076E+08         0.98116E+06         0.00000E+00
    0.98116E+06        -0.45964E+08         0.00000E+00
    0.00000E+00         0.00000E+00        -0.21122E+08
 
   -0.21242E+08         0.97397E+06         0.00000E+00
    0.97397E+06        -0.46311E+08         0.00000E+00
    0.00000E+00         0.00000E+00        -0.21288E+08
 
   -0.21409E+08         0.96713E+06         0.00000E+00
    0.96713E+06        -0.46659E+08         0.00000E+00
    0.00000E+00         0.00000E+00        -0.21455E+08
 
   -0.21577E+08         0.96053E+06         0.00000E+00
    0.96053E+06        -0.47008E+08         0.00000E+00
    0.00000E+00         0.00000E+00        -0.21621E+08
 
   -0.21747E+08         0.95420E+06         0.00000E+00
    0.95420E+06        -0.47357E+08         0.00000E+00
    0.00000E+00         0.00000E+00        -0.21786E+08
 
   -0.21917E+08         0.94813E+06         0.00000E+00
    0.94813E+06        -0.47707E+08         0.00000E+00
    0.00000E+00         0.00000E+00        -0.21953E+08
 
   -0.22088E+08         0.94136E+06         0.00000E+00
    0.94136E+06        -0.48052E+08         0.00000E+00
    0.00000E+00         0.00000E+00        -0.22125E+08
 
   -0.22260E+08         0.93496E+06         0.00000E+00
    0.93496E+06        -0.48395E+08         0.00000E+00
    0.00000E+00         0.00000E+00        -0.22300E+08
 
   -0.22433E+08         0.92904E+06         0.00000E+00
    0.92904E+06        -0.48739E+08         0.00000E+00
    0.00000E+00         0.00000E+00        -0.22474E+08
 
   -0.22607E+08         0.92358E+06         0.00000E+00
    0.92358E+06        -0.49083E+08         0.00000E+00
    0.00000E+00         0.00000E+00        -0.22648E+08
 
   -0.22781E+08         0.91851E+06         0.00000E+00
    0.91851E+06        -0.49428E+08         0.00000E+00
    0.00000E+00         0.00000E+00        -0.22821E+08
 
   -0.22956E+08         0.91375E+06         0.00000E+00
    0.91375E+06        -0.49773E+08         0.00000E+00
    0.00000E+00         0.00000E+00        -0.22995E+08
 
   -0.23132E+08         0.90922E+06         0.00000E+00
    0.90922E+06        -0.50117E+08         0.00000E+00
    0.00000E+00         0.00000E+00        -0.23168E+08
 
   -0.23308E+08         0.90483E+06         0.00000E+00
    0.90483E+06        -0.50462E+08         0.00000E+00
    0.00000E+00         0.00000E+00        -0.23341E+08
 
   -0.23485E+08         0.90053E+06         0.00000E+00
    0.90053E+06        -0.50807E+08         0.00000E+00
    0.00000E+00         0.00000E+00        -0.23514E+08
 
   -0.23664E+08         0.89619E+06         0.00000E+00
    0.89619E+06        -0.51151E+08         0.00000E+00
    0.00000E+00         0.00000E+00        -0.23687E+08
 
   -0.23845E+08         0.89163E+06         0.00000E+00
    0.89163E+06        -0.51491E+08         0.00000E+00
    0.00000E+00         0.00000E+00        -0.23863E+08
 
   -0.24028E+08         0.88698E+06         0.00000E+00
    0.88698E+06        -0.51831E+08         0.00000E+00
    0.00000E+00         0.00000E+00        -0.24040E+08
 
   -0.24211E+08         0.88223E+06         0.00000E+00
    0.88223E+06        -0.52171E+08         0.00000E+00
    0.00000E+00         0.00000E+00        -0.24216E+08
 
   -0.24394E+08         0.87732E+06         0.00000E+00
    0.87732E+06        -0.52511E+08         0.00000E+00
    0.00000E+00         0.00000E+00        -0.24391E+08
 
   -0.24578E+08         0.87222E+06         0.00000E+00
    0.87222E+06        -0.52851E+08         0.00000E+00
    0.00000E+00         0.00000E+00        -0.24567E+08
 
   -0.24763E+08         0.86687E+06         0.00000E+00
    0.86687E+06        -0.53192E+08         0.00000E+00
    0.00000E+00         0.00000E+00        -0.24742E+08
 
   -0.24947E+08         0.86120E+06         0.00000E+00
    0.86120E+06        -0.53532E+08         0.00000E+00
    0.00000E+00         0.00000E+00        -0.24916E+08
 
   -0.25133E+08         0.85514E+06         0.00000E+00
    0.85514E+06        -0.53873E+08         0.00000E+00
    0.00000E+00         0.00000E+00        -0.25090E+08
 
   -0.25319E+08         0.84861E+06         0.00000E+00
    0.84861E+06        -0.54214E+08         0.00000E+00
    0.00000E+00         0.00000E+00        -0.25264E+08
 
   -0.25506E+08         0.84149E+06         0.00000E+00
    0.84149E+06        -0.54555E+08         0.00000E+00
    0.00000E+00         0.00000E+00        -0.25437E+08
 
   -0.25694E+08         0.83365E+06         0.00000E+00
    0.83365E+06        -0.54897E+08         0.00000E+00
    0.00000E+00         0.00000E+00        -0.25610E+08
 
   -0.25883E+08         0.82491E+06         0.00000E+00
    0.82491E+06        -0.55239E+08         0.00000E+00
    0.00000E+00         0.00000E+00        -0.25782E+08
 
   -0.26074E+08         0.81508E+06         0.00000E+00
    0.81508E+06        -0.55582E+08         0.00000E+00
    0.00000E+00         0.00000E+00        -0.25953E+08
 
   -0.26266E+08         0.80391E+06         0.00000E+00
    0.80391E+06        -0.55926E+08         0.00000E+00
    0.00000E+00         0.00000E+00        -0.26124E+08
 
   -0.26460E+08         0.79111E+06         0.00000E+00
    0.79111E+06        -0.56272E+08         0.00000E+00
    0.00000E+00         0.00000E+00        -0.26295E+08
 
   -0.26656E+08         0.77634E+06         0.00000E+00
    0.77634E+06        -0.56619E+08         0.00000E+00
    0.00000E+00         0.00000E+00        -0.26465E+08
 
   -0.26854E+08         0.75920E+06         0.00000E+00
    0.75920E+06        -0.56968E+08         0.00000E+00
    0.00000E+00         0.00000E+00        -0.26634E+08
 
   -0.27055E+08         0.73928E+06         0.00000E+00
    0.73928E+06        -0.57319E+08         0.00000E+00
    0.00000E+00         0.00000E+00        -0.26803E+08
 
   -0.27258E+08         0.71608E+06         0.00000E+00
    0.71608E+06        -0.57672E+08         0.00000E+00
    0.00000E+00         0.00000E+00        -0.26971E+08
 
   -0.27464E+08         0.68909E+06         0.00000E+00
    0.68909E+06        -0.58028E+08         0.00000E+00
    0.00000E+00         0.00000E+00        -0.27140E+08
 
   -0.27673E+08         0.65778E+06         0.00000E+00
    0.65778E+06        -0.58386E+08         0.00000E+00
    0.00000E+00         0.00000E+00        -0.27307E+08
 
   -0.27885E+08         0.62160E+06         0.00000E+00
    0.62160E+06        -0.58746E+08         0.00000E+00
    0.00000E+00         0.00000E+00        -0.27473E+08
 
   -0.28101E+08         0.58003E+06         0.00000E+00
    0.58003E+06        -0.59108E+08         0.00000E+00
    0.00000E+00         0.00000E+00        -0.27638E+08
 
   -0.28319E+08         0.53261E+06         0.00000E+00
    0.53261E+06        -0.59470E+08         0.00000E+00
    0.00000E+00         0.00000E+00        -0.27801E+08
 
   -0.28541E+08         0.47901E+06         0.00000E+00
    0.47901E+06        -0.59831E+08         0.00000E+00
    0.00000E+00         0.00000E+00        -0.27959E+08
 
   -0.28766E+08         0.41923E+06         0.00000E+00
    0.41923E+06        -0.60189E+08         0.00000E+00
    0.00000E+00         0.00000E+00        -0.28111E+08
 
   -0.28995E+08         0.35392E+06         0.00000E+00
    0.35392E+06        -0.60541E+08         0.00000E+00
    0.00000E+00         0.00000E+00        -0.28253E+08
 
   -0.29230E+08         0.28493E+06         0.00000E+00
    0.28493E+06        -0.60884E+08         0.00000E+00
    0.00000E+00         0.00000E+00        -0.28381E+08
 
   -0.29473E+08         0.21579E+06         0.00000E+00
    0.21579E+06        -0.61213E+08         0.00000E+00
    0.00000E+00         0.00000E+00        -0.28488E+08
 
   -0.29729E+08         0.15144E+06         0.00000E+00
    0.15144E+06        -0.61527E+08         0.00000E+00
    0.00000E+00         0.00000E+00        -0.28569E+08
 
   -0.30002E+08         0.96495E+05         0.00000E+00
    0.96495E+05        -0.61823E+08         0.00000E+00
    0.00000E+00         0.00000E+00        -0.28617E+08
 
   -0.30296E+08         0.52610E+05         0.00000E+00
    0.52610E+05        -0.62102E+08         0.00000E+00
    0.00000E+00         0.00000E+00        -0.28632E+08
 
   -0.30612E+08         0.16682E+05         0.00000E+00
    0.16682E+05        -0.62366E+08         0.00000E+00
    0.00000E+00         0.00000E+00        -0.28613E+08
 
   -0.11815E+08         0.48474E+04         0.00000E+00
    0.48474E+04        -0.27792E+08         0.00000E+00
    0.00000E+00         0.00000E+00        -0.14848E+08
 
   -0.12117E+08         0.50657E+05         0.00000E+00
    0.50657E+05        -0.28091E+08         0.00000E+00
    0.00000E+00         0.00000E+00        -0.14675E+08
 
   -0.12429E+08         0.11527E+06         0.00000E+00
    0.11527E+06        -0.28319E+08         0.00000E+00
    0.00000E+00         0.00000E+00        -0.14646E+08
 
   -0.12718E+08         0.18622E+06         0.00000E+00
    0.18622E+06        -0.28606E+08         0.00000E+00
    0.00000E+00         0.00000E+00        -0.14646E+08
 
   -0.12980E+08         0.26406E+06         0.00000E+00
    0.26406E+06        -0.28951E+08         0.00000E+00
    0.00000E+00         0.00000E+00        -0.14646E+08
 
   -0.13226E+08         0.35237E+06         0.00000E+00
    0.35237E+06        -0.29326E+08         0.00000E+00
    0.00000E+00         0.00000E+00        -0.14646E+08
 
   -0.13481E+08         0.44909E+06         0.00000E+00
    0.44909E+06        -0.29721E+08         0.00000E+00
    0.00000E+00         0.00000E+00        -0.14689E+08
 
   -0.13708E+08         0.52011E+06         0.00000E+00
    0.52011E+06        -0.30155E+08         0.00000E+00
    0.00000E+00         0.00000E+00        -0.14764E+08
 
   -0.13933E+08         0.58066E+06         0.00000E+00
    0.58066E+06        -0.30538E+08         0.00000E+00
    0.00000E+00         0.00000E+00        -0.14895E+08
 
   -0.14152E+08         0.63509E+06         0.00000E+00
    0.63509E+06        -0.30897E+08         0.00000E+00
    0.00000E+00         0.00000E+00        -0.15038E+08
 
   -0.14364E+08         0.69027E+06         0.00000E+00
    0.69027E+06        -0.31251E+08         0.00000E+00
    0.00000E+00         0.00000E+00        -0.15188E+08
 
   -0.14568E+08         0.74245E+06         0.00000E+00
    0.74245E+06        -0.31610E+08         0.00000E+00
    0.00000E+00         0.00000E+00        -0.15343E+08
 
   -0.14768E+08         0.79040E+06         0.00000E+00
    0.79040E+06        -0.31975E+08         0.00000E+00
    0.00000E+00         0.00000E+00        -0.15499E+08
 
   -0.14964E+08         0.83327E+06         0.00000E+00
    0.83327E+06        -0.32345E+08         0.00000E+00
    0.00000E+00         0.00000E+00        -0.15654E+08
 
   -0.15158E+08         0.87132E+06         0.00000E+00
    0.87132E+06        -0.32717E+08         0.00000E+00
    0.00000E+00         0.00000E+00        -0.15807E+08
 
   -0.15348E+08         0.90510E+06         0.00000E+00
    0.90510E+06        -0.33090E+08         0.00000E+00
    0.00000E+00         0.00000E+00        -0.15956E+08
 
   -0.15535E+08         0.93503E+06         0.00000E+00
    0.93503E+06        -0.33462E+08         0.00000E+00
    0.00000E+00         0.00000E+00        -0.16101E+08
 
   -0.15718E+08         0.96139E+06         0.00000E+00
    0.96139E+06        -0.33834E+08         0.00000E+00
    0.00000E+00         0.00000E+00        -0.16242E+08
 
   -0.15898E+08         0.98428E+06         0.00000E+00
    0.98428E+06        -0.34205E+08         0.00000E+00
    0.00000E+00         0.00000E+00        -0.16379E+08
 
   -0.16075E+08         0.10037E+07         0.00000E+00
    0.10037E+07        -0.34576E+08         0.00000E+00
    0.00000E+00         0.00000E+00        -0.16511E+08
 
   -0.16248E+08         0.10196E+07         0.00000E+00
    0.10196E+07        -0.34947E+08         0.00000E+00
    0.00000E+00         0.00000E+00        -0.16639E+08
 
   -0.16418E+08         0.10321E+07         0.00000E+00
    0.10321E+07        -0.35319E+08         0.00000E+00
    0.00000E+00         0.00000E+00        -0.16762E+08
 
   -0.16585E+08         0.10416E+07         0.00000E+00
    0.10416E+07        -0.35694E+08         0.00000E+00
    0.00000E+00         0.00000E+00        -0.16881E+08
 
   -0.16748E+08         0.10495E+07         0.00000E+00
    0.10495E+07        -0.36074E+08         0.00000E+00
    0.00000E+00         0.00000E+00        -0.16995E+08
 
   -0.16908E+08         0.10570E+07         0.00000E+00
    0.10570E+07        -0.36450E+08         0.00000E+00
    0.00000E+00         0.00000E+00        -0.17116E+08
 
   -0.17062E+08         0.10535E+07         0.00000E+00
    0.10535E+07        -0.36803E+08         0.00000E+00
    0.00000E+00         0.00000E+00        -0.17262E+08
 
   -0.17214E+08         0.10504E+07         0.00000E+00
    0.10504E+07        -0.37149E+08         0.00000E+00
    0.00000E+00         0.00000E+00        -0.17416E+08
 
   -0.17366E+08         0.10483E+07         0.00000E+00
    0.10483E+07        -0.37497E+08         0.00000E+00
    0.00000E+00         0.00000E+00        -0.17568E+08
 
   -0.17516E+08         0.10477E+07         0.00000E+00
    0.10477E+07        -0.37847E+08         0.00000E+00
    0.00000E+00         0.00000E+00        -0.17717E+08
 
   -0.17667E+08         0.10481E+07         0.00000E+00
    0.10481E+07        -0.38199E+08         0.00000E+00
    0.00000E+00         0.00000E+00        -0.17864E+08
 
   -0.17817E+08         0.10492E+07         0.00000E+00
    0.10492E+07        -0.38552E+08         0.00000E+00
    0.00000E+00         0.00000E+00        -0.18008E+08
 
   -0.17967E+08         0.10504E+07         0.00000E+00
    0.10504E+07        -0.38907E+08         0.00000E+00
    0.00000E+00         0.00000E+00        -0.18150E+08
 
   -0.18117E+08         0.10514E+07         0.00000E+00
    0.10514E+07        -0.39262E+08         0.00000E+00
    0.00000E+00         0.00000E+00        -0.18289E+08
 
   -0.18268E+08         0.10518E+07         0.00000E+00
    0.10518E+07        -0.39618E+08         0.00000E+00
    0.00000E+00         0.00000E+00        -0.18427E+08
 
   -0.18419E+08         0.10514E+07         0.00000E+00
    0.10514E+07        -0.39976E+08         0.00000E+00
    0.00000E+00         0.00000E+00        -0.18562E+08
 
   -0.18570E+08         0.10500E+07         0.00000E+00
    0.10500E+07        -0.40334E+08         0.00000E+00
    0.00000E+00         0.00000E+00        -0.18696E+08
 
   -0.18721E+08         0.10477E+07         0.00000E+00
    0.10477E+07        -0.40695E+08         0.00000E+00
    0.00000E+00         0.00000E+00        -0.18827E+08
 
   -0.18872E+08         0.10448E+07         0.00000E+00
    0.10448E+07        -0.41058E+08         0.00000E+00
    0.00000E+00         0.00000E+00        -0.18957E+08
 
   -0.19023E+08         0.10427E+07         0.00000E+00
    0.10427E+07        -0.41424E+08         0.00000E+00
    0.00000E+00         0.00000E+00        -0.19085E+08
 
   -0.19174E+08         0.10344E+07         0.00000E+00
    0.10344E+07        -0.41775E+08         0.00000E+00
    0.00000E+00         0.00000E+00        -0.19232E+08
 
   -0.19325E+08         0.10250E+07         0.00000E+00
    0.10250E+07        -0.42120E+08         0.00000E+00
    0.00000E+00         0.00000E+00        -0.19389E+08
 
   -0.19477E+08         0.10165E+07         0.00000E+00
    0.10165E+07        -0.42466E+08         0.00000E+00
    0.00000E+00         0.00000E+00        -0.19544E+08
 
   -0.19631E+08         0.10092E+07         0.00000E+00
    0.10092E+07        -0.42814E+08         0.00000E+00
    0.00000E+00         0.00000E+00        -0.19699E+08
 
   -0.19786E+08         0.10025E+07         0.00000E+00
    0.10025E+07        -0.43163E+08         0.00000E+00
    0.00000E+00         0.00000E+00        -0.19853E+08
 
   -0.19942E+08         0.99604E+06         0.00000E+00
    0.99604E+06        -0.43514E+08         0.00000E+00
    0.00000E+00         0.00000E+00        -0.20006E+08
 
   -0.20100E+08         0.98957E+06         0.00000E+00
    0.98957E+06        -0.43867E+08         0.00000E+00
    0.00000E+00         0.00000E+00        -0.20158E+08
 
   -0.20259E+08         0.98306E+06         0.00000E+00
    0.98306E+06        -0.44221E+08         0.00000E+00
    0.00000E+00         0.00000E+00        -0.20309E+08
 
   -0.20420E+08         0.97651E+06         0.00000E+00
    0.97651E+06        -0.44578E+08         0.00000E+00
    0.00000E+00         0.00000E+00        -0.20460E+08
 
   -0.20581E+08         0.96932E+06         0.00000E+00
    0.96932E+06        -0.44930E+08         0.00000E+00
    0.00000E+00         0.00000E+00        -0.20616E+08
 
   -0.20743E+08         0.96010E+06         0.00000E+00
    0.96010E+06        -0.45273E+08         0.00000E+00
    0.00000E+00         0.00000E+00        -0.20784E+08
 
   -0.20906E+08         0.95193E+06         0.00000E+00
    0.95193E+06        -0.45617E+08         0.00000E+00
    0.00000E+00         0.00000E+00        -0.20952E+08
 
   -0.21071E+08         0.94456E+06         0.00000E+00
    0.94456E+06        -0.45963E+08         0.00000E+00
    0.00000E+00         0.00000E+00        -0.21119E+08
 
   -0.21237E+08         0.93772E+06         0.00000E+00
    0.93772E+06        -0.46310E+08         0.00000E+00
    0.00000E+00         0.00000E+00        -0.21286E+08
 
   -0.21404E+08         0.93120E+06         0.00000E+00
    0.93120E+06        -0.46657E+08         0.00000E+00
    0.00000E+00         0.00000E+00        -0.21452E+08
 
   -0.21573E+08         0.92489E+06         0.00000E+00
    0.92489E+06        -0.47006E+08         0.00000E+00
    0.00000E+00         0.00000E+00        -0.21618E+08
 
   -0.21743E+08         0.91881E+06         0.00000E+00
    0.91881E+06        -0.47356E+08         0.00000E+00
    0.00000E+00         0.00000E+00        -0.21783E+08
 
   -0.21913E+08         0.91295E+06         0.00000E+00
    0.91295E+06        -0.47706E+08         0.00000E+00
    0.00000E+00         0.00000E+00        -0.21950E+08
 
   -0.22084E+08         0.90638E+06         0.00000E+00
    0.90638E+06        -0.48050E+08         0.00000E+00
    0.00000E+00         0.00000E+00        -0.22123E+08
 
   -0.22256E+08         0.90020E+06         0.00000E+00
    0.90020E+06        -0.48394E+08         0.00000E+00
    0.00000E+00         0.00000E+00        -0.22297E+08
 
   -0.22429E+08         0.89450E+06         0.00000E+00
    0.89450E+06        -0.48738E+08         0.00000E+00
    0.00000E+00         0.00000E+00        -0.22471E+08
 
   -0.22603E+08         0.88925E+06         0.00000E+00
    0.88925E+06        -0.49082E+08         0.00000E+00
    0.00000E+00         0.00000E+00        -0.22645E+08
 
   -0.22778E+08         0.88439E+06         0.00000E+00
    0.88439E+06        -0.49427E+08         0.00000E+00
    0.00000E+00         0.00000E+00        -0.22819E+08
 
   -0.22953E+08         0.87982E+06         0.00000E+00
    0.87982E+06        -0.49772E+08         0.00000E+00
    0.00000E+00         0.00000E+00        -0.22992E+08
 
   -0.23129E+08         0.87546E+06         0.00000E+00
    0.87546E+06        -0.50117E+08         0.00000E+00
    0.00000E+00         0.00000E+00        -0.23165E+08
 
   -0.23305E+08         0.87124E+06         0.00000E+00
    0.87124E+06        -0.50461E+08         0.00000E+00
    0.00000E+00         0.00000E+00        -0.23338E+08
 
   -0.23483E+08         0.86710E+06         0.00000E+00
    0.86710E+06        -0.50806E+08         0.00000E+00
    0.00000E+00         0.00000E+00        -0.23511E+08
 
   -0.23661E+08         0.86290E+06         0.00000E+00
    0.86290E+06        -0.51150E+08         0.00000E+00
    0.00000E+00         0.00000E+00        -0.23684E+08
 
   -0.23843E+08         0.85849E+06         0.00000E+00
    0.85849E+06        -0.51490E+08         0.00000E+00
    0.00000E+00         0.00000E+00        -0.23860E+08
 
   -0.24026E+08         0.85400E+06         0.00000E+00
    0.85400E+06        -0.51830E+08         0.00000E+00
    0.00000E+00         0.00000E+00        -0.24036E+08
 
   -0.24209E+08         0.84939E+06         0.00000E+00
    0.84939E+06        -0.52170E+08         0.00000E+00
    0.00000E+00         0.00000E+00        -0.24212E+08
 
   -0.24393E+08         0.84465E+06         0.00000E+00
    0.84465E+06        -0.52510E+08         0.00000E+00
    0.00000E+00         0.00000E+00        -0.24388E+08
 
   -0.24577E+08         0.83971E+06         0.00000E+00
    0.83971E+06        -0.52850E+08         0.00000E+00
    0.00000E+00         0.00000E+00        -0.24563E+08
 
   -0.24762E+08         0.83453E+06         0.00000E+00
    0.83453E+06        -0.53191E+08         0.00000E+00
    0.00000E+00         0.00000E+00        -0.24737E+08
 
   -0.24947E+08         0.82905E+06         0.00000E+00
    0.82905E+06        -0.53531E+08         0.00000E+00
    0.00000E+00         0.00000E+00        -0.24912E+08
 
   -0.25133E+08         0.82321E+06         0.00000E+00
    0.82321E+06        -0.53871E+08         0.00000E+00
    0.00000E+00         0.00000E+00        -0.25085E+08
 
   -0.25319E+08         0.81690E+06         0.00000E+00
    0.81690E+06        -0.54212E+08         0.00000E+00
    0.00000E+00         0.00000E+00        -0.25259E+08
 
   -0.25506E+08         0.81004E+06         0.00000E+00
    0.81004E+06        -0.54553E+08         0.00000E+00
    0.00000E+00         0.00000E+00        -0.25432E+08
 
   -0.25695E+08         0.80248E+06         0.00000E+00
    0.80248E+06        -0.54895E+08         0.00000E+00
    0.00000E+00         0.00000E+00        -0.25604E+08
 
   -0.25884E+08         0.79407E+06         0.00000E+00
    0.79407E+06        -0.55237E+08         0.00000E+00
    0.00000E+00         0.00000E+00        -0.25776E+08
 
   -0.26075E+08         0.78460E+06         0.00000E+00
    0.78460E+06        -0.55580E+08         0.00000E+00
    0.00000E+00         0.00000E+00        -0.25947E+08
 
   -0.26267E+08         0.77383E+06         0.00000E+00
    0.77383E+06        -0.55924E+08         0.00000E+00
    0.00000E+00         0.00000E+00        -0.26117E+08
 
   -0.26462E+08         0.76148E+06         0.00000E+00
    0.76148E+06        -0.56269E+08         0.00000E+00
    0.00000E+00         0.00000E+00        -0.26287E+08
 
   -0.26658E+08         0.74721E+06         0.00000E+00
    0.74721E+06        -0.56616E+08         0.00000E+00
    0.00000E+00         0.00000E+00        -0.26456E+08
 
   -0.26856E+08         0.73062E+06         0.00000E+00
    0.73062E+06        -0.56964E+08         0.00000E+00
    0.00000E+00         0.00000E+00        -0.26625E+08
 
   -0.27057E+08         0.71128E+06         0.00000E+00
    0.71128E+06        -0.57315E+08         0.00000E+00
    0.00000E+00         0.00000E+00        -0.26793E+08
 
   -0.27261E+08         0.68871E+06         0.00000E+00
    0.68871E+06        -0.57667E+08         0.00000E+00
    0.00000E+00         0.00000E+00        -0.26961E+08
 
   -0.27468E+08         0.66238E+06         0.00000E+00
    0.66238E+06        -0.58022E+08         0.00000E+00
    0.00000E+00         0.00000E+00        -0.27127E+08
 
   -0.27678E+08         0.63175E+06         0.00000E+00
    0.63175E+06        -0.58379E+08         0.00000E+00
    0.00000E+00         0.00000E+00        -0.27293E+08
 
   -0.27891E+08         0.59628E+06         0.00000E+00
    0.59628E+06        -0.58738E+08         0.00000E+00
    0.00000E+00         0.00000E+00        -0.27458E+08
 
   -0.28107E+08         0.55543E+06         0.00000E+00
    0.55543E+06        -0.59099E+08         0.00000E+00
    0.00000E+00         0.00000E+00        -0.27621E+08
 
   -0.28326E+08         0.50875E+06         0.00000E+00
    0.50875E+06        -0.59460E+08         0.00000E+00
    0.00000E+00         0.00000E+00        -0.27781E+08
 
   -0.28550E+08         0.45594E+06         0.00000E+00
    0.45594E+06        -0.59820E+08         0.00000E+00
    0.00000E+00         0.00000E+00        -0.27937E+08
 
   -0.28777E+08         0.39705E+06         0.00000E+00
    0.39705E+06        -0.60177E+08         0.00000E+00
    0.00000E+00         0.00000E+00        -0.28086E+08
 
   -0.29009E+08         0.33284E+06         0.00000E+00
    0.33284E+06        -0.60528E+08         0.00000E+00
    0.00000E+00         0.00000E+00        -0.28226E+08
 
   -0.29247E+08         0.26534E+06         0.00000E+00
    0.26534E+06        -0.60871E+08         0.00000E+00
    0.00000E+00         0.00000E+00        -0.28351E+08
 
   -0.29494E+08         0.19838E+06         0.00000E+00
    0.19838E+06        -0.61201E+08         0.00000E+00
    0.00000E+00         0.00000E+00        -0.28456E+08
 
   -0.29753E+08         0.13704E+06         0.00000E+00
    0.13704E+06        -0.61516E+08         0.00000E+00
    0.00000E+00         0.00000E+00        -0.28535E+08
 
   -0.30029E+08         0.85837E+05         0.00000E+00
    0.85837E+05        -0.61815E+08         0.00000E+00
    0.00000E+00         0.00000E+00        -0.28584E+08
 
   -0.30325E+08         0.46112E+05         0.00000E+00
    0.46112E+05        -0.62096E+08         0.00000E+00
    0.00000E+00         0.00000E+00        -0.28599E+08
 
   -0.30643E+08         0.14505E+05         0.00000E+00
    0.14505E+05        -0.62361E+08         0.00000E+00
    0.00000E+00         0.00000E+00        -0.28582E+08
 
   -0.11749E+08         0.35843E+04         0.00000E+00
    0.35843E+04        -0.27796E+08         0.00000E+00
    0.00000E+00         0.00000E+00        -0.14885E+08
 
   -0.12065E+08         0.36153E+05         0.00000E+00
    0.36153E+05        -0.28094E+08         0.00000E+00
    0.00000E+00         0.00000E+00        -0.14714E+08
 
   -0.12347E+08         0.10299E+06         0.00000E+00
    0.10299E+06        -0.28341E+08         0.00000E+00
    0.00000E+00         0.00000E+00        -0.14648E+08
 
   -0.12638E+08         0.16830E+06         0.00000E+00
    0.16830E+06        -0.28618E+08         0.00000E+00
    0.00000E+00         0.00000E+00        -0.14646E+08
 
   -0.12907E+08         0.24370E+06         0.00000E+00
    0.24370E+06        -0.28967E+08         0.00000E+00
    0.00000E+00         0.00000E+00        -0.14646E+08
 
   -0.13178E+08         0.33273E+06         0.00000E+00
    0.33273E+06        -0.29333E+08         0.00000E+00
    0.00000E+00         0.00000E+00        -0.14664E+08
 
   -0.13434E+08         0.42510E+06         0.00000E+00
    0.42510E+06        -0.29749E+08         0.00000E+00
    0.00000E+00         0.00000E+00        -0.14707E+08
 
   -0.13674E+08         0.49336E+06         0.00000E+00
    0.49336E+06        -0.30169E+08         0.00000E+00
    0.00000E+00         0.00000E+00        -0.14795E+08
 
   -0.13906E+08         0.55369E+06         0.00000E+00
    0.55369E+06        -0.30549E+08         0.00000E+00
    0.00000E+00         0.00000E+00        -0.14920E+08
 
   -0.14129E+08         0.60650E+06         0.00000E+00
    0.60650E+06        -0.30908E+08         0.00000E+00
    0.00000E+00         0.00000E+00        -0.15057E+08
 
   -0.14343E+08         0.65987E+06         0.00000E+00
    0.65987E+06        -0.31262E+08         0.00000E+00
    0.00000E+00         0.00000E+00        -0.15203E+08
 
   -0.14550E+08         0.71092E+06         0.00000E+00
    0.71092E+06        -0.31620E+08         0.00000E+00
    0.00000E+00         0.00000E+00        -0.15353E+08
 
   -0.14751E+08         0.75793E+06         0.00000E+00
    0.75793E+06        -0.31984E+08         0.00000E+00
    0.00000E+00         0.00000E+00        -0.15505E+08
 
   -0.14948E+08         0.80014E+06         0.00000E+00
    0.80014E+06        -0.32353E+08         0.00000E+00
    0.00000E+00         0.00000E+00        -0.15656E+08
 
   -0.15141E+08         0.83761E+06         0.00000E+00
    0.83761E+06        -0.32724E+08         0.00000E+00
    0.00000E+00         0.00000E+00        -0.15806E+08
 
   -0.15330E+08         0.87081E+06         0.00000E+00
    0.87081E+06        -0.33096E+08         0.00000E+00
    0.00000E+00         0.00000E+00        -0.15953E+08
 
   -0.15517E+08         0.90014E+06         0.00000E+00
    0.90014E+06        -0.33468E+08         0.00000E+00
    0.00000E+00         0.00000E+00        -0.16096E+08
 
   -0.15700E+08         0.92588E+06         0.00000E+00
    0.92588E+06        -0.33839E+08         0.00000E+00
    0.00000E+00         0.00000E+00        -0.16235E+08
 
   -0.15880E+08         0.94813E+06         0.00000E+00
    0.94813E+06        -0.34209E+08         0.00000E+00
    0.00000E+00         0.00000E+00        -0.16371E+08
 
   -0.16056E+08         0.96692E+06         0.00000E+00
    0.96692E+06        -0.34579E+08         0.00000E+00
    0.00000E+00         0.00000E+00        -0.16502E+08
 
   -0.16230E+08         0.98222E+06         0.00000E+00
    0.98222E+06        -0.34949E+08         0.00000E+00
    0.00000E+00         0.00000E+00        -0.16628E+08
 
   -0.16400E+08         0.99411E+06         0.00000E+00
    0.99411E+06        -0.35321E+08         0.00000E+00
    0.00000E+00         0.00000E+00        -0.16751E+08
 
   -0.16567E+08         0.10031E+07         0.00000E+00
    0.10031E+07        -0.35695E+08         0.00000E+00
    0.00000E+00         0.00000E+00        -0.16870E+08
 
   -0.16730E+08         0.10103E+07         0.00000E+00
    0.10103E+07        -0.36075E+08         0.00000E+00
    0.00000E+00         0.00000E+00        -0.16984E+08
 
   -0.16890E+08         0.10168E+07         0.00000E+00
    0.10168E+07        -0.36451E+08         0.00000E+00
    0.00000E+00         0.00000E+00        -0.17106E+08
 
   -0.17045E+08         0.10128E+07         0.00000E+00
    0.10128E+07        -0.36802E+08         0.00000E+00
    0.00000E+00         0.00000E+00        -0.17254E+08
 
   -0.17197E+08         0.10094E+07         0.00000E+00
    0.10094E+07        -0.37148E+08         0.00000E+00
    0.00000E+00         0.00000E+00        -0.17408E+08
 
   -0.17349E+08         0.10073E+07         0.00000E+00
    0.10073E+07        -0.37496E+08         0.00000E+00
    0.00000E+00         0.00000E+00        -0.17559E+08
 
   -0.17500E+08         0.10066E+07         0.00000E+00
    0.10066E+07        -0.37847E+08         0.00000E+00
    0.00000E+00         0.00000E+00        -0.17708E+08
 
   -0.17651E+08         0.10070E+07         0.00000E+00
    0.10070E+07        -0.38199E+08         0.00000E+00
    0.00000E+00         0.00000E+00        -0.17855E+08
 
   -0.17802E+08         0.10082E+07         0.00000E+00
    0.10082E+07        -0.38552E+08         0.00000E+00
    0.00000E+00         0.00000E+00        -0.17999E+08
 
   -0.17953E+08         0.10095E+07         0.00000E+00
    0.10095E+07        -0.38907E+08         0.00000E+00
    0.00000E+00         0.00000E+00        -0.18141E+08
 
   -0.18103E+08         0.10106E+07         0.00000E+00
    0.10106E+07        -0.39262E+08         0.00000E+00
    0.00000E+00         0.00000E+00        -0.18281E+08
 
   -0.18255E+08         0.10111E+07         0.00000E+00
    0.10111E+07        -0.39618E+08         0.00000E+00
    0.00000E+00         0.00000E+00        -0.18419E+08
 
   -0.18406E+08         0.10109E+07         0.00000E+00
    0.10109E+07        -0.39975E+08         0.00000E+00
    0.00000E+00         0.00000E+00        -0.18554E+08
 
   -0.18558E+08         0.10096E+07         0.00000E+00
    0.10096E+07        -0.40334E+08         0.00000E+00
    0.00000E+00         0.00000E+00        -0.18688E+08
 
   -0.18709E+08         0.10073E+07         0.00000E+00
    0.10073E+07        -0.40695E+08         0.00000E+00
    0.00000E+00         0.00000E+00        -0.18820E+08
 
   -0.18861E+08         0.10045E+07         0.00000E+00
    0.10045E+07        -0.41058E+08         0.00000E+00
    0.00000E+00         0.00000E+00        -0.18950E+08
 
   -0.19013E+08         0.10026E+07         0.00000E+00
    0.10026E+07        -0.41423E+08         0.00000E+00
    0.00000E+00         0.00000E+00        -0.19079E+08
 
   -0.19165E+08         0.99399E+06         0.00000E+00
    0.99399E+06        -0.41774E+08         0.00000E+00
    0.00000E+00         0.00000E+00        -0.19227E+08
 
   -0.19316E+08         0.98493E+06         0.00000E+00
    0.98493E+06        -0.42118E+08         0.00000E+00
    0.00000E+00         0.00000E+00        -0.19384E+08
 
   -0.19468E+08         0.97682E+06         0.00000E+00
    0.97682E+06        -0.42465E+08         0.00000E+00
    0.00000E+00         0.00000E+00        -0.19540E+08
 
   -0.19622E+08         0.96986E+06         0.00000E+00
    0.96986E+06        -0.42812E+08         0.00000E+00
    0.00000E+00         0.00000E+00        -0.19695E+08
 
   -0.19778E+08         0.96353E+06         0.00000E+00
    0.96353E+06        -0.43162E+08         0.00000E+00
    0.00000E+00         0.00000E+00        -0.19849E+08
 
   -0.19935E+08         0.95742E+06         0.00000E+00
    0.95742E+06        -0.43513E+08         0.00000E+00
    0.00000E+00         0.00000E+00        -0.20002E+08
 
   -0.20093E+08         0.95129E+06         0.00000E+00
    0.95129E+06        -0.43866E+08         0.00000E+00
    0.00000E+00         0.00000E+00        -0.20154E+08
 
   -0.20253E+08         0.94508E+06         0.00000E+00
    0.94508E+06        -0.44220E+08         0.00000E+00
    0.00000E+00         0.00000E+00        -0.20305E+08
 
   -0.20413E+08         0.93885E+06         0.00000E+00
    0.93885E+06        -0.44576E+08         0.00000E+00
    0.00000E+00         0.00000E+00        -0.20456E+08
 
   -0.20575E+08         0.93173E+06         0.00000E+00
    0.93173E+06        -0.44928E+08         0.00000E+00
    0.00000E+00         0.00000E+00        -0.20613E+08
 
   -0.20737E+08         0.92289E+06         0.00000E+00
    0.92289E+06        -0.45271E+08         0.00000E+00
    0.00000E+00         0.00000E+00        -0.20781E+08
 
   -0.20901E+08         0.91504E+06         0.00000E+00
    0.91504E+06        -0.45615E+08         0.00000E+00
    0.00000E+00         0.00000E+00        -0.20949E+08
 
   -0.21065E+08         0.90801E+06         0.00000E+00
    0.90801E+06        -0.45961E+08         0.00000E+00
    0.00000E+00         0.00000E+00        -0.21116E+08
 
   -0.21232E+08         0.90151E+06         0.00000E+00
    0.90151E+06        -0.46308E+08         0.00000E+00
    0.00000E+00         0.00000E+00        -0.21283E+08
 
   -0.21400E+08         0.89531E+06         0.00000E+00
    0.89531E+06        -0.46656E+08         0.00000E+00
    0.00000E+00         0.00000E+00        -0.21449E+08
 
   -0.21568E+08         0.88930E+06         0.00000E+00
    0.88930E+06        -0.47005E+08         0.00000E+00
    0.00000E+00         0.00000E+00        -0.21615E+08
 
   -0.21738E+08         0.88346E+06         0.00000E+00
    0.88346E+06        -0.47355E+08         0.00000E+00
    0.00000E+00         0.00000E+00        -0.21781E+08
 
   -0.21909E+08         0.87780E+06         0.00000E+00
    0.87780E+06        -0.47705E+08         0.00000E+00
    0.00000E+00         0.00000E+00        -0.21947E+08
 
   -0.22081E+08         0.87143E+06         0.00000E+00
    0.87143E+06        -0.48049E+08         0.00000E+00
    0.00000E+00         0.00000E+00        -0.22120E+08
 
   -0.22253E+08         0.86547E+06         0.00000E+00
    0.86547E+06        -0.48392E+08         0.00000E+00
    0.00000E+00         0.00000E+00        -0.22295E+08
 
   -0.22426E+08         0.86000E+06         0.00000E+00
    0.86000E+06        -0.48736E+08         0.00000E+00
    0.00000E+00         0.00000E+00        -0.22469E+08
 
   -0.22600E+08         0.85496E+06         0.00000E+00
    0.85496E+06        -0.49081E+08         0.00000E+00
    0.00000E+00         0.00000E+00        -0.22642E+08
 
   -0.22775E+08         0.85030E+06         0.00000E+00
    0.85030E+06        -0.49426E+08         0.00000E+00
    0.00000E+00         0.00000E+00        -0.22816E+08
 
   -0.22950E+08         0.84593E+06         0.00000E+00
    0.84593E+06        -0.49771E+08         0.00000E+00
    0.00000E+00         0.00000E+00        -0.22989E+08
 
   -0.23126E+08         0.84175E+06         0.00000E+00
    0.84175E+06        -0.50116E+08         0.00000E+00
    0.00000E+00         0.00000E+00        -0.23162E+08
 
   -0.23303E+08         0.83770E+06         0.00000E+00
    0.83770E+06        -0.50461E+08         0.00000E+00
    0.00000E+00         0.00000E+00        -0.23335E+08
 
   -0.23480E+08         0.83370E+06         0.00000E+00
    0.83370E+06        -0.50805E+08         0.00000E+00
    0.00000E+00         0.00000E+00        -0.23507E+08
 
   -0.23659E+08         0.82966E+06         0.00000E+00
    0.82966E+06        -0.51149E+08         0.00000E+00
    0.00000E+00         0.00000E+00        -0.23681E+08
 
   -0.23841E+08         0.82540E+06         0.00000E+00
    0.82540E+06        -0.51489E+08         0.00000E+00
    0.00000E+00         0.00000E+00        -0.23857E+08
 
   -0.24025E+08         0.82106E+06         0.00000E+00
    0.82106E+06        -0.51829E+08         0.00000E+00
    0.00000E+00         0.00000E+00        -0.24033E+08
 
   -0.24208E+08         0.81661E+06         0.00000E+00
    0.81661E+06        -0.52169E+08         0.00000E+00
    0.00000E+00         0.00000E+00        -0.24208E+08
 
   -0.24392E+08         0.81202E+06         0.00000E+00
    0.81202E+06        -0.52509E+08         0.00000E+00
    0.00000E+00         0.00000E+00        -0.24384E+08
 
   -0.24576E+08         0.80725E+06         0.00000E+00
    0.80725E+06        -0.52849E+08         0.00000E+00
    0.00000E+00         0.00000E+00        -0.24559E+08
 
   -0.24761E+08         0.80225E+06         0.00000E+00
    0.80225E+06        -0.53189E+08         0.00000E+00
    0.00000E+00         0.00000E+00        -0.24733E+08
 
   -0.24946E+08         0.79696E+06         0.00000E+00
    0.79696E+06        -0.53530E+08         0.00000E+00
    0.00000E+00         0.00000E+00        -0.24907E+08
 
   -0.25132E+08         0.79132E+06         0.00000E+00
    0.79132E+06        -0.53870E+08         0.00000E+00
    0.00000E+00         0.00000E+00        -0.25081E+08
 
   -0.25319E+08         0.78525E+06         0.00000E+00
    0.78525E+06        -0.54211E+08         0.00000E+00
    0.00000E+00         0.00000E+00        -0.25254E+08
 
   -0.25507E+08         0.77864E+06         0.00000E+00
    0.77864E+06        -0.54552E+08         0.00000E+00
    0.00000E+00         0.00000E+00        -0.25426E+08
 
   -0.25695E+08         0.77137E+06         0.00000E+00
    0.77137E+06        -0.54893E+08         0.00000E+00
    0.00000E+00         0.00000E+00        -0.25598E+08
 
   -0.25885E+08         0.76328E+06         0.00000E+00
    0.76328E+06        -0.55235E+08         0.00000E+00
    0.00000E+00         0.00000E+00        -0.25770E+08
 
   -0.26076E+08         0.75417E+06         0.00000E+00
    0.75417E+06        -0.55578E+08         0.00000E+00
    0.00000E+00         0.00000E+00        -0.25940E+08
 
   -0.26269E+08         0.74381E+06         0.00000E+00
    0.74381E+06        -0.55922E+08         0.00000E+00
    0.00000E+00         0.00000E+00        -0.26110E+08
 
   -0.26464E+08         0.73192E+06         0.00000E+00
    0.73192E+06        -0.56267E+08         0.00000E+00
    0.00000E+00         0.00000E+00        -0.26279E+08
 
   -0.26660E+08         0.71814E+06         0.00000E+00
    0.71814E+06        -0.56613E+08         0.00000E+00
    0.00000E+00         0.00000E+00        -0.26448E+08
 
   -0.26859E+08         0.70211E+06         0.00000E+00
    0.70211E+06        -0.56961E+08         0.00000E+00
    0.00000E+00         0.00000E+00        -0.26616E+08
 
   -0.27060E+08         0.68337E+06         0.00000E+00
    0.68337E+06        -0.57311E+08         0.00000E+00
    0.00000E+00         0.00000E+00        -0.26783E+08
 
   -0.27265E+08         0.66144E+06         0.00000E+00
    0.66144E+06        -0.57662E+08         0.00000E+00
    0.00000E+00         0.00000E+00        -0.26950E+08
 
   -0.27472E+08         0.63578E+06         0.00000E+00
    0.63578E+06        -0.58016E+08         0.00000E+00
    0.00000E+00         0.00000E+00        -0.27115E+08
 
   -0.27682E+08         0.60587E+06         0.00000E+00
    0.60587E+06        -0.58373E+08         0.00000E+00
    0.00000E+00         0.00000E+00        -0.27280E+08
 
   -0.27896E+08         0.57113E+06         0.00000E+00
    0.57113E+06        -0.58731E+08         0.00000E+00
    0.00000E+00         0.00000E+00        -0.27443E+08
 
   -0.28113E+08         0.53106E+06         0.00000E+00
    0.53106E+06        -0.59090E+08         0.00000E+00
    0.00000E+00         0.00000E+00        -0.27604E+08
 
   -0.28334E+08         0.48520E+06         0.00000E+00
    0.48520E+06        -0.59450E+08         0.00000E+00
    0.00000E+00         0.00000E+00        -0.27762E+08
 
   -0.28559E+08         0.43328E+06         0.00000E+00
    0.43328E+06        -0.59809E+08         0.00000E+00
    0.00000E+00         0.00000E+00        -0.27916E+08
 
   -0.28788E+08         0.37540E+06         0.00000E+00
    0.37540E+06        -0.60165E+08         0.00000E+00
    0.00000E+00         0.00000E+00        -0.28062E+08
 
   -0.29023E+08         0.31241E+06         0.00000E+00
    0.31241E+06        -0.60516E+08         0.00000E+00
    0.00000E+00         0.00000E+00        -0.28198E+08
 
   -0.29265E+08         0.24653E+06         0.00000E+00
    0.24653E+06        -0.60858E+08         0.00000E+00
    0.00000E+00         0.00000E+00        -0.28320E+08
 
   -0.29515E+08         0.18177E+06         0.00000E+00
    0.18177E+06        -0.61189E+08         0.00000E+00
    0.00000E+00         0.00000E+00        -0.28423E+08
 
   -0.29778E+08         0.12334E+06         0.00000E+00
    0.12334E+06        -0.61506E+08         0.00000E+00
    0.00000E+00         0.00000E+00        -0.28501E+08
 
   -0.30057E+08         0.75664E+05         0.00000E+00
    0.75664E+05        -0.61807E+08         0.00000E+00
    0.00000E+00         0.00000E+00        -0.28551E+08
 
   -0.30355E+08         0.39877E+05         0.00000E+00
    0.39877E+05        -0.62091E+08         0.00000E+00
    0.00000E+00         0.00000E+00        -0.28568E+08
 
   -0.30673E+08         0.12407E+05         0.00000E+00
    0.12407E+05        -0.62357E+08         0.00000E+00
    0.00000E+00         0.00000E+00        -0.28551E+08
 
   -0.11687E+08         0.19237E+04         0.00000E+00
    0.19237E+04        -0.27801E+08         0.00000E+00
    0.00000E+00         0.00000E+00        -0.14920E+08
 
   -0.12010E+08         0.23163E+05         0.00000E+00
    0.23163E+05        -0.28092E+08         0.00000E+00
    0.00000E+00         0.00000E+00        -0.14754E+08
 
   -0.12289E+08         0.86266E+05         0.00000E+00
    0.86266E+05        -0.28355E+08         0.00000E+00
    0.00000E+00         0.00000E+00        -0.14668E+08
 
   -0.12567E+08         0.15140E+06         0.00000E+00
    0.15140E+06        -0.28640E+08         0.00000E+00
    0.00000E+00         0.00000E+00        -0.14652E+08
 
   -0.12850E+08         0.22693E+06         0.00000E+00
    0.22693E+06        -0.28977E+08         0.00000E+00
    0.00000E+00         0.00000E+00        -0.14659E+08
 
   -0.13132E+08         0.31488E+06         0.00000E+00
    0.31488E+06        -0.29349E+08         0.00000E+00
    0.00000E+00         0.00000E+00        -0.14685E+08
 
   -0.13387E+08         0.40154E+06         0.00000E+00
    0.40154E+06        -0.29775E+08         0.00000E+00
    0.00000E+00         0.00000E+00        -0.14727E+08
 
   -0.13643E+08         0.46997E+06         0.00000E+00
    0.46997E+06        -0.30182E+08         0.00000E+00
    0.00000E+00         0.00000E+00        -0.14826E+08
 
   -0.13880E+08         0.52716E+06         0.00000E+00
    0.52716E+06        -0.30559E+08         0.00000E+00
    0.00000E+00         0.00000E+00        -0.14945E+08
 
   -0.14107E+08         0.57859E+06         0.00000E+00
    0.57859E+06        -0.30919E+08         0.00000E+00
    0.00000E+00         0.00000E+00        -0.15077E+08
 
   -0.14324E+08         0.62999E+06         0.00000E+00
    0.62999E+06        -0.31273E+08         0.00000E+00
    0.00000E+00         0.00000E+00        -0.15217E+08
 
   -0.14533E+08         0.67965E+06         0.00000E+00
    0.67965E+06        -0.31630E+08         0.00000E+00
    0.00000E+00         0.00000E+00        -0.15363E+08
 
   -0.14734E+08         0.72560E+06         0.00000E+00
    0.72560E+06        -0.31993E+08         0.00000E+00
    0.00000E+00         0.00000E+00        -0.15510E+08
 
   -0.14931E+08         0.76702E+06         0.00000E+00
    0.76702E+06        -0.32361E+08         0.00000E+00
    0.00000E+00         0.00000E+00        -0.15658E+08
 
   -0.15124E+08         0.80384E+06         0.00000E+00
    0.80384E+06        -0.32731E+08         0.00000E+00
    0.00000E+00         0.00000E+00        -0.15805E+08
 
   -0.15314E+08         0.83643E+06         0.00000E+00
    0.83643E+06        -0.33102E+08         0.00000E+00
    0.00000E+00         0.00000E+00        -0.15949E+08
 
   -0.15500E+08         0.86516E+06         0.00000E+00
    0.86516E+06        -0.33473E+08         0.00000E+00
    0.00000E+00         0.00000E+00        -0.16090E+08
 
   -0.15683E+08         0.89028E+06         0.00000E+00
    0.89028E+06        -0.33844E+08         0.00000E+00
    0.00000E+00         0.00000E+00        -0.16228E+08
 
   -0.15862E+08         0.91194E+06         0.00000E+00
    0.91194E+06        -0.34213E+08         0.00000E+00
    0.00000E+00         0.00000E+00        -0.16362E+08
 
   -0.16038E+08         0.93014E+06         0.00000E+00
    0.93014E+06        -0.34583E+08         0.00000E+00
    0.00000E+00         0.00000E+00        -0.16492E+08
 
   -0.16212E+08         0.94488E+06         0.00000E+00
    0.94488E+06        -0.34952E+08         0.00000E+00
    0.00000E+00         0.00000E+00        -0.16618E+08
 
   -0.16382E+08         0.95621E+06         0.00000E+00
    0.95621E+06        -0.35323E+08         0.00000E+00
    0.00000E+00         0.00000E+00        -0.16740E+08
 
   -0.16549E+08         0.96459E+06         0.00000E+00
    0.96459E+06        -0.35697E+08         0.00000E+00
    0.00000E+00         0.00000E+00        -0.16859E+08
 
   -0.16713E+08         0.97116E+06         0.00000E+00
    0.97116E+06        -0.36076E+08         0.00000E+00
    0.00000E+00         0.00000E+00        -0.16973E+08
 
   -0.16872E+08         0.97668E+06         0.00000E+00
    0.97668E+06        -0.36451E+08         0.00000E+00
    0.00000E+00         0.00000E+00        -0.17096E+08
 
   -0.17027E+08         0.97213E+06         0.00000E+00
    0.97213E+06        -0.36802E+08         0.00000E+00
    0.00000E+00         0.00000E+00        -0.17245E+08
 
   -0.17181E+08         0.96847E+06         0.00000E+00
    0.96847E+06        -0.37147E+08         0.00000E+00
    0.00000E+00         0.00000E+00        -0.17399E+08
 
   -0.17333E+08         0.96630E+06         0.00000E+00
    0.96630E+06        -0.37496E+08         0.00000E+00
    0.00000E+00         0.00000E+00        -0.17550E+08
 
   -0.17484E+08         0.96560E+06         0.00000E+00
    0.96560E+06        -0.37847E+08         0.00000E+00
    0.00000E+00         0.00000E+00        -0.17699E+08
 
   -0.17636E+08         0.96608E+06         0.00000E+00
    0.96608E+06        -0.38199E+08         0.00000E+00
    0.00000E+00         0.00000E+00        -0.17846E+08
 
   -0.17787E+08         0.96725E+06         0.00000E+00
    0.96725E+06        -0.38553E+08         0.00000E+00
    0.00000E+00         0.00000E+00        -0.17991E+08
 
   -0.17938E+08         0.96865E+06         0.00000E+00
    0.96865E+06        -0.38907E+08         0.00000E+00
    0.00000E+00         0.00000E+00        -0.18133E+08
 
   -0.18090E+08         0.96988E+06         0.00000E+00
    0.96988E+06        -0.39262E+08         0.00000E+00
    0.00000E+00         0.00000E+00        -0.18273E+08
 
   -0.18241E+08         0.97058E+06         0.00000E+00
    0.97058E+06        -0.39618E+08         0.00000E+00
    0.00000E+00         0.00000E+00        -0.18411E+08
 
   -0.18393E+08         0.97044E+06         0.00000E+00
    0.97044E+06        -0.39975E+08         0.00000E+00
    0.00000E+00         0.00000E+00        -0.18547E+08
 
   -0.18546E+08         0.96928E+06         0.00000E+00
    0.96928E+06        -0.40334E+08         0.00000E+00
    0.00000E+00         0.00000E+00        -0.18681E+08
 
   -0.18698E+08         0.96710E+06         0.00000E+00
    0.96710E+06        -0.40694E+08         0.00000E+00
    0.00000E+00         0.00000E+00        -0.18813E+08
 
   -0.18851E+08         0.96442E+06         0.00000E+00
    0.96442E+06        -0.41057E+08         0.00000E+00
    0.00000E+00         0.00000E+00        -0.18943E+08
 
   -0.19003E+08         0.96249E+06         0.00000E+00
    0.96249E+06        -0.41422E+08         0.00000E+00
    0.00000E+00         0.00000E+00        -0.19074E+08
 
   -0.19155E+08         0.95366E+06         0.00000E+00
    0.95366E+06        -0.41772E+08         0.00000E+00
    0.00000E+00         0.00000E+00        -0.19223E+08
 
   -0.19306E+08         0.94494E+06         0.00000E+00
    0.94494E+06        -0.42116E+08         0.00000E+00
    0.00000E+00         0.00000E+00        -0.19380E+08
 
   -0.19459E+08         0.93722E+06         0.00000E+00
    0.93722E+06        -0.42463E+08         0.00000E+00
    0.00000E+00         0.00000E+00        -0.19536E+08
 
   -0.19614E+08         0.93061E+06         0.00000E+00
    0.93061E+06        -0.42811E+08         0.00000E+00
    0.00000E+00         0.00000E+00        -0.19691E+08
 
   -0.19770E+08         0.92464E+06         0.00000E+00
    0.92464E+06        -0.43161E+08         0.00000E+00
    0.00000E+00         0.00000E+00        -0.19845E+08
 
   -0.19927E+08         0.91889E+06         0.00000E+00
    0.91889E+06        -0.43512E+08         0.00000E+00
    0.00000E+00         0.00000E+00        -0.19998E+08
 
   -0.20086E+08         0.91310E+06         0.00000E+00
    0.91310E+06        -0.43865E+08         0.00000E+00
    0.00000E+00         0.00000E+00        -0.20150E+08
 
   -0.20246E+08         0.90718E+06         0.00000E+00
    0.90718E+06        -0.44219E+08         0.00000E+00
    0.00000E+00         0.00000E+00        -0.20302E+08
 
   -0.20407E+08         0.90126E+06         0.00000E+00
    0.90126E+06        -0.44575E+08         0.00000E+00
    0.00000E+00         0.00000E+00        -0.20453E+08
 
   -0.20569E+08         0.89420E+06         0.00000E+00
    0.89420E+06        -0.44926E+08         0.00000E+00
    0.00000E+00         0.00000E+00        -0.20611E+08
 
   -0.20731E+08         0.88573E+06         0.00000E+00
    0.88573E+06        -0.45269E+08         0.00000E+00
    0.00000E+00         0.00000E+00        -0.20779E+08
 
   -0.20895E+08         0.87821E+06         0.00000E+00
    0.87821E+06        -0.45614E+08         0.00000E+00
    0.00000E+00         0.00000E+00        -0.20947E+08
 
   -0.21060E+08         0.87152E+06         0.00000E+00
    0.87152E+06        -0.45960E+08         0.00000E+00
    0.00000E+00         0.00000E+00        -0.21114E+08
 
   -0.21227E+08         0.86535E+06         0.00000E+00
    0.86535E+06        -0.46307E+08         0.00000E+00
    0.00000E+00         0.00000E+00        -0.21280E+08
 
   -0.21395E+08         0.85948E+06         0.00000E+00
    0.85948E+06        -0.46655E+08         0.00000E+00
    0.00000E+00         0.00000E+00        -0.21447E+08
 
   -0.21564E+08         0.85375E+06         0.00000E+00
    0.85375E+06        -0.47004E+08         0.00000E+00
    0.00000E+00         0.00000E+00        -0.21613E+08
 
   -0.21734E+08         0.84816E+06         0.00000E+00
    0.84816E+06        -0.47354E+08         0.00000E+00
    0.00000E+00         0.00000E+00        -0.21778E+08
 
   -0.21905E+08         0.84269E+06         0.00000E+00
    0.84269E+06        -0.47704E+08         0.00000E+00
    0.00000E+00         0.00000E+00        -0.21945E+08
 
   -0.22077E+08         0.83653E+06         0.00000E+00
    0.83653E+06        -0.48048E+08         0.00000E+00
    0.00000E+00         0.00000E+00        -0.22118E+08
 
   -0.22249E+08         0.83078E+06         0.00000E+00
    0.83078E+06        -0.48391E+08         0.00000E+00
    0.00000E+00         0.00000E+00        -0.22292E+08
 
   -0.22423E+08         0.82552E+06         0.00000E+00
    0.82552E+06        -0.48735E+08         0.00000E+00
    0.00000E+00         0.00000E+00        -0.22466E+08
 
   -0.22597E+08         0.82071E+06         0.00000E+00
    0.82071E+06        -0.49080E+08         0.00000E+00
    0.00000E+00         0.00000E+00        -0.22640E+08
 
   -0.22772E+08         0.81626E+06         0.00000E+00
    0.81626E+06        -0.49425E+08         0.00000E+00
    0.00000E+00         0.00000E+00        -0.22813E+08
 
   -0.22947E+08         0.81207E+06         0.00000E+00
    0.81207E+06        -0.49770E+08         0.00000E+00
    0.00000E+00         0.00000E+00        -0.22986E+08
 
   -0.23124E+08         0.80807E+06         0.00000E+00
    0.80807E+06        -0.50115E+08         0.00000E+00
    0.00000E+00         0.00000E+00        -0.23159E+08
 
   -0.23301E+08         0.80419E+06         0.00000E+00
    0.80419E+06        -0.50460E+08         0.00000E+00
    0.00000E+00         0.00000E+00        -0.23332E+08
 
   -0.23478E+08         0.80035E+06         0.00000E+00
    0.80035E+06        -0.50805E+08         0.00000E+00
    0.00000E+00         0.00000E+00        -0.23504E+08
 
   -0.23657E+08         0.79645E+06         0.00000E+00
    0.79645E+06        -0.51148E+08         0.00000E+00
    0.00000E+00         0.00000E+00        -0.23678E+08
 
   -0.23840E+08         0.79235E+06         0.00000E+00
    0.79235E+06        -0.51488E+08         0.00000E+00
    0.00000E+00         0.00000E+00        -0.23853E+08
 
   -0.24023E+08         0.78817E+06         0.00000E+00
    0.78817E+06        -0.51828E+08         0.00000E+00
    0.00000E+00         0.00000E+00        -0.24029E+08
 
   -0.24207E+08         0.78388E+06         0.00000E+00
    0.78388E+06        -0.52168E+08         0.00000E+00
    0.00000E+00         0.00000E+00        -0.24205E+08
 
   -0.24391E+08         0.77945E+06         0.00000E+00
    0.77945E+06        -0.52508E+08         0.00000E+00
    0.00000E+00         0.00000E+00        -0.24380E+08
 
   -0.24575E+08         0.77484E+06         0.00000E+00
    0.77484E+06        -0.52848E+08         0.00000E+00
    0.00000E+00         0.00000E+00        -0.24555E+08
 
   -0.24761E+08         0.77002E+06         0.00000E+00
    0.77002E+06        -0.53188E+08         0.00000E+00
    0.00000E+00         0.00000E+00        -0.24729E+08
 
   -0.24946E+08         0.76493E+06         0.00000E+00
    0.76493E+06        -0.53529E+08         0.00000E+00
    0.00000E+00         0.00000E+00        -0.24903E+08
 
   -0.25132E+08         0.75950E+06         0.00000E+00
    0.75950E+06        -0.53869E+08         0.00000E+00
    0.00000E+00         0.00000E+00        -0.25076E+08
 
   -0.25319E+08         0.75366E+06         0.00000E+00
    0.75366E+06        -0.54210E+08         0.00000E+00
    0.00000E+00         0.00000E+00        -0.25249E+08
 
   -0.25507E+08         0.74731E+06         0.00000E+00
    0.74731E+06        -0.54551E+08         0.00000E+00
    0.00000E+00         0.00000E+00        -0.25421E+08
 
   -0.25696E+08         0.74032E+06         0.00000E+00
    0.74032E+06        -0.54892E+08         0.00000E+00
    0.00000E+00         0.00000E+00        -0.25593E+08
 
   -0.25886E+08         0.73256E+06         0.00000E+00
    0.73256E+06        -0.55234E+08         0.00000E+00
    0.00000E+00         0.00000E+00        -0.25763E+08
 
   -0.26078E+08         0.72381E+06         0.00000E+00
    0.72381E+06        -0.55576E+08         0.00000E+00
    0.00000E+00         0.00000E+00        -0.25934E+08
 
   -0.26271E+08         0.71386E+06         0.00000E+00
    0.71386E+06        -0.55920E+08         0.00000E+00
    0.00000E+00         0.00000E+00        -0.26103E+08
 
   -0.26466E+08         0.70242E+06         0.00000E+00
    0.70242E+06        -0.56264E+08         0.00000E+00
    0.00000E+00         0.00000E+00        -0.26272E+08
 
   -0.26662E+08         0.68915E+06         0.00000E+00
    0.68915E+06        -0.56610E+08         0.00000E+00
    0.00000E+00         0.00000E+00        -0.26440E+08
 
   -0.26862E+08         0.67367E+06         0.00000E+00
    0.67367E+06        -0.56957E+08         0.00000E+00
    0.00000E+00         0.00000E+00        -0.26607E+08
 
   -0.27064E+08         0.65554E+06         0.00000E+00
    0.65554E+06        -0.57307E+08         0.00000E+00
    0.00000E+00         0.00000E+00        -0.26773E+08
 
   -0.27268E+08         0.63426E+06         0.00000E+00
    0.63426E+06        -0.57658E+08         0.00000E+00
    0.00000E+00         0.00000E+00        -0.26939E+08
 
   -0.27476E+08         0.60931E+06         0.00000E+00
    0.60931E+06        -0.58011E+08         0.00000E+00
    0.00000E+00         0.00000E+00        -0.27103E+08
 
   -0.27687E+08         0.58013E+06         0.00000E+00
    0.58013E+06        -0.58366E+08         0.00000E+00
    0.00000E+00         0.00000E+00        -0.27267E+08
 
   -0.27902E+08         0.54617E+06         0.00000E+00
    0.54617E+06        -0.58723E+08         0.00000E+00
    0.00000E+00         0.00000E+00        -0.27428E+08
 
   -0.28120E+08         0.50692E+06         0.00000E+00
    0.50692E+06        -0.59082E+08         0.00000E+00
    0.00000E+00         0.00000E+00        -0.27587E+08
 
   -0.28342E+08         0.46195E+06         0.00000E+00
    0.46195E+06        -0.59440E+08         0.00000E+00
    0.00000E+00         0.00000E+00        -0.27743E+08
 
   -0.28569E+08         0.41102E+06         0.00000E+00
    0.41102E+06        -0.59798E+08         0.00000E+00
    0.00000E+00         0.00000E+00        -0.27894E+08
 
   -0.28800E+08         0.35428E+06         0.00000E+00
    0.35428E+06        -0.60153E+08         0.00000E+00
    0.00000E+00         0.00000E+00        -0.28037E+08
 
   -0.29038E+08         0.29266E+06         0.00000E+00
    0.29266E+06        -0.60503E+08         0.00000E+00
    0.00000E+00         0.00000E+00        -0.28170E+08
 
   -0.29283E+08         0.22851E+06         0.00000E+00
    0.22851E+06        -0.60846E+08         0.00000E+00
    0.00000E+00         0.00000E+00        -0.28290E+08
 
   -0.29537E+08         0.16595E+06         0.00000E+00
    0.16595E+06        -0.61178E+08         0.00000E+00
    0.00000E+00         0.00000E+00        -0.28391E+08
 
   -0.29804E+08         0.11031E+06         0.00000E+00
    0.11031E+06        -0.61497E+08         0.00000E+00
    0.00000E+00         0.00000E+00        -0.28468E+08
 
   -0.30085E+08         0.65950E+05         0.00000E+00
    0.65950E+05        -0.61801E+08         0.00000E+00
    0.00000E+00         0.00000E+00        -0.28518E+08
 
   -0.30385E+08         0.33883E+05         0.00000E+00
    0.33883E+05        -0.62087E+08         0.00000E+00
    0.00000E+00         0.00000E+00        -0.28537E+08
 
   -0.30704E+08         0.10380E+05         0.00000E+00
    0.10380E+05        -0.62354E+08         0.00000E+00
    0.00000E+00         0.00000E+00        -0.28521E+08
 
   -0.11627E+08        -0.12171E+04         0.00000E+00
   -0.12171E+04        -0.27803E+08         0.00000E+00
    0.00000E+00         0.00000E+00        -0.14954E+08
 
   -0.11955E+08         0.12839E+05         0.00000E+00
    0.12839E+05        -0.28091E+08         0.00000E+00
    0.00000E+00         0.00000E+00        -0.14793E+08
 
   -0.12233E+08         0.67185E+05         0.00000E+00
    0.67185E+05        -0.28364E+08         0.00000E+00
    0.00000E+00         0.00000E+00        -0.14693E+08
 
   -0.12519E+08         0.13662E+06         0.00000E+00
    0.13662E+06        -0.28656E+08         0.00000E+00
    0.00000E+00         0.00000E+00        -0.14674E+08
 
   -0.12805E+08         0.21100E+06         0.00000E+00
    0.21100E+06        -0.28991E+08         0.00000E+00
    0.00000E+00         0.00000E+00        -0.14681E+08
 
   -0.13085E+08         0.29800E+06         0.00000E+00
    0.29800E+06        -0.29377E+08         0.00000E+00
    0.00000E+00         0.00000E+00        -0.14705E+08
 
   -0.13358E+08         0.37985E+06         0.00000E+00
    0.37985E+06        -0.29793E+08         0.00000E+00
    0.00000E+00         0.00000E+00        -0.14763E+08
 
   -0.13615E+08         0.44795E+06         0.00000E+00
    0.44795E+06        -0.30194E+08         0.00000E+00
    0.00000E+00         0.00000E+00        -0.14858E+08
 
   -0.13857E+08         0.50140E+06         0.00000E+00
    0.50140E+06        -0.30570E+08         0.00000E+00
    0.00000E+00         0.00000E+00        -0.14970E+08
 
   -0.14086E+08         0.55118E+06         0.00000E+00
    0.55118E+06        -0.30929E+08         0.00000E+00
    0.00000E+00         0.00000E+00        -0.15097E+08
 
   -0.14306E+08         0.60056E+06         0.00000E+00
    0.60056E+06        -0.31283E+08         0.00000E+00
    0.00000E+00         0.00000E+00        -0.15232E+08
 
   -0.14516E+08         0.64863E+06         0.00000E+00
    0.64863E+06        -0.31640E+08         0.00000E+00
    0.00000E+00         0.00000E+00        -0.15372E+08
 
   -0.14719E+08         0.69339E+06         0.00000E+00
    0.69339E+06        -0.32002E+08         0.00000E+00
    0.00000E+00         0.00000E+00        -0.15516E+08
 
   -0.14916E+08         0.73391E+06         0.00000E+00
    0.73391E+06        -0.32369E+08         0.00000E+00
    0.00000E+00         0.00000E+00        -0.15660E+08
 
   -0.15109E+08         0.77003E+06         0.00000E+00
    0.77003E+06        -0.32738E+08         0.00000E+00
    0.00000E+00         0.00000E+00        -0.15804E+08
 
   -0.15298E+08         0.80197E+06         0.00000E+00
    0.80197E+06        -0.33108E+08         0.00000E+00
    0.00000E+00         0.00000E+00        -0.15946E+08
 
   -0.15483E+08         0.83008E+06         0.00000E+00
    0.83008E+06        -0.33479E+08         0.00000E+00
    0.00000E+00         0.00000E+00        -0.16085E+08
 
   -0.15666E+08         0.85460E+06         0.00000E+00
    0.85460E+06        -0.33848E+08         0.00000E+00
    0.00000E+00         0.00000E+00        -0.16221E+08
 
   -0.15845E+08         0.87568E+06         0.00000E+00
    0.87568E+06        -0.34217E+08         0.00000E+00
    0.00000E+00         0.00000E+00        -0.16354E+08
 
   -0.16021E+08         0.89333E+06         0.00000E+00
    0.89333E+06        -0.34586E+08         0.00000E+00
    0.00000E+00         0.00000E+00        -0.16483E+08
 
   -0.16194E+08         0.90754E+06         0.00000E+00
    0.90754E+06        -0.34954E+08         0.00000E+00
    0.00000E+00         0.00000E+00        -0.16608E+08
 
   -0.16364E+08         0.91834E+06         0.00000E+00
    0.91834E+06        -0.35325E+08         0.00000E+00
    0.00000E+00         0.00000E+00        -0.16730E+08
 
   -0.16532E+08         0.92616E+06         0.00000E+00
    0.92616E+06        -0.35698E+08         0.00000E+00
    0.00000E+00         0.00000E+00        -0.16848E+08
 
   -0.16696E+08         0.93200E+06         0.00000E+00
    0.93200E+06        -0.36078E+08         0.00000E+00
    0.00000E+00         0.00000E+00        -0.16962E+08
 
   -0.16855E+08         0.93655E+06         0.00000E+00
    0.93655E+06        -0.36451E+08         0.00000E+00
    0.00000E+00         0.00000E+00        -0.17087E+08
 
   -0.17011E+08         0.93155E+06         0.00000E+00
    0.93155E+06        -0.36801E+08         0.00000E+00
    0.00000E+00         0.00000E+00        -0.17236E+08
 
   -0.17164E+08         0.92765E+06         0.00000E+00
    0.92765E+06        -0.37147E+08         0.00000E+00
    0.00000E+00         0.00000E+00        -0.17390E+08
 
   -0.17317E+08         0.92541E+06         0.00000E+00
    0.92541E+06        -0.37496E+08         0.00000E+00
    0.00000E+00         0.00000E+00        -0.17542E+08
 
   -0.17469E+08         0.92471E+06         0.00000E+00
    0.92471E+06        -0.37847E+08         0.00000E+00
    0.00000E+00         0.00000E+00        -0.17691E+08
 
   -0.17620E+08         0.92522E+06         0.00000E+00
    0.92522E+06        -0.38199E+08         0.00000E+00
    0.00000E+00         0.00000E+00        -0.17838E+08
 
   -0.17772E+08         0.92646E+06         0.00000E+00
    0.92646E+06        -0.38553E+08         0.00000E+00
    0.00000E+00         0.00000E+00        -0.17982E+08
 
   -0.17924E+08         0.92795E+06         0.00000E+00
    0.92795E+06        -0.38907E+08         0.00000E+00
    0.00000E+00         0.00000E+00        -0.18125E+08
 
   -0.18076E+08         0.92929E+06         0.00000E+00
    0.92929E+06        -0.39263E+08         0.00000E+00
    0.00000E+00         0.00000E+00        -0.18265E+08
 
   -0.18228E+08         0.93013E+06         0.00000E+00
    0.93013E+06        -0.39618E+08         0.00000E+00
    0.00000E+00         0.00000E+00        -0.18403E+08
 
   -0.18381E+08         0.93013E+06         0.00000E+00
    0.93013E+06        -0.39975E+08         0.00000E+00
    0.00000E+00         0.00000E+00        -0.18539E+08
 
   -0.18534E+08         0.92910E+06         0.00000E+00
    0.92910E+06        -0.40333E+08         0.00000E+00
    0.00000E+00         0.00000E+00        -0.18673E+08
 
   -0.18687E+08         0.92701E+06         0.00000E+00
    0.92701E+06        -0.40694E+08         0.00000E+00
    0.00000E+00         0.00000E+00        -0.18805E+08
 
   -0.18840E+08         0.92444E+06         0.00000E+00
    0.92444E+06        -0.41057E+08         0.00000E+00
    0.00000E+00         0.00000E+00        -0.18936E+08
 
   -0.18993E+08         0.92245E+06         0.00000E+00
    0.92245E+06        -0.41421E+08         0.00000E+00
    0.00000E+00         0.00000E+00        -0.19068E+08
 
   -0.19145E+08         0.91345E+06         0.00000E+00
    0.91345E+06        -0.41770E+08         0.00000E+00
    0.00000E+00         0.00000E+00        -0.19218E+08
 
   -0.19297E+08         0.90503E+06         0.00000E+00
    0.90503E+06        -0.42115E+08         0.00000E+00
    0.00000E+00         0.00000E+00        -0.19376E+08
 
   -0.19450E+08         0.89770E+06         0.00000E+00
    0.89770E+06        -0.42462E+08         0.00000E+00
    0.00000E+00         0.00000E+00        -0.19532E+08
 
   -0.19605E+08         0.89146E+06         0.00000E+00
    0.89146E+06        -0.42810E+08         0.00000E+00
    0.00000E+00         0.00000E+00        -0.19687E+08
 
   -0.19762E+08         0.88586E+06         0.00000E+00
    0.88586E+06        -0.43160E+08         0.00000E+00
    0.00000E+00         0.00000E+00        -0.19841E+08
 
   -0.19920E+08         0.88046E+06         0.00000E+00
    0.88046E+06        -0.43511E+08         0.00000E+00
    0.00000E+00         0.00000E+00        -0.19994E+08
 
   -0.20079E+08         0.87499E+06         0.00000E+00
    0.87499E+06        -0.43863E+08         0.00000E+00
    0.00000E+00         0.00000E+00        -0.20147E+08
 
   -0.20239E+08         0.86938E+06         0.00000E+00
    0.86938E+06        -0.44218E+08         0.00000E+00
    0.00000E+00         0.00000E+00        -0.20298E+08
 
   -0.20401E+08         0.86374E+06         0.00000E+00
    0.86374E+06        -0.44574E+08         0.00000E+00
    0.00000E+00         0.00000E+00        -0.20449E+08
 
   -0.20563E+08         0.85674E+06         0.00000E+00
    0.85674E+06        -0.44925E+08         0.00000E+00
    0.00000E+00         0.00000E+00        -0.20608E+08
 
   -0.20726E+08         0.84861E+06         0.00000E+00
    0.84861E+06        -0.45268E+08         0.00000E+00
    0.00000E+00         0.00000E+00        -0.20776E+08
 
   -0.20890E+08         0.84144E+06         0.00000E+00
    0.84144E+06        -0.45613E+08         0.00000E+00
    0.00000E+00         0.00000E+00        -0.20944E+08
 
   -0.21055E+08         0.83508E+06         0.00000E+00
    0.83508E+06        -0.45959E+08         0.00000E+00
    0.00000E+00         0.00000E+00        -0.21111E+08
 
   -0.21222E+08         0.82926E+06         0.00000E+00
    0.82926E+06        -0.46306E+08         0.00000E+00
    0.00000E+00         0.00000E+00        -0.21278E+08
 
   -0.21390E+08         0.82370E+06         0.00000E+00
    0.82370E+06        -0.46654E+08         0.00000E+00
    0.00000E+00         0.00000E+00        -0.21444E+08
 
   -0.21560E+08         0.81826E+06         0.00000E+00
    0.81826E+06        -0.47003E+08         0.00000E+00
    0.00000E+00         0.00000E+00        -0.21610E+08
 
   -0.21730E+08         0.81290E+06         0.00000E+00
    0.81290E+06        -0.47353E+08         0.00000E+00
    0.00000E+00         0.00000E+00        -0.21776E+08
 
   -0.21901E+08         0.80762E+06         0.00000E+00
    0.80762E+06        -0.47702E+08         0.00000E+00
    0.00000E+00         0.00000E+00        -0.21943E+08
 
   -0.22073E+08         0.80166E+06         0.00000E+00
    0.80166E+06        -0.48047E+08         0.00000E+00
    0.00000E+00         0.00000E+00        -0.22116E+08
 
   -0.22246E+08         0.79613E+06         0.00000E+00
    0.79613E+06        -0.48390E+08         0.00000E+00
    0.00000E+00         0.00000E+00        -0.22290E+08
 
   -0.22419E+08         0.79109E+06         0.00000E+00
    0.79109E+06        -0.48734E+08         0.00000E+00
    0.00000E+00         0.00000E+00        -0.22464E+08
 
   -0.22594E+08         0.78649E+06         0.00000E+00
    0.78649E+06        -0.49079E+08         0.00000E+00
    0.00000E+00         0.00000E+00        -0.22637E+08
 
   -0.22769E+08         0.78225E+06         0.00000E+00
    0.78225E+06        -0.49424E+08         0.00000E+00
    0.00000E+00         0.00000E+00        -0.22811E+08
 
   -0.22945E+08         0.77826E+06         0.00000E+00
    0.77826E+06        -0.49769E+08         0.00000E+00
    0.00000E+00         0.00000E+00        -0.22984E+08
 
   -0.23121E+08         0.77444E+06         0.00000E+00
    0.77444E+06        -0.50114E+08         0.00000E+00
    0.00000E+00         0.00000E+00        -0.23157E+08
 
   -0.23298E+08         0.77072E+06         0.00000E+00
    0.77072E+06        -0.50459E+08         0.00000E+00
    0.00000E+00         0.00000E+00        -0.23329E+08
 
   -0.23476E+08         0.76704E+06         0.00000E+00
    0.76704E+06        -0.50804E+08         0.00000E+00
    0.00000E+00         0.00000E+00        -0.23501E+08
 
   -0.23656E+08         0.76330E+06         0.00000E+00
    0.76330E+06        -0.51147E+08         0.00000E+00
    0.00000E+00         0.00000E+00        -0.23675E+08
 
   -0.23838E+08         0.75935E+06         0.00000E+00
    0.75935E+06        -0.51488E+08         0.00000E+00
    0.00000E+00         0.00000E+00        -0.23850E+08
 
   -0.24022E+08         0.75532E+06         0.00000E+00
    0.75532E+06        -0.51827E+08         0.00000E+00
    0.00000E+00         0.00000E+00        -0.24026E+08
 
   -0.24206E+08         0.75119E+06         0.00000E+00
    0.75119E+06        -0.52167E+08         0.00000E+00
    0.00000E+00         0.00000E+00        -0.24201E+08
 
   -0.24390E+08         0.74693E+06         0.00000E+00
    0.74693E+06        -0.52507E+08         0.00000E+00
    0.00000E+00         0.00000E+00        -0.24376E+08
 
   -0.24575E+08         0.74249E+06         0.00000E+00
    0.74249E+06        -0.52847E+08         0.00000E+00
    0.00000E+00         0.00000E+00        -0.24551E+08
 
   -0.24760E+08         0.73785E+06         0.00000E+00
    0.73785E+06        -0.53188E+08         0.00000E+00
    0.00000E+00         0.00000E+00        -0.24725E+08
 
   -0.24946E+08         0.73295E+06         0.00000E+00
    0.73295E+06        -0.53528E+08         0.00000E+00
    0.00000E+00         0.00000E+00        -0.24898E+08
 
   -0.25133E+08         0.72773E+06         0.00000E+00
    0.72773E+06        -0.53868E+08         0.00000E+00
    0.00000E+00         0.00000E+00        -0.25071E+08
 
   -0.25320E+08         0.72212E+06         0.00000E+00
    0.72212E+06        -0.54209E+08         0.00000E+00
    0.00000E+00         0.00000E+00        -0.25244E+08
 
   -0.25508E+08         0.71603E+06         0.00000E+00
    0.71603E+06        -0.54549E+08         0.00000E+00
    0.00000E+00         0.00000E+00        -0.25416E+08
 
   -0.25697E+08         0.70933E+06         0.00000E+00
    0.70933E+06        -0.54891E+08         0.00000E+00
    0.00000E+00         0.00000E+00        -0.25587E+08
 
   -0.25888E+08         0.70189E+06         0.00000E+00
    0.70189E+06        -0.55232E+08         0.00000E+00
    0.00000E+00         0.00000E+00        -0.25757E+08
 
   -0.26079E+08         0.69351E+06         0.00000E+00
    0.69351E+06        -0.55575E+08         0.00000E+00
    0.00000E+00         0.00000E+00        -0.25927E+08
 
   -0.26273E+08         0.68397E+06         0.00000E+00
    0.68397E+06        -0.55918E+08         0.00000E+00
    0.00000E+00         0.00000E+00        -0.26096E+08
 
   -0.26468E+08         0.67298E+06         0.00000E+00
    0.67298E+06        -0.56262E+08         0.00000E+00
    0.00000E+00         0.00000E+00        -0.26264E+08
 
   -0.26665E+08         0.66023E+06         0.00000E+00
    0.66023E+06        -0.56607E+08         0.00000E+00
    0.00000E+00         0.00000E+00        -0.26432E+08
 
   -0.26865E+08         0.64531E+06         0.00000E+00
    0.64531E+06        -0.56954E+08         0.00000E+00
    0.00000E+00         0.00000E+00        -0.26598E+08
 
   -0.27067E+08         0.62779E+06         0.00000E+00
    0.62779E+06        -0.57303E+08         0.00000E+00
    0.00000E+00         0.00000E+00        -0.26764E+08
 
   -0.27272E+08         0.60718E+06         0.00000E+00
    0.60718E+06        -0.57653E+08         0.00000E+00
    0.00000E+00         0.00000E+00        -0.26928E+08
 
   -0.27480E+08         0.58294E+06         0.00000E+00
    0.58294E+06        -0.58006E+08         0.00000E+00
    0.00000E+00         0.00000E+00        -0.27092E+08
 
   -0.27692E+08         0.55453E+06         0.00000E+00
    0.55453E+06        -0.58360E+08         0.00000E+00
    0.00000E+00         0.00000E+00        -0.27253E+08
 
   -0.27907E+08         0.52140E+06         0.00000E+00
    0.52140E+06        -0.58716E+08         0.00000E+00
    0.00000E+00         0.00000E+00        -0.27413E+08
 
   -0.28127E+08         0.48303E+06         0.00000E+00
    0.48303E+06        -0.59073E+08         0.00000E+00
    0.00000E+00         0.00000E+00        -0.27571E+08
 
   -0.28350E+08         0.43903E+06         0.00000E+00
    0.43903E+06        -0.59431E+08         0.00000E+00
    0.00000E+00         0.00000E+00        -0.27724E+08
 
   -0.28579E+08         0.38918E+06         0.00000E+00
    0.38918E+06        -0.59787E+08         0.00000E+00
    0.00000E+00         0.00000E+00        -0.27872E+08
 
   -0.28813E+08         0.33370E+06         0.00000E+00
    0.33370E+06        -0.60141E+08         0.00000E+00
    0.00000E+00         0.00000E+00        -0.28013E+08
 
   -0.29053E+08         0.27360E+06         0.00000E+00
    0.27360E+06        -0.60491E+08         0.00000E+00
    0.00000E+00         0.00000E+00        -0.28143E+08
 
   -0.29301E+08         0.21127E+06         0.00000E+00
    0.21127E+06        -0.60834E+08         0.00000E+00
    0.00000E+00         0.00000E+00        -0.28259E+08
 
   -0.29559E+08         0.15093E+06         0.00000E+00
    0.15093E+06        -0.61167E+08         0.00000E+00
    0.00000E+00         0.00000E+00        -0.28359E+08
 
   -0.29829E+08         0.97929E+05         0.00000E+00
    0.97929E+05        -0.61488E+08         0.00000E+00
    0.00000E+00         0.00000E+00        -0.28436E+08
 
   -0.30114E+08         0.56674E+05         0.00000E+00
    0.56674E+05        -0.61795E+08         0.00000E+00
    0.00000E+00         0.00000E+00        -0.28487E+08
 
   -0.30415E+08         0.28113E+05         0.00000E+00
    0.28113E+05        -0.62084E+08         0.00000E+00
    0.00000E+00         0.00000E+00        -0.28506E+08
 
   -0.30735E+08         0.84186E+04         0.00000E+00
    0.84186E+04        -0.62352E+08         0.00000E+00
    0.00000E+00         0.00000E+00        -0.28492E+08
 
   -0.11569E+08        -0.42131E+04         0.00000E+00
   -0.42131E+04        -0.27801E+08         0.00000E+00
    0.00000E+00         0.00000E+00        -0.14986E+08
 
   -0.11902E+08         0.36228E+04         0.00000E+00
    0.36228E+04        -0.28100E+08         0.00000E+00
    0.00000E+00         0.00000E+00        -0.14830E+08
 
   -0.12196E+08         0.49756E+05         0.00000E+00
    0.49756E+05        -0.28366E+08         0.00000E+00
    0.00000E+00         0.00000E+00        -0.14734E+08
 
   -0.12468E+08         0.12065E+06         0.00000E+00
    0.12065E+06        -0.28667E+08         0.00000E+00
    0.00000E+00         0.00000E+00        -0.14697E+08
 
   -0.12758E+08         0.19650E+06         0.00000E+00
    0.19650E+06        -0.29010E+08         0.00000E+00
    0.00000E+00         0.00000E+00        -0.14703E+08
 
   -0.13047E+08         0.28175E+06         0.00000E+00
    0.28175E+06        -0.29402E+08         0.00000E+00
    0.00000E+00         0.00000E+00        -0.14732E+08
 
   -0.13331E+08         0.36130E+06         0.00000E+00
    0.36130E+06        -0.29809E+08         0.00000E+00
    0.00000E+00         0.00000E+00        -0.14799E+08
 
   -0.13591E+08         0.42554E+06         0.00000E+00
    0.42554E+06        -0.30205E+08         0.00000E+00
    0.00000E+00         0.00000E+00        -0.14888E+08
 
   -0.13835E+08         0.47659E+06         0.00000E+00
    0.47659E+06        -0.30580E+08         0.00000E+00
    0.00000E+00         0.00000E+00        -0.14996E+08
 
   -0.14067E+08         0.52418E+06         0.00000E+00
    0.52418E+06        -0.30939E+08         0.00000E+00
    0.00000E+00         0.00000E+00        -0.15116E+08
 
   -0.14288E+08         0.57153E+06         0.00000E+00
    0.57153E+06        -0.31292E+08         0.00000E+00
    0.00000E+00         0.00000E+00        -0.15246E+08
 
   -0.14500E+08         0.61785E+06         0.00000E+00
    0.61785E+06        -0.31649E+08         0.00000E+00
    0.00000E+00         0.00000E+00        -0.15382E+08
 
   -0.14704E+08         0.66130E+06         0.00000E+00
    0.66130E+06        -0.32010E+08         0.00000E+00
    0.00000E+00         0.00000E+00        -0.15522E+08
 
   -0.14901E+08         0.70083E+06         0.00000E+00
    0.70083E+06        -0.32376E+08         0.00000E+00
    0.00000E+00         0.00000E+00        -0.15662E+08
 
   -0.15094E+08         0.73617E+06         0.00000E+00
    0.73617E+06        -0.32745E+08         0.00000E+00
    0.00000E+00         0.00000E+00        -0.15803E+08
 
   -0.15283E+08         0.76744E+06         0.00000E+00
    0.76744E+06        -0.33114E+08         0.00000E+00
    0.00000E+00         0.00000E+00        -0.15942E+08
 
   -0.15468E+08         0.79491E+06         0.00000E+00
    0.79491E+06        -0.33484E+08         0.00000E+00
    0.00000E+00         0.00000E+00        -0.16080E+08
 
   -0.15650E+08         0.81884E+06         0.00000E+00
    0.81884E+06        -0.33853E+08         0.00000E+00
    0.00000E+00         0.00000E+00        -0.16214E+08
 
   -0.15828E+08         0.83934E+06         0.00000E+00
    0.83934E+06        -0.34221E+08         0.00000E+00
    0.00000E+00         0.00000E+00        -0.16346E+08
 
   -0.16004E+08         0.85647E+06         0.00000E+00
    0.85647E+06        -0.34589E+08         0.00000E+00
    0.00000E+00         0.00000E+00        -0.16474E+08
 
   -0.16177E+08         0.87018E+06         0.00000E+00
    0.87018E+06        -0.34957E+08         0.00000E+00
    0.00000E+00         0.00000E+00        -0.16599E+08
 
   -0.16347E+08         0.88049E+06         0.00000E+00
    0.88049E+06        -0.35326E+08         0.00000E+00
    0.00000E+00         0.00000E+00        -0.16720E+08
 
   -0.16515E+08         0.88775E+06         0.00000E+00
    0.88775E+06        -0.35699E+08         0.00000E+00
    0.00000E+00         0.00000E+00        -0.16837E+08
 
   -0.16679E+08         0.89287E+06         0.00000E+00
    0.89287E+06        -0.36079E+08         0.00000E+00
    0.00000E+00         0.00000E+00        -0.16951E+08
 
   -0.16838E+08         0.89645E+06         0.00000E+00
    0.89645E+06        -0.36451E+08         0.00000E+00
    0.00000E+00         0.00000E+00        -0.17077E+08
 
   -0.16994E+08         0.89104E+06         0.00000E+00
    0.89104E+06        -0.36800E+08         0.00000E+00
    0.00000E+00         0.00000E+00        -0.17227E+08
 
   -0.17148E+08         0.88691E+06         0.00000E+00
    0.88691E+06        -0.37146E+08         0.00000E+00
    0.00000E+00         0.00000E+00        -0.17381E+08
 
   -0.17301E+08         0.88460E+06         0.00000E+00
    0.88460E+06        -0.37495E+08         0.00000E+00
    0.00000E+00         0.00000E+00        -0.17533E+08
 
   -0.17453E+08         0.88390E+06         0.00000E+00
    0.88390E+06        -0.37847E+08         0.00000E+00
    0.00000E+00         0.00000E+00        -0.17682E+08
 
   -0.17605E+08         0.88446E+06         0.00000E+00
    0.88446E+06        -0.38199E+08         0.00000E+00
    0.00000E+00         0.00000E+00        -0.17829E+08
 
   -0.17758E+08         0.88576E+06         0.00000E+00
    0.88576E+06        -0.38553E+08         0.00000E+00
    0.00000E+00         0.00000E+00        -0.17974E+08
 
   -0.17910E+08         0.88735E+06         0.00000E+00
    0.88735E+06        -0.38908E+08         0.00000E+00
    0.00000E+00         0.00000E+00        -0.18117E+08
 
   -0.18062E+08         0.88882E+06         0.00000E+00
    0.88882E+06        -0.39263E+08         0.00000E+00
    0.00000E+00         0.00000E+00        -0.18257E+08
 
   -0.18215E+08         0.88979E+06         0.00000E+00
    0.88979E+06        -0.39619E+08         0.00000E+00
    0.00000E+00         0.00000E+00        -0.18395E+08
 
   -0.18368E+08         0.88994E+06         0.00000E+00
    0.88994E+06        -0.39975E+08         0.00000E+00
    0.00000E+00         0.00000E+00        -0.18532E+08
 
   -0.18522E+08         0.88904E+06         0.00000E+00
    0.88904E+06        -0.40333E+08         0.00000E+00
    0.00000E+00         0.00000E+00        -0.18666E+08
 
   -0.18676E+08         0.88707E+06         0.00000E+00
    0.88707E+06        -0.40693E+08         0.00000E+00
    0.00000E+00         0.00000E+00        -0.18799E+08
 
   -0.18830E+08         0.88457E+06         0.00000E+00
    0.88457E+06        -0.41056E+08         0.00000E+00
    0.00000E+00         0.00000E+00        -0.18929E+08
 
   -0.18983E+08         0.88246E+06         0.00000E+00
    0.88246E+06        -0.41419E+08         0.00000E+00
    0.00000E+00         0.00000E+00        -0.19063E+08
 
   -0.19135E+08         0.87334E+06         0.00000E+00
    0.87334E+06        -0.41768E+08         0.00000E+00
    0.00000E+00         0.00000E+00        -0.19214E+08
 
   -0.19288E+08         0.86521E+06         0.00000E+00
    0.86521E+06        -0.42113E+08         0.00000E+00
    0.00000E+00         0.00000E+00        -0.19372E+08
 
   -0.19442E+08         0.85827E+06         0.00000E+00
    0.85827E+06        -0.42460E+08         0.00000E+00
    0.00000E+00         0.00000E+00        -0.19528E+08
 
   -0.19597E+08         0.85240E+06         0.00000E+00
    0.85240E+06        -0.42809E+08         0.00000E+00
    0.00000E+00         0.00000E+00        -0.19683E+08
 
   -0.19754E+08         0.84716E+06         0.00000E+00
    0.84716E+06        -0.43159E+08         0.00000E+00
    0.00000E+00         0.00000E+00        -0.19837E+08
 
   -0.19912E+08         0.84212E+06         0.00000E+00
    0.84212E+06        -0.43510E+08         0.00000E+00
    0.00000E+00         0.00000E+00        -0.19991E+08
 
   -0.20072E+08         0.83697E+06         0.00000E+00
    0.83697E+06        -0.43862E+08         0.00000E+00
    0.00000E+00         0.00000E+00        -0.20143E+08
 
   -0.20233E+08         0.83165E+06         0.00000E+00
    0.83165E+06        -0.44217E+08         0.00000E+00
    0.00000E+00         0.00000E+00        -0.20295E+08
 
   -0.20395E+08         0.82628E+06         0.00000E+00
    0.82628E+06        -0.44573E+08         0.00000E+00
    0.00000E+00         0.00000E+00        -0.20446E+08
 
   -0.20557E+08         0.81935E+06         0.00000E+00
    0.81935E+06        -0.44923E+08         0.00000E+00
    0.00000E+00         0.00000E+00        -0.20606E+08
 
   -0.20720E+08         0.81153E+06         0.00000E+00
    0.81153E+06        -0.45266E+08         0.00000E+00
    0.00000E+00         0.00000E+00        -0.20774E+08
 
   -0.20884E+08         0.80472E+06         0.00000E+00
    0.80472E+06        -0.45611E+08         0.00000E+00
    0.00000E+00         0.00000E+00        -0.20942E+08
 
   -0.21050E+08         0.79870E+06         0.00000E+00
    0.79870E+06        -0.45958E+08         0.00000E+00
    0.00000E+00         0.00000E+00        -0.21109E+08
 
   -0.21217E+08         0.79321E+06         0.00000E+00
    0.79321E+06        -0.46305E+08         0.00000E+00
    0.00000E+00         0.00000E+00        -0.21276E+08
 
   -0.21386E+08         0.78798E+06         0.00000E+00
    0.78798E+06        -0.46653E+08         0.00000E+00
    0.00000E+00         0.00000E+00        -0.21442E+08
 
   -0.21556E+08         0.78282E+06         0.00000E+00
    0.78282E+06        -0.47002E+08         0.00000E+00
    0.00000E+00         0.00000E+00        -0.21608E+08
 
   -0.21726E+08         0.77769E+06         0.00000E+00
    0.77769E+06        -0.47352E+08         0.00000E+00
    0.00000E+00         0.00000E+00        -0.21773E+08
 
   -0.21898E+08         0.77260E+06         0.00000E+00
    0.77260E+06        -0.47701E+08         0.00000E+00
    0.00000E+00         0.00000E+00        -0.21940E+08
 
   -0.22070E+08         0.76684E+06         0.00000E+00
    0.76684E+06        -0.48046E+08         0.00000E+00
    0.00000E+00         0.00000E+00        -0.22113E+08
 
   -0.22243E+08         0.76151E+06         0.00000E+00
    0.76151E+06        -0.48389E+08         0.00000E+00
    0.00000E+00         0.00000E+00        -0.22288E+08
 
   -0.22416E+08         0.75670E+06         0.00000E+00
    0.75670E+06        -0.48734E+08         0.00000E+00
    0.00000E+00         0.00000E+00        -0.22461E+08
 
   -0.22591E+08         0.75232E+06         0.00000E+00
    0.75232E+06        -0.49078E+08         0.00000E+00
    0.00000E+00         0.00000E+00        -0.22635E+08
 
   -0.22766E+08         0.74828E+06         0.00000E+00
    0.74828E+06        -0.49423E+08         0.00000E+00
    0.00000E+00         0.00000E+00        -0.22808E+08
 
   -0.22942E+08         0.74448E+06         0.00000E+00
    0.74448E+06        -0.49768E+08         0.00000E+00
    0.00000E+00         0.00000E+00        -0.22981E+08
 
   -0.23119E+08         0.74085E+06         0.00000E+00
    0.74085E+06        -0.50113E+08         0.00000E+00
    0.00000E+00         0.00000E+00        -0.23154E+08
 
   -0.23296E+08         0.73730E+06         0.00000E+00
    0.73730E+06        -0.50458E+08         0.00000E+00
    0.00000E+00         0.00000E+00        -0.23326E+08
 
   -0.23474E+08         0.73378E+06         0.00000E+00
    0.73378E+06        -0.50803E+08         0.00000E+00
    0.00000E+00         0.00000E+00        -0.23498E+08
 
   -0.23654E+08         0.73019E+06         0.00000E+00
    0.73019E+06        -0.51146E+08         0.00000E+00
    0.00000E+00         0.00000E+00        -0.23671E+08
 
   -0.23837E+08         0.72640E+06         0.00000E+00
    0.72640E+06        -0.51487E+08         0.00000E+00
    0.00000E+00         0.00000E+00        -0.23847E+08
 
   -0.24021E+08         0.72253E+06         0.00000E+00
    0.72253E+06        -0.51827E+08         0.00000E+00
    0.00000E+00         0.00000E+00        -0.24023E+08
 
   -0.24205E+08         0.71856E+06         0.00000E+00
    0.71856E+06        -0.52167E+08         0.00000E+00
    0.00000E+00         0.00000E+00        -0.24198E+08
 
   -0.24390E+08         0.71446E+06         0.00000E+00
    0.71446E+06        -0.52507E+08         0.00000E+00
    0.00000E+00         0.00000E+00        -0.24372E+08
 
   -0.24575E+08         0.71020E+06         0.00000E+00
    0.71020E+06        -0.52847E+08         0.00000E+00
    0.00000E+00         0.00000E+00        -0.24547E+08
 
   -0.24760E+08         0.70573E+06         0.00000E+00
    0.70573E+06        -0.53187E+08         0.00000E+00
    0.00000E+00         0.00000E+00        -0.24720E+08
 
   -0.24946E+08         0.70103E+06         0.00000E+00
    0.70103E+06        -0.53527E+08         0.00000E+00
    0.00000E+00         0.00000E+00        -0.24894E+08
 
   -0.25133E+08         0.69602E+06         0.00000E+00
    0.69602E+06        -0.53867E+08         0.00000E+00
    0.00000E+00         0.00000E+00        -0.25067E+08
 
   -0.25321E+08         0.69064E+06         0.00000E+00
    0.69064E+06        -0.54208E+08         0.00000E+00
    0.00000E+00         0.00000E+00        -0.25239E+08
 
   -0.25509E+08         0.68481E+06         0.00000E+00
    0.68481E+06        -0.54548E+08         0.00000E+00
    0.00000E+00         0.00000E+00        -0.25410E+08
 
   -0.25699E+08         0.67840E+06         0.00000E+00
    0.67840E+06        -0.54889E+08         0.00000E+00
    0.00000E+00         0.00000E+00        -0.25581E+08
 
   -0.25889E+08         0.67128E+06         0.00000E+00
    0.67128E+06        -0.55231E+08         0.00000E+00
    0.00000E+00         0.00000E+00        -0.25751E+08
 
   -0.26081E+08         0.66327E+06         0.00000E+00
    0.66327E+06        -0.55573E+08         0.00000E+00
    0.00000E+00         0.00000E+00        -0.25921E+08
 
   -0.26275E+08         0.65414E+06         0.00000E+00
    0.65414E+06        -0.55916E+08         0.00000E+00
    0.00000E+00         0.00000E+00        -0.26089E+08
 
   -0.26470E+08         0.64361E+06         0.00000E+00
    0.64361E+06        -0.56260E+08         0.00000E+00
    0.00000E+00         0.00000E+00        -0.26257E+08
 
   -0.26668E+08         0.63136E+06         0.00000E+00
    0.63136E+06        -0.56605E+08         0.00000E+00
    0.00000E+00         0.00000E+00        -0.26424E+08
 
   -0.26868E+08         0.61702E+06         0.00000E+00
    0.61702E+06        -0.56951E+08         0.00000E+00
    0.00000E+00         0.00000E+00        -0.26590E+08
 
   -0.27070E+08         0.60012E+06         0.00000E+00
    0.60012E+06        -0.57299E+08         0.00000E+00
    0.00000E+00         0.00000E+00        -0.26754E+08
 
   -0.27276E+08         0.58019E+06         0.00000E+00
    0.58019E+06        -0.57649E+08         0.00000E+00
    0.00000E+00         0.00000E+00        -0.26918E+08
 
   -0.27485E+08         0.55670E+06         0.00000E+00
    0.55670E+06        -0.58001E+08         0.00000E+00
    0.00000E+00         0.00000E+00        -0.27080E+08
 
   -0.27697E+08         0.52908E+06         0.00000E+00
    0.52908E+06        -0.58354E+08         0.00000E+00
    0.00000E+00         0.00000E+00        -0.27240E+08
 
   -0.27913E+08         0.49681E+06         0.00000E+00
    0.49681E+06        -0.58709E+08         0.00000E+00
    0.00000E+00         0.00000E+00        -0.27398E+08
 
   -0.28134E+08         0.45939E+06         0.00000E+00
    0.45939E+06        -0.59065E+08         0.00000E+00
    0.00000E+00         0.00000E+00        -0.27554E+08
 
   -0.28359E+08         0.41642E+06         0.00000E+00
    0.41642E+06        -0.59421E+08         0.00000E+00
    0.00000E+00         0.00000E+00        -0.27705E+08
 
   -0.28589E+08         0.36776E+06         0.00000E+00
    0.36776E+06        -0.59777E+08         0.00000E+00
    0.00000E+00         0.00000E+00        -0.27850E+08
 
   -0.28825E+08         0.31367E+06         0.00000E+00
    0.31367E+06        -0.60130E+08         0.00000E+00
    0.00000E+00         0.00000E+00        -0.27988E+08
 
   -0.29069E+08         0.25521E+06         0.00000E+00
    0.25521E+06        -0.60479E+08         0.00000E+00
    0.00000E+00         0.00000E+00        -0.28115E+08
 
   -0.29320E+08         0.19481E+06         0.00000E+00
    0.19481E+06        -0.60822E+08         0.00000E+00
    0.00000E+00         0.00000E+00        -0.28229E+08
 
   -0.29582E+08         0.13668E+06         0.00000E+00
    0.13668E+06        -0.61156E+08         0.00000E+00
    0.00000E+00         0.00000E+00        -0.28327E+08
 
   -0.29856E+08         0.86195E+05         0.00000E+00
    0.86195E+05        -0.61480E+08         0.00000E+00
    0.00000E+00         0.00000E+00        -0.28403E+08
 
   -0.30143E+08         0.47819E+05         0.00000E+00
    0.47819E+05        -0.61789E+08         0.00000E+00
    0.00000E+00         0.00000E+00        -0.28455E+08
 
   -0.30445E+08         0.22554E+05         0.00000E+00
    0.22554E+05        -0.62081E+08         0.00000E+00
    0.00000E+00         0.00000E+00        -0.28477E+08
 
   -0.30766E+08         0.65167E+04         0.00000E+00
    0.65167E+04        -0.62350E+08         0.00000E+00
    0.00000E+00         0.00000E+00        -0.28463E+08
 
   -0.11513E+08        -0.64044E+04         0.00000E+00
   -0.64044E+04        -0.27799E+08         0.00000E+00
    0.00000E+00         0.00000E+00        -0.15017E+08
 
   -0.11851E+08        -0.41936E+04         0.00000E+00
   -0.41936E+04        -0.28104E+08         0.00000E+00
    0.00000E+00         0.00000E+00        -0.14866E+08
 
   -0.12157E+08         0.34519E+05         0.00000E+00
    0.34519E+05        -0.28376E+08         0.00000E+00
    0.00000E+00         0.00000E+00        -0.14775E+08
 
   -0.12439E+08         0.10351E+06         0.00000E+00
    0.10351E+06        -0.28678E+08         0.00000E+00
    0.00000E+00         0.00000E+00        -0.14736E+08
 
   -0.12728E+08         0.18344E+06         0.00000E+00
    0.18344E+06        -0.29031E+08         0.00000E+00
    0.00000E+00         0.00000E+00        -0.14738E+08
 
   -0.13024E+08         0.26697E+06         0.00000E+00
    0.26697E+06        -0.29420E+08         0.00000E+00
    0.00000E+00         0.00000E+00        -0.14773E+08
 
   -0.13306E+08         0.34335E+06         0.00000E+00
    0.34335E+06        -0.29823E+08         0.00000E+00
    0.00000E+00         0.00000E+00        -0.14835E+08
 
   -0.13567E+08         0.40356E+06         0.00000E+00
    0.40356E+06        -0.30216E+08         0.00000E+00
    0.00000E+00         0.00000E+00        -0.14919E+08
 
   -0.13814E+08         0.45233E+06         0.00000E+00
    0.45233E+06        -0.30589E+08         0.00000E+00
    0.00000E+00         0.00000E+00        -0.15021E+08
 
   -0.14048E+08         0.49760E+06         0.00000E+00
    0.49760E+06        -0.30948E+08         0.00000E+00
    0.00000E+00         0.00000E+00        -0.15136E+08
 
   -0.14272E+08         0.54282E+06         0.00000E+00
    0.54282E+06        -0.31302E+08         0.00000E+00
    0.00000E+00         0.00000E+00        -0.15260E+08
 
   -0.14484E+08         0.58729E+06         0.00000E+00
    0.58729E+06        -0.31658E+08         0.00000E+00
    0.00000E+00         0.00000E+00        -0.15392E+08
 
   -0.14689E+08         0.62931E+06         0.00000E+00
    0.62931E+06        -0.32019E+08         0.00000E+00
    0.00000E+00         0.00000E+00        -0.15527E+08
 
   -0.14887E+08         0.66778E+06         0.00000E+00
    0.66778E+06        -0.32384E+08         0.00000E+00
    0.00000E+00         0.00000E+00        -0.15664E+08
 
   -0.15079E+08         0.70227E+06         0.00000E+00
    0.70227E+06        -0.32751E+08         0.00000E+00
    0.00000E+00         0.00000E+00        -0.15802E+08
 
   -0.15268E+08         0.73282E+06         0.00000E+00
    0.73282E+06        -0.33120E+08         0.00000E+00
    0.00000E+00         0.00000E+00        -0.15939E+08
 
   -0.15453E+08         0.75965E+06         0.00000E+00
    0.75965E+06        -0.33489E+08         0.00000E+00
    0.00000E+00         0.00000E+00        -0.16074E+08
 
   -0.15634E+08         0.78298E+06         0.00000E+00
    0.78298E+06        -0.33857E+08         0.00000E+00
    0.00000E+00         0.00000E+00        -0.16207E+08
 
   -0.15812E+08         0.80293E+06         0.00000E+00
    0.80293E+06        -0.34225E+08         0.00000E+00
    0.00000E+00         0.00000E+00        -0.16338E+08
 
   -0.15988E+08         0.81955E+06         0.00000E+00
    0.81955E+06        -0.34592E+08         0.00000E+00
    0.00000E+00         0.00000E+00        -0.16465E+08
 
   -0.16161E+08         0.83279E+06         0.00000E+00
    0.83279E+06        -0.34959E+08         0.00000E+00
    0.00000E+00         0.00000E+00        -0.16589E+08
 
   -0.16331E+08         0.84263E+06         0.00000E+00
    0.84263E+06        -0.35328E+08         0.00000E+00
    0.00000E+00         0.00000E+00        -0.16710E+08
 
   -0.16498E+08         0.84936E+06         0.00000E+00
    0.84936E+06        -0.35701E+08         0.00000E+00
    0.00000E+00         0.00000E+00        -0.16827E+08
 
   -0.16662E+08         0.85375E+06         0.00000E+00
    0.85375E+06        -0.36079E+08         0.00000E+00
    0.00000E+00         0.00000E+00        -0.16941E+08
 
   -0.16822E+08         0.85637E+06         0.00000E+00
    0.85637E+06        -0.36450E+08         0.00000E+00
    0.00000E+00         0.00000E+00        -0.17067E+08
 
   -0.16978E+08         0.85058E+06         0.00000E+00
    0.85058E+06        -0.36799E+08         0.00000E+00
    0.00000E+00         0.00000E+00        -0.17219E+08
 
   -0.17132E+08         0.84624E+06         0.00000E+00
    0.84624E+06        -0.37146E+08         0.00000E+00
    0.00000E+00         0.00000E+00        -0.17373E+08
 
   -0.17285E+08         0.84388E+06         0.00000E+00
    0.84388E+06        -0.37495E+08         0.00000E+00
    0.00000E+00         0.00000E+00        -0.17524E+08
 
   -0.17438E+08         0.84319E+06         0.00000E+00
    0.84319E+06        -0.37847E+08         0.00000E+00
    0.00000E+00         0.00000E+00        -0.17674E+08
 
   -0.17591E+08         0.84379E+06         0.00000E+00
    0.84379E+06        -0.38200E+08         0.00000E+00
    0.00000E+00         0.00000E+00        -0.17821E+08
 
   -0.17743E+08         0.84517E+06         0.00000E+00
    0.84517E+06        -0.38553E+08         0.00000E+00
    0.00000E+00         0.00000E+00        -0.17966E+08
 
   -0.17896E+08         0.84686E+06         0.00000E+00
    0.84686E+06        -0.38908E+08         0.00000E+00
    0.00000E+00         0.00000E+00        -0.18109E+08
 
   -0.18049E+08         0.84845E+06         0.00000E+00
    0.84845E+06        -0.39263E+08         0.00000E+00
    0.00000E+00         0.00000E+00        -0.18249E+08
 
   -0.18203E+08         0.84956E+06         0.00000E+00
    0.84956E+06        -0.39619E+08         0.00000E+00
    0.00000E+00         0.00000E+00        -0.18388E+08
 
   -0.18356E+08         0.84986E+06         0.00000E+00
    0.84986E+06        -0.39975E+08         0.00000E+00
    0.00000E+00         0.00000E+00        -0.18524E+08
 
   -0.18510E+08         0.84909E+06         0.00000E+00
    0.84909E+06        -0.40333E+08         0.00000E+00
    0.00000E+00         0.00000E+00        -0.18659E+08
 
   -0.18665E+08         0.84724E+06         0.00000E+00
    0.84724E+06        -0.40693E+08         0.00000E+00
    0.00000E+00         0.00000E+00        -0.18792E+08
 
   -0.18819E+08         0.84480E+06         0.00000E+00
    0.84480E+06        -0.41056E+08         0.00000E+00
    0.00000E+00         0.00000E+00        -0.18923E+08
 
   -0.18973E+08         0.84252E+06         0.00000E+00
    0.84252E+06        -0.41418E+08         0.00000E+00
    0.00000E+00         0.00000E+00        -0.19058E+08
 
   -0.19126E+08         0.83334E+06         0.00000E+00
    0.83334E+06        -0.41767E+08         0.00000E+00
    0.00000E+00         0.00000E+00        -0.19210E+08
 
   -0.19279E+08         0.82548E+06         0.00000E+00
    0.82548E+06        -0.42112E+08         0.00000E+00
    0.00000E+00         0.00000E+00        -0.19368E+08
 
   -0.19433E+08         0.81893E+06         0.00000E+00
    0.81893E+06        -0.42459E+08         0.00000E+00
    0.00000E+00         0.00000E+00        -0.19524E+08
 
   -0.19589E+08         0.81343E+06         0.00000E+00
    0.81343E+06        -0.42808E+08         0.00000E+00
    0.00000E+00         0.00000E+00        -0.19679E+08
 
   -0.19746E+08         0.80857E+06         0.00000E+00
    0.80857E+06        -0.43158E+08         0.00000E+00
    0.00000E+00         0.00000E+00        -0.19834E+08
 
   -0.19905E+08         0.80387E+06         0.00000E+00
    0.80387E+06        -0.43509E+08         0.00000E+00
    0.00000E+00         0.00000E+00        -0.19987E+08
 
   -0.20065E+08         0.79902E+06         0.00000E+00
    0.79902E+06        -0.43861E+08         0.00000E+00
    0.00000E+00         0.00000E+00        -0.20140E+08
 
   -0.20226E+08         0.79400E+06         0.00000E+00
    0.79400E+06        -0.44216E+08         0.00000E+00
    0.00000E+00         0.00000E+00        -0.20292E+08
 
   -0.20389E+08         0.78889E+06         0.00000E+00
    0.78889E+06        -0.44572E+08         0.00000E+00
    0.00000E+00         0.00000E+00        -0.20443E+08
 
   -0.20551E+08         0.78202E+06         0.00000E+00
    0.78202E+06        -0.44921E+08         0.00000E+00
    0.00000E+00         0.00000E+00        -0.20603E+08
 
   -0.20715E+08         0.77451E+06         0.00000E+00
    0.77451E+06        -0.45265E+08         0.00000E+00
    0.00000E+00         0.00000E+00        -0.20772E+08
 
   -0.20879E+08         0.76805E+06         0.00000E+00
    0.76805E+06        -0.45610E+08         0.00000E+00
    0.00000E+00         0.00000E+00        -0.20939E+08
 
   -0.21045E+08         0.76238E+06         0.00000E+00
    0.76238E+06        -0.45956E+08         0.00000E+00
    0.00000E+00         0.00000E+00        -0.21106E+08
 
   -0.21213E+08         0.75723E+06         0.00000E+00
    0.75723E+06        -0.46304E+08         0.00000E+00
    0.00000E+00         0.00000E+00        -0.21273E+08
 
   -0.21382E+08         0.75232E+06         0.00000E+00
    0.75232E+06        -0.46652E+08         0.00000E+00
    0.00000E+00         0.00000E+00        -0.21440E+08
 
   -0.21552E+08         0.74744E+06         0.00000E+00
    0.74744E+06        -0.47001E+08         0.00000E+00
    0.00000E+00         0.00000E+00        -0.21605E+08
 
   -0.21723E+08         0.74253E+06         0.00000E+00
    0.74253E+06        -0.47351E+08         0.00000E+00
    0.00000E+00         0.00000E+00        -0.21771E+08
 
   -0.21894E+08         0.73762E+06         0.00000E+00
    0.73762E+06        -0.47700E+08         0.00000E+00
    0.00000E+00         0.00000E+00        -0.21938E+08
 
   -0.22067E+08         0.73205E+06         0.00000E+00
    0.73205E+06        -0.48044E+08         0.00000E+00
    0.00000E+00         0.00000E+00        -0.22111E+08
 
   -0.22240E+08         0.72694E+06         0.00000E+00
    0.72694E+06        -0.48388E+08         0.00000E+00
    0.00000E+00         0.00000E+00        -0.22285E+08
 
   -0.22413E+08         0.72235E+06         0.00000E+00
    0.72235E+06        -0.48733E+08         0.00000E+00
    0.00000E+00         0.00000E+00        -0.22459E+08
 
   -0.22588E+08         0.71819E+06         0.00000E+00
    0.71819E+06        -0.49078E+08         0.00000E+00
    0.00000E+00         0.00000E+00        -0.22633E+08
 
   -0.22764E+08         0.71436E+06         0.00000E+00
    0.71436E+06        -0.49423E+08         0.00000E+00
    0.00000E+00         0.00000E+00        -0.22806E+08
 
   -0.22940E+08         0.71076E+06         0.00000E+00
    0.71076E+06        -0.49768E+08         0.00000E+00
    0.00000E+00         0.00000E+00        -0.22979E+08
 
   -0.23117E+08         0.70730E+06         0.00000E+00
    0.70730E+06        -0.50113E+08         0.00000E+00
    0.00000E+00         0.00000E+00        -0.23151E+08
 
   -0.23295E+08         0.70392E+06         0.00000E+00
    0.70392E+06        -0.50458E+08         0.00000E+00
    0.00000E+00         0.00000E+00        -0.23323E+08
 
   -0.23473E+08         0.70056E+06         0.00000E+00
    0.70056E+06        -0.50802E+08         0.00000E+00
    0.00000E+00         0.00000E+00        -0.23495E+08
 
   -0.23653E+08         0.69713E+06         0.00000E+00
    0.69713E+06        -0.51146E+08         0.00000E+00
    0.00000E+00         0.00000E+00        -0.23668E+08
 
   -0.23836E+08         0.69350E+06         0.00000E+00
    0.69350E+06        -0.51486E+08         0.00000E+00
    0.00000E+00         0.00000E+00        -0.23844E+08
 
   -0.24020E+08         0.68979E+06         0.00000E+00
    0.68979E+06        -0.51826E+08         0.00000E+00
    0.00000E+00         0.00000E+00        -0.24019E+08
 
   -0.24204E+08         0.68598E+06         0.00000E+00
    0.68598E+06        -0.52166E+08         0.00000E+00
    0.00000E+00         0.00000E+00        -0.24194E+08
 
   -0.24389E+08         0.68205E+06         0.00000E+00
    0.68205E+06        -0.52506E+08         0.00000E+00
    0.00000E+00         0.00000E+00        -0.24369E+08
 
   -0.24575E+08         0.67796E+06         0.00000E+00
    0.67796E+06        -0.52846E+08         0.00000E+00
    0.00000E+00         0.00000E+00        -0.24543E+08
 
   -0.24760E+08         0.67368E+06         0.00000E+00
    0.67368E+06        -0.53186E+08         0.00000E+00
    0.00000E+00         0.00000E+00        -0.24716E+08
 
   -0.24947E+08         0.66916E+06         0.00000E+00
    0.66916E+06        -0.53526E+08         0.00000E+00
    0.00000E+00         0.00000E+00        -0.24889E+08
 
   -0.25134E+08         0.66437E+06         0.00000E+00
    0.66437E+06        -0.53866E+08         0.00000E+00
    0.00000E+00         0.00000E+00        -0.25062E+08
 
   -0.25322E+08         0.65923E+06         0.00000E+00
    0.65923E+06        -0.54207E+08         0.00000E+00
    0.00000E+00         0.00000E+00        -0.25234E+08
 
   -0.25510E+08         0.65365E+06         0.00000E+00
    0.65365E+06        -0.54547E+08         0.00000E+00
    0.00000E+00         0.00000E+00        -0.25405E+08
 
   -0.25700E+08         0.64754E+06         0.00000E+00
    0.64754E+06        -0.54888E+08         0.00000E+00
    0.00000E+00         0.00000E+00        -0.25576E+08
 
   -0.25891E+08         0.64074E+06         0.00000E+00
    0.64074E+06        -0.55230E+08         0.00000E+00
    0.00000E+00         0.00000E+00        -0.25745E+08
 
   -0.26084E+08         0.63309E+06         0.00000E+00
    0.63309E+06        -0.55571E+08         0.00000E+00
    0.00000E+00         0.00000E+00        -0.25914E+08
 
   -0.26277E+08         0.62436E+06         0.00000E+00
    0.62436E+06        -0.55914E+08         0.00000E+00
    0.00000E+00         0.00000E+00        -0.26082E+08
 
   -0.26473E+08         0.61430E+06         0.00000E+00
    0.61430E+06        -0.56258E+08         0.00000E+00
    0.00000E+00         0.00000E+00        -0.26250E+08
 
   -0.26671E+08         0.60257E+06         0.00000E+00
    0.60257E+06        -0.56602E+08         0.00000E+00
    0.00000E+00         0.00000E+00        -0.26416E+08
 
   -0.26871E+08         0.58879E+06         0.00000E+00
    0.58879E+06        -0.56948E+08         0.00000E+00
    0.00000E+00         0.00000E+00        -0.26581E+08
 
   -0.27074E+08         0.57254E+06         0.00000E+00
    0.57254E+06        -0.57296E+08         0.00000E+00
    0.00000E+00         0.00000E+00        -0.26745E+08
 
   -0.27280E+08         0.55330E+06         0.00000E+00
    0.55330E+06        -0.57645E+08         0.00000E+00
    0.00000E+00         0.00000E+00        -0.26907E+08
 
   -0.27490E+08         0.53057E+06         0.00000E+00
    0.53057E+06        -0.57996E+08         0.00000E+00
    0.00000E+00         0.00000E+00        -0.27068E+08
 
   -0.27703E+08         0.50379E+06         0.00000E+00
    0.50379E+06        -0.58348E+08         0.00000E+00
    0.00000E+00         0.00000E+00        -0.27227E+08
 
   -0.27920E+08         0.47242E+06         0.00000E+00
    0.47242E+06        -0.58702E+08         0.00000E+00
    0.00000E+00         0.00000E+00        -0.27384E+08
 
   -0.28141E+08         0.43599E+06         0.00000E+00
    0.43599E+06        -0.59057E+08         0.00000E+00
    0.00000E+00         0.00000E+00        -0.27537E+08
 
   -0.28368E+08         0.39415E+06         0.00000E+00
    0.39415E+06        -0.59412E+08         0.00000E+00
    0.00000E+00         0.00000E+00        -0.27686E+08
 
   -0.28600E+08         0.34677E+06         0.00000E+00
    0.34677E+06        -0.59767E+08         0.00000E+00
    0.00000E+00         0.00000E+00        -0.27829E+08
 
   -0.28838E+08         0.29419E+06         0.00000E+00
    0.29419E+06        -0.60119E+08         0.00000E+00
    0.00000E+00         0.00000E+00        -0.27964E+08
 
   -0.29085E+08         0.23751E+06         0.00000E+00
    0.23751E+06        -0.60467E+08         0.00000E+00
    0.00000E+00         0.00000E+00        -0.28088E+08
 
   -0.29340E+08         0.17914E+06         0.00000E+00
    0.17914E+06        -0.60811E+08         0.00000E+00
    0.00000E+00         0.00000E+00        -0.28199E+08
 
   -0.29605E+08         0.12321E+06         0.00000E+00
    0.12321E+06        -0.61146E+08         0.00000E+00
    0.00000E+00         0.00000E+00        -0.28295E+08
 
   -0.29882E+08         0.75096E+05         0.00000E+00
    0.75096E+05        -0.61472E+08         0.00000E+00
    0.00000E+00         0.00000E+00        -0.28371E+08
 
   -0.30172E+08         0.39374E+05         0.00000E+00
    0.39374E+05        -0.61785E+08         0.00000E+00
    0.00000E+00         0.00000E+00        -0.28424E+08
 
   -0.30476E+08         0.17195E+05         0.00000E+00
    0.17195E+05        -0.62078E+08         0.00000E+00
    0.00000E+00         0.00000E+00        -0.28448E+08
 
   -0.30797E+08         0.46696E+04         0.00000E+00
    0.46696E+04        -0.62349E+08         0.00000E+00
    0.00000E+00         0.00000E+00        -0.28436E+08
 
   -0.11458E+08        -0.81565E+04         0.00000E+00
   -0.81565E+04        -0.27796E+08         0.00000E+00
    0.00000E+00         0.00000E+00        -0.15047E+08
 
   -0.11800E+08        -0.10589E+05         0.00000E+00
   -0.10589E+05        -0.28107E+08         0.00000E+00
    0.00000E+00         0.00000E+00        -0.14901E+08
 
   -0.12117E+08         0.22060E+05         0.00000E+00
    0.22060E+05        -0.28387E+08         0.00000E+00
    0.00000E+00         0.00000E+00        -0.14815E+08
 
   -0.12413E+08         0.88396E+05         0.00000E+00
    0.88396E+05        -0.28694E+08         0.00000E+00
    0.00000E+00         0.00000E+00        -0.14779E+08
 
   -0.12707E+08         0.16998E+06         0.00000E+00
    0.16998E+06        -0.29048E+08         0.00000E+00
    0.00000E+00         0.00000E+00        -0.14781E+08
 
   -0.13001E+08         0.25260E+06         0.00000E+00
    0.25260E+06        -0.29437E+08         0.00000E+00
    0.00000E+00         0.00000E+00        -0.14813E+08
 
   -0.13282E+08         0.32518E+06         0.00000E+00
    0.32518E+06        -0.29836E+08         0.00000E+00
    0.00000E+00         0.00000E+00        -0.14871E+08
 
   -0.13546E+08         0.38217E+06         0.00000E+00
    0.38217E+06        -0.30226E+08         0.00000E+00
    0.00000E+00         0.00000E+00        -0.14949E+08
 
   -0.13794E+08         0.42845E+06         0.00000E+00
    0.42845E+06        -0.30598E+08         0.00000E+00
    0.00000E+00         0.00000E+00        -0.15045E+08
 
   -0.14031E+08         0.47142E+06         0.00000E+00
    0.47142E+06        -0.30957E+08         0.00000E+00
    0.00000E+00         0.00000E+00        -0.15155E+08
 
   -0.14255E+08         0.51439E+06         0.00000E+00
    0.51439E+06        -0.31310E+08         0.00000E+00
    0.00000E+00         0.00000E+00        -0.15274E+08
 
   -0.14470E+08         0.55692E+06         0.00000E+00
    0.55692E+06        -0.31666E+08         0.00000E+00
    0.00000E+00         0.00000E+00        -0.15401E+08
 
   -0.14675E+08         0.59744E+06         0.00000E+00
    0.59744E+06        -0.32027E+08         0.00000E+00
    0.00000E+00         0.00000E+00        -0.15532E+08
 
   -0.14873E+08         0.63474E+06         0.00000E+00
    0.63474E+06        -0.32391E+08         0.00000E+00
    0.00000E+00         0.00000E+00        -0.15666E+08
 
   -0.15066E+08         0.66833E+06         0.00000E+00
    0.66833E+06        -0.32758E+08         0.00000E+00
    0.00000E+00         0.00000E+00        -0.15801E+08
 
   -0.15254E+08         0.69814E+06         0.00000E+00
    0.69814E+06        -0.33126E+08         0.00000E+00
    0.00000E+00         0.00000E+00        -0.15936E+08
 
   -0.15438E+08         0.72431E+06         0.00000E+00
    0.72431E+06        -0.33494E+08         0.00000E+00
    0.00000E+00         0.00000E+00        -0.16069E+08
 
   -0.15619E+08         0.74702E+06         0.00000E+00
    0.74702E+06        -0.33862E+08         0.00000E+00
    0.00000E+00         0.00000E+00        -0.16201E+08
 
   -0.15797E+08         0.76643E+06         0.00000E+00
    0.76643E+06        -0.34229E+08         0.00000E+00
    0.00000E+00         0.00000E+00        -0.16330E+08
 
   -0.15972E+08         0.78257E+06         0.00000E+00
    0.78257E+06        -0.34595E+08         0.00000E+00
    0.00000E+00         0.00000E+00        -0.16456E+08
 
   -0.16144E+08         0.79537E+06         0.00000E+00
    0.79537E+06        -0.34962E+08         0.00000E+00
    0.00000E+00         0.00000E+00        -0.16579E+08
 
   -0.16314E+08         0.80476E+06         0.00000E+00
    0.80476E+06        -0.35330E+08         0.00000E+00
    0.00000E+00         0.00000E+00        -0.16699E+08
 
   -0.16482E+08         0.81096E+06         0.00000E+00
    0.81096E+06        -0.35702E+08         0.00000E+00
    0.00000E+00         0.00000E+00        -0.16816E+08
 
   -0.16646E+08         0.81463E+06         0.00000E+00
    0.81463E+06        -0.36080E+08         0.00000E+00
    0.00000E+00         0.00000E+00        -0.16930E+08
 
   -0.16805E+08         0.81630E+06         0.00000E+00
    0.81630E+06        -0.36450E+08         0.00000E+00
    0.00000E+00         0.00000E+00        -0.17058E+08
 
   -0.16961E+08         0.81016E+06         0.00000E+00
    0.81016E+06        -0.36798E+08         0.00000E+00
    0.00000E+00         0.00000E+00        -0.17210E+08
 
   -0.17116E+08         0.80565E+06         0.00000E+00
    0.80565E+06        -0.37145E+08         0.00000E+00
    0.00000E+00         0.00000E+00        -0.17364E+08
 
   -0.17270E+08         0.80323E+06         0.00000E+00
    0.80323E+06        -0.37495E+08         0.00000E+00
    0.00000E+00         0.00000E+00        -0.17516E+08
 
   -0.17423E+08         0.80257E+06         0.00000E+00
    0.80257E+06        -0.37847E+08         0.00000E+00
    0.00000E+00         0.00000E+00        -0.17665E+08
 
   -0.17576E+08         0.80323E+06         0.00000E+00
    0.80323E+06        -0.38200E+08         0.00000E+00
    0.00000E+00         0.00000E+00        -0.17813E+08
 
   -0.17729E+08         0.80468E+06         0.00000E+00
    0.80468E+06        -0.38554E+08         0.00000E+00
    0.00000E+00         0.00000E+00        -0.17958E+08
 
   -0.17883E+08         0.80647E+06         0.00000E+00
    0.80647E+06        -0.38908E+08         0.00000E+00
    0.00000E+00         0.00000E+00        -0.18101E+08
 
   -0.18036E+08         0.80818E+06         0.00000E+00
    0.80818E+06        -0.39263E+08         0.00000E+00
    0.00000E+00         0.00000E+00        -0.18242E+08
 
   -0.18190E+08         0.80944E+06         0.00000E+00
    0.80944E+06        -0.39619E+08         0.00000E+00
    0.00000E+00         0.00000E+00        -0.18381E+08
 
   -0.18344E+08         0.80989E+06         0.00000E+00
    0.80989E+06        -0.39975E+08         0.00000E+00
    0.00000E+00         0.00000E+00        -0.18517E+08
 
   -0.18499E+08         0.80927E+06         0.00000E+00
    0.80927E+06        -0.40333E+08         0.00000E+00
    0.00000E+00         0.00000E+00        -0.18652E+08
 
   -0.18654E+08         0.80754E+06         0.00000E+00
    0.80754E+06        -0.40692E+08         0.00000E+00
    0.00000E+00         0.00000E+00        -0.18785E+08
 
   -0.18809E+08         0.80512E+06         0.00000E+00
    0.80512E+06        -0.41055E+08         0.00000E+00
    0.00000E+00         0.00000E+00        -0.18916E+08
 
   -0.18963E+08         0.80263E+06         0.00000E+00
    0.80263E+06        -0.41417E+08         0.00000E+00
    0.00000E+00         0.00000E+00        -0.19053E+08
 
   -0.19116E+08         0.79343E+06         0.00000E+00
    0.79343E+06        -0.41765E+08         0.00000E+00
    0.00000E+00         0.00000E+00        -0.19206E+08
 
   -0.19269E+08         0.78585E+06         0.00000E+00
    0.78585E+06        -0.42110E+08         0.00000E+00
    0.00000E+00         0.00000E+00        -0.19364E+08
 
   -0.19424E+08         0.77969E+06         0.00000E+00
    0.77969E+06        -0.42458E+08         0.00000E+00
    0.00000E+00         0.00000E+00        -0.19520E+08
 
   -0.19580E+08         0.77456E+06         0.00000E+00
    0.77456E+06        -0.42807E+08         0.00000E+00
    0.00000E+00         0.00000E+00        -0.19676E+08
 
   -0.19738E+08         0.77006E+06         0.00000E+00
    0.77006E+06        -0.43157E+08         0.00000E+00
    0.00000E+00         0.00000E+00        -0.19830E+08
 
   -0.19898E+08         0.76571E+06         0.00000E+00
    0.76571E+06        -0.43508E+08         0.00000E+00
    0.00000E+00         0.00000E+00        -0.19984E+08
 
   -0.20058E+08         0.76117E+06         0.00000E+00
    0.76117E+06        -0.43860E+08         0.00000E+00
    0.00000E+00         0.00000E+00        -0.20136E+08
 
   -0.20220E+08         0.75642E+06         0.00000E+00
    0.75642E+06        -0.44215E+08         0.00000E+00
    0.00000E+00         0.00000E+00        -0.20288E+08
 
   -0.20382E+08         0.75158E+06         0.00000E+00
    0.75158E+06        -0.44571E+08         0.00000E+00
    0.00000E+00         0.00000E+00        -0.20439E+08
 
   -0.20545E+08         0.74474E+06         0.00000E+00
    0.74474E+06        -0.44920E+08         0.00000E+00
    0.00000E+00         0.00000E+00        -0.20601E+08
 
   -0.20709E+08         0.73756E+06         0.00000E+00
    0.73756E+06        -0.45264E+08         0.00000E+00
    0.00000E+00         0.00000E+00        -0.20769E+08
 
   -0.20874E+08         0.73144E+06         0.00000E+00
    0.73144E+06        -0.45609E+08         0.00000E+00
    0.00000E+00         0.00000E+00        -0.20937E+08
 
   -0.21040E+08         0.72611E+06         0.00000E+00
    0.72611E+06        -0.45955E+08         0.00000E+00
    0.00000E+00         0.00000E+00        -0.21104E+08
 
   -0.21208E+08         0.72131E+06         0.00000E+00
    0.72131E+06        -0.46303E+08         0.00000E+00
    0.00000E+00         0.00000E+00        -0.21271E+08
 
   -0.21377E+08         0.71671E+06         0.00000E+00
    0.71671E+06        -0.46651E+08         0.00000E+00
    0.00000E+00         0.00000E+00        -0.21437E+08
 
   -0.21548E+08         0.71211E+06         0.00000E+00
    0.71211E+06        -0.47000E+08         0.00000E+00
    0.00000E+00         0.00000E+00        -0.21603E+08
 
   -0.21719E+08         0.70742E+06         0.00000E+00
    0.70742E+06        -0.47350E+08         0.00000E+00
    0.00000E+00         0.00000E+00        -0.21769E+08
 
   -0.21891E+08         0.70269E+06         0.00000E+00
    0.70269E+06        -0.47699E+08         0.00000E+00
    0.00000E+00         0.00000E+00        -0.21936E+08
 
   -0.22063E+08         0.69732E+06         0.00000E+00
    0.69732E+06        -0.48043E+08         0.00000E+00
    0.00000E+00         0.00000E+00        -0.22109E+08
 
   -0.22237E+08         0.69242E+06         0.00000E+00
    0.69242E+06        -0.48387E+08         0.00000E+00
    0.00000E+00         0.00000E+00        -0.22283E+08
 
   -0.22411E+08         0.68804E+06         0.00000E+00
    0.68804E+06        -0.48732E+08         0.00000E+00
    0.00000E+00         0.00000E+00        -0.22457E+08
 
   -0.22586E+08         0.68410E+06         0.00000E+00
    0.68410E+06        -0.49077E+08         0.00000E+00
    0.00000E+00         0.00000E+00        -0.22630E+08
 
   -0.22761E+08         0.68048E+06         0.00000E+00
    0.68048E+06        -0.49422E+08         0.00000E+00
    0.00000E+00         0.00000E+00        -0.22803E+08
 
   -0.22938E+08         0.67707E+06         0.00000E+00
    0.67707E+06        -0.49767E+08         0.00000E+00
    0.00000E+00         0.00000E+00        -0.22976E+08
 
   -0.23115E+08         0.67380E+06         0.00000E+00
    0.67380E+06        -0.50112E+08         0.00000E+00
    0.00000E+00         0.00000E+00        -0.23148E+08
 
   -0.23293E+08         0.67059E+06         0.00000E+00
    0.67059E+06        -0.50457E+08         0.00000E+00
    0.00000E+00         0.00000E+00        -0.23321E+08
 
   -0.23472E+08         0.66739E+06         0.00000E+00
    0.66739E+06        -0.50802E+08         0.00000E+00
    0.00000E+00         0.00000E+00        -0.23493E+08
 
   -0.23652E+08         0.66411E+06         0.00000E+00
    0.66411E+06        -0.51145E+08         0.00000E+00
    0.00000E+00         0.00000E+00        -0.23665E+08
 
   -0.23835E+08         0.66065E+06         0.00000E+00
    0.66065E+06        -0.51485E+08         0.00000E+00
    0.00000E+00         0.00000E+00        -0.23841E+08
 
   -0.24019E+08         0.65710E+06         0.00000E+00
    0.65710E+06        -0.51825E+08         0.00000E+00
    0.00000E+00         0.00000E+00        -0.24016E+08
 
   -0.24204E+08         0.65345E+06         0.00000E+00
    0.65345E+06        -0.52165E+08         0.00000E+00
    0.00000E+00         0.00000E+00        -0.24191E+08
 
   -0.24389E+08         0.64969E+06         0.00000E+00
    0.64969E+06        -0.52505E+08         0.00000E+00
    0.00000E+00         0.00000E+00        -0.24365E+08
 
   -0.24575E+08         0.64577E+06         0.00000E+00
    0.64577E+06        -0.52845E+08         0.00000E+00
    0.00000E+00         0.00000E+00        -0.24539E+08
 
   -0.24761E+08         0.64168E+06         0.00000E+00
    0.64168E+06        -0.53185E+08         0.00000E+00
    0.00000E+00         0.00000E+00        -0.24712E+08
 
   -0.24948E+08         0.63736E+06         0.00000E+00
    0.63736E+06        -0.53525E+08         0.00000E+00
    0.00000E+00         0.00000E+00        -0.24885E+08
 
   -0.25135E+08         0.63278E+06         0.00000E+00
    0.63278E+06        -0.53865E+08         0.00000E+00
    0.00000E+00         0.00000E+00        -0.25057E+08
 
   -0.25323E+08         0.62787E+06         0.00000E+00
    0.62787E+06        -0.54206E+08         0.00000E+00
    0.00000E+00         0.00000E+00        -0.25229E+08
 
   -0.25512E+08         0.62256E+06         0.00000E+00
    0.62256E+06        -0.54546E+08         0.00000E+00
    0.00000E+00         0.00000E+00        -0.25400E+08
 
   -0.25702E+08         0.61673E+06         0.00000E+00
    0.61673E+06        -0.54887E+08         0.00000E+00
    0.00000E+00         0.00000E+00        -0.25570E+08
 
   -0.25893E+08         0.61025E+06         0.00000E+00
    0.61025E+06        -0.55228E+08         0.00000E+00
    0.00000E+00         0.00000E+00        -0.25739E+08
 
   -0.26086E+08         0.60297E+06         0.00000E+00
    0.60297E+06        -0.55570E+08         0.00000E+00
    0.00000E+00         0.00000E+00        -0.25908E+08
 
   -0.26280E+08         0.59465E+06         0.00000E+00
    0.59465E+06        -0.55913E+08         0.00000E+00
    0.00000E+00         0.00000E+00        -0.26076E+08
 
   -0.26476E+08         0.58505E+06         0.00000E+00
    0.58505E+06        -0.56256E+08         0.00000E+00
    0.00000E+00         0.00000E+00        -0.26242E+08
 
   -0.26674E+08         0.57384E+06         0.00000E+00
    0.57384E+06        -0.56600E+08         0.00000E+00
    0.00000E+00         0.00000E+00        -0.26408E+08
 
   -0.26875E+08         0.56064E+06         0.00000E+00
    0.56064E+06        -0.56946E+08         0.00000E+00
    0.00000E+00         0.00000E+00        -0.26572E+08
 
   -0.27078E+08         0.54503E+06         0.00000E+00
    0.54503E+06        -0.57292E+08         0.00000E+00
    0.00000E+00         0.00000E+00        -0.26735E+08
 
   -0.27285E+08         0.52651E+06         0.00000E+00
    0.52651E+06        -0.57641E+08         0.00000E+00
    0.00000E+00         0.00000E+00        -0.26897E+08
 
   -0.27495E+08         0.50456E+06         0.00000E+00
    0.50456E+06        -0.57991E+08         0.00000E+00
    0.00000E+00         0.00000E+00        -0.27056E+08
 
   -0.27708E+08         0.47864E+06         0.00000E+00
    0.47864E+06        -0.58343E+08         0.00000E+00
    0.00000E+00         0.00000E+00        -0.27214E+08
 
   -0.27926E+08         0.44822E+06         0.00000E+00
    0.44822E+06        -0.58696E+08         0.00000E+00
    0.00000E+00         0.00000E+00        -0.27369E+08
 
   -0.28149E+08         0.41285E+06         0.00000E+00
    0.41285E+06        -0.59050E+08         0.00000E+00
    0.00000E+00         0.00000E+00        -0.27520E+08
 
   -0.28377E+08         0.37220E+06         0.00000E+00
    0.37220E+06        -0.59404E+08         0.00000E+00
    0.00000E+00         0.00000E+00        -0.27667E+08
 
   -0.28611E+08         0.32621E+06         0.00000E+00
    0.32621E+06        -0.59757E+08         0.00000E+00
    0.00000E+00         0.00000E+00        -0.27807E+08
 
   -0.28852E+08         0.27526E+06         0.00000E+00
    0.27526E+06        -0.60108E+08         0.00000E+00
    0.00000E+00         0.00000E+00        -0.27939E+08
 
   -0.29101E+08         0.22048E+06         0.00000E+00
    0.22048E+06        -0.60456E+08         0.00000E+00
    0.00000E+00         0.00000E+00        -0.28061E+08
 
   -0.29360E+08         0.16423E+06         0.00000E+00
    0.16423E+06        -0.60800E+08         0.00000E+00
    0.00000E+00         0.00000E+00        -0.28169E+08
 
   -0.29629E+08         0.11051E+06         0.00000E+00
    0.11051E+06        -0.61137E+08         0.00000E+00
    0.00000E+00         0.00000E+00        -0.28263E+08
 
   -0.29909E+08         0.64629E+05         0.00000E+00
    0.64629E+05        -0.61465E+08         0.00000E+00
    0.00000E+00         0.00000E+00        -0.28339E+08
 
   -0.30201E+08         0.31334E+05         0.00000E+00
    0.31334E+05        -0.61780E+08         0.00000E+00
    0.00000E+00         0.00000E+00        -0.28394E+08
 
   -0.30507E+08         0.12027E+05         0.00000E+00
    0.12027E+05        -0.62077E+08         0.00000E+00
    0.00000E+00         0.00000E+00        -0.28419E+08
 
   -0.30828E+08         0.28732E+04         0.00000E+00
    0.28732E+04        -0.62349E+08         0.00000E+00
    0.00000E+00         0.00000E+00        -0.28408E+08
 
   -0.11403E+08        -0.95499E+04         0.00000E+00
   -0.95499E+04        -0.27793E+08         0.00000E+00
    0.00000E+00         0.00000E+00        -0.15076E+08
 
   -0.11749E+08        -0.15724E+05         0.00000E+00
   -0.15724E+05        -0.28109E+08         0.00000E+00
    0.00000E+00         0.00000E+00        -0.14936E+08
 
   -0.12075E+08         0.12036E+05         0.00000E+00
    0.12036E+05        -0.28397E+08         0.00000E+00
    0.00000E+00         0.00000E+00        -0.14855E+08
 
   -0.12383E+08         0.75459E+05         0.00000E+00
    0.75459E+05        -0.28709E+08         0.00000E+00
    0.00000E+00         0.00000E+00        -0.14821E+08
 
   -0.12684E+08         0.15687E+06         0.00000E+00
    0.15687E+06        -0.29065E+08         0.00000E+00
    0.00000E+00         0.00000E+00        -0.14823E+08
 
   -0.12979E+08         0.23801E+06         0.00000E+00
    0.23801E+06        -0.29452E+08         0.00000E+00
    0.00000E+00         0.00000E+00        -0.14853E+08
 
   -0.13260E+08         0.30725E+06         0.00000E+00
    0.30725E+06        -0.29849E+08         0.00000E+00
    0.00000E+00         0.00000E+00        -0.14906E+08
 
   -0.13525E+08         0.36119E+06         0.00000E+00
    0.36119E+06        -0.30236E+08         0.00000E+00
    0.00000E+00         0.00000E+00        -0.14979E+08
 
   -0.13776E+08         0.40497E+06         0.00000E+00
    0.40497E+06        -0.30607E+08         0.00000E+00
    0.00000E+00         0.00000E+00        -0.15070E+08
 
   -0.14014E+08         0.44555E+06         0.00000E+00
    0.44555E+06        -0.30965E+08         0.00000E+00
    0.00000E+00         0.00000E+00        -0.15174E+08
 
   -0.14240E+08         0.48622E+06         0.00000E+00
    0.48622E+06        -0.31319E+08         0.00000E+00
    0.00000E+00         0.00000E+00        -0.15288E+08
 
   -0.14455E+08         0.52675E+06         0.00000E+00
    0.52675E+06        -0.31675E+08         0.00000E+00
    0.00000E+00         0.00000E+00        -0.15410E+08
 
   -0.14661E+08         0.56566E+06         0.00000E+00
    0.56566E+06        -0.32034E+08         0.00000E+00
    0.00000E+00         0.00000E+00        -0.15538E+08
 
   -0.14859E+08         0.60175E+06         0.00000E+00
    0.60175E+06        -0.32398E+08         0.00000E+00
    0.00000E+00         0.00000E+00        -0.15668E+08
 
   -0.15052E+08         0.63438E+06         0.00000E+00
    0.63438E+06        -0.32764E+08         0.00000E+00
    0.00000E+00         0.00000E+00        -0.15800E+08
 
   -0.15240E+08         0.66339E+06         0.00000E+00
    0.66339E+06        -0.33131E+08         0.00000E+00
    0.00000E+00         0.00000E+00        -0.15932E+08
 
   -0.15424E+08         0.68887E+06         0.00000E+00
    0.68887E+06        -0.33499E+08         0.00000E+00
    0.00000E+00         0.00000E+00        -0.16064E+08
 
   -0.15605E+08         0.71098E+06         0.00000E+00
    0.71098E+06        -0.33866E+08         0.00000E+00
    0.00000E+00         0.00000E+00        -0.16194E+08
 
   -0.15782E+08         0.72984E+06         0.00000E+00
    0.72984E+06        -0.34232E+08         0.00000E+00
    0.00000E+00         0.00000E+00        -0.16322E+08
 
   -0.15957E+08         0.74551E+06         0.00000E+00
    0.74551E+06        -0.34598E+08         0.00000E+00
    0.00000E+00         0.00000E+00        -0.16447E+08
 
   -0.16129E+08         0.75789E+06         0.00000E+00
    0.75789E+06        -0.34964E+08         0.00000E+00
    0.00000E+00         0.00000E+00        -0.16570E+08
 
   -0.16298E+08         0.76686E+06         0.00000E+00
    0.76686E+06        -0.35331E+08         0.00000E+00
    0.00000E+00         0.00000E+00        -0.16689E+08
 
   -0.16466E+08         0.77256E+06         0.00000E+00
    0.77256E+06        -0.35702E+08         0.00000E+00
    0.00000E+00         0.00000E+00        -0.16806E+08
 
   -0.16630E+08         0.77551E+06         0.00000E+00
    0.77551E+06        -0.36080E+08         0.00000E+00
    0.00000E+00         0.00000E+00        -0.16920E+08
 
   -0.16789E+08         0.77624E+06         0.00000E+00
    0.77624E+06        -0.36449E+08         0.00000E+00
    0.00000E+00         0.00000E+00        -0.17048E+08
 
   -0.16945E+08         0.76979E+06         0.00000E+00
    0.76979E+06        -0.36796E+08         0.00000E+00
    0.00000E+00         0.00000E+00        -0.17202E+08
 
   -0.17100E+08         0.76512E+06         0.00000E+00
    0.76512E+06        -0.37144E+08         0.00000E+00
    0.00000E+00         0.00000E+00        -0.17356E+08
 
   -0.17254E+08         0.76267E+06         0.00000E+00
    0.76267E+06        -0.37495E+08         0.00000E+00
    0.00000E+00         0.00000E+00        -0.17508E+08
 
   -0.17408E+08         0.76205E+06         0.00000E+00
    0.76205E+06        -0.37847E+08         0.00000E+00
    0.00000E+00         0.00000E+00        -0.17657E+08
 
   -0.17562E+08         0.76276E+06         0.00000E+00
    0.76276E+06        -0.38200E+08         0.00000E+00
    0.00000E+00         0.00000E+00        -0.17805E+08
 
   -0.17715E+08         0.76430E+06         0.00000E+00
    0.76430E+06        -0.38554E+08         0.00000E+00
    0.00000E+00         0.00000E+00        -0.17950E+08
 
   -0.17869E+08         0.76618E+06         0.00000E+00
    0.76618E+06        -0.38909E+08         0.00000E+00
    0.00000E+00         0.00000E+00        -0.18093E+08
 
   -0.18023E+08         0.76801E+06         0.00000E+00
    0.76801E+06        -0.39264E+08         0.00000E+00
    0.00000E+00         0.00000E+00        -0.18234E+08
 
   -0.18178E+08         0.76941E+06         0.00000E+00
    0.76941E+06        -0.39619E+08         0.00000E+00
    0.00000E+00         0.00000E+00        -0.18373E+08
 
   -0.18332E+08         0.77002E+06         0.00000E+00
    0.77002E+06        -0.39975E+08         0.00000E+00
    0.00000E+00         0.00000E+00        -0.18510E+08
 
   -0.18487E+08         0.76954E+06         0.00000E+00
    0.76954E+06        -0.40332E+08         0.00000E+00
    0.00000E+00         0.00000E+00        -0.18645E+08
 
   -0.18643E+08         0.76794E+06         0.00000E+00
    0.76794E+06        -0.40692E+08         0.00000E+00
    0.00000E+00         0.00000E+00        -0.18779E+08
 
   -0.18798E+08         0.76552E+06         0.00000E+00
    0.76552E+06        -0.41055E+08         0.00000E+00
    0.00000E+00         0.00000E+00        -0.18910E+08
 
   -0.18953E+08         0.76280E+06         0.00000E+00
    0.76280E+06        -0.41416E+08         0.00000E+00
    0.00000E+00         0.00000E+00        -0.19048E+08
 
   -0.19106E+08         0.75362E+06         0.00000E+00
    0.75362E+06        -0.41763E+08         0.00000E+00
    0.00000E+00         0.00000E+00        -0.19202E+08
 
   -0.19260E+08         0.74632E+06         0.00000E+00
    0.74632E+06        -0.42109E+08         0.00000E+00
    0.00000E+00         0.00000E+00        -0.19360E+08
 
   -0.19415E+08         0.74054E+06         0.00000E+00
    0.74054E+06        -0.42457E+08         0.00000E+00
    0.00000E+00         0.00000E+00        -0.19516E+08
 
   -0.19572E+08         0.73579E+06         0.00000E+00
    0.73579E+06        -0.42806E+08         0.00000E+00
    0.00000E+00         0.00000E+00        -0.19672E+08
 
   -0.19731E+08         0.73166E+06         0.00000E+00
    0.73166E+06        -0.43156E+08         0.00000E+00
    0.00000E+00         0.00000E+00        -0.19827E+08
 
   -0.19890E+08         0.72765E+06         0.00000E+00
    0.72765E+06        -0.43507E+08         0.00000E+00
    0.00000E+00         0.00000E+00        -0.19980E+08
 
   -0.20051E+08         0.72341E+06         0.00000E+00
    0.72341E+06        -0.43859E+08         0.00000E+00
    0.00000E+00         0.00000E+00        -0.20133E+08
 
   -0.20213E+08         0.71889E+06         0.00000E+00
    0.71889E+06        -0.44214E+08         0.00000E+00
    0.00000E+00         0.00000E+00        -0.20285E+08
 
   -0.20376E+08         0.71435E+06         0.00000E+00
    0.71435E+06        -0.44570E+08         0.00000E+00
    0.00000E+00         0.00000E+00        -0.20436E+08
 
   -0.20540E+08         0.70752E+06         0.00000E+00
    0.70752E+06        -0.44918E+08         0.00000E+00
    0.00000E+00         0.00000E+00        -0.20599E+08
 
   -0.20704E+08         0.70069E+06         0.00000E+00
    0.70069E+06        -0.45262E+08         0.00000E+00
    0.00000E+00         0.00000E+00        -0.20767E+08
 
   -0.20869E+08         0.69489E+06         0.00000E+00
    0.69489E+06        -0.45608E+08         0.00000E+00
    0.00000E+00         0.00000E+00        -0.20935E+08
 
   -0.21036E+08         0.68991E+06         0.00000E+00
    0.68991E+06        -0.45954E+08         0.00000E+00
    0.00000E+00         0.00000E+00        -0.21102E+08
 
   -0.21204E+08         0.68545E+06         0.00000E+00
    0.68545E+06        -0.46302E+08         0.00000E+00
    0.00000E+00         0.00000E+00        -0.21269E+08
 
   -0.21373E+08         0.68117E+06         0.00000E+00
    0.68117E+06        -0.46650E+08         0.00000E+00
    0.00000E+00         0.00000E+00        -0.21435E+08
 
   -0.21544E+08         0.67684E+06         0.00000E+00
    0.67684E+06        -0.46999E+08         0.00000E+00
    0.00000E+00         0.00000E+00        -0.21601E+08
 
   -0.21715E+08         0.67237E+06         0.00000E+00
    0.67237E+06        -0.47349E+08         0.00000E+00
    0.00000E+00         0.00000E+00        -0.21767E+08
 
   -0.21887E+08         0.66781E+06         0.00000E+00
    0.66781E+06        -0.47698E+08         0.00000E+00
    0.00000E+00         0.00000E+00        -0.21934E+08
 
   -0.22060E+08         0.66263E+06         0.00000E+00
    0.66263E+06        -0.48042E+08         0.00000E+00
    0.00000E+00         0.00000E+00        -0.22107E+08
 
   -0.22234E+08         0.65794E+06         0.00000E+00
    0.65794E+06        -0.48386E+08         0.00000E+00
    0.00000E+00         0.00000E+00        -0.22281E+08
 
   -0.22408E+08         0.65378E+06         0.00000E+00
    0.65378E+06        -0.48731E+08         0.00000E+00
    0.00000E+00         0.00000E+00        -0.22455E+08
 
   -0.22583E+08         0.65006E+06         0.00000E+00
    0.65006E+06        -0.49076E+08         0.00000E+00
    0.00000E+00         0.00000E+00        -0.22628E+08
 
   -0.22759E+08         0.64665E+06         0.00000E+00
    0.64665E+06        -0.49421E+08         0.00000E+00
    0.00000E+00         0.00000E+00        -0.22801E+08
 
   -0.22936E+08         0.64344E+06         0.00000E+00
    0.64344E+06        -0.49766E+08         0.00000E+00
    0.00000E+00         0.00000E+00        -0.22974E+08
 
   -0.23114E+08         0.64034E+06         0.00000E+00
    0.64034E+06        -0.50111E+08         0.00000E+00
    0.00000E+00         0.00000E+00        -0.23146E+08
 
   -0.23292E+08         0.63730E+06         0.00000E+00
    0.63730E+06        -0.50456E+08         0.00000E+00
    0.00000E+00         0.00000E+00        -0.23318E+08
 
   -0.23470E+08         0.63427E+06         0.00000E+00
    0.63427E+06        -0.50801E+08         0.00000E+00
    0.00000E+00         0.00000E+00        -0.23490E+08
 
   -0.23651E+08         0.63115E+06         0.00000E+00
    0.63115E+06        -0.51144E+08         0.00000E+00
    0.00000E+00         0.00000E+00        -0.23662E+08
 
   -0.23835E+08         0.62785E+06         0.00000E+00
    0.62785E+06        -0.51485E+08         0.00000E+00
    0.00000E+00         0.00000E+00        -0.23838E+08
 
   -0.24019E+08         0.62446E+06         0.00000E+00
    0.62446E+06        -0.51825E+08         0.00000E+00
    0.00000E+00         0.00000E+00        -0.24013E+08
 
   -0.24204E+08         0.62098E+06         0.00000E+00
    0.62098E+06        -0.52165E+08         0.00000E+00
    0.00000E+00         0.00000E+00        -0.24187E+08
 
   -0.24389E+08         0.61738E+06         0.00000E+00
    0.61738E+06        -0.52505E+08         0.00000E+00
    0.00000E+00         0.00000E+00        -0.24361E+08
 
   -0.24575E+08         0.61364E+06         0.00000E+00
    0.61364E+06        -0.52845E+08         0.00000E+00
    0.00000E+00         0.00000E+00        -0.24535E+08
 
   -0.24761E+08         0.60973E+06         0.00000E+00
    0.60973E+06        -0.53185E+08         0.00000E+00
    0.00000E+00         0.00000E+00        -0.24708E+08
 
   -0.24948E+08         0.60562E+06         0.00000E+00
    0.60562E+06        -0.53525E+08         0.00000E+00
    0.00000E+00         0.00000E+00        -0.24880E+08
 
   -0.25136E+08         0.60125E+06         0.00000E+00
    0.60125E+06        -0.53865E+08         0.00000E+00
    0.00000E+00         0.00000E+00        -0.25052E+08
 
   -0.25324E+08         0.59658E+06         0.00000E+00
    0.59658E+06        -0.54205E+08         0.00000E+00
    0.00000E+00         0.00000E+00        -0.25224E+08
 
   -0.25514E+08         0.59152E+06         0.00000E+00
    0.59152E+06        -0.54545E+08         0.00000E+00
    0.00000E+00         0.00000E+00        -0.25394E+08
 
   -0.25704E+08         0.58598E+06         0.00000E+00
    0.58598E+06        -0.54886E+08         0.00000E+00
    0.00000E+00         0.00000E+00        -0.25564E+08
 
   -0.25896E+08         0.57983E+06         0.00000E+00
    0.57983E+06        -0.55227E+08         0.00000E+00
    0.00000E+00         0.00000E+00        -0.25733E+08
 
   -0.26089E+08         0.57291E+06         0.00000E+00
    0.57291E+06        -0.55569E+08         0.00000E+00
    0.00000E+00         0.00000E+00        -0.25902E+08
 
   -0.26283E+08         0.56500E+06         0.00000E+00
    0.56500E+06        -0.55911E+08         0.00000E+00
    0.00000E+00         0.00000E+00        -0.26069E+08
 
   -0.26479E+08         0.55586E+06         0.00000E+00
    0.55586E+06        -0.56254E+08         0.00000E+00
    0.00000E+00         0.00000E+00        -0.26235E+08
 
   -0.26678E+08         0.54517E+06         0.00000E+00
    0.54517E+06        -0.56598E+08         0.00000E+00
    0.00000E+00         0.00000E+00        -0.26400E+08
 
   -0.26879E+08         0.53256E+06         0.00000E+00
    0.53256E+06        -0.56943E+08         0.00000E+00
    0.00000E+00         0.00000E+00        -0.26564E+08
 
   -0.27083E+08         0.51760E+06         0.00000E+00
    0.51760E+06        -0.57289E+08         0.00000E+00
    0.00000E+00         0.00000E+00        -0.26726E+08
 
   -0.27290E+08         0.49981E+06         0.00000E+00
    0.49981E+06        -0.57637E+08         0.00000E+00
    0.00000E+00         0.00000E+00        -0.26886E+08
 
   -0.27500E+08         0.47867E+06         0.00000E+00
    0.47867E+06        -0.57986E+08         0.00000E+00
    0.00000E+00         0.00000E+00        -0.27045E+08
 
   -0.27714E+08         0.45365E+06         0.00000E+00
    0.45365E+06        -0.58337E+08         0.00000E+00
    0.00000E+00         0.00000E+00        -0.27201E+08
 
   -0.27933E+08         0.42422E+06         0.00000E+00
    0.42422E+06        -0.58689E+08         0.00000E+00
    0.00000E+00         0.00000E+00        -0.27354E+08
 
   -0.28157E+08         0.38997E+06         0.00000E+00
    0.38997E+06        -0.59042E+08         0.00000E+00
    0.00000E+00         0.00000E+00        -0.27504E+08
 
   -0.28386E+08         0.35059E+06         0.00000E+00
    0.35059E+06        -0.59395E+08         0.00000E+00
    0.00000E+00         0.00000E+00        -0.27648E+08
 
   -0.28622E+08         0.30608E+06         0.00000E+00
    0.30608E+06        -0.59748E+08         0.00000E+00
    0.00000E+00         0.00000E+00        -0.27786E+08
 
   -0.28866E+08         0.25687E+06         0.00000E+00
    0.25687E+06        -0.60098E+08         0.00000E+00
    0.00000E+00         0.00000E+00        -0.27915E+08
 
   -0.29118E+08         0.20412E+06         0.00000E+00
    0.20412E+06        -0.60446E+08         0.00000E+00
    0.00000E+00         0.00000E+00        -0.28034E+08
 
   -0.29380E+08         0.15010E+06         0.00000E+00
    0.15010E+06        -0.60789E+08         0.00000E+00
    0.00000E+00         0.00000E+00        -0.28140E+08
 
   -0.29653E+08         0.98585E+05         0.00000E+00
    0.98585E+05        -0.61127E+08         0.00000E+00
    0.00000E+00         0.00000E+00        -0.28232E+08
 
   -0.29936E+08         0.54799E+05         0.00000E+00
    0.54799E+05        -0.61458E+08         0.00000E+00
    0.00000E+00         0.00000E+00        -0.28308E+08
 
   -0.30231E+08         0.23698E+05         0.00000E+00
    0.23698E+05        -0.61776E+08         0.00000E+00
    0.00000E+00         0.00000E+00        -0.28363E+08
 
   -0.30538E+08         0.70443E+04         0.00000E+00
    0.70443E+04        -0.62076E+08         0.00000E+00
    0.00000E+00         0.00000E+00        -0.28391E+08
 
   -0.30860E+08         0.11237E+04         0.00000E+00
    0.11237E+04        -0.62349E+08         0.00000E+00
    0.00000E+00         0.00000E+00        -0.28381E+08
 
   -0.11350E+08        -0.10623E+05         0.00000E+00
   -0.10623E+05        -0.27789E+08         0.00000E+00
    0.00000E+00         0.00000E+00        -0.15104E+08
 
   -0.11699E+08        -0.19756E+05         0.00000E+00
   -0.19756E+05        -0.28110E+08         0.00000E+00
    0.00000E+00         0.00000E+00        -0.14970E+08
 
   -0.12033E+08         0.40318E+04         0.00000E+00
    0.40318E+04        -0.28406E+08         0.00000E+00
    0.00000E+00         0.00000E+00        -0.14895E+08
 
   -0.12351E+08         0.64484E+05         0.00000E+00
    0.64484E+05        -0.28724E+08         0.00000E+00
    0.00000E+00         0.00000E+00        -0.14864E+08
 
   -0.12658E+08         0.14451E+06         0.00000E+00
    0.14451E+06        -0.29082E+08         0.00000E+00
    0.00000E+00         0.00000E+00        -0.14865E+08
 
   -0.12956E+08         0.22359E+06         0.00000E+00
    0.22359E+06        -0.29467E+08         0.00000E+00
    0.00000E+00         0.00000E+00        -0.14892E+08
 
   -0.13239E+08         0.28964E+06         0.00000E+00
    0.28964E+06        -0.29861E+08         0.00000E+00
    0.00000E+00         0.00000E+00        -0.14940E+08
 
   -0.13506E+08         0.34059E+06         0.00000E+00
    0.34059E+06        -0.30245E+08         0.00000E+00
    0.00000E+00         0.00000E+00        -0.15009E+08
 
   -0.13758E+08         0.38181E+06         0.00000E+00
    0.38181E+06        -0.30615E+08         0.00000E+00
    0.00000E+00         0.00000E+00        -0.15093E+08
 
   -0.13997E+08         0.41995E+06         0.00000E+00
    0.41995E+06        -0.30973E+08         0.00000E+00
    0.00000E+00         0.00000E+00        -0.15192E+08
 
   -0.14225E+08         0.45828E+06         0.00000E+00
    0.45828E+06        -0.31327E+08         0.00000E+00
    0.00000E+00         0.00000E+00        -0.15301E+08
 
   -0.14441E+08         0.49674E+06         0.00000E+00
    0.49674E+06        -0.31682E+08         0.00000E+00
    0.00000E+00         0.00000E+00        -0.15419E+08
 
   -0.14647E+08         0.53399E+06         0.00000E+00
    0.53399E+06        -0.32042E+08         0.00000E+00
    0.00000E+00         0.00000E+00        -0.15543E+08
 
   -0.14846E+08         0.56879E+06         0.00000E+00
    0.56879E+06        -0.32405E+08         0.00000E+00
    0.00000E+00         0.00000E+00        -0.15670E+08
 
   -0.15039E+08         0.60040E+06         0.00000E+00
    0.60040E+06        -0.32770E+08         0.00000E+00
    0.00000E+00         0.00000E+00        -0.15799E+08
 
   -0.15227E+08         0.62859E+06         0.00000E+00
    0.62859E+06        -0.33137E+08         0.00000E+00
    0.00000E+00         0.00000E+00        -0.15929E+08
 
   -0.15411E+08         0.65335E+06         0.00000E+00
    0.65335E+06        -0.33503E+08         0.00000E+00
    0.00000E+00         0.00000E+00        -0.16058E+08
 
   -0.15591E+08         0.67483E+06         0.00000E+00
    0.67483E+06        -0.33870E+08         0.00000E+00
    0.00000E+00         0.00000E+00        -0.16187E+08
 
   -0.15768E+08         0.69316E+06         0.00000E+00
    0.69316E+06        -0.34235E+08         0.00000E+00
    0.00000E+00         0.00000E+00        -0.16314E+08
 
   -0.15942E+08         0.70836E+06         0.00000E+00
    0.70836E+06        -0.34601E+08         0.00000E+00
    0.00000E+00         0.00000E+00        -0.16438E+08
 
   -0.16113E+08         0.72035E+06         0.00000E+00
    0.72035E+06        -0.34966E+08         0.00000E+00
    0.00000E+00         0.00000E+00        -0.16560E+08
 
   -0.16283E+08         0.72893E+06         0.00000E+00
    0.72893E+06        -0.35333E+08         0.00000E+00
    0.00000E+00         0.00000E+00        -0.16680E+08
 
   -0.16450E+08         0.73413E+06         0.00000E+00
    0.73413E+06        -0.35703E+08         0.00000E+00
    0.00000E+00         0.00000E+00        -0.16796E+08
 
   -0.16614E+08         0.73640E+06         0.00000E+00
    0.73640E+06        -0.36081E+08         0.00000E+00
    0.00000E+00         0.00000E+00        -0.16910E+08
 
   -0.16773E+08         0.73617E+06         0.00000E+00
    0.73617E+06        -0.36448E+08         0.00000E+00
    0.00000E+00         0.00000E+00        -0.17039E+08
 
   -0.16930E+08         0.72945E+06         0.00000E+00
    0.72945E+06        -0.36795E+08         0.00000E+00
    0.00000E+00         0.00000E+00        -0.17193E+08
 
   -0.17085E+08         0.72466E+06         0.00000E+00
    0.72466E+06        -0.37143E+08         0.00000E+00
    0.00000E+00         0.00000E+00        -0.17347E+08
 
   -0.17239E+08         0.72220E+06         0.00000E+00
    0.72220E+06        -0.37494E+08         0.00000E+00
    0.00000E+00         0.00000E+00        -0.17499E+08
 
   -0.17393E+08         0.72162E+06         0.00000E+00
    0.72162E+06        -0.37847E+08         0.00000E+00
    0.00000E+00         0.00000E+00        -0.17649E+08
 
   -0.17548E+08         0.72241E+06         0.00000E+00
    0.72241E+06        -0.38200E+08         0.00000E+00
    0.00000E+00         0.00000E+00        -0.17797E+08
 
   -0.17702E+08         0.72402E+06         0.00000E+00
    0.72402E+06        -0.38554E+08         0.00000E+00
    0.00000E+00         0.00000E+00        -0.17942E+08
 
   -0.17856E+08         0.72600E+06         0.00000E+00
    0.72600E+06        -0.38909E+08         0.00000E+00
    0.00000E+00         0.00000E+00        -0.18086E+08
 
   -0.18011E+08         0.72794E+06         0.00000E+00
    0.72794E+06        -0.39264E+08         0.00000E+00
    0.00000E+00         0.00000E+00        -0.18227E+08
 
   -0.18166E+08         0.72948E+06         0.00000E+00
    0.72948E+06        -0.39619E+08         0.00000E+00
    0.00000E+00         0.00000E+00        -0.18366E+08
 
   -0.18321E+08         0.73025E+06         0.00000E+00
    0.73025E+06        -0.39975E+08         0.00000E+00
    0.00000E+00         0.00000E+00        -0.18503E+08
 
   -0.18476E+08         0.72992E+06         0.00000E+00
    0.72992E+06        -0.40332E+08         0.00000E+00
    0.00000E+00         0.00000E+00        -0.18639E+08
 
   -0.18632E+08         0.72844E+06         0.00000E+00
    0.72844E+06        -0.40691E+08         0.00000E+00
    0.00000E+00         0.00000E+00        -0.18772E+08
 
   -0.18788E+08         0.72602E+06         0.00000E+00
    0.72602E+06        -0.41054E+08         0.00000E+00
    0.00000E+00         0.00000E+00        -0.18904E+08
 
   -0.18943E+08         0.72301E+06         0.00000E+00
    0.72301E+06        -0.41415E+08         0.00000E+00
    0.00000E+00         0.00000E+00        -0.19043E+08
 
   -0.19097E+08         0.71389E+06         0.00000E+00
    0.71389E+06        -0.41761E+08         0.00000E+00
    0.00000E+00         0.00000E+00        -0.19198E+08
 
   -0.19251E+08         0.70690E+06         0.00000E+00
    0.70690E+06        -0.42108E+08         0.00000E+00
    0.00000E+00         0.00000E+00        -0.19356E+08
 
   -0.19407E+08         0.70148E+06         0.00000E+00
    0.70148E+06        -0.42456E+08         0.00000E+00
    0.00000E+00         0.00000E+00        -0.19513E+08
 
   -0.19564E+08         0.69711E+06         0.00000E+00
    0.69711E+06        -0.42805E+08         0.00000E+00
    0.00000E+00         0.00000E+00        -0.19669E+08
 
   -0.19723E+08         0.69334E+06         0.00000E+00
    0.69334E+06        -0.43155E+08         0.00000E+00
    0.00000E+00         0.00000E+00        -0.19823E+08
 
   -0.19883E+08         0.68968E+06         0.00000E+00
    0.68968E+06        -0.43506E+08         0.00000E+00
    0.00000E+00         0.00000E+00        -0.19977E+08
 
   -0.20045E+08         0.68574E+06         0.00000E+00
    0.68574E+06        -0.43859E+08         0.00000E+00
    0.00000E+00         0.00000E+00        -0.20130E+08
 
   -0.20207E+08         0.68144E+06         0.00000E+00
    0.68144E+06        -0.44213E+08         0.00000E+00
    0.00000E+00         0.00000E+00        -0.20282E+08
 
   -0.20370E+08         0.67718E+06         0.00000E+00
    0.67718E+06        -0.44569E+08         0.00000E+00
    0.00000E+00         0.00000E+00        -0.20434E+08
 
   -0.20534E+08         0.67038E+06         0.00000E+00
    0.67038E+06        -0.44917E+08         0.00000E+00
    0.00000E+00         0.00000E+00        -0.20597E+08
 
   -0.20698E+08         0.66387E+06         0.00000E+00
    0.66387E+06        -0.45261E+08         0.00000E+00
    0.00000E+00         0.00000E+00        -0.20765E+08
 
   -0.20864E+08         0.65840E+06         0.00000E+00
    0.65840E+06        -0.45607E+08         0.00000E+00
    0.00000E+00         0.00000E+00        -0.20933E+08
 
   -0.21031E+08         0.65377E+06         0.00000E+00
    0.65377E+06        -0.45954E+08         0.00000E+00
    0.00000E+00         0.00000E+00        -0.21100E+08
 
   -0.21199E+08         0.64965E+06         0.00000E+00
    0.64965E+06        -0.46301E+08         0.00000E+00
    0.00000E+00         0.00000E+00        -0.21267E+08
 
   -0.21369E+08         0.64568E+06         0.00000E+00
    0.64568E+06        -0.46649E+08         0.00000E+00
    0.00000E+00         0.00000E+00        -0.21433E+08
 
   -0.21540E+08         0.64163E+06         0.00000E+00
    0.64163E+06        -0.46998E+08         0.00000E+00
    0.00000E+00         0.00000E+00        -0.21599E+08
 
   -0.21712E+08         0.63738E+06         0.00000E+00
    0.63738E+06        -0.47348E+08         0.00000E+00
    0.00000E+00         0.00000E+00        -0.21765E+08
 
   -0.21884E+08         0.63298E+06         0.00000E+00
    0.63298E+06        -0.47697E+08         0.00000E+00
    0.00000E+00         0.00000E+00        -0.21932E+08
 
   -0.22057E+08         0.62799E+06         0.00000E+00
    0.62799E+06        -0.48041E+08         0.00000E+00
    0.00000E+00         0.00000E+00        -0.22105E+08
 
   -0.22231E+08         0.62351E+06         0.00000E+00
    0.62351E+06        -0.48385E+08         0.00000E+00
    0.00000E+00         0.00000E+00        -0.22279E+08
 
   -0.22406E+08         0.61957E+06         0.00000E+00
    0.61957E+06        -0.48730E+08         0.00000E+00
    0.00000E+00         0.00000E+00        -0.22453E+08
 
   -0.22581E+08         0.61607E+06         0.00000E+00
    0.61607E+06        -0.49075E+08         0.00000E+00
    0.00000E+00         0.00000E+00        -0.22626E+08
 
   -0.22757E+08         0.61287E+06         0.00000E+00
    0.61287E+06        -0.49421E+08         0.00000E+00
    0.00000E+00         0.00000E+00        -0.22799E+08
 
   -0.22934E+08         0.60985E+06         0.00000E+00
    0.60985E+06        -0.49766E+08         0.00000E+00
    0.00000E+00         0.00000E+00        -0.22971E+08
 
   -0.23112E+08         0.60694E+06         0.00000E+00
    0.60694E+06        -0.50111E+08         0.00000E+00
    0.00000E+00         0.00000E+00        -0.23143E+08
 
   -0.23291E+08         0.60407E+06         0.00000E+00
    0.60407E+06        -0.50456E+08         0.00000E+00
    0.00000E+00         0.00000E+00        -0.23315E+08
 
   -0.23470E+08         0.60120E+06         0.00000E+00
    0.60120E+06        -0.50801E+08         0.00000E+00
    0.00000E+00         0.00000E+00        -0.23487E+08
 
   -0.23650E+08         0.59824E+06         0.00000E+00
    0.59824E+06        -0.51144E+08         0.00000E+00
    0.00000E+00         0.00000E+00        -0.23660E+08
 
   -0.23834E+08         0.59510E+06         0.00000E+00
    0.59510E+06        -0.51484E+08         0.00000E+00
    0.00000E+00         0.00000E+00        -0.23834E+08
 
   -0.24019E+08         0.59188E+06         0.00000E+00
    0.59188E+06        -0.51824E+08         0.00000E+00
    0.00000E+00         0.00000E+00        -0.24009E+08
 
   -0.24204E+08         0.58857E+06         0.00000E+00
    0.58857E+06        -0.52164E+08         0.00000E+00
    0.00000E+00         0.00000E+00        -0.24184E+08
 
   -0.24390E+08         0.58514E+06         0.00000E+00
    0.58514E+06        -0.52504E+08         0.00000E+00
    0.00000E+00         0.00000E+00        -0.24357E+08
 
   -0.24576E+08         0.58158E+06         0.00000E+00
    0.58158E+06        -0.52844E+08         0.00000E+00
    0.00000E+00         0.00000E+00        -0.24531E+08
 
   -0.24762E+08         0.57785E+06         0.00000E+00
    0.57785E+06        -0.53184E+08         0.00000E+00
    0.00000E+00         0.00000E+00        -0.24704E+08
 
   -0.24950E+08         0.57394E+06         0.00000E+00
    0.57394E+06        -0.53524E+08         0.00000E+00
    0.00000E+00         0.00000E+00        -0.24876E+08
 
   -0.25137E+08         0.56978E+06         0.00000E+00
    0.56978E+06        -0.53864E+08         0.00000E+00
    0.00000E+00         0.00000E+00        -0.25048E+08
 
   -0.25326E+08         0.56535E+06         0.00000E+00
    0.56535E+06        -0.54204E+08         0.00000E+00
    0.00000E+00         0.00000E+00        -0.25219E+08
 
   -0.25516E+08         0.56055E+06         0.00000E+00
    0.56055E+06        -0.54545E+08         0.00000E+00
    0.00000E+00         0.00000E+00        -0.25389E+08
 
   -0.25706E+08         0.55529E+06         0.00000E+00
    0.55529E+06        -0.54885E+08         0.00000E+00
    0.00000E+00         0.00000E+00        -0.25559E+08
 
   -0.25898E+08         0.54947E+06         0.00000E+00
    0.54947E+06        -0.55226E+08         0.00000E+00
    0.00000E+00         0.00000E+00        -0.25727E+08
 
   -0.26091E+08         0.54291E+06         0.00000E+00
    0.54291E+06        -0.55568E+08         0.00000E+00
    0.00000E+00         0.00000E+00        -0.25895E+08
 
   -0.26286E+08         0.53541E+06         0.00000E+00
    0.53541E+06        -0.55910E+08         0.00000E+00
    0.00000E+00         0.00000E+00        -0.26062E+08
 
   -0.26483E+08         0.52674E+06         0.00000E+00
    0.52674E+06        -0.56252E+08         0.00000E+00
    0.00000E+00         0.00000E+00        -0.26228E+08
 
   -0.26682E+08         0.51657E+06         0.00000E+00
    0.51657E+06        -0.56596E+08         0.00000E+00
    0.00000E+00         0.00000E+00        -0.26392E+08
 
   -0.26883E+08         0.50455E+06         0.00000E+00
    0.50455E+06        -0.56941E+08         0.00000E+00
    0.00000E+00         0.00000E+00        -0.26555E+08
 
   -0.27087E+08         0.49026E+06         0.00000E+00
    0.49026E+06        -0.57286E+08         0.00000E+00
    0.00000E+00         0.00000E+00        -0.26716E+08
 
   -0.27295E+08         0.47321E+06         0.00000E+00
    0.47321E+06        -0.57633E+08         0.00000E+00
    0.00000E+00         0.00000E+00        -0.26876E+08
 
   -0.27506E+08         0.45290E+06         0.00000E+00
    0.45290E+06        -0.57982E+08         0.00000E+00
    0.00000E+00         0.00000E+00        -0.27033E+08
 
   -0.27721E+08         0.42881E+06         0.00000E+00
    0.42881E+06        -0.58332E+08         0.00000E+00
    0.00000E+00         0.00000E+00        -0.27188E+08
 
   -0.27940E+08         0.40043E+06         0.00000E+00
    0.40043E+06        -0.58683E+08         0.00000E+00
    0.00000E+00         0.00000E+00        -0.27340E+08
 
   -0.28165E+08         0.36735E+06         0.00000E+00
    0.36735E+06        -0.59035E+08         0.00000E+00
    0.00000E+00         0.00000E+00        -0.27487E+08
 
   -0.28396E+08         0.32932E+06         0.00000E+00
    0.32932E+06        -0.59387E+08         0.00000E+00
    0.00000E+00         0.00000E+00        -0.27630E+08
 
   -0.28634E+08         0.28638E+06         0.00000E+00
    0.28638E+06        -0.59739E+08         0.00000E+00
    0.00000E+00         0.00000E+00        -0.27765E+08
 
   -0.28880E+08         0.23902E+06         0.00000E+00
    0.23902E+06        -0.60088E+08         0.00000E+00
    0.00000E+00         0.00000E+00        -0.27892E+08
 
   -0.29135E+08         0.18842E+06         0.00000E+00
    0.18842E+06        -0.60435E+08         0.00000E+00
    0.00000E+00         0.00000E+00        -0.28007E+08
 
   -0.29400E+08         0.13671E+06         0.00000E+00
    0.13671E+06        -0.60779E+08         0.00000E+00
    0.00000E+00         0.00000E+00        -0.28111E+08
 
   -0.29677E+08         0.87426E+05         0.00000E+00
    0.87426E+05        -0.61118E+08         0.00000E+00
    0.00000E+00         0.00000E+00        -0.28201E+08
 
   -0.29964E+08         0.45614E+05         0.00000E+00
    0.45614E+05        -0.61451E+08         0.00000E+00
    0.00000E+00         0.00000E+00        -0.28276E+08
 
   -0.30261E+08         0.16473E+05         0.00000E+00
    0.16473E+05        -0.61773E+08         0.00000E+00
    0.00000E+00         0.00000E+00        -0.28333E+08
 
   -0.30569E+08         0.22432E+04         0.00000E+00
    0.22432E+04        -0.62075E+08         0.00000E+00
    0.00000E+00         0.00000E+00        -0.28363E+08
 
   -0.30892E+08        -0.58242E+03         0.00000E+00
   -0.58242E+03        -0.62350E+08         0.00000E+00
    0.00000E+00         0.00000E+00        -0.28355E+08
 
   -0.11297E+08        -0.11408E+05         0.00000E+00
   -0.11408E+05        -0.27784E+08         0.00000E+00
    0.00000E+00         0.00000E+00        -0.15131E+08
 
   -0.11650E+08        -0.22819E+05         0.00000E+00
   -0.22819E+05        -0.28111E+08         0.00000E+00
    0.00000E+00         0.00000E+00        -0.15004E+08
 
   -0.11990E+08        -0.22325E+04         0.00000E+00
   -0.22325E+04        -0.28415E+08         0.00000E+00
    0.00000E+00         0.00000E+00        -0.14934E+08
 
   -0.12317E+08         0.55338E+05         0.00000E+00
    0.55338E+05        -0.28739E+08         0.00000E+00
    0.00000E+00         0.00000E+00        -0.14905E+08
 
   -0.12632E+08         0.13317E+06         0.00000E+00
    0.13317E+06        -0.29098E+08         0.00000E+00
    0.00000E+00         0.00000E+00        -0.14906E+08
 
   -0.12933E+08         0.20960E+06         0.00000E+00
    0.20960E+06        -0.29482E+08         0.00000E+00
    0.00000E+00         0.00000E+00        -0.14930E+08
 
   -0.13218E+08         0.27240E+06         0.00000E+00
    0.27240E+06        -0.29872E+08         0.00000E+00
    0.00000E+00         0.00000E+00        -0.14974E+08
 
   -0.13487E+08         0.32034E+06         0.00000E+00
    0.32034E+06        -0.30254E+08         0.00000E+00
    0.00000E+00         0.00000E+00        -0.15037E+08
 
   -0.13741E+08         0.35895E+06         0.00000E+00
    0.35895E+06        -0.30622E+08         0.00000E+00
    0.00000E+00         0.00000E+00        -0.15116E+08
 
   -0.13981E+08         0.39459E+06         0.00000E+00
    0.39459E+06        -0.30980E+08         0.00000E+00
    0.00000E+00         0.00000E+00        -0.15210E+08
 
   -0.14210E+08         0.43053E+06         0.00000E+00
    0.43053E+06        -0.31334E+08         0.00000E+00
    0.00000E+00         0.00000E+00        -0.15314E+08
 
   -0.14427E+08         0.46689E+06         0.00000E+00
    0.46689E+06        -0.31690E+08         0.00000E+00
    0.00000E+00         0.00000E+00        -0.15428E+08
 
   -0.14634E+08         0.50243E+06         0.00000E+00
    0.50243E+06        -0.32049E+08         0.00000E+00
    0.00000E+00         0.00000E+00        -0.15547E+08
 
   -0.14833E+08         0.53588E+06         0.00000E+00
    0.53588E+06        -0.32411E+08         0.00000E+00
    0.00000E+00         0.00000E+00        -0.15671E+08
 
   -0.15026E+08         0.56643E+06         0.00000E+00
    0.56643E+06        -0.32776E+08         0.00000E+00
    0.00000E+00         0.00000E+00        -0.15797E+08
 
   -0.15214E+08         0.59374E+06         0.00000E+00
    0.59374E+06        -0.33142E+08         0.00000E+00
    0.00000E+00         0.00000E+00        -0.15925E+08
 
   -0.15398E+08         0.61776E+06         0.00000E+00
    0.61776E+06        -0.33508E+08         0.00000E+00
    0.00000E+00         0.00000E+00        -0.16053E+08
 
   -0.15577E+08         0.63860E+06         0.00000E+00
    0.63860E+06        -0.33874E+08         0.00000E+00
    0.00000E+00         0.00000E+00        -0.16180E+08
 
   -0.15754E+08         0.65637E+06         0.00000E+00
    0.65637E+06        -0.34239E+08         0.00000E+00
    0.00000E+00         0.00000E+00        -0.16305E+08
 
   -0.15927E+08         0.67112E+06         0.00000E+00
    0.67112E+06        -0.34603E+08         0.00000E+00
    0.00000E+00         0.00000E+00        -0.16429E+08
 
   -0.16098E+08         0.68274E+06         0.00000E+00
    0.68274E+06        -0.34968E+08         0.00000E+00
    0.00000E+00         0.00000E+00        -0.16551E+08
 
   -0.16268E+08         0.69095E+06         0.00000E+00
    0.69095E+06        -0.35334E+08         0.00000E+00
    0.00000E+00         0.00000E+00        -0.16670E+08
 
   -0.16434E+08         0.69567E+06         0.00000E+00
    0.69567E+06        -0.35704E+08         0.00000E+00
    0.00000E+00         0.00000E+00        -0.16786E+08
 
   -0.16598E+08         0.69727E+06         0.00000E+00
    0.69727E+06        -0.36081E+08         0.00000E+00
    0.00000E+00         0.00000E+00        -0.16900E+08
 
   -0.16758E+08         0.69609E+06         0.00000E+00
    0.69609E+06        -0.36447E+08         0.00000E+00
    0.00000E+00         0.00000E+00        -0.17030E+08
 
   -0.16914E+08         0.68914E+06         0.00000E+00
    0.68914E+06        -0.36794E+08         0.00000E+00
    0.00000E+00         0.00000E+00        -0.17185E+08
 
   -0.17069E+08         0.68427E+06         0.00000E+00
    0.68427E+06        -0.37143E+08         0.00000E+00
    0.00000E+00         0.00000E+00        -0.17339E+08
 
   -0.17224E+08         0.68181E+06         0.00000E+00
    0.68181E+06        -0.37494E+08         0.00000E+00
    0.00000E+00         0.00000E+00        -0.17491E+08
 
   -0.17379E+08         0.68130E+06         0.00000E+00
    0.68130E+06        -0.37847E+08         0.00000E+00
    0.00000E+00         0.00000E+00        -0.17641E+08
 
   -0.17534E+08         0.68216E+06         0.00000E+00
    0.68216E+06        -0.38201E+08         0.00000E+00
    0.00000E+00         0.00000E+00        -0.17789E+08
 
   -0.17689E+08         0.68385E+06         0.00000E+00
    0.68385E+06        -0.38555E+08         0.00000E+00
    0.00000E+00         0.00000E+00        -0.17934E+08
 
   -0.17843E+08         0.68591E+06         0.00000E+00
    0.68591E+06        -0.38910E+08         0.00000E+00
    0.00000E+00         0.00000E+00        -0.18078E+08
 
   -0.17998E+08         0.68796E+06         0.00000E+00
    0.68796E+06        -0.39264E+08         0.00000E+00
    0.00000E+00         0.00000E+00        -0.18220E+08
 
   -0.18154E+08         0.68965E+06         0.00000E+00
    0.68965E+06        -0.39620E+08         0.00000E+00
    0.00000E+00         0.00000E+00        -0.18359E+08
 
   -0.18309E+08         0.69057E+06         0.00000E+00
    0.69057E+06        -0.39975E+08         0.00000E+00
    0.00000E+00         0.00000E+00        -0.18497E+08
 
   -0.18465E+08         0.69038E+06         0.00000E+00
    0.69038E+06        -0.40332E+08         0.00000E+00
    0.00000E+00         0.00000E+00        -0.18632E+08
 
   -0.18622E+08         0.68902E+06         0.00000E+00
    0.68902E+06        -0.40691E+08         0.00000E+00
    0.00000E+00         0.00000E+00        -0.18766E+08
 
   -0.18778E+08         0.68660E+06         0.00000E+00
    0.68660E+06        -0.41054E+08         0.00000E+00
    0.00000E+00         0.00000E+00        -0.18898E+08
 
   -0.18933E+08         0.68326E+06         0.00000E+00
    0.68326E+06        -0.41413E+08         0.00000E+00
    0.00000E+00         0.00000E+00        -0.19038E+08
 
   -0.19087E+08         0.67425E+06         0.00000E+00
    0.67425E+06        -0.41760E+08         0.00000E+00
    0.00000E+00         0.00000E+00        -0.19194E+08
 
   -0.19242E+08         0.66758E+06         0.00000E+00
    0.66758E+06        -0.42107E+08         0.00000E+00
    0.00000E+00         0.00000E+00        -0.19352E+08
 
   -0.19398E+08         0.66252E+06         0.00000E+00
    0.66252E+06        -0.42455E+08         0.00000E+00
    0.00000E+00         0.00000E+00        -0.19509E+08
 
   -0.19556E+08         0.65852E+06         0.00000E+00
    0.65852E+06        -0.42804E+08         0.00000E+00
    0.00000E+00         0.00000E+00        -0.19665E+08
 
   -0.19715E+08         0.65512E+06         0.00000E+00
    0.65512E+06        -0.43154E+08         0.00000E+00
    0.00000E+00         0.00000E+00        -0.19820E+08
 
   -0.19876E+08         0.65181E+06         0.00000E+00
    0.65181E+06        -0.43505E+08         0.00000E+00
    0.00000E+00         0.00000E+00        -0.19974E+08
 
   -0.20038E+08         0.64816E+06         0.00000E+00
    0.64816E+06        -0.43858E+08         0.00000E+00
    0.00000E+00         0.00000E+00        -0.20127E+08
 
   -0.20201E+08         0.64409E+06         0.00000E+00
    0.64409E+06        -0.44212E+08         0.00000E+00
    0.00000E+00         0.00000E+00        -0.20279E+08
 
   -0.20365E+08         0.64004E+06         0.00000E+00
    0.64004E+06        -0.44568E+08         0.00000E+00
    0.00000E+00         0.00000E+00        -0.20432E+08
 
   -0.20528E+08         0.63330E+06         0.00000E+00
    0.63330E+06        -0.44915E+08         0.00000E+00
    0.00000E+00         0.00000E+00        -0.20595E+08
 
   -0.20693E+08         0.62711E+06         0.00000E+00
    0.62711E+06        -0.45260E+08         0.00000E+00
    0.00000E+00         0.00000E+00        -0.20763E+08
 
   -0.20859E+08         0.62197E+06         0.00000E+00
    0.62197E+06        -0.45606E+08         0.00000E+00
    0.00000E+00         0.00000E+00        -0.20931E+08
 
   -0.21026E+08         0.61770E+06         0.00000E+00
    0.61770E+06        -0.45953E+08         0.00000E+00
    0.00000E+00         0.00000E+00        -0.21098E+08
 
   -0.21195E+08         0.61391E+06         0.00000E+00
    0.61391E+06        -0.46300E+08         0.00000E+00
    0.00000E+00         0.00000E+00        -0.21265E+08
 
   -0.21365E+08         0.61027E+06         0.00000E+00
    0.61027E+06        -0.46648E+08         0.00000E+00
    0.00000E+00         0.00000E+00        -0.21431E+08
 
   -0.21536E+08         0.60648E+06         0.00000E+00
    0.60648E+06        -0.46997E+08         0.00000E+00
    0.00000E+00         0.00000E+00        -0.21597E+08
 
   -0.21708E+08         0.60244E+06         0.00000E+00
    0.60244E+06        -0.47347E+08         0.00000E+00
    0.00000E+00         0.00000E+00        -0.21763E+08
 
   -0.21881E+08         0.59820E+06         0.00000E+00
    0.59820E+06        -0.47696E+08         0.00000E+00
    0.00000E+00         0.00000E+00        -0.21930E+08
 
   -0.22054E+08         0.59340E+06         0.00000E+00
    0.59340E+06        -0.48040E+08         0.00000E+00
    0.00000E+00         0.00000E+00        -0.22103E+08
 
   -0.22229E+08         0.58913E+06         0.00000E+00
    0.58913E+06        -0.48385E+08         0.00000E+00
    0.00000E+00         0.00000E+00        -0.22277E+08
 
   -0.22403E+08         0.58542E+06         0.00000E+00
    0.58542E+06        -0.48729E+08         0.00000E+00
    0.00000E+00         0.00000E+00        -0.22451E+08
 
   -0.22579E+08         0.58214E+06         0.00000E+00
    0.58214E+06        -0.49075E+08         0.00000E+00
    0.00000E+00         0.00000E+00        -0.22624E+08
 
   -0.22756E+08         0.57914E+06         0.00000E+00
    0.57914E+06        -0.49420E+08         0.00000E+00
    0.00000E+00         0.00000E+00        -0.22796E+08
 
   -0.22933E+08         0.57632E+06         0.00000E+00
    0.57632E+06        -0.49765E+08         0.00000E+00
    0.00000E+00         0.00000E+00        -0.22969E+08
 
   -0.23111E+08         0.57359E+06         0.00000E+00
    0.57359E+06        -0.50110E+08         0.00000E+00
    0.00000E+00         0.00000E+00        -0.23141E+08
 
   -0.23290E+08         0.57089E+06         0.00000E+00
    0.57089E+06        -0.50455E+08         0.00000E+00
    0.00000E+00         0.00000E+00        -0.23313E+08
 
   -0.23469E+08         0.56818E+06         0.00000E+00
    0.56818E+06        -0.50800E+08         0.00000E+00
    0.00000E+00         0.00000E+00        -0.23484E+08
 
   -0.23650E+08         0.56538E+06         0.00000E+00
    0.56538E+06        -0.51143E+08         0.00000E+00
    0.00000E+00         0.00000E+00        -0.23657E+08
 
   -0.23834E+08         0.56241E+06         0.00000E+00
    0.56241E+06        -0.51484E+08         0.00000E+00
    0.00000E+00         0.00000E+00        -0.23831E+08
 
   -0.24019E+08         0.55935E+06         0.00000E+00
    0.55935E+06        -0.51824E+08         0.00000E+00
    0.00000E+00         0.00000E+00        -0.24006E+08
 
   -0.24204E+08         0.55621E+06         0.00000E+00
    0.55621E+06        -0.52164E+08         0.00000E+00
    0.00000E+00         0.00000E+00        -0.24180E+08
 
   -0.24390E+08         0.55295E+06         0.00000E+00
    0.55295E+06        -0.52504E+08         0.00000E+00
    0.00000E+00         0.00000E+00        -0.24354E+08
 
   -0.24576E+08         0.54957E+06         0.00000E+00
    0.54957E+06        -0.52844E+08         0.00000E+00
    0.00000E+00         0.00000E+00        -0.24527E+08
 
   -0.24763E+08         0.54603E+06         0.00000E+00
    0.54603E+06        -0.53183E+08         0.00000E+00
    0.00000E+00         0.00000E+00        -0.24700E+08
 
   -0.24951E+08         0.54231E+06         0.00000E+00
    0.54231E+06        -0.53523E+08         0.00000E+00
    0.00000E+00         0.00000E+00        -0.24872E+08
 
   -0.25139E+08         0.53838E+06         0.00000E+00
    0.53838E+06        -0.53864E+08         0.00000E+00
    0.00000E+00         0.00000E+00        -0.25043E+08
 
   -0.25328E+08         0.53418E+06         0.00000E+00
    0.53418E+06        -0.54204E+08         0.00000E+00
    0.00000E+00         0.00000E+00        -0.25214E+08
 
   -0.25518E+08         0.52964E+06         0.00000E+00
    0.52964E+06        -0.54544E+08         0.00000E+00
    0.00000E+00         0.00000E+00        -0.25384E+08
 
   -0.25709E+08         0.52467E+06         0.00000E+00
    0.52467E+06        -0.54885E+08         0.00000E+00
    0.00000E+00         0.00000E+00        -0.25553E+08
 
   -0.25901E+08         0.51917E+06         0.00000E+00
    0.51917E+06        -0.55225E+08         0.00000E+00
    0.00000E+00         0.00000E+00        -0.25721E+08
 
   -0.26095E+08         0.51297E+06         0.00000E+00
    0.51297E+06        -0.55567E+08         0.00000E+00
    0.00000E+00         0.00000E+00        -0.25889E+08
 
   -0.26290E+08         0.50588E+06         0.00000E+00
    0.50588E+06        -0.55908E+08         0.00000E+00
    0.00000E+00         0.00000E+00        -0.26055E+08
 
   -0.26487E+08         0.49767E+06         0.00000E+00
    0.49767E+06        -0.56251E+08         0.00000E+00
    0.00000E+00         0.00000E+00        -0.26220E+08
 
   -0.26686E+08         0.48803E+06         0.00000E+00
    0.48803E+06        -0.56594E+08         0.00000E+00
    0.00000E+00         0.00000E+00        -0.26384E+08
 
   -0.26887E+08         0.47661E+06         0.00000E+00
    0.47661E+06        -0.56938E+08         0.00000E+00
    0.00000E+00         0.00000E+00        -0.26546E+08
 
   -0.27092E+08         0.46299E+06         0.00000E+00
    0.46299E+06        -0.57284E+08         0.00000E+00
    0.00000E+00         0.00000E+00        -0.26707E+08
 
   -0.27300E+08         0.44671E+06         0.00000E+00
    0.44671E+06        -0.57630E+08         0.00000E+00
    0.00000E+00         0.00000E+00        -0.26866E+08
 
   -0.27511E+08         0.42726E+06         0.00000E+00
    0.42726E+06        -0.57978E+08         0.00000E+00
    0.00000E+00         0.00000E+00        -0.27022E+08
 
   -0.27727E+08         0.40413E+06         0.00000E+00
    0.40413E+06        -0.58327E+08         0.00000E+00
    0.00000E+00         0.00000E+00        -0.27176E+08
 
   -0.27948E+08         0.37683E+06         0.00000E+00
    0.37683E+06        -0.58677E+08         0.00000E+00
    0.00000E+00         0.00000E+00        -0.27326E+08
 
   -0.28174E+08         0.34499E+06         0.00000E+00
    0.34499E+06        -0.59028E+08         0.00000E+00
    0.00000E+00         0.00000E+00        -0.27471E+08
 
   -0.28406E+08         0.30839E+06         0.00000E+00
    0.30839E+06        -0.59379E+08         0.00000E+00
    0.00000E+00         0.00000E+00        -0.27611E+08
 
   -0.28646E+08         0.26712E+06         0.00000E+00
    0.26712E+06        -0.59730E+08         0.00000E+00
    0.00000E+00         0.00000E+00        -0.27744E+08
 
   -0.28894E+08         0.22171E+06         0.00000E+00
    0.22171E+06        -0.60079E+08         0.00000E+00
    0.00000E+00         0.00000E+00        -0.27868E+08
 
   -0.29152E+08         0.17336E+06         0.00000E+00
    0.17336E+06        -0.60426E+08         0.00000E+00
    0.00000E+00         0.00000E+00        -0.27981E+08
 
   -0.29421E+08         0.12407E+06         0.00000E+00
    0.12407E+06        -0.60769E+08         0.00000E+00
    0.00000E+00         0.00000E+00        -0.28082E+08
 
   -0.29701E+08         0.77035E+05         0.00000E+00
    0.77035E+05        -0.61110E+08         0.00000E+00
    0.00000E+00         0.00000E+00        -0.28170E+08
 
   -0.29991E+08         0.37088E+05         0.00000E+00
    0.37088E+05        -0.61445E+08         0.00000E+00
    0.00000E+00         0.00000E+00        -0.28245E+08
 
   -0.30291E+08         0.96696E+04         0.00000E+00
    0.96696E+04        -0.61770E+08         0.00000E+00
    0.00000E+00         0.00000E+00        -0.28303E+08
 
   -0.30601E+08        -0.23767E+04         0.00000E+00
   -0.23767E+04        -0.62075E+08         0.00000E+00
    0.00000E+00         0.00000E+00        -0.28335E+08
 
   -0.30924E+08        -0.22482E+04         0.00000E+00
   -0.22482E+04        -0.62352E+08         0.00000E+00
    0.00000E+00         0.00000E+00        -0.28329E+08
 
   -0.11246E+08        -0.11937E+05         0.00000E+00
   -0.11937E+05        -0.27779E+08         0.00000E+00
    0.00000E+00         0.00000E+00        -0.15158E+08
 
   -0.11601E+08        -0.25019E+05         0.00000E+00
   -0.25019E+05        -0.28110E+08         0.00000E+00
    0.00000E+00         0.00000E+00        -0.15037E+08
 
   -0.11947E+08        -0.69413E+04         0.00000E+00
   -0.69413E+04        -0.28422E+08         0.00000E+00
    0.00000E+00         0.00000E+00        -0.14973E+08
 
   -0.12283E+08         0.47935E+05         0.00000E+00
    0.47935E+05        -0.28753E+08         0.00000E+00
    0.00000E+00         0.00000E+00        -0.14947E+08
 
   -0.12605E+08         0.12300E+06         0.00000E+00
    0.12300E+06        -0.29114E+08         0.00000E+00
    0.00000E+00         0.00000E+00        -0.14947E+08
 
   -0.12911E+08         0.19622E+06         0.00000E+00
    0.19622E+06        -0.29496E+08         0.00000E+00
    0.00000E+00         0.00000E+00        -0.14968E+08
 
   -0.13198E+08         0.25558E+06         0.00000E+00
    0.25558E+06        -0.29883E+08         0.00000E+00
    0.00000E+00         0.00000E+00        -0.15008E+08
 
   -0.13468E+08         0.30042E+06         0.00000E+00
    0.30042E+06        -0.30262E+08         0.00000E+00
    0.00000E+00         0.00000E+00        -0.15065E+08
 
   -0.13724E+08         0.33634E+06         0.00000E+00
    0.33634E+06        -0.30629E+08         0.00000E+00
    0.00000E+00         0.00000E+00        -0.15139E+08
 
   -0.13966E+08         0.36944E+06         0.00000E+00
    0.36944E+06        -0.30987E+08         0.00000E+00
    0.00000E+00         0.00000E+00        -0.15227E+08
 
   -0.14195E+08         0.40298E+06         0.00000E+00
    0.40298E+06        -0.31342E+08         0.00000E+00
    0.00000E+00         0.00000E+00        -0.15326E+08
 
   -0.14413E+08         0.43721E+06         0.00000E+00
    0.43721E+06        -0.31697E+08         0.00000E+00
    0.00000E+00         0.00000E+00        -0.15435E+08
 
   -0.14621E+08         0.47099E+06         0.00000E+00
    0.47099E+06        -0.32056E+08         0.00000E+00
    0.00000E+00         0.00000E+00        -0.15551E+08
 
   -0.14820E+08         0.50304E+06         0.00000E+00
    0.50304E+06        -0.32417E+08         0.00000E+00
    0.00000E+00         0.00000E+00        -0.15672E+08
 
   -0.15014E+08         0.53247E+06         0.00000E+00
    0.53247E+06        -0.32782E+08         0.00000E+00
    0.00000E+00         0.00000E+00        -0.15795E+08
 
   -0.15201E+08         0.55886E+06         0.00000E+00
    0.55886E+06        -0.33147E+08         0.00000E+00
    0.00000E+00         0.00000E+00        -0.15921E+08
 
   -0.15385E+08         0.58211E+06         0.00000E+00
    0.58211E+06        -0.33512E+08         0.00000E+00
    0.00000E+00         0.00000E+00        -0.16047E+08
 
   -0.15564E+08         0.60228E+06         0.00000E+00
    0.60228E+06        -0.33878E+08         0.00000E+00
    0.00000E+00         0.00000E+00        -0.16173E+08
 
   -0.15740E+08         0.61949E+06         0.00000E+00
    0.61949E+06        -0.34242E+08         0.00000E+00
    0.00000E+00         0.00000E+00        -0.16297E+08
 
   -0.15913E+08         0.63378E+06         0.00000E+00
    0.63378E+06        -0.34606E+08         0.00000E+00
    0.00000E+00         0.00000E+00        -0.16420E+08
 
   -0.16084E+08         0.64504E+06         0.00000E+00
    0.64504E+06        -0.34970E+08         0.00000E+00
    0.00000E+00         0.00000E+00        -0.16541E+08
 
   -0.16253E+08         0.65292E+06         0.00000E+00
    0.65292E+06        -0.35335E+08         0.00000E+00
    0.00000E+00         0.00000E+00        -0.16660E+08
 
   -0.16419E+08         0.65717E+06         0.00000E+00
    0.65717E+06        -0.35705E+08         0.00000E+00
    0.00000E+00         0.00000E+00        -0.16776E+08
 
   -0.16583E+08         0.65814E+06         0.00000E+00
    0.65814E+06        -0.36081E+08         0.00000E+00
    0.00000E+00         0.00000E+00        -0.16890E+08
 
   -0.16742E+08         0.65598E+06         0.00000E+00
    0.65598E+06        -0.36446E+08         0.00000E+00
    0.00000E+00         0.00000E+00        -0.17021E+08
 
   -0.16899E+08         0.64889E+06         0.00000E+00
    0.64889E+06        -0.36793E+08         0.00000E+00
    0.00000E+00         0.00000E+00        -0.17176E+08
 
   -0.17054E+08         0.64395E+06         0.00000E+00
    0.64395E+06        -0.37142E+08         0.00000E+00
    0.00000E+00         0.00000E+00        -0.17331E+08
 
   -0.17209E+08         0.64152E+06         0.00000E+00
    0.64152E+06        -0.37494E+08         0.00000E+00
    0.00000E+00         0.00000E+00        -0.17483E+08
 
   -0.17365E+08         0.64109E+06         0.00000E+00
    0.64109E+06        -0.37847E+08         0.00000E+00
    0.00000E+00         0.00000E+00        -0.17633E+08
 
   -0.17520E+08         0.64202E+06         0.00000E+00
    0.64202E+06        -0.38201E+08         0.00000E+00
    0.00000E+00         0.00000E+00        -0.17781E+08
 
   -0.17675E+08         0.64378E+06         0.00000E+00
    0.64378E+06        -0.38555E+08         0.00000E+00
    0.00000E+00         0.00000E+00        -0.17927E+08
 
   -0.17831E+08         0.64592E+06         0.00000E+00
    0.64592E+06        -0.38910E+08         0.00000E+00
    0.00000E+00         0.00000E+00        -0.18071E+08
 
   -0.17986E+08         0.64808E+06         0.00000E+00
    0.64808E+06        -0.39265E+08         0.00000E+00
    0.00000E+00         0.00000E+00        -0.18213E+08
 
   -0.18142E+08         0.64989E+06         0.00000E+00
    0.64989E+06        -0.39620E+08         0.00000E+00
    0.00000E+00         0.00000E+00        -0.18352E+08
 
   -0.18298E+08         0.65097E+06         0.00000E+00
    0.65097E+06        -0.39975E+08         0.00000E+00
    0.00000E+00         0.00000E+00        -0.18490E+08
 
   -0.18454E+08         0.65094E+06         0.00000E+00
    0.65094E+06        -0.40332E+08         0.00000E+00
    0.00000E+00         0.00000E+00        -0.18626E+08
 
   -0.18611E+08         0.64967E+06         0.00000E+00
    0.64967E+06        -0.40691E+08         0.00000E+00
    0.00000E+00         0.00000E+00        -0.18760E+08
 
   -0.18768E+08         0.64726E+06         0.00000E+00
    0.64726E+06        -0.41053E+08         0.00000E+00
    0.00000E+00         0.00000E+00        -0.18892E+08
 
   -0.18923E+08         0.64353E+06         0.00000E+00
    0.64353E+06        -0.41412E+08         0.00000E+00
    0.00000E+00         0.00000E+00        -0.19033E+08
 
   -0.19077E+08         0.63472E+06         0.00000E+00
    0.63472E+06        -0.41758E+08         0.00000E+00
    0.00000E+00         0.00000E+00        -0.19191E+08
 
   -0.19233E+08         0.62837E+06         0.00000E+00
    0.62837E+06        -0.42106E+08         0.00000E+00
    0.00000E+00         0.00000E+00        -0.19349E+08
 
   -0.19390E+08         0.62365E+06         0.00000E+00
    0.62365E+06        -0.42454E+08         0.00000E+00
    0.00000E+00         0.00000E+00        -0.19506E+08
 
   -0.19548E+08         0.62003E+06         0.00000E+00
    0.62003E+06        -0.42804E+08         0.00000E+00
    0.00000E+00         0.00000E+00        -0.19662E+08
 
   -0.19708E+08         0.61700E+06         0.00000E+00
    0.61700E+06        -0.43154E+08         0.00000E+00
    0.00000E+00         0.00000E+00        -0.19817E+08
 
   -0.19869E+08         0.61403E+06         0.00000E+00
    0.61403E+06        -0.43505E+08         0.00000E+00
    0.00000E+00         0.00000E+00        -0.19971E+08
 
   -0.20031E+08         0.61067E+06         0.00000E+00
    0.61067E+06        -0.43857E+08         0.00000E+00
    0.00000E+00         0.00000E+00        -0.20124E+08
 
   -0.20195E+08         0.60684E+06         0.00000E+00
    0.60684E+06        -0.44211E+08         0.00000E+00
    0.00000E+00         0.00000E+00        -0.20276E+08
 
   -0.20359E+08         0.60296E+06         0.00000E+00
    0.60296E+06        -0.44567E+08         0.00000E+00
    0.00000E+00         0.00000E+00        -0.20429E+08
 
   -0.20523E+08         0.59630E+06         0.00000E+00
    0.59630E+06        -0.44914E+08         0.00000E+00
    0.00000E+00         0.00000E+00        -0.20593E+08
 
   -0.20688E+08         0.59041E+06         0.00000E+00
    0.59041E+06        -0.45259E+08         0.00000E+00
    0.00000E+00         0.00000E+00        -0.20761E+08
 
   -0.20854E+08         0.58561E+06         0.00000E+00
    0.58561E+06        -0.45605E+08         0.00000E+00
    0.00000E+00         0.00000E+00        -0.20929E+08
 
   -0.21022E+08         0.58169E+06         0.00000E+00
    0.58169E+06        -0.45952E+08         0.00000E+00
    0.00000E+00         0.00000E+00        -0.21096E+08
 
   -0.21191E+08         0.57825E+06         0.00000E+00
    0.57825E+06        -0.46300E+08         0.00000E+00
    0.00000E+00         0.00000E+00        -0.21263E+08
 
   -0.21361E+08         0.57491E+06         0.00000E+00
    0.57491E+06        -0.46648E+08         0.00000E+00
    0.00000E+00         0.00000E+00        -0.21429E+08
 
   -0.21533E+08         0.57140E+06         0.00000E+00
    0.57140E+06        -0.46996E+08         0.00000E+00
    0.00000E+00         0.00000E+00        -0.21595E+08
 
   -0.21705E+08         0.56756E+06         0.00000E+00
    0.56756E+06        -0.47346E+08         0.00000E+00
    0.00000E+00         0.00000E+00        -0.21761E+08
 
   -0.21878E+08         0.56347E+06         0.00000E+00
    0.56347E+06        -0.47695E+08         0.00000E+00
    0.00000E+00         0.00000E+00        -0.21928E+08
 
   -0.22052E+08         0.55886E+06         0.00000E+00
    0.55886E+06        -0.48040E+08         0.00000E+00
    0.00000E+00         0.00000E+00        -0.22101E+08
 
   -0.22226E+08         0.55480E+06         0.00000E+00
    0.55480E+06        -0.48384E+08         0.00000E+00
    0.00000E+00         0.00000E+00        -0.22275E+08
 
   -0.22401E+08         0.55131E+06         0.00000E+00
    0.55131E+06        -0.48729E+08         0.00000E+00
    0.00000E+00         0.00000E+00        -0.22449E+08
 
   -0.22577E+08         0.54826E+06         0.00000E+00
    0.54826E+06        -0.49074E+08         0.00000E+00
    0.00000E+00         0.00000E+00        -0.22622E+08
 
   -0.22754E+08         0.54547E+06         0.00000E+00
    0.54547E+06        -0.49419E+08         0.00000E+00
    0.00000E+00         0.00000E+00        -0.22794E+08
 
   -0.22932E+08         0.54285E+06         0.00000E+00
    0.54285E+06        -0.49765E+08         0.00000E+00
    0.00000E+00         0.00000E+00        -0.22967E+08
 
   -0.23110E+08         0.54029E+06         0.00000E+00
    0.54029E+06        -0.50110E+08         0.00000E+00
    0.00000E+00         0.00000E+00        -0.23139E+08
 
   -0.23289E+08         0.53776E+06         0.00000E+00
    0.53776E+06        -0.50455E+08         0.00000E+00
    0.00000E+00         0.00000E+00        -0.23310E+08
 
   -0.23468E+08         0.53521E+06         0.00000E+00
    0.53521E+06        -0.50799E+08         0.00000E+00
    0.00000E+00         0.00000E+00        -0.23482E+08
 
   -0.23649E+08         0.53258E+06         0.00000E+00
    0.53258E+06        -0.51143E+08         0.00000E+00
    0.00000E+00         0.00000E+00        -0.23654E+08
 
   -0.23834E+08         0.52977E+06         0.00000E+00
    0.52977E+06        -0.51483E+08         0.00000E+00
    0.00000E+00         0.00000E+00        -0.23828E+08
 
   -0.24019E+08         0.52688E+06         0.00000E+00
    0.52688E+06        -0.51823E+08         0.00000E+00
    0.00000E+00         0.00000E+00        -0.24003E+08
 
   -0.24205E+08         0.52390E+06         0.00000E+00
    0.52390E+06        -0.52163E+08         0.00000E+00
    0.00000E+00         0.00000E+00        -0.24177E+08
 
   -0.24391E+08         0.52082E+06         0.00000E+00
    0.52082E+06        -0.52503E+08         0.00000E+00
    0.00000E+00         0.00000E+00        -0.24350E+08
 
   -0.24577E+08         0.51762E+06         0.00000E+00
    0.51762E+06        -0.52843E+08         0.00000E+00
    0.00000E+00         0.00000E+00        -0.24523E+08
 
   -0.24765E+08         0.51427E+06         0.00000E+00
    0.51427E+06        -0.53183E+08         0.00000E+00
    0.00000E+00         0.00000E+00        -0.24695E+08
 
   -0.24952E+08         0.51076E+06         0.00000E+00
    0.51076E+06        -0.53523E+08         0.00000E+00
    0.00000E+00         0.00000E+00        -0.24867E+08
 
   -0.25141E+08         0.50704E+06         0.00000E+00
    0.50704E+06        -0.53863E+08         0.00000E+00
    0.00000E+00         0.00000E+00        -0.25038E+08
 
   -0.25330E+08         0.50307E+06         0.00000E+00
    0.50307E+06        -0.54203E+08         0.00000E+00
    0.00000E+00         0.00000E+00        -0.25209E+08
 
   -0.25520E+08         0.49879E+06         0.00000E+00
    0.49879E+06        -0.54543E+08         0.00000E+00
    0.00000E+00         0.00000E+00        -0.25379E+08
 
   -0.25712E+08         0.49411E+06         0.00000E+00
    0.49411E+06        -0.54884E+08         0.00000E+00
    0.00000E+00         0.00000E+00        -0.25547E+08
 
   -0.25904E+08         0.48893E+06         0.00000E+00
    0.48893E+06        -0.55225E+08         0.00000E+00
    0.00000E+00         0.00000E+00        -0.25715E+08
 
   -0.26098E+08         0.48309E+06         0.00000E+00
    0.48309E+06        -0.55566E+08         0.00000E+00
    0.00000E+00         0.00000E+00        -0.25882E+08
 
   -0.26293E+08         0.47642E+06         0.00000E+00
    0.47642E+06        -0.55907E+08         0.00000E+00
    0.00000E+00         0.00000E+00        -0.26048E+08
 
   -0.26491E+08         0.46867E+06         0.00000E+00
    0.46867E+06        -0.56249E+08         0.00000E+00
    0.00000E+00         0.00000E+00        -0.26213E+08
 
   -0.26690E+08         0.45956E+06         0.00000E+00
    0.45956E+06        -0.56592E+08         0.00000E+00
    0.00000E+00         0.00000E+00        -0.26376E+08
 
   -0.26892E+08         0.44874E+06         0.00000E+00
    0.44874E+06        -0.56936E+08         0.00000E+00
    0.00000E+00         0.00000E+00        -0.26538E+08
 
   -0.27097E+08         0.43581E+06         0.00000E+00
    0.43581E+06        -0.57281E+08         0.00000E+00
    0.00000E+00         0.00000E+00        -0.26698E+08
 
   -0.27305E+08         0.42030E+06         0.00000E+00
    0.42030E+06        -0.57627E+08         0.00000E+00
    0.00000E+00         0.00000E+00        -0.26856E+08
 
   -0.27517E+08         0.40173E+06         0.00000E+00
    0.40173E+06        -0.57974E+08         0.00000E+00
    0.00000E+00         0.00000E+00        -0.27011E+08
 
   -0.27734E+08         0.37960E+06         0.00000E+00
    0.37960E+06        -0.58322E+08         0.00000E+00
    0.00000E+00         0.00000E+00        -0.27163E+08
 
   -0.27956E+08         0.35345E+06         0.00000E+00
    0.35345E+06        -0.58672E+08         0.00000E+00
    0.00000E+00         0.00000E+00        -0.27311E+08
 
   -0.28183E+08         0.32291E+06         0.00000E+00
    0.32291E+06        -0.59022E+08         0.00000E+00
    0.00000E+00         0.00000E+00        -0.27455E+08
 
   -0.28417E+08         0.28781E+06         0.00000E+00
    0.28781E+06        -0.59372E+08         0.00000E+00
    0.00000E+00         0.00000E+00        -0.27593E+08
 
   -0.28658E+08         0.24829E+06         0.00000E+00
    0.24829E+06        -0.59722E+08         0.00000E+00
    0.00000E+00         0.00000E+00        -0.27723E+08
 
   -0.28909E+08         0.20493E+06         0.00000E+00
    0.20493E+06        -0.60070E+08         0.00000E+00
    0.00000E+00         0.00000E+00        -0.27844E+08
 
   -0.29169E+08         0.15892E+06         0.00000E+00
    0.15892E+06        -0.60416E+08         0.00000E+00
    0.00000E+00         0.00000E+00        -0.27955E+08
 
   -0.29441E+08         0.11214E+06         0.00000E+00
    0.11214E+06        -0.60760E+08         0.00000E+00
    0.00000E+00         0.00000E+00        -0.28053E+08
 
   -0.29725E+08         0.67412E+05         0.00000E+00
    0.67412E+05        -0.61102E+08         0.00000E+00
    0.00000E+00         0.00000E+00        -0.28140E+08
 
   -0.30019E+08         0.29241E+05         0.00000E+00
    0.29241E+05        -0.61439E+08         0.00000E+00
    0.00000E+00         0.00000E+00        -0.28214E+08
 
   -0.30322E+08         0.33062E+04         0.00000E+00
    0.33062E+04        -0.61767E+08         0.00000E+00
    0.00000E+00         0.00000E+00        -0.28273E+08
 
   -0.30634E+08        -0.68132E+04         0.00000E+00
   -0.68132E+04        -0.62076E+08         0.00000E+00
    0.00000E+00         0.00000E+00        -0.28307E+08
 
   -0.30957E+08        -0.38765E+04         0.00000E+00
   -0.38765E+04        -0.62354E+08         0.00000E+00
    0.00000E+00         0.00000E+00        -0.28304E+08
 
   -0.11194E+08        -0.12233E+05         0.00000E+00
   -0.12233E+05        -0.27774E+08         0.00000E+00
    0.00000E+00         0.00000E+00        -0.15185E+08
 
   -0.11552E+08        -0.26433E+05         0.00000E+00
   -0.26433E+05        -0.28110E+08         0.00000E+00
    0.00000E+00         0.00000E+00        -0.15071E+08
 
   -0.11905E+08        -0.10207E+05         0.00000E+00
   -0.10207E+05        -0.28430E+08         0.00000E+00
    0.00000E+00         0.00000E+00        -0.15012E+08
 
   -0.12248E+08         0.42218E+05         0.00000E+00
    0.42218E+05        -0.28767E+08         0.00000E+00
    0.00000E+00         0.00000E+00        -0.14989E+08
 
   -0.12577E+08         0.11409E+06         0.00000E+00
    0.11409E+06        -0.29129E+08         0.00000E+00
    0.00000E+00         0.00000E+00        -0.14988E+08
 
   -0.12888E+08         0.18355E+06         0.00000E+00
    0.18355E+06        -0.29509E+08         0.00000E+00
    0.00000E+00         0.00000E+00        -0.15005E+08
 
   -0.13178E+08         0.23919E+06         0.00000E+00
    0.23919E+06        -0.29893E+08         0.00000E+00
    0.00000E+00         0.00000E+00        -0.15040E+08
 
   -0.13450E+08         0.28082E+06         0.00000E+00
    0.28082E+06        -0.30270E+08         0.00000E+00
    0.00000E+00         0.00000E+00        -0.15092E+08
 
   -0.13707E+08         0.31396E+06         0.00000E+00
    0.31396E+06        -0.30636E+08         0.00000E+00
    0.00000E+00         0.00000E+00        -0.15160E+08
 
   -0.13950E+08         0.34449E+06         0.00000E+00
    0.34449E+06        -0.30994E+08         0.00000E+00
    0.00000E+00         0.00000E+00        -0.15243E+08
 
   -0.14180E+08         0.37560E+06         0.00000E+00
    0.37560E+06        -0.31348E+08         0.00000E+00
    0.00000E+00         0.00000E+00        -0.15338E+08
 
   -0.14399E+08         0.40768E+06         0.00000E+00
    0.40768E+06        -0.31704E+08         0.00000E+00
    0.00000E+00         0.00000E+00        -0.15443E+08
 
   -0.14607E+08         0.43967E+06         0.00000E+00
    0.43967E+06        -0.32062E+08         0.00000E+00
    0.00000E+00         0.00000E+00        -0.15555E+08
 
   -0.14808E+08         0.47027E+06         0.00000E+00
    0.47027E+06        -0.32424E+08         0.00000E+00
    0.00000E+00         0.00000E+00        -0.15672E+08
 
   -0.15001E+08         0.49854E+06         0.00000E+00
    0.49854E+06        -0.32787E+08         0.00000E+00
    0.00000E+00         0.00000E+00        -0.15793E+08
 
   -0.15189E+08         0.52397E+06         0.00000E+00
    0.52397E+06        -0.33152E+08         0.00000E+00
    0.00000E+00         0.00000E+00        -0.15917E+08
 
   -0.15372E+08         0.54640E+06         0.00000E+00
    0.54640E+06        -0.33517E+08         0.00000E+00
    0.00000E+00         0.00000E+00        -0.16041E+08
 
   -0.15551E+08         0.56588E+06         0.00000E+00
    0.56588E+06        -0.33881E+08         0.00000E+00
    0.00000E+00         0.00000E+00        -0.16165E+08
 
   -0.15727E+08         0.58251E+06         0.00000E+00
    0.58251E+06        -0.34245E+08         0.00000E+00
    0.00000E+00         0.00000E+00        -0.16289E+08
 
   -0.15899E+08         0.59634E+06         0.00000E+00
    0.59634E+06        -0.34608E+08         0.00000E+00
    0.00000E+00         0.00000E+00        -0.16411E+08
 
   -0.16069E+08         0.60724E+06         0.00000E+00
    0.60724E+06        -0.34972E+08         0.00000E+00
    0.00000E+00         0.00000E+00        -0.16532E+08
 
   -0.16238E+08         0.61482E+06         0.00000E+00
    0.61482E+06        -0.35336E+08         0.00000E+00
    0.00000E+00         0.00000E+00        -0.16650E+08
 
   -0.16404E+08         0.61863E+06         0.00000E+00
    0.61863E+06        -0.35705E+08         0.00000E+00
    0.00000E+00         0.00000E+00        -0.16766E+08
 
   -0.16568E+08         0.61899E+06         0.00000E+00
    0.61899E+06        -0.36081E+08         0.00000E+00
    0.00000E+00         0.00000E+00        -0.16880E+08
 
   -0.16727E+08         0.61586E+06         0.00000E+00
    0.61586E+06        -0.36445E+08         0.00000E+00
    0.00000E+00         0.00000E+00        -0.17012E+08
 
   -0.16883E+08         0.60869E+06         0.00000E+00
    0.60869E+06        -0.36791E+08         0.00000E+00
    0.00000E+00         0.00000E+00        -0.17168E+08
 
   -0.17039E+08         0.60368E+06         0.00000E+00
    0.60368E+06        -0.37141E+08         0.00000E+00
    0.00000E+00         0.00000E+00        -0.17322E+08
 
   -0.17195E+08         0.60132E+06         0.00000E+00
    0.60132E+06        -0.37493E+08         0.00000E+00
    0.00000E+00         0.00000E+00        -0.17475E+08
 
   -0.17351E+08         0.60098E+06         0.00000E+00
    0.60098E+06        -0.37847E+08         0.00000E+00
    0.00000E+00         0.00000E+00        -0.17625E+08
 
   -0.17507E+08         0.60200E+06         0.00000E+00
    0.60200E+06        -0.38201E+08         0.00000E+00
    0.00000E+00         0.00000E+00        -0.17773E+08
 
   -0.17662E+08         0.60382E+06         0.00000E+00
    0.60382E+06        -0.38556E+08         0.00000E+00
    0.00000E+00         0.00000E+00        -0.17919E+08
 
   -0.17818E+08         0.60603E+06         0.00000E+00
    0.60603E+06        -0.38910E+08         0.00000E+00
    0.00000E+00         0.00000E+00        -0.18063E+08
 
   -0.17974E+08         0.60828E+06         0.00000E+00
    0.60828E+06        -0.39265E+08         0.00000E+00
    0.00000E+00         0.00000E+00        -0.18206E+08
 
   -0.18130E+08         0.61022E+06         0.00000E+00
    0.61022E+06        -0.39620E+08         0.00000E+00
    0.00000E+00         0.00000E+00        -0.18346E+08
 
   -0.18287E+08         0.61146E+06         0.00000E+00
    0.61146E+06        -0.39975E+08         0.00000E+00
    0.00000E+00         0.00000E+00        -0.18484E+08
 
   -0.18444E+08         0.61157E+06         0.00000E+00
    0.61157E+06        -0.40332E+08         0.00000E+00
    0.00000E+00         0.00000E+00        -0.18620E+08
 
   -0.18601E+08         0.61039E+06         0.00000E+00
    0.61039E+06        -0.40690E+08         0.00000E+00
    0.00000E+00         0.00000E+00        -0.18754E+08
 
   -0.18757E+08         0.60801E+06         0.00000E+00
    0.60801E+06        -0.41052E+08         0.00000E+00
    0.00000E+00         0.00000E+00        -0.18886E+08
 
   -0.18913E+08         0.60382E+06         0.00000E+00
    0.60382E+06        -0.41411E+08         0.00000E+00
    0.00000E+00         0.00000E+00        -0.19029E+08
 
   -0.19068E+08         0.59530E+06         0.00000E+00
    0.59530E+06        -0.41757E+08         0.00000E+00
    0.00000E+00         0.00000E+00        -0.19187E+08
 
   -0.19224E+08         0.58926E+06         0.00000E+00
    0.58926E+06        -0.42105E+08         0.00000E+00
    0.00000E+00         0.00000E+00        -0.19345E+08
 
   -0.19381E+08         0.58489E+06         0.00000E+00
    0.58489E+06        -0.42453E+08         0.00000E+00
    0.00000E+00         0.00000E+00        -0.19503E+08
 
   -0.19540E+08         0.58163E+06         0.00000E+00
    0.58163E+06        -0.42803E+08         0.00000E+00
    0.00000E+00         0.00000E+00        -0.19659E+08
 
   -0.19700E+08         0.57896E+06         0.00000E+00
    0.57896E+06        -0.43153E+08         0.00000E+00
    0.00000E+00         0.00000E+00        -0.19814E+08
 
   -0.19862E+08         0.57634E+06         0.00000E+00
    0.57634E+06        -0.43504E+08         0.00000E+00
    0.00000E+00         0.00000E+00        -0.19968E+08
 
   -0.20025E+08         0.57328E+06         0.00000E+00
    0.57328E+06        -0.43856E+08         0.00000E+00
    0.00000E+00         0.00000E+00        -0.20121E+08
 
   -0.20188E+08         0.56967E+06         0.00000E+00
    0.56967E+06        -0.44210E+08         0.00000E+00
    0.00000E+00         0.00000E+00        -0.20274E+08
 
   -0.20353E+08         0.56593E+06         0.00000E+00
    0.56593E+06        -0.44566E+08         0.00000E+00
    0.00000E+00         0.00000E+00        -0.20427E+08
 
   -0.20517E+08         0.55936E+06         0.00000E+00
    0.55936E+06        -0.44913E+08         0.00000E+00
    0.00000E+00         0.00000E+00        -0.20591E+08
 
   -0.20683E+08         0.55377E+06         0.00000E+00
    0.55377E+06        -0.45258E+08         0.00000E+00
    0.00000E+00         0.00000E+00        -0.20759E+08
 
   -0.20849E+08         0.54933E+06         0.00000E+00
    0.54933E+06        -0.45604E+08         0.00000E+00
    0.00000E+00         0.00000E+00        -0.20927E+08
 
   -0.21017E+08         0.54576E+06         0.00000E+00
    0.54576E+06        -0.45951E+08         0.00000E+00
    0.00000E+00         0.00000E+00        -0.21094E+08
 
   -0.21187E+08         0.54265E+06         0.00000E+00
    0.54265E+06        -0.46299E+08         0.00000E+00
    0.00000E+00         0.00000E+00        -0.21261E+08
 
   -0.21357E+08         0.53962E+06         0.00000E+00
    0.53962E+06        -0.46647E+08         0.00000E+00
    0.00000E+00         0.00000E+00        -0.21427E+08
 
   -0.21529E+08         0.53638E+06         0.00000E+00
    0.53638E+06        -0.46996E+08         0.00000E+00
    0.00000E+00         0.00000E+00        -0.21593E+08
 
   -0.21702E+08         0.53274E+06         0.00000E+00
    0.53274E+06        -0.47346E+08         0.00000E+00
    0.00000E+00         0.00000E+00        -0.21759E+08
 
   -0.21875E+08         0.52880E+06         0.00000E+00
    0.52880E+06        -0.47694E+08         0.00000E+00
    0.00000E+00         0.00000E+00        -0.21926E+08
 
   -0.22049E+08         0.52437E+06         0.00000E+00
    0.52437E+06        -0.48039E+08         0.00000E+00
    0.00000E+00         0.00000E+00        -0.22100E+08
 
   -0.22224E+08         0.52053E+06         0.00000E+00
    0.52053E+06        -0.48383E+08         0.00000E+00
    0.00000E+00         0.00000E+00        -0.22273E+08
 
   -0.22399E+08         0.51727E+06         0.00000E+00
    0.51727E+06        -0.48728E+08         0.00000E+00
    0.00000E+00         0.00000E+00        -0.22447E+08
 
   -0.22576E+08         0.51444E+06         0.00000E+00
    0.51444E+06        -0.49074E+08         0.00000E+00
    0.00000E+00         0.00000E+00        -0.22620E+08
 
   -0.22753E+08         0.51186E+06         0.00000E+00
    0.51186E+06        -0.49419E+08         0.00000E+00
    0.00000E+00         0.00000E+00        -0.22792E+08
 
   -0.22931E+08         0.50943E+06         0.00000E+00
    0.50943E+06        -0.49764E+08         0.00000E+00
    0.00000E+00         0.00000E+00        -0.22964E+08
 
   -0.23109E+08         0.50705E+06         0.00000E+00
    0.50705E+06        -0.50109E+08         0.00000E+00
    0.00000E+00         0.00000E+00        -0.23136E+08
 
   -0.23288E+08         0.50469E+06         0.00000E+00
    0.50469E+06        -0.50454E+08         0.00000E+00
    0.00000E+00         0.00000E+00        -0.23308E+08
 
   -0.23468E+08         0.50230E+06         0.00000E+00
    0.50230E+06        -0.50799E+08         0.00000E+00
    0.00000E+00         0.00000E+00        -0.23479E+08
 
   -0.23649E+08         0.49983E+06         0.00000E+00
    0.49983E+06        -0.51142E+08         0.00000E+00
    0.00000E+00         0.00000E+00        -0.23651E+08
 
   -0.23834E+08         0.49719E+06         0.00000E+00
    0.49719E+06        -0.51483E+08         0.00000E+00
    0.00000E+00         0.00000E+00        -0.23825E+08
 
   -0.24019E+08         0.49447E+06         0.00000E+00
    0.49447E+06        -0.51823E+08         0.00000E+00
    0.00000E+00         0.00000E+00        -0.23999E+08
 
   -0.24205E+08         0.49166E+06         0.00000E+00
    0.49166E+06        -0.52163E+08         0.00000E+00
    0.00000E+00         0.00000E+00        -0.24173E+08
 
   -0.24392E+08         0.48875E+06         0.00000E+00
    0.48875E+06        -0.52503E+08         0.00000E+00
    0.00000E+00         0.00000E+00        -0.24346E+08
 
   -0.24579E+08         0.48573E+06         0.00000E+00
    0.48573E+06        -0.52843E+08         0.00000E+00
    0.00000E+00         0.00000E+00        -0.24519E+08
 
   -0.24766E+08         0.48257E+06         0.00000E+00
    0.48257E+06        -0.53183E+08         0.00000E+00
    0.00000E+00         0.00000E+00        -0.24691E+08
 
   -0.24954E+08         0.47926E+06         0.00000E+00
    0.47926E+06        -0.53523E+08         0.00000E+00
    0.00000E+00         0.00000E+00        -0.24863E+08
 
   -0.25143E+08         0.47576E+06         0.00000E+00
    0.47576E+06        -0.53863E+08         0.00000E+00
    0.00000E+00         0.00000E+00        -0.25034E+08
 
   -0.25333E+08         0.47203E+06         0.00000E+00
    0.47203E+06        -0.54203E+08         0.00000E+00
    0.00000E+00         0.00000E+00        -0.25204E+08
 
   -0.25523E+08         0.46801E+06         0.00000E+00
    0.46801E+06        -0.54543E+08         0.00000E+00
    0.00000E+00         0.00000E+00        -0.25373E+08
 
   -0.25715E+08         0.46361E+06         0.00000E+00
    0.46361E+06        -0.54883E+08         0.00000E+00
    0.00000E+00         0.00000E+00        -0.25542E+08
 
   -0.25907E+08         0.45875E+06         0.00000E+00
    0.45875E+06        -0.55224E+08         0.00000E+00
    0.00000E+00         0.00000E+00        -0.25710E+08
 
   -0.26102E+08         0.45328E+06         0.00000E+00
    0.45328E+06        -0.55565E+08         0.00000E+00
    0.00000E+00         0.00000E+00        -0.25876E+08
 
   -0.26297E+08         0.44701E+06         0.00000E+00
    0.44701E+06        -0.55906E+08         0.00000E+00
    0.00000E+00         0.00000E+00        -0.26042E+08
 
   -0.26495E+08         0.43973E+06         0.00000E+00
    0.43973E+06        -0.56248E+08         0.00000E+00
    0.00000E+00         0.00000E+00        -0.26206E+08
 
   -0.26695E+08         0.43115E+06         0.00000E+00
    0.43115E+06        -0.56591E+08         0.00000E+00
    0.00000E+00         0.00000E+00        -0.26369E+08
 
   -0.26897E+08         0.42094E+06         0.00000E+00
    0.42094E+06        -0.56934E+08         0.00000E+00
    0.00000E+00         0.00000E+00        -0.26530E+08
 
   -0.27102E+08         0.40871E+06         0.00000E+00
    0.40871E+06        -0.57279E+08         0.00000E+00
    0.00000E+00         0.00000E+00        -0.26689E+08
 
   -0.27311E+08         0.39400E+06         0.00000E+00
    0.39400E+06        -0.57624E+08         0.00000E+00
    0.00000E+00         0.00000E+00        -0.26845E+08
 
   -0.27524E+08         0.37634E+06         0.00000E+00
    0.37634E+06        -0.57970E+08         0.00000E+00
    0.00000E+00         0.00000E+00        -0.27000E+08
 
   -0.27741E+08         0.35524E+06         0.00000E+00
    0.35524E+06        -0.58318E+08         0.00000E+00
    0.00000E+00         0.00000E+00        -0.27150E+08
 
   -0.27964E+08         0.33027E+06         0.00000E+00
    0.33027E+06        -0.58667E+08         0.00000E+00
    0.00000E+00         0.00000E+00        -0.27297E+08
 
   -0.28192E+08         0.30110E+06         0.00000E+00
    0.30110E+06        -0.59016E+08         0.00000E+00
    0.00000E+00         0.00000E+00        -0.27439E+08
 
   -0.28428E+08         0.26758E+06         0.00000E+00
    0.26758E+06        -0.59365E+08         0.00000E+00
    0.00000E+00         0.00000E+00        -0.27575E+08
 
   -0.28671E+08         0.22990E+06         0.00000E+00
    0.22990E+06        -0.59714E+08         0.00000E+00
    0.00000E+00         0.00000E+00        -0.27703E+08
 
   -0.28924E+08         0.18867E+06         0.00000E+00
    0.18867E+06        -0.60062E+08         0.00000E+00
    0.00000E+00         0.00000E+00        -0.27821E+08
 
   -0.29187E+08         0.14509E+06         0.00000E+00
    0.14509E+06        -0.60408E+08         0.00000E+00
    0.00000E+00         0.00000E+00        -0.27929E+08
 
   -0.29462E+08         0.10090E+06         0.00000E+00
    0.10090E+06        -0.60752E+08         0.00000E+00
    0.00000E+00         0.00000E+00        -0.28025E+08
 
   -0.29750E+08         0.58552E+05         0.00000E+00
    0.58552E+05        -0.61094E+08         0.00000E+00
    0.00000E+00         0.00000E+00        -0.28109E+08
 
   -0.30048E+08         0.22097E+05         0.00000E+00
    0.22097E+05        -0.61433E+08         0.00000E+00
    0.00000E+00         0.00000E+00        -0.28183E+08
 
   -0.30353E+08        -0.25913E+04         0.00000E+00
   -0.25913E+04        -0.61764E+08         0.00000E+00
    0.00000E+00         0.00000E+00        -0.28243E+08
 
   -0.30666E+08        -0.11060E+05         0.00000E+00
   -0.11060E+05        -0.62076E+08         0.00000E+00
    0.00000E+00         0.00000E+00        -0.28280E+08
 
   -0.30990E+08        -0.54701E+04         0.00000E+00
   -0.54701E+04        -0.62357E+08         0.00000E+00
    0.00000E+00         0.00000E+00        -0.28278E+08
 
   -0.11144E+08        -0.12313E+05         0.00000E+00
   -0.12313E+05        -0.27769E+08         0.00000E+00
    0.00000E+00         0.00000E+00        -0.15211E+08
 
   -0.11505E+08        -0.27107E+05         0.00000E+00
   -0.27107E+05        -0.28109E+08         0.00000E+00
    0.00000E+00         0.00000E+00        -0.15104E+08
 
   -0.11863E+08        -0.12091E+05         0.00000E+00
   -0.12091E+05        -0.28437E+08         0.00000E+00
    0.00000E+00         0.00000E+00        -0.15051E+08
 
   -0.12214E+08         0.38141E+05         0.00000E+00
    0.38141E+05        -0.28780E+08         0.00000E+00
    0.00000E+00         0.00000E+00        -0.15030E+08
 
   -0.12550E+08         0.10645E+06         0.00000E+00
    0.10645E+06        -0.29144E+08         0.00000E+00
    0.00000E+00         0.00000E+00        -0.15028E+08
 
   -0.12865E+08         0.17161E+06         0.00000E+00
    0.17161E+06        -0.29522E+08         0.00000E+00
    0.00000E+00         0.00000E+00        -0.15041E+08
 
   -0.13158E+08         0.22322E+06         0.00000E+00
    0.22322E+06        -0.29902E+08         0.00000E+00
    0.00000E+00         0.00000E+00        -0.15071E+08
 
   -0.13432E+08         0.26149E+06         0.00000E+00
    0.26149E+06        -0.30277E+08         0.00000E+00
    0.00000E+00         0.00000E+00        -0.15118E+08
 
   -0.13690E+08         0.29178E+06         0.00000E+00
    0.29178E+06        -0.30642E+08         0.00000E+00
    0.00000E+00         0.00000E+00        -0.15181E+08
 
   -0.13934E+08         0.31971E+06         0.00000E+00
    0.31971E+06        -0.31000E+08         0.00000E+00
    0.00000E+00         0.00000E+00        -0.15259E+08
 
   -0.14165E+08         0.34840E+06         0.00000E+00
    0.34840E+06        -0.31354E+08         0.00000E+00
    0.00000E+00         0.00000E+00        -0.15349E+08
 
   -0.14384E+08         0.37833E+06         0.00000E+00
    0.37833E+06        -0.31710E+08         0.00000E+00
    0.00000E+00         0.00000E+00        -0.15449E+08
 
   -0.14594E+08         0.40850E+06         0.00000E+00
    0.40850E+06        -0.32068E+08         0.00000E+00
    0.00000E+00         0.00000E+00        -0.15558E+08
 
   -0.14795E+08         0.43761E+06         0.00000E+00
    0.43761E+06        -0.32429E+08         0.00000E+00
    0.00000E+00         0.00000E+00        -0.15672E+08
 
   -0.14989E+08         0.46466E+06         0.00000E+00
    0.46466E+06        -0.32792E+08         0.00000E+00
    0.00000E+00         0.00000E+00        -0.15791E+08
 
   -0.15177E+08         0.48907E+06         0.00000E+00
    0.48907E+06        -0.33157E+08         0.00000E+00
    0.00000E+00         0.00000E+00        -0.15912E+08
 
   -0.15360E+08         0.51065E+06         0.00000E+00
    0.51065E+06        -0.33521E+08         0.00000E+00
    0.00000E+00         0.00000E+00        -0.16035E+08
 
   -0.15539E+08         0.52940E+06         0.00000E+00
    0.52940E+06        -0.33885E+08         0.00000E+00
    0.00000E+00         0.00000E+00        -0.16158E+08
 
   -0.15714E+08         0.54542E+06         0.00000E+00
    0.54542E+06        -0.34248E+08         0.00000E+00
    0.00000E+00         0.00000E+00        -0.16281E+08
 
   -0.15886E+08         0.55878E+06         0.00000E+00
    0.55878E+06        -0.34611E+08         0.00000E+00
    0.00000E+00         0.00000E+00        -0.16402E+08
 
   -0.16055E+08         0.56934E+06         0.00000E+00
    0.56934E+06        -0.34974E+08         0.00000E+00
    0.00000E+00         0.00000E+00        -0.16523E+08
 
   -0.16223E+08         0.57664E+06         0.00000E+00
    0.57664E+06        -0.35338E+08         0.00000E+00
    0.00000E+00         0.00000E+00        -0.16641E+08
 
   -0.16389E+08         0.58005E+06         0.00000E+00
    0.58005E+06        -0.35705E+08         0.00000E+00
    0.00000E+00         0.00000E+00        -0.16757E+08
 
   -0.16552E+08         0.57982E+06         0.00000E+00
    0.57982E+06        -0.36080E+08         0.00000E+00
    0.00000E+00         0.00000E+00        -0.16870E+08
 
   -0.16712E+08         0.57574E+06         0.00000E+00
    0.57574E+06        -0.36444E+08         0.00000E+00
    0.00000E+00         0.00000E+00        -0.17003E+08
 
   -0.16868E+08         0.56850E+06         0.00000E+00
    0.56850E+06        -0.36790E+08         0.00000E+00
    0.00000E+00         0.00000E+00        -0.17160E+08
 
   -0.17024E+08         0.56349E+06         0.00000E+00
    0.56349E+06        -0.37141E+08         0.00000E+00
    0.00000E+00         0.00000E+00        -0.17314E+08
 
   -0.17180E+08         0.56123E+06         0.00000E+00
    0.56123E+06        -0.37493E+08         0.00000E+00
    0.00000E+00         0.00000E+00        -0.17467E+08
 
   -0.17337E+08         0.56100E+06         0.00000E+00
    0.56100E+06        -0.37847E+08         0.00000E+00
    0.00000E+00         0.00000E+00        -0.17617E+08
 
   -0.17493E+08         0.56209E+06         0.00000E+00
    0.56209E+06        -0.38201E+08         0.00000E+00
    0.00000E+00         0.00000E+00        -0.17766E+08
 
   -0.17650E+08         0.56398E+06         0.00000E+00
    0.56398E+06        -0.38556E+08         0.00000E+00
    0.00000E+00         0.00000E+00        -0.17912E+08
 
   -0.17806E+08         0.56624E+06         0.00000E+00
    0.56624E+06        -0.38911E+08         0.00000E+00
    0.00000E+00         0.00000E+00        -0.18056E+08
 
   -0.17963E+08         0.56856E+06         0.00000E+00
    0.56856E+06        -0.39266E+08         0.00000E+00
    0.00000E+00         0.00000E+00        -0.18199E+08
 
   -0.18119E+08         0.57062E+06         0.00000E+00
    0.57062E+06        -0.39620E+08         0.00000E+00
    0.00000E+00         0.00000E+00        -0.18339E+08
 
   -0.18276E+08         0.57200E+06         0.00000E+00
    0.57200E+06        -0.39976E+08         0.00000E+00
    0.00000E+00         0.00000E+00        -0.18477E+08
 
   -0.18433E+08         0.57227E+06         0.00000E+00
    0.57227E+06        -0.40332E+08         0.00000E+00
    0.00000E+00         0.00000E+00        -0.18614E+08
 
   -0.18590E+08         0.57115E+06         0.00000E+00
    0.57115E+06        -0.40690E+08         0.00000E+00
    0.00000E+00         0.00000E+00        -0.18748E+08
 
   -0.18747E+08         0.56884E+06         0.00000E+00
    0.56884E+06        -0.41052E+08         0.00000E+00
    0.00000E+00         0.00000E+00        -0.18881E+08
 
   -0.18903E+08         0.56411E+06         0.00000E+00
    0.56411E+06        -0.41409E+08         0.00000E+00
    0.00000E+00         0.00000E+00        -0.19024E+08
 
   -0.19058E+08         0.55602E+06         0.00000E+00
    0.55602E+06        -0.41756E+08         0.00000E+00
    0.00000E+00         0.00000E+00        -0.19184E+08
 
   -0.19215E+08         0.55025E+06         0.00000E+00
    0.55025E+06        -0.42104E+08         0.00000E+00
    0.00000E+00         0.00000E+00        -0.19342E+08
 
   -0.19373E+08         0.54622E+06         0.00000E+00
    0.54622E+06        -0.42453E+08         0.00000E+00
    0.00000E+00         0.00000E+00        -0.19499E+08
 
   -0.19532E+08         0.54333E+06         0.00000E+00
    0.54333E+06        -0.42803E+08         0.00000E+00
    0.00000E+00         0.00000E+00        -0.19655E+08
 
   -0.19693E+08         0.54102E+06         0.00000E+00
    0.54102E+06        -0.43153E+08         0.00000E+00
    0.00000E+00         0.00000E+00        -0.19811E+08
 
   -0.19855E+08         0.53874E+06         0.00000E+00
    0.53874E+06        -0.43504E+08         0.00000E+00
    0.00000E+00         0.00000E+00        -0.19965E+08
 
   -0.20018E+08         0.53598E+06         0.00000E+00
    0.53598E+06        -0.43856E+08         0.00000E+00
    0.00000E+00         0.00000E+00        -0.20118E+08
 
   -0.20182E+08         0.53259E+06         0.00000E+00
    0.53259E+06        -0.44210E+08         0.00000E+00
    0.00000E+00         0.00000E+00        -0.20271E+08
 
   -0.20347E+08         0.52895E+06         0.00000E+00
    0.52895E+06        -0.44565E+08         0.00000E+00
    0.00000E+00         0.00000E+00        -0.20425E+08
 
   -0.20512E+08         0.52250E+06         0.00000E+00
    0.52250E+06        -0.44912E+08         0.00000E+00
    0.00000E+00         0.00000E+00        -0.20589E+08
 
   -0.20678E+08         0.51721E+06         0.00000E+00
    0.51721E+06        -0.45257E+08         0.00000E+00
    0.00000E+00         0.00000E+00        -0.20758E+08
 
   -0.20844E+08         0.51312E+06         0.00000E+00
    0.51312E+06        -0.45603E+08         0.00000E+00
    0.00000E+00         0.00000E+00        -0.20925E+08
 
   -0.21013E+08         0.50989E+06         0.00000E+00
    0.50989E+06        -0.45951E+08         0.00000E+00
    0.00000E+00         0.00000E+00        -0.21093E+08
 
   -0.21183E+08         0.50711E+06         0.00000E+00
    0.50711E+06        -0.46298E+08         0.00000E+00
    0.00000E+00         0.00000E+00        -0.21259E+08
 
   -0.21354E+08         0.50440E+06         0.00000E+00
    0.50440E+06        -0.46646E+08         0.00000E+00
    0.00000E+00         0.00000E+00        -0.21426E+08
 
   -0.21526E+08         0.50142E+06         0.00000E+00
    0.50142E+06        -0.46995E+08         0.00000E+00
    0.00000E+00         0.00000E+00        -0.21592E+08
 
   -0.21699E+08         0.49799E+06         0.00000E+00
    0.49799E+06        -0.47345E+08         0.00000E+00
    0.00000E+00         0.00000E+00        -0.21757E+08
 
   -0.21873E+08         0.49419E+06         0.00000E+00
    0.49419E+06        -0.47694E+08         0.00000E+00
    0.00000E+00         0.00000E+00        -0.21925E+08
 
   -0.22047E+08         0.48994E+06         0.00000E+00
    0.48994E+06        -0.48038E+08         0.00000E+00
    0.00000E+00         0.00000E+00        -0.22098E+08
 
   -0.22222E+08         0.48631E+06         0.00000E+00
    0.48631E+06        -0.48382E+08         0.00000E+00
    0.00000E+00         0.00000E+00        -0.22272E+08
 
   -0.22397E+08         0.48329E+06         0.00000E+00
    0.48329E+06        -0.48728E+08         0.00000E+00
    0.00000E+00         0.00000E+00        -0.22445E+08
 
   -0.22574E+08         0.48068E+06         0.00000E+00
    0.48068E+06        -0.49073E+08         0.00000E+00
    0.00000E+00         0.00000E+00        -0.22618E+08
 
   -0.22751E+08         0.47831E+06         0.00000E+00
    0.47831E+06        -0.49418E+08         0.00000E+00
    0.00000E+00         0.00000E+00        -0.22790E+08
 
   -0.22930E+08         0.47606E+06         0.00000E+00
    0.47606E+06        -0.49764E+08         0.00000E+00
    0.00000E+00         0.00000E+00        -0.22962E+08
 
   -0.23108E+08         0.47387E+06         0.00000E+00
    0.47387E+06        -0.50109E+08         0.00000E+00
    0.00000E+00         0.00000E+00        -0.23134E+08
 
   -0.23288E+08         0.47167E+06         0.00000E+00
    0.47167E+06        -0.50454E+08         0.00000E+00
    0.00000E+00         0.00000E+00        -0.23305E+08
 
   -0.23468E+08         0.46944E+06         0.00000E+00
    0.46944E+06        -0.50798E+08         0.00000E+00
    0.00000E+00         0.00000E+00        -0.23477E+08
 
   -0.23650E+08         0.46713E+06         0.00000E+00
    0.46713E+06        -0.51142E+08         0.00000E+00
    0.00000E+00         0.00000E+00        -0.23648E+08
 
   -0.23834E+08         0.46467E+06         0.00000E+00
    0.46467E+06        -0.51483E+08         0.00000E+00
    0.00000E+00         0.00000E+00        -0.23822E+08
 
   -0.24020E+08         0.46211E+06         0.00000E+00
    0.46211E+06        -0.51823E+08         0.00000E+00
    0.00000E+00         0.00000E+00        -0.23996E+08
 
   -0.24206E+08         0.45947E+06         0.00000E+00
    0.45947E+06        -0.52163E+08         0.00000E+00
    0.00000E+00         0.00000E+00        -0.24170E+08
 
   -0.24393E+08         0.45674E+06         0.00000E+00
    0.45674E+06        -0.52502E+08         0.00000E+00
    0.00000E+00         0.00000E+00        -0.24343E+08
 
   -0.24580E+08         0.45390E+06         0.00000E+00
    0.45390E+06        -0.52842E+08         0.00000E+00
    0.00000E+00         0.00000E+00        -0.24515E+08
 
   -0.24768E+08         0.45094E+06         0.00000E+00
    0.45094E+06        -0.53182E+08         0.00000E+00
    0.00000E+00         0.00000E+00        -0.24687E+08
 
   -0.24956E+08         0.44783E+06         0.00000E+00
    0.44783E+06        -0.53522E+08         0.00000E+00
    0.00000E+00         0.00000E+00        -0.24858E+08
 
   -0.25145E+08         0.44455E+06         0.00000E+00
    0.44455E+06        -0.53862E+08         0.00000E+00
    0.00000E+00         0.00000E+00        -0.25029E+08
 
   -0.25335E+08         0.44105E+06         0.00000E+00
    0.44105E+06        -0.54202E+08         0.00000E+00
    0.00000E+00         0.00000E+00        -0.25199E+08
 
   -0.25526E+08         0.43729E+06         0.00000E+00
    0.43729E+06        -0.54543E+08         0.00000E+00
    0.00000E+00         0.00000E+00        -0.25368E+08
 
   -0.25718E+08         0.43318E+06         0.00000E+00
    0.43318E+06        -0.54883E+08         0.00000E+00
    0.00000E+00         0.00000E+00        -0.25536E+08
 
   -0.25911E+08         0.42864E+06         0.00000E+00
    0.42864E+06        -0.55223E+08         0.00000E+00
    0.00000E+00         0.00000E+00        -0.25704E+08
 
   -0.26105E+08         0.42352E+06         0.00000E+00
    0.42352E+06        -0.55564E+08         0.00000E+00
    0.00000E+00         0.00000E+00        -0.25870E+08
 
   -0.26301E+08         0.41767E+06         0.00000E+00
    0.41767E+06        -0.55905E+08         0.00000E+00
    0.00000E+00         0.00000E+00        -0.26035E+08
 
   -0.26499E+08         0.41085E+06         0.00000E+00
    0.41085E+06        -0.56247E+08         0.00000E+00
    0.00000E+00         0.00000E+00        -0.26199E+08
 
   -0.26699E+08         0.40281E+06         0.00000E+00
    0.40281E+06        -0.56589E+08         0.00000E+00
    0.00000E+00         0.00000E+00        -0.26361E+08
 
   -0.26902E+08         0.39321E+06         0.00000E+00
    0.39321E+06        -0.56933E+08         0.00000E+00
    0.00000E+00         0.00000E+00        -0.26521E+08
 
   -0.27108E+08         0.38169E+06         0.00000E+00
    0.38169E+06        -0.57276E+08         0.00000E+00
    0.00000E+00         0.00000E+00        -0.26680E+08
 
   -0.27317E+08         0.36779E+06         0.00000E+00
    0.36779E+06        -0.57621E+08         0.00000E+00
    0.00000E+00         0.00000E+00        -0.26835E+08
 
   -0.27530E+08         0.35106E+06         0.00000E+00
    0.35106E+06        -0.57967E+08         0.00000E+00
    0.00000E+00         0.00000E+00        -0.26988E+08
 
   -0.27748E+08         0.33104E+06         0.00000E+00
    0.33104E+06        -0.58314E+08         0.00000E+00
    0.00000E+00         0.00000E+00        -0.27138E+08
 
   -0.27972E+08         0.30731E+06         0.00000E+00
    0.30731E+06        -0.58662E+08         0.00000E+00
    0.00000E+00         0.00000E+00        -0.27283E+08
 
   -0.28202E+08         0.27956E+06         0.00000E+00
    0.27956E+06        -0.59010E+08         0.00000E+00
    0.00000E+00         0.00000E+00        -0.27423E+08
 
   -0.28439E+08         0.24770E+06         0.00000E+00
    0.24770E+06        -0.59358E+08         0.00000E+00
    0.00000E+00         0.00000E+00        -0.27557E+08
 
   -0.28684E+08         0.21194E+06         0.00000E+00
    0.21194E+06        -0.59706E+08         0.00000E+00
    0.00000E+00         0.00000E+00        -0.27682E+08
 
   -0.28939E+08         0.17293E+06         0.00000E+00
    0.17293E+06        -0.60054E+08         0.00000E+00
    0.00000E+00         0.00000E+00        -0.27798E+08
 
   -0.29205E+08         0.13185E+06         0.00000E+00
    0.13185E+06        -0.60399E+08         0.00000E+00
    0.00000E+00         0.00000E+00        -0.27904E+08
 
   -0.29484E+08         0.90341E+05         0.00000E+00
    0.90341E+05        -0.60743E+08         0.00000E+00
    0.00000E+00         0.00000E+00        -0.27997E+08
 
   -0.29775E+08         0.50445E+05         0.00000E+00
    0.50445E+05        -0.61086E+08         0.00000E+00
    0.00000E+00         0.00000E+00        -0.28080E+08
 
   -0.30076E+08         0.15683E+05         0.00000E+00
    0.15683E+05        -0.61427E+08         0.00000E+00
    0.00000E+00         0.00000E+00        -0.28152E+08
 
   -0.30385E+08        -0.79885E+04         0.00000E+00
   -0.79885E+04        -0.61762E+08         0.00000E+00
    0.00000E+00         0.00000E+00        -0.28213E+08
 
   -0.30699E+08        -0.15109E+05         0.00000E+00
   -0.15109E+05        -0.62078E+08         0.00000E+00
    0.00000E+00         0.00000E+00        -0.28253E+08
 
   -0.31024E+08        -0.70317E+04         0.00000E+00
   -0.70317E+04        -0.62360E+08         0.00000E+00
    0.00000E+00         0.00000E+00        -0.28253E+08
 
   -0.11095E+08        -0.12190E+05         0.00000E+00
   -0.12190E+05        -0.27764E+08         0.00000E+00
    0.00000E+00         0.00000E+00        -0.15237E+08
 
   -0.11458E+08        -0.27061E+05         0.00000E+00
   -0.27061E+05        -0.28108E+08         0.00000E+00
    0.00000E+00         0.00000E+00        -0.15137E+08
 
   -0.11822E+08        -0.12616E+05         0.00000E+00
   -0.12616E+05        -0.28443E+08         0.00000E+00
    0.00000E+00         0.00000E+00        -0.15090E+08
 
   -0.12180E+08         0.35651E+05         0.00000E+00
    0.35651E+05        -0.28792E+08         0.00000E+00
    0.00000E+00         0.00000E+00        -0.15071E+08
 
   -0.12524E+08         0.10001E+06         0.00000E+00
    0.10001E+06        -0.29158E+08         0.00000E+00
    0.00000E+00         0.00000E+00        -0.15067E+08
 
   -0.12843E+08         0.16038E+06         0.00000E+00
    0.16038E+06        -0.29533E+08         0.00000E+00
    0.00000E+00         0.00000E+00        -0.15077E+08
 
   -0.13139E+08         0.20766E+06         0.00000E+00
    0.20766E+06        -0.29911E+08         0.00000E+00
    0.00000E+00         0.00000E+00        -0.15102E+08
 
   -0.13414E+08         0.24241E+06         0.00000E+00
    0.24241E+06        -0.30283E+08         0.00000E+00
    0.00000E+00         0.00000E+00        -0.15143E+08
 
   -0.13672E+08         0.26978E+06         0.00000E+00
    0.26978E+06        -0.30647E+08         0.00000E+00
    0.00000E+00         0.00000E+00        -0.15201E+08
 
   -0.13917E+08         0.29510E+06         0.00000E+00
    0.29510E+06        -0.31005E+08         0.00000E+00
    0.00000E+00         0.00000E+00        -0.15273E+08
 
   -0.14149E+08         0.32139E+06         0.00000E+00
    0.32139E+06        -0.31360E+08         0.00000E+00
    0.00000E+00         0.00000E+00        -0.15359E+08
 
   -0.14370E+08         0.34916E+06         0.00000E+00
    0.34916E+06        -0.31716E+08         0.00000E+00
    0.00000E+00         0.00000E+00        -0.15455E+08
 
   -0.14580E+08         0.37749E+06         0.00000E+00
    0.37749E+06        -0.32074E+08         0.00000E+00
    0.00000E+00         0.00000E+00        -0.15560E+08
 
   -0.14782E+08         0.40507E+06         0.00000E+00
    0.40507E+06        -0.32435E+08         0.00000E+00
    0.00000E+00         0.00000E+00        -0.15671E+08
 
   -0.14976E+08         0.43085E+06         0.00000E+00
    0.43085E+06        -0.32797E+08         0.00000E+00
    0.00000E+00         0.00000E+00        -0.15788E+08
 
   -0.15165E+08         0.45420E+06         0.00000E+00
    0.45420E+06        -0.33161E+08         0.00000E+00
    0.00000E+00         0.00000E+00        -0.15907E+08
 
   -0.15348E+08         0.47487E+06         0.00000E+00
    0.47487E+06        -0.33525E+08         0.00000E+00
    0.00000E+00         0.00000E+00        -0.16028E+08
 
   -0.15526E+08         0.49285E+06         0.00000E+00
    0.49285E+06        -0.33888E+08         0.00000E+00
    0.00000E+00         0.00000E+00        -0.16150E+08
 
   -0.15701E+08         0.50824E+06         0.00000E+00
    0.50824E+06        -0.34251E+08         0.00000E+00
    0.00000E+00         0.00000E+00        -0.16272E+08
 
   -0.15872E+08         0.52111E+06         0.00000E+00
    0.52111E+06        -0.34613E+08         0.00000E+00
    0.00000E+00         0.00000E+00        -0.16393E+08
 
   -0.16041E+08         0.53132E+06         0.00000E+00
    0.53132E+06        -0.34975E+08         0.00000E+00
    0.00000E+00         0.00000E+00        -0.16513E+08
 
   -0.16209E+08         0.53836E+06         0.00000E+00
    0.53836E+06        -0.35339E+08         0.00000E+00
    0.00000E+00         0.00000E+00        -0.16631E+08
 
   -0.16374E+08         0.54143E+06         0.00000E+00
    0.54143E+06        -0.35705E+08         0.00000E+00
    0.00000E+00         0.00000E+00        -0.16747E+08
 
   -0.16537E+08         0.54061E+06         0.00000E+00
    0.54061E+06        -0.36080E+08         0.00000E+00
    0.00000E+00         0.00000E+00        -0.16861E+08
 
   -0.16697E+08         0.53564E+06         0.00000E+00
    0.53564E+06        -0.36442E+08         0.00000E+00
    0.00000E+00         0.00000E+00        -0.16995E+08
 
   -0.16853E+08         0.52831E+06         0.00000E+00
    0.52831E+06        -0.36789E+08         0.00000E+00
    0.00000E+00         0.00000E+00        -0.17152E+08
 
   -0.17009E+08         0.52337E+06         0.00000E+00
    0.52337E+06        -0.37140E+08         0.00000E+00
    0.00000E+00         0.00000E+00        -0.17306E+08
 
   -0.17166E+08         0.52125E+06         0.00000E+00
    0.52125E+06        -0.37493E+08         0.00000E+00
    0.00000E+00         0.00000E+00        -0.17459E+08
 
   -0.17323E+08         0.52114E+06         0.00000E+00
    0.52114E+06        -0.37847E+08         0.00000E+00
    0.00000E+00         0.00000E+00        -0.17609E+08
 
   -0.17480E+08         0.52231E+06         0.00000E+00
    0.52231E+06        -0.38202E+08         0.00000E+00
    0.00000E+00         0.00000E+00        -0.17758E+08
 
   -0.17637E+08         0.52424E+06         0.00000E+00
    0.52424E+06        -0.38556E+08         0.00000E+00
    0.00000E+00         0.00000E+00        -0.17905E+08
 
   -0.17794E+08         0.52655E+06         0.00000E+00
    0.52655E+06        -0.38911E+08         0.00000E+00
    0.00000E+00         0.00000E+00        -0.18049E+08
 
   -0.17951E+08         0.52893E+06         0.00000E+00
    0.52893E+06        -0.39266E+08         0.00000E+00
    0.00000E+00         0.00000E+00        -0.18192E+08
 
   -0.18108E+08         0.53108E+06         0.00000E+00
    0.53108E+06        -0.39621E+08         0.00000E+00
    0.00000E+00         0.00000E+00        -0.18332E+08
 
   -0.18265E+08         0.53262E+06         0.00000E+00
    0.53262E+06        -0.39976E+08         0.00000E+00
    0.00000E+00         0.00000E+00        -0.18471E+08
 
   -0.18422E+08         0.53303E+06         0.00000E+00
    0.53303E+06        -0.40331E+08         0.00000E+00
    0.00000E+00         0.00000E+00        -0.18608E+08
 
   -0.18580E+08         0.53197E+06         0.00000E+00
    0.53197E+06        -0.40689E+08         0.00000E+00
    0.00000E+00         0.00000E+00        -0.18742E+08
 
   -0.18737E+08         0.52975E+06         0.00000E+00
    0.52975E+06        -0.41052E+08         0.00000E+00
    0.00000E+00         0.00000E+00        -0.18875E+08
 
   -0.18893E+08         0.52444E+06         0.00000E+00
    0.52444E+06        -0.41407E+08         0.00000E+00
    0.00000E+00         0.00000E+00        -0.19021E+08
 
   -0.19049E+08         0.51682E+06         0.00000E+00
    0.51682E+06        -0.41754E+08         0.00000E+00
    0.00000E+00         0.00000E+00        -0.19180E+08
 
   -0.19206E+08         0.51134E+06         0.00000E+00
    0.51134E+06        -0.42103E+08         0.00000E+00
    0.00000E+00         0.00000E+00        -0.19339E+08
 
   -0.19364E+08         0.50766E+06         0.00000E+00
    0.50766E+06        -0.42452E+08         0.00000E+00
    0.00000E+00         0.00000E+00        -0.19496E+08
 
   -0.19524E+08         0.50513E+06         0.00000E+00
    0.50513E+06        -0.42802E+08         0.00000E+00
    0.00000E+00         0.00000E+00        -0.19652E+08
 
   -0.19685E+08         0.50317E+06         0.00000E+00
    0.50317E+06        -0.43152E+08         0.00000E+00
    0.00000E+00         0.00000E+00        -0.19808E+08
 
   -0.19848E+08         0.50123E+06         0.00000E+00
    0.50123E+06        -0.43503E+08         0.00000E+00
    0.00000E+00         0.00000E+00        -0.19962E+08
 
   -0.20012E+08         0.49877E+06         0.00000E+00
    0.49877E+06        -0.43855E+08         0.00000E+00
    0.00000E+00         0.00000E+00        -0.20116E+08
 
   -0.20176E+08         0.49558E+06         0.00000E+00
    0.49558E+06        -0.44209E+08         0.00000E+00
    0.00000E+00         0.00000E+00        -0.20268E+08
 
   -0.20341E+08         0.49203E+06         0.00000E+00
    0.49203E+06        -0.44564E+08         0.00000E+00
    0.00000E+00         0.00000E+00        -0.20423E+08
 
   -0.20506E+08         0.48571E+06         0.00000E+00
    0.48571E+06        -0.44910E+08         0.00000E+00
    0.00000E+00         0.00000E+00        -0.20588E+08
 
   -0.20672E+08         0.48071E+06         0.00000E+00
    0.48071E+06        -0.45256E+08         0.00000E+00
    0.00000E+00         0.00000E+00        -0.20756E+08
 
   -0.20840E+08         0.47698E+06         0.00000E+00
    0.47698E+06        -0.45603E+08         0.00000E+00
    0.00000E+00         0.00000E+00        -0.20924E+08
 
   -0.21009E+08         0.47410E+06         0.00000E+00
    0.47410E+06        -0.45950E+08         0.00000E+00
    0.00000E+00         0.00000E+00        -0.21091E+08
 
   -0.21179E+08         0.47165E+06         0.00000E+00
    0.47165E+06        -0.46298E+08         0.00000E+00
    0.00000E+00         0.00000E+00        -0.21258E+08
 
   -0.21350E+08         0.46924E+06         0.00000E+00
    0.46924E+06        -0.46646E+08         0.00000E+00
    0.00000E+00         0.00000E+00        -0.21424E+08
 
   -0.21523E+08         0.46653E+06         0.00000E+00
    0.46653E+06        -0.46994E+08         0.00000E+00
    0.00000E+00         0.00000E+00        -0.21590E+08
 
   -0.21696E+08         0.46330E+06         0.00000E+00
    0.46330E+06        -0.47344E+08         0.00000E+00
    0.00000E+00         0.00000E+00        -0.21756E+08
 
   -0.21870E+08         0.45963E+06         0.00000E+00
    0.45963E+06        -0.47693E+08         0.00000E+00
    0.00000E+00         0.00000E+00        -0.21923E+08
 
   -0.22044E+08         0.45557E+06         0.00000E+00
    0.45557E+06        -0.48037E+08         0.00000E+00
    0.00000E+00         0.00000E+00        -0.22096E+08
 
   -0.22220E+08         0.45216E+06         0.00000E+00
    0.45216E+06        -0.48382E+08         0.00000E+00
    0.00000E+00         0.00000E+00        -0.22270E+08
 
   -0.22396E+08         0.44937E+06         0.00000E+00
    0.44937E+06        -0.48727E+08         0.00000E+00
    0.00000E+00         0.00000E+00        -0.22443E+08
 
   -0.22573E+08         0.44698E+06         0.00000E+00
    0.44698E+06        -0.49073E+08         0.00000E+00
    0.00000E+00         0.00000E+00        -0.22616E+08
 
   -0.22750E+08         0.44482E+06         0.00000E+00
    0.44482E+06        -0.49418E+08         0.00000E+00
    0.00000E+00         0.00000E+00        -0.22788E+08
 
   -0.22929E+08         0.44276E+06         0.00000E+00
    0.44276E+06        -0.49763E+08         0.00000E+00
    0.00000E+00         0.00000E+00        -0.22960E+08
 
   -0.23108E+08         0.44074E+06         0.00000E+00
    0.44074E+06        -0.50108E+08         0.00000E+00
    0.00000E+00         0.00000E+00        -0.23132E+08
 
   -0.23288E+08         0.43871E+06         0.00000E+00
    0.43871E+06        -0.50453E+08         0.00000E+00
    0.00000E+00         0.00000E+00        -0.23303E+08
 
   -0.23468E+08         0.43664E+06         0.00000E+00
    0.43664E+06        -0.50798E+08         0.00000E+00
    0.00000E+00         0.00000E+00        -0.23474E+08
 
   -0.23650E+08         0.43450E+06         0.00000E+00
    0.43450E+06        -0.51142E+08         0.00000E+00
    0.00000E+00         0.00000E+00        -0.23646E+08
 
   -0.23835E+08         0.43220E+06         0.00000E+00
    0.43220E+06        -0.51482E+08         0.00000E+00
    0.00000E+00         0.00000E+00        -0.23819E+08
 
   -0.24021E+08         0.42981E+06         0.00000E+00
    0.42981E+06        -0.51822E+08         0.00000E+00
    0.00000E+00         0.00000E+00        -0.23993E+08
 
   -0.24207E+08         0.42735E+06         0.00000E+00
    0.42735E+06        -0.52162E+08         0.00000E+00
    0.00000E+00         0.00000E+00        -0.24166E+08
 
   -0.24394E+08         0.42479E+06         0.00000E+00
    0.42479E+06        -0.52502E+08         0.00000E+00
    0.00000E+00         0.00000E+00        -0.24339E+08
 
   -0.24582E+08         0.42214E+06         0.00000E+00
    0.42214E+06        -0.52842E+08         0.00000E+00
    0.00000E+00         0.00000E+00        -0.24511E+08
 
   -0.24770E+08         0.41937E+06         0.00000E+00
    0.41937E+06        -0.53182E+08         0.00000E+00
    0.00000E+00         0.00000E+00        -0.24683E+08
 
   -0.24958E+08         0.41646E+06         0.00000E+00
    0.41646E+06        -0.53522E+08         0.00000E+00
    0.00000E+00         0.00000E+00        -0.24854E+08
 
   -0.25148E+08         0.41340E+06         0.00000E+00
    0.41340E+06        -0.53862E+08         0.00000E+00
    0.00000E+00         0.00000E+00        -0.25024E+08
 
   -0.25338E+08         0.41014E+06         0.00000E+00
    0.41014E+06        -0.54202E+08         0.00000E+00
    0.00000E+00         0.00000E+00        -0.25194E+08
 
   -0.25529E+08         0.40663E+06         0.00000E+00
    0.40663E+06        -0.54542E+08         0.00000E+00
    0.00000E+00         0.00000E+00        -0.25363E+08
 
   -0.25721E+08         0.40282E+06         0.00000E+00
    0.40282E+06        -0.54882E+08         0.00000E+00
    0.00000E+00         0.00000E+00        -0.25531E+08
 
   -0.25915E+08         0.39859E+06         0.00000E+00
    0.39859E+06        -0.55223E+08         0.00000E+00
    0.00000E+00         0.00000E+00        -0.25698E+08
 
   -0.26110E+08         0.39383E+06         0.00000E+00
    0.39383E+06        -0.55564E+08         0.00000E+00
    0.00000E+00         0.00000E+00        -0.25864E+08
 
   -0.26306E+08         0.38838E+06         0.00000E+00
    0.38838E+06        -0.55905E+08         0.00000E+00
    0.00000E+00         0.00000E+00        -0.26028E+08
 
   -0.26504E+08         0.38204E+06         0.00000E+00
    0.38204E+06        -0.56246E+08         0.00000E+00
    0.00000E+00         0.00000E+00        -0.26191E+08
 
   -0.26705E+08         0.37453E+06         0.00000E+00
    0.37453E+06        -0.56588E+08         0.00000E+00
    0.00000E+00         0.00000E+00        -0.26353E+08
 
   -0.26908E+08         0.36556E+06         0.00000E+00
    0.36556E+06        -0.56931E+08         0.00000E+00
    0.00000E+00         0.00000E+00        -0.26513E+08
 
   -0.27114E+08         0.35475E+06         0.00000E+00
    0.35475E+06        -0.57274E+08         0.00000E+00
    0.00000E+00         0.00000E+00        -0.26670E+08
 
   -0.27323E+08         0.34168E+06         0.00000E+00
    0.34168E+06        -0.57619E+08         0.00000E+00
    0.00000E+00         0.00000E+00        -0.26825E+08
 
   -0.27537E+08         0.32592E+06         0.00000E+00
    0.32592E+06        -0.57964E+08         0.00000E+00
    0.00000E+00         0.00000E+00        -0.26977E+08
 
   -0.27756E+08         0.30701E+06         0.00000E+00
    0.30701E+06        -0.58310E+08         0.00000E+00
    0.00000E+00         0.00000E+00        -0.27126E+08
 
   -0.27981E+08         0.28457E+06         0.00000E+00
    0.28457E+06        -0.58657E+08         0.00000E+00
    0.00000E+00         0.00000E+00        -0.27269E+08
 
   -0.28212E+08         0.25831E+06         0.00000E+00
    0.25831E+06        -0.59004E+08         0.00000E+00
    0.00000E+00         0.00000E+00        -0.27407E+08
 
   -0.28450E+08         0.22817E+06         0.00000E+00
    0.22817E+06        -0.59352E+08         0.00000E+00
    0.00000E+00         0.00000E+00        -0.27539E+08
 
   -0.28698E+08         0.19441E+06         0.00000E+00
    0.19441E+06        -0.59700E+08         0.00000E+00
    0.00000E+00         0.00000E+00        -0.27662E+08
 
   -0.28955E+08         0.15770E+06         0.00000E+00
    0.15770E+06        -0.60046E+08         0.00000E+00
    0.00000E+00         0.00000E+00        -0.27776E+08
 
   -0.29224E+08         0.11919E+06         0.00000E+00
    0.11919E+06        -0.60392E+08         0.00000E+00
    0.00000E+00         0.00000E+00        -0.27879E+08
 
   -0.29505E+08         0.80415E+05         0.00000E+00
    0.80415E+05        -0.60736E+08         0.00000E+00
    0.00000E+00         0.00000E+00        -0.27970E+08
 
   -0.29799E+08         0.43078E+05         0.00000E+00
    0.43078E+05        -0.61079E+08         0.00000E+00
    0.00000E+00         0.00000E+00        -0.28050E+08
 
   -0.30104E+08         0.10028E+05         0.00000E+00
    0.10028E+05        -0.61422E+08         0.00000E+00
    0.00000E+00         0.00000E+00        -0.28121E+08
 
   -0.30416E+08        -0.12841E+05         0.00000E+00
   -0.12841E+05        -0.61759E+08         0.00000E+00
    0.00000E+00         0.00000E+00        -0.28183E+08
 
   -0.30733E+08        -0.18943E+05         0.00000E+00
   -0.18943E+05        -0.62079E+08         0.00000E+00
    0.00000E+00         0.00000E+00        -0.28225E+08
 
   -0.31058E+08        -0.85639E+04         0.00000E+00
   -0.85639E+04        -0.62364E+08         0.00000E+00
    0.00000E+00         0.00000E+00        -0.28228E+08
 
   -0.11048E+08        -0.11868E+05         0.00000E+00
   -0.11868E+05        -0.27759E+08         0.00000E+00
    0.00000E+00         0.00000E+00        -0.15264E+08
 
   -0.11413E+08        -0.26295E+05         0.00000E+00
   -0.26295E+05        -0.28107E+08         0.00000E+00
    0.00000E+00         0.00000E+00        -0.15171E+08
 
   -0.11782E+08        -0.11783E+05         0.00000E+00
   -0.11783E+05        -0.28450E+08         0.00000E+00
    0.00000E+00         0.00000E+00        -0.15130E+08
 
   -0.12148E+08         0.34675E+05         0.00000E+00
    0.34675E+05        -0.28804E+08         0.00000E+00
    0.00000E+00         0.00000E+00        -0.15112E+08
 
   -0.12498E+08         0.94661E+05         0.00000E+00
    0.94661E+05        -0.29170E+08         0.00000E+00
    0.00000E+00         0.00000E+00        -0.15106E+08
 
   -0.12821E+08         0.14977E+06         0.00000E+00
    0.14977E+06        -0.29544E+08         0.00000E+00
    0.00000E+00         0.00000E+00        -0.15111E+08
 
   -0.13118E+08         0.19244E+06         0.00000E+00
    0.19244E+06        -0.29919E+08         0.00000E+00
    0.00000E+00         0.00000E+00        -0.15131E+08
 
   -0.13395E+08         0.22355E+06         0.00000E+00
    0.22355E+06        -0.30289E+08         0.00000E+00
    0.00000E+00         0.00000E+00        -0.15167E+08
 
   -0.13654E+08         0.24796E+06         0.00000E+00
    0.24796E+06        -0.30652E+08         0.00000E+00
    0.00000E+00         0.00000E+00        -0.15219E+08
 
   -0.13900E+08         0.27067E+06         0.00000E+00
    0.27067E+06        -0.31010E+08         0.00000E+00
    0.00000E+00         0.00000E+00        -0.15286E+08
 
   -0.14133E+08         0.29457E+06         0.00000E+00
    0.29457E+06        -0.31365E+08         0.00000E+00
    0.00000E+00         0.00000E+00        -0.15367E+08
 
   -0.14355E+08         0.32020E+06         0.00000E+00
    0.32020E+06        -0.31721E+08         0.00000E+00
    0.00000E+00         0.00000E+00        -0.15460E+08
 
   -0.14566E+08         0.34667E+06         0.00000E+00
    0.34667E+06        -0.32080E+08         0.00000E+00
    0.00000E+00         0.00000E+00        -0.15561E+08
 
   -0.14769E+08         0.37267E+06         0.00000E+00
    0.37267E+06        -0.32440E+08         0.00000E+00
    0.00000E+00         0.00000E+00        -0.15670E+08
 
   -0.14964E+08         0.39713E+06         0.00000E+00
    0.39713E+06        -0.32802E+08         0.00000E+00
    0.00000E+00         0.00000E+00        -0.15784E+08
 
   -0.15153E+08         0.41937E+06         0.00000E+00
    0.41937E+06        -0.33165E+08         0.00000E+00
    0.00000E+00         0.00000E+00        -0.15902E+08
 
   -0.15336E+08         0.43908E+06         0.00000E+00
    0.43908E+06        -0.33529E+08         0.00000E+00
    0.00000E+00         0.00000E+00        -0.16022E+08
 
   -0.15514E+08         0.45624E+06         0.00000E+00
    0.45624E+06        -0.33891E+08         0.00000E+00
    0.00000E+00         0.00000E+00        -0.16143E+08
 
   -0.15689E+08         0.47096E+06         0.00000E+00
    0.47096E+06        -0.34254E+08         0.00000E+00
    0.00000E+00         0.00000E+00        -0.16264E+08
 
   -0.15859E+08         0.48331E+06         0.00000E+00
    0.48331E+06        -0.34615E+08         0.00000E+00
    0.00000E+00         0.00000E+00        -0.16384E+08
 
   -0.16028E+08         0.49317E+06         0.00000E+00
    0.49317E+06        -0.34977E+08         0.00000E+00
    0.00000E+00         0.00000E+00        -0.16504E+08
 
   -0.16194E+08         0.49998E+06         0.00000E+00
    0.49998E+06        -0.35340E+08         0.00000E+00
    0.00000E+00         0.00000E+00        -0.16622E+08
 
   -0.16360E+08         0.50277E+06         0.00000E+00
    0.50277E+06        -0.35706E+08         0.00000E+00
    0.00000E+00         0.00000E+00        -0.16738E+08
 
   -0.16522E+08         0.50137E+06         0.00000E+00
    0.50137E+06        -0.36080E+08         0.00000E+00
    0.00000E+00         0.00000E+00        -0.16851E+08
 
   -0.16682E+08         0.49556E+06         0.00000E+00
    0.49556E+06        -0.36441E+08         0.00000E+00
    0.00000E+00         0.00000E+00        -0.16987E+08
 
   -0.16838E+08         0.48812E+06         0.00000E+00
    0.48812E+06        -0.36788E+08         0.00000E+00
    0.00000E+00         0.00000E+00        -0.17143E+08
 
   -0.16995E+08         0.48334E+06         0.00000E+00
    0.48334E+06        -0.37139E+08         0.00000E+00
    0.00000E+00         0.00000E+00        -0.17298E+08
 
   -0.17152E+08         0.48139E+06         0.00000E+00
    0.48139E+06        -0.37493E+08         0.00000E+00
    0.00000E+00         0.00000E+00        -0.17451E+08
 
   -0.17310E+08         0.48142E+06         0.00000E+00
    0.48142E+06        -0.37847E+08         0.00000E+00
    0.00000E+00         0.00000E+00        -0.17602E+08
 
   -0.17468E+08         0.48265E+06         0.00000E+00
    0.48265E+06        -0.38202E+08         0.00000E+00
    0.00000E+00         0.00000E+00        -0.17751E+08
 
   -0.17625E+08         0.48462E+06         0.00000E+00
    0.48462E+06        -0.38557E+08         0.00000E+00
    0.00000E+00         0.00000E+00        -0.17898E+08
 
   -0.17783E+08         0.48695E+06         0.00000E+00
    0.48695E+06        -0.38912E+08         0.00000E+00
    0.00000E+00         0.00000E+00        -0.18042E+08
 
   -0.17940E+08         0.48937E+06         0.00000E+00
    0.48937E+06        -0.39267E+08         0.00000E+00
    0.00000E+00         0.00000E+00        -0.18185E+08
 
   -0.18097E+08         0.49160E+06         0.00000E+00
    0.49160E+06        -0.39621E+08         0.00000E+00
    0.00000E+00         0.00000E+00        -0.18326E+08
 
   -0.18254E+08         0.49328E+06         0.00000E+00
    0.49328E+06        -0.39976E+08         0.00000E+00
    0.00000E+00         0.00000E+00        -0.18465E+08
 
   -0.18412E+08         0.49384E+06         0.00000E+00
    0.49384E+06        -0.40331E+08         0.00000E+00
    0.00000E+00         0.00000E+00        -0.18602E+08
 
   -0.18570E+08         0.49284E+06         0.00000E+00
    0.49284E+06        -0.40689E+08         0.00000E+00
    0.00000E+00         0.00000E+00        -0.18737E+08
 
   -0.18727E+08         0.49072E+06         0.00000E+00
    0.49072E+06        -0.41051E+08         0.00000E+00
    0.00000E+00         0.00000E+00        -0.18870E+08
 
   -0.18884E+08         0.48487E+06         0.00000E+00
    0.48487E+06        -0.41406E+08         0.00000E+00
    0.00000E+00         0.00000E+00        -0.19017E+08
 
   -0.19040E+08         0.47767E+06         0.00000E+00
    0.47767E+06        -0.41753E+08         0.00000E+00
    0.00000E+00         0.00000E+00        -0.19177E+08
 
   -0.19197E+08         0.47253E+06         0.00000E+00
    0.47253E+06        -0.42102E+08         0.00000E+00
    0.00000E+00         0.00000E+00        -0.19336E+08
 
   -0.19356E+08         0.46921E+06         0.00000E+00
    0.46921E+06        -0.42451E+08         0.00000E+00
    0.00000E+00         0.00000E+00        -0.19493E+08
 
   -0.19516E+08         0.46702E+06         0.00000E+00
    0.46702E+06        -0.42802E+08         0.00000E+00
    0.00000E+00         0.00000E+00        -0.19649E+08
 
   -0.19678E+08         0.46540E+06         0.00000E+00
    0.46540E+06        -0.43152E+08         0.00000E+00
    0.00000E+00         0.00000E+00        -0.19805E+08
 
   -0.19841E+08         0.46380E+06         0.00000E+00
    0.46380E+06        -0.43503E+08         0.00000E+00
    0.00000E+00         0.00000E+00        -0.19959E+08
 
   -0.20005E+08         0.46164E+06         0.00000E+00
    0.46164E+06        -0.43855E+08         0.00000E+00
    0.00000E+00         0.00000E+00        -0.20113E+08
 
   -0.20170E+08         0.45865E+06         0.00000E+00
    0.45865E+06        -0.44208E+08         0.00000E+00
    0.00000E+00         0.00000E+00        -0.20266E+08
 
   -0.20335E+08         0.45517E+06         0.00000E+00
    0.45517E+06        -0.44563E+08         0.00000E+00
    0.00000E+00         0.00000E+00        -0.20421E+08
 
   -0.20501E+08         0.44899E+06         0.00000E+00
    0.44899E+06        -0.44909E+08         0.00000E+00
    0.00000E+00         0.00000E+00        -0.20586E+08
 
   -0.20667E+08         0.44429E+06         0.00000E+00
    0.44429E+06        -0.45255E+08         0.00000E+00
    0.00000E+00         0.00000E+00        -0.20754E+08
 
   -0.20835E+08         0.44092E+06         0.00000E+00
    0.44092E+06        -0.45602E+08         0.00000E+00
    0.00000E+00         0.00000E+00        -0.20922E+08
 
   -0.21004E+08         0.43839E+06         0.00000E+00
    0.43839E+06        -0.45950E+08         0.00000E+00
    0.00000E+00         0.00000E+00        -0.21089E+08
 
   -0.21175E+08         0.43626E+06         0.00000E+00
    0.43626E+06        -0.46297E+08         0.00000E+00
    0.00000E+00         0.00000E+00        -0.21256E+08
 
   -0.21347E+08         0.43415E+06         0.00000E+00
    0.43415E+06        -0.46645E+08         0.00000E+00
    0.00000E+00         0.00000E+00        -0.21423E+08
 
   -0.21519E+08         0.43171E+06         0.00000E+00
    0.43171E+06        -0.46994E+08         0.00000E+00
    0.00000E+00         0.00000E+00        -0.21588E+08
 
   -0.21693E+08         0.42867E+06         0.00000E+00
    0.42867E+06        -0.47343E+08         0.00000E+00
    0.00000E+00         0.00000E+00        -0.21754E+08
 
   -0.21867E+08         0.42514E+06         0.00000E+00
    0.42514E+06        -0.47692E+08         0.00000E+00
    0.00000E+00         0.00000E+00        -0.21922E+08
 
   -0.22042E+08         0.42126E+06         0.00000E+00
    0.42126E+06        -0.48036E+08         0.00000E+00
    0.00000E+00         0.00000E+00        -0.22095E+08
 
   -0.22218E+08         0.41808E+06         0.00000E+00
    0.41808E+06        -0.48381E+08         0.00000E+00
    0.00000E+00         0.00000E+00        -0.22268E+08
 
   -0.22394E+08         0.41552E+06         0.00000E+00
    0.41552E+06        -0.48727E+08         0.00000E+00
    0.00000E+00         0.00000E+00        -0.22441E+08
 
   -0.22571E+08         0.41336E+06         0.00000E+00
    0.41336E+06        -0.49072E+08         0.00000E+00
    0.00000E+00         0.00000E+00        -0.22614E+08
 
   -0.22749E+08         0.41139E+06         0.00000E+00
    0.41139E+06        -0.49418E+08         0.00000E+00
    0.00000E+00         0.00000E+00        -0.22786E+08
 
   -0.22928E+08         0.40952E+06         0.00000E+00
    0.40952E+06        -0.49763E+08         0.00000E+00
    0.00000E+00         0.00000E+00        -0.22958E+08
 
   -0.23108E+08         0.40767E+06         0.00000E+00
    0.40767E+06        -0.50108E+08         0.00000E+00
    0.00000E+00         0.00000E+00        -0.23130E+08
 
   -0.23288E+08         0.40581E+06         0.00000E+00
    0.40581E+06        -0.50453E+08         0.00000E+00
    0.00000E+00         0.00000E+00        -0.23301E+08
 
   -0.23468E+08         0.40390E+06         0.00000E+00
    0.40390E+06        -0.50798E+08         0.00000E+00
    0.00000E+00         0.00000E+00        -0.23472E+08
 
   -0.23650E+08         0.40192E+06         0.00000E+00
    0.40192E+06        -0.51141E+08         0.00000E+00
    0.00000E+00         0.00000E+00        -0.23643E+08
 
   -0.23836E+08         0.39979E+06         0.00000E+00
    0.39979E+06        -0.51482E+08         0.00000E+00
    0.00000E+00         0.00000E+00        -0.23816E+08
 
   -0.24022E+08         0.39757E+06         0.00000E+00
    0.39757E+06        -0.51822E+08         0.00000E+00
    0.00000E+00         0.00000E+00        -0.23990E+08
 
   -0.24208E+08         0.39528E+06         0.00000E+00
    0.39528E+06        -0.52162E+08         0.00000E+00
    0.00000E+00         0.00000E+00        -0.24163E+08
 
   -0.24396E+08         0.39291E+06         0.00000E+00
    0.39291E+06        -0.52502E+08         0.00000E+00
    0.00000E+00         0.00000E+00        -0.24335E+08
 
   -0.24583E+08         0.39044E+06         0.00000E+00
    0.39044E+06        -0.52842E+08         0.00000E+00
    0.00000E+00         0.00000E+00        -0.24507E+08
 
   -0.24772E+08         0.38786E+06         0.00000E+00
    0.38786E+06        -0.53182E+08         0.00000E+00
    0.00000E+00         0.00000E+00        -0.24679E+08
 
   -0.24961E+08         0.38516E+06         0.00000E+00
    0.38516E+06        -0.53522E+08         0.00000E+00
    0.00000E+00         0.00000E+00        -0.24850E+08
 
   -0.25151E+08         0.38232E+06         0.00000E+00
    0.38232E+06        -0.53862E+08         0.00000E+00
    0.00000E+00         0.00000E+00        -0.25020E+08
 
   -0.25341E+08         0.37930E+06         0.00000E+00
    0.37930E+06        -0.54202E+08         0.00000E+00
    0.00000E+00         0.00000E+00        -0.25189E+08
 
   -0.25533E+08         0.37605E+06         0.00000E+00
    0.37605E+06        -0.54542E+08         0.00000E+00
    0.00000E+00         0.00000E+00        -0.25357E+08
 
   -0.25725E+08         0.37251E+06         0.00000E+00
    0.37251E+06        -0.54882E+08         0.00000E+00
    0.00000E+00         0.00000E+00        -0.25525E+08
 
   -0.25919E+08         0.36861E+06         0.00000E+00
    0.36861E+06        -0.55223E+08         0.00000E+00
    0.00000E+00         0.00000E+00        -0.25692E+08
 
   -0.26114E+08         0.36421E+06         0.00000E+00
    0.36421E+06        -0.55563E+08         0.00000E+00
    0.00000E+00         0.00000E+00        -0.25857E+08
 
   -0.26311E+08         0.35916E+06         0.00000E+00
    0.35916E+06        -0.55904E+08         0.00000E+00
    0.00000E+00         0.00000E+00        -0.26021E+08
 
   -0.26509E+08         0.35328E+06         0.00000E+00
    0.35328E+06        -0.56245E+08         0.00000E+00
    0.00000E+00         0.00000E+00        -0.26184E+08
 
   -0.26710E+08         0.34632E+06         0.00000E+00
    0.34632E+06        -0.56587E+08         0.00000E+00
    0.00000E+00         0.00000E+00        -0.26345E+08
 
   -0.26913E+08         0.33797E+06         0.00000E+00
    0.33797E+06        -0.56930E+08         0.00000E+00
    0.00000E+00         0.00000E+00        -0.26505E+08
 
   -0.27120E+08         0.32789E+06         0.00000E+00
    0.32789E+06        -0.57273E+08         0.00000E+00
    0.00000E+00         0.00000E+00        -0.26661E+08
 
   -0.27330E+08         0.31568E+06         0.00000E+00
    0.31568E+06        -0.57616E+08         0.00000E+00
    0.00000E+00         0.00000E+00        -0.26816E+08
 
   -0.27545E+08         0.30090E+06         0.00000E+00
    0.30090E+06        -0.57961E+08         0.00000E+00
    0.00000E+00         0.00000E+00        -0.26966E+08
 
   -0.27764E+08         0.28315E+06         0.00000E+00
    0.28315E+06        -0.58306E+08         0.00000E+00
    0.00000E+00         0.00000E+00        -0.27113E+08
 
   -0.27989E+08         0.26204E+06         0.00000E+00
    0.26204E+06        -0.58653E+08         0.00000E+00
    0.00000E+00         0.00000E+00        -0.27256E+08
 
   -0.28222E+08         0.23733E+06         0.00000E+00
    0.23733E+06        -0.58999E+08         0.00000E+00
    0.00000E+00         0.00000E+00        -0.27392E+08
 
   -0.28462E+08         0.20900E+06         0.00000E+00
    0.20900E+06        -0.59346E+08         0.00000E+00
    0.00000E+00         0.00000E+00        -0.27521E+08
 
   -0.28711E+08         0.17732E+06         0.00000E+00
    0.17732E+06        -0.59693E+08         0.00000E+00
    0.00000E+00         0.00000E+00        -0.27642E+08
 
   -0.28971E+08         0.14297E+06         0.00000E+00
    0.14297E+06        -0.60039E+08         0.00000E+00
    0.00000E+00         0.00000E+00        -0.27754E+08
 
   -0.29243E+08         0.10707E+06         0.00000E+00
    0.10707E+06        -0.60384E+08         0.00000E+00
    0.00000E+00         0.00000E+00        -0.27854E+08
 
   -0.29527E+08         0.71097E+05         0.00000E+00
    0.71097E+05        -0.60729E+08         0.00000E+00
    0.00000E+00         0.00000E+00        -0.27943E+08
 
   -0.29824E+08         0.36426E+05         0.00000E+00
    0.36426E+05        -0.61072E+08         0.00000E+00
    0.00000E+00         0.00000E+00        -0.28021E+08
 
   -0.30133E+08         0.51620E+04         0.00000E+00
    0.51620E+04        -0.61416E+08         0.00000E+00
    0.00000E+00         0.00000E+00        -0.28091E+08
 
   -0.30449E+08        -0.17095E+05         0.00000E+00
   -0.17095E+05        -0.61757E+08         0.00000E+00
    0.00000E+00         0.00000E+00        -0.28153E+08
 
   -0.30767E+08        -0.22542E+05         0.00000E+00
   -0.22542E+05        -0.62081E+08         0.00000E+00
    0.00000E+00         0.00000E+00        -0.28198E+08
 
   -0.31093E+08        -0.10070E+05         0.00000E+00
   -0.10070E+05        -0.62369E+08         0.00000E+00
    0.00000E+00         0.00000E+00        -0.28204E+08
 
   -0.11003E+08        -0.11350E+05         0.00000E+00
   -0.11350E+05        -0.27753E+08         0.00000E+00
    0.00000E+00         0.00000E+00        -0.15290E+08
 
   -0.11370E+08        -0.24789E+05         0.00000E+00
   -0.24789E+05        -0.28106E+08         0.00000E+00
    0.00000E+00         0.00000E+00        -0.15206E+08
 
   -0.11745E+08        -0.95817E+04         0.00000E+00
   -0.95817E+04        -0.28456E+08         0.00000E+00
    0.00000E+00         0.00000E+00        -0.15170E+08
 
   -0.12118E+08         0.35101E+05         0.00000E+00
    0.35101E+05        -0.28816E+08         0.00000E+00
    0.00000E+00         0.00000E+00        -0.15153E+08
 
   -0.12473E+08         0.90234E+05         0.00000E+00
    0.90234E+05        -0.29182E+08         0.00000E+00
    0.00000E+00         0.00000E+00        -0.15144E+08
 
   -0.12799E+08         0.13965E+06         0.00000E+00
    0.13965E+06        -0.29553E+08         0.00000E+00
    0.00000E+00         0.00000E+00        -0.15145E+08
 
   -0.13098E+08         0.17749E+06         0.00000E+00
    0.17749E+06        -0.29926E+08         0.00000E+00
    0.00000E+00         0.00000E+00        -0.15159E+08
 
   -0.13375E+08         0.20488E+06         0.00000E+00
    0.20488E+06        -0.30294E+08         0.00000E+00
    0.00000E+00         0.00000E+00        -0.15189E+08
 
   -0.13635E+08         0.22630E+06         0.00000E+00
    0.22630E+06        -0.30657E+08         0.00000E+00
    0.00000E+00         0.00000E+00        -0.15236E+08
 
   -0.13882E+08         0.24643E+06         0.00000E+00
    0.24643E+06        -0.31014E+08         0.00000E+00
    0.00000E+00         0.00000E+00        -0.15299E+08
 
   -0.14116E+08         0.26797E+06         0.00000E+00
    0.26797E+06        -0.31370E+08         0.00000E+00
    0.00000E+00         0.00000E+00        -0.15375E+08
 
   -0.14339E+08         0.29147E+06         0.00000E+00
    0.29147E+06        -0.31726E+08         0.00000E+00
    0.00000E+00         0.00000E+00        -0.15464E+08
 
   -0.14552E+08         0.31607E+06         0.00000E+00
    0.31607E+06        -0.32085E+08         0.00000E+00
    0.00000E+00         0.00000E+00        -0.15562E+08
 
   -0.14755E+08         0.34046E+06         0.00000E+00
    0.34046E+06        -0.32445E+08         0.00000E+00
    0.00000E+00         0.00000E+00        -0.15668E+08
 
   -0.14951E+08         0.36355E+06         0.00000E+00
    0.36355E+06        -0.32807E+08         0.00000E+00
    0.00000E+00         0.00000E+00        -0.15780E+08
 
   -0.15141E+08         0.38460E+06         0.00000E+00
    0.38460E+06        -0.33169E+08         0.00000E+00
    0.00000E+00         0.00000E+00        -0.15896E+08
 
   -0.15324E+08         0.40329E+06         0.00000E+00
    0.40329E+06        -0.33532E+08         0.00000E+00
    0.00000E+00         0.00000E+00        -0.16014E+08
 
   -0.15502E+08         0.41959E+06         0.00000E+00
    0.41959E+06        -0.33895E+08         0.00000E+00
    0.00000E+00         0.00000E+00        -0.16134E+08
 
   -0.15676E+08         0.43359E+06         0.00000E+00
    0.43359E+06        -0.34256E+08         0.00000E+00
    0.00000E+00         0.00000E+00        -0.16255E+08
 
   -0.15847E+08         0.44539E+06         0.00000E+00
    0.44539E+06        -0.34618E+08         0.00000E+00
    0.00000E+00         0.00000E+00        -0.16375E+08
 
   -0.16014E+08         0.45487E+06         0.00000E+00
    0.45487E+06        -0.34979E+08         0.00000E+00
    0.00000E+00         0.00000E+00        -0.16494E+08
 
   -0.16180E+08         0.46147E+06         0.00000E+00
    0.46147E+06        -0.35341E+08         0.00000E+00
    0.00000E+00         0.00000E+00        -0.16612E+08
 
   -0.16345E+08         0.46404E+06         0.00000E+00
    0.46404E+06        -0.35706E+08         0.00000E+00
    0.00000E+00         0.00000E+00        -0.16728E+08
 
   -0.16508E+08         0.46209E+06         0.00000E+00
    0.46209E+06        -0.36079E+08         0.00000E+00
    0.00000E+00         0.00000E+00        -0.16842E+08
 
   -0.16667E+08         0.45548E+06         0.00000E+00
    0.45548E+06        -0.36439E+08         0.00000E+00
    0.00000E+00         0.00000E+00        -0.16978E+08
 
   -0.16823E+08         0.44796E+06         0.00000E+00
    0.44796E+06        -0.36786E+08         0.00000E+00
    0.00000E+00         0.00000E+00        -0.17135E+08
 
   -0.16980E+08         0.44339E+06         0.00000E+00
    0.44339E+06        -0.37139E+08         0.00000E+00
    0.00000E+00         0.00000E+00        -0.17290E+08
 
   -0.17138E+08         0.44167E+06         0.00000E+00
    0.44167E+06        -0.37493E+08         0.00000E+00
    0.00000E+00         0.00000E+00        -0.17443E+08
 
   -0.17296E+08         0.44183E+06         0.00000E+00
    0.44183E+06        -0.37847E+08         0.00000E+00
    0.00000E+00         0.00000E+00        -0.17594E+08
 
   -0.17455E+08         0.44313E+06         0.00000E+00
    0.44313E+06        -0.38202E+08         0.00000E+00
    0.00000E+00         0.00000E+00        -0.17743E+08
 
   -0.17613E+08         0.44511E+06         0.00000E+00
    0.44511E+06        -0.38557E+08         0.00000E+00
    0.00000E+00         0.00000E+00        -0.17891E+08
 
   -0.17771E+08         0.44744E+06         0.00000E+00
    0.44744E+06        -0.38912E+08         0.00000E+00
    0.00000E+00         0.00000E+00        -0.18036E+08
 
   -0.17929E+08         0.44988E+06         0.00000E+00
    0.44988E+06        -0.39267E+08         0.00000E+00
    0.00000E+00         0.00000E+00        -0.18179E+08
 
   -0.18086E+08         0.45217E+06         0.00000E+00
    0.45217E+06        -0.39622E+08         0.00000E+00
    0.00000E+00         0.00000E+00        -0.18320E+08
 
   -0.18244E+08         0.45398E+06         0.00000E+00
    0.45398E+06        -0.39976E+08         0.00000E+00
    0.00000E+00         0.00000E+00        -0.18459E+08
 
   -0.18402E+08         0.45470E+06         0.00000E+00
    0.45470E+06        -0.40331E+08         0.00000E+00
    0.00000E+00         0.00000E+00        -0.18596E+08
 
   -0.18560E+08         0.45372E+06         0.00000E+00
    0.45372E+06        -0.40689E+08         0.00000E+00
    0.00000E+00         0.00000E+00        -0.18731E+08
 
   -0.18717E+08         0.45175E+06         0.00000E+00
    0.45175E+06        -0.41051E+08         0.00000E+00
    0.00000E+00         0.00000E+00        -0.18865E+08
 
   -0.18874E+08         0.44537E+06         0.00000E+00
    0.44537E+06        -0.41404E+08         0.00000E+00
    0.00000E+00         0.00000E+00        -0.19014E+08
 
   -0.19031E+08         0.43859E+06         0.00000E+00
    0.43859E+06        -0.41752E+08         0.00000E+00
    0.00000E+00         0.00000E+00        -0.19174E+08
 
   -0.19188E+08         0.43382E+06         0.00000E+00
    0.43382E+06        -0.42101E+08         0.00000E+00
    0.00000E+00         0.00000E+00        -0.19332E+08
 
   -0.19348E+08         0.43087E+06         0.00000E+00
    0.43087E+06        -0.42451E+08         0.00000E+00
    0.00000E+00         0.00000E+00        -0.19490E+08
 
   -0.19509E+08         0.42902E+06         0.00000E+00
    0.42902E+06        -0.42801E+08         0.00000E+00
    0.00000E+00         0.00000E+00        -0.19646E+08
 
   -0.19671E+08         0.42772E+06         0.00000E+00
    0.42772E+06        -0.43152E+08         0.00000E+00
    0.00000E+00         0.00000E+00        -0.19802E+08
 
   -0.19834E+08         0.42645E+06         0.00000E+00
    0.42645E+06        -0.43503E+08         0.00000E+00
    0.00000E+00         0.00000E+00        -0.19957E+08
 
   -0.19999E+08         0.42460E+06         0.00000E+00
    0.42460E+06        -0.43854E+08         0.00000E+00
    0.00000E+00         0.00000E+00        -0.20110E+08
 
   -0.20164E+08         0.42179E+06         0.00000E+00
    0.42179E+06        -0.44208E+08         0.00000E+00
    0.00000E+00         0.00000E+00        -0.20263E+08
 
   -0.20330E+08         0.41837E+06         0.00000E+00
    0.41837E+06        -0.44562E+08         0.00000E+00
    0.00000E+00         0.00000E+00        -0.20419E+08
 
   -0.20496E+08         0.41234E+06         0.00000E+00
    0.41234E+06        -0.44908E+08         0.00000E+00
    0.00000E+00         0.00000E+00        -0.20585E+08
 
   -0.20662E+08         0.40796E+06         0.00000E+00
    0.40796E+06        -0.45254E+08         0.00000E+00
    0.00000E+00         0.00000E+00        -0.20753E+08
 
   -0.20831E+08         0.40496E+06         0.00000E+00
    0.40496E+06        -0.45602E+08         0.00000E+00
    0.00000E+00         0.00000E+00        -0.20921E+08
 
   -0.21000E+08         0.40275E+06         0.00000E+00
    0.40275E+06        -0.45949E+08         0.00000E+00
    0.00000E+00         0.00000E+00        -0.21088E+08
 
   -0.21171E+08         0.40093E+06         0.00000E+00
    0.40093E+06        -0.46297E+08         0.00000E+00
    0.00000E+00         0.00000E+00        -0.21255E+08
 
   -0.21343E+08         0.39913E+06         0.00000E+00
    0.39913E+06        -0.46645E+08         0.00000E+00
    0.00000E+00         0.00000E+00        -0.21421E+08
 
   -0.21516E+08         0.39695E+06         0.00000E+00
    0.39695E+06        -0.46993E+08         0.00000E+00
    0.00000E+00         0.00000E+00        -0.21587E+08
 
   -0.21690E+08         0.39411E+06         0.00000E+00
    0.39411E+06        -0.47343E+08         0.00000E+00
    0.00000E+00         0.00000E+00        -0.21752E+08
 
   -0.21865E+08         0.39070E+06         0.00000E+00
    0.39070E+06        -0.47691E+08         0.00000E+00
    0.00000E+00         0.00000E+00        -0.21920E+08
 
   -0.22040E+08         0.38701E+06         0.00000E+00
    0.38701E+06        -0.48036E+08         0.00000E+00
    0.00000E+00         0.00000E+00        -0.22093E+08
 
   -0.22216E+08         0.38406E+06         0.00000E+00
    0.38406E+06        -0.48381E+08         0.00000E+00
    0.00000E+00         0.00000E+00        -0.22267E+08
 
   -0.22393E+08         0.38174E+06         0.00000E+00
    0.38174E+06        -0.48726E+08         0.00000E+00
    0.00000E+00         0.00000E+00        -0.22440E+08
 
   -0.22570E+08         0.37980E+06         0.00000E+00
    0.37980E+06        -0.49072E+08         0.00000E+00
    0.00000E+00         0.00000E+00        -0.22612E+08
 
   -0.22749E+08         0.37804E+06         0.00000E+00
    0.37804E+06        -0.49417E+08         0.00000E+00
    0.00000E+00         0.00000E+00        -0.22784E+08
 
   -0.22928E+08         0.37635E+06         0.00000E+00
    0.37635E+06        -0.49763E+08         0.00000E+00
    0.00000E+00         0.00000E+00        -0.22956E+08
 
   -0.23108E+08         0.37467E+06         0.00000E+00
    0.37467E+06        -0.50108E+08         0.00000E+00
    0.00000E+00         0.00000E+00        -0.23127E+08
 
   -0.23288E+08         0.37297E+06         0.00000E+00
    0.37297E+06        -0.50453E+08         0.00000E+00
    0.00000E+00         0.00000E+00        -0.23298E+08
 
   -0.23469E+08         0.37122E+06         0.00000E+00
    0.37122E+06        -0.50797E+08         0.00000E+00
    0.00000E+00         0.00000E+00        -0.23469E+08
 
   -0.23651E+08         0.36940E+06         0.00000E+00
    0.36940E+06        -0.51141E+08         0.00000E+00
    0.00000E+00         0.00000E+00        -0.23640E+08
 
   -0.23836E+08         0.36744E+06         0.00000E+00
    0.36744E+06        -0.51482E+08         0.00000E+00
    0.00000E+00         0.00000E+00        -0.23813E+08
 
   -0.24023E+08         0.36539E+06         0.00000E+00
    0.36539E+06        -0.51822E+08         0.00000E+00
    0.00000E+00         0.00000E+00        -0.23987E+08
 
   -0.24210E+08         0.36328E+06         0.00000E+00
    0.36328E+06        -0.52162E+08         0.00000E+00
    0.00000E+00         0.00000E+00        -0.24160E+08
 
   -0.24397E+08         0.36108E+06         0.00000E+00
    0.36108E+06        -0.52502E+08         0.00000E+00
    0.00000E+00         0.00000E+00        -0.24332E+08
 
   -0.24586E+08         0.35880E+06         0.00000E+00
    0.35880E+06        -0.52842E+08         0.00000E+00
    0.00000E+00         0.00000E+00        -0.24504E+08
 
   -0.24774E+08         0.35642E+06         0.00000E+00
    0.35642E+06        -0.53182E+08         0.00000E+00
    0.00000E+00         0.00000E+00        -0.24675E+08
 
   -0.24964E+08         0.35393E+06         0.00000E+00
    0.35393E+06        -0.53522E+08         0.00000E+00
    0.00000E+00         0.00000E+00        -0.24845E+08
 
   -0.25154E+08         0.35130E+06         0.00000E+00
    0.35130E+06        -0.53862E+08         0.00000E+00
    0.00000E+00         0.00000E+00        -0.25015E+08
 
   -0.25344E+08         0.34852E+06         0.00000E+00
    0.34852E+06        -0.54202E+08         0.00000E+00
    0.00000E+00         0.00000E+00        -0.25184E+08
 
   -0.25536E+08         0.34553E+06         0.00000E+00
    0.34553E+06        -0.54542E+08         0.00000E+00
    0.00000E+00         0.00000E+00        -0.25352E+08
 
   -0.25729E+08         0.34228E+06         0.00000E+00
    0.34228E+06        -0.54882E+08         0.00000E+00
    0.00000E+00         0.00000E+00        -0.25519E+08
 
   -0.25923E+08         0.33869E+06         0.00000E+00
    0.33869E+06        -0.55222E+08         0.00000E+00
    0.00000E+00         0.00000E+00        -0.25686E+08
 
   -0.26119E+08         0.33465E+06         0.00000E+00
    0.33465E+06        -0.55563E+08         0.00000E+00
    0.00000E+00         0.00000E+00        -0.25851E+08
 
   -0.26316E+08         0.33001E+06         0.00000E+00
    0.33001E+06        -0.55904E+08         0.00000E+00
    0.00000E+00         0.00000E+00        -0.26015E+08
 
   -0.26514E+08         0.32460E+06         0.00000E+00
    0.32460E+06        -0.56245E+08         0.00000E+00
    0.00000E+00         0.00000E+00        -0.26177E+08
 
   -0.26716E+08         0.31817E+06         0.00000E+00
    0.31817E+06        -0.56586E+08         0.00000E+00
    0.00000E+00         0.00000E+00        -0.26338E+08
 
   -0.26919E+08         0.31046E+06         0.00000E+00
    0.31046E+06        -0.56928E+08         0.00000E+00
    0.00000E+00         0.00000E+00        -0.26496E+08
 
   -0.27126E+08         0.30112E+06         0.00000E+00
    0.30112E+06        -0.57271E+08         0.00000E+00
    0.00000E+00         0.00000E+00        -0.26652E+08
 
   -0.27337E+08         0.28977E+06         0.00000E+00
    0.28977E+06        -0.57614E+08         0.00000E+00
    0.00000E+00         0.00000E+00        -0.26806E+08
 
   -0.27552E+08         0.27602E+06         0.00000E+00
    0.27602E+06        -0.57958E+08         0.00000E+00
    0.00000E+00         0.00000E+00        -0.26956E+08
 
   -0.27772E+08         0.25945E+06         0.00000E+00
    0.25945E+06        -0.58303E+08         0.00000E+00
    0.00000E+00         0.00000E+00        -0.27101E+08
 
   -0.27999E+08         0.23973E+06         0.00000E+00
    0.23973E+06        -0.58649E+08         0.00000E+00
    0.00000E+00         0.00000E+00        -0.27242E+08
 
   -0.28232E+08         0.21664E+06         0.00000E+00
    0.21664E+06        -0.58995E+08         0.00000E+00
    0.00000E+00         0.00000E+00        -0.27377E+08
 
   -0.28474E+08         0.19018E+06         0.00000E+00
    0.19018E+06        -0.59341E+08         0.00000E+00
    0.00000E+00         0.00000E+00        -0.27504E+08
 
   -0.28725E+08         0.16065E+06         0.00000E+00
    0.16065E+06        -0.59687E+08         0.00000E+00
    0.00000E+00         0.00000E+00        -0.27623E+08
 
   -0.28988E+08         0.12874E+06         0.00000E+00
    0.12874E+06        -0.60033E+08         0.00000E+00
    0.00000E+00         0.00000E+00        -0.27732E+08
 
   -0.29262E+08         0.95509E+05         0.00000E+00
    0.95509E+05        -0.60378E+08         0.00000E+00
    0.00000E+00         0.00000E+00        -0.27830E+08
 
   -0.29549E+08         0.62355E+05         0.00000E+00
    0.62355E+05        -0.60722E+08         0.00000E+00
    0.00000E+00         0.00000E+00        -0.27917E+08
 
   -0.29849E+08         0.30455E+05         0.00000E+00
    0.30455E+05        -0.61066E+08         0.00000E+00
    0.00000E+00         0.00000E+00        -0.27993E+08
 
   -0.30162E+08         0.11094E+04         0.00000E+00
    0.11094E+04        -0.61411E+08         0.00000E+00
    0.00000E+00         0.00000E+00        -0.28060E+08
 
   -0.30481E+08        -0.20680E+05         0.00000E+00
   -0.20680E+05        -0.61754E+08         0.00000E+00
    0.00000E+00         0.00000E+00        -0.28122E+08
 
   -0.30802E+08        -0.25875E+05         0.00000E+00
   -0.25875E+05        -0.62082E+08         0.00000E+00
    0.00000E+00         0.00000E+00        -0.28170E+08
 
   -0.31129E+08        -0.11552E+05         0.00000E+00
   -0.11552E+05        -0.62374E+08         0.00000E+00
    0.00000E+00         0.00000E+00        -0.28179E+08
 
   -0.10960E+08        -0.10637E+05         0.00000E+00
   -0.10637E+05        -0.27748E+08         0.00000E+00
    0.00000E+00         0.00000E+00        -0.15316E+08
 
   -0.11330E+08        -0.22514E+05         0.00000E+00
   -0.22514E+05        -0.28105E+08         0.00000E+00
    0.00000E+00         0.00000E+00        -0.15241E+08
 
   -0.11711E+08        -0.60116E+04         0.00000E+00
   -0.60116E+04        -0.28463E+08         0.00000E+00
    0.00000E+00         0.00000E+00        -0.15211E+08
 
   -0.12090E+08         0.36757E+05         0.00000E+00
    0.36757E+05        -0.28826E+08         0.00000E+00
    0.00000E+00         0.00000E+00        -0.15194E+08
 
   -0.12449E+08         0.86484E+05         0.00000E+00
    0.86484E+05        -0.29192E+08         0.00000E+00
    0.00000E+00         0.00000E+00        -0.15181E+08
 
   -0.12776E+08         0.12985E+06         0.00000E+00
    0.12985E+06        -0.29561E+08         0.00000E+00
    0.00000E+00         0.00000E+00        -0.15177E+08
 
   -0.13076E+08         0.16274E+06         0.00000E+00
    0.16274E+06        -0.29932E+08         0.00000E+00
    0.00000E+00         0.00000E+00        -0.15186E+08
 
   -0.13354E+08         0.18635E+06         0.00000E+00
    0.18635E+06        -0.30299E+08         0.00000E+00
    0.00000E+00         0.00000E+00        -0.15210E+08
 
   -0.13615E+08         0.20481E+06         0.00000E+00
    0.20481E+06        -0.30661E+08         0.00000E+00
    0.00000E+00         0.00000E+00        -0.15252E+08
 
   -0.13863E+08         0.22239E+06         0.00000E+00
    0.22239E+06        -0.31018E+08         0.00000E+00
    0.00000E+00         0.00000E+00        -0.15309E+08
 
   -0.14098E+08         0.24163E+06         0.00000E+00
    0.24163E+06        -0.31374E+08         0.00000E+00
    0.00000E+00         0.00000E+00        -0.15382E+08
 
   -0.14322E+08         0.26302E+06         0.00000E+00
    0.26302E+06        -0.31731E+08         0.00000E+00
    0.00000E+00         0.00000E+00        -0.15467E+08
 
   -0.14536E+08         0.28573E+06         0.00000E+00
    0.28573E+06        -0.32090E+08         0.00000E+00
    0.00000E+00         0.00000E+00        -0.15562E+08
 
   -0.14742E+08         0.30847E+06         0.00000E+00
    0.30847E+06        -0.32450E+08         0.00000E+00
    0.00000E+00         0.00000E+00        -0.15665E+08
 
   -0.14939E+08         0.33012E+06         0.00000E+00
    0.33012E+06        -0.32811E+08         0.00000E+00
    0.00000E+00         0.00000E+00        -0.15775E+08
 
   -0.15129E+08         0.34992E+06         0.00000E+00
    0.34992E+06        -0.33173E+08         0.00000E+00
    0.00000E+00         0.00000E+00        -0.15890E+08
 
   -0.15312E+08         0.36754E+06         0.00000E+00
    0.36754E+06        -0.33536E+08         0.00000E+00
    0.00000E+00         0.00000E+00        -0.16007E+08
 
   -0.15491E+08         0.38291E+06         0.00000E+00
    0.38291E+06        -0.33897E+08         0.00000E+00
    0.00000E+00         0.00000E+00        -0.16126E+08
 
   -0.15664E+08         0.39614E+06         0.00000E+00
    0.39614E+06        -0.34259E+08         0.00000E+00
    0.00000E+00         0.00000E+00        -0.16246E+08
 
   -0.15834E+08         0.40733E+06         0.00000E+00
    0.40733E+06        -0.34620E+08         0.00000E+00
    0.00000E+00         0.00000E+00        -0.16366E+08
 
   -0.16001E+08         0.41643E+06         0.00000E+00
    0.41643E+06        -0.34980E+08         0.00000E+00
    0.00000E+00         0.00000E+00        -0.16485E+08
 
   -0.16166E+08         0.42283E+06         0.00000E+00
    0.42283E+06        -0.35342E+08         0.00000E+00
    0.00000E+00         0.00000E+00        -0.16603E+08
 
   -0.16330E+08         0.42522E+06         0.00000E+00
    0.42522E+06        -0.35706E+08         0.00000E+00
    0.00000E+00         0.00000E+00        -0.16719E+08
 
   -0.16493E+08         0.42277E+06         0.00000E+00
    0.42277E+06        -0.36078E+08         0.00000E+00
    0.00000E+00         0.00000E+00        -0.16833E+08
 
   -0.16652E+08         0.41541E+06         0.00000E+00
    0.41541E+06        -0.36437E+08         0.00000E+00
    0.00000E+00         0.00000E+00        -0.16970E+08
 
   -0.16808E+08         0.40785E+06         0.00000E+00
    0.40785E+06        -0.36785E+08         0.00000E+00
    0.00000E+00         0.00000E+00        -0.17127E+08
 
   -0.16966E+08         0.40356E+06         0.00000E+00
    0.40356E+06        -0.37138E+08         0.00000E+00
    0.00000E+00         0.00000E+00        -0.17282E+08
 
   -0.17124E+08         0.40210E+06         0.00000E+00
    0.40210E+06        -0.37493E+08         0.00000E+00
    0.00000E+00         0.00000E+00        -0.17435E+08
 
   -0.17284E+08         0.40240E+06         0.00000E+00
    0.40240E+06        -0.37848E+08         0.00000E+00
    0.00000E+00         0.00000E+00        -0.17587E+08
 
   -0.17443E+08         0.40374E+06         0.00000E+00
    0.40374E+06        -0.38203E+08         0.00000E+00
    0.00000E+00         0.00000E+00        -0.17736E+08
 
   -0.17602E+08         0.40572E+06         0.00000E+00
    0.40572E+06        -0.38558E+08         0.00000E+00
    0.00000E+00         0.00000E+00        -0.17884E+08
 
   -0.17760E+08         0.40803E+06         0.00000E+00
    0.40803E+06        -0.38913E+08         0.00000E+00
    0.00000E+00         0.00000E+00        -0.18029E+08
 
   -0.17918E+08         0.41046E+06         0.00000E+00
    0.41046E+06        -0.39268E+08         0.00000E+00
    0.00000E+00         0.00000E+00        -0.18172E+08
 
   -0.18076E+08         0.41279E+06         0.00000E+00
    0.41279E+06        -0.39622E+08         0.00000E+00
    0.00000E+00         0.00000E+00        -0.18314E+08
 
   -0.18234E+08         0.41471E+06         0.00000E+00
    0.41471E+06        -0.39977E+08         0.00000E+00
    0.00000E+00         0.00000E+00        -0.18453E+08
 
   -0.18392E+08         0.41559E+06         0.00000E+00
    0.41559E+06        -0.40331E+08         0.00000E+00
    0.00000E+00         0.00000E+00        -0.18590E+08
 
   -0.18550E+08         0.41467E+06         0.00000E+00
    0.41467E+06        -0.40688E+08         0.00000E+00
    0.00000E+00         0.00000E+00        -0.18726E+08
 
   -0.18708E+08         0.41276E+06         0.00000E+00
    0.41276E+06        -0.41050E+08         0.00000E+00
    0.00000E+00         0.00000E+00        -0.18861E+08
 
   -0.18865E+08         0.40596E+06         0.00000E+00
    0.40596E+06        -0.41402E+08         0.00000E+00
    0.00000E+00         0.00000E+00        -0.19011E+08
 
   -0.19021E+08         0.39958E+06         0.00000E+00
    0.39958E+06        -0.41751E+08         0.00000E+00
    0.00000E+00         0.00000E+00        -0.19171E+08
 
   -0.19180E+08         0.39522E+06         0.00000E+00
    0.39522E+06        -0.42100E+08         0.00000E+00
    0.00000E+00         0.00000E+00        -0.19329E+08
 
   -0.19340E+08         0.39264E+06         0.00000E+00
    0.39264E+06        -0.42451E+08         0.00000E+00
    0.00000E+00         0.00000E+00        -0.19487E+08
 
   -0.19501E+08         0.39111E+06         0.00000E+00
    0.39111E+06        -0.42801E+08         0.00000E+00
    0.00000E+00         0.00000E+00        -0.19644E+08
 
   -0.19664E+08         0.39012E+06         0.00000E+00
    0.39012E+06        -0.43152E+08         0.00000E+00
    0.00000E+00         0.00000E+00        -0.19799E+08
 
   -0.19827E+08         0.38918E+06         0.00000E+00
    0.38918E+06        -0.43502E+08         0.00000E+00
    0.00000E+00         0.00000E+00        -0.19954E+08
 
   -0.19992E+08         0.38764E+06         0.00000E+00
    0.38764E+06        -0.43854E+08         0.00000E+00
    0.00000E+00         0.00000E+00        -0.20108E+08
 
   -0.20158E+08         0.38501E+06         0.00000E+00
    0.38501E+06        -0.44207E+08         0.00000E+00
    0.00000E+00         0.00000E+00        -0.20261E+08
 
   -0.20324E+08         0.38162E+06         0.00000E+00
    0.38162E+06        -0.44561E+08         0.00000E+00
    0.00000E+00         0.00000E+00        -0.20417E+08
 
   -0.20490E+08         0.37577E+06         0.00000E+00
    0.37577E+06        -0.44907E+08         0.00000E+00
    0.00000E+00         0.00000E+00        -0.20583E+08
 
   -0.20657E+08         0.37172E+06         0.00000E+00
    0.37172E+06        -0.45254E+08         0.00000E+00
    0.00000E+00         0.00000E+00        -0.20752E+08
 
   -0.20826E+08         0.36908E+06         0.00000E+00
    0.36908E+06        -0.45601E+08         0.00000E+00
    0.00000E+00         0.00000E+00        -0.20919E+08
 
   -0.20996E+08         0.36721E+06         0.00000E+00
    0.36721E+06        -0.45949E+08         0.00000E+00
    0.00000E+00         0.00000E+00        -0.21087E+08
 
   -0.21168E+08         0.36568E+06         0.00000E+00
    0.36568E+06        -0.46297E+08         0.00000E+00
    0.00000E+00         0.00000E+00        -0.21253E+08
 
   -0.21340E+08         0.36417E+06         0.00000E+00
    0.36417E+06        -0.46645E+08         0.00000E+00
    0.00000E+00         0.00000E+00        -0.21420E+08
 
   -0.21513E+08         0.36226E+06         0.00000E+00
    0.36226E+06        -0.46993E+08         0.00000E+00
    0.00000E+00         0.00000E+00        -0.21585E+08
 
   -0.21688E+08         0.35962E+06         0.00000E+00
    0.35962E+06        -0.47342E+08         0.00000E+00
    0.00000E+00         0.00000E+00        -0.21751E+08
 
   -0.21863E+08         0.35633E+06         0.00000E+00
    0.35633E+06        -0.47691E+08         0.00000E+00
    0.00000E+00         0.00000E+00        -0.21919E+08
 
   -0.22038E+08         0.35283E+06         0.00000E+00
    0.35283E+06        -0.48035E+08         0.00000E+00
    0.00000E+00         0.00000E+00        -0.22092E+08
 
   -0.22214E+08         0.35011E+06         0.00000E+00
    0.35011E+06        -0.48380E+08         0.00000E+00
    0.00000E+00         0.00000E+00        -0.22265E+08
 
   -0.22391E+08         0.34804E+06         0.00000E+00
    0.34804E+06        -0.48726E+08         0.00000E+00
    0.00000E+00         0.00000E+00        -0.22438E+08
 
   -0.22569E+08         0.34631E+06         0.00000E+00
    0.34631E+06        -0.49071E+08         0.00000E+00
    0.00000E+00         0.00000E+00        -0.22610E+08
 
   -0.22748E+08         0.34475E+06         0.00000E+00
    0.34475E+06        -0.49417E+08         0.00000E+00
    0.00000E+00         0.00000E+00        -0.22782E+08
 
   -0.22928E+08         0.34324E+06         0.00000E+00
    0.34324E+06        -0.49762E+08         0.00000E+00
    0.00000E+00         0.00000E+00        -0.22954E+08
 
   -0.23108E+08         0.34173E+06         0.00000E+00
    0.34173E+06        -0.50107E+08         0.00000E+00
    0.00000E+00         0.00000E+00        -0.23125E+08
 
   -0.23288E+08         0.34018E+06         0.00000E+00
    0.34018E+06        -0.50452E+08         0.00000E+00
    0.00000E+00         0.00000E+00        -0.23296E+08
 
   -0.23470E+08         0.33860E+06         0.00000E+00
    0.33860E+06        -0.50797E+08         0.00000E+00
    0.00000E+00         0.00000E+00        -0.23467E+08
 
   -0.23652E+08         0.33693E+06         0.00000E+00
    0.33693E+06        -0.51141E+08         0.00000E+00
    0.00000E+00         0.00000E+00        -0.23638E+08
 
   -0.23838E+08         0.33515E+06         0.00000E+00
    0.33515E+06        -0.51482E+08         0.00000E+00
    0.00000E+00         0.00000E+00        -0.23810E+08
 
   -0.24024E+08         0.33328E+06         0.00000E+00
    0.33328E+06        -0.51822E+08         0.00000E+00
    0.00000E+00         0.00000E+00        -0.23984E+08
 
   -0.24212E+08         0.33134E+06         0.00000E+00
    0.33134E+06        -0.52162E+08         0.00000E+00
    0.00000E+00         0.00000E+00        -0.24156E+08
 
   -0.24399E+08         0.32932E+06         0.00000E+00
    0.32932E+06        -0.52502E+08         0.00000E+00
    0.00000E+00         0.00000E+00        -0.24328E+08
 
   -0.24588E+08         0.32723E+06         0.00000E+00
    0.32723E+06        -0.52842E+08         0.00000E+00
    0.00000E+00         0.00000E+00        -0.24500E+08
 
   -0.24777E+08         0.32505E+06         0.00000E+00
    0.32505E+06        -0.53182E+08         0.00000E+00
    0.00000E+00         0.00000E+00        -0.24671E+08
 
   -0.24966E+08         0.32276E+06         0.00000E+00
    0.32276E+06        -0.53522E+08         0.00000E+00
    0.00000E+00         0.00000E+00        -0.24841E+08
 
   -0.25157E+08         0.32036E+06         0.00000E+00
    0.32036E+06        -0.53862E+08         0.00000E+00
    0.00000E+00         0.00000E+00        -0.25010E+08
 
   -0.25348E+08         0.31781E+06         0.00000E+00
    0.31781E+06        -0.54202E+08         0.00000E+00
    0.00000E+00         0.00000E+00        -0.25179E+08
 
   -0.25540E+08         0.31508E+06         0.00000E+00
    0.31508E+06        -0.54542E+08         0.00000E+00
    0.00000E+00         0.00000E+00        -0.25347E+08
 
   -0.25733E+08         0.31212E+06         0.00000E+00
    0.31212E+06        -0.54882E+08         0.00000E+00
    0.00000E+00         0.00000E+00        -0.25514E+08
 
   -0.25928E+08         0.30884E+06         0.00000E+00
    0.30884E+06        -0.55222E+08         0.00000E+00
    0.00000E+00         0.00000E+00        -0.25680E+08
 
   -0.26123E+08         0.30515E+06         0.00000E+00
    0.30515E+06        -0.55563E+08         0.00000E+00
    0.00000E+00         0.00000E+00        -0.25845E+08
 
   -0.26321E+08         0.30092E+06         0.00000E+00
    0.30092E+06        -0.55903E+08         0.00000E+00
    0.00000E+00         0.00000E+00        -0.26008E+08
 
   -0.26520E+08         0.29598E+06         0.00000E+00
    0.29598E+06        -0.56244E+08         0.00000E+00
    0.00000E+00         0.00000E+00        -0.26170E+08
 
   -0.26721E+08         0.29010E+06         0.00000E+00
    0.29010E+06        -0.56586E+08         0.00000E+00
    0.00000E+00         0.00000E+00        -0.26330E+08
 
   -0.26926E+08         0.28302E+06         0.00000E+00
    0.28302E+06        -0.56927E+08         0.00000E+00
    0.00000E+00         0.00000E+00        -0.26488E+08
 
   -0.27133E+08         0.27443E+06         0.00000E+00
    0.27443E+06        -0.57270E+08         0.00000E+00
    0.00000E+00         0.00000E+00        -0.26643E+08
 
   -0.27344E+08         0.26397E+06         0.00000E+00
    0.26397E+06        -0.57612E+08         0.00000E+00
    0.00000E+00         0.00000E+00        -0.26796E+08
 
   -0.27560E+08         0.25126E+06         0.00000E+00
    0.25126E+06        -0.57956E+08         0.00000E+00
    0.00000E+00         0.00000E+00        -0.26945E+08
 
   -0.27781E+08         0.23593E+06         0.00000E+00
    0.23593E+06        -0.58300E+08         0.00000E+00
    0.00000E+00         0.00000E+00        -0.27089E+08
 
   -0.28008E+08         0.21765E+06         0.00000E+00
    0.21765E+06        -0.58645E+08         0.00000E+00
    0.00000E+00         0.00000E+00        -0.27229E+08
 
   -0.28243E+08         0.19624E+06         0.00000E+00
    0.19624E+06        -0.58990E+08         0.00000E+00
    0.00000E+00         0.00000E+00        -0.27361E+08
 
   -0.28486E+08         0.17172E+06         0.00000E+00
    0.17172E+06        -0.59336E+08         0.00000E+00
    0.00000E+00         0.00000E+00        -0.27487E+08
 
   -0.28740E+08         0.14441E+06         0.00000E+00
    0.14441E+06        -0.59682E+08         0.00000E+00
    0.00000E+00         0.00000E+00        -0.27604E+08
 
   -0.29004E+08         0.11499E+06         0.00000E+00
    0.11499E+06        -0.60027E+08         0.00000E+00
    0.00000E+00         0.00000E+00        -0.27710E+08
 
   -0.29281E+08         0.84479E+05         0.00000E+00
    0.84479E+05        -0.60372E+08         0.00000E+00
    0.00000E+00         0.00000E+00        -0.27806E+08
 
   -0.29571E+08         0.54160E+05         0.00000E+00
    0.54160E+05        -0.60716E+08         0.00000E+00
    0.00000E+00         0.00000E+00        -0.27891E+08
 
   -0.29874E+08         0.25118E+05         0.00000E+00
    0.25118E+05        -0.61060E+08         0.00000E+00
    0.00000E+00         0.00000E+00        -0.27965E+08
 
   -0.30190E+08        -0.21133E+04         0.00000E+00
   -0.21133E+04        -0.61406E+08         0.00000E+00
    0.00000E+00         0.00000E+00        -0.28030E+08
 
   -0.30514E+08        -0.23516E+05         0.00000E+00
   -0.23516E+05        -0.61751E+08         0.00000E+00
    0.00000E+00         0.00000E+00        -0.28091E+08
 
   -0.30838E+08        -0.28900E+05         0.00000E+00
   -0.28900E+05        -0.62084E+08         0.00000E+00
    0.00000E+00         0.00000E+00        -0.28142E+08
 
   -0.31165E+08        -0.13015E+05         0.00000E+00
   -0.13015E+05        -0.62379E+08         0.00000E+00
    0.00000E+00         0.00000E+00        -0.28154E+08
 
   -0.10920E+08        -0.97310E+04         0.00000E+00
   -0.97310E+04        -0.27743E+08         0.00000E+00
    0.00000E+00         0.00000E+00        -0.15343E+08
 
   -0.11294E+08        -0.19428E+05         0.00000E+00
   -0.19428E+05        -0.28105E+08         0.00000E+00
    0.00000E+00         0.00000E+00        -0.15277E+08
 
   -0.11681E+08        -0.11001E+04         0.00000E+00
   -0.11001E+04        -0.28470E+08         0.00000E+00
    0.00000E+00         0.00000E+00        -0.15252E+08
 
   -0.12065E+08         0.39388E+05         0.00000E+00
    0.39388E+05        -0.28836E+08         0.00000E+00
    0.00000E+00         0.00000E+00        -0.15234E+08
 
   -0.12425E+08         0.83108E+05         0.00000E+00
    0.83108E+05        -0.29201E+08         0.00000E+00
    0.00000E+00         0.00000E+00        -0.15217E+08
 
   -0.12754E+08         0.12019E+06         0.00000E+00
    0.12019E+06        -0.29569E+08         0.00000E+00
    0.00000E+00         0.00000E+00        -0.15208E+08
 
   -0.13053E+08         0.14807E+06         0.00000E+00
    0.14807E+06        -0.29937E+08         0.00000E+00
    0.00000E+00         0.00000E+00        -0.15211E+08
 
   -0.13332E+08         0.16794E+06         0.00000E+00
    0.16794E+06        -0.30302E+08         0.00000E+00
    0.00000E+00         0.00000E+00        -0.15230E+08
 
   -0.13593E+08         0.18349E+06         0.00000E+00
    0.18349E+06        -0.30664E+08         0.00000E+00
    0.00000E+00         0.00000E+00        -0.15266E+08
 
   -0.13842E+08         0.19859E+06         0.00000E+00
    0.19859E+06        -0.31022E+08         0.00000E+00
    0.00000E+00         0.00000E+00        -0.15319E+08
 
   -0.14079E+08         0.21558E+06         0.00000E+00
    0.21558E+06        -0.31378E+08         0.00000E+00
    0.00000E+00         0.00000E+00        -0.15387E+08
 
   -0.14305E+08         0.23489E+06         0.00000E+00
    0.23489E+06        -0.31735E+08         0.00000E+00
    0.00000E+00         0.00000E+00        -0.15468E+08
 
   -0.14521E+08         0.25570E+06         0.00000E+00
    0.25570E+06        -0.32094E+08         0.00000E+00
    0.00000E+00         0.00000E+00        -0.15561E+08
 
   -0.14728E+08         0.27674E+06         0.00000E+00
    0.27674E+06        -0.32454E+08         0.00000E+00
    0.00000E+00         0.00000E+00        -0.15662E+08
 
   -0.14926E+08         0.29688E+06         0.00000E+00
    0.29688E+06        -0.32815E+08         0.00000E+00
    0.00000E+00         0.00000E+00        -0.15770E+08
 
   -0.15117E+08         0.31536E+06         0.00000E+00
    0.31536E+06        -0.33177E+08         0.00000E+00
    0.00000E+00         0.00000E+00        -0.15883E+08
 
   -0.15301E+08         0.33183E+06         0.00000E+00
    0.33183E+06        -0.33539E+08         0.00000E+00
    0.00000E+00         0.00000E+00        -0.15999E+08
 
   -0.15479E+08         0.34621E+06         0.00000E+00
    0.34621E+06        -0.33900E+08         0.00000E+00
    0.00000E+00         0.00000E+00        -0.16118E+08
 
   -0.15653E+08         0.35861E+06         0.00000E+00
    0.35861E+06        -0.34261E+08         0.00000E+00
    0.00000E+00         0.00000E+00        -0.16237E+08
 
   -0.15822E+08         0.36915E+06         0.00000E+00
    0.36915E+06        -0.34622E+08         0.00000E+00
    0.00000E+00         0.00000E+00        -0.16357E+08
 
   -0.15988E+08         0.37781E+06         0.00000E+00
    0.37781E+06        -0.34982E+08         0.00000E+00
    0.00000E+00         0.00000E+00        -0.16476E+08
 
   -0.16153E+08         0.38402E+06         0.00000E+00
    0.38402E+06        -0.35342E+08         0.00000E+00
    0.00000E+00         0.00000E+00        -0.16593E+08
 
   -0.16316E+08         0.38631E+06         0.00000E+00
    0.38631E+06        -0.35706E+08         0.00000E+00
    0.00000E+00         0.00000E+00        -0.16709E+08
 
   -0.16478E+08         0.38341E+06         0.00000E+00
    0.38341E+06        -0.36077E+08         0.00000E+00
    0.00000E+00         0.00000E+00        -0.16824E+08
 
   -0.16636E+08         0.37533E+06         0.00000E+00
    0.37533E+06        -0.36435E+08         0.00000E+00
    0.00000E+00         0.00000E+00        -0.16962E+08
 
   -0.16794E+08         0.36780E+06         0.00000E+00
    0.36780E+06        -0.36784E+08         0.00000E+00
    0.00000E+00         0.00000E+00        -0.17119E+08
 
   -0.16951E+08         0.36385E+06         0.00000E+00
    0.36385E+06        -0.37138E+08         0.00000E+00
    0.00000E+00         0.00000E+00        -0.17274E+08
 
   -0.17111E+08         0.36269E+06         0.00000E+00
    0.36269E+06        -0.37493E+08         0.00000E+00
    0.00000E+00         0.00000E+00        -0.17428E+08
 
   -0.17271E+08         0.36312E+06         0.00000E+00
    0.36312E+06        -0.37848E+08         0.00000E+00
    0.00000E+00         0.00000E+00        -0.17580E+08
 
   -0.17431E+08         0.36450E+06         0.00000E+00
    0.36450E+06        -0.38203E+08         0.00000E+00
    0.00000E+00         0.00000E+00        -0.17729E+08
 
   -0.17591E+08         0.36645E+06         0.00000E+00
    0.36645E+06        -0.38558E+08         0.00000E+00
    0.00000E+00         0.00000E+00        -0.17877E+08
 
   -0.17750E+08         0.36871E+06         0.00000E+00
    0.36871E+06        -0.38913E+08         0.00000E+00
    0.00000E+00         0.00000E+00        -0.18022E+08
 
   -0.17908E+08         0.37110E+06         0.00000E+00
    0.37110E+06        -0.39268E+08         0.00000E+00
    0.00000E+00         0.00000E+00        -0.18166E+08
 
   -0.18066E+08         0.37343E+06         0.00000E+00
    0.37343E+06        -0.39623E+08         0.00000E+00
    0.00000E+00         0.00000E+00        -0.18308E+08
 
   -0.18224E+08         0.37545E+06         0.00000E+00
    0.37545E+06        -0.39977E+08         0.00000E+00
    0.00000E+00         0.00000E+00        -0.18447E+08
 
   -0.18382E+08         0.37650E+06         0.00000E+00
    0.37650E+06        -0.40331E+08         0.00000E+00
    0.00000E+00         0.00000E+00        -0.18585E+08
 
   -0.18540E+08         0.37571E+06         0.00000E+00
    0.37571E+06        -0.40688E+08         0.00000E+00
    0.00000E+00         0.00000E+00        -0.18721E+08
 
   -0.18698E+08         0.37374E+06         0.00000E+00
    0.37374E+06        -0.41049E+08         0.00000E+00
    0.00000E+00         0.00000E+00        -0.18857E+08
 
   -0.18855E+08         0.36663E+06         0.00000E+00
    0.36663E+06        -0.41401E+08         0.00000E+00
    0.00000E+00         0.00000E+00        -0.19008E+08
 
   -0.19012E+08         0.36065E+06         0.00000E+00
    0.36065E+06        -0.41750E+08         0.00000E+00
    0.00000E+00         0.00000E+00        -0.19168E+08
 
   -0.19171E+08         0.35674E+06         0.00000E+00
    0.35674E+06        -0.42100E+08         0.00000E+00
    0.00000E+00         0.00000E+00        -0.19326E+08
 
   -0.19332E+08         0.35453E+06         0.00000E+00
    0.35453E+06        -0.42450E+08         0.00000E+00
    0.00000E+00         0.00000E+00        -0.19484E+08
 
   -0.19494E+08         0.35331E+06         0.00000E+00
    0.35331E+06        -0.42801E+08         0.00000E+00
    0.00000E+00         0.00000E+00        -0.19641E+08
 
   -0.19656E+08         0.35261E+06         0.00000E+00
    0.35261E+06        -0.43151E+08         0.00000E+00
    0.00000E+00         0.00000E+00        -0.19797E+08
 
   -0.19821E+08         0.35197E+06         0.00000E+00
    0.35197E+06        -0.43502E+08         0.00000E+00
    0.00000E+00         0.00000E+00        -0.19952E+08
 
   -0.19986E+08         0.35075E+06         0.00000E+00
    0.35075E+06        -0.43853E+08         0.00000E+00
    0.00000E+00         0.00000E+00        -0.20106E+08
 
   -0.20152E+08         0.34830E+06         0.00000E+00
    0.34830E+06        -0.44206E+08         0.00000E+00
    0.00000E+00         0.00000E+00        -0.20259E+08
 
   -0.20318E+08         0.34493E+06         0.00000E+00
    0.34493E+06        -0.44560E+08         0.00000E+00
    0.00000E+00         0.00000E+00        -0.20416E+08
 
   -0.20485E+08         0.33928E+06         0.00000E+00
    0.33928E+06        -0.44906E+08         0.00000E+00
    0.00000E+00         0.00000E+00        -0.20582E+08
 
   -0.20653E+08         0.33559E+06         0.00000E+00
    0.33559E+06        -0.45253E+08         0.00000E+00
    0.00000E+00         0.00000E+00        -0.20750E+08
 
   -0.20822E+08         0.33331E+06         0.00000E+00
    0.33331E+06        -0.45601E+08         0.00000E+00
    0.00000E+00         0.00000E+00        -0.20918E+08
 
   -0.20992E+08         0.33174E+06         0.00000E+00
    0.33174E+06        -0.45949E+08         0.00000E+00
    0.00000E+00         0.00000E+00        -0.21085E+08
 
   -0.21164E+08         0.33050E+06         0.00000E+00
    0.33050E+06        -0.46297E+08         0.00000E+00
    0.00000E+00         0.00000E+00        -0.21252E+08
 
   -0.21337E+08         0.32926E+06         0.00000E+00
    0.32926E+06        -0.46644E+08         0.00000E+00
    0.00000E+00         0.00000E+00        -0.21418E+08
 
   -0.21510E+08         0.32763E+06         0.00000E+00
    0.32763E+06        -0.46992E+08         0.00000E+00
    0.00000E+00         0.00000E+00        -0.21584E+08
 
   -0.21685E+08         0.32519E+06         0.00000E+00
    0.32519E+06        -0.47341E+08         0.00000E+00
    0.00000E+00         0.00000E+00        -0.21750E+08
 
   -0.21860E+08         0.32202E+06         0.00000E+00
    0.32202E+06        -0.47690E+08         0.00000E+00
    0.00000E+00         0.00000E+00        -0.21917E+08
 
   -0.22036E+08         0.31871E+06         0.00000E+00
    0.31871E+06        -0.48034E+08         0.00000E+00
    0.00000E+00         0.00000E+00        -0.22091E+08
 
   -0.22213E+08         0.31624E+06         0.00000E+00
    0.31624E+06        -0.48380E+08         0.00000E+00
    0.00000E+00         0.00000E+00        -0.22264E+08
 
   -0.22390E+08         0.31441E+06         0.00000E+00
    0.31441E+06        -0.48725E+08         0.00000E+00
    0.00000E+00         0.00000E+00        -0.22436E+08
 
   -0.22569E+08         0.31291E+06         0.00000E+00
    0.31291E+06        -0.49071E+08         0.00000E+00
    0.00000E+00         0.00000E+00        -0.22609E+08
 
   -0.22748E+08         0.31153E+06         0.00000E+00
    0.31153E+06        -0.49417E+08         0.00000E+00
    0.00000E+00         0.00000E+00        -0.22781E+08
 
   -0.22928E+08         0.31019E+06         0.00000E+00
    0.31019E+06        -0.49762E+08         0.00000E+00
    0.00000E+00         0.00000E+00        -0.22952E+08
 
   -0.23108E+08         0.30885E+06         0.00000E+00
    0.30885E+06        -0.50107E+08         0.00000E+00
    0.00000E+00         0.00000E+00        -0.23123E+08
 
   -0.23289E+08         0.30747E+06         0.00000E+00
    0.30747E+06        -0.50452E+08         0.00000E+00
    0.00000E+00         0.00000E+00        -0.23294E+08
 
   -0.23471E+08         0.30603E+06         0.00000E+00
    0.30603E+06        -0.50797E+08         0.00000E+00
    0.00000E+00         0.00000E+00        -0.23464E+08
 
   -0.23653E+08         0.30453E+06         0.00000E+00
    0.30453E+06        -0.51141E+08         0.00000E+00
    0.00000E+00         0.00000E+00        -0.23635E+08
 
   -0.23839E+08         0.30292E+06         0.00000E+00
    0.30292E+06        -0.51482E+08         0.00000E+00
    0.00000E+00         0.00000E+00        -0.23808E+08
 
   -0.24026E+08         0.30122E+06         0.00000E+00
    0.30122E+06        -0.51822E+08         0.00000E+00
    0.00000E+00         0.00000E+00        -0.23980E+08
 
   -0.24213E+08         0.29946E+06         0.00000E+00
    0.29946E+06        -0.52162E+08         0.00000E+00
    0.00000E+00         0.00000E+00        -0.24153E+08
 
   -0.24402E+08         0.29763E+06         0.00000E+00
    0.29763E+06        -0.52502E+08         0.00000E+00
    0.00000E+00         0.00000E+00        -0.24325E+08
 
   -0.24590E+08         0.29572E+06         0.00000E+00
    0.29572E+06        -0.52842E+08         0.00000E+00
    0.00000E+00         0.00000E+00        -0.24496E+08
 
   -0.24780E+08         0.29374E+06         0.00000E+00
    0.29374E+06        -0.53182E+08         0.00000E+00
    0.00000E+00         0.00000E+00        -0.24667E+08
 
   -0.24969E+08         0.29167E+06         0.00000E+00
    0.29167E+06        -0.53522E+08         0.00000E+00
    0.00000E+00         0.00000E+00        -0.24836E+08
 
   -0.25160E+08         0.28949E+06         0.00000E+00
    0.28949E+06        -0.53862E+08         0.00000E+00
    0.00000E+00         0.00000E+00        -0.25006E+08
 
   -0.25352E+08         0.28718E+06         0.00000E+00
    0.28718E+06        -0.54202E+08         0.00000E+00
    0.00000E+00         0.00000E+00        -0.25174E+08
 
   -0.25544E+08         0.28470E+06         0.00000E+00
    0.28470E+06        -0.54542E+08         0.00000E+00
    0.00000E+00         0.00000E+00        -0.25342E+08
 
   -0.25738E+08         0.28202E+06         0.00000E+00
    0.28202E+06        -0.54882E+08         0.00000E+00
    0.00000E+00         0.00000E+00        -0.25508E+08
 
   -0.25932E+08         0.27906E+06         0.00000E+00
    0.27906E+06        -0.55222E+08         0.00000E+00
    0.00000E+00         0.00000E+00        -0.25674E+08
 
   -0.26128E+08         0.27573E+06         0.00000E+00
    0.27573E+06        -0.55563E+08         0.00000E+00
    0.00000E+00         0.00000E+00        -0.25838E+08
 
   -0.26326E+08         0.27190E+06         0.00000E+00
    0.27190E+06        -0.55903E+08         0.00000E+00
    0.00000E+00         0.00000E+00        -0.26001E+08
 
   -0.26526E+08         0.26742E+06         0.00000E+00
    0.26742E+06        -0.56244E+08         0.00000E+00
    0.00000E+00         0.00000E+00        -0.26163E+08
 
   -0.26728E+08         0.26209E+06         0.00000E+00
    0.26209E+06        -0.56585E+08         0.00000E+00
    0.00000E+00         0.00000E+00        -0.26322E+08
 
   -0.26932E+08         0.25566E+06         0.00000E+00
    0.25566E+06        -0.56926E+08         0.00000E+00
    0.00000E+00         0.00000E+00        -0.26480E+08
 
   -0.27140E+08         0.24783E+06         0.00000E+00
    0.24783E+06        -0.57268E+08         0.00000E+00
    0.00000E+00         0.00000E+00        -0.26635E+08
 
   -0.27352E+08         0.23828E+06         0.00000E+00
    0.23828E+06        -0.57611E+08         0.00000E+00
    0.00000E+00         0.00000E+00        -0.26786E+08
 
   -0.27568E+08         0.22664E+06         0.00000E+00
    0.22664E+06        -0.57954E+08         0.00000E+00
    0.00000E+00         0.00000E+00        -0.26934E+08
 
   -0.27790E+08         0.21258E+06         0.00000E+00
    0.21258E+06        -0.58298E+08         0.00000E+00
    0.00000E+00         0.00000E+00        -0.27077E+08
 
   -0.28018E+08         0.19579E+06         0.00000E+00
    0.19579E+06        -0.58642E+08         0.00000E+00
    0.00000E+00         0.00000E+00        -0.27215E+08
 
   -0.28254E+08         0.17612E+06         0.00000E+00
    0.17612E+06        -0.58987E+08         0.00000E+00
    0.00000E+00         0.00000E+00        -0.27347E+08
 
   -0.28499E+08         0.15361E+06         0.00000E+00
    0.15361E+06        -0.59332E+08         0.00000E+00
    0.00000E+00         0.00000E+00        -0.27470E+08
 
   -0.28755E+08         0.12859E+06         0.00000E+00
    0.12859E+06        -0.59677E+08         0.00000E+00
    0.00000E+00         0.00000E+00        -0.27585E+08
 
   -0.29021E+08         0.10173E+06         0.00000E+00
    0.10173E+06        -0.60022E+08         0.00000E+00
    0.00000E+00         0.00000E+00        -0.27689E+08
 
   -0.29301E+08         0.73978E+05         0.00000E+00
    0.73978E+05        -0.60366E+08         0.00000E+00
    0.00000E+00         0.00000E+00        -0.27783E+08
 
   -0.29593E+08         0.46492E+05         0.00000E+00
    0.46492E+05        -0.60711E+08         0.00000E+00
    0.00000E+00         0.00000E+00        -0.27865E+08
 
   -0.29900E+08         0.20359E+05         0.00000E+00
    0.20359E+05        -0.61055E+08         0.00000E+00
    0.00000E+00         0.00000E+00        -0.27937E+08
 
   -0.30219E+08        -0.45066E+04         0.00000E+00
   -0.45066E+04        -0.61401E+08         0.00000E+00
    0.00000E+00         0.00000E+00        -0.28001E+08
 
   -0.30546E+08        -0.25505E+05         0.00000E+00
   -0.25505E+05        -0.61748E+08         0.00000E+00
    0.00000E+00         0.00000E+00        -0.28060E+08
 
   -0.30874E+08        -0.31560E+05         0.00000E+00
   -0.31560E+05        -0.62086E+08         0.00000E+00
    0.00000E+00         0.00000E+00        -0.28113E+08
 
   -0.31202E+08        -0.14461E+05         0.00000E+00
   -0.14461E+05        -0.62385E+08         0.00000E+00
    0.00000E+00         0.00000E+00        -0.28130E+08
 
   -0.10886E+08        -0.86424E+04         0.00000E+00
   -0.86424E+04        -0.27739E+08         0.00000E+00
    0.00000E+00         0.00000E+00        -0.15371E+08
 
   -0.11262E+08        -0.15493E+05         0.00000E+00
   -0.15493E+05        -0.28106E+08         0.00000E+00
    0.00000E+00         0.00000E+00        -0.15314E+08
 
   -0.11655E+08         0.50655E+04         0.00000E+00
    0.50655E+04        -0.28476E+08         0.00000E+00
    0.00000E+00         0.00000E+00        -0.15293E+08
 
   -0.12043E+08         0.42628E+05         0.00000E+00
    0.42628E+05        -0.28845E+08         0.00000E+00
    0.00000E+00         0.00000E+00        -0.15273E+08
 
   -0.12403E+08         0.79742E+05         0.00000E+00
    0.79742E+05        -0.29209E+08         0.00000E+00
    0.00000E+00         0.00000E+00        -0.15252E+08
 
   -0.12730E+08         0.11045E+06         0.00000E+00
    0.11045E+06        -0.29575E+08         0.00000E+00
    0.00000E+00         0.00000E+00        -0.15237E+08
 
   -0.13029E+08         0.13340E+06         0.00000E+00
    0.13340E+06        -0.29941E+08         0.00000E+00
    0.00000E+00         0.00000E+00        -0.15234E+08
 
   -0.13308E+08         0.14961E+06         0.00000E+00
    0.14961E+06        -0.30306E+08         0.00000E+00
    0.00000E+00         0.00000E+00        -0.15248E+08
 
   -0.13570E+08         0.16234E+06         0.00000E+00
    0.16234E+06        -0.30667E+08         0.00000E+00
    0.00000E+00         0.00000E+00        -0.15279E+08
 
   -0.13820E+08         0.17507E+06         0.00000E+00
    0.17507E+06        -0.31025E+08         0.00000E+00
    0.00000E+00         0.00000E+00        -0.15327E+08
 
   -0.14058E+08         0.18987E+06         0.00000E+00
    0.18987E+06        -0.31382E+08         0.00000E+00
    0.00000E+00         0.00000E+00        -0.15391E+08
 
   -0.14286E+08         0.20713E+06         0.00000E+00
    0.20713E+06        -0.31739E+08         0.00000E+00
    0.00000E+00         0.00000E+00        -0.15469E+08
 
   -0.14504E+08         0.22603E+06         0.00000E+00
    0.22603E+06        -0.32098E+08         0.00000E+00
    0.00000E+00         0.00000E+00        -0.15559E+08
 
   -0.14713E+08         0.24532E+06         0.00000E+00
    0.24532E+06        -0.32458E+08         0.00000E+00
    0.00000E+00         0.00000E+00        -0.15657E+08
 
   -0.14913E+08         0.26388E+06         0.00000E+00
    0.26388E+06        -0.32819E+08         0.00000E+00
    0.00000E+00         0.00000E+00        -0.15764E+08
 
   -0.15105E+08         0.28096E+06         0.00000E+00
    0.28096E+06        -0.33180E+08         0.00000E+00
    0.00000E+00         0.00000E+00        -0.15875E+08
 
   -0.15289E+08         0.29619E+06         0.00000E+00
    0.29619E+06        -0.33542E+08         0.00000E+00
    0.00000E+00         0.00000E+00        -0.15991E+08
 
   -0.15468E+08         0.30950E+06         0.00000E+00
    0.30950E+06        -0.33903E+08         0.00000E+00
    0.00000E+00         0.00000E+00        -0.16109E+08
 
   -0.15641E+08         0.32100E+06         0.00000E+00
    0.32100E+06        -0.34263E+08         0.00000E+00
    0.00000E+00         0.00000E+00        -0.16228E+08
 
   -0.15810E+08         0.33083E+06         0.00000E+00
    0.33083E+06        -0.34624E+08         0.00000E+00
    0.00000E+00         0.00000E+00        -0.16347E+08
 
   -0.15976E+08         0.33900E+06         0.00000E+00
    0.33900E+06        -0.34983E+08         0.00000E+00
    0.00000E+00         0.00000E+00        -0.16466E+08
 
   -0.16139E+08         0.34503E+06         0.00000E+00
    0.34503E+06        -0.35343E+08         0.00000E+00
    0.00000E+00         0.00000E+00        -0.16584E+08
 
   -0.16301E+08         0.34729E+06         0.00000E+00
    0.34729E+06        -0.35706E+08         0.00000E+00
    0.00000E+00         0.00000E+00        -0.16700E+08
 
   -0.16463E+08         0.34399E+06         0.00000E+00
    0.34399E+06        -0.36076E+08         0.00000E+00
    0.00000E+00         0.00000E+00        -0.16815E+08
 
   -0.16621E+08         0.33525E+06         0.00000E+00
    0.33525E+06        -0.36434E+08         0.00000E+00
    0.00000E+00         0.00000E+00        -0.16954E+08
 
   -0.16779E+08         0.32781E+06         0.00000E+00
    0.32781E+06        -0.36783E+08         0.00000E+00
    0.00000E+00         0.00000E+00        -0.17111E+08
 
   -0.16937E+08         0.32431E+06         0.00000E+00
    0.32431E+06        -0.37137E+08         0.00000E+00
    0.00000E+00         0.00000E+00        -0.17266E+08
 
   -0.17097E+08         0.32347E+06         0.00000E+00
    0.32347E+06        -0.37493E+08         0.00000E+00
    0.00000E+00         0.00000E+00        -0.17420E+08
 
   -0.17258E+08         0.32401E+06         0.00000E+00
    0.32401E+06        -0.37848E+08         0.00000E+00
    0.00000E+00         0.00000E+00        -0.17572E+08
 
   -0.17419E+08         0.32540E+06         0.00000E+00
    0.32540E+06        -0.38203E+08         0.00000E+00
    0.00000E+00         0.00000E+00        -0.17722E+08
 
   -0.17580E+08         0.32730E+06         0.00000E+00
    0.32730E+06        -0.38559E+08         0.00000E+00
    0.00000E+00         0.00000E+00        -0.17870E+08
 
   -0.17739E+08         0.32949E+06         0.00000E+00
    0.32949E+06        -0.38914E+08         0.00000E+00
    0.00000E+00         0.00000E+00        -0.18016E+08
 
   -0.17898E+08         0.33181E+06         0.00000E+00
    0.33181E+06        -0.39269E+08         0.00000E+00
    0.00000E+00         0.00000E+00        -0.18160E+08
 
   -0.18056E+08         0.33411E+06         0.00000E+00
    0.33411E+06        -0.39623E+08         0.00000E+00
    0.00000E+00         0.00000E+00        -0.18302E+08
 
   -0.18214E+08         0.33618E+06         0.00000E+00
    0.33618E+06        -0.39977E+08         0.00000E+00
    0.00000E+00         0.00000E+00        -0.18442E+08
 
   -0.18372E+08         0.33741E+06         0.00000E+00
    0.33741E+06        -0.40331E+08         0.00000E+00
    0.00000E+00         0.00000E+00        -0.18580E+08
 
   -0.18530E+08         0.33680E+06         0.00000E+00
    0.33680E+06        -0.40688E+08         0.00000E+00
    0.00000E+00         0.00000E+00        -0.18716E+08
 
   -0.18688E+08         0.33468E+06         0.00000E+00
    0.33468E+06        -0.41048E+08         0.00000E+00
    0.00000E+00         0.00000E+00        -0.18852E+08
 
   -0.18845E+08         0.32737E+06         0.00000E+00
    0.32737E+06        -0.41400E+08         0.00000E+00
    0.00000E+00         0.00000E+00        -0.19004E+08
 
   -0.19003E+08         0.32181E+06         0.00000E+00
    0.32181E+06        -0.41749E+08         0.00000E+00
    0.00000E+00         0.00000E+00        -0.19165E+08
 
   -0.19162E+08         0.31839E+06         0.00000E+00
    0.31839E+06        -0.42099E+08         0.00000E+00
    0.00000E+00         0.00000E+00        -0.19324E+08
 
   -0.19324E+08         0.31655E+06         0.00000E+00
    0.31655E+06        -0.42450E+08         0.00000E+00
    0.00000E+00         0.00000E+00        -0.19481E+08
 
   -0.19486E+08         0.31561E+06         0.00000E+00
    0.31561E+06        -0.42801E+08         0.00000E+00
    0.00000E+00         0.00000E+00        -0.19638E+08
 
   -0.19650E+08         0.31517E+06         0.00000E+00
    0.31517E+06        -0.43151E+08         0.00000E+00
    0.00000E+00         0.00000E+00        -0.19794E+08
 
   -0.19814E+08         0.31482E+06         0.00000E+00
    0.31482E+06        -0.43502E+08         0.00000E+00
    0.00000E+00         0.00000E+00        -0.19949E+08
 
   -0.19979E+08         0.31392E+06         0.00000E+00
    0.31392E+06        -0.43853E+08         0.00000E+00
    0.00000E+00         0.00000E+00        -0.20103E+08
 
   -0.20146E+08         0.31167E+06         0.00000E+00
    0.31167E+06        -0.44206E+08         0.00000E+00
    0.00000E+00         0.00000E+00        -0.20257E+08
 
   -0.20313E+08         0.30830E+06         0.00000E+00
    0.30830E+06        -0.44559E+08         0.00000E+00
    0.00000E+00         0.00000E+00        -0.20414E+08
 
   -0.20479E+08         0.30287E+06         0.00000E+00
    0.30287E+06        -0.44905E+08         0.00000E+00
    0.00000E+00         0.00000E+00        -0.20581E+08
 
   -0.20648E+08         0.29956E+06         0.00000E+00
    0.29956E+06        -0.45252E+08         0.00000E+00
    0.00000E+00         0.00000E+00        -0.20749E+08
 
   -0.20817E+08         0.29764E+06         0.00000E+00
    0.29764E+06        -0.45600E+08         0.00000E+00
    0.00000E+00         0.00000E+00        -0.20917E+08
 
   -0.20989E+08         0.29637E+06         0.00000E+00
    0.29637E+06        -0.45948E+08         0.00000E+00
    0.00000E+00         0.00000E+00        -0.21084E+08
 
   -0.21161E+08         0.29539E+06         0.00000E+00
    0.29539E+06        -0.46296E+08         0.00000E+00
    0.00000E+00         0.00000E+00        -0.21251E+08
 
   -0.21334E+08         0.29442E+06         0.00000E+00
    0.29442E+06        -0.46644E+08         0.00000E+00
    0.00000E+00         0.00000E+00        -0.21417E+08
 
   -0.21508E+08         0.29306E+06         0.00000E+00
    0.29306E+06        -0.46992E+08         0.00000E+00
    0.00000E+00         0.00000E+00        -0.21583E+08
 
   -0.21683E+08         0.29083E+06         0.00000E+00
    0.29083E+06        -0.47341E+08         0.00000E+00
    0.00000E+00         0.00000E+00        -0.21748E+08
 
   -0.21858E+08         0.28777E+06         0.00000E+00
    0.28777E+06        -0.47689E+08         0.00000E+00
    0.00000E+00         0.00000E+00        -0.21916E+08
 
   -0.22034E+08         0.28467E+06         0.00000E+00
    0.28467E+06        -0.48034E+08         0.00000E+00
    0.00000E+00         0.00000E+00        -0.22089E+08
 
   -0.22211E+08         0.28245E+06         0.00000E+00
    0.28245E+06        -0.48379E+08         0.00000E+00
    0.00000E+00         0.00000E+00        -0.22262E+08
 
   -0.22389E+08         0.28088E+06         0.00000E+00
    0.28088E+06        -0.48725E+08         0.00000E+00
    0.00000E+00         0.00000E+00        -0.22435E+08
 
   -0.22568E+08         0.27958E+06         0.00000E+00
    0.27958E+06        -0.49071E+08         0.00000E+00
    0.00000E+00         0.00000E+00        -0.22607E+08
 
   -0.22748E+08         0.27839E+06         0.00000E+00
    0.27839E+06        -0.49416E+08         0.00000E+00
    0.00000E+00         0.00000E+00        -0.22779E+08
 
   -0.22928E+08         0.27722E+06         0.00000E+00
    0.27722E+06        -0.49762E+08         0.00000E+00
    0.00000E+00         0.00000E+00        -0.22950E+08
 
   -0.23109E+08         0.27603E+06         0.00000E+00
    0.27603E+06        -0.50107E+08         0.00000E+00
    0.00000E+00         0.00000E+00        -0.23121E+08
 
   -0.23290E+08         0.27481E+06         0.00000E+00
    0.27481E+06        -0.50452E+08         0.00000E+00
    0.00000E+00         0.00000E+00        -0.23292E+08
 
   -0.23472E+08         0.27353E+06         0.00000E+00
    0.27353E+06        -0.50796E+08         0.00000E+00
    0.00000E+00         0.00000E+00        -0.23462E+08
 
   -0.23655E+08         0.27220E+06         0.00000E+00
    0.27220E+06        -0.51140E+08         0.00000E+00
    0.00000E+00         0.00000E+00        -0.23632E+08
 
   -0.23840E+08         0.27075E+06         0.00000E+00
    0.27075E+06        -0.51482E+08         0.00000E+00
    0.00000E+00         0.00000E+00        -0.23805E+08
 
   -0.24028E+08         0.26923E+06         0.00000E+00
    0.26923E+06        -0.51822E+08         0.00000E+00
    0.00000E+00         0.00000E+00        -0.23977E+08
 
   -0.24216E+08         0.26764E+06         0.00000E+00
    0.26764E+06        -0.52162E+08         0.00000E+00
    0.00000E+00         0.00000E+00        -0.24150E+08
 
   -0.24404E+08         0.26600E+06         0.00000E+00
    0.26600E+06        -0.52502E+08         0.00000E+00
    0.00000E+00         0.00000E+00        -0.24321E+08
 
   -0.24593E+08         0.26428E+06         0.00000E+00
    0.26428E+06        -0.52842E+08         0.00000E+00
    0.00000E+00         0.00000E+00        -0.24492E+08
 
   -0.24783E+08         0.26250E+06         0.00000E+00
    0.26250E+06        -0.53182E+08         0.00000E+00
    0.00000E+00         0.00000E+00        -0.24662E+08
 
   -0.24973E+08         0.26064E+06         0.00000E+00
    0.26064E+06        -0.53522E+08         0.00000E+00
    0.00000E+00         0.00000E+00        -0.24832E+08
 
   -0.25164E+08         0.25868E+06         0.00000E+00
    0.25868E+06        -0.53862E+08         0.00000E+00
    0.00000E+00         0.00000E+00        -0.25001E+08
 
   -0.25356E+08         0.25661E+06         0.00000E+00
    0.25661E+06        -0.54202E+08         0.00000E+00
    0.00000E+00         0.00000E+00        -0.25169E+08
 
   -0.25549E+08         0.25440E+06         0.00000E+00
    0.25440E+06        -0.54542E+08         0.00000E+00
    0.00000E+00         0.00000E+00        -0.25336E+08
 
   -0.25742E+08         0.25200E+06         0.00000E+00
    0.25200E+06        -0.54882E+08         0.00000E+00
    0.00000E+00         0.00000E+00        -0.25503E+08
 
   -0.25937E+08         0.24935E+06         0.00000E+00
    0.24935E+06        -0.55222E+08         0.00000E+00
    0.00000E+00         0.00000E+00        -0.25668E+08
 
   -0.26134E+08         0.24637E+06         0.00000E+00
    0.24637E+06        -0.55563E+08         0.00000E+00
    0.00000E+00         0.00000E+00        -0.25832E+08
 
   -0.26332E+08         0.24295E+06         0.00000E+00
    0.24295E+06        -0.55903E+08         0.00000E+00
    0.00000E+00         0.00000E+00        -0.25995E+08
 
   -0.26532E+08         0.23894E+06         0.00000E+00
    0.23894E+06        -0.56244E+08         0.00000E+00
    0.00000E+00         0.00000E+00        -0.26156E+08
 
   -0.26734E+08         0.23416E+06         0.00000E+00
    0.23416E+06        -0.56585E+08         0.00000E+00
    0.00000E+00         0.00000E+00        -0.26315E+08
 
   -0.26939E+08         0.22838E+06         0.00000E+00
    0.22838E+06        -0.56926E+08         0.00000E+00
    0.00000E+00         0.00000E+00        -0.26472E+08
 
   -0.27147E+08         0.22132E+06         0.00000E+00
    0.22132E+06        -0.57267E+08         0.00000E+00
    0.00000E+00         0.00000E+00        -0.26626E+08
 
   -0.27359E+08         0.21269E+06         0.00000E+00
    0.21269E+06        -0.57609E+08         0.00000E+00
    0.00000E+00         0.00000E+00        -0.26777E+08
 
   -0.27576E+08         0.20216E+06         0.00000E+00
    0.20216E+06        -0.57952E+08         0.00000E+00
    0.00000E+00         0.00000E+00        -0.26923E+08
 
   -0.27799E+08         0.18940E+06         0.00000E+00
    0.18940E+06        -0.58295E+08         0.00000E+00
    0.00000E+00         0.00000E+00        -0.27066E+08
 
   -0.28028E+08         0.17416E+06         0.00000E+00
    0.17416E+06        -0.58639E+08         0.00000E+00
    0.00000E+00         0.00000E+00        -0.27202E+08
 
   -0.28266E+08         0.15629E+06         0.00000E+00
    0.15629E+06        -0.58983E+08         0.00000E+00
    0.00000E+00         0.00000E+00        -0.27332E+08
 
   -0.28512E+08         0.13586E+06         0.00000E+00
    0.13586E+06        -0.59328E+08         0.00000E+00
    0.00000E+00         0.00000E+00        -0.27454E+08
 
   -0.28770E+08         0.11319E+06         0.00000E+00
    0.11319E+06        -0.59672E+08         0.00000E+00
    0.00000E+00         0.00000E+00        -0.27566E+08
 
   -0.29039E+08         0.88948E+05         0.00000E+00
    0.88948E+05        -0.60017E+08         0.00000E+00
    0.00000E+00         0.00000E+00        -0.27668E+08
 
   -0.29321E+08         0.64000E+05         0.00000E+00
    0.64000E+05        -0.60362E+08         0.00000E+00
    0.00000E+00         0.00000E+00        -0.27760E+08
 
   -0.29616E+08         0.39344E+05         0.00000E+00
    0.39344E+05        -0.60706E+08         0.00000E+00
    0.00000E+00         0.00000E+00        -0.27840E+08
 
   -0.29925E+08         0.16110E+05         0.00000E+00
    0.16110E+05        -0.61051E+08         0.00000E+00
    0.00000E+00         0.00000E+00        -0.27910E+08
 
   -0.30247E+08        -0.60991E+04         0.00000E+00
   -0.60991E+04        -0.61396E+08         0.00000E+00
    0.00000E+00         0.00000E+00        -0.27971E+08
 
   -0.30579E+08        -0.26532E+05         0.00000E+00
   -0.26532E+05        -0.61745E+08         0.00000E+00
    0.00000E+00         0.00000E+00        -0.28029E+08
 
   -0.30911E+08        -0.33774E+05         0.00000E+00
   -0.33774E+05        -0.62087E+08         0.00000E+00
    0.00000E+00         0.00000E+00        -0.28083E+08
 
   -0.31240E+08        -0.15894E+05         0.00000E+00
   -0.15894E+05        -0.62392E+08         0.00000E+00
    0.00000E+00         0.00000E+00        -0.28105E+08
 
   -0.10857E+08        -0.74016E+04         0.00000E+00
   -0.74016E+04        -0.27734E+08         0.00000E+00
    0.00000E+00         0.00000E+00        -0.15399E+08
 
   -0.11236E+08        -0.10686E+05         0.00000E+00
   -0.10686E+05        -0.28107E+08         0.00000E+00
    0.00000E+00         0.00000E+00        -0.15352E+08
 
   -0.11634E+08         0.12293E+05         0.00000E+00
    0.12293E+05        -0.28483E+08         0.00000E+00
    0.00000E+00         0.00000E+00        -0.15335E+08
 
   -0.12023E+08         0.45972E+05         0.00000E+00
    0.45972E+05        -0.28852E+08         0.00000E+00
    0.00000E+00         0.00000E+00        -0.15312E+08
 
   -0.12381E+08         0.75981E+05         0.00000E+00
    0.75981E+05        -0.29216E+08         0.00000E+00
    0.00000E+00         0.00000E+00        -0.15286E+08
 
   -0.12706E+08         0.10042E+06         0.00000E+00
    0.10042E+06        -0.29580E+08         0.00000E+00
    0.00000E+00         0.00000E+00        -0.15265E+08
 
   -0.13003E+08         0.11863E+06         0.00000E+00
    0.11863E+06        -0.29945E+08         0.00000E+00
    0.00000E+00         0.00000E+00        -0.15256E+08
 
   -0.13281E+08         0.13135E+06         0.00000E+00
    0.13135E+06        -0.30308E+08         0.00000E+00
    0.00000E+00         0.00000E+00        -0.15264E+08
 
   -0.13545E+08         0.14141E+06         0.00000E+00
    0.14141E+06        -0.30669E+08         0.00000E+00
    0.00000E+00         0.00000E+00        -0.15289E+08
 
   -0.13796E+08         0.15188E+06         0.00000E+00
    0.15188E+06        -0.31027E+08         0.00000E+00
    0.00000E+00         0.00000E+00        -0.15333E+08
 
   -0.14037E+08         0.16458E+06         0.00000E+00
    0.16458E+06        -0.31385E+08         0.00000E+00
    0.00000E+00         0.00000E+00        -0.15393E+08
 
   -0.14267E+08         0.17982E+06         0.00000E+00
    0.17982E+06        -0.31743E+08         0.00000E+00
    0.00000E+00         0.00000E+00        -0.15468E+08
 
   -0.14487E+08         0.19677E+06         0.00000E+00
    0.19677E+06        -0.32102E+08         0.00000E+00
    0.00000E+00         0.00000E+00        -0.15555E+08
 
   -0.14698E+08         0.21425E+06         0.00000E+00
    0.21425E+06        -0.32462E+08         0.00000E+00
    0.00000E+00         0.00000E+00        -0.15652E+08
 
   -0.14899E+08         0.23115E+06         0.00000E+00
    0.23115E+06        -0.32822E+08         0.00000E+00
    0.00000E+00         0.00000E+00        -0.15757E+08
 
   -0.15092E+08         0.24673E+06         0.00000E+00
    0.24673E+06        -0.33183E+08         0.00000E+00
    0.00000E+00         0.00000E+00        -0.15867E+08
 
   -0.15278E+08         0.26064E+06         0.00000E+00
    0.26064E+06        -0.33544E+08         0.00000E+00
    0.00000E+00         0.00000E+00        -0.15982E+08
 
   -0.15457E+08         0.27281E+06         0.00000E+00
    0.27281E+06        -0.33905E+08         0.00000E+00
    0.00000E+00         0.00000E+00        -0.16099E+08
 
   -0.15630E+08         0.28334E+06         0.00000E+00
    0.28334E+06        -0.34265E+08         0.00000E+00
    0.00000E+00         0.00000E+00        -0.16218E+08
 
   -0.15799E+08         0.29239E+06         0.00000E+00
    0.29239E+06        -0.34625E+08         0.00000E+00
    0.00000E+00         0.00000E+00        -0.16337E+08
 
   -0.15963E+08         0.30000E+06         0.00000E+00
    0.30000E+06        -0.34985E+08         0.00000E+00
    0.00000E+00         0.00000E+00        -0.16456E+08
 
   -0.16125E+08         0.30581E+06         0.00000E+00
    0.30581E+06        -0.35344E+08         0.00000E+00
    0.00000E+00         0.00000E+00        -0.16574E+08
 
   -0.16287E+08         0.30814E+06         0.00000E+00
    0.30814E+06        -0.35705E+08         0.00000E+00
    0.00000E+00         0.00000E+00        -0.16691E+08
 
   -0.16447E+08         0.30450E+06         0.00000E+00
    0.30450E+06        -0.36074E+08         0.00000E+00
    0.00000E+00         0.00000E+00        -0.16806E+08
 
   -0.16606E+08         0.29516E+06         0.00000E+00
    0.29516E+06        -0.36432E+08         0.00000E+00
    0.00000E+00         0.00000E+00        -0.16945E+08
 
   -0.16763E+08         0.28792E+06         0.00000E+00
    0.28792E+06        -0.36782E+08         0.00000E+00
    0.00000E+00         0.00000E+00        -0.17103E+08
 
   -0.16923E+08         0.28497E+06         0.00000E+00
    0.28497E+06        -0.37137E+08         0.00000E+00
    0.00000E+00         0.00000E+00        -0.17259E+08
 
   -0.17084E+08         0.28444E+06         0.00000E+00
    0.28444E+06        -0.37493E+08         0.00000E+00
    0.00000E+00         0.00000E+00        -0.17413E+08
 
   -0.17246E+08         0.28508E+06         0.00000E+00
    0.28508E+06        -0.37848E+08         0.00000E+00
    0.00000E+00         0.00000E+00        -0.17565E+08
 
   -0.17408E+08         0.28645E+06         0.00000E+00
    0.28645E+06        -0.38204E+08         0.00000E+00
    0.00000E+00         0.00000E+00        -0.17715E+08
 
   -0.17569E+08         0.28828E+06         0.00000E+00
    0.28828E+06        -0.38559E+08         0.00000E+00
    0.00000E+00         0.00000E+00        -0.17864E+08
 
   -0.17729E+08         0.29036E+06         0.00000E+00
    0.29036E+06        -0.38914E+08         0.00000E+00
    0.00000E+00         0.00000E+00        -0.18010E+08
 
   -0.17888E+08         0.29257E+06         0.00000E+00
    0.29257E+06        -0.39269E+08         0.00000E+00
    0.00000E+00         0.00000E+00        -0.18154E+08
 
   -0.18047E+08         0.29480E+06         0.00000E+00
    0.29480E+06        -0.39623E+08         0.00000E+00
    0.00000E+00         0.00000E+00        -0.18296E+08
 
   -0.18204E+08         0.29689E+06         0.00000E+00
    0.29689E+06        -0.39978E+08         0.00000E+00
    0.00000E+00         0.00000E+00        -0.18436E+08
 
   -0.18362E+08         0.29831E+06         0.00000E+00
    0.29831E+06        -0.40332E+08         0.00000E+00
    0.00000E+00         0.00000E+00        -0.18574E+08
 
   -0.18520E+08         0.29790E+06         0.00000E+00
    0.29790E+06        -0.40687E+08         0.00000E+00
    0.00000E+00         0.00000E+00        -0.18711E+08
 
   -0.18678E+08         0.29560E+06         0.00000E+00
    0.29560E+06        -0.41047E+08         0.00000E+00
    0.00000E+00         0.00000E+00        -0.18849E+08
 
   -0.18835E+08         0.28819E+06         0.00000E+00
    0.28819E+06        -0.41399E+08         0.00000E+00
    0.00000E+00         0.00000E+00        -0.19001E+08
 
   -0.18993E+08         0.28308E+06         0.00000E+00
    0.28308E+06        -0.41748E+08         0.00000E+00
    0.00000E+00         0.00000E+00        -0.19162E+08
 
   -0.19154E+08         0.28018E+06         0.00000E+00
    0.28018E+06        -0.42099E+08         0.00000E+00
    0.00000E+00         0.00000E+00        -0.19321E+08
 
   -0.19316E+08         0.27870E+06         0.00000E+00
    0.27870E+06        -0.42450E+08         0.00000E+00
    0.00000E+00         0.00000E+00        -0.19479E+08
 
   -0.19479E+08         0.27802E+06         0.00000E+00
    0.27802E+06        -0.42801E+08         0.00000E+00
    0.00000E+00         0.00000E+00        -0.19636E+08
 
   -0.19643E+08         0.27781E+06         0.00000E+00
    0.27781E+06        -0.43151E+08         0.00000E+00
    0.00000E+00         0.00000E+00        -0.19792E+08
 
   -0.19807E+08         0.27772E+06         0.00000E+00
    0.27772E+06        -0.43502E+08         0.00000E+00
    0.00000E+00         0.00000E+00        -0.19947E+08
 
   -0.19973E+08         0.27715E+06         0.00000E+00
    0.27715E+06        -0.43853E+08         0.00000E+00
    0.00000E+00         0.00000E+00        -0.20101E+08
 
   -0.20140E+08         0.27510E+06         0.00000E+00
    0.27510E+06        -0.44205E+08         0.00000E+00
    0.00000E+00         0.00000E+00        -0.20255E+08
 
   -0.20307E+08         0.27171E+06         0.00000E+00
    0.27171E+06        -0.44558E+08         0.00000E+00
    0.00000E+00         0.00000E+00        -0.20412E+08
 
   -0.20474E+08         0.26655E+06         0.00000E+00
    0.26655E+06        -0.44904E+08         0.00000E+00
    0.00000E+00         0.00000E+00        -0.20580E+08
 
   -0.20643E+08         0.26366E+06         0.00000E+00
    0.26366E+06        -0.45252E+08         0.00000E+00
    0.00000E+00         0.00000E+00        -0.20748E+08
 
   -0.20813E+08         0.26208E+06         0.00000E+00
    0.26208E+06        -0.45600E+08         0.00000E+00
    0.00000E+00         0.00000E+00        -0.20916E+08
 
   -0.20985E+08         0.26109E+06         0.00000E+00
    0.26109E+06        -0.45948E+08         0.00000E+00
    0.00000E+00         0.00000E+00        -0.21083E+08
 
   -0.21157E+08         0.26036E+06         0.00000E+00
    0.26036E+06        -0.46296E+08         0.00000E+00
    0.00000E+00         0.00000E+00        -0.21250E+08
 
   -0.21331E+08         0.25963E+06         0.00000E+00
    0.25963E+06        -0.46644E+08         0.00000E+00
    0.00000E+00         0.00000E+00        -0.21416E+08
 
   -0.21505E+08         0.25854E+06         0.00000E+00
    0.25854E+06        -0.46992E+08         0.00000E+00
    0.00000E+00         0.00000E+00        -0.21582E+08
 
   -0.21680E+08         0.25654E+06         0.00000E+00
    0.25654E+06        -0.47340E+08         0.00000E+00
    0.00000E+00         0.00000E+00        -0.21747E+08
 
   -0.21856E+08         0.25358E+06         0.00000E+00
    0.25358E+06        -0.47688E+08         0.00000E+00
    0.00000E+00         0.00000E+00        -0.21915E+08
 
   -0.22033E+08         0.25070E+06         0.00000E+00
    0.25070E+06        -0.48033E+08         0.00000E+00
    0.00000E+00         0.00000E+00        -0.22088E+08
 
   -0.22210E+08         0.24876E+06         0.00000E+00
    0.24876E+06        -0.48379E+08         0.00000E+00
    0.00000E+00         0.00000E+00        -0.22261E+08
 
   -0.22388E+08         0.24743E+06         0.00000E+00
    0.24743E+06        -0.48725E+08         0.00000E+00
    0.00000E+00         0.00000E+00        -0.22433E+08
 
   -0.22568E+08         0.24633E+06         0.00000E+00
    0.24633E+06        -0.49071E+08         0.00000E+00
    0.00000E+00         0.00000E+00        -0.22605E+08
 
   -0.22748E+08         0.24532E+06         0.00000E+00
    0.24532E+06        -0.49416E+08         0.00000E+00
    0.00000E+00         0.00000E+00        -0.22777E+08
 
   -0.22928E+08         0.24432E+06         0.00000E+00
    0.24432E+06        -0.49761E+08         0.00000E+00
    0.00000E+00         0.00000E+00        -0.22948E+08
 
   -0.23109E+08         0.24329E+06         0.00000E+00
    0.24329E+06        -0.50107E+08         0.00000E+00
    0.00000E+00         0.00000E+00        -0.23119E+08
 
   -0.23291E+08         0.24222E+06         0.00000E+00
    0.24222E+06        -0.50451E+08         0.00000E+00
    0.00000E+00         0.00000E+00        -0.23290E+08
 
   -0.23473E+08         0.24110E+06         0.00000E+00
    0.24110E+06        -0.50796E+08         0.00000E+00
    0.00000E+00         0.00000E+00        -0.23460E+08
 
   -0.23656E+08         0.23992E+06         0.00000E+00
    0.23992E+06        -0.51140E+08         0.00000E+00
    0.00000E+00         0.00000E+00        -0.23630E+08
 
   -0.23842E+08         0.23865E+06         0.00000E+00
    0.23865E+06        -0.51482E+08         0.00000E+00
    0.00000E+00         0.00000E+00        -0.23802E+08
 
   -0.24030E+08         0.23730E+06         0.00000E+00
    0.23730E+06        -0.51822E+08         0.00000E+00
    0.00000E+00         0.00000E+00        -0.23974E+08
 
   -0.24218E+08         0.23589E+06         0.00000E+00
    0.23589E+06        -0.52162E+08         0.00000E+00
    0.00000E+00         0.00000E+00        -0.24146E+08
 
   -0.24407E+08         0.23443E+06         0.00000E+00
    0.23443E+06        -0.52502E+08         0.00000E+00
    0.00000E+00         0.00000E+00        -0.24318E+08
 
   -0.24596E+08         0.23291E+06         0.00000E+00
    0.23291E+06        -0.52842E+08         0.00000E+00
    0.00000E+00         0.00000E+00        -0.24488E+08
 
   -0.24786E+08         0.23133E+06         0.00000E+00
    0.23133E+06        -0.53182E+08         0.00000E+00
    0.00000E+00         0.00000E+00        -0.24658E+08
 
   -0.24976E+08         0.22968E+06         0.00000E+00
    0.22968E+06        -0.53522E+08         0.00000E+00
    0.00000E+00         0.00000E+00        -0.24828E+08
 
   -0.25168E+08         0.22795E+06         0.00000E+00
    0.22795E+06        -0.53862E+08         0.00000E+00
    0.00000E+00         0.00000E+00        -0.24996E+08
 
   -0.25360E+08         0.22612E+06         0.00000E+00
    0.22612E+06        -0.54202E+08         0.00000E+00
    0.00000E+00         0.00000E+00        -0.25164E+08
 
   -0.25553E+08         0.22416E+06         0.00000E+00
    0.22416E+06        -0.54542E+08         0.00000E+00
    0.00000E+00         0.00000E+00        -0.25331E+08
 
   -0.25747E+08         0.22204E+06         0.00000E+00
    0.22204E+06        -0.54882E+08         0.00000E+00
    0.00000E+00         0.00000E+00        -0.25497E+08
 
   -0.25943E+08         0.21971E+06         0.00000E+00
    0.21971E+06        -0.55222E+08         0.00000E+00
    0.00000E+00         0.00000E+00        -0.25662E+08
 
   -0.26140E+08         0.21708E+06         0.00000E+00
    0.21708E+06        -0.55563E+08         0.00000E+00
    0.00000E+00         0.00000E+00        -0.25826E+08
 
   -0.26338E+08         0.21406E+06         0.00000E+00
    0.21406E+06        -0.55903E+08         0.00000E+00
    0.00000E+00         0.00000E+00        -0.25988E+08
 
   -0.26538E+08         0.21052E+06         0.00000E+00
    0.21052E+06        -0.56244E+08         0.00000E+00
    0.00000E+00         0.00000E+00        -0.26148E+08
 
   -0.26741E+08         0.20629E+06         0.00000E+00
    0.20629E+06        -0.56584E+08         0.00000E+00
    0.00000E+00         0.00000E+00        -0.26307E+08
 
   -0.26946E+08         0.20117E+06         0.00000E+00
    0.20117E+06        -0.56925E+08         0.00000E+00
    0.00000E+00         0.00000E+00        -0.26463E+08
 
   -0.27155E+08         0.19490E+06         0.00000E+00
    0.19490E+06        -0.57267E+08         0.00000E+00
    0.00000E+00         0.00000E+00        -0.26617E+08
 
   -0.27367E+08         0.18722E+06         0.00000E+00
    0.18722E+06        -0.57608E+08         0.00000E+00
    0.00000E+00         0.00000E+00        -0.26767E+08
 
   -0.27585E+08         0.17781E+06         0.00000E+00
    0.17781E+06        -0.57951E+08         0.00000E+00
    0.00000E+00         0.00000E+00        -0.26913E+08
 
   -0.27808E+08         0.16640E+06         0.00000E+00
    0.16640E+06        -0.58293E+08         0.00000E+00
    0.00000E+00         0.00000E+00        -0.27054E+08
 
   -0.28039E+08         0.15275E+06         0.00000E+00
    0.15275E+06        -0.58637E+08         0.00000E+00
    0.00000E+00         0.00000E+00        -0.27189E+08
 
   -0.28278E+08         0.13675E+06         0.00000E+00
    0.13675E+06        -0.58980E+08         0.00000E+00
    0.00000E+00         0.00000E+00        -0.27317E+08
 
   -0.28526E+08         0.11846E+06         0.00000E+00
    0.11846E+06        -0.59324E+08         0.00000E+00
    0.00000E+00         0.00000E+00        -0.27437E+08
 
   -0.28785E+08         0.98223E+05         0.00000E+00
    0.98223E+05        -0.59669E+08         0.00000E+00
    0.00000E+00         0.00000E+00        -0.27548E+08
 
   -0.29056E+08         0.76634E+05         0.00000E+00
    0.76634E+05        -0.60013E+08         0.00000E+00
    0.00000E+00         0.00000E+00        -0.27648E+08
 
   -0.29341E+08         0.54534E+05         0.00000E+00
    0.54534E+05        -0.60357E+08         0.00000E+00
    0.00000E+00         0.00000E+00        -0.27737E+08
 
   -0.29639E+08         0.32720E+05         0.00000E+00
    0.32720E+05        -0.60702E+08         0.00000E+00
    0.00000E+00         0.00000E+00        -0.27816E+08
 
   -0.29951E+08         0.12310E+05         0.00000E+00
    0.12310E+05        -0.61047E+08         0.00000E+00
    0.00000E+00         0.00000E+00        -0.27884E+08
 
   -0.30276E+08        -0.69611E+04         0.00000E+00
   -0.69611E+04        -0.61392E+08         0.00000E+00
    0.00000E+00         0.00000E+00        -0.27942E+08
 
   -0.30612E+08        -0.26473E+05         0.00000E+00
   -0.26473E+05        -0.61741E+08         0.00000E+00
    0.00000E+00         0.00000E+00        -0.27997E+08
 
   -0.30948E+08        -0.35431E+05         0.00000E+00
   -0.35431E+05        -0.62088E+08         0.00000E+00
    0.00000E+00         0.00000E+00        -0.28053E+08
 
   -0.31279E+08        -0.17318E+05         0.00000E+00
   -0.17318E+05        -0.62399E+08         0.00000E+00
    0.00000E+00         0.00000E+00        -0.28079E+08
 
   -0.10836E+08        -0.60772E+04         0.00000E+00
   -0.60772E+04        -0.27730E+08         0.00000E+00
    0.00000E+00         0.00000E+00        -0.15428E+08
 
   -0.11219E+08        -0.50150E+04         0.00000E+00
   -0.50150E+04        -0.28109E+08         0.00000E+00
    0.00000E+00         0.00000E+00        -0.15392E+08
 
   -0.11620E+08         0.20220E+05         0.00000E+00
    0.20220E+05        -0.28490E+08         0.00000E+00
    0.00000E+00         0.00000E+00        -0.15377E+08
 
   -0.12007E+08         0.48755E+05         0.00000E+00
    0.48755E+05        -0.28859E+08         0.00000E+00
    0.00000E+00         0.00000E+00        -0.15351E+08
 
   -0.12359E+08         0.71394E+05         0.00000E+00
    0.71394E+05        -0.29221E+08         0.00000E+00
    0.00000E+00         0.00000E+00        -0.15318E+08
 
   -0.12679E+08         0.89912E+05         0.00000E+00
    0.89912E+05        -0.29584E+08         0.00000E+00
    0.00000E+00         0.00000E+00        -0.15291E+08
 
   -0.12975E+08         0.10367E+06         0.00000E+00
    0.10367E+06        -0.29948E+08         0.00000E+00
    0.00000E+00         0.00000E+00        -0.15276E+08
 
   -0.13253E+08         0.11314E+06         0.00000E+00
    0.11314E+06        -0.30310E+08         0.00000E+00
    0.00000E+00         0.00000E+00        -0.15278E+08
 
   -0.13517E+08         0.12074E+06         0.00000E+00
    0.12074E+06        -0.30671E+08         0.00000E+00
    0.00000E+00         0.00000E+00        -0.15298E+08
 
   -0.13770E+08         0.12908E+06         0.00000E+00
    0.12908E+06        -0.31030E+08         0.00000E+00
    0.00000E+00         0.00000E+00        -0.15338E+08
 
   -0.14013E+08         0.13978E+06         0.00000E+00
    0.13978E+06        -0.31388E+08         0.00000E+00
    0.00000E+00         0.00000E+00        -0.15394E+08
 
   -0.14246E+08         0.15301E+06         0.00000E+00
    0.15301E+06        -0.31746E+08         0.00000E+00
    0.00000E+00         0.00000E+00        -0.15466E+08
 
   -0.14469E+08         0.16801E+06         0.00000E+00
    0.16801E+06        -0.32105E+08         0.00000E+00
    0.00000E+00         0.00000E+00        -0.15551E+08
 
   -0.14682E+08         0.18359E+06         0.00000E+00
    0.18359E+06        -0.32465E+08         0.00000E+00
    0.00000E+00         0.00000E+00        -0.15646E+08
 
   -0.14886E+08         0.19874E+06         0.00000E+00
    0.19874E+06        -0.32826E+08         0.00000E+00
    0.00000E+00         0.00000E+00        -0.15749E+08
 
   -0.15080E+08         0.21272E+06         0.00000E+00
    0.21272E+06        -0.33186E+08         0.00000E+00
    0.00000E+00         0.00000E+00        -0.15859E+08
 
   -0.15267E+08         0.22522E+06         0.00000E+00
    0.22522E+06        -0.33547E+08         0.00000E+00
    0.00000E+00         0.00000E+00        -0.15973E+08
 
   -0.15446E+08         0.23614E+06         0.00000E+00
    0.23614E+06        -0.33907E+08         0.00000E+00
    0.00000E+00         0.00000E+00        -0.16090E+08
 
   -0.15619E+08         0.24562E+06         0.00000E+00
    0.24562E+06        -0.34267E+08         0.00000E+00
    0.00000E+00         0.00000E+00        -0.16208E+08
 
   -0.15787E+08         0.25381E+06         0.00000E+00
    0.25381E+06        -0.34627E+08         0.00000E+00
    0.00000E+00         0.00000E+00        -0.16328E+08
 
   -0.15951E+08         0.26079E+06         0.00000E+00
    0.26079E+06        -0.34986E+08         0.00000E+00
    0.00000E+00         0.00000E+00        -0.16447E+08
 
   -0.16112E+08         0.26632E+06         0.00000E+00
    0.26632E+06        -0.35345E+08         0.00000E+00
    0.00000E+00         0.00000E+00        -0.16565E+08
 
   -0.16272E+08         0.26880E+06         0.00000E+00
    0.26880E+06        -0.35705E+08         0.00000E+00
    0.00000E+00         0.00000E+00        -0.16682E+08
 
   -0.16432E+08         0.26495E+06         0.00000E+00
    0.26495E+06        -0.36073E+08         0.00000E+00
    0.00000E+00         0.00000E+00        -0.16798E+08
 
   -0.16590E+08         0.25506E+06         0.00000E+00
    0.25506E+06        -0.36430E+08         0.00000E+00
    0.00000E+00         0.00000E+00        -0.16937E+08
 
   -0.16748E+08         0.24817E+06         0.00000E+00
    0.24817E+06        -0.36781E+08         0.00000E+00
    0.00000E+00         0.00000E+00        -0.17095E+08
 
   -0.16909E+08         0.24586E+06         0.00000E+00
    0.24586E+06        -0.37137E+08         0.00000E+00
    0.00000E+00         0.00000E+00        -0.17251E+08
 
   -0.17071E+08         0.24563E+06         0.00000E+00
    0.24563E+06        -0.37493E+08         0.00000E+00
    0.00000E+00         0.00000E+00        -0.17405E+08
 
   -0.17234E+08         0.24634E+06         0.00000E+00
    0.24634E+06        -0.37848E+08         0.00000E+00
    0.00000E+00         0.00000E+00        -0.17558E+08
 
   -0.17397E+08         0.24767E+06         0.00000E+00
    0.24767E+06        -0.38204E+08         0.00000E+00
    0.00000E+00         0.00000E+00        -0.17709E+08
 
   -0.17559E+08         0.24939E+06         0.00000E+00
    0.24939E+06        -0.38559E+08         0.00000E+00
    0.00000E+00         0.00000E+00        -0.17857E+08
 
   -0.17719E+08         0.25133E+06         0.00000E+00
    0.25133E+06        -0.38915E+08         0.00000E+00
    0.00000E+00         0.00000E+00        -0.18004E+08
 
   -0.17879E+08         0.25339E+06         0.00000E+00
    0.25339E+06        -0.39269E+08         0.00000E+00
    0.00000E+00         0.00000E+00        -0.18148E+08
 
   -0.18037E+08         0.25550E+06         0.00000E+00
    0.25550E+06        -0.39624E+08         0.00000E+00
    0.00000E+00         0.00000E+00        -0.18290E+08
 
   -0.18195E+08         0.25757E+06         0.00000E+00
    0.25757E+06        -0.39978E+08         0.00000E+00
    0.00000E+00         0.00000E+00        -0.18431E+08
 
   -0.18352E+08         0.25916E+06         0.00000E+00
    0.25916E+06        -0.40332E+08         0.00000E+00
    0.00000E+00         0.00000E+00        -0.18569E+08
 
   -0.18510E+08         0.25897E+06         0.00000E+00
    0.25897E+06        -0.40687E+08         0.00000E+00
    0.00000E+00         0.00000E+00        -0.18706E+08
 
   -0.18668E+08         0.25648E+06         0.00000E+00
    0.25648E+06        -0.41046E+08         0.00000E+00
    0.00000E+00         0.00000E+00        -0.18845E+08
 
   -0.18825E+08         0.24909E+06         0.00000E+00
    0.24909E+06        -0.41397E+08         0.00000E+00
    0.00000E+00         0.00000E+00        -0.18998E+08
 
   -0.18984E+08         0.24449E+06         0.00000E+00
    0.24449E+06        -0.41747E+08         0.00000E+00
    0.00000E+00         0.00000E+00        -0.19159E+08
 
   -0.19145E+08         0.24213E+06         0.00000E+00
    0.24213E+06        -0.42098E+08         0.00000E+00
    0.00000E+00         0.00000E+00        -0.19318E+08
 
   -0.19308E+08         0.24098E+06         0.00000E+00
    0.24098E+06        -0.42450E+08         0.00000E+00
    0.00000E+00         0.00000E+00        -0.19476E+08
 
   -0.19472E+08         0.24054E+06         0.00000E+00
    0.24054E+06        -0.42801E+08         0.00000E+00
    0.00000E+00         0.00000E+00        -0.19633E+08
 
   -0.19636E+08         0.24052E+06         0.00000E+00
    0.24052E+06        -0.43151E+08         0.00000E+00
    0.00000E+00         0.00000E+00        -0.19789E+08
 
   -0.19801E+08         0.24065E+06         0.00000E+00
    0.24065E+06        -0.43502E+08         0.00000E+00
    0.00000E+00         0.00000E+00        -0.19945E+08
 
   -0.19967E+08         0.24041E+06         0.00000E+00
    0.24041E+06        -0.43852E+08         0.00000E+00
    0.00000E+00         0.00000E+00        -0.20099E+08
 
   -0.20134E+08         0.23859E+06         0.00000E+00
    0.23859E+06        -0.44205E+08         0.00000E+00
    0.00000E+00         0.00000E+00        -0.20253E+08
 
   -0.20301E+08         0.23517E+06         0.00000E+00
    0.23517E+06        -0.44557E+08         0.00000E+00
    0.00000E+00         0.00000E+00        -0.20411E+08
 
   -0.20469E+08         0.23034E+06         0.00000E+00
    0.23034E+06        -0.44904E+08         0.00000E+00
    0.00000E+00         0.00000E+00        -0.20579E+08
 
   -0.20638E+08         0.22790E+06         0.00000E+00
    0.22790E+06        -0.45252E+08         0.00000E+00
    0.00000E+00         0.00000E+00        -0.20747E+08
 
   -0.20809E+08         0.22665E+06         0.00000E+00
    0.22665E+06        -0.45600E+08         0.00000E+00
    0.00000E+00         0.00000E+00        -0.20914E+08
 
   -0.20981E+08         0.22591E+06         0.00000E+00
    0.22591E+06        -0.45948E+08         0.00000E+00
    0.00000E+00         0.00000E+00        -0.21082E+08
 
   -0.21154E+08         0.22539E+06         0.00000E+00
    0.22539E+06        -0.46296E+08         0.00000E+00
    0.00000E+00         0.00000E+00        -0.21248E+08
 
   -0.21328E+08         0.22489E+06         0.00000E+00
    0.22489E+06        -0.46644E+08         0.00000E+00
    0.00000E+00         0.00000E+00        -0.21415E+08
 
   -0.21502E+08         0.22407E+06         0.00000E+00
    0.22407E+06        -0.46992E+08         0.00000E+00
    0.00000E+00         0.00000E+00        -0.21581E+08
 
   -0.21678E+08         0.22230E+06         0.00000E+00
    0.22230E+06        -0.47340E+08         0.00000E+00
    0.00000E+00         0.00000E+00        -0.21746E+08
 
   -0.21854E+08         0.21946E+06         0.00000E+00
    0.21946E+06        -0.47688E+08         0.00000E+00
    0.00000E+00         0.00000E+00        -0.21914E+08
 
   -0.22031E+08         0.21681E+06         0.00000E+00
    0.21681E+06        -0.48033E+08         0.00000E+00
    0.00000E+00         0.00000E+00        -0.22087E+08
 
   -0.22209E+08         0.21516E+06         0.00000E+00
    0.21516E+06        -0.48379E+08         0.00000E+00
    0.00000E+00         0.00000E+00        -0.22260E+08
 
   -0.22388E+08         0.21407E+06         0.00000E+00
    0.21407E+06        -0.48725E+08         0.00000E+00
    0.00000E+00         0.00000E+00        -0.22432E+08
 
   -0.22568E+08         0.21318E+06         0.00000E+00
    0.21318E+06        -0.49070E+08         0.00000E+00
    0.00000E+00         0.00000E+00        -0.22604E+08
 
   -0.22748E+08         0.21233E+06         0.00000E+00
    0.21233E+06        -0.49416E+08         0.00000E+00
    0.00000E+00         0.00000E+00        -0.22776E+08
 
   -0.22929E+08         0.21149E+06         0.00000E+00
    0.21149E+06        -0.49761E+08         0.00000E+00
    0.00000E+00         0.00000E+00        -0.22947E+08
 
   -0.23110E+08         0.21061E+06         0.00000E+00
    0.21061E+06        -0.50106E+08         0.00000E+00
    0.00000E+00         0.00000E+00        -0.23118E+08
 
   -0.23292E+08         0.20969E+06         0.00000E+00
    0.20969E+06        -0.50451E+08         0.00000E+00
    0.00000E+00         0.00000E+00        -0.23288E+08
 
   -0.23475E+08         0.20873E+06         0.00000E+00
    0.20873E+06        -0.50796E+08         0.00000E+00
    0.00000E+00         0.00000E+00        -0.23458E+08
 
   -0.23658E+08         0.20771E+06         0.00000E+00
    0.20771E+06        -0.51140E+08         0.00000E+00
    0.00000E+00         0.00000E+00        -0.23627E+08
 
   -0.23844E+08         0.20660E+06         0.00000E+00
    0.20660E+06        -0.51482E+08         0.00000E+00
    0.00000E+00         0.00000E+00        -0.23799E+08
 
   -0.24032E+08         0.20543E+06         0.00000E+00
    0.20543E+06        -0.51822E+08         0.00000E+00
    0.00000E+00         0.00000E+00        -0.23971E+08
 
   -0.24220E+08         0.20421E+06         0.00000E+00
    0.20421E+06        -0.52162E+08         0.00000E+00
    0.00000E+00         0.00000E+00        -0.24143E+08
 
   -0.24409E+08         0.20293E+06         0.00000E+00
    0.20293E+06        -0.52502E+08         0.00000E+00
    0.00000E+00         0.00000E+00        -0.24314E+08
 
   -0.24599E+08         0.20161E+06         0.00000E+00
    0.20161E+06        -0.52842E+08         0.00000E+00
    0.00000E+00         0.00000E+00        -0.24484E+08
 
   -0.24789E+08         0.20023E+06         0.00000E+00
    0.20023E+06        -0.53182E+08         0.00000E+00
    0.00000E+00         0.00000E+00        -0.24654E+08
 
   -0.24980E+08         0.19880E+06         0.00000E+00
    0.19880E+06        -0.53522E+08         0.00000E+00
    0.00000E+00         0.00000E+00        -0.24823E+08
 
   -0.25172E+08         0.19729E+06         0.00000E+00
    0.19729E+06        -0.53862E+08         0.00000E+00
    0.00000E+00         0.00000E+00        -0.24992E+08
 
   -0.25364E+08         0.19570E+06         0.00000E+00
    0.19570E+06        -0.54202E+08         0.00000E+00
    0.00000E+00         0.00000E+00        -0.25159E+08
 
   -0.25558E+08         0.19400E+06         0.00000E+00
    0.19400E+06        -0.54542E+08         0.00000E+00
    0.00000E+00         0.00000E+00        -0.25326E+08
 
   -0.25753E+08         0.19216E+06         0.00000E+00
    0.19216E+06        -0.54883E+08         0.00000E+00
    0.00000E+00         0.00000E+00        -0.25491E+08
 
   -0.25948E+08         0.19014E+06         0.00000E+00
    0.19014E+06        -0.55223E+08         0.00000E+00
    0.00000E+00         0.00000E+00        -0.25656E+08
 
   -0.26145E+08         0.18786E+06         0.00000E+00
    0.18786E+06        -0.55563E+08         0.00000E+00
    0.00000E+00         0.00000E+00        -0.25819E+08
 
   -0.26344E+08         0.18525E+06         0.00000E+00
    0.18525E+06        -0.55903E+08         0.00000E+00
    0.00000E+00         0.00000E+00        -0.25981E+08
 
   -0.26545E+08         0.18218E+06         0.00000E+00
    0.18218E+06        -0.56244E+08         0.00000E+00
    0.00000E+00         0.00000E+00        -0.26141E+08
 
   -0.26748E+08         0.17850E+06         0.00000E+00
    0.17850E+06        -0.56584E+08         0.00000E+00
    0.00000E+00         0.00000E+00        -0.26299E+08
 
   -0.26954E+08         0.17404E+06         0.00000E+00
    0.17404E+06        -0.56925E+08         0.00000E+00
    0.00000E+00         0.00000E+00        -0.26455E+08
 
   -0.27163E+08         0.16857E+06         0.00000E+00
    0.16857E+06        -0.57266E+08         0.00000E+00
    0.00000E+00         0.00000E+00        -0.26608E+08
 
   -0.27376E+08         0.16185E+06         0.00000E+00
    0.16185E+06        -0.57608E+08         0.00000E+00
    0.00000E+00         0.00000E+00        -0.26757E+08
 
   -0.27594E+08         0.15360E+06         0.00000E+00
    0.15360E+06        -0.57949E+08         0.00000E+00
    0.00000E+00         0.00000E+00        -0.26903E+08
 
   -0.27818E+08         0.14358E+06         0.00000E+00
    0.14358E+06        -0.58292E+08         0.00000E+00
    0.00000E+00         0.00000E+00        -0.27043E+08
 
   -0.28050E+08         0.13157E+06         0.00000E+00
    0.13157E+06        -0.58634E+08         0.00000E+00
    0.00000E+00         0.00000E+00        -0.27176E+08
 
   -0.28290E+08         0.11749E+06         0.00000E+00
    0.11749E+06        -0.58978E+08         0.00000E+00
    0.00000E+00         0.00000E+00        -0.27303E+08
 
   -0.28540E+08         0.10142E+06         0.00000E+00
    0.10142E+06        -0.59321E+08         0.00000E+00
    0.00000E+00         0.00000E+00        -0.27421E+08
 
   -0.28801E+08         0.83673E+05         0.00000E+00
    0.83673E+05        -0.59665E+08         0.00000E+00
    0.00000E+00         0.00000E+00        -0.27530E+08
 
   -0.29074E+08         0.64788E+05         0.00000E+00
    0.64788E+05        -0.60009E+08         0.00000E+00
    0.00000E+00         0.00000E+00        -0.27628E+08
 
   -0.29361E+08         0.45564E+05         0.00000E+00
    0.45564E+05        -0.60354E+08         0.00000E+00
    0.00000E+00         0.00000E+00        -0.27715E+08
 
   -0.29662E+08         0.26637E+05         0.00000E+00
    0.26637E+05        -0.60698E+08         0.00000E+00
    0.00000E+00         0.00000E+00        -0.27791E+08
 
   -0.29977E+08         0.89185E+04         0.00000E+00
    0.89185E+04        -0.61043E+08         0.00000E+00
    0.00000E+00         0.00000E+00        -0.27858E+08
 
   -0.30304E+08        -0.72207E+04         0.00000E+00
   -0.72207E+04        -0.61388E+08         0.00000E+00
    0.00000E+00         0.00000E+00        -0.27914E+08
 
   -0.30645E+08        -0.25198E+05         0.00000E+00
   -0.25198E+05        -0.61737E+08         0.00000E+00
    0.00000E+00         0.00000E+00        -0.27966E+08
 
   -0.30986E+08        -0.36369E+05         0.00000E+00
   -0.36369E+05        -0.62088E+08         0.00000E+00
    0.00000E+00         0.00000E+00        -0.28021E+08
 
   -0.31319E+08        -0.18737E+05         0.00000E+00
   -0.18737E+05        -0.62406E+08         0.00000E+00
    0.00000E+00         0.00000E+00        -0.28054E+08
 
   -0.10825E+08        -0.48129E+04         0.00000E+00
   -0.48129E+04        -0.27726E+08         0.00000E+00
    0.00000E+00         0.00000E+00        -0.15459E+08
 
   -0.11211E+08         0.14413E+04         0.00000E+00
    0.14413E+04        -0.28113E+08         0.00000E+00
    0.00000E+00         0.00000E+00        -0.15433E+08
 
   -0.11612E+08         0.28221E+05         0.00000E+00
    0.28221E+05        -0.28497E+08         0.00000E+00
    0.00000E+00         0.00000E+00        -0.15420E+08
 
   -0.11992E+08         0.50145E+05         0.00000E+00
    0.50145E+05        -0.28863E+08         0.00000E+00
    0.00000E+00         0.00000E+00        -0.15387E+08
 
   -0.12336E+08         0.65571E+05         0.00000E+00
    0.65571E+05        -0.29224E+08         0.00000E+00
    0.00000E+00         0.00000E+00        -0.15348E+08
 
   -0.12651E+08         0.78722E+05         0.00000E+00
    0.78722E+05        -0.29587E+08         0.00000E+00
    0.00000E+00         0.00000E+00        -0.15314E+08
 
   -0.12944E+08         0.88426E+05         0.00000E+00
    0.88426E+05        -0.29950E+08         0.00000E+00
    0.00000E+00         0.00000E+00        -0.15293E+08
 
   -0.13221E+08         0.94982E+05         0.00000E+00
    0.94982E+05        -0.30312E+08         0.00000E+00
    0.00000E+00         0.00000E+00        -0.15290E+08
 
   -0.13486E+08         0.10036E+06         0.00000E+00
    0.10036E+06        -0.30672E+08         0.00000E+00
    0.00000E+00         0.00000E+00        -0.15305E+08
 
   -0.13742E+08         0.10677E+06         0.00000E+00
    0.10677E+06        -0.31031E+08         0.00000E+00
    0.00000E+00         0.00000E+00        -0.15340E+08
 
   -0.13988E+08         0.11555E+06         0.00000E+00
    0.11555E+06        -0.31390E+08         0.00000E+00
    0.00000E+00         0.00000E+00        -0.15393E+08
 
   -0.14224E+08         0.12682E+06         0.00000E+00
    0.12682E+06        -0.31749E+08         0.00000E+00
    0.00000E+00         0.00000E+00        -0.15462E+08
 
   -0.14450E+08         0.13980E+06         0.00000E+00
    0.13980E+06        -0.32108E+08         0.00000E+00
    0.00000E+00         0.00000E+00        -0.15545E+08
 
   -0.14666E+08         0.15342E+06         0.00000E+00
    0.15342E+06        -0.32468E+08         0.00000E+00
    0.00000E+00         0.00000E+00        -0.15639E+08
 
   -0.14872E+08         0.16669E+06         0.00000E+00
    0.16669E+06        -0.32828E+08         0.00000E+00
    0.00000E+00         0.00000E+00        -0.15741E+08
 
   -0.15068E+08         0.17897E+06         0.00000E+00
    0.17897E+06        -0.33189E+08         0.00000E+00
    0.00000E+00         0.00000E+00        -0.15850E+08
 
   -0.15256E+08         0.18994E+06         0.00000E+00
    0.18994E+06        -0.33549E+08         0.00000E+00
    0.00000E+00         0.00000E+00        -0.15963E+08
 
   -0.15436E+08         0.19953E+06         0.00000E+00
    0.19953E+06        -0.33909E+08         0.00000E+00
    0.00000E+00         0.00000E+00        -0.16080E+08
 
   -0.15609E+08         0.20786E+06         0.00000E+00
    0.20786E+06        -0.34269E+08         0.00000E+00
    0.00000E+00         0.00000E+00        -0.16198E+08
 
   -0.15776E+08         0.21510E+06         0.00000E+00
    0.21510E+06        -0.34628E+08         0.00000E+00
    0.00000E+00         0.00000E+00        -0.16318E+08
 
   -0.15939E+08         0.22136E+06         0.00000E+00
    0.22136E+06        -0.34987E+08         0.00000E+00
    0.00000E+00         0.00000E+00        -0.16437E+08
 
   -0.16099E+08         0.22652E+06         0.00000E+00
    0.22652E+06        -0.35346E+08         0.00000E+00
    0.00000E+00         0.00000E+00        -0.16556E+08
 
   -0.16257E+08         0.22922E+06         0.00000E+00
    0.22922E+06        -0.35705E+08         0.00000E+00
    0.00000E+00         0.00000E+00        -0.16673E+08
 
   -0.16416E+08         0.22534E+06         0.00000E+00
    0.22534E+06        -0.36071E+08         0.00000E+00
    0.00000E+00         0.00000E+00        -0.16789E+08
 
   -0.16574E+08         0.21495E+06         0.00000E+00
    0.21495E+06        -0.36428E+08         0.00000E+00
    0.00000E+00         0.00000E+00        -0.16929E+08
 
   -0.16733E+08         0.20860E+06         0.00000E+00
    0.20860E+06        -0.36780E+08         0.00000E+00
    0.00000E+00         0.00000E+00        -0.17087E+08
 
   -0.16895E+08         0.20703E+06         0.00000E+00
    0.20703E+06        -0.37136E+08         0.00000E+00
    0.00000E+00         0.00000E+00        -0.17243E+08
 
   -0.17059E+08         0.20706E+06         0.00000E+00
    0.20706E+06        -0.37493E+08         0.00000E+00
    0.00000E+00         0.00000E+00        -0.17398E+08
 
   -0.17223E+08         0.20780E+06         0.00000E+00
    0.20780E+06        -0.37849E+08         0.00000E+00
    0.00000E+00         0.00000E+00        -0.17551E+08
 
   -0.17386E+08         0.20905E+06         0.00000E+00
    0.20905E+06        -0.38204E+08         0.00000E+00
    0.00000E+00         0.00000E+00        -0.17702E+08
 
   -0.17549E+08         0.21062E+06         0.00000E+00
    0.21062E+06        -0.38560E+08         0.00000E+00
    0.00000E+00         0.00000E+00        -0.17851E+08
 
   -0.17710E+08         0.21239E+06         0.00000E+00
    0.21239E+06        -0.38915E+08         0.00000E+00
    0.00000E+00         0.00000E+00        -0.17997E+08
 
   -0.17870E+08         0.21427E+06         0.00000E+00
    0.21427E+06        -0.39270E+08         0.00000E+00
    0.00000E+00         0.00000E+00        -0.18142E+08
 
   -0.18029E+08         0.21621E+06         0.00000E+00
    0.21621E+06        -0.39624E+08         0.00000E+00
    0.00000E+00         0.00000E+00        -0.18285E+08
 
   -0.18186E+08         0.21818E+06         0.00000E+00
    0.21818E+06        -0.39978E+08         0.00000E+00
    0.00000E+00         0.00000E+00        -0.18426E+08
 
   -0.18343E+08         0.21992E+06         0.00000E+00
    0.21992E+06        -0.40332E+08         0.00000E+00
    0.00000E+00         0.00000E+00        -0.18564E+08
 
   -0.18500E+08         0.22000E+06         0.00000E+00
    0.22000E+06        -0.40687E+08         0.00000E+00
    0.00000E+00         0.00000E+00        -0.18701E+08
 
   -0.18658E+08         0.21732E+06         0.00000E+00
    0.21732E+06        -0.41044E+08         0.00000E+00
    0.00000E+00         0.00000E+00        -0.18841E+08
 
   -0.18815E+08         0.21007E+06         0.00000E+00
    0.21007E+06        -0.41396E+08         0.00000E+00
    0.00000E+00         0.00000E+00        -0.18995E+08
 
   -0.18975E+08         0.20607E+06         0.00000E+00
    0.20607E+06        -0.41746E+08         0.00000E+00
    0.00000E+00         0.00000E+00        -0.19156E+08
 
   -0.19137E+08         0.20426E+06         0.00000E+00
    0.20426E+06        -0.42098E+08         0.00000E+00
    0.00000E+00         0.00000E+00        -0.19315E+08
 
   -0.19300E+08         0.20342E+06         0.00000E+00
    0.20342E+06        -0.42449E+08         0.00000E+00
    0.00000E+00         0.00000E+00        -0.19474E+08
 
   -0.19465E+08         0.20318E+06         0.00000E+00
    0.20318E+06        -0.42801E+08         0.00000E+00
    0.00000E+00         0.00000E+00        -0.19631E+08
 
   -0.19630E+08         0.20330E+06         0.00000E+00
    0.20330E+06        -0.43151E+08         0.00000E+00
    0.00000E+00         0.00000E+00        -0.19787E+08
 
   -0.19795E+08         0.20361E+06         0.00000E+00
    0.20361E+06        -0.43502E+08         0.00000E+00
    0.00000E+00         0.00000E+00        -0.19943E+08
 
   -0.19961E+08         0.20368E+06         0.00000E+00
    0.20368E+06        -0.43852E+08         0.00000E+00
    0.00000E+00         0.00000E+00        -0.20097E+08
 
   -0.20128E+08         0.20214E+06         0.00000E+00
    0.20214E+06        -0.44204E+08         0.00000E+00
    0.00000E+00         0.00000E+00        -0.20251E+08
 
   -0.20295E+08         0.19866E+06         0.00000E+00
    0.19866E+06        -0.44556E+08         0.00000E+00
    0.00000E+00         0.00000E+00        -0.20410E+08
 
   -0.20463E+08         0.19425E+06         0.00000E+00
    0.19425E+06        -0.44903E+08         0.00000E+00
    0.00000E+00         0.00000E+00        -0.20577E+08
 
   -0.20633E+08         0.19229E+06         0.00000E+00
    0.19229E+06        -0.45251E+08         0.00000E+00
    0.00000E+00         0.00000E+00        -0.20746E+08
 
   -0.20805E+08         0.19135E+06         0.00000E+00
    0.19135E+06        -0.45600E+08         0.00000E+00
    0.00000E+00         0.00000E+00        -0.20913E+08
 
   -0.20978E+08         0.19083E+06         0.00000E+00
    0.19083E+06        -0.45948E+08         0.00000E+00
    0.00000E+00         0.00000E+00        -0.21081E+08
 
   -0.21151E+08         0.19050E+06         0.00000E+00
    0.19050E+06        -0.46296E+08         0.00000E+00
    0.00000E+00         0.00000E+00        -0.21247E+08
 
   -0.21325E+08         0.19019E+06         0.00000E+00
    0.19019E+06        -0.46644E+08         0.00000E+00
    0.00000E+00         0.00000E+00        -0.21414E+08
 
   -0.21500E+08         0.18963E+06         0.00000E+00
    0.18963E+06        -0.46991E+08         0.00000E+00
    0.00000E+00         0.00000E+00        -0.21580E+08
 
   -0.21676E+08         0.18813E+06         0.00000E+00
    0.18813E+06        -0.47339E+08         0.00000E+00
    0.00000E+00         0.00000E+00        -0.21745E+08
 
   -0.21852E+08         0.18541E+06         0.00000E+00
    0.18541E+06        -0.47687E+08         0.00000E+00
    0.00000E+00         0.00000E+00        -0.21913E+08
 
   -0.22029E+08         0.18301E+06         0.00000E+00
    0.18301E+06        -0.48033E+08         0.00000E+00
    0.00000E+00         0.00000E+00        -0.22086E+08
 
   -0.22208E+08         0.18167E+06         0.00000E+00
    0.18167E+06        -0.48379E+08         0.00000E+00
    0.00000E+00         0.00000E+00        -0.22258E+08
 
   -0.22387E+08         0.18082E+06         0.00000E+00
    0.18082E+06        -0.48724E+08         0.00000E+00
    0.00000E+00         0.00000E+00        -0.22431E+08
 
   -0.22568E+08         0.18010E+06         0.00000E+00
    0.18010E+06        -0.49070E+08         0.00000E+00
    0.00000E+00         0.00000E+00        -0.22603E+08
 
   -0.22748E+08         0.17942E+06         0.00000E+00
    0.17942E+06        -0.49416E+08         0.00000E+00
    0.00000E+00         0.00000E+00        -0.22774E+08
 
   -0.22930E+08         0.17873E+06         0.00000E+00
    0.17873E+06        -0.49761E+08         0.00000E+00
    0.00000E+00         0.00000E+00        -0.22945E+08
 
   -0.23112E+08         0.17800E+06         0.00000E+00
    0.17800E+06        -0.50106E+08         0.00000E+00
    0.00000E+00         0.00000E+00        -0.23116E+08
 
   -0.23294E+08         0.17723E+06         0.00000E+00
    0.17723E+06        -0.50451E+08         0.00000E+00
    0.00000E+00         0.00000E+00        -0.23286E+08
 
   -0.23477E+08         0.17642E+06         0.00000E+00
    0.17642E+06        -0.50796E+08         0.00000E+00
    0.00000E+00         0.00000E+00        -0.23456E+08
 
   -0.23660E+08         0.17556E+06         0.00000E+00
    0.17556E+06        -0.51140E+08         0.00000E+00
    0.00000E+00         0.00000E+00        -0.23625E+08
 
   -0.23846E+08         0.17462E+06         0.00000E+00
    0.17462E+06        -0.51482E+08         0.00000E+00
    0.00000E+00         0.00000E+00        -0.23796E+08
 
   -0.24034E+08         0.17363E+06         0.00000E+00
    0.17363E+06        -0.51822E+08         0.00000E+00
    0.00000E+00         0.00000E+00        -0.23968E+08
 
   -0.24223E+08         0.17259E+06         0.00000E+00
    0.17259E+06        -0.52163E+08         0.00000E+00
    0.00000E+00         0.00000E+00        -0.24140E+08
 
   -0.24412E+08         0.17150E+06         0.00000E+00
    0.17150E+06        -0.52503E+08         0.00000E+00
    0.00000E+00         0.00000E+00        -0.24310E+08
 
   -0.24602E+08         0.17038E+06         0.00000E+00
    0.17038E+06        -0.52843E+08         0.00000E+00
    0.00000E+00         0.00000E+00        -0.24481E+08
 
   -0.24793E+08         0.16921E+06         0.00000E+00
    0.16921E+06        -0.53183E+08         0.00000E+00
    0.00000E+00         0.00000E+00        -0.24650E+08
 
   -0.24984E+08         0.16798E+06         0.00000E+00
    0.16798E+06        -0.53523E+08         0.00000E+00
    0.00000E+00         0.00000E+00        -0.24819E+08
 
   -0.25176E+08         0.16670E+06         0.00000E+00
    0.16670E+06        -0.53863E+08         0.00000E+00
    0.00000E+00         0.00000E+00        -0.24987E+08
 
   -0.25369E+08         0.16535E+06         0.00000E+00
    0.16535E+06        -0.54203E+08         0.00000E+00
    0.00000E+00         0.00000E+00        -0.25154E+08
 
   -0.25563E+08         0.16392E+06         0.00000E+00
    0.16392E+06        -0.54543E+08         0.00000E+00
    0.00000E+00         0.00000E+00        -0.25320E+08
 
   -0.25758E+08         0.16236E+06         0.00000E+00
    0.16236E+06        -0.54883E+08         0.00000E+00
    0.00000E+00         0.00000E+00        -0.25486E+08
 
   -0.25954E+08         0.16065E+06         0.00000E+00
    0.16065E+06        -0.55223E+08         0.00000E+00
    0.00000E+00         0.00000E+00        -0.25650E+08
 
   -0.26152E+08         0.15872E+06         0.00000E+00
    0.15872E+06        -0.55563E+08         0.00000E+00
    0.00000E+00         0.00000E+00        -0.25813E+08
 
   -0.26351E+08         0.15651E+06         0.00000E+00
    0.15651E+06        -0.55903E+08         0.00000E+00
    0.00000E+00         0.00000E+00        -0.25974E+08
 
   -0.26552E+08         0.15391E+06         0.00000E+00
    0.15391E+06        -0.56244E+08         0.00000E+00
    0.00000E+00         0.00000E+00        -0.26134E+08
 
   -0.26755E+08         0.15079E+06         0.00000E+00
    0.15079E+06        -0.56584E+08         0.00000E+00
    0.00000E+00         0.00000E+00        -0.26292E+08
 
   -0.26961E+08         0.14700E+06         0.00000E+00
    0.14700E+06        -0.56925E+08         0.00000E+00
    0.00000E+00         0.00000E+00        -0.26447E+08
 
   -0.27171E+08         0.14234E+06         0.00000E+00
    0.14234E+06        -0.57266E+08         0.00000E+00
    0.00000E+00         0.00000E+00        -0.26599E+08
 
   -0.27385E+08         0.13659E+06         0.00000E+00
    0.13659E+06        -0.57607E+08         0.00000E+00
    0.00000E+00         0.00000E+00        -0.26748E+08
 
   -0.27603E+08         0.12953E+06         0.00000E+00
    0.12953E+06        -0.57948E+08         0.00000E+00
    0.00000E+00         0.00000E+00        -0.26892E+08
 
   -0.27828E+08         0.12093E+06         0.00000E+00
    0.12093E+06        -0.58290E+08         0.00000E+00
    0.00000E+00         0.00000E+00        -0.27031E+08
 
   -0.28061E+08         0.11062E+06         0.00000E+00
    0.11062E+06        -0.58633E+08         0.00000E+00
    0.00000E+00         0.00000E+00        -0.27164E+08
 
   -0.28302E+08         0.98534E+05         0.00000E+00
    0.98534E+05        -0.58976E+08         0.00000E+00
    0.00000E+00         0.00000E+00        -0.27289E+08
 
   -0.28554E+08         0.84739E+05         0.00000E+00
    0.84739E+05        -0.59319E+08         0.00000E+00
    0.00000E+00         0.00000E+00        -0.27405E+08
 
   -0.28817E+08         0.69542E+05         0.00000E+00
    0.69542E+05        -0.59663E+08         0.00000E+00
    0.00000E+00         0.00000E+00        -0.27512E+08
 
   -0.29093E+08         0.53416E+05         0.00000E+00
    0.53416E+05        -0.60007E+08         0.00000E+00
    0.00000E+00         0.00000E+00        -0.27608E+08
 
   -0.29382E+08         0.37070E+05         0.00000E+00
    0.37070E+05        -0.60351E+08         0.00000E+00
    0.00000E+00         0.00000E+00        -0.27693E+08
 
   -0.29686E+08         0.21107E+05         0.00000E+00
    0.21107E+05        -0.60695E+08         0.00000E+00
    0.00000E+00         0.00000E+00        -0.27767E+08
 
   -0.30003E+08         0.59449E+04         0.00000E+00
    0.59449E+04        -0.61040E+08         0.00000E+00
    0.00000E+00         0.00000E+00        -0.27832E+08
 
   -0.30333E+08        -0.70764E+04         0.00000E+00
   -0.70764E+04        -0.61385E+08         0.00000E+00
    0.00000E+00         0.00000E+00        -0.27887E+08
 
   -0.30677E+08        -0.22598E+05         0.00000E+00
   -0.22598E+05        -0.61732E+08         0.00000E+00
    0.00000E+00         0.00000E+00        -0.27934E+08
 
   -0.31025E+08        -0.36352E+05         0.00000E+00
   -0.36352E+05        -0.62087E+08         0.00000E+00
    0.00000E+00         0.00000E+00        -0.27989E+08
 
   -0.31361E+08        -0.20163E+05         0.00000E+00
   -0.20163E+05        -0.62414E+08         0.00000E+00
    0.00000E+00         0.00000E+00        -0.28027E+08
 
   -0.10828E+08        -0.38983E+04         0.00000E+00
   -0.38983E+04        -0.27722E+08         0.00000E+00
    0.00000E+00         0.00000E+00        -0.15491E+08
 
   -0.11215E+08         0.84733E+04         0.00000E+00
    0.84733E+04        -0.28118E+08         0.00000E+00
    0.00000E+00         0.00000E+00        -0.15476E+08
 
   -0.11612E+08         0.35269E+05         0.00000E+00
    0.35269E+05        -0.28503E+08         0.00000E+00
    0.00000E+00         0.00000E+00        -0.15462E+08
 
   -0.11979E+08         0.49179E+05         0.00000E+00
    0.49179E+05        -0.28866E+08         0.00000E+00
    0.00000E+00         0.00000E+00        -0.15423E+08
 
   -0.12312E+08         0.58158E+05         0.00000E+00
    0.58158E+05        -0.29227E+08         0.00000E+00
    0.00000E+00         0.00000E+00        -0.15377E+08
 
   -0.12620E+08         0.66674E+05         0.00000E+00
    0.66674E+05        -0.29589E+08         0.00000E+00
    0.00000E+00         0.00000E+00        -0.15336E+08
 
   -0.12910E+08         0.72844E+05         0.00000E+00
    0.72844E+05        -0.29951E+08         0.00000E+00
    0.00000E+00         0.00000E+00        -0.15309E+08
 
   -0.13186E+08         0.76904E+05         0.00000E+00
    0.76904E+05        -0.30313E+08         0.00000E+00
    0.00000E+00         0.00000E+00        -0.15299E+08
 
   -0.13453E+08         0.80363E+05         0.00000E+00
    0.80363E+05        -0.30673E+08         0.00000E+00
    0.00000E+00         0.00000E+00        -0.15310E+08
 
   -0.13711E+08         0.85037E+05         0.00000E+00
    0.85037E+05        -0.31033E+08         0.00000E+00
    0.00000E+00         0.00000E+00        -0.15341E+08
 
   -0.13960E+08         0.92011E+05         0.00000E+00
    0.92011E+05        -0.31392E+08         0.00000E+00
    0.00000E+00         0.00000E+00        -0.15391E+08
 
   -0.14200E+08         0.10132E+06         0.00000E+00
    0.10132E+06        -0.31751E+08         0.00000E+00
    0.00000E+00         0.00000E+00        -0.15457E+08
 
   -0.14430E+08         0.11224E+06         0.00000E+00
    0.11224E+06        -0.32111E+08         0.00000E+00
    0.00000E+00         0.00000E+00        -0.15538E+08
 
   -0.14649E+08         0.12378E+06         0.00000E+00
    0.12378E+06        -0.32471E+08         0.00000E+00
    0.00000E+00         0.00000E+00        -0.15630E+08
 
   -0.14858E+08         0.13507E+06         0.00000E+00
    0.13507E+06        -0.32831E+08         0.00000E+00
    0.00000E+00         0.00000E+00        -0.15731E+08
 
   -0.15056E+08         0.14552E+06         0.00000E+00
    0.14552E+06        -0.33191E+08         0.00000E+00
    0.00000E+00         0.00000E+00        -0.15840E+08
 
   -0.15245E+08         0.15484E+06         0.00000E+00
    0.15484E+06        -0.33551E+08         0.00000E+00
    0.00000E+00         0.00000E+00        -0.15953E+08
 
   -0.15425E+08         0.16299E+06         0.00000E+00
    0.16299E+06        -0.33911E+08         0.00000E+00
    0.00000E+00         0.00000E+00        -0.16069E+08
 
   -0.15599E+08         0.17008E+06         0.00000E+00
    0.17008E+06        -0.34270E+08         0.00000E+00
    0.00000E+00         0.00000E+00        -0.16188E+08
 
   -0.15766E+08         0.17627E+06         0.00000E+00
    0.17627E+06        -0.34630E+08         0.00000E+00
    0.00000E+00         0.00000E+00        -0.16308E+08
 
   -0.15928E+08         0.18170E+06         0.00000E+00
    0.18170E+06        -0.34988E+08         0.00000E+00
    0.00000E+00         0.00000E+00        -0.16427E+08
 
   -0.16086E+08         0.18636E+06         0.00000E+00
    0.18636E+06        -0.35347E+08         0.00000E+00
    0.00000E+00         0.00000E+00        -0.16546E+08
 
   -0.16242E+08         0.18929E+06         0.00000E+00
    0.18929E+06        -0.35706E+08         0.00000E+00
    0.00000E+00         0.00000E+00        -0.16664E+08
 
   -0.16400E+08         0.18565E+06         0.00000E+00
    0.18565E+06        -0.36069E+08         0.00000E+00
    0.00000E+00         0.00000E+00        -0.16781E+08
 
   -0.16557E+08         0.17482E+06         0.00000E+00
    0.17482E+06        -0.36426E+08         0.00000E+00
    0.00000E+00         0.00000E+00        -0.16921E+08
 
   -0.16717E+08         0.16931E+06         0.00000E+00
    0.16931E+06        -0.36780E+08         0.00000E+00
    0.00000E+00         0.00000E+00        -0.17079E+08
 
   -0.16881E+08         0.16852E+06         0.00000E+00
    0.16852E+06        -0.37136E+08         0.00000E+00
    0.00000E+00         0.00000E+00        -0.17236E+08
 
   -0.17046E+08         0.16873E+06         0.00000E+00
    0.16873E+06        -0.37493E+08         0.00000E+00
    0.00000E+00         0.00000E+00        -0.17391E+08
 
   -0.17211E+08         0.16947E+06         0.00000E+00
    0.16947E+06        -0.37849E+08         0.00000E+00
    0.00000E+00         0.00000E+00        -0.17544E+08
 
   -0.17376E+08         0.17061E+06         0.00000E+00
    0.17061E+06        -0.38205E+08         0.00000E+00
    0.00000E+00         0.00000E+00        -0.17695E+08
 
   -0.17539E+08         0.17200E+06         0.00000E+00
    0.17200E+06        -0.38560E+08         0.00000E+00
    0.00000E+00         0.00000E+00        -0.17844E+08
 
   -0.17701E+08         0.17354E+06         0.00000E+00
    0.17354E+06        -0.38915E+08         0.00000E+00
    0.00000E+00         0.00000E+00        -0.17992E+08
 
   -0.17861E+08         0.17520E+06         0.00000E+00
    0.17520E+06        -0.39270E+08         0.00000E+00
    0.00000E+00         0.00000E+00        -0.18137E+08
 
   -0.18020E+08         0.17692E+06         0.00000E+00
    0.17692E+06        -0.39625E+08         0.00000E+00
    0.00000E+00         0.00000E+00        -0.18280E+08
 
   -0.18177E+08         0.17871E+06         0.00000E+00
    0.17871E+06        -0.39979E+08         0.00000E+00
    0.00000E+00         0.00000E+00        -0.18421E+08
 
   -0.18334E+08         0.18055E+06         0.00000E+00
    0.18055E+06        -0.40332E+08         0.00000E+00
    0.00000E+00         0.00000E+00        -0.18560E+08
 
   -0.18490E+08         0.18094E+06         0.00000E+00
    0.18094E+06        -0.40687E+08         0.00000E+00
    0.00000E+00         0.00000E+00        -0.18697E+08
 
   -0.18647E+08         0.17811E+06         0.00000E+00
    0.17811E+06        -0.41043E+08         0.00000E+00
    0.00000E+00         0.00000E+00        -0.18837E+08
 
   -0.18805E+08         0.17115E+06         0.00000E+00
    0.17115E+06        -0.41395E+08         0.00000E+00
    0.00000E+00         0.00000E+00        -0.18993E+08
 
   -0.18965E+08         0.16787E+06         0.00000E+00
    0.16787E+06        -0.41746E+08         0.00000E+00
    0.00000E+00         0.00000E+00        -0.19153E+08
 
   -0.19128E+08         0.16658E+06         0.00000E+00
    0.16658E+06        -0.42098E+08         0.00000E+00
    0.00000E+00         0.00000E+00        -0.19313E+08
 
   -0.19293E+08         0.16601E+06         0.00000E+00
    0.16601E+06        -0.42449E+08         0.00000E+00
    0.00000E+00         0.00000E+00        -0.19471E+08
 
   -0.19458E+08         0.16593E+06         0.00000E+00
    0.16593E+06        -0.42801E+08         0.00000E+00
    0.00000E+00         0.00000E+00        -0.19629E+08
 
   -0.19623E+08         0.16616E+06         0.00000E+00
    0.16616E+06        -0.43151E+08         0.00000E+00
    0.00000E+00         0.00000E+00        -0.19785E+08
 
   -0.19789E+08         0.16657E+06         0.00000E+00
    0.16657E+06        -0.43502E+08         0.00000E+00
    0.00000E+00         0.00000E+00        -0.19941E+08
 
   -0.19954E+08         0.16693E+06         0.00000E+00
    0.16693E+06        -0.43852E+08         0.00000E+00
    0.00000E+00         0.00000E+00        -0.20095E+08
 
   -0.20121E+08         0.16574E+06         0.00000E+00
    0.16574E+06        -0.44203E+08         0.00000E+00
    0.00000E+00         0.00000E+00        -0.20249E+08
 
   -0.20289E+08         0.16219E+06         0.00000E+00
    0.16219E+06        -0.44555E+08         0.00000E+00
    0.00000E+00         0.00000E+00        -0.20408E+08
 
   -0.20458E+08         0.15832E+06         0.00000E+00
    0.15832E+06        -0.44903E+08         0.00000E+00
    0.00000E+00         0.00000E+00        -0.20577E+08
 
   -0.20629E+08         0.15685E+06         0.00000E+00
    0.15685E+06        -0.45251E+08         0.00000E+00
    0.00000E+00         0.00000E+00        -0.20745E+08
 
   -0.20801E+08         0.15618E+06         0.00000E+00
    0.15618E+06        -0.45600E+08         0.00000E+00
    0.00000E+00         0.00000E+00        -0.20912E+08
 
   -0.20975E+08         0.15586E+06         0.00000E+00
    0.15586E+06        -0.45948E+08         0.00000E+00
    0.00000E+00         0.00000E+00        -0.21080E+08
 
   -0.21149E+08         0.15569E+06         0.00000E+00
    0.15569E+06        -0.46296E+08         0.00000E+00
    0.00000E+00         0.00000E+00        -0.21246E+08
 
   -0.21323E+08         0.15553E+06         0.00000E+00
    0.15553E+06        -0.46644E+08         0.00000E+00
    0.00000E+00         0.00000E+00        -0.21413E+08
 
   -0.21498E+08         0.15522E+06         0.00000E+00
    0.15522E+06        -0.46991E+08         0.00000E+00
    0.00000E+00         0.00000E+00        -0.21579E+08
 
   -0.21673E+08         0.15401E+06         0.00000E+00
    0.15401E+06        -0.47339E+08         0.00000E+00
    0.00000E+00         0.00000E+00        -0.21744E+08
 
   -0.21850E+08         0.15142E+06         0.00000E+00
    0.15142E+06        -0.47687E+08         0.00000E+00
    0.00000E+00         0.00000E+00        -0.21912E+08
 
   -0.22028E+08         0.14932E+06         0.00000E+00
    0.14932E+06        -0.48032E+08         0.00000E+00
    0.00000E+00         0.00000E+00        -0.22085E+08
 
   -0.22207E+08         0.14830E+06         0.00000E+00
    0.14830E+06        -0.48378E+08         0.00000E+00
    0.00000E+00         0.00000E+00        -0.22257E+08
 
   -0.22387E+08         0.14767E+06         0.00000E+00
    0.14767E+06        -0.48724E+08         0.00000E+00
    0.00000E+00         0.00000E+00        -0.22429E+08
 
   -0.22568E+08         0.14712E+06         0.00000E+00
    0.14712E+06        -0.49070E+08         0.00000E+00
    0.00000E+00         0.00000E+00        -0.22601E+08
 
   -0.22749E+08         0.14659E+06         0.00000E+00
    0.14659E+06        -0.49416E+08         0.00000E+00
    0.00000E+00         0.00000E+00        -0.22772E+08
 
   -0.22931E+08         0.14604E+06         0.00000E+00
    0.14604E+06        -0.49761E+08         0.00000E+00
    0.00000E+00         0.00000E+00        -0.22943E+08
 
   -0.23113E+08         0.14546E+06         0.00000E+00
    0.14546E+06        -0.50106E+08         0.00000E+00
    0.00000E+00         0.00000E+00        -0.23114E+08
 
   -0.23296E+08         0.14484E+06         0.00000E+00
    0.14484E+06        -0.50451E+08         0.00000E+00
    0.00000E+00         0.00000E+00        -0.23284E+08
 
   -0.23479E+08         0.14417E+06         0.00000E+00
    0.14417E+06        -0.50796E+08         0.00000E+00
    0.00000E+00         0.00000E+00        -0.23454E+08
 
   -0.23662E+08         0.14347E+06         0.00000E+00
    0.14347E+06        -0.51140E+08         0.00000E+00
    0.00000E+00         0.00000E+00        -0.23623E+08
 
   -0.23848E+08         0.14271E+06         0.00000E+00
    0.14271E+06        -0.51482E+08         0.00000E+00
    0.00000E+00         0.00000E+00        -0.23793E+08
 
   -0.24037E+08         0.14189E+06         0.00000E+00
    0.14189E+06        -0.51823E+08         0.00000E+00
    0.00000E+00         0.00000E+00        -0.23965E+08
 
   -0.24226E+08         0.14103E+06         0.00000E+00
    0.14103E+06        -0.52163E+08         0.00000E+00
    0.00000E+00         0.00000E+00        -0.24136E+08
 
   -0.24416E+08         0.14014E+06         0.00000E+00
    0.14014E+06        -0.52503E+08         0.00000E+00
    0.00000E+00         0.00000E+00        -0.24307E+08
 
   -0.24606E+08         0.13922E+06         0.00000E+00
    0.13922E+06        -0.52843E+08         0.00000E+00
    0.00000E+00         0.00000E+00        -0.24477E+08
 
   -0.24797E+08         0.13825E+06         0.00000E+00
    0.13825E+06        -0.53183E+08         0.00000E+00
    0.00000E+00         0.00000E+00        -0.24646E+08
 
   -0.24988E+08         0.13725E+06         0.00000E+00
    0.13725E+06        -0.53523E+08         0.00000E+00
    0.00000E+00         0.00000E+00        -0.24815E+08
 
   -0.25181E+08         0.13619E+06         0.00000E+00
    0.13619E+06        -0.53863E+08         0.00000E+00
    0.00000E+00         0.00000E+00        -0.24982E+08
 
   -0.25374E+08         0.13509E+06         0.00000E+00
    0.13509E+06        -0.54203E+08         0.00000E+00
    0.00000E+00         0.00000E+00        -0.25149E+08
 
   -0.25568E+08         0.13391E+06         0.00000E+00
    0.13391E+06        -0.54543E+08         0.00000E+00
    0.00000E+00         0.00000E+00        -0.25315E+08
 
   -0.25764E+08         0.13263E+06         0.00000E+00
    0.13263E+06        -0.54883E+08         0.00000E+00
    0.00000E+00         0.00000E+00        -0.25480E+08
 
   -0.25960E+08         0.13123E+06         0.00000E+00
    0.13123E+06        -0.55223E+08         0.00000E+00
    0.00000E+00         0.00000E+00        -0.25644E+08
 
   -0.26158E+08         0.12966E+06         0.00000E+00
    0.12966E+06        -0.55564E+08         0.00000E+00
    0.00000E+00         0.00000E+00        -0.25806E+08
 
   -0.26358E+08         0.12785E+06         0.00000E+00
    0.12785E+06        -0.55904E+08         0.00000E+00
    0.00000E+00         0.00000E+00        -0.25968E+08
 
   -0.26559E+08         0.12572E+06         0.00000E+00
    0.12572E+06        -0.56244E+08         0.00000E+00
    0.00000E+00         0.00000E+00        -0.26127E+08
 
   -0.26763E+08         0.12316E+06         0.00000E+00
    0.12316E+06        -0.56584E+08         0.00000E+00
    0.00000E+00         0.00000E+00        -0.26284E+08
 
   -0.26969E+08         0.12004E+06         0.00000E+00
    0.12004E+06        -0.56925E+08         0.00000E+00
    0.00000E+00         0.00000E+00        -0.26439E+08
 
   -0.27179E+08         0.11619E+06         0.00000E+00
    0.11619E+06        -0.57266E+08         0.00000E+00
    0.00000E+00         0.00000E+00        -0.26591E+08
 
   -0.27394E+08         0.11145E+06         0.00000E+00
    0.11145E+06        -0.57607E+08         0.00000E+00
    0.00000E+00         0.00000E+00        -0.26739E+08
 
   -0.27613E+08         0.10560E+06         0.00000E+00
    0.10560E+06        -0.57948E+08         0.00000E+00
    0.00000E+00         0.00000E+00        -0.26882E+08
 
   -0.27839E+08         0.98469E+05         0.00000E+00
    0.98469E+05        -0.58289E+08         0.00000E+00
    0.00000E+00         0.00000E+00        -0.27020E+08
 
   -0.28072E+08         0.89908E+05         0.00000E+00
    0.89908E+05        -0.58632E+08         0.00000E+00
    0.00000E+00         0.00000E+00        -0.27151E+08
 
   -0.28315E+08         0.79864E+05         0.00000E+00
    0.79864E+05        -0.58974E+08         0.00000E+00
    0.00000E+00         0.00000E+00        -0.27275E+08
 
   -0.28568E+08         0.68414E+05         0.00000E+00
    0.68414E+05        -0.59317E+08         0.00000E+00
    0.00000E+00         0.00000E+00        -0.27390E+08
 
   -0.28833E+08         0.55823E+05         0.00000E+00
    0.55823E+05        -0.59661E+08         0.00000E+00
    0.00000E+00         0.00000E+00        -0.27495E+08
 
   -0.29112E+08         0.42524E+05         0.00000E+00
    0.42524E+05        -0.60004E+08         0.00000E+00
    0.00000E+00         0.00000E+00        -0.27589E+08
 
   -0.29404E+08         0.29042E+05         0.00000E+00
    0.29042E+05        -0.60349E+08         0.00000E+00
    0.00000E+00         0.00000E+00        -0.27672E+08
 
   -0.29710E+08         0.16108E+05         0.00000E+00
    0.16108E+05        -0.60693E+08         0.00000E+00
    0.00000E+00         0.00000E+00        -0.27744E+08
 
   -0.30030E+08         0.34833E+04         0.00000E+00
    0.34833E+04        -0.61038E+08         0.00000E+00
    0.00000E+00         0.00000E+00        -0.27806E+08
 
   -0.30362E+08        -0.67888E+04         0.00000E+00
   -0.67888E+04        -0.61383E+08         0.00000E+00
    0.00000E+00         0.00000E+00        -0.27860E+08
 
   -0.30708E+08        -0.18650E+05         0.00000E+00
   -0.18650E+05        -0.61728E+08         0.00000E+00
    0.00000E+00         0.00000E+00        -0.27904E+08
 
   -0.31064E+08        -0.35007E+05         0.00000E+00
   -0.35007E+05        -0.62085E+08         0.00000E+00
    0.00000E+00         0.00000E+00        -0.27954E+08
 
   -0.31404E+08        -0.21634E+05         0.00000E+00
   -0.21634E+05        -0.62422E+08         0.00000E+00
    0.00000E+00         0.00000E+00        -0.28000E+08
 
   -0.10849E+08        -0.39079E+04         0.00000E+00
   -0.39079E+04        -0.27717E+08         0.00000E+00
    0.00000E+00         0.00000E+00        -0.15526E+08
 
   -0.11235E+08         0.15635E+05         0.00000E+00
    0.15635E+05        -0.28125E+08         0.00000E+00
    0.00000E+00         0.00000E+00        -0.15520E+08
 
   -0.11619E+08         0.39757E+05         0.00000E+00
    0.39757E+05        -0.28507E+08         0.00000E+00
    0.00000E+00         0.00000E+00        -0.15503E+08
 
   -0.11966E+08         0.44873E+05         0.00000E+00
    0.44873E+05        -0.28868E+08         0.00000E+00
    0.00000E+00         0.00000E+00        -0.15457E+08
 
   -0.12285E+08         0.48903E+05         0.00000E+00
    0.48903E+05        -0.29229E+08         0.00000E+00
    0.00000E+00         0.00000E+00        -0.15404E+08
 
   -0.12586E+08         0.53591E+05         0.00000E+00
    0.53591E+05        -0.29591E+08         0.00000E+00
    0.00000E+00         0.00000E+00        -0.15356E+08
 
   -0.12872E+08         0.56885E+05         0.00000E+00
    0.56885E+05        -0.29952E+08         0.00000E+00
    0.00000E+00         0.00000E+00        -0.15322E+08
 
   -0.13148E+08         0.58945E+05         0.00000E+00
    0.58945E+05        -0.30313E+08         0.00000E+00
    0.00000E+00         0.00000E+00        -0.15307E+08
 
   -0.13416E+08         0.60834E+05         0.00000E+00
    0.60834E+05        -0.30674E+08         0.00000E+00
    0.00000E+00         0.00000E+00        -0.15313E+08
 
   -0.13677E+08         0.64002E+05         0.00000E+00
    0.64002E+05        -0.31034E+08         0.00000E+00
    0.00000E+00         0.00000E+00        -0.15340E+08
 
   -0.13931E+08         0.69278E+05         0.00000E+00
    0.69278E+05        -0.31393E+08         0.00000E+00
    0.00000E+00         0.00000E+00        -0.15386E+08
 
   -0.14175E+08         0.76631E+05         0.00000E+00
    0.76631E+05        -0.31753E+08         0.00000E+00
    0.00000E+00         0.00000E+00        -0.15451E+08
 
   -0.14409E+08         0.85411E+05         0.00000E+00
    0.85411E+05        -0.32113E+08         0.00000E+00
    0.00000E+00         0.00000E+00        -0.15529E+08
 
   -0.14632E+08         0.94757E+05         0.00000E+00
    0.94757E+05        -0.32473E+08         0.00000E+00
    0.00000E+00         0.00000E+00        -0.15620E+08
 
   -0.14843E+08         0.10392E+06         0.00000E+00
    0.10392E+06        -0.32833E+08         0.00000E+00
    0.00000E+00         0.00000E+00        -0.15721E+08
 
   -0.15043E+08         0.11239E+06         0.00000E+00
    0.11239E+06        -0.33193E+08         0.00000E+00
    0.00000E+00         0.00000E+00        -0.15829E+08
 
   -0.15234E+08         0.11994E+06         0.00000E+00
    0.11994E+06        -0.33553E+08         0.00000E+00
    0.00000E+00         0.00000E+00        -0.15942E+08
 
   -0.15415E+08         0.12654E+06         0.00000E+00
    0.12654E+06        -0.33912E+08         0.00000E+00
    0.00000E+00         0.00000E+00        -0.16059E+08
 
   -0.15589E+08         0.13228E+06         0.00000E+00
    0.13228E+06        -0.34272E+08         0.00000E+00
    0.00000E+00         0.00000E+00        -0.16178E+08
 
   -0.15756E+08         0.13732E+06         0.00000E+00
    0.13732E+06        -0.34631E+08         0.00000E+00
    0.00000E+00         0.00000E+00        -0.16298E+08
 
   -0.15917E+08         0.14181E+06         0.00000E+00
    0.14181E+06        -0.34989E+08         0.00000E+00
    0.00000E+00         0.00000E+00        -0.16418E+08
 
   -0.16073E+08         0.14579E+06         0.00000E+00
    0.14579E+06        -0.35348E+08         0.00000E+00
    0.00000E+00         0.00000E+00        -0.16537E+08
 
   -0.16227E+08         0.14889E+06         0.00000E+00
    0.14889E+06        -0.35706E+08         0.00000E+00
    0.00000E+00         0.00000E+00        -0.16655E+08
 
   -0.16382E+08         0.14588E+06         0.00000E+00
    0.14588E+06        -0.36067E+08         0.00000E+00
    0.00000E+00         0.00000E+00        -0.16772E+08
 
   -0.16540E+08         0.13469E+06         0.00000E+00
    0.13469E+06        -0.36424E+08         0.00000E+00
    0.00000E+00         0.00000E+00        -0.16912E+08
 
   -0.16701E+08         0.13041E+06         0.00000E+00
    0.13041E+06        -0.36779E+08         0.00000E+00
    0.00000E+00         0.00000E+00        -0.17071E+08
 
   -0.16867E+08         0.13038E+06         0.00000E+00
    0.13038E+06        -0.37136E+08         0.00000E+00
    0.00000E+00         0.00000E+00        -0.17228E+08
 
   -0.17034E+08         0.13067E+06         0.00000E+00
    0.13067E+06        -0.37493E+08         0.00000E+00
    0.00000E+00         0.00000E+00        -0.17384E+08
 
   -0.17200E+08         0.13136E+06         0.00000E+00
    0.13136E+06        -0.37849E+08         0.00000E+00
    0.00000E+00         0.00000E+00        -0.17537E+08
 
   -0.17366E+08         0.13234E+06         0.00000E+00
    0.13234E+06        -0.38205E+08         0.00000E+00
    0.00000E+00         0.00000E+00        -0.17689E+08
 
   -0.17530E+08         0.13351E+06         0.00000E+00
    0.13351E+06        -0.38560E+08         0.00000E+00
    0.00000E+00         0.00000E+00        -0.17838E+08
 
   -0.17693E+08         0.13480E+06         0.00000E+00
    0.13480E+06        -0.38916E+08         0.00000E+00
    0.00000E+00         0.00000E+00        -0.17986E+08
 
   -0.17853E+08         0.13617E+06         0.00000E+00
    0.13617E+06        -0.39270E+08         0.00000E+00
    0.00000E+00         0.00000E+00        -0.18131E+08
 
   -0.18012E+08         0.13763E+06         0.00000E+00
    0.13763E+06        -0.39625E+08         0.00000E+00
    0.00000E+00         0.00000E+00        -0.18274E+08
 
   -0.18169E+08         0.13916E+06         0.00000E+00
    0.13916E+06        -0.39979E+08         0.00000E+00
    0.00000E+00         0.00000E+00        -0.18416E+08
 
   -0.18325E+08         0.14098E+06         0.00000E+00
    0.14098E+06        -0.40333E+08         0.00000E+00
    0.00000E+00         0.00000E+00        -0.18555E+08
 
   -0.18480E+08         0.14174E+06         0.00000E+00
    0.14174E+06        -0.40686E+08         0.00000E+00
    0.00000E+00         0.00000E+00        -0.18692E+08
 
   -0.18636E+08         0.13881E+06         0.00000E+00
    0.13881E+06        -0.41042E+08         0.00000E+00
    0.00000E+00         0.00000E+00        -0.18834E+08
 
   -0.18794E+08         0.13236E+06         0.00000E+00
    0.13236E+06        -0.41394E+08         0.00000E+00
    0.00000E+00         0.00000E+00        -0.18990E+08
 
   -0.18956E+08         0.12991E+06         0.00000E+00
    0.12991E+06        -0.41746E+08         0.00000E+00
    0.00000E+00         0.00000E+00        -0.19151E+08
 
   -0.19120E+08         0.12911E+06         0.00000E+00
    0.12911E+06        -0.42098E+08         0.00000E+00
    0.00000E+00         0.00000E+00        -0.19310E+08
 
   -0.19286E+08         0.12877E+06         0.00000E+00
    0.12877E+06        -0.42449E+08         0.00000E+00
    0.00000E+00         0.00000E+00        -0.19469E+08
 
   -0.19451E+08         0.12880E+06         0.00000E+00
    0.12880E+06        -0.42801E+08         0.00000E+00
    0.00000E+00         0.00000E+00        -0.19626E+08
 
   -0.19617E+08         0.12909E+06         0.00000E+00
    0.12909E+06        -0.43152E+08         0.00000E+00
    0.00000E+00         0.00000E+00        -0.19783E+08
 
   -0.19783E+08         0.12955E+06         0.00000E+00
    0.12955E+06        -0.43502E+08         0.00000E+00
    0.00000E+00         0.00000E+00        -0.19939E+08
 
   -0.19948E+08         0.13012E+06         0.00000E+00
    0.13012E+06        -0.43852E+08         0.00000E+00
    0.00000E+00         0.00000E+00        -0.20093E+08
 
   -0.20115E+08         0.12938E+06         0.00000E+00
    0.12938E+06        -0.44203E+08         0.00000E+00
    0.00000E+00         0.00000E+00        -0.20247E+08
 
   -0.20282E+08         0.12573E+06         0.00000E+00
    0.12573E+06        -0.44554E+08         0.00000E+00
    0.00000E+00         0.00000E+00        -0.20407E+08
 
   -0.20452E+08         0.12260E+06         0.00000E+00
    0.12260E+06        -0.44902E+08         0.00000E+00
    0.00000E+00         0.00000E+00        -0.20576E+08
 
   -0.20624E+08         0.12159E+06         0.00000E+00
    0.12159E+06        -0.45251E+08         0.00000E+00
    0.00000E+00         0.00000E+00        -0.20744E+08
 
   -0.20798E+08         0.12115E+06         0.00000E+00
    0.12115E+06        -0.45600E+08         0.00000E+00
    0.00000E+00         0.00000E+00        -0.20912E+08
 
   -0.20972E+08         0.12100E+06         0.00000E+00
    0.12100E+06        -0.45948E+08         0.00000E+00
    0.00000E+00         0.00000E+00        -0.21079E+08
 
   -0.21146E+08         0.12094E+06         0.00000E+00
    0.12094E+06        -0.46296E+08         0.00000E+00
    0.00000E+00         0.00000E+00        -0.21246E+08
 
   -0.21321E+08         0.12090E+06         0.00000E+00
    0.12090E+06        -0.46644E+08         0.00000E+00
    0.00000E+00         0.00000E+00        -0.21412E+08
 
   -0.21495E+08         0.12080E+06         0.00000E+00
    0.12080E+06        -0.46991E+08         0.00000E+00
    0.00000E+00         0.00000E+00        -0.21578E+08
 
   -0.21671E+08         0.11994E+06         0.00000E+00
    0.11994E+06        -0.47339E+08         0.00000E+00
    0.00000E+00         0.00000E+00        -0.21743E+08
 
   -0.21848E+08         0.11750E+06         0.00000E+00
    0.11750E+06        -0.47686E+08         0.00000E+00
    0.00000E+00         0.00000E+00        -0.21911E+08
 
   -0.22026E+08         0.11575E+06         0.00000E+00
    0.11575E+06        -0.48032E+08         0.00000E+00
    0.00000E+00         0.00000E+00        -0.22084E+08
 
   -0.22206E+08         0.11506E+06         0.00000E+00
    0.11506E+06        -0.48378E+08         0.00000E+00
    0.00000E+00         0.00000E+00        -0.22256E+08
 
   -0.22387E+08         0.11463E+06         0.00000E+00
    0.11463E+06        -0.48724E+08         0.00000E+00
    0.00000E+00         0.00000E+00        -0.22428E+08
 
   -0.22568E+08         0.11423E+06         0.00000E+00
    0.11423E+06        -0.49070E+08         0.00000E+00
    0.00000E+00         0.00000E+00        -0.22600E+08
 
   -0.22750E+08         0.11385E+06         0.00000E+00
    0.11385E+06        -0.49416E+08         0.00000E+00
    0.00000E+00         0.00000E+00        -0.22771E+08
 
   -0.22932E+08         0.11343E+06         0.00000E+00
    0.11343E+06        -0.49761E+08         0.00000E+00
    0.00000E+00         0.00000E+00        -0.22942E+08
 
   -0.23114E+08         0.11299E+06         0.00000E+00
    0.11299E+06        -0.50106E+08         0.00000E+00
    0.00000E+00         0.00000E+00        -0.23112E+08
 
   -0.23297E+08         0.11251E+06         0.00000E+00
    0.11251E+06        -0.50451E+08         0.00000E+00
    0.00000E+00         0.00000E+00        -0.23282E+08
 
   -0.23481E+08         0.11200E+06         0.00000E+00
    0.11200E+06        -0.50795E+08         0.00000E+00
    0.00000E+00         0.00000E+00        -0.23452E+08
 
   -0.23665E+08         0.11145E+06         0.00000E+00
    0.11145E+06        -0.51140E+08         0.00000E+00
    0.00000E+00         0.00000E+00        -0.23621E+08
 
   -0.23851E+08         0.11086E+06         0.00000E+00
    0.11086E+06        -0.51483E+08         0.00000E+00
    0.00000E+00         0.00000E+00        -0.23791E+08
 
   -0.24040E+08         0.11022E+06         0.00000E+00
    0.11022E+06        -0.51823E+08         0.00000E+00
    0.00000E+00         0.00000E+00        -0.23962E+08
 
   -0.24229E+08         0.10955E+06         0.00000E+00
    0.10955E+06        -0.52163E+08         0.00000E+00
    0.00000E+00         0.00000E+00        -0.24133E+08
 
   -0.24419E+08         0.10885E+06         0.00000E+00
    0.10885E+06        -0.52503E+08         0.00000E+00
    0.00000E+00         0.00000E+00        -0.24303E+08
 
   -0.24609E+08         0.10812E+06         0.00000E+00
    0.10812E+06        -0.52844E+08         0.00000E+00
    0.00000E+00         0.00000E+00        -0.24473E+08
 
   -0.24801E+08         0.10737E+06         0.00000E+00
    0.10737E+06        -0.53184E+08         0.00000E+00
    0.00000E+00         0.00000E+00        -0.24642E+08
 
   -0.24993E+08         0.10658E+06         0.00000E+00
    0.10658E+06        -0.53524E+08         0.00000E+00
    0.00000E+00         0.00000E+00        -0.24810E+08
 
   -0.25185E+08         0.10576E+06         0.00000E+00
    0.10576E+06        -0.53864E+08         0.00000E+00
    0.00000E+00         0.00000E+00        -0.24978E+08
 
   -0.25379E+08         0.10489E+06         0.00000E+00
    0.10489E+06        -0.54204E+08         0.00000E+00
    0.00000E+00         0.00000E+00        -0.25144E+08
 
   -0.25574E+08         0.10397E+06         0.00000E+00
    0.10397E+06        -0.54544E+08         0.00000E+00
    0.00000E+00         0.00000E+00        -0.25310E+08
 
   -0.25770E+08         0.10298E+06         0.00000E+00
    0.10298E+06        -0.54884E+08         0.00000E+00
    0.00000E+00         0.00000E+00        -0.25474E+08
 
   -0.25966E+08         0.10189E+06         0.00000E+00
    0.10189E+06        -0.55224E+08         0.00000E+00
    0.00000E+00         0.00000E+00        -0.25638E+08
 
   -0.26165E+08         0.10067E+06         0.00000E+00
    0.10067E+06        -0.55564E+08         0.00000E+00
    0.00000E+00         0.00000E+00        -0.25800E+08
 
   -0.26365E+08         0.99258E+05         0.00000E+00
    0.99258E+05        -0.55904E+08         0.00000E+00
    0.00000E+00         0.00000E+00        -0.25961E+08
 
   -0.26566E+08         0.97599E+05         0.00000E+00
    0.97599E+05        -0.56245E+08         0.00000E+00
    0.00000E+00         0.00000E+00        -0.26120E+08
 
   -0.26771E+08         0.95602E+05         0.00000E+00
    0.95602E+05        -0.56585E+08         0.00000E+00
    0.00000E+00         0.00000E+00        -0.26276E+08
 
   -0.26978E+08         0.93163E+05         0.00000E+00
    0.93163E+05        -0.56925E+08         0.00000E+00
    0.00000E+00         0.00000E+00        -0.26431E+08
 
   -0.27188E+08         0.90151E+05         0.00000E+00
    0.90151E+05        -0.57266E+08         0.00000E+00
    0.00000E+00         0.00000E+00        -0.26582E+08
 
   -0.27403E+08         0.86420E+05         0.00000E+00
    0.86420E+05        -0.57607E+08         0.00000E+00
    0.00000E+00         0.00000E+00        -0.26729E+08
 
   -0.27623E+08         0.81815E+05         0.00000E+00
    0.81815E+05        -0.57948E+08         0.00000E+00
    0.00000E+00         0.00000E+00        -0.26872E+08
 
   -0.27850E+08         0.76187E+05         0.00000E+00
    0.76187E+05        -0.58289E+08         0.00000E+00
    0.00000E+00         0.00000E+00        -0.27009E+08
 
   -0.28084E+08         0.69424E+05         0.00000E+00
    0.69424E+05        -0.58631E+08         0.00000E+00
    0.00000E+00         0.00000E+00        -0.27139E+08
 
   -0.28328E+08         0.61484E+05         0.00000E+00
    0.61484E+05        -0.58973E+08         0.00000E+00
    0.00000E+00         0.00000E+00        -0.27261E+08
 
   -0.28583E+08         0.52449E+05         0.00000E+00
    0.52449E+05        -0.59316E+08         0.00000E+00
    0.00000E+00         0.00000E+00        -0.27375E+08
 
   -0.28850E+08         0.42514E+05         0.00000E+00
    0.42514E+05        -0.59659E+08         0.00000E+00
    0.00000E+00         0.00000E+00        -0.27478E+08
 
   -0.29131E+08         0.32105E+05         0.00000E+00
    0.32105E+05        -0.60003E+08         0.00000E+00
    0.00000E+00         0.00000E+00        -0.27570E+08
 
   -0.29425E+08         0.21507E+05         0.00000E+00
    0.21507E+05        -0.60347E+08         0.00000E+00
    0.00000E+00         0.00000E+00        -0.27651E+08
 
   -0.29734E+08         0.11551E+05         0.00000E+00
    0.11551E+05        -0.60691E+08         0.00000E+00
    0.00000E+00         0.00000E+00        -0.27721E+08
 
   -0.30057E+08         0.17210E+04         0.00000E+00
    0.17210E+04        -0.61036E+08         0.00000E+00
    0.00000E+00         0.00000E+00        -0.27781E+08
 
   -0.30392E+08        -0.66059E+04         0.00000E+00
   -0.66059E+04        -0.61382E+08         0.00000E+00
    0.00000E+00         0.00000E+00        -0.27833E+08
 
   -0.30740E+08        -0.13551E+05         0.00000E+00
   -0.13551E+05        -0.61724E+08         0.00000E+00
    0.00000E+00         0.00000E+00        -0.27874E+08
 
   -0.31102E+08        -0.31706E+05         0.00000E+00
   -0.31706E+05        -0.62081E+08         0.00000E+00
    0.00000E+00         0.00000E+00        -0.27919E+08
 
   -0.31450E+08        -0.23274E+05         0.00000E+00
   -0.23274E+05        -0.62430E+08         0.00000E+00
    0.00000E+00         0.00000E+00        -0.27971E+08
 
   -0.10895E+08        -0.59931E+04         0.00000E+00
   -0.59931E+04        -0.27712E+08         0.00000E+00
    0.00000E+00         0.00000E+00        -0.15562E+08
 
   -0.11273E+08         0.22065E+05         0.00000E+00
    0.22065E+05        -0.28135E+08         0.00000E+00
    0.00000E+00         0.00000E+00        -0.15566E+08
 
   -0.11631E+08         0.39270E+05         0.00000E+00
    0.39270E+05        -0.28509E+08         0.00000E+00
    0.00000E+00         0.00000E+00        -0.15542E+08
 
   -0.11951E+08         0.36483E+05         0.00000E+00
    0.36483E+05        -0.28868E+08         0.00000E+00
    0.00000E+00         0.00000E+00        -0.15488E+08
 
   -0.12255E+08         0.37625E+05         0.00000E+00
    0.37625E+05        -0.29230E+08         0.00000E+00
    0.00000E+00         0.00000E+00        -0.15428E+08
 
   -0.12547E+08         0.39305E+05         0.00000E+00
    0.39305E+05        -0.29591E+08         0.00000E+00
    0.00000E+00         0.00000E+00        -0.15373E+08
 
   -0.12829E+08         0.40553E+05         0.00000E+00
    0.40553E+05        -0.29953E+08         0.00000E+00
    0.00000E+00         0.00000E+00        -0.15332E+08
 
   -0.13105E+08         0.41161E+05         0.00000E+00
    0.41161E+05        -0.30314E+08         0.00000E+00
    0.00000E+00         0.00000E+00        -0.15311E+08
 
   -0.13375E+08         0.41887E+05         0.00000E+00
    0.41887E+05        -0.30674E+08         0.00000E+00
    0.00000E+00         0.00000E+00        -0.15313E+08
 
   -0.13640E+08         0.43803E+05         0.00000E+00
    0.43803E+05        -0.31034E+08         0.00000E+00
    0.00000E+00         0.00000E+00        -0.15336E+08
 
   -0.13899E+08         0.47491E+05         0.00000E+00
    0.47491E+05        -0.31394E+08         0.00000E+00
    0.00000E+00         0.00000E+00        -0.15380E+08
 
   -0.14149E+08         0.52880E+05         0.00000E+00
    0.52880E+05        -0.31754E+08         0.00000E+00
    0.00000E+00         0.00000E+00        -0.15442E+08
 
   -0.14387E+08         0.59422E+05         0.00000E+00
    0.59422E+05        -0.32114E+08         0.00000E+00
    0.00000E+00         0.00000E+00        -0.15520E+08
 
   -0.14614E+08         0.66425E+05         0.00000E+00
    0.66425E+05        -0.32474E+08         0.00000E+00
    0.00000E+00         0.00000E+00        -0.15610E+08
 
   -0.14828E+08         0.73295E+05         0.00000E+00
    0.73295E+05        -0.32834E+08         0.00000E+00
    0.00000E+00         0.00000E+00        -0.15710E+08
 
   -0.15031E+08         0.79641E+05         0.00000E+00
    0.79641E+05        -0.33194E+08         0.00000E+00
    0.00000E+00         0.00000E+00        -0.15817E+08
 
   -0.15223E+08         0.85285E+05         0.00000E+00
    0.85285E+05        -0.33554E+08         0.00000E+00
    0.00000E+00         0.00000E+00        -0.15931E+08
 
   -0.15405E+08         0.90206E+05         0.00000E+00
    0.90206E+05        -0.33913E+08         0.00000E+00
    0.00000E+00         0.00000E+00        -0.16048E+08
 
   -0.15579E+08         0.94489E+05         0.00000E+00
    0.94489E+05        -0.34273E+08         0.00000E+00
    0.00000E+00         0.00000E+00        -0.16167E+08
 
   -0.15746E+08         0.98264E+05         0.00000E+00
    0.98264E+05        -0.34632E+08         0.00000E+00
    0.00000E+00         0.00000E+00        -0.16287E+08
 
   -0.15906E+08         0.10169E+06         0.00000E+00
    0.10169E+06        -0.34990E+08         0.00000E+00
    0.00000E+00         0.00000E+00        -0.16408E+08
 
   -0.16061E+08         0.10479E+06         0.00000E+00
    0.10479E+06        -0.35349E+08         0.00000E+00
    0.00000E+00         0.00000E+00        -0.16527E+08
 
   -0.16212E+08         0.10782E+06         0.00000E+00
    0.10782E+06        -0.35706E+08         0.00000E+00
    0.00000E+00         0.00000E+00        -0.16646E+08
 
   -0.16364E+08         0.10597E+06         0.00000E+00
    0.10597E+06        -0.36065E+08         0.00000E+00
    0.00000E+00         0.00000E+00        -0.16764E+08
 
   -0.16522E+08         0.94582E+05         0.00000E+00
    0.94582E+05        -0.36422E+08         0.00000E+00
    0.00000E+00         0.00000E+00        -0.16904E+08
 
   -0.16685E+08         0.92085E+05         0.00000E+00
    0.92085E+05        -0.36779E+08         0.00000E+00
    0.00000E+00         0.00000E+00        -0.17063E+08
 
   -0.16853E+08         0.92604E+05         0.00000E+00
    0.92604E+05        -0.37137E+08         0.00000E+00
    0.00000E+00         0.00000E+00        -0.17221E+08
 
   -0.17022E+08         0.92872E+05         0.00000E+00
    0.92872E+05        -0.37493E+08         0.00000E+00
    0.00000E+00         0.00000E+00        -0.17377E+08
 
   -0.17190E+08         0.93482E+05         0.00000E+00
    0.93482E+05        -0.37849E+08         0.00000E+00
    0.00000E+00         0.00000E+00        -0.17531E+08
 
   -0.17356E+08         0.94252E+05         0.00000E+00
    0.94252E+05        -0.38205E+08         0.00000E+00
    0.00000E+00         0.00000E+00        -0.17683E+08
 
   -0.17521E+08         0.95156E+05         0.00000E+00
    0.95156E+05        -0.38561E+08         0.00000E+00
    0.00000E+00         0.00000E+00        -0.17832E+08
 
   -0.17684E+08         0.96147E+05         0.00000E+00
    0.96147E+05        -0.38916E+08         0.00000E+00
    0.00000E+00         0.00000E+00        -0.17980E+08
 
   -0.17845E+08         0.97201E+05         0.00000E+00
    0.97201E+05        -0.39271E+08         0.00000E+00
    0.00000E+00         0.00000E+00        -0.18126E+08
 
   -0.18004E+08         0.98334E+05         0.00000E+00
    0.98334E+05        -0.39625E+08         0.00000E+00
    0.00000E+00         0.00000E+00        -0.18269E+08
 
   -0.18161E+08         0.99525E+05         0.00000E+00
    0.99525E+05        -0.39979E+08         0.00000E+00
    0.00000E+00         0.00000E+00        -0.18411E+08
 
   -0.18316E+08         0.10114E+06         0.00000E+00
    0.10114E+06        -0.40333E+08         0.00000E+00
    0.00000E+00         0.00000E+00        -0.18550E+08
 
   -0.18470E+08         0.10232E+06         0.00000E+00
    0.10232E+06        -0.40686E+08         0.00000E+00
    0.00000E+00         0.00000E+00        -0.18688E+08
 
   -0.18625E+08         0.99398E+05         0.00000E+00
    0.99398E+05        -0.41041E+08         0.00000E+00
    0.00000E+00         0.00000E+00        -0.18830E+08
 
   -0.18783E+08         0.93763E+05         0.00000E+00
    0.93763E+05        -0.41393E+08         0.00000E+00
    0.00000E+00         0.00000E+00        -0.18987E+08
 
   -0.18946E+08         0.92261E+05         0.00000E+00
    0.92261E+05        -0.41746E+08         0.00000E+00
    0.00000E+00         0.00000E+00        -0.19148E+08
 
   -0.19112E+08         0.91858E+05         0.00000E+00
    0.91858E+05        -0.42098E+08         0.00000E+00
    0.00000E+00         0.00000E+00        -0.19308E+08
 
   -0.19278E+08         0.91694E+05         0.00000E+00
    0.91694E+05        -0.42449E+08         0.00000E+00
    0.00000E+00         0.00000E+00        -0.19466E+08
 
   -0.19445E+08         0.91799E+05         0.00000E+00
    0.91799E+05        -0.42801E+08         0.00000E+00
    0.00000E+00         0.00000E+00        -0.19624E+08
 
   -0.19611E+08         0.92098E+05         0.00000E+00
    0.92098E+05        -0.43152E+08         0.00000E+00
    0.00000E+00         0.00000E+00        -0.19781E+08
 
   -0.19777E+08         0.92515E+05         0.00000E+00
    0.92515E+05        -0.43502E+08         0.00000E+00
    0.00000E+00         0.00000E+00        -0.19937E+08
 
   -0.19942E+08         0.93190E+05         0.00000E+00
    0.93190E+05        -0.43852E+08         0.00000E+00
    0.00000E+00         0.00000E+00        -0.20092E+08
 
   -0.20108E+08         0.93014E+05         0.00000E+00
    0.93014E+05        -0.44202E+08         0.00000E+00
    0.00000E+00         0.00000E+00        -0.20246E+08
 
   -0.20276E+08         0.89313E+05         0.00000E+00
    0.89313E+05        -0.44553E+08         0.00000E+00
    0.00000E+00         0.00000E+00        -0.20406E+08
 
   -0.20447E+08         0.87120E+05         0.00000E+00
    0.87120E+05        -0.44902E+08         0.00000E+00
    0.00000E+00         0.00000E+00        -0.20575E+08
 
   -0.20620E+08         0.86531E+05         0.00000E+00
    0.86531E+05        -0.45251E+08         0.00000E+00
    0.00000E+00         0.00000E+00        -0.20743E+08
 
   -0.20794E+08         0.86279E+05         0.00000E+00
    0.86279E+05        -0.45599E+08         0.00000E+00
    0.00000E+00         0.00000E+00        -0.20911E+08
 
   -0.20969E+08         0.86245E+05         0.00000E+00
    0.86245E+05        -0.45948E+08         0.00000E+00
    0.00000E+00         0.00000E+00        -0.21078E+08
 
   -0.21144E+08         0.86275E+05         0.00000E+00
    0.86275E+05        -0.46296E+08         0.00000E+00
    0.00000E+00         0.00000E+00        -0.21245E+08
 
   -0.21318E+08         0.86304E+05         0.00000E+00
    0.86304E+05        -0.46644E+08         0.00000E+00
    0.00000E+00         0.00000E+00        -0.21411E+08
 
   -0.21493E+08         0.86364E+05         0.00000E+00
    0.86364E+05        -0.46991E+08         0.00000E+00
    0.00000E+00         0.00000E+00        -0.21577E+08
 
   -0.21669E+08         0.85896E+05         0.00000E+00
    0.85896E+05        -0.47338E+08         0.00000E+00
    0.00000E+00         0.00000E+00        -0.21742E+08
 
   -0.21846E+08         0.83650E+05         0.00000E+00
    0.83650E+05        -0.47686E+08         0.00000E+00
    0.00000E+00         0.00000E+00        -0.21910E+08
 
   -0.22025E+08         0.82335E+05         0.00000E+00
    0.82335E+05        -0.48032E+08         0.00000E+00
    0.00000E+00         0.00000E+00        -0.22083E+08
 
   -0.22206E+08         0.81955E+05         0.00000E+00
    0.81955E+05        -0.48378E+08         0.00000E+00
    0.00000E+00         0.00000E+00        -0.22255E+08
 
   -0.22387E+08         0.81693E+05         0.00000E+00
    0.81693E+05        -0.48724E+08         0.00000E+00
    0.00000E+00         0.00000E+00        -0.22427E+08
 
   -0.22569E+08         0.81442E+05         0.00000E+00
    0.81442E+05        -0.49070E+08         0.00000E+00
    0.00000E+00         0.00000E+00        -0.22598E+08
 
   -0.22751E+08         0.81183E+05         0.00000E+00
    0.81183E+05        -0.49416E+08         0.00000E+00
    0.00000E+00         0.00000E+00        -0.22770E+08
 
   -0.22933E+08         0.80900E+05         0.00000E+00
    0.80900E+05        -0.49761E+08         0.00000E+00
    0.00000E+00         0.00000E+00        -0.22940E+08
 
   -0.23116E+08         0.80590E+05         0.00000E+00
    0.80590E+05        -0.50106E+08         0.00000E+00
    0.00000E+00         0.00000E+00        -0.23111E+08
 
   -0.23300E+08         0.80252E+05         0.00000E+00
    0.80252E+05        -0.50451E+08         0.00000E+00
    0.00000E+00         0.00000E+00        -0.23280E+08
 
   -0.23483E+08         0.79886E+05         0.00000E+00
    0.79886E+05        -0.50795E+08         0.00000E+00
    0.00000E+00         0.00000E+00        -0.23450E+08
 
   -0.23668E+08         0.79494E+05         0.00000E+00
    0.79494E+05        -0.51140E+08         0.00000E+00
    0.00000E+00         0.00000E+00        -0.23619E+08
 
   -0.23854E+08         0.79071E+05         0.00000E+00
    0.79071E+05        -0.51483E+08         0.00000E+00
    0.00000E+00         0.00000E+00        -0.23788E+08
 
   -0.24043E+08         0.78612E+05         0.00000E+00
    0.78612E+05        -0.51823E+08         0.00000E+00
    0.00000E+00         0.00000E+00        -0.23959E+08
 
   -0.24232E+08         0.78130E+05         0.00000E+00
    0.78130E+05        -0.52164E+08         0.00000E+00
    0.00000E+00         0.00000E+00        -0.24130E+08
 
   -0.24423E+08         0.77628E+05         0.00000E+00
    0.77628E+05        -0.52504E+08         0.00000E+00
    0.00000E+00         0.00000E+00        -0.24300E+08
 
   -0.24613E+08         0.77105E+05         0.00000E+00
    0.77105E+05        -0.52844E+08         0.00000E+00
    0.00000E+00         0.00000E+00        -0.24469E+08
 
   -0.24805E+08         0.76561E+05         0.00000E+00
    0.76561E+05        -0.53184E+08         0.00000E+00
    0.00000E+00         0.00000E+00        -0.24638E+08
 
   -0.24997E+08         0.75995E+05         0.00000E+00
    0.75995E+05        -0.53524E+08         0.00000E+00
    0.00000E+00         0.00000E+00        -0.24806E+08
 
   -0.25191E+08         0.75404E+05         0.00000E+00
    0.75404E+05        -0.53864E+08         0.00000E+00
    0.00000E+00         0.00000E+00        -0.24973E+08
 
   -0.25385E+08         0.74783E+05         0.00000E+00
    0.74783E+05        -0.54204E+08         0.00000E+00
    0.00000E+00         0.00000E+00        -0.25139E+08
 
   -0.25580E+08         0.74123E+05         0.00000E+00
    0.74123E+05        -0.54545E+08         0.00000E+00
    0.00000E+00         0.00000E+00        -0.25304E+08
 
   -0.25776E+08         0.73413E+05         0.00000E+00
    0.73413E+05        -0.54885E+08         0.00000E+00
    0.00000E+00         0.00000E+00        -0.25469E+08
 
   -0.25973E+08         0.72633E+05         0.00000E+00
    0.72633E+05        -0.55225E+08         0.00000E+00
    0.00000E+00         0.00000E+00        -0.25632E+08
 
   -0.26172E+08         0.71758E+05         0.00000E+00
    0.71758E+05        -0.55565E+08         0.00000E+00
    0.00000E+00         0.00000E+00        -0.25794E+08
 
   -0.26372E+08         0.70750E+05         0.00000E+00
    0.70750E+05        -0.55905E+08         0.00000E+00
    0.00000E+00         0.00000E+00        -0.25954E+08
 
   -0.26574E+08         0.69562E+05         0.00000E+00
    0.69562E+05        -0.56245E+08         0.00000E+00
    0.00000E+00         0.00000E+00        -0.26112E+08
 
   -0.26779E+08         0.68131E+05         0.00000E+00
    0.68131E+05        -0.56585E+08         0.00000E+00
    0.00000E+00         0.00000E+00        -0.26269E+08
 
   -0.26986E+08         0.66377E+05         0.00000E+00
    0.66377E+05        -0.56926E+08         0.00000E+00
    0.00000E+00         0.00000E+00        -0.26423E+08
 
   -0.27197E+08         0.64206E+05         0.00000E+00
    0.64206E+05        -0.57266E+08         0.00000E+00
    0.00000E+00         0.00000E+00        -0.26573E+08
 
   -0.27413E+08         0.61510E+05         0.00000E+00
    0.61510E+05        -0.57607E+08         0.00000E+00
    0.00000E+00         0.00000E+00        -0.26720E+08
 
   -0.27633E+08         0.58174E+05         0.00000E+00
    0.58174E+05        -0.57948E+08         0.00000E+00
    0.00000E+00         0.00000E+00        -0.26862E+08
 
   -0.27861E+08         0.54087E+05         0.00000E+00
    0.54087E+05        -0.58289E+08         0.00000E+00
    0.00000E+00         0.00000E+00        -0.26998E+08
 
   -0.28097E+08         0.49173E+05         0.00000E+00
    0.49173E+05        -0.58630E+08         0.00000E+00
    0.00000E+00         0.00000E+00        -0.27127E+08
 
   -0.28342E+08         0.43397E+05         0.00000E+00
    0.43397E+05        -0.58972E+08         0.00000E+00
    0.00000E+00         0.00000E+00        -0.27248E+08
 
   -0.28598E+08         0.36837E+05         0.00000E+00
    0.36837E+05        -0.59315E+08         0.00000E+00
    0.00000E+00         0.00000E+00        -0.27360E+08
 
   -0.28867E+08         0.29634E+05         0.00000E+00
    0.29634E+05        -0.59658E+08         0.00000E+00
    0.00000E+00         0.00000E+00        -0.27461E+08
 
   -0.29150E+08         0.22119E+05         0.00000E+00
    0.22119E+05        -0.60002E+08         0.00000E+00
    0.00000E+00         0.00000E+00        -0.27551E+08
 
   -0.29447E+08         0.14548E+05         0.00000E+00
    0.14548E+05        -0.60346E+08         0.00000E+00
    0.00000E+00         0.00000E+00        -0.27630E+08
 
   -0.29759E+08         0.72884E+04         0.00000E+00
    0.72884E+04        -0.60690E+08         0.00000E+00
    0.00000E+00         0.00000E+00        -0.27699E+08
 
   -0.30084E+08         0.83494E+03         0.00000E+00
    0.83494E+03        -0.61034E+08         0.00000E+00
    0.00000E+00         0.00000E+00        -0.27756E+08
 
   -0.30423E+08        -0.65139E+04         0.00000E+00
   -0.65139E+04        -0.61381E+08         0.00000E+00
    0.00000E+00         0.00000E+00        -0.27807E+08
 
   -0.30771E+08        -0.80547E+04         0.00000E+00
   -0.80547E+04        -0.61722E+08         0.00000E+00
    0.00000E+00         0.00000E+00        -0.27846E+08
 
   -0.31140E+08        -0.25301E+05         0.00000E+00
   -0.25301E+05        -0.62074E+08         0.00000E+00
    0.00000E+00         0.00000E+00        -0.27881E+08
 
   -0.31499E+08        -0.25457E+05         0.00000E+00
   -0.25457E+05        -0.62438E+08         0.00000E+00
    0.00000E+00         0.00000E+00        -0.27940E+08
 
   -0.10977E+08        -0.12518E+05         0.00000E+00
   -0.12518E+05        -0.27704E+08         0.00000E+00
    0.00000E+00         0.00000E+00        -0.15602E+08
 
   -0.11332E+08         0.26207E+05         0.00000E+00
    0.26207E+05        -0.28149E+08         0.00000E+00
    0.00000E+00         0.00000E+00        -0.15612E+08
 
   -0.11644E+08         0.30337E+05         0.00000E+00
    0.30337E+05        -0.28508E+08         0.00000E+00
    0.00000E+00         0.00000E+00        -0.15579E+08
 
   -0.11933E+08         0.23991E+05         0.00000E+00
    0.23991E+05        -0.28868E+08         0.00000E+00
    0.00000E+00         0.00000E+00        -0.15518E+08
 
   -0.12220E+08         0.24034E+05         0.00000E+00
    0.24034E+05        -0.29231E+08         0.00000E+00
    0.00000E+00         0.00000E+00        -0.15449E+08
 
   -0.12503E+08         0.23721E+05         0.00000E+00
    0.23721E+05        -0.29592E+08         0.00000E+00
    0.00000E+00         0.00000E+00        -0.15387E+08
 
   -0.12781E+08         0.23882E+05         0.00000E+00
    0.23882E+05        -0.29953E+08         0.00000E+00
    0.00000E+00         0.00000E+00        -0.15340E+08
 
   -0.13057E+08         0.23630E+05         0.00000E+00
    0.23630E+05        -0.30314E+08         0.00000E+00
    0.00000E+00         0.00000E+00        -0.15313E+08
 
   -0.13330E+08         0.23668E+05         0.00000E+00
    0.23668E+05        -0.30675E+08         0.00000E+00
    0.00000E+00         0.00000E+00        -0.15310E+08
 
   -0.13600E+08         0.24600E+05         0.00000E+00
    0.24600E+05        -0.31035E+08         0.00000E+00
    0.00000E+00         0.00000E+00        -0.15330E+08
 
   -0.13864E+08         0.26809E+05         0.00000E+00
    0.26809E+05        -0.31395E+08         0.00000E+00
    0.00000E+00         0.00000E+00        -0.15371E+08
 
   -0.14120E+08         0.30199E+05         0.00000E+00
    0.30199E+05        -0.31755E+08         0.00000E+00
    0.00000E+00         0.00000E+00        -0.15432E+08
 
   -0.14364E+08         0.34378E+05         0.00000E+00
    0.34378E+05        -0.32115E+08         0.00000E+00
    0.00000E+00         0.00000E+00        -0.15508E+08
 
   -0.14595E+08         0.38866E+05         0.00000E+00
    0.38866E+05        -0.32475E+08         0.00000E+00
    0.00000E+00         0.00000E+00        -0.15598E+08
 
   -0.14813E+08         0.43261E+05         0.00000E+00
    0.43261E+05        -0.32835E+08         0.00000E+00
    0.00000E+00         0.00000E+00        -0.15697E+08
 
   -0.15019E+08         0.47306E+05         0.00000E+00
    0.47306E+05        -0.33195E+08         0.00000E+00
    0.00000E+00         0.00000E+00        -0.15805E+08
 
   -0.15212E+08         0.50890E+05         0.00000E+00
    0.50890E+05        -0.33555E+08         0.00000E+00
    0.00000E+00         0.00000E+00        -0.15919E+08
 
   -0.15396E+08         0.54003E+05         0.00000E+00
    0.54003E+05        -0.33914E+08         0.00000E+00
    0.00000E+00         0.00000E+00        -0.16036E+08
 
   -0.15570E+08         0.56714E+05         0.00000E+00
    0.56714E+05        -0.34273E+08         0.00000E+00
    0.00000E+00         0.00000E+00        -0.16156E+08
 
   -0.15737E+08         0.59104E+05         0.00000E+00
    0.59104E+05        -0.34632E+08         0.00000E+00
    0.00000E+00         0.00000E+00        -0.16277E+08
 
   -0.15896E+08         0.61339E+05         0.00000E+00
    0.61339E+05        -0.34991E+08         0.00000E+00
    0.00000E+00         0.00000E+00        -0.16398E+08
 
   -0.16049E+08         0.63380E+05         0.00000E+00
    0.63380E+05        -0.35349E+08         0.00000E+00
    0.00000E+00         0.00000E+00        -0.16518E+08
 
   -0.16197E+08         0.65796E+05         0.00000E+00
    0.65796E+05        -0.35707E+08         0.00000E+00
    0.00000E+00         0.00000E+00        -0.16637E+08
 
   -0.16345E+08         0.65854E+05         0.00000E+00
    0.65854E+05        -0.36064E+08         0.00000E+00
    0.00000E+00         0.00000E+00        -0.16755E+08
 
   -0.16502E+08         0.54574E+05         0.00000E+00
    0.54574E+05        -0.36420E+08         0.00000E+00
    0.00000E+00         0.00000E+00        -0.16896E+08
 
   -0.16669E+08         0.54580E+05         0.00000E+00
    0.54580E+05        -0.36780E+08         0.00000E+00
    0.00000E+00         0.00000E+00        -0.17056E+08
 
   -0.16840E+08         0.55170E+05         0.00000E+00
    0.55170E+05        -0.37137E+08         0.00000E+00
    0.00000E+00         0.00000E+00        -0.17214E+08
 
   -0.17010E+08         0.55376E+05         0.00000E+00
    0.55376E+05        -0.37493E+08         0.00000E+00
    0.00000E+00         0.00000E+00        -0.17370E+08
 
   -0.17180E+08         0.55841E+05         0.00000E+00
    0.55841E+05        -0.37849E+08         0.00000E+00
    0.00000E+00         0.00000E+00        -0.17524E+08
 
   -0.17347E+08         0.56352E+05         0.00000E+00
    0.56352E+05        -0.38205E+08         0.00000E+00
    0.00000E+00         0.00000E+00        -0.17676E+08
 
   -0.17513E+08         0.56951E+05         0.00000E+00
    0.56951E+05        -0.38561E+08         0.00000E+00
    0.00000E+00         0.00000E+00        -0.17826E+08
 
   -0.17677E+08         0.57597E+05         0.00000E+00
    0.57597E+05        -0.38916E+08         0.00000E+00
    0.00000E+00         0.00000E+00        -0.17974E+08
 
   -0.17838E+08         0.58280E+05         0.00000E+00
    0.58280E+05        -0.39271E+08         0.00000E+00
    0.00000E+00         0.00000E+00        -0.18120E+08
 
   -0.17997E+08         0.59033E+05         0.00000E+00
    0.59033E+05        -0.39625E+08         0.00000E+00
    0.00000E+00         0.00000E+00        -0.18264E+08
 
   -0.18154E+08         0.59820E+05         0.00000E+00
    0.59820E+05        -0.39980E+08         0.00000E+00
    0.00000E+00         0.00000E+00        -0.18406E+08
 
   -0.18308E+08         0.60957E+05         0.00000E+00
    0.60957E+05        -0.40334E+08         0.00000E+00
    0.00000E+00         0.00000E+00        -0.18546E+08
 
   -0.18459E+08         0.62579E+05         0.00000E+00
    0.62579E+05        -0.40686E+08         0.00000E+00
    0.00000E+00         0.00000E+00        -0.18684E+08
 
   -0.18613E+08         0.59833E+05         0.00000E+00
    0.59833E+05        -0.41040E+08         0.00000E+00
    0.00000E+00         0.00000E+00        -0.18827E+08
 
   -0.18772E+08         0.55463E+05         0.00000E+00
    0.55463E+05        -0.41393E+08         0.00000E+00
    0.00000E+00         0.00000E+00        -0.18985E+08
 
   -0.18937E+08         0.54973E+05         0.00000E+00
    0.54973E+05        -0.41746E+08         0.00000E+00
    0.00000E+00         0.00000E+00        -0.19145E+08
 
   -0.19104E+08         0.54839E+05         0.00000E+00
    0.54839E+05        -0.42098E+08         0.00000E+00
    0.00000E+00         0.00000E+00        -0.19305E+08
 
   -0.19271E+08         0.54804E+05         0.00000E+00
    0.54804E+05        -0.42449E+08         0.00000E+00
    0.00000E+00         0.00000E+00        -0.19464E+08
 
   -0.19439E+08         0.54928E+05         0.00000E+00
    0.54928E+05        -0.42801E+08         0.00000E+00
    0.00000E+00         0.00000E+00        -0.19622E+08
 
   -0.19606E+08         0.55183E+05         0.00000E+00
    0.55183E+05        -0.43152E+08         0.00000E+00
    0.00000E+00         0.00000E+00        -0.19779E+08
 
   -0.19772E+08         0.55496E+05         0.00000E+00
    0.55496E+05        -0.43502E+08         0.00000E+00
    0.00000E+00         0.00000E+00        -0.19935E+08
 
   -0.19937E+08         0.56073E+05         0.00000E+00
    0.56073E+05        -0.43853E+08         0.00000E+00
    0.00000E+00         0.00000E+00        -0.20090E+08
 
   -0.20102E+08         0.56610E+05         0.00000E+00
    0.56610E+05        -0.44202E+08         0.00000E+00
    0.00000E+00         0.00000E+00        -0.20244E+08
 
   -0.20269E+08         0.52957E+05         0.00000E+00
    0.52957E+05        -0.44552E+08         0.00000E+00
    0.00000E+00         0.00000E+00        -0.20405E+08
 
   -0.20441E+08         0.51940E+05         0.00000E+00
    0.51940E+05        -0.44902E+08         0.00000E+00
    0.00000E+00         0.00000E+00        -0.20574E+08
 
   -0.20616E+08         0.51666E+05         0.00000E+00
    0.51666E+05        -0.45251E+08         0.00000E+00
    0.00000E+00         0.00000E+00        -0.20742E+08
 
   -0.20791E+08         0.51567E+05         0.00000E+00
    0.51567E+05        -0.45599E+08         0.00000E+00
    0.00000E+00         0.00000E+00        -0.20910E+08
 
   -0.20966E+08         0.51611E+05         0.00000E+00
    0.51611E+05        -0.45948E+08         0.00000E+00
    0.00000E+00         0.00000E+00        -0.21077E+08
 
   -0.21142E+08         0.51681E+05         0.00000E+00
    0.51681E+05        -0.46296E+08         0.00000E+00
    0.00000E+00         0.00000E+00        -0.21244E+08
 
   -0.21317E+08         0.51746E+05         0.00000E+00
    0.51746E+05        -0.46644E+08         0.00000E+00
    0.00000E+00         0.00000E+00        -0.21410E+08
 
   -0.21491E+08         0.51860E+05         0.00000E+00
    0.51860E+05        -0.46991E+08         0.00000E+00
    0.00000E+00         0.00000E+00        -0.21576E+08
 
   -0.21667E+08         0.51853E+05         0.00000E+00
    0.51853E+05        -0.47338E+08         0.00000E+00
    0.00000E+00         0.00000E+00        -0.21742E+08
 
   -0.21844E+08         0.49878E+05         0.00000E+00
    0.49878E+05        -0.47685E+08         0.00000E+00
    0.00000E+00         0.00000E+00        -0.21909E+08
 
   -0.22024E+08         0.49104E+05         0.00000E+00
    0.49104E+05        -0.48032E+08         0.00000E+00
    0.00000E+00         0.00000E+00        -0.22082E+08
 
   -0.22205E+08         0.49003E+05         0.00000E+00
    0.49003E+05        -0.48378E+08         0.00000E+00
    0.00000E+00         0.00000E+00        -0.22254E+08
 
   -0.22387E+08         0.48873E+05         0.00000E+00
    0.48873E+05        -0.48724E+08         0.00000E+00
    0.00000E+00         0.00000E+00        -0.22426E+08
 
   -0.22569E+08         0.48745E+05         0.00000E+00
    0.48745E+05        -0.49070E+08         0.00000E+00
    0.00000E+00         0.00000E+00        -0.22597E+08
 
   -0.22752E+08         0.48604E+05         0.00000E+00
    0.48604E+05        -0.49415E+08         0.00000E+00
    0.00000E+00         0.00000E+00        -0.22768E+08
 
   -0.22935E+08         0.48443E+05         0.00000E+00
    0.48443E+05        -0.49761E+08         0.00000E+00
    0.00000E+00         0.00000E+00        -0.22939E+08
 
   -0.23118E+08         0.48262E+05         0.00000E+00
    0.48262E+05        -0.50106E+08         0.00000E+00
    0.00000E+00         0.00000E+00        -0.23109E+08
 
   -0.23302E+08         0.48061E+05         0.00000E+00
    0.48061E+05        -0.50451E+08         0.00000E+00
    0.00000E+00         0.00000E+00        -0.23279E+08
 
   -0.23486E+08         0.47842E+05         0.00000E+00
    0.47842E+05        -0.50795E+08         0.00000E+00
    0.00000E+00         0.00000E+00        -0.23448E+08
 
   -0.23671E+08         0.47606E+05         0.00000E+00
    0.47606E+05        -0.51140E+08         0.00000E+00
    0.00000E+00         0.00000E+00        -0.23616E+08
 
   -0.23857E+08         0.47351E+05         0.00000E+00
    0.47351E+05        -0.51483E+08         0.00000E+00
    0.00000E+00         0.00000E+00        -0.23786E+08
 
   -0.24046E+08         0.47073E+05         0.00000E+00
    0.47073E+05        -0.51824E+08         0.00000E+00
    0.00000E+00         0.00000E+00        -0.23956E+08
 
   -0.24236E+08         0.46781E+05         0.00000E+00
    0.46781E+05        -0.52164E+08         0.00000E+00
    0.00000E+00         0.00000E+00        -0.24127E+08
 
   -0.24426E+08         0.46476E+05         0.00000E+00
    0.46476E+05        -0.52504E+08         0.00000E+00
    0.00000E+00         0.00000E+00        -0.24296E+08
 
   -0.24618E+08         0.46158E+05         0.00000E+00
    0.46158E+05        -0.52845E+08         0.00000E+00
    0.00000E+00         0.00000E+00        -0.24466E+08
 
   -0.24809E+08         0.45828E+05         0.00000E+00
    0.45828E+05        -0.53185E+08         0.00000E+00
    0.00000E+00         0.00000E+00        -0.24634E+08
 
   -0.25002E+08         0.45484E+05         0.00000E+00
    0.45484E+05        -0.53525E+08         0.00000E+00
    0.00000E+00         0.00000E+00        -0.24801E+08
 
   -0.25196E+08         0.45126E+05         0.00000E+00
    0.45126E+05        -0.53865E+08         0.00000E+00
    0.00000E+00         0.00000E+00        -0.24968E+08
 
   -0.25390E+08         0.44750E+05         0.00000E+00
    0.44750E+05        -0.54205E+08         0.00000E+00
    0.00000E+00         0.00000E+00        -0.25134E+08
 
   -0.25586E+08         0.44352E+05         0.00000E+00
    0.44352E+05        -0.54545E+08         0.00000E+00
    0.00000E+00         0.00000E+00        -0.25299E+08
 
   -0.25782E+08         0.43924E+05         0.00000E+00
    0.43924E+05        -0.54885E+08         0.00000E+00
    0.00000E+00         0.00000E+00        -0.25463E+08
 
   -0.25980E+08         0.43455E+05         0.00000E+00
    0.43455E+05        -0.55225E+08         0.00000E+00
    0.00000E+00         0.00000E+00        -0.25626E+08
 
   -0.26179E+08         0.42929E+05         0.00000E+00
    0.42929E+05        -0.55566E+08         0.00000E+00
    0.00000E+00         0.00000E+00        -0.25787E+08
 
   -0.26380E+08         0.42323E+05         0.00000E+00
    0.42323E+05        -0.55906E+08         0.00000E+00
    0.00000E+00         0.00000E+00        -0.25947E+08
 
   -0.26582E+08         0.41608E+05         0.00000E+00
    0.41608E+05        -0.56246E+08         0.00000E+00
    0.00000E+00         0.00000E+00        -0.26105E+08
 
   -0.26787E+08         0.40744E+05         0.00000E+00
    0.40744E+05        -0.56586E+08         0.00000E+00
    0.00000E+00         0.00000E+00        -0.26261E+08
 
   -0.26995E+08         0.39682E+05         0.00000E+00
    0.39682E+05        -0.56926E+08         0.00000E+00
    0.00000E+00         0.00000E+00        -0.26414E+08
 
   -0.27207E+08         0.38363E+05         0.00000E+00
    0.38363E+05        -0.57267E+08         0.00000E+00
    0.00000E+00         0.00000E+00        -0.26565E+08
 
   -0.27423E+08         0.36719E+05         0.00000E+00
    0.36719E+05        -0.57607E+08         0.00000E+00
    0.00000E+00         0.00000E+00        -0.26711E+08
 
   -0.27644E+08         0.34678E+05         0.00000E+00
    0.34678E+05        -0.57948E+08         0.00000E+00
    0.00000E+00         0.00000E+00        -0.26852E+08
 
   -0.27873E+08         0.32174E+05         0.00000E+00
    0.32174E+05        -0.58289E+08         0.00000E+00
    0.00000E+00         0.00000E+00        -0.26987E+08
 
   -0.28109E+08         0.29151E+05         0.00000E+00
    0.29151E+05        -0.58631E+08         0.00000E+00
    0.00000E+00         0.00000E+00        -0.27115E+08
 
   -0.28356E+08         0.25612E+05         0.00000E+00
    0.25612E+05        -0.58972E+08         0.00000E+00
    0.00000E+00         0.00000E+00        -0.27235E+08
 
   -0.28614E+08         0.21563E+05         0.00000E+00
    0.21563E+05        -0.59315E+08         0.00000E+00
    0.00000E+00         0.00000E+00        -0.27345E+08
 
   -0.28885E+08         0.17211E+05         0.00000E+00
    0.17211E+05        -0.59658E+08         0.00000E+00
    0.00000E+00         0.00000E+00        -0.27445E+08
 
   -0.29170E+08         0.12523E+05         0.00000E+00
    0.12523E+05        -0.60002E+08         0.00000E+00
    0.00000E+00         0.00000E+00        -0.27533E+08
 
   -0.29469E+08         0.82076E+04         0.00000E+00
    0.82076E+04        -0.60345E+08         0.00000E+00
    0.00000E+00         0.00000E+00        -0.27610E+08
 
   -0.29784E+08         0.33448E+04         0.00000E+00
    0.33448E+04        -0.60690E+08         0.00000E+00
    0.00000E+00         0.00000E+00        -0.27676E+08
 
   -0.30111E+08         0.54162E+03         0.00000E+00
    0.54162E+03        -0.61034E+08         0.00000E+00
    0.00000E+00         0.00000E+00        -0.27732E+08
 
   -0.30454E+08        -0.55596E+04         0.00000E+00
   -0.55596E+04        -0.61379E+08         0.00000E+00
    0.00000E+00         0.00000E+00        -0.27779E+08
 
   -0.30804E+08        -0.41947E+04         0.00000E+00
   -0.41947E+04        -0.61724E+08         0.00000E+00
    0.00000E+00         0.00000E+00        -0.27821E+08
 
   -0.31174E+08        -0.13535E+05         0.00000E+00
   -0.13535E+05        -0.62063E+08         0.00000E+00
    0.00000E+00         0.00000E+00        -0.27843E+08
 
   -0.31551E+08        -0.29218E+05         0.00000E+00
   -0.29218E+05        -0.62447E+08         0.00000E+00
    0.00000E+00         0.00000E+00        -0.27906E+08
 
   -0.11112E+08        -0.28525E+05         0.00000E+00
   -0.28525E+05        -0.27692E+08         0.00000E+00
    0.00000E+00         0.00000E+00        -0.15646E+08
 
   -0.11411E+08         0.25455E+05         0.00000E+00
    0.25455E+05        -0.28169E+08         0.00000E+00
    0.00000E+00         0.00000E+00        -0.15657E+08
 
   -0.11650E+08         0.82709E+04         0.00000E+00
    0.82709E+04        -0.28500E+08         0.00000E+00
    0.00000E+00         0.00000E+00        -0.15613E+08
 
   -0.11910E+08         0.89413E+04         0.00000E+00
    0.89413E+04        -0.28872E+08         0.00000E+00
    0.00000E+00         0.00000E+00        -0.15545E+08
 
   -0.12180E+08         0.71924E+04         0.00000E+00
    0.71924E+04        -0.29230E+08         0.00000E+00
    0.00000E+00         0.00000E+00        -0.15468E+08
 
   -0.12453E+08         0.71090E+04         0.00000E+00
    0.71090E+04        -0.29592E+08         0.00000E+00
    0.00000E+00         0.00000E+00        -0.15398E+08
 
   -0.12728E+08         0.68050E+04         0.00000E+00
    0.68050E+04        -0.29953E+08         0.00000E+00
    0.00000E+00         0.00000E+00        -0.15344E+08
 
   -0.13004E+08         0.65076E+04         0.00000E+00
    0.65076E+04        -0.30314E+08         0.00000E+00
    0.00000E+00         0.00000E+00        -0.15312E+08
 
   -0.13280E+08         0.63263E+04         0.00000E+00
    0.63263E+04        -0.30675E+08         0.00000E+00
    0.00000E+00         0.00000E+00        -0.15305E+08
 
   -0.13556E+08         0.65851E+04         0.00000E+00
    0.65851E+04        -0.31035E+08         0.00000E+00
    0.00000E+00         0.00000E+00        -0.15321E+08
 
   -0.13827E+08         0.74099E+04         0.00000E+00
    0.74099E+04        -0.31396E+08         0.00000E+00
    0.00000E+00         0.00000E+00        -0.15360E+08
 
   -0.14090E+08         0.87433E+04         0.00000E+00
    0.87433E+04        -0.31756E+08         0.00000E+00
    0.00000E+00         0.00000E+00        -0.15419E+08
 
   -0.14340E+08         0.10398E+05         0.00000E+00
    0.10398E+05        -0.32116E+08         0.00000E+00
    0.00000E+00         0.00000E+00        -0.15495E+08
 
   -0.14576E+08         0.12165E+05         0.00000E+00
    0.12165E+05        -0.32476E+08         0.00000E+00
    0.00000E+00         0.00000E+00        -0.15584E+08
 
   -0.14798E+08         0.13875E+05         0.00000E+00
    0.13875E+05        -0.32836E+08         0.00000E+00
    0.00000E+00         0.00000E+00        -0.15684E+08
 
   -0.15006E+08         0.15429E+05         0.00000E+00
    0.15429E+05        -0.33196E+08         0.00000E+00
    0.00000E+00         0.00000E+00        -0.15792E+08
 
   -0.15202E+08         0.16788E+05         0.00000E+00
    0.16788E+05        -0.33555E+08         0.00000E+00
    0.00000E+00         0.00000E+00        -0.15906E+08
 
   -0.15387E+08         0.17957E+05         0.00000E+00
    0.17957E+05        -0.33914E+08         0.00000E+00
    0.00000E+00         0.00000E+00        -0.16024E+08
 
   -0.15561E+08         0.18967E+05         0.00000E+00
    0.18967E+05        -0.34274E+08         0.00000E+00
    0.00000E+00         0.00000E+00        -0.16144E+08
 
   -0.15728E+08         0.19877E+05         0.00000E+00
    0.19877E+05        -0.34632E+08         0.00000E+00
    0.00000E+00         0.00000E+00        -0.16266E+08
 
   -0.15887E+08         0.20705E+05         0.00000E+00
    0.20705E+05        -0.34991E+08         0.00000E+00
    0.00000E+00         0.00000E+00        -0.16388E+08
 
   -0.16038E+08         0.21700E+05         0.00000E+00
    0.21700E+05        -0.35349E+08         0.00000E+00
    0.00000E+00         0.00000E+00        -0.16509E+08
 
   -0.16183E+08         0.22424E+05         0.00000E+00
    0.22424E+05        -0.35708E+08         0.00000E+00
    0.00000E+00         0.00000E+00        -0.16628E+08
 
   -0.16323E+08         0.25339E+05         0.00000E+00
    0.25339E+05        -0.36062E+08         0.00000E+00
    0.00000E+00         0.00000E+00        -0.16747E+08
 
   -0.16480E+08         0.14847E+05         0.00000E+00
    0.14847E+05        -0.36419E+08         0.00000E+00
    0.00000E+00         0.00000E+00        -0.16888E+08
 
   -0.16654E+08         0.18254E+05         0.00000E+00
    0.18254E+05        -0.36781E+08         0.00000E+00
    0.00000E+00         0.00000E+00        -0.17048E+08
 
   -0.16827E+08         0.17924E+05         0.00000E+00
    0.17924E+05        -0.37136E+08         0.00000E+00
    0.00000E+00         0.00000E+00        -0.17206E+08
 
   -0.16999E+08         0.18260E+05         0.00000E+00
    0.18260E+05        -0.37493E+08         0.00000E+00
    0.00000E+00         0.00000E+00        -0.17363E+08
 
   -0.17170E+08         0.18422E+05         0.00000E+00
    0.18422E+05        -0.37849E+08         0.00000E+00
    0.00000E+00         0.00000E+00        -0.17518E+08
 
   -0.17339E+08         0.18651E+05         0.00000E+00
    0.18651E+05        -0.38205E+08         0.00000E+00
    0.00000E+00         0.00000E+00        -0.17670E+08
 
   -0.17505E+08         0.18890E+05         0.00000E+00
    0.18890E+05        -0.38561E+08         0.00000E+00
    0.00000E+00         0.00000E+00        -0.17821E+08
 
   -0.17669E+08         0.19145E+05         0.00000E+00
    0.19145E+05        -0.38916E+08         0.00000E+00
    0.00000E+00         0.00000E+00        -0.17969E+08
 
   -0.17831E+08         0.19420E+05         0.00000E+00
    0.19420E+05        -0.39271E+08         0.00000E+00
    0.00000E+00         0.00000E+00        -0.18115E+08
 
   -0.17990E+08         0.19700E+05         0.00000E+00
    0.19700E+05        -0.39626E+08         0.00000E+00
    0.00000E+00         0.00000E+00        -0.18259E+08
 
   -0.18147E+08         0.20102E+05         0.00000E+00
    0.20102E+05        -0.39980E+08         0.00000E+00
    0.00000E+00         0.00000E+00        -0.18401E+08
 
   -0.18300E+08         0.20337E+05         0.00000E+00
    0.20337E+05        -0.40334E+08         0.00000E+00
    0.00000E+00         0.00000E+00        -0.18542E+08
 
   -0.18449E+08         0.22331E+05         0.00000E+00
    0.22331E+05        -0.40686E+08         0.00000E+00
    0.00000E+00         0.00000E+00        -0.18680E+08
 
   -0.18599E+08         0.20065E+05         0.00000E+00
    0.20065E+05        -0.41039E+08         0.00000E+00
    0.00000E+00         0.00000E+00        -0.18824E+08
 
   -0.18760E+08         0.17635E+05         0.00000E+00
    0.17635E+05        -0.41393E+08         0.00000E+00
    0.00000E+00         0.00000E+00        -0.18982E+08
 
   -0.18927E+08         0.18092E+05         0.00000E+00
    0.18092E+05        -0.41746E+08         0.00000E+00
    0.00000E+00         0.00000E+00        -0.19143E+08
 
   -0.19096E+08         0.18046E+05         0.00000E+00
    0.18046E+05        -0.42098E+08         0.00000E+00
    0.00000E+00         0.00000E+00        -0.19303E+08
 
   -0.19265E+08         0.18111E+05         0.00000E+00
    0.18111E+05        -0.42449E+08         0.00000E+00
    0.00000E+00         0.00000E+00        -0.19462E+08
 
   -0.19433E+08         0.18198E+05         0.00000E+00
    0.18198E+05        -0.42801E+08         0.00000E+00
    0.00000E+00         0.00000E+00        -0.19620E+08
 
   -0.19600E+08         0.18328E+05         0.00000E+00
    0.18328E+05        -0.43152E+08         0.00000E+00
    0.00000E+00         0.00000E+00        -0.19777E+08
 
   -0.19767E+08         0.18545E+05         0.00000E+00
    0.18545E+05        -0.43502E+08         0.00000E+00
    0.00000E+00         0.00000E+00        -0.19933E+08
 
   -0.19931E+08         0.18647E+05         0.00000E+00
    0.18647E+05        -0.43853E+08         0.00000E+00
    0.00000E+00         0.00000E+00        -0.20088E+08
 
   -0.20094E+08         0.20084E+05         0.00000E+00
    0.20084E+05        -0.44202E+08         0.00000E+00
    0.00000E+00         0.00000E+00        -0.20243E+08
 
   -0.20262E+08         0.16704E+05         0.00000E+00
    0.16704E+05        -0.44551E+08         0.00000E+00
    0.00000E+00         0.00000E+00        -0.20405E+08
 
   -0.20436E+08         0.17184E+05         0.00000E+00
    0.17184E+05        -0.44902E+08         0.00000E+00
    0.00000E+00         0.00000E+00        -0.20573E+08
 
   -0.20611E+08         0.16963E+05         0.00000E+00
    0.16963E+05        -0.45251E+08         0.00000E+00
    0.00000E+00         0.00000E+00        -0.20742E+08
 
   -0.20788E+08         0.17044E+05         0.00000E+00
    0.17044E+05        -0.45600E+08         0.00000E+00
    0.00000E+00         0.00000E+00        -0.20909E+08
 
   -0.20964E+08         0.17093E+05         0.00000E+00
    0.17093E+05        -0.45948E+08         0.00000E+00
    0.00000E+00         0.00000E+00        -0.21076E+08
 
   -0.21140E+08         0.17155E+05         0.00000E+00
    0.17155E+05        -0.46296E+08         0.00000E+00
    0.00000E+00         0.00000E+00        -0.21243E+08
 
   -0.21315E+08         0.17244E+05         0.00000E+00
    0.17244E+05        -0.46644E+08         0.00000E+00
    0.00000E+00         0.00000E+00        -0.21410E+08
 
   -0.21490E+08         0.17246E+05         0.00000E+00
    0.17246E+05        -0.46991E+08         0.00000E+00
    0.00000E+00         0.00000E+00        -0.21576E+08
 
   -0.21664E+08         0.17760E+05         0.00000E+00
    0.17760E+05        -0.47338E+08         0.00000E+00
    0.00000E+00         0.00000E+00        -0.21741E+08
 
   -0.21841E+08         0.16203E+05         0.00000E+00
    0.16203E+05        -0.47685E+08         0.00000E+00
    0.00000E+00         0.00000E+00        -0.21909E+08
 
   -0.22023E+08         0.16124E+05         0.00000E+00
    0.16124E+05        -0.48032E+08         0.00000E+00
    0.00000E+00         0.00000E+00        -0.22081E+08
 
   -0.22205E+08         0.16195E+05         0.00000E+00
    0.16195E+05        -0.48378E+08         0.00000E+00
    0.00000E+00         0.00000E+00        -0.22253E+08
 
   -0.22388E+08         0.16168E+05         0.00000E+00
    0.16168E+05        -0.48724E+08         0.00000E+00
    0.00000E+00         0.00000E+00        -0.22425E+08
 
   -0.22570E+08         0.16147E+05         0.00000E+00
    0.16147E+05        -0.49070E+08         0.00000E+00
    0.00000E+00         0.00000E+00        -0.22596E+08
 
   -0.22753E+08         0.16109E+05         0.00000E+00
    0.16109E+05        -0.49415E+08         0.00000E+00
    0.00000E+00         0.00000E+00        -0.22767E+08
 
   -0.22937E+08         0.16062E+05         0.00000E+00
    0.16062E+05        -0.49761E+08         0.00000E+00
    0.00000E+00         0.00000E+00        -0.22937E+08
 
   -0.23120E+08         0.16005E+05         0.00000E+00
    0.16005E+05        -0.50106E+08         0.00000E+00
    0.00000E+00         0.00000E+00        -0.23107E+08
 
   -0.23304E+08         0.15939E+05         0.00000E+00
    0.15939E+05        -0.50451E+08         0.00000E+00
    0.00000E+00         0.00000E+00        -0.23277E+08
 
   -0.23489E+08         0.15866E+05         0.00000E+00
    0.15866E+05        -0.50795E+08         0.00000E+00
    0.00000E+00         0.00000E+00        -0.23446E+08
 
   -0.23674E+08         0.15785E+05         0.00000E+00
    0.15785E+05        -0.51140E+08         0.00000E+00
    0.00000E+00         0.00000E+00        -0.23614E+08
 
   -0.23860E+08         0.15698E+05         0.00000E+00
    0.15698E+05        -0.51483E+08         0.00000E+00
    0.00000E+00         0.00000E+00        -0.23783E+08
 
   -0.24049E+08         0.15602E+05         0.00000E+00
    0.15602E+05        -0.51824E+08         0.00000E+00
    0.00000E+00         0.00000E+00        -0.23953E+08
 
   -0.24239E+08         0.15501E+05         0.00000E+00
    0.15501E+05        -0.52165E+08         0.00000E+00
    0.00000E+00         0.00000E+00        -0.24123E+08
 
   -0.24430E+08         0.15395E+05         0.00000E+00
    0.15395E+05        -0.52505E+08         0.00000E+00
    0.00000E+00         0.00000E+00        -0.24293E+08
 
   -0.24622E+08         0.15284E+05         0.00000E+00
    0.15284E+05        -0.52845E+08         0.00000E+00
    0.00000E+00         0.00000E+00        -0.24462E+08
 
   -0.24814E+08         0.15170E+05         0.00000E+00
    0.15170E+05        -0.53186E+08         0.00000E+00
    0.00000E+00         0.00000E+00        -0.24630E+08
 
   -0.25007E+08         0.15051E+05         0.00000E+00
    0.15051E+05        -0.53526E+08         0.00000E+00
    0.00000E+00         0.00000E+00        -0.24797E+08
 
   -0.25201E+08         0.14928E+05         0.00000E+00
    0.14928E+05        -0.53866E+08         0.00000E+00
    0.00000E+00         0.00000E+00        -0.24964E+08
 
   -0.25396E+08         0.14800E+05         0.00000E+00
    0.14800E+05        -0.54206E+08         0.00000E+00
    0.00000E+00         0.00000E+00        -0.25129E+08
 
   -0.25592E+08         0.14664E+05         0.00000E+00
    0.14664E+05        -0.54546E+08         0.00000E+00
    0.00000E+00         0.00000E+00        -0.25294E+08
 
   -0.25789E+08         0.14519E+05         0.00000E+00
    0.14519E+05        -0.54886E+08         0.00000E+00
    0.00000E+00         0.00000E+00        -0.25457E+08
 
   -0.25987E+08         0.14361E+05         0.00000E+00
    0.14361E+05        -0.55226E+08         0.00000E+00
    0.00000E+00         0.00000E+00        -0.25620E+08
 
   -0.26186E+08         0.14184E+05         0.00000E+00
    0.14184E+05        -0.55566E+08         0.00000E+00
    0.00000E+00         0.00000E+00        -0.25781E+08
 
   -0.26388E+08         0.13980E+05         0.00000E+00
    0.13980E+05        -0.55907E+08         0.00000E+00
    0.00000E+00         0.00000E+00        -0.25940E+08
 
   -0.26591E+08         0.13738E+05         0.00000E+00
    0.13738E+05        -0.56247E+08         0.00000E+00
    0.00000E+00         0.00000E+00        -0.26098E+08
 
   -0.26796E+08         0.13444E+05         0.00000E+00
    0.13444E+05        -0.56587E+08         0.00000E+00
    0.00000E+00         0.00000E+00        -0.26253E+08
 
   -0.27004E+08         0.13080E+05         0.00000E+00
    0.13080E+05        -0.56927E+08         0.00000E+00
    0.00000E+00         0.00000E+00        -0.26406E+08
 
   -0.27216E+08         0.12624E+05         0.00000E+00
    0.12624E+05        -0.57267E+08         0.00000E+00
    0.00000E+00         0.00000E+00        -0.26556E+08
 
   -0.27433E+08         0.12050E+05         0.00000E+00
    0.12050E+05        -0.57608E+08         0.00000E+00
    0.00000E+00         0.00000E+00        -0.26702E+08
 
   -0.27655E+08         0.11332E+05         0.00000E+00
    0.11332E+05        -0.57949E+08         0.00000E+00
    0.00000E+00         0.00000E+00        -0.26842E+08
 
   -0.27884E+08         0.10443E+05         0.00000E+00
    0.10443E+05        -0.58290E+08         0.00000E+00
    0.00000E+00         0.00000E+00        -0.26977E+08
 
   -0.28122E+08         0.93712E+04         0.00000E+00
    0.93712E+04        -0.58631E+08         0.00000E+00
    0.00000E+00         0.00000E+00        -0.27104E+08
 
   -0.28370E+08         0.81043E+04         0.00000E+00
    0.81043E+04        -0.58973E+08         0.00000E+00
    0.00000E+00         0.00000E+00        -0.27222E+08
 
   -0.28630E+08         0.66863E+04         0.00000E+00
    0.66863E+04        -0.59315E+08         0.00000E+00
    0.00000E+00         0.00000E+00        -0.27331E+08
 
   -0.28903E+08         0.51168E+04         0.00000E+00
    0.51168E+04        -0.59658E+08         0.00000E+00
    0.00000E+00         0.00000E+00        -0.27429E+08
 
   -0.29190E+08         0.35964E+04         0.00000E+00
    0.35964E+04        -0.60001E+08         0.00000E+00
    0.00000E+00         0.00000E+00        -0.27515E+08
 
   -0.29493E+08         0.19135E+04         0.00000E+00
    0.19135E+04        -0.60346E+08         0.00000E+00
    0.00000E+00         0.00000E+00        -0.27590E+08
 
   -0.29809E+08         0.86040E+03         0.00000E+00
    0.86040E+03        -0.60689E+08         0.00000E+00
    0.00000E+00         0.00000E+00        -0.27653E+08
 
   -0.30141E+08        -0.12700E+04         0.00000E+00
   -0.12700E+04        -0.61036E+08         0.00000E+00
    0.00000E+00         0.00000E+00        -0.27709E+08
 
   -0.30482E+08        -0.18831E+03         0.00000E+00
   -0.18831E+03        -0.61374E+08         0.00000E+00
    0.00000E+00         0.00000E+00        -0.27749E+08
 
   -0.30842E+08        -0.68938E+04         0.00000E+00
   -0.68938E+04        -0.61733E+08         0.00000E+00
    0.00000E+00         0.00000E+00        -0.27797E+08
 
   -0.31201E+08         0.82253E+04         0.00000E+00
    0.82253E+04        -0.62047E+08         0.00000E+00
    0.00000E+00         0.00000E+00        -0.27806E+08
 
   -0.31611E+08        -0.37203E+05         0.00000E+00
   -0.37203E+05        -0.62455E+08         0.00000E+00
    0.00000E+00         0.00000E+00        -0.27867E+08
 
TENSORS stresstot double 
   -0.84366E+08         0.24194E+06         0.00000E+00
    0.24194E+06        -0.96951E+08         0.00000E+00
    0.00000E+00         0.00000E+00        -0.84465E+08
 
   -0.84045E+08         0.63008E+06         0.00000E+00
    0.63008E+06        -0.96774E+08         0.00000E+00
    0.00000E+00         0.00000E+00        -0.84104E+08
 
   -0.83695E+08         0.89122E+06         0.00000E+00
    0.89122E+06        -0.96703E+08         0.00000E+00
    0.00000E+00         0.00000E+00        -0.83742E+08
 
   -0.83343E+08         0.10992E+07         0.00000E+00
    0.10992E+07        -0.96696E+08         0.00000E+00
    0.00000E+00         0.00000E+00        -0.83381E+08
 
   -0.82989E+08         0.12681E+07         0.00000E+00
    0.12681E+07        -0.96743E+08         0.00000E+00
    0.00000E+00         0.00000E+00        -0.83019E+08
 
   -0.82633E+08         0.14046E+07         0.00000E+00
    0.14046E+07        -0.96830E+08         0.00000E+00
    0.00000E+00         0.00000E+00        -0.82658E+08
 
   -0.82279E+08         0.15097E+07         0.00000E+00
    0.15097E+07        -0.96953E+08         0.00000E+00
    0.00000E+00         0.00000E+00        -0.82297E+08
 
   -0.81926E+08         0.15783E+07         0.00000E+00
    0.15783E+07        -0.97107E+08         0.00000E+00
    0.00000E+00         0.00000E+00        -0.81936E+08
 
   -0.81597E+08         0.15814E+07         0.00000E+00
    0.15814E+07        -0.97294E+08         0.00000E+00
    0.00000E+00         0.00000E+00        -0.81593E+08
 
   -0.81404E+08         0.15219E+07         0.00000E+00
    0.15219E+07        -0.97339E+08         0.00000E+00
    0.00000E+00         0.00000E+00        -0.81408E+08
 
   -0.81278E+08         0.14894E+07         0.00000E+00
    0.14894E+07        -0.97298E+08         0.00000E+00
    0.00000E+00         0.00000E+00        -0.81293E+08
 
   -0.81150E+08         0.15001E+07         0.00000E+00
    0.15001E+07        -0.97274E+08         0.00000E+00
    0.00000E+00         0.00000E+00        -0.81169E+08
 
   -0.81014E+08         0.15324E+07         0.00000E+00
    0.15324E+07        -0.97269E+08         0.00000E+00
    0.00000E+00         0.00000E+00        -0.81034E+08
 
   -0.80867E+08         0.15773E+07         0.00000E+00
    0.15773E+07        -0.97276E+08         0.00000E+00
    0.00000E+00         0.00000E+00        -0.80889E+08
 
   -0.80710E+08         0.16289E+07         0.00000E+00
    0.16289E+07        -0.97290E+08         0.00000E+00
    0.00000E+00         0.00000E+00        -0.80731E+08
 
   -0.80542E+08         0.16835E+07         0.00000E+00
    0.16835E+07        -0.97309E+08         0.00000E+00
    0.00000E+00         0.00000E+00        -0.80562E+08
 
   -0.80363E+08         0.17385E+07         0.00000E+00
    0.17385E+07        -0.97331E+08         0.00000E+00
    0.00000E+00         0.00000E+00        -0.80382E+08
 
   -0.80174E+08         0.17921E+07         0.00000E+00
    0.17921E+07        -0.97356E+08         0.00000E+00
    0.00000E+00         0.00000E+00        -0.80192E+08
 
   -0.79975E+08         0.18427E+07         0.00000E+00
    0.18427E+07        -0.97383E+08         0.00000E+00
    0.00000E+00         0.00000E+00        -0.79991E+08
 
   -0.79766E+08         0.18895E+07         0.00000E+00
    0.18895E+07        -0.97411E+08         0.00000E+00
    0.00000E+00         0.00000E+00        -0.79781E+08
 
   -0.79548E+08         0.19316E+07         0.00000E+00
    0.19316E+07        -0.97442E+08         0.00000E+00
    0.00000E+00         0.00000E+00        -0.79561E+08
 
   -0.79323E+08         0.19684E+07         0.00000E+00
    0.19684E+07        -0.97475E+08         0.00000E+00
    0.00000E+00         0.00000E+00        -0.79334E+08
 
   -0.79090E+08         0.19994E+07         0.00000E+00
    0.19994E+07        -0.97510E+08         0.00000E+00
    0.00000E+00         0.00000E+00        -0.79099E+08
 
   -0.78850E+08         0.20238E+07         0.00000E+00
    0.20238E+07        -0.97547E+08         0.00000E+00
    0.00000E+00         0.00000E+00        -0.78858E+08
 
   -0.78604E+08         0.20406E+07         0.00000E+00
    0.20406E+07        -0.97585E+08         0.00000E+00
    0.00000E+00         0.00000E+00        -0.78610E+08
 
   -0.78354E+08         0.20449E+07         0.00000E+00
    0.20449E+07        -0.97622E+08         0.00000E+00
    0.00000E+00         0.00000E+00        -0.78356E+08
 
   -0.78115E+08         0.20323E+07         0.00000E+00
    0.20323E+07        -0.97636E+08         0.00000E+00
    0.00000E+00         0.00000E+00        -0.78115E+08
 
   -0.77906E+08         0.20153E+07         0.00000E+00
    0.20153E+07        -0.97614E+08         0.00000E+00
    0.00000E+00         0.00000E+00        -0.77910E+08
 
   -0.77700E+08         0.20118E+07         0.00000E+00
    0.20118E+07        -0.97599E+08         0.00000E+00
    0.00000E+00         0.00000E+00        -0.77705E+08
 
   -0.77491E+08         0.20130E+07         0.00000E+00
    0.20130E+07        -0.97590E+08         0.00000E+00
    0.00000E+00         0.00000E+00        -0.77497E+08
 
   -0.77279E+08         0.20162E+07         0.00000E+00
    0.20162E+07        -0.97585E+08         0.00000E+00
    0.00000E+00         0.00000E+00        -0.77285E+08
 
   -0.77064E+08         0.20201E+07         0.00000E+00
    0.20201E+07        -0.97584E+08         0.00000E+00
    0.00000E+00         0.00000E+00        -0.77069E+08
 
   -0.76846E+08         0.20241E+07         0.00000E+00
    0.20241E+07        -0.97586E+08         0.00000E+00
    0.00000E+00         0.00000E+00        -0.76851E+08
 
   -0.76626E+08         0.20273E+07         0.00000E+00
    0.20273E+07        -0.97592E+08         0.00000E+00
    0.00000E+00         0.00000E+00        -0.76630E+08
 
   -0.76403E+08         0.20294E+07         0.00000E+00
    0.20294E+07        -0.97600E+08         0.00000E+00
    0.00000E+00         0.00000E+00        -0.76407E+08
 
   -0.76177E+08         0.20299E+07         0.00000E+00
    0.20299E+07        -0.97611E+08         0.00000E+00
    0.00000E+00         0.00000E+00        -0.76181E+08
 
   -0.75950E+08         0.20283E+07         0.00000E+00
    0.20283E+07        -0.97625E+08         0.00000E+00
    0.00000E+00         0.00000E+00        -0.75953E+08
 
   -0.75721E+08         0.20240E+07         0.00000E+00
    0.20240E+07        -0.97641E+08         0.00000E+00
    0.00000E+00         0.00000E+00        -0.75723E+08
 
   -0.75490E+08         0.20163E+07         0.00000E+00
    0.20163E+07        -0.97660E+08         0.00000E+00
    0.00000E+00         0.00000E+00        -0.75491E+08
 
   -0.75259E+08         0.20026E+07         0.00000E+00
    0.20026E+07        -0.97680E+08         0.00000E+00
    0.00000E+00         0.00000E+00        -0.75258E+08
 
   -0.75033E+08         0.19803E+07         0.00000E+00
    0.19803E+07        -0.97691E+08         0.00000E+00
    0.00000E+00         0.00000E+00        -0.75031E+08
 
   -0.74826E+08         0.19537E+07         0.00000E+00
    0.19537E+07        -0.97678E+08         0.00000E+00
    0.00000E+00         0.00000E+00        -0.74826E+08
 
   -0.74626E+08         0.19343E+07         0.00000E+00
    0.19343E+07        -0.97667E+08         0.00000E+00
    0.00000E+00         0.00000E+00        -0.74626E+08
 
   -0.74426E+08         0.19192E+07         0.00000E+00
    0.19192E+07        -0.97662E+08         0.00000E+00
    0.00000E+00         0.00000E+00        -0.74427E+08
 
   -0.74225E+08         0.19057E+07         0.00000E+00
    0.19057E+07        -0.97660E+08         0.00000E+00
    0.00000E+00         0.00000E+00        -0.74226E+08
 
   -0.74024E+08         0.18928E+07         0.00000E+00
    0.18928E+07        -0.97662E+08         0.00000E+00
    0.00000E+00         0.00000E+00        -0.74025E+08
 
   -0.73823E+08         0.18797E+07         0.00000E+00
    0.18797E+07        -0.97667E+08         0.00000E+00
    0.00000E+00         0.00000E+00        -0.73824E+08
 
   -0.73622E+08         0.18657E+07         0.00000E+00
    0.18657E+07        -0.97674E+08         0.00000E+00
    0.00000E+00         0.00000E+00        -0.73622E+08
 
   -0.73421E+08         0.18488E+07         0.00000E+00
    0.18488E+07        -0.97683E+08         0.00000E+00
    0.00000E+00         0.00000E+00        -0.73420E+08
 
   -0.73226E+08         0.18280E+07         0.00000E+00
    0.18280E+07        -0.97684E+08         0.00000E+00
    0.00000E+00         0.00000E+00        -0.73225E+08
 
   -0.73042E+08         0.18078E+07         0.00000E+00
    0.18078E+07        -0.97673E+08         0.00000E+00
    0.00000E+00         0.00000E+00        -0.73042E+08
 
   -0.72859E+08         0.17921E+07         0.00000E+00
    0.17921E+07        -0.97666E+08         0.00000E+00
    0.00000E+00         0.00000E+00        -0.72860E+08
 
   -0.72676E+08         0.17784E+07         0.00000E+00
    0.17784E+07        -0.97661E+08         0.00000E+00
    0.00000E+00         0.00000E+00        -0.72677E+08
 
   -0.72494E+08         0.17657E+07         0.00000E+00
    0.17657E+07        -0.97659E+08         0.00000E+00
    0.00000E+00         0.00000E+00        -0.72495E+08
 
   -0.72312E+08         0.17537E+07         0.00000E+00
    0.17537E+07        -0.97658E+08         0.00000E+00
    0.00000E+00         0.00000E+00        -0.72313E+08
 
   -0.72131E+08         0.17419E+07         0.00000E+00
    0.17419E+07        -0.97659E+08         0.00000E+00
    0.00000E+00         0.00000E+00        -0.72132E+08
 
   -0.71949E+08         0.17297E+07         0.00000E+00
    0.17297E+07        -0.97662E+08         0.00000E+00
    0.00000E+00         0.00000E+00        -0.71950E+08
 
   -0.71770E+08         0.17163E+07         0.00000E+00
    0.17163E+07        -0.97662E+08         0.00000E+00
    0.00000E+00         0.00000E+00        -0.71770E+08
 
   -0.71595E+08         0.17026E+07         0.00000E+00
    0.17026E+07        -0.97656E+08         0.00000E+00
    0.00000E+00         0.00000E+00        -0.71596E+08
 
   -0.71423E+08         0.16912E+07         0.00000E+00
    0.16912E+07        -0.97650E+08         0.00000E+00
    0.00000E+00         0.00000E+00        -0.71425E+08
 
   -0.71252E+08         0.16814E+07         0.00000E+00
    0.16814E+07        -0.97646E+08         0.00000E+00
    0.00000E+00         0.00000E+00        -0.71253E+08
 
   -0.71081E+08         0.16726E+07         0.00000E+00
    0.16726E+07        -0.97642E+08         0.00000E+00
    0.00000E+00         0.00000E+00        -0.71082E+08
 
   -0.70910E+08         0.16646E+07         0.00000E+00
    0.16646E+07        -0.97640E+08         0.00000E+00
    0.00000E+00         0.00000E+00        -0.70912E+08
 
   -0.70740E+08         0.16570E+07         0.00000E+00
    0.16570E+07        -0.97638E+08         0.00000E+00
    0.00000E+00         0.00000E+00        -0.70741E+08
 
   -0.70570E+08         0.16498E+07         0.00000E+00
    0.16498E+07        -0.97637E+08         0.00000E+00
    0.00000E+00         0.00000E+00        -0.70571E+08
 
   -0.70400E+08         0.16429E+07         0.00000E+00
    0.16429E+07        -0.97637E+08         0.00000E+00
    0.00000E+00         0.00000E+00        -0.70402E+08
 
   -0.70231E+08         0.16361E+07         0.00000E+00
    0.16361E+07        -0.97637E+08         0.00000E+00
    0.00000E+00         0.00000E+00        -0.70232E+08
 
   -0.70062E+08         0.16293E+07         0.00000E+00
    0.16293E+07        -0.97637E+08         0.00000E+00
    0.00000E+00         0.00000E+00        -0.70063E+08
 
   -0.69893E+08         0.16224E+07         0.00000E+00
    0.16224E+07        -0.97638E+08         0.00000E+00
    0.00000E+00         0.00000E+00        -0.69895E+08
 
   -0.69728E+08         0.16150E+07         0.00000E+00
    0.16150E+07        -0.97636E+08         0.00000E+00
    0.00000E+00         0.00000E+00        -0.69729E+08
 
   -0.69564E+08         0.16072E+07         0.00000E+00
    0.16072E+07        -0.97634E+08         0.00000E+00
    0.00000E+00         0.00000E+00        -0.69565E+08
 
   -0.69400E+08         0.15991E+07         0.00000E+00
    0.15991E+07        -0.97633E+08         0.00000E+00
    0.00000E+00         0.00000E+00        -0.69401E+08
 
   -0.69236E+08         0.15905E+07         0.00000E+00
    0.15905E+07        -0.97632E+08         0.00000E+00
    0.00000E+00         0.00000E+00        -0.69237E+08
 
   -0.69073E+08         0.15813E+07         0.00000E+00
    0.15813E+07        -0.97632E+08         0.00000E+00
    0.00000E+00         0.00000E+00        -0.69074E+08
 
   -0.68911E+08         0.15713E+07         0.00000E+00
    0.15713E+07        -0.97632E+08         0.00000E+00
    0.00000E+00         0.00000E+00        -0.68911E+08
 
   -0.68749E+08         0.15604E+07         0.00000E+00
    0.15604E+07        -0.97634E+08         0.00000E+00
    0.00000E+00         0.00000E+00        -0.68749E+08
 
   -0.68588E+08         0.15484E+07         0.00000E+00
    0.15484E+07        -0.97637E+08         0.00000E+00
    0.00000E+00         0.00000E+00        -0.68587E+08
 
   -0.68427E+08         0.15350E+07         0.00000E+00
    0.15350E+07        -0.97641E+08         0.00000E+00
    0.00000E+00         0.00000E+00        -0.68426E+08
 
   -0.68267E+08         0.15200E+07         0.00000E+00
    0.15200E+07        -0.97648E+08         0.00000E+00
    0.00000E+00         0.00000E+00        -0.68266E+08
 
   -0.68109E+08         0.15031E+07         0.00000E+00
    0.15031E+07        -0.97656E+08         0.00000E+00
    0.00000E+00         0.00000E+00        -0.68107E+08
 
   -0.67951E+08         0.14841E+07         0.00000E+00
    0.14841E+07        -0.97666E+08         0.00000E+00
    0.00000E+00         0.00000E+00        -0.67949E+08
 
   -0.67795E+08         0.14626E+07         0.00000E+00
    0.14626E+07        -0.97679E+08         0.00000E+00
    0.00000E+00         0.00000E+00        -0.67792E+08
 
   -0.67640E+08         0.14383E+07         0.00000E+00
    0.14383E+07        -0.97696E+08         0.00000E+00
    0.00000E+00         0.00000E+00        -0.67636E+08
 
   -0.67487E+08         0.14110E+07         0.00000E+00
    0.14110E+07        -0.97715E+08         0.00000E+00
    0.00000E+00         0.00000E+00        -0.67482E+08
 
   -0.67335E+08         0.13803E+07         0.00000E+00
    0.13803E+07        -0.97738E+08         0.00000E+00
    0.00000E+00         0.00000E+00        -0.67330E+08
 
   -0.67185E+08         0.13462E+07         0.00000E+00
    0.13462E+07        -0.97765E+08         0.00000E+00
    0.00000E+00         0.00000E+00        -0.67180E+08
 
   -0.67037E+08         0.13083E+07         0.00000E+00
    0.13083E+07        -0.97796E+08         0.00000E+00
    0.00000E+00         0.00000E+00        -0.67031E+08
 
   -0.66891E+08         0.12667E+07         0.00000E+00
    0.12667E+07        -0.97830E+08         0.00000E+00
    0.00000E+00         0.00000E+00        -0.66884E+08
 
   -0.66747E+08         0.12213E+07         0.00000E+00
    0.12213E+07        -0.97867E+08         0.00000E+00
    0.00000E+00         0.00000E+00        -0.66739E+08
 
   -0.66603E+08         0.11722E+07         0.00000E+00
    0.11722E+07        -0.97907E+08         0.00000E+00
    0.00000E+00         0.00000E+00        -0.66594E+08
 
   -0.66460E+08         0.11196E+07         0.00000E+00
    0.11196E+07        -0.97947E+08         0.00000E+00
    0.00000E+00         0.00000E+00        -0.66451E+08
 
   -0.66317E+08         0.10634E+07         0.00000E+00
    0.10634E+07        -0.97988E+08         0.00000E+00
    0.00000E+00         0.00000E+00        -0.66307E+08
 
   -0.66173E+08         0.10034E+07         0.00000E+00
    0.10034E+07        -0.98025E+08         0.00000E+00
    0.00000E+00         0.00000E+00        -0.66161E+08
 
   -0.66026E+08         0.93887E+06         0.00000E+00
    0.93887E+06        -0.98058E+08         0.00000E+00
    0.00000E+00         0.00000E+00        -0.66014E+08
 
   -0.65876E+08         0.86789E+06         0.00000E+00
    0.86789E+06        -0.98085E+08         0.00000E+00
    0.00000E+00         0.00000E+00        -0.65862E+08
 
   -0.65721E+08         0.78763E+06         0.00000E+00
    0.78763E+06        -0.98101E+08         0.00000E+00
    0.00000E+00         0.00000E+00        -0.65705E+08
 
   -0.65561E+08         0.69222E+06         0.00000E+00
    0.69222E+06        -0.98108E+08         0.00000E+00
    0.00000E+00         0.00000E+00        -0.65541E+08
 
   -0.65394E+08         0.57344E+06         0.00000E+00
    0.57344E+06        -0.98097E+08         0.00000E+00
    0.00000E+00         0.00000E+00        -0.65367E+08
 
   -0.65223E+08         0.41649E+06         0.00000E+00
    0.41649E+06        -0.98081E+08         0.00000E+00
    0.00000E+00         0.00000E+00        -0.65189E+08
 
   -0.65045E+08         0.16298E+06         0.00000E+00
    0.16298E+06        -0.98023E+08         0.00000E+00
    0.00000E+00         0.00000E+00        -0.64976E+08
 
   -0.84178E+08         0.20646E+06         0.00000E+00
    0.20646E+06        -0.97038E+08         0.00000E+00
    0.00000E+00         0.00000E+00        -0.84465E+08
 
   -0.83924E+08         0.56165E+06         0.00000E+00
    0.56165E+06        -0.96836E+08         0.00000E+00
    0.00000E+00         0.00000E+00        -0.84104E+08
 
   -0.83601E+08         0.82357E+06         0.00000E+00
    0.82357E+06        -0.96748E+08         0.00000E+00
    0.00000E+00         0.00000E+00        -0.83742E+08
 
   -0.83267E+08         0.10297E+07         0.00000E+00
    0.10297E+07        -0.96734E+08         0.00000E+00
    0.00000E+00         0.00000E+00        -0.83381E+08
 
   -0.82926E+08         0.11984E+07         0.00000E+00
    0.11984E+07        -0.96773E+08         0.00000E+00
    0.00000E+00         0.00000E+00        -0.83019E+08
 
   -0.82584E+08         0.13348E+07         0.00000E+00
    0.13348E+07        -0.96854E+08         0.00000E+00
    0.00000E+00         0.00000E+00        -0.82658E+08
 
   -0.82241E+08         0.14401E+07         0.00000E+00
    0.14401E+07        -0.96970E+08         0.00000E+00
    0.00000E+00         0.00000E+00        -0.82297E+08
 
   -0.81905E+08         0.15106E+07         0.00000E+00
    0.15106E+07        -0.97117E+08         0.00000E+00
    0.00000E+00         0.00000E+00        -0.81936E+08
 
   -0.81597E+08         0.15269E+07         0.00000E+00
    0.15269E+07        -0.97288E+08         0.00000E+00
    0.00000E+00         0.00000E+00        -0.81589E+08
 
   -0.81385E+08         0.14910E+07         0.00000E+00
    0.14910E+07        -0.97328E+08         0.00000E+00
    0.00000E+00         0.00000E+00        -0.81399E+08
 
   -0.81238E+08         0.14637E+07         0.00000E+00
    0.14637E+07        -0.97296E+08         0.00000E+00
    0.00000E+00         0.00000E+00        -0.81283E+08
 
   -0.81101E+08         0.14729E+07         0.00000E+00
    0.14729E+07        -0.97278E+08         0.00000E+00
    0.00000E+00         0.00000E+00        -0.81157E+08
 
   -0.80960E+08         0.15038E+07         0.00000E+00
    0.15038E+07        -0.97277E+08         0.00000E+00
    0.00000E+00         0.00000E+00        -0.81021E+08
 
   -0.80811E+08         0.15468E+07         0.00000E+00
    0.15468E+07        -0.97285E+08         0.00000E+00
    0.00000E+00         0.00000E+00        -0.80874E+08
 
   -0.80654E+08         0.15964E+07         0.00000E+00
    0.15964E+07        -0.97300E+08         0.00000E+00
    0.00000E+00         0.00000E+00        -0.80716E+08
 
   -0.80487E+08         0.16490E+07         0.00000E+00
    0.16490E+07        -0.97320E+08         0.00000E+00
    0.00000E+00         0.00000E+00        -0.80546E+08
 
   -0.80309E+08         0.17019E+07         0.00000E+00
    0.17019E+07        -0.97342E+08         0.00000E+00
    0.00000E+00         0.00000E+00        -0.80366E+08
 
   -0.80122E+08         0.17534E+07         0.00000E+00
    0.17534E+07        -0.97366E+08         0.00000E+00
    0.00000E+00         0.00000E+00        -0.80174E+08
 
   -0.79925E+08         0.18022E+07         0.00000E+00
    0.18022E+07        -0.97392E+08         0.00000E+00
    0.00000E+00         0.00000E+00        -0.79973E+08
 
   -0.79719E+08         0.18472E+07         0.00000E+00
    0.18472E+07        -0.97420E+08         0.00000E+00
    0.00000E+00         0.00000E+00        -0.79763E+08
 
   -0.79505E+08         0.18876E+07         0.00000E+00
    0.18876E+07        -0.97450E+08         0.00000E+00
    0.00000E+00         0.00000E+00        -0.79544E+08
 
   -0.79283E+08         0.19229E+07         0.00000E+00
    0.19229E+07        -0.97481E+08         0.00000E+00
    0.00000E+00         0.00000E+00        -0.79316E+08
 
   -0.79053E+08         0.19524E+07         0.00000E+00
    0.19524E+07        -0.97515E+08         0.00000E+00
    0.00000E+00         0.00000E+00        -0.79082E+08
 
   -0.78817E+08         0.19756E+07         0.00000E+00
    0.19756E+07        -0.97551E+08         0.00000E+00
    0.00000E+00         0.00000E+00        -0.78840E+08
 
   -0.78575E+08         0.19913E+07         0.00000E+00
    0.19913E+07        -0.97587E+08         0.00000E+00
    0.00000E+00         0.00000E+00        -0.78592E+08
 
   -0.78332E+08         0.19960E+07         0.00000E+00
    0.19960E+07        -0.97621E+08         0.00000E+00
    0.00000E+00         0.00000E+00        -0.78339E+08
 
   -0.78100E+08         0.19880E+07         0.00000E+00
    0.19880E+07        -0.97633E+08         0.00000E+00
    0.00000E+00         0.00000E+00        -0.78101E+08
 
   -0.77886E+08         0.19740E+07         0.00000E+00
    0.19740E+07        -0.97613E+08         0.00000E+00
    0.00000E+00         0.00000E+00        -0.77898E+08
 
   -0.77678E+08         0.19703E+07         0.00000E+00
    0.19703E+07        -0.97599E+08         0.00000E+00
    0.00000E+00         0.00000E+00        -0.77693E+08
 
   -0.77469E+08         0.19708E+07         0.00000E+00
    0.19708E+07        -0.97590E+08         0.00000E+00
    0.00000E+00         0.00000E+00        -0.77484E+08
 
   -0.77257E+08         0.19735E+07         0.00000E+00
    0.19735E+07        -0.97586E+08         0.00000E+00
    0.00000E+00         0.00000E+00        -0.77272E+08
 
   -0.77042E+08         0.19769E+07         0.00000E+00
    0.19769E+07        -0.97585E+08         0.00000E+00
    0.00000E+00         0.00000E+00        -0.77057E+08
 
   -0.76825E+08         0.19803E+07         0.00000E+00
    0.19803E+07        -0.97587E+08         0.00000E+00
    0.00000E+00         0.00000E+00        -0.76839E+08
 
   -0.76605E+08         0.19831E+07         0.00000E+00
    0.19831E+07        -0.97592E+08         0.00000E+00
    0.00000E+00         0.00000E+00        -0.76618E+08
 
   -0.76383E+08         0.19847E+07         0.00000E+00
    0.19847E+07        -0.97600E+08         0.00000E+00
    0.00000E+00         0.00000E+00        -0.76395E+08
 
   -0.76159E+08         0.19848E+07         0.00000E+00
    0.19848E+07        -0.97611E+08         0.00000E+00
    0.00000E+00         0.00000E+00        -0.76169E+08
 
   -0.75933E+08         0.19828E+07         0.00000E+00
    0.19828E+07        -0.97624E+08         0.00000E+00
    0.00000E+00         0.00000E+00        -0.75942E+08
 
   -0.75706E+08         0.19782E+07         0.00000E+00
    0.19782E+07        -0.97640E+08         0.00000E+00
    0.00000E+00         0.00000E+00        -0.75712E+08
 
   -0.75478E+08         0.19703E+07         0.00000E+00
    0.19703E+07        -0.97658E+08         0.00000E+00
    0.00000E+00         0.00000E+00        -0.75481E+08
 
   -0.75250E+08         0.19567E+07         0.00000E+00
    0.19567E+07        -0.97677E+08         0.00000E+00
    0.00000E+00         0.00000E+00        -0.75248E+08
 
   -0.75028E+08         0.19374E+07         0.00000E+00
    0.19374E+07        -0.97686E+08         0.00000E+00
    0.00000E+00         0.00000E+00        -0.75022E+08
 
   -0.74819E+08         0.19130E+07         0.00000E+00
    0.19130E+07        -0.97674E+08         0.00000E+00
    0.00000E+00         0.00000E+00        -0.74819E+08
 
   -0.74617E+08         0.18942E+07         0.00000E+00
    0.18942E+07        -0.97664E+08         0.00000E+00
    0.00000E+00         0.00000E+00        -0.74619E+08
 
   -0.74417E+08         0.18791E+07         0.00000E+00
    0.18791E+07        -0.97659E+08         0.00000E+00
    0.00000E+00         0.00000E+00        -0.74420E+08
 
   -0.74216E+08         0.18655E+07         0.00000E+00
    0.18655E+07        -0.97657E+08         0.00000E+00
    0.00000E+00         0.00000E+00        -0.74220E+08
 
   -0.74015E+08         0.18526E+07         0.00000E+00
    0.18526E+07        -0.97659E+08         0.00000E+00
    0.00000E+00         0.00000E+00        -0.74019E+08
 
   -0.73815E+08         0.18395E+07         0.00000E+00
    0.18395E+07        -0.97664E+08         0.00000E+00
    0.00000E+00         0.00000E+00        -0.73817E+08
 
   -0.73614E+08         0.18255E+07         0.00000E+00
    0.18255E+07        -0.97671E+08         0.00000E+00
    0.00000E+00         0.00000E+00        -0.73616E+08
 
   -0.73415E+08         0.18092E+07         0.00000E+00
    0.18092E+07        -0.97679E+08         0.00000E+00
    0.00000E+00         0.00000E+00        -0.73414E+08
 
   -0.73221E+08         0.17902E+07         0.00000E+00
    0.17902E+07        -0.97680E+08         0.00000E+00
    0.00000E+00         0.00000E+00        -0.73219E+08
 
   -0.73036E+08         0.17712E+07         0.00000E+00
    0.17712E+07        -0.97670E+08         0.00000E+00
    0.00000E+00         0.00000E+00        -0.73037E+08
 
   -0.72852E+08         0.17556E+07         0.00000E+00
    0.17556E+07        -0.97663E+08         0.00000E+00
    0.00000E+00         0.00000E+00        -0.72855E+08
 
   -0.72669E+08         0.17419E+07         0.00000E+00
    0.17419E+07        -0.97659E+08         0.00000E+00
    0.00000E+00         0.00000E+00        -0.72672E+08
 
   -0.72487E+08         0.17293E+07         0.00000E+00
    0.17293E+07        -0.97656E+08         0.00000E+00
    0.00000E+00         0.00000E+00        -0.72490E+08
 
   -0.72305E+08         0.17174E+07         0.00000E+00
    0.17174E+07        -0.97656E+08         0.00000E+00
    0.00000E+00         0.00000E+00        -0.72309E+08
 
   -0.72124E+08         0.17057E+07         0.00000E+00
    0.17057E+07        -0.97657E+08         0.00000E+00
    0.00000E+00         0.00000E+00        -0.72127E+08
 
   -0.71943E+08         0.16936E+07         0.00000E+00
    0.16936E+07        -0.97659E+08         0.00000E+00
    0.00000E+00         0.00000E+00        -0.71945E+08
 
   -0.71764E+08         0.16811E+07         0.00000E+00
    0.16811E+07        -0.97659E+08         0.00000E+00
    0.00000E+00         0.00000E+00        -0.71766E+08
 
   -0.71589E+08         0.16680E+07         0.00000E+00
    0.16680E+07        -0.97654E+08         0.00000E+00
    0.00000E+00         0.00000E+00        -0.71592E+08
 
   -0.71417E+08         0.16568E+07         0.00000E+00
    0.16568E+07        -0.97648E+08         0.00000E+00
    0.00000E+00         0.00000E+00        -0.71421E+08
 
   -0.71245E+08         0.16471E+07         0.00000E+00
    0.16471E+07        -0.97644E+08         0.00000E+00
    0.00000E+00         0.00000E+00        -0.71249E+08
 
   -0.71074E+08         0.16384E+07         0.00000E+00
    0.16384E+07        -0.97641E+08         0.00000E+00
    0.00000E+00         0.00000E+00        -0.71078E+08
 
   -0.70903E+08         0.16304E+07         0.00000E+00
    0.16304E+07        -0.97638E+08         0.00000E+00
    0.00000E+00         0.00000E+00        -0.70908E+08
 
   -0.70733E+08         0.16230E+07         0.00000E+00
    0.16230E+07        -0.97637E+08         0.00000E+00
    0.00000E+00         0.00000E+00        -0.70737E+08
 
   -0.70562E+08         0.16159E+07         0.00000E+00
    0.16159E+07        -0.97636E+08         0.00000E+00
    0.00000E+00         0.00000E+00        -0.70567E+08
 
   -0.70393E+08         0.16090E+07         0.00000E+00
    0.16090E+07        -0.97636E+08         0.00000E+00
    0.00000E+00         0.00000E+00        -0.70397E+08
 
   -0.70223E+08         0.16022E+07         0.00000E+00
    0.16022E+07        -0.97636E+08         0.00000E+00
    0.00000E+00         0.00000E+00        -0.70228E+08
 
   -0.70054E+08         0.15955E+07         0.00000E+00
    0.15955E+07        -0.97636E+08         0.00000E+00
    0.00000E+00         0.00000E+00        -0.70059E+08
 
   -0.69887E+08         0.15886E+07         0.00000E+00
    0.15886E+07        -0.97636E+08         0.00000E+00
    0.00000E+00         0.00000E+00        -0.69890E+08
 
   -0.69722E+08         0.15813E+07         0.00000E+00
    0.15813E+07        -0.97634E+08         0.00000E+00
    0.00000E+00         0.00000E+00        -0.69725E+08
 
   -0.69558E+08         0.15737E+07         0.00000E+00
    0.15737E+07        -0.97632E+08         0.00000E+00
    0.00000E+00         0.00000E+00        -0.69561E+08
 
   -0.69394E+08         0.15657E+07         0.00000E+00
    0.15657E+07        -0.97630E+08         0.00000E+00
    0.00000E+00         0.00000E+00        -0.69396E+08
 
   -0.69231E+08         0.15572E+07         0.00000E+00
    0.15572E+07        -0.97629E+08         0.00000E+00
    0.00000E+00         0.00000E+00        -0.69233E+08
 
   -0.69068E+08         0.15481E+07         0.00000E+00
    0.15481E+07        -0.97629E+08         0.00000E+00
    0.00000E+00         0.00000E+00        -0.69069E+08
 
   -0.68906E+08         0.15382E+07         0.00000E+00
    0.15382E+07        -0.97629E+08         0.00000E+00
    0.00000E+00         0.00000E+00        -0.68906E+08
 
   -0.68744E+08         0.15275E+07         0.00000E+00
    0.15275E+07        -0.97631E+08         0.00000E+00
    0.00000E+00         0.00000E+00        -0.68743E+08
 
   -0.68583E+08         0.15156E+07         0.00000E+00
    0.15156E+07        -0.97634E+08         0.00000E+00
    0.00000E+00         0.00000E+00        -0.68581E+08
 
   -0.68422E+08         0.15024E+07         0.00000E+00
    0.15024E+07        -0.97638E+08         0.00000E+00
    0.00000E+00         0.00000E+00        -0.68420E+08
 
   -0.68263E+08         0.14876E+07         0.00000E+00
    0.14876E+07        -0.97643E+08         0.00000E+00
    0.00000E+00         0.00000E+00        -0.68259E+08
 
   -0.68105E+08         0.14710E+07         0.00000E+00
    0.14710E+07        -0.97651E+08         0.00000E+00
    0.00000E+00         0.00000E+00        -0.68099E+08
 
   -0.67947E+08         0.14523E+07         0.00000E+00
    0.14523E+07        -0.97661E+08         0.00000E+00
    0.00000E+00         0.00000E+00        -0.67941E+08
 
   -0.67792E+08         0.14311E+07         0.00000E+00
    0.14311E+07        -0.97674E+08         0.00000E+00
    0.00000E+00         0.00000E+00        -0.67783E+08
 
   -0.67637E+08         0.14072E+07         0.00000E+00
    0.14072E+07        -0.97690E+08         0.00000E+00
    0.00000E+00         0.00000E+00        -0.67627E+08
 
   -0.67484E+08         0.13802E+07         0.00000E+00
    0.13802E+07        -0.97709E+08         0.00000E+00
    0.00000E+00         0.00000E+00        -0.67472E+08
 
   -0.67334E+08         0.13500E+07         0.00000E+00
    0.13500E+07        -0.97731E+08         0.00000E+00
    0.00000E+00         0.00000E+00        -0.67318E+08
 
   -0.67184E+08         0.13162E+07         0.00000E+00
    0.13162E+07        -0.97757E+08         0.00000E+00
    0.00000E+00         0.00000E+00        -0.67167E+08
 
   -0.67037E+08         0.12787E+07         0.00000E+00
    0.12787E+07        -0.97787E+08         0.00000E+00
    0.00000E+00         0.00000E+00        -0.67017E+08
 
   -0.66892E+08         0.12374E+07         0.00000E+00
    0.12374E+07        -0.97821E+08         0.00000E+00
    0.00000E+00         0.00000E+00        -0.66869E+08
 
   -0.66748E+08         0.11923E+07         0.00000E+00
    0.11923E+07        -0.97857E+08         0.00000E+00
    0.00000E+00         0.00000E+00        -0.66723E+08
 
   -0.66605E+08         0.11434E+07         0.00000E+00
    0.11434E+07        -0.97896E+08         0.00000E+00
    0.00000E+00         0.00000E+00        -0.66578E+08
 
   -0.66463E+08         0.10908E+07         0.00000E+00
    0.10908E+07        -0.97937E+08         0.00000E+00
    0.00000E+00         0.00000E+00        -0.66433E+08
 
   -0.66320E+08         0.10345E+07         0.00000E+00
    0.10345E+07        -0.97976E+08         0.00000E+00
    0.00000E+00         0.00000E+00        -0.66288E+08
 
   -0.66176E+08         0.97415E+06         0.00000E+00
    0.97415E+06        -0.98014E+08         0.00000E+00
    0.00000E+00         0.00000E+00        -0.66142E+08
 
   -0.66031E+08         0.90906E+06         0.00000E+00
    0.90906E+06        -0.98046E+08         0.00000E+00
    0.00000E+00         0.00000E+00        -0.65992E+08
 
   -0.65881E+08         0.83722E+06         0.00000E+00
    0.83722E+06        -0.98071E+08         0.00000E+00
    0.00000E+00         0.00000E+00        -0.65838E+08
 
   -0.65728E+08         0.75619E+06         0.00000E+00
    0.75619E+06        -0.98086E+08         0.00000E+00
    0.00000E+00         0.00000E+00        -0.65678E+08
 
   -0.65569E+08         0.65907E+06         0.00000E+00
    0.65907E+06        -0.98087E+08         0.00000E+00
    0.00000E+00         0.00000E+00        -0.65508E+08
 
   -0.65407E+08         0.54101E+06         0.00000E+00
    0.54101E+06        -0.98074E+08         0.00000E+00
    0.00000E+00         0.00000E+00        -0.65327E+08
 
   -0.65238E+08         0.37803E+06         0.00000E+00
    0.37803E+06        -0.98042E+08         0.00000E+00
    0.00000E+00         0.00000E+00        -0.65131E+08
 
   -0.65082E+08         0.13975E+06         0.00000E+00
    0.13975E+06        -0.97966E+08         0.00000E+00
    0.00000E+00         0.00000E+00        -0.64879E+08
 
   -0.84008E+08         0.17945E+06         0.00000E+00
    0.17945E+06        -0.97113E+08         0.00000E+00
    0.00000E+00         0.00000E+00        -0.84465E+08
 
   -0.83799E+08         0.50307E+06         0.00000E+00
    0.50307E+06        -0.96895E+08         0.00000E+00
    0.00000E+00         0.00000E+00        -0.84104E+08
 
   -0.83506E+08         0.75929E+06         0.00000E+00
    0.75929E+06        -0.96793E+08         0.00000E+00
    0.00000E+00         0.00000E+00        -0.83742E+08
 
   -0.83189E+08         0.96348E+06         0.00000E+00
    0.96348E+06        -0.96771E+08         0.00000E+00
    0.00000E+00         0.00000E+00        -0.83381E+08
 
   -0.82862E+08         0.11312E+07         0.00000E+00
    0.11312E+07        -0.96803E+08         0.00000E+00
    0.00000E+00         0.00000E+00        -0.83019E+08
 
   -0.82532E+08         0.12674E+07         0.00000E+00
    0.12674E+07        -0.96878E+08         0.00000E+00
    0.00000E+00         0.00000E+00        -0.82658E+08
 
   -0.82203E+08         0.13732E+07         0.00000E+00
    0.13732E+07        -0.96988E+08         0.00000E+00
    0.00000E+00         0.00000E+00        -0.82297E+08
 
   -0.81881E+08         0.14464E+07         0.00000E+00
    0.14464E+07        -0.97128E+08         0.00000E+00
    0.00000E+00         0.00000E+00        -0.81936E+08
 
   -0.81588E+08         0.14740E+07         0.00000E+00
    0.14740E+07        -0.97286E+08         0.00000E+00
    0.00000E+00         0.00000E+00        -0.81587E+08
 
   -0.81365E+08         0.14551E+07         0.00000E+00
    0.14551E+07        -0.97321E+08         0.00000E+00
    0.00000E+00         0.00000E+00        -0.81392E+08
 
   -0.81200E+08         0.14352E+07         0.00000E+00
    0.14352E+07        -0.97295E+08         0.00000E+00
    0.00000E+00         0.00000E+00        -0.81274E+08
 
   -0.81054E+08         0.14445E+07         0.00000E+00
    0.14445E+07        -0.97283E+08         0.00000E+00
    0.00000E+00         0.00000E+00        -0.81146E+08
 
   -0.80908E+08         0.14746E+07         0.00000E+00
    0.14746E+07        -0.97284E+08         0.00000E+00
    0.00000E+00         0.00000E+00        -0.81009E+08
 
   -0.80758E+08         0.15161E+07         0.00000E+00
    0.15161E+07        -0.97295E+08         0.00000E+00
    0.00000E+00         0.00000E+00        -0.80861E+08
 
   -0.80600E+08         0.15640E+07         0.00000E+00
    0.15640E+07        -0.97310E+08         0.00000E+00
    0.00000E+00         0.00000E+00        -0.80701E+08
 
   -0.80434E+08         0.16146E+07         0.00000E+00
    0.16146E+07        -0.97330E+08         0.00000E+00
    0.00000E+00         0.00000E+00        -0.80531E+08
 
   -0.80258E+08         0.16656E+07         0.00000E+00
    0.16656E+07        -0.97352E+08         0.00000E+00
    0.00000E+00         0.00000E+00        -0.80350E+08
 
   -0.80072E+08         0.17152E+07         0.00000E+00
    0.17152E+07        -0.97376E+08         0.00000E+00
    0.00000E+00         0.00000E+00        -0.80158E+08
 
   -0.79878E+08         0.17621E+07         0.00000E+00
    0.17621E+07        -0.97402E+08         0.00000E+00
    0.00000E+00         0.00000E+00        -0.79956E+08
 
   -0.79674E+08         0.18054E+07         0.00000E+00
    0.18054E+07        -0.97428E+08         0.00000E+00
    0.00000E+00         0.00000E+00        -0.79746E+08
 
   -0.79463E+08         0.18442E+07         0.00000E+00
    0.18442E+07        -0.97457E+08         0.00000E+00
    0.00000E+00         0.00000E+00        -0.79526E+08
 
   -0.79244E+08         0.18780E+07         0.00000E+00
    0.18780E+07        -0.97488E+08         0.00000E+00
    0.00000E+00         0.00000E+00        -0.79299E+08
 
   -0.79017E+08         0.19062E+07         0.00000E+00
    0.19062E+07        -0.97520E+08         0.00000E+00
    0.00000E+00         0.00000E+00        -0.79064E+08
 
   -0.78785E+08         0.19282E+07         0.00000E+00
    0.19282E+07        -0.97555E+08         0.00000E+00
    0.00000E+00         0.00000E+00        -0.78823E+08
 
   -0.78548E+08         0.19430E+07         0.00000E+00
    0.19430E+07        -0.97590E+08         0.00000E+00
    0.00000E+00         0.00000E+00        -0.78575E+08
 
   -0.78311E+08         0.19488E+07         0.00000E+00
    0.19488E+07        -0.97621E+08         0.00000E+00
    0.00000E+00         0.00000E+00        -0.78322E+08
 
   -0.78081E+08         0.19435E+07         0.00000E+00
    0.19435E+07        -0.97630E+08         0.00000E+00
    0.00000E+00         0.00000E+00        -0.78088E+08
 
   -0.77866E+08         0.19321E+07         0.00000E+00
    0.19321E+07        -0.97611E+08         0.00000E+00
    0.00000E+00         0.00000E+00        -0.77886E+08
 
   -0.77657E+08         0.19285E+07         0.00000E+00
    0.19285E+07        -0.97599E+08         0.00000E+00
    0.00000E+00         0.00000E+00        -0.77681E+08
 
   -0.77447E+08         0.19287E+07         0.00000E+00
    0.19287E+07        -0.97591E+08         0.00000E+00
    0.00000E+00         0.00000E+00        -0.77472E+08
 
   -0.77235E+08         0.19308E+07         0.00000E+00
    0.19308E+07        -0.97587E+08         0.00000E+00
    0.00000E+00         0.00000E+00        -0.77260E+08
 
   -0.77020E+08         0.19337E+07         0.00000E+00
    0.19337E+07        -0.97586E+08         0.00000E+00
    0.00000E+00         0.00000E+00        -0.77045E+08
 
   -0.76804E+08         0.19366E+07         0.00000E+00
    0.19366E+07        -0.97588E+08         0.00000E+00
    0.00000E+00         0.00000E+00        -0.76827E+08
 
   -0.76585E+08         0.19390E+07         0.00000E+00
    0.19390E+07        -0.97593E+08         0.00000E+00
    0.00000E+00         0.00000E+00        -0.76606E+08
 
   -0.76364E+08         0.19402E+07         0.00000E+00
    0.19402E+07        -0.97600E+08         0.00000E+00
    0.00000E+00         0.00000E+00        -0.76383E+08
 
   -0.76141E+08         0.19399E+07         0.00000E+00
    0.19399E+07        -0.97611E+08         0.00000E+00
    0.00000E+00         0.00000E+00        -0.76158E+08
 
   -0.75917E+08         0.19376E+07         0.00000E+00
    0.19376E+07        -0.97624E+08         0.00000E+00
    0.00000E+00         0.00000E+00        -0.75931E+08
 
   -0.75691E+08         0.19328E+07         0.00000E+00
    0.19328E+07        -0.97639E+08         0.00000E+00
    0.00000E+00         0.00000E+00        -0.75701E+08
 
   -0.75465E+08         0.19248E+07         0.00000E+00
    0.19248E+07        -0.97656E+08         0.00000E+00
    0.00000E+00         0.00000E+00        -0.75470E+08
 
   -0.75240E+08         0.19118E+07         0.00000E+00
    0.19118E+07        -0.97673E+08         0.00000E+00
    0.00000E+00         0.00000E+00        -0.75238E+08
 
   -0.75022E+08         0.18947E+07         0.00000E+00
    0.18947E+07        -0.97681E+08         0.00000E+00
    0.00000E+00         0.00000E+00        -0.75014E+08
 
   -0.74812E+08         0.18719E+07         0.00000E+00
    0.18719E+07        -0.97670E+08         0.00000E+00
    0.00000E+00         0.00000E+00        -0.74812E+08
 
   -0.74609E+08         0.18540E+07         0.00000E+00
    0.18540E+07        -0.97661E+08         0.00000E+00
    0.00000E+00         0.00000E+00        -0.74613E+08
 
   -0.74408E+08         0.18389E+07         0.00000E+00
    0.18389E+07        -0.97656E+08         0.00000E+00
    0.00000E+00         0.00000E+00        -0.74413E+08
 
   -0.74207E+08         0.18254E+07         0.00000E+00
    0.18254E+07        -0.97655E+08         0.00000E+00
    0.00000E+00         0.00000E+00        -0.74213E+08
 
   -0.74007E+08         0.18125E+07         0.00000E+00
    0.18125E+07        -0.97657E+08         0.00000E+00
    0.00000E+00         0.00000E+00        -0.74012E+08
 
   -0.73807E+08         0.17995E+07         0.00000E+00
    0.17995E+07        -0.97661E+08         0.00000E+00
    0.00000E+00         0.00000E+00        -0.73811E+08
 
   -0.73607E+08         0.17855E+07         0.00000E+00
    0.17855E+07        -0.97668E+08         0.00000E+00
    0.00000E+00         0.00000E+00        -0.73610E+08
 
   -0.73410E+08         0.17700E+07         0.00000E+00
    0.17700E+07        -0.97676E+08         0.00000E+00
    0.00000E+00         0.00000E+00        -0.73408E+08
 
   -0.73217E+08         0.17522E+07         0.00000E+00
    0.17522E+07        -0.97676E+08         0.00000E+00
    0.00000E+00         0.00000E+00        -0.73214E+08
 
   -0.73030E+08         0.17343E+07         0.00000E+00
    0.17343E+07        -0.97667E+08         0.00000E+00
    0.00000E+00         0.00000E+00        -0.73032E+08
 
   -0.72846E+08         0.17189E+07         0.00000E+00
    0.17189E+07        -0.97660E+08         0.00000E+00
    0.00000E+00         0.00000E+00        -0.72850E+08
 
   -0.72662E+08         0.17053E+07         0.00000E+00
    0.17053E+07        -0.97656E+08         0.00000E+00
    0.00000E+00         0.00000E+00        -0.72668E+08
 
   -0.72480E+08         0.16929E+07         0.00000E+00
    0.16929E+07        -0.97654E+08         0.00000E+00
    0.00000E+00         0.00000E+00        -0.72486E+08
 
   -0.72298E+08         0.16810E+07         0.00000E+00
    0.16810E+07        -0.97654E+08         0.00000E+00
    0.00000E+00         0.00000E+00        -0.72304E+08
 
   -0.72117E+08         0.16695E+07         0.00000E+00
    0.16695E+07        -0.97655E+08         0.00000E+00
    0.00000E+00         0.00000E+00        -0.72122E+08
 
   -0.71937E+08         0.16576E+07         0.00000E+00
    0.16576E+07        -0.97657E+08         0.00000E+00
    0.00000E+00         0.00000E+00        -0.71941E+08
 
   -0.71759E+08         0.16458E+07         0.00000E+00
    0.16458E+07        -0.97657E+08         0.00000E+00
    0.00000E+00         0.00000E+00        -0.71761E+08
 
   -0.71583E+08         0.16332E+07         0.00000E+00
    0.16332E+07        -0.97651E+08         0.00000E+00
    0.00000E+00         0.00000E+00        -0.71588E+08
 
   -0.71410E+08         0.16224E+07         0.00000E+00
    0.16224E+07        -0.97646E+08         0.00000E+00
    0.00000E+00         0.00000E+00        -0.71417E+08
 
   -0.71238E+08         0.16128E+07         0.00000E+00
    0.16128E+07        -0.97642E+08         0.00000E+00
    0.00000E+00         0.00000E+00        -0.71245E+08
 
   -0.71067E+08         0.16042E+07         0.00000E+00
    0.16042E+07        -0.97639E+08         0.00000E+00
    0.00000E+00         0.00000E+00        -0.71074E+08
 
   -0.70896E+08         0.15963E+07         0.00000E+00
    0.15963E+07        -0.97637E+08         0.00000E+00
    0.00000E+00         0.00000E+00        -0.70903E+08
 
   -0.70725E+08         0.15889E+07         0.00000E+00
    0.15889E+07        -0.97635E+08         0.00000E+00
    0.00000E+00         0.00000E+00        -0.70733E+08
 
   -0.70555E+08         0.15819E+07         0.00000E+00
    0.15819E+07        -0.97635E+08         0.00000E+00
    0.00000E+00         0.00000E+00        -0.70563E+08
 
   -0.70386E+08         0.15751E+07         0.00000E+00
    0.15751E+07        -0.97634E+08         0.00000E+00
    0.00000E+00         0.00000E+00        -0.70393E+08
 
   -0.70216E+08         0.15684E+07         0.00000E+00
    0.15684E+07        -0.97634E+08         0.00000E+00
    0.00000E+00         0.00000E+00        -0.70223E+08
 
   -0.70048E+08         0.15618E+07         0.00000E+00
    0.15618E+07        -0.97635E+08         0.00000E+00
    0.00000E+00         0.00000E+00        -0.70054E+08
 
   -0.69880E+08         0.15549E+07         0.00000E+00
    0.15549E+07        -0.97634E+08         0.00000E+00
    0.00000E+00         0.00000E+00        -0.69886E+08
 
   -0.69716E+08         0.15477E+07         0.00000E+00
    0.15477E+07        -0.97632E+08         0.00000E+00
    0.00000E+00         0.00000E+00        -0.69721E+08
 
   -0.69552E+08         0.15401E+07         0.00000E+00
    0.15401E+07        -0.97629E+08         0.00000E+00
    0.00000E+00         0.00000E+00        -0.69556E+08
 
   -0.69388E+08         0.15322E+07         0.00000E+00
    0.15322E+07        -0.97628E+08         0.00000E+00
    0.00000E+00         0.00000E+00        -0.69392E+08
 
   -0.69225E+08         0.15239E+07         0.00000E+00
    0.15239E+07        -0.97627E+08         0.00000E+00
    0.00000E+00         0.00000E+00        -0.69228E+08
 
   -0.69063E+08         0.15149E+07         0.00000E+00
    0.15149E+07        -0.97626E+08         0.00000E+00
    0.00000E+00         0.00000E+00        -0.69064E+08
 
   -0.68900E+08         0.15052E+07         0.00000E+00
    0.15052E+07        -0.97626E+08         0.00000E+00
    0.00000E+00         0.00000E+00        -0.68901E+08
 
   -0.68739E+08         0.14946E+07         0.00000E+00
    0.14946E+07        -0.97628E+08         0.00000E+00
    0.00000E+00         0.00000E+00        -0.68738E+08
 
   -0.68578E+08         0.14829E+07         0.00000E+00
    0.14829E+07        -0.97630E+08         0.00000E+00
    0.00000E+00         0.00000E+00        -0.68575E+08
 
   -0.68418E+08         0.14699E+07         0.00000E+00
    0.14699E+07        -0.97634E+08         0.00000E+00
    0.00000E+00         0.00000E+00        -0.68414E+08
 
   -0.68259E+08         0.14554E+07         0.00000E+00
    0.14554E+07        -0.97639E+08         0.00000E+00
    0.00000E+00         0.00000E+00        -0.68252E+08
 
   -0.68101E+08         0.14390E+07         0.00000E+00
    0.14390E+07        -0.97647E+08         0.00000E+00
    0.00000E+00         0.00000E+00        -0.68092E+08
 
   -0.67944E+08         0.14206E+07         0.00000E+00
    0.14206E+07        -0.97656E+08         0.00000E+00
    0.00000E+00         0.00000E+00        -0.67932E+08
 
   -0.67789E+08         0.13997E+07         0.00000E+00
    0.13997E+07        -0.97669E+08         0.00000E+00
    0.00000E+00         0.00000E+00        -0.67774E+08
 
   -0.67635E+08         0.13762E+07         0.00000E+00
    0.13762E+07        -0.97684E+08         0.00000E+00
    0.00000E+00         0.00000E+00        -0.67617E+08
 
   -0.67483E+08         0.13496E+07         0.00000E+00
    0.13496E+07        -0.97702E+08         0.00000E+00
    0.00000E+00         0.00000E+00        -0.67461E+08
 
   -0.67332E+08         0.13197E+07         0.00000E+00
    0.13197E+07        -0.97724E+08         0.00000E+00
    0.00000E+00         0.00000E+00        -0.67307E+08
 
   -0.67184E+08         0.12864E+07         0.00000E+00
    0.12864E+07        -0.97750E+08         0.00000E+00
    0.00000E+00         0.00000E+00        -0.67154E+08
 
   -0.67037E+08         0.12493E+07         0.00000E+00
    0.12493E+07        -0.97779E+08         0.00000E+00
    0.00000E+00         0.00000E+00        -0.67004E+08
 
   -0.66892E+08         0.12083E+07         0.00000E+00
    0.12083E+07        -0.97812E+08         0.00000E+00
    0.00000E+00         0.00000E+00        -0.66855E+08
 
   -0.66749E+08         0.11635E+07         0.00000E+00
    0.11635E+07        -0.97848E+08         0.00000E+00
    0.00000E+00         0.00000E+00        -0.66707E+08
 
   -0.66607E+08         0.11148E+07         0.00000E+00
    0.11148E+07        -0.97886E+08         0.00000E+00
    0.00000E+00         0.00000E+00        -0.66561E+08
 
   -0.66465E+08         0.10622E+07         0.00000E+00
    0.10622E+07        -0.97926E+08         0.00000E+00
    0.00000E+00         0.00000E+00        -0.66415E+08
 
   -0.66323E+08         0.10058E+07         0.00000E+00
    0.10058E+07        -0.97965E+08         0.00000E+00
    0.00000E+00         0.00000E+00        -0.66269E+08
 
   -0.66180E+08         0.94511E+06         0.00000E+00
    0.94511E+06        -0.98002E+08         0.00000E+00
    0.00000E+00         0.00000E+00        -0.66122E+08
 
   -0.66035E+08         0.87938E+06         0.00000E+00
    0.87938E+06        -0.98033E+08         0.00000E+00
    0.00000E+00         0.00000E+00        -0.65971E+08
 
   -0.65887E+08         0.80698E+06         0.00000E+00
    0.80698E+06        -0.98056E+08         0.00000E+00
    0.00000E+00         0.00000E+00        -0.65815E+08
 
   -0.65735E+08         0.72474E+06         0.00000E+00
    0.72474E+06        -0.98069E+08         0.00000E+00
    0.00000E+00         0.00000E+00        -0.65651E+08
 
   -0.65579E+08         0.62721E+06         0.00000E+00
    0.62721E+06        -0.98067E+08         0.00000E+00
    0.00000E+00         0.00000E+00        -0.65475E+08
 
   -0.65419E+08         0.50791E+06         0.00000E+00
    0.50791E+06        -0.98049E+08         0.00000E+00
    0.00000E+00         0.00000E+00        -0.65287E+08
 
   -0.65255E+08         0.34274E+06         0.00000E+00
    0.34274E+06        -0.98003E+08         0.00000E+00
    0.00000E+00         0.00000E+00        -0.65072E+08
 
   -0.65120E+08         0.12187E+06         0.00000E+00
    0.12187E+06        -0.97916E+08         0.00000E+00
    0.00000E+00         0.00000E+00        -0.64789E+08
 
   -0.83851E+08         0.15790E+06         0.00000E+00
    0.15790E+06        -0.97180E+08         0.00000E+00
    0.00000E+00         0.00000E+00        -0.84465E+08
 
   -0.83675E+08         0.45230E+06         0.00000E+00
    0.45230E+06        -0.96951E+08         0.00000E+00
    0.00000E+00         0.00000E+00        -0.84104E+08
 
   -0.83408E+08         0.69904E+06         0.00000E+00
    0.69904E+06        -0.96838E+08         0.00000E+00
    0.00000E+00         0.00000E+00        -0.83742E+08
 
   -0.83109E+08         0.90037E+06         0.00000E+00
    0.90037E+06        -0.96808E+08         0.00000E+00
    0.00000E+00         0.00000E+00        -0.83381E+08
 
   -0.82797E+08         0.10667E+07         0.00000E+00
    0.10667E+07        -0.96833E+08         0.00000E+00
    0.00000E+00         0.00000E+00        -0.83019E+08
 
   -0.82480E+08         0.12025E+07         0.00000E+00
    0.12025E+07        -0.96903E+08         0.00000E+00
    0.00000E+00         0.00000E+00        -0.82658E+08
 
   -0.82163E+08         0.13089E+07         0.00000E+00
    0.13089E+07        -0.97006E+08         0.00000E+00
    0.00000E+00         0.00000E+00        -0.82297E+08
 
   -0.81854E+08         0.13852E+07         0.00000E+00
    0.13852E+07        -0.97139E+08         0.00000E+00
    0.00000E+00         0.00000E+00        -0.81936E+08
 
   -0.81573E+08         0.14222E+07         0.00000E+00
    0.14222E+07        -0.97287E+08         0.00000E+00
    0.00000E+00         0.00000E+00        -0.81586E+08
 
   -0.81343E+08         0.14157E+07         0.00000E+00
    0.14157E+07        -0.97316E+08         0.00000E+00
    0.00000E+00         0.00000E+00        -0.81388E+08
 
   -0.81165E+08         0.14041E+07         0.00000E+00
    0.14041E+07        -0.97294E+08         0.00000E+00
    0.00000E+00         0.00000E+00        -0.81267E+08
 
   -0.81010E+08         0.14149E+07         0.00000E+00
    0.14149E+07        -0.97287E+08         0.00000E+00
    0.00000E+00         0.00000E+00        -0.81137E+08
 
   -0.80860E+08         0.14447E+07         0.00000E+00
    0.14447E+07        -0.97292E+08         0.00000E+00
    0.00000E+00         0.00000E+00        -0.80998E+08
 
   -0.80707E+08         0.14852E+07         0.00000E+00
    0.14852E+07        -0.97304E+08         0.00000E+00
    0.00000E+00         0.00000E+00        -0.80848E+08
 
   -0.80549E+08         0.15316E+07         0.00000E+00
    0.15316E+07        -0.97320E+08         0.00000E+00
    0.00000E+00         0.00000E+00        -0.80688E+08
 
   -0.80383E+08         0.15805E+07         0.00000E+00
    0.15805E+07        -0.97340E+08         0.00000E+00
    0.00000E+00         0.00000E+00        -0.80516E+08
 
   -0.80208E+08         0.16296E+07         0.00000E+00
    0.16296E+07        -0.97362E+08         0.00000E+00
    0.00000E+00         0.00000E+00        -0.80334E+08
 
   -0.80024E+08         0.16774E+07         0.00000E+00
    0.16774E+07        -0.97386E+08         0.00000E+00
    0.00000E+00         0.00000E+00        -0.80142E+08
 
   -0.79832E+08         0.17226E+07         0.00000E+00
    0.17226E+07        -0.97410E+08         0.00000E+00
    0.00000E+00         0.00000E+00        -0.79940E+08
 
   -0.79631E+08         0.17641E+07         0.00000E+00
    0.17641E+07        -0.97437E+08         0.00000E+00
    0.00000E+00         0.00000E+00        -0.79729E+08
 
   -0.79422E+08         0.18014E+07         0.00000E+00
    0.18014E+07        -0.97464E+08         0.00000E+00
    0.00000E+00         0.00000E+00        -0.79509E+08
 
   -0.79206E+08         0.18337E+07         0.00000E+00
    0.18337E+07        -0.97494E+08         0.00000E+00
    0.00000E+00         0.00000E+00        -0.79282E+08
 
   -0.78983E+08         0.18606E+07         0.00000E+00
    0.18606E+07        -0.97525E+08         0.00000E+00
    0.00000E+00         0.00000E+00        -0.79047E+08
 
   -0.78754E+08         0.18815E+07         0.00000E+00
    0.18815E+07        -0.97558E+08         0.00000E+00
    0.00000E+00         0.00000E+00        -0.78806E+08
 
   -0.78521E+08         0.18957E+07         0.00000E+00
    0.18957E+07        -0.97592E+08         0.00000E+00
    0.00000E+00         0.00000E+00        -0.78559E+08
 
   -0.78289E+08         0.19030E+07         0.00000E+00
    0.19030E+07        -0.97622E+08         0.00000E+00
    0.00000E+00         0.00000E+00        -0.78306E+08
 
   -0.78063E+08         0.18988E+07         0.00000E+00
    0.18988E+07        -0.97627E+08         0.00000E+00
    0.00000E+00         0.00000E+00        -0.78076E+08
 
   -0.77847E+08         0.18898E+07         0.00000E+00
    0.18898E+07        -0.97610E+08         0.00000E+00
    0.00000E+00         0.00000E+00        -0.77875E+08
 
   -0.77636E+08         0.18865E+07         0.00000E+00
    0.18865E+07        -0.97599E+08         0.00000E+00
    0.00000E+00         0.00000E+00        -0.77669E+08
 
   -0.77425E+08         0.18864E+07         0.00000E+00
    0.18864E+07        -0.97591E+08         0.00000E+00
    0.00000E+00         0.00000E+00        -0.77460E+08
 
   -0.77213E+08         0.18882E+07         0.00000E+00
    0.18882E+07        -0.97587E+08         0.00000E+00
    0.00000E+00         0.00000E+00        -0.77248E+08
 
   -0.76999E+08         0.18907E+07         0.00000E+00
    0.18907E+07        -0.97586E+08         0.00000E+00
    0.00000E+00         0.00000E+00        -0.77033E+08
 
   -0.76783E+08         0.18932E+07         0.00000E+00
    0.18932E+07        -0.97588E+08         0.00000E+00
    0.00000E+00         0.00000E+00        -0.76815E+08
 
   -0.76565E+08         0.18951E+07         0.00000E+00
    0.18951E+07        -0.97593E+08         0.00000E+00
    0.00000E+00         0.00000E+00        -0.76595E+08
 
   -0.76345E+08         0.18960E+07         0.00000E+00
    0.18960E+07        -0.97600E+08         0.00000E+00
    0.00000E+00         0.00000E+00        -0.76372E+08
 
   -0.76124E+08         0.18954E+07         0.00000E+00
    0.18954E+07        -0.97610E+08         0.00000E+00
    0.00000E+00         0.00000E+00        -0.76147E+08
 
   -0.75901E+08         0.18928E+07         0.00000E+00
    0.18928E+07        -0.97623E+08         0.00000E+00
    0.00000E+00         0.00000E+00        -0.75920E+08
 
   -0.75677E+08         0.18878E+07         0.00000E+00
    0.18878E+07        -0.97638E+08         0.00000E+00
    0.00000E+00         0.00000E+00        -0.75691E+08
 
   -0.75453E+08         0.18798E+07         0.00000E+00
    0.18798E+07        -0.97654E+08         0.00000E+00
    0.00000E+00         0.00000E+00        -0.75460E+08
 
   -0.75231E+08         0.18676E+07         0.00000E+00
    0.18676E+07        -0.97670E+08         0.00000E+00
    0.00000E+00         0.00000E+00        -0.75228E+08
 
   -0.75014E+08         0.18521E+07         0.00000E+00
    0.18521E+07        -0.97677E+08         0.00000E+00
    0.00000E+00         0.00000E+00        -0.75005E+08
 
   -0.74805E+08         0.18307E+07         0.00000E+00
    0.18307E+07        -0.97666E+08         0.00000E+00
    0.00000E+00         0.00000E+00        -0.74805E+08
 
   -0.74601E+08         0.18135E+07         0.00000E+00
    0.18135E+07        -0.97657E+08         0.00000E+00
    0.00000E+00         0.00000E+00        -0.74606E+08
 
   -0.74399E+08         0.17988E+07         0.00000E+00
    0.17988E+07        -0.97653E+08         0.00000E+00
    0.00000E+00         0.00000E+00        -0.74407E+08
 
   -0.74198E+08         0.17854E+07         0.00000E+00
    0.17854E+07        -0.97652E+08         0.00000E+00
    0.00000E+00         0.00000E+00        -0.74206E+08
 
   -0.73998E+08         0.17725E+07         0.00000E+00
    0.17725E+07        -0.97654E+08         0.00000E+00
    0.00000E+00         0.00000E+00        -0.74006E+08
 
   -0.73799E+08         0.17596E+07         0.00000E+00
    0.17596E+07        -0.97659E+08         0.00000E+00
    0.00000E+00         0.00000E+00        -0.73805E+08
 
   -0.73600E+08         0.17458E+07         0.00000E+00
    0.17458E+07        -0.97665E+08         0.00000E+00
    0.00000E+00         0.00000E+00        -0.73604E+08
 
   -0.73404E+08         0.17310E+07         0.00000E+00
    0.17310E+07        -0.97673E+08         0.00000E+00
    0.00000E+00         0.00000E+00        -0.73402E+08
 
   -0.73211E+08         0.17142E+07         0.00000E+00
    0.17142E+07        -0.97672E+08         0.00000E+00
    0.00000E+00         0.00000E+00        -0.73210E+08
 
   -0.73024E+08         0.16972E+07         0.00000E+00
    0.16972E+07        -0.97663E+08         0.00000E+00
    0.00000E+00         0.00000E+00        -0.73027E+08
 
   -0.72839E+08         0.16822E+07         0.00000E+00
    0.16822E+07        -0.97657E+08         0.00000E+00
    0.00000E+00         0.00000E+00        -0.72845E+08
 
   -0.72656E+08         0.16688E+07         0.00000E+00
    0.16688E+07        -0.97653E+08         0.00000E+00
    0.00000E+00         0.00000E+00        -0.72663E+08
 
   -0.72473E+08         0.16564E+07         0.00000E+00
    0.16564E+07        -0.97651E+08         0.00000E+00
    0.00000E+00         0.00000E+00        -0.72481E+08
 
   -0.72291E+08         0.16447E+07         0.00000E+00
    0.16447E+07        -0.97651E+08         0.00000E+00
    0.00000E+00         0.00000E+00        -0.72299E+08
 
   -0.72110E+08         0.16333E+07         0.00000E+00
    0.16333E+07        -0.97652E+08         0.00000E+00
    0.00000E+00         0.00000E+00        -0.72117E+08
 
   -0.71931E+08         0.16218E+07         0.00000E+00
    0.16218E+07        -0.97654E+08         0.00000E+00
    0.00000E+00         0.00000E+00        -0.71936E+08
 
   -0.71753E+08         0.16105E+07         0.00000E+00
    0.16105E+07        -0.97654E+08         0.00000E+00
    0.00000E+00         0.00000E+00        -0.71757E+08
 
   -0.71577E+08         0.15984E+07         0.00000E+00
    0.15984E+07        -0.97649E+08         0.00000E+00
    0.00000E+00         0.00000E+00        -0.71584E+08
 
   -0.71404E+08         0.15879E+07         0.00000E+00
    0.15879E+07        -0.97644E+08         0.00000E+00
    0.00000E+00         0.00000E+00        -0.71413E+08
 
   -0.71232E+08         0.15784E+07         0.00000E+00
    0.15784E+07        -0.97640E+08         0.00000E+00
    0.00000E+00         0.00000E+00        -0.71241E+08
 
   -0.71060E+08         0.15700E+07         0.00000E+00
    0.15700E+07        -0.97637E+08         0.00000E+00
    0.00000E+00         0.00000E+00        -0.71070E+08
 
   -0.70889E+08         0.15621E+07         0.00000E+00
    0.15621E+07        -0.97635E+08         0.00000E+00
    0.00000E+00         0.00000E+00        -0.70899E+08
 
   -0.70719E+08         0.15548E+07         0.00000E+00
    0.15548E+07        -0.97634E+08         0.00000E+00
    0.00000E+00         0.00000E+00        -0.70729E+08
 
   -0.70548E+08         0.15479E+07         0.00000E+00
    0.15479E+07        -0.97633E+08         0.00000E+00
    0.00000E+00         0.00000E+00        -0.70559E+08
 
   -0.70379E+08         0.15412E+07         0.00000E+00
    0.15412E+07        -0.97633E+08         0.00000E+00
    0.00000E+00         0.00000E+00        -0.70389E+08
 
   -0.70210E+08         0.15346E+07         0.00000E+00
    0.15346E+07        -0.97633E+08         0.00000E+00
    0.00000E+00         0.00000E+00        -0.70219E+08
 
   -0.70041E+08         0.15281E+07         0.00000E+00
    0.15281E+07        -0.97633E+08         0.00000E+00
    0.00000E+00         0.00000E+00        -0.70050E+08
 
   -0.69874E+08         0.15213E+07         0.00000E+00
    0.15213E+07        -0.97632E+08         0.00000E+00
    0.00000E+00         0.00000E+00        -0.69882E+08
 
   -0.69710E+08         0.15141E+07         0.00000E+00
    0.15141E+07        -0.97630E+08         0.00000E+00
    0.00000E+00         0.00000E+00        -0.69717E+08
 
   -0.69546E+08         0.15066E+07         0.00000E+00
    0.15066E+07        -0.97627E+08         0.00000E+00
    0.00000E+00         0.00000E+00        -0.69552E+08
 
   -0.69383E+08         0.14988E+07         0.00000E+00
    0.14988E+07        -0.97625E+08         0.00000E+00
    0.00000E+00         0.00000E+00        -0.69388E+08
 
   -0.69220E+08         0.14906E+07         0.00000E+00
    0.14906E+07        -0.97624E+08         0.00000E+00
    0.00000E+00         0.00000E+00        -0.69223E+08
 
   -0.69057E+08         0.14818E+07         0.00000E+00
    0.14818E+07        -0.97623E+08         0.00000E+00
    0.00000E+00         0.00000E+00        -0.69059E+08
 
   -0.68896E+08         0.14722E+07         0.00000E+00
    0.14722E+07        -0.97624E+08         0.00000E+00
    0.00000E+00         0.00000E+00        -0.68896E+08
 
   -0.68734E+08         0.14618E+07         0.00000E+00
    0.14618E+07        -0.97625E+08         0.00000E+00
    0.00000E+00         0.00000E+00        -0.68733E+08
 
   -0.68574E+08         0.14503E+07         0.00000E+00
    0.14503E+07        -0.97627E+08         0.00000E+00
    0.00000E+00         0.00000E+00        -0.68570E+08
 
   -0.68414E+08         0.14375E+07         0.00000E+00
    0.14375E+07        -0.97630E+08         0.00000E+00
    0.00000E+00         0.00000E+00        -0.68407E+08
 
   -0.68255E+08         0.14232E+07         0.00000E+00
    0.14232E+07        -0.97636E+08         0.00000E+00
    0.00000E+00         0.00000E+00        -0.68246E+08
 
   -0.68097E+08         0.14071E+07         0.00000E+00
    0.14071E+07        -0.97643E+08         0.00000E+00
    0.00000E+00         0.00000E+00        -0.68085E+08
 
   -0.67941E+08         0.13890E+07         0.00000E+00
    0.13890E+07        -0.97652E+08         0.00000E+00
    0.00000E+00         0.00000E+00        -0.67924E+08
 
   -0.67786E+08         0.13684E+07         0.00000E+00
    0.13684E+07        -0.97664E+08         0.00000E+00
    0.00000E+00         0.00000E+00        -0.67765E+08
 
   -0.67633E+08         0.13452E+07         0.00000E+00
    0.13452E+07        -0.97678E+08         0.00000E+00
    0.00000E+00         0.00000E+00        -0.67607E+08
 
   -0.67481E+08         0.13191E+07         0.00000E+00
    0.13191E+07        -0.97696E+08         0.00000E+00
    0.00000E+00         0.00000E+00        -0.67451E+08
 
   -0.67331E+08         0.12896E+07         0.00000E+00
    0.12896E+07        -0.97717E+08         0.00000E+00
    0.00000E+00         0.00000E+00        -0.67295E+08
 
   -0.67183E+08         0.12567E+07         0.00000E+00
    0.12567E+07        -0.97742E+08         0.00000E+00
    0.00000E+00         0.00000E+00        -0.67142E+08
 
   -0.67037E+08         0.12200E+07         0.00000E+00
    0.12200E+07        -0.97771E+08         0.00000E+00
    0.00000E+00         0.00000E+00        -0.66990E+08
 
   -0.66893E+08         0.11794E+07         0.00000E+00
    0.11794E+07        -0.97803E+08         0.00000E+00
    0.00000E+00         0.00000E+00        -0.66840E+08
 
   -0.66750E+08         0.11349E+07         0.00000E+00
    0.11349E+07        -0.97838E+08         0.00000E+00
    0.00000E+00         0.00000E+00        -0.66691E+08
 
   -0.66609E+08         0.10864E+07         0.00000E+00
    0.10864E+07        -0.97876E+08         0.00000E+00
    0.00000E+00         0.00000E+00        -0.66544E+08
 
   -0.66468E+08         0.10338E+07         0.00000E+00
    0.10338E+07        -0.97915E+08         0.00000E+00
    0.00000E+00         0.00000E+00        -0.66397E+08
 
   -0.66326E+08         0.97721E+06         0.00000E+00
    0.97721E+06        -0.97954E+08         0.00000E+00
    0.00000E+00         0.00000E+00        -0.66250E+08
 
   -0.66184E+08         0.91622E+06         0.00000E+00
    0.91622E+06        -0.97990E+08         0.00000E+00
    0.00000E+00         0.00000E+00        -0.66101E+08
 
   -0.66040E+08         0.84996E+06         0.00000E+00
    0.84996E+06        -0.98020E+08         0.00000E+00
    0.00000E+00         0.00000E+00        -0.65949E+08
 
   -0.65893E+08         0.77692E+06         0.00000E+00
    0.77692E+06        -0.98042E+08         0.00000E+00
    0.00000E+00         0.00000E+00        -0.65791E+08
 
   -0.65742E+08         0.69370E+06         0.00000E+00
    0.69370E+06        -0.98052E+08         0.00000E+00
    0.00000E+00         0.00000E+00        -0.65623E+08
 
   -0.65588E+08         0.59597E+06         0.00000E+00
    0.59597E+06        -0.98047E+08         0.00000E+00
    0.00000E+00         0.00000E+00        -0.65442E+08
 
   -0.65432E+08         0.47491E+06         0.00000E+00
    0.47491E+06        -0.98023E+08         0.00000E+00
    0.00000E+00         0.00000E+00        -0.65245E+08
 
   -0.65275E+08         0.31101E+06         0.00000E+00
    0.31101E+06        -0.97965E+08         0.00000E+00
    0.00000E+00         0.00000E+00        -0.65011E+08
 
   -0.65158E+08         0.10765E+06         0.00000E+00
    0.10765E+06        -0.97873E+08         0.00000E+00
    0.00000E+00         0.00000E+00        -0.64707E+08
 
   -0.83705E+08         0.14003E+06         0.00000E+00
    0.14003E+06        -0.97239E+08         0.00000E+00
    0.00000E+00         0.00000E+00        -0.84465E+08
 
   -0.83553E+08         0.40773E+06         0.00000E+00
    0.40773E+06        -0.97004E+08         0.00000E+00
    0.00000E+00         0.00000E+00        -0.84104E+08
 
   -0.83310E+08         0.64294E+06         0.00000E+00
    0.64294E+06        -0.96882E+08         0.00000E+00
    0.00000E+00         0.00000E+00        -0.83742E+08
 
   -0.83028E+08         0.84033E+06         0.00000E+00
    0.84033E+06        -0.96844E+08         0.00000E+00
    0.00000E+00         0.00000E+00        -0.83381E+08
 
   -0.82730E+08         0.10049E+07         0.00000E+00
    0.10049E+07        -0.96864E+08         0.00000E+00
    0.00000E+00         0.00000E+00        -0.83019E+08
 
   -0.82426E+08         0.11401E+07         0.00000E+00
    0.11401E+07        -0.96927E+08         0.00000E+00
    0.00000E+00         0.00000E+00        -0.82658E+08
 
   -0.82121E+08         0.12472E+07         0.00000E+00
    0.12472E+07        -0.97025E+08         0.00000E+00
    0.00000E+00         0.00000E+00        -0.82297E+08
 
   -0.81825E+08         0.13263E+07         0.00000E+00
    0.13263E+07        -0.97152E+08         0.00000E+00
    0.00000E+00         0.00000E+00        -0.81936E+08
 
   -0.81552E+08         0.13714E+07         0.00000E+00
    0.13714E+07        -0.97290E+08         0.00000E+00
    0.00000E+00         0.00000E+00        -0.81586E+08
 
   -0.81319E+08         0.13741E+07         0.00000E+00
    0.13741E+07        -0.97314E+08         0.00000E+00
    0.00000E+00         0.00000E+00        -0.81385E+08
 
   -0.81130E+08         0.13706E+07         0.00000E+00
    0.13706E+07        -0.97294E+08         0.00000E+00
    0.00000E+00         0.00000E+00        -0.81261E+08
 
   -0.80968E+08         0.13842E+07         0.00000E+00
    0.13842E+07        -0.97292E+08         0.00000E+00
    0.00000E+00         0.00000E+00        -0.81130E+08
 
   -0.80813E+08         0.14143E+07         0.00000E+00
    0.14143E+07        -0.97299E+08         0.00000E+00
    0.00000E+00         0.00000E+00        -0.80989E+08
 
   -0.80659E+08         0.14541E+07         0.00000E+00
    0.14541E+07        -0.97312E+08         0.00000E+00
    0.00000E+00         0.00000E+00        -0.80837E+08
 
   -0.80500E+08         0.14991E+07         0.00000E+00
    0.14991E+07        -0.97330E+08         0.00000E+00
    0.00000E+00         0.00000E+00        -0.80675E+08
 
   -0.80334E+08         0.15465E+07         0.00000E+00
    0.15465E+07        -0.97350E+08         0.00000E+00
    0.00000E+00         0.00000E+00        -0.80503E+08
 
   -0.80160E+08         0.15939E+07         0.00000E+00
    0.15939E+07        -0.97372E+08         0.00000E+00
    0.00000E+00         0.00000E+00        -0.80320E+08
 
   -0.79978E+08         0.16400E+07         0.00000E+00
    0.16400E+07        -0.97395E+08         0.00000E+00
    0.00000E+00         0.00000E+00        -0.80127E+08
 
   -0.79788E+08         0.16835E+07         0.00000E+00
    0.16835E+07        -0.97419E+08         0.00000E+00
    0.00000E+00         0.00000E+00        -0.79924E+08
 
   -0.79589E+08         0.17234E+07         0.00000E+00
    0.17234E+07        -0.97444E+08         0.00000E+00
    0.00000E+00         0.00000E+00        -0.79712E+08
 
   -0.79383E+08         0.17591E+07         0.00000E+00
    0.17591E+07        -0.97471E+08         0.00000E+00
    0.00000E+00         0.00000E+00        -0.79493E+08
 
   -0.79169E+08         0.17900E+07         0.00000E+00
    0.17900E+07        -0.97500E+08         0.00000E+00
    0.00000E+00         0.00000E+00        -0.79265E+08
 
   -0.78949E+08         0.18157E+07         0.00000E+00
    0.18157E+07        -0.97530E+08         0.00000E+00
    0.00000E+00         0.00000E+00        -0.79031E+08
 
   -0.78724E+08         0.18355E+07         0.00000E+00
    0.18355E+07        -0.97562E+08         0.00000E+00
    0.00000E+00         0.00000E+00        -0.78789E+08
 
   -0.78494E+08         0.18493E+07         0.00000E+00
    0.18493E+07        -0.97594E+08         0.00000E+00
    0.00000E+00         0.00000E+00        -0.78542E+08
 
   -0.78267E+08         0.18581E+07         0.00000E+00
    0.18581E+07        -0.97623E+08         0.00000E+00
    0.00000E+00         0.00000E+00        -0.78290E+08
 
   -0.78044E+08         0.18542E+07         0.00000E+00
    0.18542E+07        -0.97625E+08         0.00000E+00
    0.00000E+00         0.00000E+00        -0.78065E+08
 
   -0.77827E+08         0.18472E+07         0.00000E+00
    0.18472E+07        -0.97609E+08         0.00000E+00
    0.00000E+00         0.00000E+00        -0.77863E+08
 
   -0.77615E+08         0.18444E+07         0.00000E+00
    0.18444E+07        -0.97598E+08         0.00000E+00
    0.00000E+00         0.00000E+00        -0.77658E+08
 
   -0.77404E+08         0.18441E+07         0.00000E+00
    0.18441E+07        -0.97591E+08         0.00000E+00
    0.00000E+00         0.00000E+00        -0.77449E+08
 
   -0.77192E+08         0.18456E+07         0.00000E+00
    0.18456E+07        -0.97588E+08         0.00000E+00
    0.00000E+00         0.00000E+00        -0.77237E+08
 
   -0.76978E+08         0.18477E+07         0.00000E+00
    0.18477E+07        -0.97587E+08         0.00000E+00
    0.00000E+00         0.00000E+00        -0.77022E+08
 
   -0.76763E+08         0.18498E+07         0.00000E+00
    0.18498E+07        -0.97589E+08         0.00000E+00
    0.00000E+00         0.00000E+00        -0.76804E+08
 
   -0.76546E+08         0.18514E+07         0.00000E+00
    0.18514E+07        -0.97593E+08         0.00000E+00
    0.00000E+00         0.00000E+00        -0.76583E+08
 
   -0.76327E+08         0.18520E+07         0.00000E+00
    0.18520E+07        -0.97600E+08         0.00000E+00
    0.00000E+00         0.00000E+00        -0.76361E+08
 
   -0.76107E+08         0.18510E+07         0.00000E+00
    0.18510E+07        -0.97610E+08         0.00000E+00
    0.00000E+00         0.00000E+00        -0.76136E+08
 
   -0.75885E+08         0.18482E+07         0.00000E+00
    0.18482E+07        -0.97622E+08         0.00000E+00
    0.00000E+00         0.00000E+00        -0.75909E+08
 
   -0.75663E+08         0.18431E+07         0.00000E+00
    0.18431E+07        -0.97636E+08         0.00000E+00
    0.00000E+00         0.00000E+00        -0.75680E+08
 
   -0.75441E+08         0.18352E+07         0.00000E+00
    0.18352E+07        -0.97652E+08         0.00000E+00
    0.00000E+00         0.00000E+00        -0.75450E+08
 
   -0.75221E+08         0.18240E+07         0.00000E+00
    0.18240E+07        -0.97667E+08         0.00000E+00
    0.00000E+00         0.00000E+00        -0.75218E+08
 
   -0.75006E+08         0.18095E+07         0.00000E+00
    0.18095E+07        -0.97673E+08         0.00000E+00
    0.00000E+00         0.00000E+00        -0.74997E+08
 
   -0.74797E+08         0.17894E+07         0.00000E+00
    0.17894E+07        -0.97662E+08         0.00000E+00
    0.00000E+00         0.00000E+00        -0.74798E+08
 
   -0.74592E+08         0.17730E+07         0.00000E+00
    0.17730E+07        -0.97654E+08         0.00000E+00
    0.00000E+00         0.00000E+00        -0.74599E+08
 
   -0.74390E+08         0.17585E+07         0.00000E+00
    0.17585E+07        -0.97650E+08         0.00000E+00
    0.00000E+00         0.00000E+00        -0.74400E+08
 
   -0.74190E+08         0.17453E+07         0.00000E+00
    0.17453E+07        -0.97650E+08         0.00000E+00
    0.00000E+00         0.00000E+00        -0.74200E+08
 
   -0.73990E+08         0.17326E+07         0.00000E+00
    0.17326E+07        -0.97652E+08         0.00000E+00
    0.00000E+00         0.00000E+00        -0.74000E+08
 
   -0.73791E+08         0.17198E+07         0.00000E+00
    0.17198E+07        -0.97656E+08         0.00000E+00
    0.00000E+00         0.00000E+00        -0.73799E+08
 
   -0.73593E+08         0.17063E+07         0.00000E+00
    0.17063E+07        -0.97662E+08         0.00000E+00
    0.00000E+00         0.00000E+00        -0.73598E+08
 
   -0.73398E+08         0.16923E+07         0.00000E+00
    0.16923E+07        -0.97670E+08         0.00000E+00
    0.00000E+00         0.00000E+00        -0.73396E+08
 
   -0.73206E+08         0.16762E+07         0.00000E+00
    0.16762E+07        -0.97668E+08         0.00000E+00
    0.00000E+00         0.00000E+00        -0.73205E+08
 
   -0.73018E+08         0.16599E+07         0.00000E+00
    0.16599E+07        -0.97660E+08         0.00000E+00
    0.00000E+00         0.00000E+00        -0.73023E+08
 
   -0.72833E+08         0.16454E+07         0.00000E+00
    0.16454E+07        -0.97655E+08         0.00000E+00
    0.00000E+00         0.00000E+00        -0.72840E+08
 
   -0.72649E+08         0.16322E+07         0.00000E+00
    0.16322E+07        -0.97651E+08         0.00000E+00
    0.00000E+00         0.00000E+00        -0.72658E+08
 
   -0.72467E+08         0.16200E+07         0.00000E+00
    0.16200E+07        -0.97649E+08         0.00000E+00
    0.00000E+00         0.00000E+00        -0.72476E+08
 
   -0.72285E+08         0.16085E+07         0.00000E+00
    0.16085E+07        -0.97649E+08         0.00000E+00
    0.00000E+00         0.00000E+00        -0.72295E+08
 
   -0.72104E+08         0.15972E+07         0.00000E+00
    0.15972E+07        -0.97650E+08         0.00000E+00
    0.00000E+00         0.00000E+00        -0.72113E+08
 
   -0.71925E+08         0.15860E+07         0.00000E+00
    0.15860E+07        -0.97652E+08         0.00000E+00
    0.00000E+00         0.00000E+00        -0.71931E+08
 
   -0.71747E+08         0.15752E+07         0.00000E+00
    0.15752E+07        -0.97652E+08         0.00000E+00
    0.00000E+00         0.00000E+00        -0.71753E+08
 
   -0.71571E+08         0.15636E+07         0.00000E+00
    0.15636E+07        -0.97647E+08         0.00000E+00
    0.00000E+00         0.00000E+00        -0.71580E+08
 
   -0.71398E+08         0.15533E+07         0.00000E+00
    0.15533E+07        -0.97642E+08         0.00000E+00
    0.00000E+00         0.00000E+00        -0.71409E+08
 
   -0.71225E+08         0.15440E+07         0.00000E+00
    0.15440E+07        -0.97639E+08         0.00000E+00
    0.00000E+00         0.00000E+00        -0.71237E+08
 
   -0.71054E+08         0.15357E+07         0.00000E+00
    0.15357E+07        -0.97636E+08         0.00000E+00
    0.00000E+00         0.00000E+00        -0.71066E+08
 
   -0.70882E+08         0.15280E+07         0.00000E+00
    0.15280E+07        -0.97634E+08         0.00000E+00
    0.00000E+00         0.00000E+00        -0.70895E+08
 
   -0.70712E+08         0.15208E+07         0.00000E+00
    0.15208E+07        -0.97633E+08         0.00000E+00
    0.00000E+00         0.00000E+00        -0.70725E+08
 
   -0.70542E+08         0.15139E+07         0.00000E+00
    0.15139E+07        -0.97632E+08         0.00000E+00
    0.00000E+00         0.00000E+00        -0.70555E+08
 
   -0.70372E+08         0.15073E+07         0.00000E+00
    0.15073E+07        -0.97632E+08         0.00000E+00
    0.00000E+00         0.00000E+00        -0.70384E+08
 
   -0.70203E+08         0.15008E+07         0.00000E+00
    0.15008E+07        -0.97632E+08         0.00000E+00
    0.00000E+00         0.00000E+00        -0.70215E+08
 
   -0.70034E+08         0.14944E+07         0.00000E+00
    0.14944E+07        -0.97632E+08         0.00000E+00
    0.00000E+00         0.00000E+00        -0.70045E+08
 
   -0.69868E+08         0.14876E+07         0.00000E+00
    0.14876E+07        -0.97630E+08         0.00000E+00
    0.00000E+00         0.00000E+00        -0.69878E+08
 
   -0.69704E+08         0.14805E+07         0.00000E+00
    0.14805E+07        -0.97628E+08         0.00000E+00
    0.00000E+00         0.00000E+00        -0.69713E+08
 
   -0.69541E+08         0.14731E+07         0.00000E+00
    0.14731E+07        -0.97625E+08         0.00000E+00
    0.00000E+00         0.00000E+00        -0.69548E+08
 
   -0.69377E+08         0.14655E+07         0.00000E+00
    0.14655E+07        -0.97623E+08         0.00000E+00
    0.00000E+00         0.00000E+00        -0.69383E+08
 
   -0.69215E+08         0.14573E+07         0.00000E+00
    0.14573E+07        -0.97622E+08         0.00000E+00
    0.00000E+00         0.00000E+00        -0.69219E+08
 
   -0.69053E+08         0.14487E+07         0.00000E+00
    0.14487E+07        -0.97621E+08         0.00000E+00
    0.00000E+00         0.00000E+00        -0.69055E+08
 
   -0.68891E+08         0.14393E+07         0.00000E+00
    0.14393E+07        -0.97621E+08         0.00000E+00
    0.00000E+00         0.00000E+00        -0.68891E+08
 
   -0.68730E+08         0.14290E+07         0.00000E+00
    0.14290E+07        -0.97622E+08         0.00000E+00
    0.00000E+00         0.00000E+00        -0.68727E+08
 
   -0.68570E+08         0.14177E+07         0.00000E+00
    0.14177E+07        -0.97624E+08         0.00000E+00
    0.00000E+00         0.00000E+00        -0.68564E+08
 
   -0.68410E+08         0.14051E+07         0.00000E+00
    0.14051E+07        -0.97627E+08         0.00000E+00
    0.00000E+00         0.00000E+00        -0.68401E+08
 
   -0.68252E+08         0.13911E+07         0.00000E+00
    0.13911E+07        -0.97632E+08         0.00000E+00
    0.00000E+00         0.00000E+00        -0.68239E+08
 
   -0.68094E+08         0.13753E+07         0.00000E+00
    0.13753E+07        -0.97638E+08         0.00000E+00
    0.00000E+00         0.00000E+00        -0.68077E+08
 
   -0.67938E+08         0.13574E+07         0.00000E+00
    0.13574E+07        -0.97647E+08         0.00000E+00
    0.00000E+00         0.00000E+00        -0.67916E+08
 
   -0.67784E+08         0.13373E+07         0.00000E+00
    0.13373E+07        -0.97658E+08         0.00000E+00
    0.00000E+00         0.00000E+00        -0.67757E+08
 
   -0.67631E+08         0.13145E+07         0.00000E+00
    0.13145E+07        -0.97672E+08         0.00000E+00
    0.00000E+00         0.00000E+00        -0.67598E+08
 
   -0.67479E+08         0.12887E+07         0.00000E+00
    0.12887E+07        -0.97690E+08         0.00000E+00
    0.00000E+00         0.00000E+00        -0.67440E+08
 
   -0.67330E+08         0.12597E+07         0.00000E+00
    0.12597E+07        -0.97710E+08         0.00000E+00
    0.00000E+00         0.00000E+00        -0.67284E+08
 
   -0.67183E+08         0.12271E+07         0.00000E+00
    0.12271E+07        -0.97735E+08         0.00000E+00
    0.00000E+00         0.00000E+00        -0.67130E+08
 
   -0.67037E+08         0.11909E+07         0.00000E+00
    0.11909E+07        -0.97763E+08         0.00000E+00
    0.00000E+00         0.00000E+00        -0.66977E+08
 
   -0.66894E+08         0.11506E+07         0.00000E+00
    0.11506E+07        -0.97794E+08         0.00000E+00
    0.00000E+00         0.00000E+00        -0.66825E+08
 
   -0.66752E+08         0.11064E+07         0.00000E+00
    0.11064E+07        -0.97829E+08         0.00000E+00
    0.00000E+00         0.00000E+00        -0.66676E+08
 
   -0.66611E+08         0.10581E+07         0.00000E+00
    0.10581E+07        -0.97866E+08         0.00000E+00
    0.00000E+00         0.00000E+00        -0.66527E+08
 
   -0.66470E+08         0.10056E+07         0.00000E+00
    0.10056E+07        -0.97904E+08         0.00000E+00
    0.00000E+00         0.00000E+00        -0.66379E+08
 
   -0.66330E+08         0.94884E+06         0.00000E+00
    0.94884E+06        -0.97942E+08         0.00000E+00
    0.00000E+00         0.00000E+00        -0.66231E+08
 
   -0.66188E+08         0.88751E+06         0.00000E+00
    0.88751E+06        -0.97977E+08         0.00000E+00
    0.00000E+00         0.00000E+00        -0.66081E+08
 
   -0.66045E+08         0.82079E+06         0.00000E+00
    0.82079E+06        -0.98007E+08         0.00000E+00
    0.00000E+00         0.00000E+00        -0.65927E+08
 
   -0.65899E+08         0.74707E+06         0.00000E+00
    0.74707E+06        -0.98028E+08         0.00000E+00
    0.00000E+00         0.00000E+00        -0.65766E+08
 
   -0.65750E+08         0.66319E+06         0.00000E+00
    0.66319E+06        -0.98035E+08         0.00000E+00
    0.00000E+00         0.00000E+00        -0.65595E+08
 
   -0.65599E+08         0.56509E+06         0.00000E+00
    0.56509E+06        -0.98027E+08         0.00000E+00
    0.00000E+00         0.00000E+00        -0.65409E+08
 
   -0.65445E+08         0.44268E+06         0.00000E+00
    0.44268E+06        -0.97997E+08         0.00000E+00
    0.00000E+00         0.00000E+00        -0.65202E+08
 
   -0.65298E+08         0.28272E+06         0.00000E+00
    0.28272E+06        -0.97930E+08         0.00000E+00
    0.00000E+00         0.00000E+00        -0.64951E+08
 
   -0.65196E+08         0.96052E+05         0.00000E+00
    0.96052E+05        -0.97835E+08         0.00000E+00
    0.00000E+00         0.00000E+00        -0.64630E+08
 
   -0.83566E+08         0.12474E+06         0.00000E+00
    0.12474E+06        -0.97292E+08         0.00000E+00
    0.00000E+00         0.00000E+00        -0.84465E+08
 
   -0.83433E+08         0.36811E+06         0.00000E+00
    0.36811E+06        -0.97053E+08         0.00000E+00
    0.00000E+00         0.00000E+00        -0.84104E+08
 
   -0.83211E+08         0.59087E+06         0.00000E+00
    0.59087E+06        -0.96924E+08         0.00000E+00
    0.00000E+00         0.00000E+00        -0.83742E+08
 
   -0.82946E+08         0.78334E+06         0.00000E+00
    0.78334E+06        -0.96880E+08         0.00000E+00
    0.00000E+00         0.00000E+00        -0.83381E+08
 
   -0.82663E+08         0.94566E+06         0.00000E+00
    0.94566E+06        -0.96893E+08         0.00000E+00
    0.00000E+00         0.00000E+00        -0.83019E+08
 
   -0.82371E+08         0.10801E+07         0.00000E+00
    0.10801E+07        -0.96951E+08         0.00000E+00
    0.00000E+00         0.00000E+00        -0.82658E+08
 
   -0.82078E+08         0.11878E+07         0.00000E+00
    0.11878E+07        -0.97044E+08         0.00000E+00
    0.00000E+00         0.00000E+00        -0.82297E+08
 
   -0.81792E+08         0.12696E+07         0.00000E+00
    0.12696E+07        -0.97165E+08         0.00000E+00
    0.00000E+00         0.00000E+00        -0.81936E+08
 
   -0.81528E+08         0.13216E+07         0.00000E+00
    0.13216E+07        -0.97295E+08         0.00000E+00
    0.00000E+00         0.00000E+00        -0.81588E+08
 
   -0.81293E+08         0.13309E+07         0.00000E+00
    0.13309E+07        -0.97313E+08         0.00000E+00
    0.00000E+00         0.00000E+00        -0.81384E+08
 
   -0.81097E+08         0.13353E+07         0.00000E+00
    0.13353E+07        -0.97296E+08         0.00000E+00
    0.00000E+00         0.00000E+00        -0.81257E+08
 
   -0.80927E+08         0.13524E+07         0.00000E+00
    0.13524E+07        -0.97297E+08         0.00000E+00
    0.00000E+00         0.00000E+00        -0.81123E+08
 
   -0.80769E+08         0.13833E+07         0.00000E+00
    0.13833E+07        -0.97306E+08         0.00000E+00
    0.00000E+00         0.00000E+00        -0.80980E+08
 
   -0.80613E+08         0.14227E+07         0.00000E+00
    0.14227E+07        -0.97321E+08         0.00000E+00
    0.00000E+00         0.00000E+00        -0.80827E+08
 
   -0.80453E+08         0.14667E+07         0.00000E+00
    0.14667E+07        -0.97339E+08         0.00000E+00
    0.00000E+00         0.00000E+00        -0.80664E+08
 
   -0.80288E+08         0.15126E+07         0.00000E+00
    0.15126E+07        -0.97359E+08         0.00000E+00
    0.00000E+00         0.00000E+00        -0.80490E+08
 
   -0.80115E+08         0.15585E+07         0.00000E+00
    0.15585E+07        -0.97381E+08         0.00000E+00
    0.00000E+00         0.00000E+00        -0.80306E+08
 
   -0.79934E+08         0.16029E+07         0.00000E+00
    0.16029E+07        -0.97404E+08         0.00000E+00
    0.00000E+00         0.00000E+00        -0.80112E+08
 
   -0.79746E+08         0.16448E+07         0.00000E+00
    0.16448E+07        -0.97427E+08         0.00000E+00
    0.00000E+00         0.00000E+00        -0.79909E+08
 
   -0.79549E+08         0.16831E+07         0.00000E+00
    0.16831E+07        -0.97452E+08         0.00000E+00
    0.00000E+00         0.00000E+00        -0.79697E+08
 
   -0.79345E+08         0.17173E+07         0.00000E+00
    0.17173E+07        -0.97478E+08         0.00000E+00
    0.00000E+00         0.00000E+00        -0.79477E+08
 
   -0.79134E+08         0.17469E+07         0.00000E+00
    0.17469E+07        -0.97505E+08         0.00000E+00
    0.00000E+00         0.00000E+00        -0.79249E+08
 
   -0.78917E+08         0.17714E+07         0.00000E+00
    0.17714E+07        -0.97534E+08         0.00000E+00
    0.00000E+00         0.00000E+00        -0.79014E+08
 
   -0.78694E+08         0.17903E+07         0.00000E+00
    0.17903E+07        -0.97565E+08         0.00000E+00
    0.00000E+00         0.00000E+00        -0.78773E+08
 
   -0.78469E+08         0.18036E+07         0.00000E+00
    0.18036E+07        -0.97596E+08         0.00000E+00
    0.00000E+00         0.00000E+00        -0.78526E+08
 
   -0.78245E+08         0.18139E+07         0.00000E+00
    0.18139E+07        -0.97624E+08         0.00000E+00
    0.00000E+00         0.00000E+00        -0.78275E+08
 
   -0.78024E+08         0.18099E+07         0.00000E+00
    0.18099E+07        -0.97622E+08         0.00000E+00
    0.00000E+00         0.00000E+00        -0.78054E+08
 
   -0.77808E+08         0.18045E+07         0.00000E+00
    0.18045E+07        -0.97609E+08         0.00000E+00
    0.00000E+00         0.00000E+00        -0.77852E+08
 
   -0.77595E+08         0.18021E+07         0.00000E+00
    0.18021E+07        -0.97598E+08         0.00000E+00
    0.00000E+00         0.00000E+00        -0.77646E+08
 
   -0.77384E+08         0.18019E+07         0.00000E+00
    0.18019E+07        -0.97591E+08         0.00000E+00
    0.00000E+00         0.00000E+00        -0.77437E+08
 
   -0.77172E+08         0.18030E+07         0.00000E+00
    0.18030E+07        -0.97588E+08         0.00000E+00
    0.00000E+00         0.00000E+00        -0.77225E+08
 
   -0.76958E+08         0.18048E+07         0.00000E+00
    0.18048E+07        -0.97587E+08         0.00000E+00
    0.00000E+00         0.00000E+00        -0.77010E+08
 
   -0.76743E+08         0.18066E+07         0.00000E+00
    0.18066E+07        -0.97589E+08         0.00000E+00
    0.00000E+00         0.00000E+00        -0.76792E+08
 
   -0.76527E+08         0.18079E+07         0.00000E+00
    0.18079E+07        -0.97593E+08         0.00000E+00
    0.00000E+00         0.00000E+00        -0.76572E+08
 
   -0.76309E+08         0.18082E+07         0.00000E+00
    0.18082E+07        -0.97600E+08         0.00000E+00
    0.00000E+00         0.00000E+00        -0.76350E+08
 
   -0.76090E+08         0.18070E+07         0.00000E+00
    0.18070E+07        -0.97610E+08         0.00000E+00
    0.00000E+00         0.00000E+00        -0.76125E+08
 
   -0.75870E+08         0.18040E+07         0.00000E+00
    0.18040E+07        -0.97621E+08         0.00000E+00
    0.00000E+00         0.00000E+00        -0.75899E+08
 
   -0.75649E+08         0.17988E+07         0.00000E+00
    0.17988E+07        -0.97635E+08         0.00000E+00
    0.00000E+00         0.00000E+00        -0.75670E+08
 
   -0.75429E+08         0.17911E+07         0.00000E+00
    0.17911E+07        -0.97650E+08         0.00000E+00
    0.00000E+00         0.00000E+00        -0.75440E+08
 
   -0.75212E+08         0.17809E+07         0.00000E+00
    0.17809E+07        -0.97665E+08         0.00000E+00
    0.00000E+00         0.00000E+00        -0.75209E+08
 
   -0.74997E+08         0.17669E+07         0.00000E+00
    0.17669E+07        -0.97670E+08         0.00000E+00
    0.00000E+00         0.00000E+00        -0.74990E+08
 
   -0.74789E+08         0.17481E+07         0.00000E+00
    0.17481E+07        -0.97659E+08         0.00000E+00
    0.00000E+00         0.00000E+00        -0.74792E+08
 
   -0.74584E+08         0.17324E+07         0.00000E+00
    0.17324E+07        -0.97651E+08         0.00000E+00
    0.00000E+00         0.00000E+00        -0.74593E+08
 
   -0.74382E+08         0.17183E+07         0.00000E+00
    0.17183E+07        -0.97648E+08         0.00000E+00
    0.00000E+00         0.00000E+00        -0.74394E+08
 
   -0.74181E+08         0.17053E+07         0.00000E+00
    0.17053E+07        -0.97647E+08         0.00000E+00
    0.00000E+00         0.00000E+00        -0.74194E+08
 
   -0.73982E+08         0.16927E+07         0.00000E+00
    0.16927E+07        -0.97649E+08         0.00000E+00
    0.00000E+00         0.00000E+00        -0.73994E+08
 
   -0.73783E+08         0.16801E+07         0.00000E+00
    0.16801E+07        -0.97654E+08         0.00000E+00
    0.00000E+00         0.00000E+00        -0.73793E+08
 
   -0.73586E+08         0.16670E+07         0.00000E+00
    0.16670E+07        -0.97660E+08         0.00000E+00
    0.00000E+00         0.00000E+00        -0.73592E+08
 
   -0.73392E+08         0.16537E+07         0.00000E+00
    0.16537E+07        -0.97667E+08         0.00000E+00
    0.00000E+00         0.00000E+00        -0.73390E+08
 
   -0.73200E+08         0.16382E+07         0.00000E+00
    0.16382E+07        -0.97665E+08         0.00000E+00
    0.00000E+00         0.00000E+00        -0.73200E+08
 
   -0.73012E+08         0.16226E+07         0.00000E+00
    0.16226E+07        -0.97657E+08         0.00000E+00
    0.00000E+00         0.00000E+00        -0.73018E+08
 
   -0.72827E+08         0.16085E+07         0.00000E+00
    0.16085E+07        -0.97652E+08         0.00000E+00
    0.00000E+00         0.00000E+00        -0.72836E+08
 
   -0.72643E+08         0.15955E+07         0.00000E+00
    0.15955E+07        -0.97648E+08         0.00000E+00
    0.00000E+00         0.00000E+00        -0.72654E+08
 
   -0.72460E+08         0.15836E+07         0.00000E+00
    0.15836E+07        -0.97647E+08         0.00000E+00
    0.00000E+00         0.00000E+00        -0.72472E+08
 
   -0.72278E+08         0.15722E+07         0.00000E+00
    0.15722E+07        -0.97647E+08         0.00000E+00
    0.00000E+00         0.00000E+00        -0.72290E+08
 
   -0.72098E+08         0.15612E+07         0.00000E+00
    0.15612E+07        -0.97648E+08         0.00000E+00
    0.00000E+00         0.00000E+00        -0.72109E+08
 
   -0.71919E+08         0.15503E+07         0.00000E+00
    0.15503E+07        -0.97650E+08         0.00000E+00
    0.00000E+00         0.00000E+00        -0.71927E+08
 
   -0.71741E+08         0.15399E+07         0.00000E+00
    0.15399E+07        -0.97650E+08         0.00000E+00
    0.00000E+00         0.00000E+00        -0.71749E+08
 
   -0.71566E+08         0.15286E+07         0.00000E+00
    0.15286E+07        -0.97645E+08         0.00000E+00
    0.00000E+00         0.00000E+00        -0.71576E+08
 
   -0.71392E+08         0.15186E+07         0.00000E+00
    0.15186E+07        -0.97640E+08         0.00000E+00
    0.00000E+00         0.00000E+00        -0.71405E+08
 
   -0.71219E+08         0.15096E+07         0.00000E+00
    0.15096E+07        -0.97637E+08         0.00000E+00
    0.00000E+00         0.00000E+00        -0.71234E+08
 
   -0.71047E+08         0.15014E+07         0.00000E+00
    0.15014E+07        -0.97634E+08         0.00000E+00
    0.00000E+00         0.00000E+00        -0.71062E+08
 
   -0.70876E+08         0.14938E+07         0.00000E+00
    0.14938E+07        -0.97632E+08         0.00000E+00
    0.00000E+00         0.00000E+00        -0.70892E+08
 
   -0.70705E+08         0.14867E+07         0.00000E+00
    0.14867E+07        -0.97631E+08         0.00000E+00
    0.00000E+00         0.00000E+00        -0.70721E+08
 
   -0.70535E+08         0.14800E+07         0.00000E+00
    0.14800E+07        -0.97631E+08         0.00000E+00
    0.00000E+00         0.00000E+00        -0.70550E+08
 
   -0.70366E+08         0.14734E+07         0.00000E+00
    0.14734E+07        -0.97630E+08         0.00000E+00
    0.00000E+00         0.00000E+00        -0.70380E+08
 
   -0.70197E+08         0.14670E+07         0.00000E+00
    0.14670E+07        -0.97630E+08         0.00000E+00
    0.00000E+00         0.00000E+00        -0.70210E+08
 
   -0.70028E+08         0.14606E+07         0.00000E+00
    0.14606E+07        -0.97631E+08         0.00000E+00
    0.00000E+00         0.00000E+00        -0.70041E+08
 
   -0.69863E+08         0.14539E+07         0.00000E+00
    0.14539E+07        -0.97628E+08         0.00000E+00
    0.00000E+00         0.00000E+00        -0.69874E+08
 
   -0.69699E+08         0.14469E+07         0.00000E+00
    0.14469E+07        -0.97626E+08         0.00000E+00
    0.00000E+00         0.00000E+00        -0.69709E+08
 
   -0.69535E+08         0.14397E+07         0.00000E+00
    0.14397E+07        -0.97623E+08         0.00000E+00
    0.00000E+00         0.00000E+00        -0.69544E+08
 
   -0.69372E+08         0.14321E+07         0.00000E+00
    0.14321E+07        -0.97621E+08         0.00000E+00
    0.00000E+00         0.00000E+00        -0.69379E+08
 
   -0.69210E+08         0.14241E+07         0.00000E+00
    0.14241E+07        -0.97619E+08         0.00000E+00
    0.00000E+00         0.00000E+00        -0.69214E+08
 
   -0.69048E+08         0.14156E+07         0.00000E+00
    0.14156E+07        -0.97618E+08         0.00000E+00
    0.00000E+00         0.00000E+00        -0.69050E+08
 
   -0.68886E+08         0.14064E+07         0.00000E+00
    0.14064E+07        -0.97618E+08         0.00000E+00
    0.00000E+00         0.00000E+00        -0.68886E+08
 
   -0.68726E+08         0.13963E+07         0.00000E+00
    0.13963E+07        -0.97619E+08         0.00000E+00
    0.00000E+00         0.00000E+00        -0.68722E+08
 
   -0.68566E+08         0.13852E+07         0.00000E+00
    0.13852E+07        -0.97621E+08         0.00000E+00
    0.00000E+00         0.00000E+00        -0.68558E+08
 
   -0.68406E+08         0.13728E+07         0.00000E+00
    0.13728E+07        -0.97624E+08         0.00000E+00
    0.00000E+00         0.00000E+00        -0.68395E+08
 
   -0.68248E+08         0.13591E+07         0.00000E+00
    0.13591E+07        -0.97628E+08         0.00000E+00
    0.00000E+00         0.00000E+00        -0.68232E+08
 
   -0.68091E+08         0.13435E+07         0.00000E+00
    0.13435E+07        -0.97634E+08         0.00000E+00
    0.00000E+00         0.00000E+00        -0.68070E+08
 
   -0.67936E+08         0.13260E+07         0.00000E+00
    0.13260E+07        -0.97643E+08         0.00000E+00
    0.00000E+00         0.00000E+00        -0.67909E+08
 
   -0.67781E+08         0.13062E+07         0.00000E+00
    0.13062E+07        -0.97653E+08         0.00000E+00
    0.00000E+00         0.00000E+00        -0.67748E+08
 
   -0.67629E+08         0.12838E+07         0.00000E+00
    0.12838E+07        -0.97667E+08         0.00000E+00
    0.00000E+00         0.00000E+00        -0.67588E+08
 
   -0.67478E+08         0.12584E+07         0.00000E+00
    0.12584E+07        -0.97684E+08         0.00000E+00
    0.00000E+00         0.00000E+00        -0.67430E+08
 
   -0.67329E+08         0.12298E+07         0.00000E+00
    0.12298E+07        -0.97704E+08         0.00000E+00
    0.00000E+00         0.00000E+00        -0.67273E+08
 
   -0.67182E+08         0.11977E+07         0.00000E+00
    0.11977E+07        -0.97727E+08         0.00000E+00
    0.00000E+00         0.00000E+00        -0.67117E+08
 
   -0.67038E+08         0.11619E+07         0.00000E+00
    0.11619E+07        -0.97754E+08         0.00000E+00
    0.00000E+00         0.00000E+00        -0.66963E+08
 
   -0.66895E+08         0.11220E+07         0.00000E+00
    0.11220E+07        -0.97785E+08         0.00000E+00
    0.00000E+00         0.00000E+00        -0.66811E+08
 
   -0.66753E+08         0.10781E+07         0.00000E+00
    0.10781E+07        -0.97819E+08         0.00000E+00
    0.00000E+00         0.00000E+00        -0.66660E+08
 
   -0.66613E+08         0.10299E+07         0.00000E+00
    0.10299E+07        -0.97856E+08         0.00000E+00
    0.00000E+00         0.00000E+00        -0.66510E+08
 
   -0.66473E+08         0.97750E+06         0.00000E+00
    0.97750E+06        -0.97894E+08         0.00000E+00
    0.00000E+00         0.00000E+00        -0.66361E+08
 
   -0.66334E+08         0.92064E+06         0.00000E+00
    0.92064E+06        -0.97931E+08         0.00000E+00
    0.00000E+00         0.00000E+00        -0.66212E+08
 
   -0.66193E+08         0.85901E+06         0.00000E+00
    0.85901E+06        -0.97965E+08         0.00000E+00
    0.00000E+00         0.00000E+00        -0.66060E+08
 
   -0.66051E+08         0.79184E+06         0.00000E+00
    0.79184E+06        -0.97993E+08         0.00000E+00
    0.00000E+00         0.00000E+00        -0.65904E+08
 
   -0.65906E+08         0.71750E+06         0.00000E+00
    0.71750E+06        -0.98013E+08         0.00000E+00
    0.00000E+00         0.00000E+00        -0.65741E+08
 
   -0.65759E+08         0.63315E+06         0.00000E+00
    0.63315E+06        -0.98018E+08         0.00000E+00
    0.00000E+00         0.00000E+00        -0.65566E+08
 
   -0.65609E+08         0.53455E+06         0.00000E+00
    0.53455E+06        -0.98007E+08         0.00000E+00
    0.00000E+00         0.00000E+00        -0.65375E+08
 
   -0.65460E+08         0.41171E+06         0.00000E+00
    0.41171E+06        -0.97970E+08         0.00000E+00
    0.00000E+00         0.00000E+00        -0.65158E+08
 
   -0.65322E+08         0.25756E+06         0.00000E+00
    0.25756E+06        -0.97897E+08         0.00000E+00
    0.00000E+00         0.00000E+00        -0.64892E+08
 
   -0.65233E+08         0.86366E+05         0.00000E+00
    0.86366E+05        -0.97801E+08         0.00000E+00
    0.00000E+00         0.00000E+00        -0.64559E+08
 
   -0.83434E+08         0.11132E+06         0.00000E+00
    0.11132E+06        -0.97339E+08         0.00000E+00
    0.00000E+00         0.00000E+00        -0.84465E+08
 
   -0.83315E+08         0.33248E+06         0.00000E+00
    0.33248E+06        -0.97098E+08         0.00000E+00
    0.00000E+00         0.00000E+00        -0.84104E+08
 
   -0.83112E+08         0.54257E+06         0.00000E+00
    0.54257E+06        -0.96965E+08         0.00000E+00
    0.00000E+00         0.00000E+00        -0.83742E+08
 
   -0.82863E+08         0.72939E+06         0.00000E+00
    0.72939E+06        -0.96915E+08         0.00000E+00
    0.00000E+00         0.00000E+00        -0.83381E+08
 
   -0.82594E+08         0.88906E+06         0.00000E+00
    0.88906E+06        -0.96923E+08         0.00000E+00
    0.00000E+00         0.00000E+00        -0.83019E+08
 
   -0.82314E+08         0.10225E+07         0.00000E+00
    0.10225E+07        -0.96975E+08         0.00000E+00
    0.00000E+00         0.00000E+00        -0.82658E+08
 
   -0.82033E+08         0.11308E+07         0.00000E+00
    0.11308E+07        -0.97063E+08         0.00000E+00
    0.00000E+00         0.00000E+00        -0.82297E+08
 
   -0.81758E+08         0.12147E+07         0.00000E+00
    0.12147E+07        -0.97180E+08         0.00000E+00
    0.00000E+00         0.00000E+00        -0.81936E+08
 
   -0.81500E+08         0.12726E+07         0.00000E+00
    0.12726E+07        -0.97300E+08         0.00000E+00
    0.00000E+00         0.00000E+00        -0.81590E+08
 
   -0.81265E+08         0.12869E+07         0.00000E+00
    0.12869E+07        -0.97314E+08         0.00000E+00
    0.00000E+00         0.00000E+00        -0.81385E+08
 
   -0.81063E+08         0.12985E+07         0.00000E+00
    0.12985E+07        -0.97298E+08         0.00000E+00
    0.00000E+00         0.00000E+00        -0.81255E+08
 
   -0.80889E+08         0.13196E+07         0.00000E+00
    0.13196E+07        -0.97302E+08         0.00000E+00
    0.00000E+00         0.00000E+00        -0.81118E+08
 
   -0.80727E+08         0.13518E+07         0.00000E+00
    0.13518E+07        -0.97313E+08         0.00000E+00
    0.00000E+00         0.00000E+00        -0.80973E+08
 
   -0.80569E+08         0.13911E+07         0.00000E+00
    0.13911E+07        -0.97329E+08         0.00000E+00
    0.00000E+00         0.00000E+00        -0.80818E+08
 
   -0.80409E+08         0.14342E+07         0.00000E+00
    0.14342E+07        -0.97348E+08         0.00000E+00
    0.00000E+00         0.00000E+00        -0.80653E+08
 
   -0.80243E+08         0.14789E+07         0.00000E+00
    0.14789E+07        -0.97368E+08         0.00000E+00
    0.00000E+00         0.00000E+00        -0.80478E+08
 
   -0.80071E+08         0.15233E+07         0.00000E+00
    0.15233E+07        -0.97390E+08         0.00000E+00
    0.00000E+00         0.00000E+00        -0.80293E+08
 
   -0.79892E+08         0.15662E+07         0.00000E+00
    0.15662E+07        -0.97412E+08         0.00000E+00
    0.00000E+00         0.00000E+00        -0.80098E+08
 
   -0.79705E+08         0.16064E+07         0.00000E+00
    0.16064E+07        -0.97435E+08         0.00000E+00
    0.00000E+00         0.00000E+00        -0.79894E+08
 
   -0.79510E+08         0.16433E+07         0.00000E+00
    0.16433E+07        -0.97459E+08         0.00000E+00
    0.00000E+00         0.00000E+00        -0.79681E+08
 
   -0.79309E+08         0.16760E+07         0.00000E+00
    0.16760E+07        -0.97484E+08         0.00000E+00
    0.00000E+00         0.00000E+00        -0.79461E+08
 
   -0.79100E+08         0.17043E+07         0.00000E+00
    0.17043E+07        -0.97510E+08         0.00000E+00
    0.00000E+00         0.00000E+00        -0.79233E+08
 
   -0.78885E+08         0.17277E+07         0.00000E+00
    0.17277E+07        -0.97539E+08         0.00000E+00
    0.00000E+00         0.00000E+00        -0.78998E+08
 
   -0.78666E+08         0.17458E+07         0.00000E+00
    0.17458E+07        -0.97568E+08         0.00000E+00
    0.00000E+00         0.00000E+00        -0.78757E+08
 
   -0.78444E+08         0.17587E+07         0.00000E+00
    0.17587E+07        -0.97598E+08         0.00000E+00
    0.00000E+00         0.00000E+00        -0.78511E+08
 
   -0.78224E+08         0.17700E+07         0.00000E+00
    0.17700E+07        -0.97625E+08         0.00000E+00
    0.00000E+00         0.00000E+00        -0.78262E+08
 
   -0.78004E+08         0.17660E+07         0.00000E+00
    0.17660E+07        -0.97622E+08         0.00000E+00
    0.00000E+00         0.00000E+00        -0.78044E+08
 
   -0.77788E+08         0.17618E+07         0.00000E+00
    0.17618E+07        -0.97608E+08         0.00000E+00
    0.00000E+00         0.00000E+00        -0.77841E+08
 
   -0.77575E+08         0.17597E+07         0.00000E+00
    0.17597E+07        -0.97598E+08         0.00000E+00
    0.00000E+00         0.00000E+00        -0.77635E+08
 
   -0.77363E+08         0.17595E+07         0.00000E+00
    0.17595E+07        -0.97592E+08         0.00000E+00
    0.00000E+00         0.00000E+00        -0.77426E+08
 
   -0.77151E+08         0.17605E+07         0.00000E+00
    0.17605E+07        -0.97588E+08         0.00000E+00
    0.00000E+00         0.00000E+00        -0.77214E+08
 
   -0.76938E+08         0.17621E+07         0.00000E+00
    0.17621E+07        -0.97588E+08         0.00000E+00
    0.00000E+00         0.00000E+00        -0.76999E+08
 
   -0.76724E+08         0.17636E+07         0.00000E+00
    0.17636E+07        -0.97589E+08         0.00000E+00
    0.00000E+00         0.00000E+00        -0.76781E+08
 
   -0.76509E+08         0.17646E+07         0.00000E+00
    0.17646E+07        -0.97594E+08         0.00000E+00
    0.00000E+00         0.00000E+00        -0.76561E+08
 
   -0.76292E+08         0.17646E+07         0.00000E+00
    0.17646E+07        -0.97600E+08         0.00000E+00
    0.00000E+00         0.00000E+00        -0.76339E+08
 
   -0.76074E+08         0.17632E+07         0.00000E+00
    0.17632E+07        -0.97609E+08         0.00000E+00
    0.00000E+00         0.00000E+00        -0.76115E+08
 
   -0.75855E+08         0.17600E+07         0.00000E+00
    0.17600E+07        -0.97621E+08         0.00000E+00
    0.00000E+00         0.00000E+00        -0.75888E+08
 
   -0.75636E+08         0.17548E+07         0.00000E+00
    0.17548E+07        -0.97634E+08         0.00000E+00
    0.00000E+00         0.00000E+00        -0.75660E+08
 
   -0.75417E+08         0.17474E+07         0.00000E+00
    0.17474E+07        -0.97648E+08         0.00000E+00
    0.00000E+00         0.00000E+00        -0.75431E+08
 
   -0.75202E+08         0.17382E+07         0.00000E+00
    0.17382E+07        -0.97663E+08         0.00000E+00
    0.00000E+00         0.00000E+00        -0.75199E+08
 
   -0.74989E+08         0.17244E+07         0.00000E+00
    0.17244E+07        -0.97666E+08         0.00000E+00
    0.00000E+00         0.00000E+00        -0.74983E+08
 
   -0.74780E+08         0.17069E+07         0.00000E+00
    0.17069E+07        -0.97655E+08         0.00000E+00
    0.00000E+00         0.00000E+00        -0.74785E+08
 
   -0.74576E+08         0.16918E+07         0.00000E+00
    0.16918E+07        -0.97648E+08         0.00000E+00
    0.00000E+00         0.00000E+00        -0.74587E+08
 
   -0.74374E+08         0.16781E+07         0.00000E+00
    0.16781E+07        -0.97645E+08         0.00000E+00
    0.00000E+00         0.00000E+00        -0.74388E+08
 
   -0.74173E+08         0.16653E+07         0.00000E+00
    0.16653E+07        -0.97645E+08         0.00000E+00
    0.00000E+00         0.00000E+00        -0.74188E+08
 
   -0.73974E+08         0.16530E+07         0.00000E+00
    0.16530E+07        -0.97647E+08         0.00000E+00
    0.00000E+00         0.00000E+00        -0.73988E+08
 
   -0.73776E+08         0.16405E+07         0.00000E+00
    0.16405E+07        -0.97651E+08         0.00000E+00
    0.00000E+00         0.00000E+00        -0.73787E+08
 
   -0.73579E+08         0.16278E+07         0.00000E+00
    0.16278E+07        -0.97657E+08         0.00000E+00
    0.00000E+00         0.00000E+00        -0.73586E+08
 
   -0.73385E+08         0.16152E+07         0.00000E+00
    0.16152E+07        -0.97664E+08         0.00000E+00
    0.00000E+00         0.00000E+00        -0.73385E+08
 
   -0.73194E+08         0.16002E+07         0.00000E+00
    0.16002E+07        -0.97662E+08         0.00000E+00
    0.00000E+00         0.00000E+00        -0.73196E+08
 
   -0.73006E+08         0.15853E+07         0.00000E+00
    0.15853E+07        -0.97654E+08         0.00000E+00
    0.00000E+00         0.00000E+00        -0.73013E+08
 
   -0.72820E+08         0.15715E+07         0.00000E+00
    0.15715E+07        -0.97649E+08         0.00000E+00
    0.00000E+00         0.00000E+00        -0.72831E+08
 
   -0.72636E+08         0.15589E+07         0.00000E+00
    0.15589E+07        -0.97646E+08         0.00000E+00
    0.00000E+00         0.00000E+00        -0.72650E+08
 
   -0.72454E+08         0.15471E+07         0.00000E+00
    0.15471E+07        -0.97644E+08         0.00000E+00
    0.00000E+00         0.00000E+00        -0.72468E+08
 
   -0.72272E+08         0.15360E+07         0.00000E+00
    0.15360E+07        -0.97644E+08         0.00000E+00
    0.00000E+00         0.00000E+00        -0.72286E+08
 
   -0.72092E+08         0.15252E+07         0.00000E+00
    0.15252E+07        -0.97646E+08         0.00000E+00
    0.00000E+00         0.00000E+00        -0.72104E+08
 
   -0.71913E+08         0.15147E+07         0.00000E+00
    0.15147E+07        -0.97648E+08         0.00000E+00
    0.00000E+00         0.00000E+00        -0.71923E+08
 
   -0.71735E+08         0.15045E+07         0.00000E+00
    0.15045E+07        -0.97648E+08         0.00000E+00
    0.00000E+00         0.00000E+00        -0.71745E+08
 
   -0.71560E+08         0.14937E+07         0.00000E+00
    0.14937E+07        -0.97643E+08         0.00000E+00
    0.00000E+00         0.00000E+00        -0.71573E+08
 
   -0.71386E+08         0.14840E+07         0.00000E+00
    0.14840E+07        -0.97638E+08         0.00000E+00
    0.00000E+00         0.00000E+00        -0.71401E+08
 
   -0.71213E+08         0.14752E+07         0.00000E+00
    0.14752E+07        -0.97635E+08         0.00000E+00
    0.00000E+00         0.00000E+00        -0.71230E+08
 
   -0.71041E+08         0.14671E+07         0.00000E+00
    0.14671E+07        -0.97633E+08         0.00000E+00
    0.00000E+00         0.00000E+00        -0.71059E+08
 
   -0.70870E+08         0.14596E+07         0.00000E+00
    0.14596E+07        -0.97631E+08         0.00000E+00
    0.00000E+00         0.00000E+00        -0.70888E+08
 
   -0.70699E+08         0.14526E+07         0.00000E+00
    0.14526E+07        -0.97630E+08         0.00000E+00
    0.00000E+00         0.00000E+00        -0.70717E+08
 
   -0.70529E+08         0.14460E+07         0.00000E+00
    0.14460E+07        -0.97629E+08         0.00000E+00
    0.00000E+00         0.00000E+00        -0.70546E+08
 
   -0.70360E+08         0.14396E+07         0.00000E+00
    0.14396E+07        -0.97629E+08         0.00000E+00
    0.00000E+00         0.00000E+00        -0.70376E+08
 
   -0.70191E+08         0.14333E+07         0.00000E+00
    0.14333E+07        -0.97629E+08         0.00000E+00
    0.00000E+00         0.00000E+00        -0.70206E+08
 
   -0.70022E+08         0.14269E+07         0.00000E+00
    0.14269E+07        -0.97629E+08         0.00000E+00
    0.00000E+00         0.00000E+00        -0.70037E+08
 
   -0.69857E+08         0.14203E+07         0.00000E+00
    0.14203E+07        -0.97627E+08         0.00000E+00
    0.00000E+00         0.00000E+00        -0.69870E+08
 
   -0.69694E+08         0.14134E+07         0.00000E+00
    0.14134E+07        -0.97624E+08         0.00000E+00
    0.00000E+00         0.00000E+00        -0.69705E+08
 
   -0.69530E+08         0.14063E+07         0.00000E+00
    0.14063E+07        -0.97621E+08         0.00000E+00
    0.00000E+00         0.00000E+00        -0.69540E+08
 
   -0.69368E+08         0.13989E+07         0.00000E+00
    0.13989E+07        -0.97619E+08         0.00000E+00
    0.00000E+00         0.00000E+00        -0.69375E+08
 
   -0.69205E+08         0.13910E+07         0.00000E+00
    0.13910E+07        -0.97617E+08         0.00000E+00
    0.00000E+00         0.00000E+00        -0.69210E+08
 
   -0.69043E+08         0.13826E+07         0.00000E+00
    0.13826E+07        -0.97616E+08         0.00000E+00
    0.00000E+00         0.00000E+00        -0.69045E+08
 
   -0.68882E+08         0.13735E+07         0.00000E+00
    0.13735E+07        -0.97616E+08         0.00000E+00
    0.00000E+00         0.00000E+00        -0.68881E+08
 
   -0.68722E+08         0.13636E+07         0.00000E+00
    0.13636E+07        -0.97616E+08         0.00000E+00
    0.00000E+00         0.00000E+00        -0.68716E+08
 
   -0.68562E+08         0.13527E+07         0.00000E+00
    0.13527E+07        -0.97618E+08         0.00000E+00
    0.00000E+00         0.00000E+00        -0.68552E+08
 
   -0.68403E+08         0.13406E+07         0.00000E+00
    0.13406E+07        -0.97620E+08         0.00000E+00
    0.00000E+00         0.00000E+00        -0.68389E+08
 
   -0.68245E+08         0.13271E+07         0.00000E+00
    0.13271E+07        -0.97625E+08         0.00000E+00
    0.00000E+00         0.00000E+00        -0.68226E+08
 
   -0.68088E+08         0.13119E+07         0.00000E+00
    0.13119E+07        -0.97630E+08         0.00000E+00
    0.00000E+00         0.00000E+00        -0.68063E+08
 
   -0.67933E+08         0.12947E+07         0.00000E+00
    0.12947E+07        -0.97638E+08         0.00000E+00
    0.00000E+00         0.00000E+00        -0.67901E+08
 
   -0.67779E+08         0.12752E+07         0.00000E+00
    0.12752E+07        -0.97649E+08         0.00000E+00
    0.00000E+00         0.00000E+00        -0.67739E+08
 
   -0.67627E+08         0.12532E+07         0.00000E+00
    0.12532E+07        -0.97662E+08         0.00000E+00
    0.00000E+00         0.00000E+00        -0.67579E+08
 
   -0.67477E+08         0.12282E+07         0.00000E+00
    0.12282E+07        -0.97678E+08         0.00000E+00
    0.00000E+00         0.00000E+00        -0.67420E+08
 
   -0.67329E+08         0.12001E+07         0.00000E+00
    0.12001E+07        -0.97697E+08         0.00000E+00
    0.00000E+00         0.00000E+00        -0.67262E+08
 
   -0.67182E+08         0.11684E+07         0.00000E+00
    0.11684E+07        -0.97720E+08         0.00000E+00
    0.00000E+00         0.00000E+00        -0.67105E+08
 
   -0.67038E+08         0.11330E+07         0.00000E+00
    0.11330E+07        -0.97747E+08         0.00000E+00
    0.00000E+00         0.00000E+00        -0.66950E+08
 
   -0.66896E+08         0.10936E+07         0.00000E+00
    0.10936E+07        -0.97777E+08         0.00000E+00
    0.00000E+00         0.00000E+00        -0.66796E+08
 
   -0.66755E+08         0.10499E+07         0.00000E+00
    0.10499E+07        -0.97810E+08         0.00000E+00
    0.00000E+00         0.00000E+00        -0.66644E+08
 
   -0.66615E+08         0.10020E+07         0.00000E+00
    0.10020E+07        -0.97846E+08         0.00000E+00
    0.00000E+00         0.00000E+00        -0.66494E+08
 
   -0.66477E+08         0.94961E+06         0.00000E+00
    0.94961E+06        -0.97883E+08         0.00000E+00
    0.00000E+00         0.00000E+00        -0.66343E+08
 
   -0.66338E+08         0.89264E+06         0.00000E+00
    0.89264E+06        -0.97919E+08         0.00000E+00
    0.00000E+00         0.00000E+00        -0.66192E+08
 
   -0.66198E+08         0.83072E+06         0.00000E+00
    0.83072E+06        -0.97953E+08         0.00000E+00
    0.00000E+00         0.00000E+00        -0.66039E+08
 
   -0.66057E+08         0.76312E+06         0.00000E+00
    0.76312E+06        -0.97980E+08         0.00000E+00
    0.00000E+00         0.00000E+00        -0.65881E+08
 
   -0.65913E+08         0.68824E+06         0.00000E+00
    0.68824E+06        -0.97998E+08         0.00000E+00
    0.00000E+00         0.00000E+00        -0.65716E+08
 
   -0.65768E+08         0.60354E+06         0.00000E+00
    0.60354E+06        -0.98001E+08         0.00000E+00
    0.00000E+00         0.00000E+00        -0.65537E+08
 
   -0.65621E+08         0.50447E+06         0.00000E+00
    0.50447E+06        -0.97986E+08         0.00000E+00
    0.00000E+00         0.00000E+00        -0.65340E+08
 
   -0.65475E+08         0.38229E+06         0.00000E+00
    0.38229E+06        -0.97944E+08         0.00000E+00
    0.00000E+00         0.00000E+00        -0.65113E+08
 
   -0.65348E+08         0.23514E+06         0.00000E+00
    0.23514E+06        -0.97866E+08         0.00000E+00
    0.00000E+00         0.00000E+00        -0.64834E+08
 
   -0.65269E+08         0.78126E+05         0.00000E+00
    0.78126E+05        -0.97771E+08         0.00000E+00
    0.00000E+00         0.00000E+00        -0.64493E+08
 
   -0.83307E+08         0.99302E+05         0.00000E+00
    0.99302E+05        -0.97381E+08         0.00000E+00
    0.00000E+00         0.00000E+00        -0.84465E+08
 
   -0.83199E+08         0.30012E+06         0.00000E+00
    0.30012E+06        -0.97140E+08         0.00000E+00
    0.00000E+00         0.00000E+00        -0.84104E+08
 
   -0.83012E+08         0.49776E+06         0.00000E+00
    0.49776E+06        -0.97005E+08         0.00000E+00
    0.00000E+00         0.00000E+00        -0.83742E+08
 
   -0.82780E+08         0.67843E+06         0.00000E+00
    0.67843E+06        -0.96949E+08         0.00000E+00
    0.00000E+00         0.00000E+00        -0.83381E+08
 
   -0.82524E+08         0.83504E+06         0.00000E+00
    0.83504E+06        -0.96952E+08         0.00000E+00
    0.00000E+00         0.00000E+00        -0.83019E+08
 
   -0.82257E+08         0.96728E+06         0.00000E+00
    0.96728E+06        -0.96999E+08         0.00000E+00
    0.00000E+00         0.00000E+00        -0.82658E+08
 
   -0.81986E+08         0.10759E+07         0.00000E+00
    0.10759E+07        -0.97082E+08         0.00000E+00
    0.00000E+00         0.00000E+00        -0.82297E+08
 
   -0.81721E+08         0.11616E+07         0.00000E+00
    0.11616E+07        -0.97194E+08         0.00000E+00
    0.00000E+00         0.00000E+00        -0.81936E+08
 
   -0.81470E+08         0.12244E+07         0.00000E+00
    0.12244E+07        -0.97307E+08         0.00000E+00
    0.00000E+00         0.00000E+00        -0.81593E+08
 
   -0.81236E+08         0.12423E+07         0.00000E+00
    0.12423E+07        -0.97317E+08         0.00000E+00
    0.00000E+00         0.00000E+00        -0.81388E+08
 
   -0.81030E+08         0.12606E+07         0.00000E+00
    0.12606E+07        -0.97302E+08         0.00000E+00
    0.00000E+00         0.00000E+00        -0.81254E+08
 
   -0.80852E+08         0.12861E+07         0.00000E+00
    0.12861E+07        -0.97308E+08         0.00000E+00
    0.00000E+00         0.00000E+00        -0.81115E+08
 
   -0.80687E+08         0.13198E+07         0.00000E+00
    0.13198E+07        -0.97321E+08         0.00000E+00
    0.00000E+00         0.00000E+00        -0.80967E+08
 
   -0.80528E+08         0.13592E+07         0.00000E+00
    0.13592E+07        -0.97338E+08         0.00000E+00
    0.00000E+00         0.00000E+00        -0.80810E+08
 
   -0.80367E+08         0.14017E+07         0.00000E+00
    0.14017E+07        -0.97357E+08         0.00000E+00
    0.00000E+00         0.00000E+00        -0.80643E+08
 
   -0.80201E+08         0.14452E+07         0.00000E+00
    0.14452E+07        -0.97377E+08         0.00000E+00
    0.00000E+00         0.00000E+00        -0.80466E+08
 
   -0.80030E+08         0.14883E+07         0.00000E+00
    0.14883E+07        -0.97399E+08         0.00000E+00
    0.00000E+00         0.00000E+00        -0.80280E+08
 
   -0.79851E+08         0.15297E+07         0.00000E+00
    0.15297E+07        -0.97420E+08         0.00000E+00
    0.00000E+00         0.00000E+00        -0.80084E+08
 
   -0.79666E+08         0.15684E+07         0.00000E+00
    0.15684E+07        -0.97443E+08         0.00000E+00
    0.00000E+00         0.00000E+00        -0.79880E+08
 
   -0.79473E+08         0.16038E+07         0.00000E+00
    0.16038E+07        -0.97466E+08         0.00000E+00
    0.00000E+00         0.00000E+00        -0.79667E+08
 
   -0.79273E+08         0.16352E+07         0.00000E+00
    0.16352E+07        -0.97490E+08         0.00000E+00
    0.00000E+00         0.00000E+00        -0.79446E+08
 
   -0.79067E+08         0.16622E+07         0.00000E+00
    0.16622E+07        -0.97515E+08         0.00000E+00
    0.00000E+00         0.00000E+00        -0.79218E+08
 
   -0.78855E+08         0.16845E+07         0.00000E+00
    0.16845E+07        -0.97543E+08         0.00000E+00
    0.00000E+00         0.00000E+00        -0.78983E+08
 
   -0.78639E+08         0.17019E+07         0.00000E+00
    0.17019E+07        -0.97571E+08         0.00000E+00
    0.00000E+00         0.00000E+00        -0.78742E+08
 
   -0.78420E+08         0.17147E+07         0.00000E+00
    0.17147E+07        -0.97600E+08         0.00000E+00
    0.00000E+00         0.00000E+00        -0.78495E+08
 
   -0.78202E+08         0.17264E+07         0.00000E+00
    0.17264E+07        -0.97625E+08         0.00000E+00
    0.00000E+00         0.00000E+00        -0.78249E+08
 
   -0.77984E+08         0.17223E+07         0.00000E+00
    0.17223E+07        -0.97621E+08         0.00000E+00
    0.00000E+00         0.00000E+00        -0.78033E+08
 
   -0.77768E+08         0.17189E+07         0.00000E+00
    0.17189E+07        -0.97607E+08         0.00000E+00
    0.00000E+00         0.00000E+00        -0.77830E+08
 
   -0.77555E+08         0.17173E+07         0.00000E+00
    0.17173E+07        -0.97598E+08         0.00000E+00
    0.00000E+00         0.00000E+00        -0.77624E+08
 
   -0.77343E+08         0.17172E+07         0.00000E+00
    0.17172E+07        -0.97592E+08         0.00000E+00
    0.00000E+00         0.00000E+00        -0.77415E+08
 
   -0.77132E+08         0.17181E+07         0.00000E+00
    0.17181E+07        -0.97588E+08         0.00000E+00
    0.00000E+00         0.00000E+00        -0.77203E+08
 
   -0.76919E+08         0.17194E+07         0.00000E+00
    0.17194E+07        -0.97588E+08         0.00000E+00
    0.00000E+00         0.00000E+00        -0.76988E+08
 
   -0.76705E+08         0.17207E+07         0.00000E+00
    0.17207E+07        -0.97590E+08         0.00000E+00
    0.00000E+00         0.00000E+00        -0.76770E+08
 
   -0.76491E+08         0.17214E+07         0.00000E+00
    0.17214E+07        -0.97594E+08         0.00000E+00
    0.00000E+00         0.00000E+00        -0.76551E+08
 
   -0.76275E+08         0.17212E+07         0.00000E+00
    0.17212E+07        -0.97600E+08         0.00000E+00
    0.00000E+00         0.00000E+00        -0.76329E+08
 
   -0.76058E+08         0.17196E+07         0.00000E+00
    0.17196E+07        -0.97609E+08         0.00000E+00
    0.00000E+00         0.00000E+00        -0.76104E+08
 
   -0.75840E+08         0.17163E+07         0.00000E+00
    0.17163E+07        -0.97620E+08         0.00000E+00
    0.00000E+00         0.00000E+00        -0.75878E+08
 
   -0.75623E+08         0.17111E+07         0.00000E+00
    0.17111E+07        -0.97633E+08         0.00000E+00
    0.00000E+00         0.00000E+00        -0.75651E+08
 
   -0.75406E+08         0.17040E+07         0.00000E+00
    0.17040E+07        -0.97647E+08         0.00000E+00
    0.00000E+00         0.00000E+00        -0.75421E+08
 
   -0.75192E+08         0.16958E+07         0.00000E+00
    0.16958E+07        -0.97661E+08         0.00000E+00
    0.00000E+00         0.00000E+00        -0.75190E+08
 
   -0.74980E+08         0.16820E+07         0.00000E+00
    0.16820E+07        -0.97662E+08         0.00000E+00
    0.00000E+00         0.00000E+00        -0.74977E+08
 
   -0.74772E+08         0.16656E+07         0.00000E+00
    0.16656E+07        -0.97652E+08         0.00000E+00
    0.00000E+00         0.00000E+00        -0.74779E+08
 
   -0.74567E+08         0.16511E+07         0.00000E+00
    0.16511E+07        -0.97646E+08         0.00000E+00
    0.00000E+00         0.00000E+00        -0.74581E+08
 
   -0.74365E+08         0.16379E+07         0.00000E+00
    0.16379E+07        -0.97642E+08         0.00000E+00
    0.00000E+00         0.00000E+00        -0.74382E+08
 
   -0.74165E+08         0.16254E+07         0.00000E+00
    0.16254E+07        -0.97642E+08         0.00000E+00
    0.00000E+00         0.00000E+00        -0.74182E+08
 
   -0.73966E+08         0.16133E+07         0.00000E+00
    0.16133E+07        -0.97644E+08         0.00000E+00
    0.00000E+00         0.00000E+00        -0.73982E+08
 
   -0.73768E+08         0.16011E+07         0.00000E+00
    0.16011E+07        -0.97649E+08         0.00000E+00
    0.00000E+00         0.00000E+00        -0.73781E+08
 
   -0.73573E+08         0.15888E+07         0.00000E+00
    0.15888E+07        -0.97655E+08         0.00000E+00
    0.00000E+00         0.00000E+00        -0.73580E+08
 
   -0.73379E+08         0.15768E+07         0.00000E+00
    0.15768E+07        -0.97662E+08         0.00000E+00
    0.00000E+00         0.00000E+00        -0.73380E+08
 
   -0.73188E+08         0.15623E+07         0.00000E+00
    0.15623E+07        -0.97659E+08         0.00000E+00
    0.00000E+00         0.00000E+00        -0.73191E+08
 
   -0.73000E+08         0.15479E+07         0.00000E+00
    0.15479E+07        -0.97652E+08         0.00000E+00
    0.00000E+00         0.00000E+00        -0.73009E+08
 
   -0.72814E+08         0.15346E+07         0.00000E+00
    0.15346E+07        -0.97647E+08         0.00000E+00
    0.00000E+00         0.00000E+00        -0.72827E+08
 
   -0.72630E+08         0.15222E+07         0.00000E+00
    0.15222E+07        -0.97644E+08         0.00000E+00
    0.00000E+00         0.00000E+00        -0.72645E+08
 
   -0.72447E+08         0.15107E+07         0.00000E+00
    0.15107E+07        -0.97642E+08         0.00000E+00
    0.00000E+00         0.00000E+00        -0.72463E+08
 
   -0.72266E+08         0.14998E+07         0.00000E+00
    0.14998E+07        -0.97642E+08         0.00000E+00
    0.00000E+00         0.00000E+00        -0.72282E+08
 
   -0.72086E+08         0.14892E+07         0.00000E+00
    0.14892E+07        -0.97644E+08         0.00000E+00
    0.00000E+00         0.00000E+00        -0.72100E+08
 
   -0.71907E+08         0.14791E+07         0.00000E+00
    0.14791E+07        -0.97646E+08         0.00000E+00
    0.00000E+00         0.00000E+00        -0.71919E+08
 
   -0.71730E+08         0.14692E+07         0.00000E+00
    0.14692E+07        -0.97645E+08         0.00000E+00
    0.00000E+00         0.00000E+00        -0.71741E+08
 
   -0.71554E+08         0.14588E+07         0.00000E+00
    0.14588E+07        -0.97641E+08         0.00000E+00
    0.00000E+00         0.00000E+00        -0.71569E+08
 
   -0.71380E+08         0.14493E+07         0.00000E+00
    0.14493E+07        -0.97637E+08         0.00000E+00
    0.00000E+00         0.00000E+00        -0.71397E+08
 
   -0.71207E+08         0.14407E+07         0.00000E+00
    0.14407E+07        -0.97633E+08         0.00000E+00
    0.00000E+00         0.00000E+00        -0.71226E+08
 
   -0.71035E+08         0.14328E+07         0.00000E+00
    0.14328E+07        -0.97631E+08         0.00000E+00
    0.00000E+00         0.00000E+00        -0.71055E+08
 
   -0.70864E+08         0.14254E+07         0.00000E+00
    0.14254E+07        -0.97630E+08         0.00000E+00
    0.00000E+00         0.00000E+00        -0.70884E+08
 
   -0.70693E+08         0.14186E+07         0.00000E+00
    0.14186E+07        -0.97629E+08         0.00000E+00
    0.00000E+00         0.00000E+00        -0.70713E+08
 
   -0.70523E+08         0.14120E+07         0.00000E+00
    0.14120E+07        -0.97628E+08         0.00000E+00
    0.00000E+00         0.00000E+00        -0.70543E+08
 
   -0.70354E+08         0.14057E+07         0.00000E+00
    0.14057E+07        -0.97628E+08         0.00000E+00
    0.00000E+00         0.00000E+00        -0.70372E+08
 
   -0.70185E+08         0.13995E+07         0.00000E+00
    0.13995E+07        -0.97628E+08         0.00000E+00
    0.00000E+00         0.00000E+00        -0.70202E+08
 
   -0.70017E+08         0.13933E+07         0.00000E+00
    0.13933E+07        -0.97627E+08         0.00000E+00
    0.00000E+00         0.00000E+00        -0.70033E+08
 
   -0.69852E+08         0.13867E+07         0.00000E+00
    0.13867E+07        -0.97625E+08         0.00000E+00
    0.00000E+00         0.00000E+00        -0.69867E+08
 
   -0.69689E+08         0.13799E+07         0.00000E+00
    0.13799E+07        -0.97622E+08         0.00000E+00
    0.00000E+00         0.00000E+00        -0.69701E+08
 
   -0.69526E+08         0.13729E+07         0.00000E+00
    0.13729E+07        -0.97619E+08         0.00000E+00
    0.00000E+00         0.00000E+00        -0.69536E+08
 
   -0.69363E+08         0.13656E+07         0.00000E+00
    0.13656E+07        -0.97617E+08         0.00000E+00
    0.00000E+00         0.00000E+00        -0.69370E+08
 
   -0.69201E+08         0.13579E+07         0.00000E+00
    0.13579E+07        -0.97615E+08         0.00000E+00
    0.00000E+00         0.00000E+00        -0.69205E+08
 
   -0.69039E+08         0.13496E+07         0.00000E+00
    0.13496E+07        -0.97614E+08         0.00000E+00
    0.00000E+00         0.00000E+00        -0.69040E+08
 
   -0.68878E+08         0.13407E+07         0.00000E+00
    0.13407E+07        -0.97613E+08         0.00000E+00
    0.00000E+00         0.00000E+00        -0.68876E+08
 
   -0.68718E+08         0.13310E+07         0.00000E+00
    0.13310E+07        -0.97613E+08         0.00000E+00
    0.00000E+00         0.00000E+00        -0.68711E+08
 
   -0.68558E+08         0.13203E+07         0.00000E+00
    0.13203E+07        -0.97615E+08         0.00000E+00
    0.00000E+00         0.00000E+00        -0.68547E+08
 
   -0.68400E+08         0.13085E+07         0.00000E+00
    0.13085E+07        -0.97617E+08         0.00000E+00
    0.00000E+00         0.00000E+00        -0.68383E+08
 
   -0.68242E+08         0.12952E+07         0.00000E+00
    0.12952E+07        -0.97621E+08         0.00000E+00
    0.00000E+00         0.00000E+00        -0.68219E+08
 
   -0.68086E+08         0.12803E+07         0.00000E+00
    0.12803E+07        -0.97627E+08         0.00000E+00
    0.00000E+00         0.00000E+00        -0.68056E+08
 
   -0.67931E+08         0.12634E+07         0.00000E+00
    0.12634E+07        -0.97634E+08         0.00000E+00
    0.00000E+00         0.00000E+00        -0.67893E+08
 
   -0.67777E+08         0.12443E+07         0.00000E+00
    0.12443E+07        -0.97644E+08         0.00000E+00
    0.00000E+00         0.00000E+00        -0.67731E+08
 
   -0.67626E+08         0.12227E+07         0.00000E+00
    0.12227E+07        -0.97656E+08         0.00000E+00
    0.00000E+00         0.00000E+00        -0.67570E+08
 
   -0.67476E+08         0.11982E+07         0.00000E+00
    0.11982E+07        -0.97672E+08         0.00000E+00
    0.00000E+00         0.00000E+00        -0.67409E+08
 
   -0.67328E+08         0.11705E+07         0.00000E+00
    0.11705E+07        -0.97691E+08         0.00000E+00
    0.00000E+00         0.00000E+00        -0.67250E+08
 
   -0.67182E+08         0.11393E+07         0.00000E+00
    0.11393E+07        -0.97713E+08         0.00000E+00
    0.00000E+00         0.00000E+00        -0.67093E+08
 
   -0.67039E+08         0.11043E+07         0.00000E+00
    0.11043E+07        -0.97739E+08         0.00000E+00
    0.00000E+00         0.00000E+00        -0.66937E+08
 
   -0.66897E+08         0.10652E+07         0.00000E+00
    0.10652E+07        -0.97768E+08         0.00000E+00
    0.00000E+00         0.00000E+00        -0.66782E+08
 
   -0.66757E+08         0.10219E+07         0.00000E+00
    0.10219E+07        -0.97801E+08         0.00000E+00
    0.00000E+00         0.00000E+00        -0.66629E+08
 
   -0.66618E+08         0.97420E+06         0.00000E+00
    0.97420E+06        -0.97836E+08         0.00000E+00
    0.00000E+00         0.00000E+00        -0.66477E+08
 
   -0.66480E+08         0.92190E+06         0.00000E+00
    0.92190E+06        -0.97872E+08         0.00000E+00
    0.00000E+00         0.00000E+00        -0.66325E+08
 
   -0.66342E+08         0.86483E+06         0.00000E+00
    0.86483E+06        -0.97907E+08         0.00000E+00
    0.00000E+00         0.00000E+00        -0.66173E+08
 
   -0.66203E+08         0.80266E+06         0.00000E+00
    0.80266E+06        -0.97940E+08         0.00000E+00
    0.00000E+00         0.00000E+00        -0.66018E+08
 
   -0.66063E+08         0.73465E+06         0.00000E+00
    0.73465E+06        -0.97966E+08         0.00000E+00
    0.00000E+00         0.00000E+00        -0.65858E+08
 
   -0.65921E+08         0.65933E+06         0.00000E+00
    0.65933E+06        -0.97983E+08         0.00000E+00
    0.00000E+00         0.00000E+00        -0.65690E+08
 
   -0.65777E+08         0.57434E+06         0.00000E+00
    0.57434E+06        -0.97984E+08         0.00000E+00
    0.00000E+00         0.00000E+00        -0.65507E+08
 
   -0.65633E+08         0.47502E+06         0.00000E+00
    0.47502E+06        -0.97966E+08         0.00000E+00
    0.00000E+00         0.00000E+00        -0.65305E+08
 
   -0.65493E+08         0.35457E+06         0.00000E+00
    0.35457E+06        -0.97918E+08         0.00000E+00
    0.00000E+00         0.00000E+00        -0.65068E+08
 
   -0.65374E+08         0.21509E+06         0.00000E+00
    0.21509E+06        -0.97838E+08         0.00000E+00
    0.00000E+00         0.00000E+00        -0.64778E+08
 
   -0.65305E+08         0.71002E+05         0.00000E+00
    0.71002E+05        -0.97743E+08         0.00000E+00
    0.00000E+00         0.00000E+00        -0.64430E+08
 
   -0.83185E+08         0.88348E+05         0.00000E+00
    0.88348E+05        -0.97419E+08         0.00000E+00
    0.00000E+00         0.00000E+00        -0.84465E+08
 
   -0.83086E+08         0.27046E+06         0.00000E+00
    0.27046E+06        -0.97179E+08         0.00000E+00
    0.00000E+00         0.00000E+00        -0.84104E+08
 
   -0.82913E+08         0.45617E+06         0.00000E+00
    0.45617E+06        -0.97042E+08         0.00000E+00
    0.00000E+00         0.00000E+00        -0.83742E+08
 
   -0.82696E+08         0.63039E+06         0.00000E+00
    0.63039E+06        -0.96982E+08         0.00000E+00
    0.00000E+00         0.00000E+00        -0.83381E+08
 
   -0.82453E+08         0.78355E+06         0.00000E+00
    0.78355E+06        -0.96980E+08         0.00000E+00
    0.00000E+00         0.00000E+00        -0.83019E+08
 
   -0.82198E+08         0.91431E+06         0.00000E+00
    0.91431E+06        -0.97023E+08         0.00000E+00
    0.00000E+00         0.00000E+00        -0.82658E+08
 
   -0.81938E+08         0.10231E+07         0.00000E+00
    0.10231E+07        -0.97101E+08         0.00000E+00
    0.00000E+00         0.00000E+00        -0.82297E+08
 
   -0.81682E+08         0.11101E+07         0.00000E+00
    0.11101E+07        -0.97209E+08         0.00000E+00
    0.00000E+00         0.00000E+00        -0.81936E+08
 
   -0.81438E+08         0.11769E+07         0.00000E+00
    0.11769E+07        -0.97314E+08         0.00000E+00
    0.00000E+00         0.00000E+00        -0.81598E+08
 
   -0.81205E+08         0.11975E+07         0.00000E+00
    0.11975E+07        -0.97321E+08         0.00000E+00
    0.00000E+00         0.00000E+00        -0.81392E+08
 
   -0.80997E+08         0.12219E+07         0.00000E+00
    0.12219E+07        -0.97306E+08         0.00000E+00
    0.00000E+00         0.00000E+00        -0.81255E+08
 
   -0.80816E+08         0.12519E+07         0.00000E+00
    0.12519E+07        -0.97314E+08         0.00000E+00
    0.00000E+00         0.00000E+00        -0.81112E+08
 
   -0.80649E+08         0.12875E+07         0.00000E+00
    0.12875E+07        -0.97328E+08         0.00000E+00
    0.00000E+00         0.00000E+00        -0.80962E+08
 
   -0.80488E+08         0.13272E+07         0.00000E+00
    0.13272E+07        -0.97346E+08         0.00000E+00
    0.00000E+00         0.00000E+00        -0.80802E+08
 
   -0.80326E+08         0.13691E+07         0.00000E+00
    0.13691E+07        -0.97365E+08         0.00000E+00
    0.00000E+00         0.00000E+00        -0.80634E+08
 
   -0.80161E+08         0.14116E+07         0.00000E+00
    0.14116E+07        -0.97386E+08         0.00000E+00
    0.00000E+00         0.00000E+00        -0.80456E+08
 
   -0.79990E+08         0.14534E+07         0.00000E+00
    0.14534E+07        -0.97407E+08         0.00000E+00
    0.00000E+00         0.00000E+00        -0.80268E+08
 
   -0.79813E+08         0.14934E+07         0.00000E+00
    0.14934E+07        -0.97428E+08         0.00000E+00
    0.00000E+00         0.00000E+00        -0.80071E+08
 
   -0.79628E+08         0.15308E+07         0.00000E+00
    0.15308E+07        -0.97450E+08         0.00000E+00
    0.00000E+00         0.00000E+00        -0.79866E+08
 
   -0.79437E+08         0.15647E+07         0.00000E+00
    0.15647E+07        -0.97472E+08         0.00000E+00
    0.00000E+00         0.00000E+00        -0.79652E+08
 
   -0.79239E+08         0.15948E+07         0.00000E+00
    0.15948E+07        -0.97496E+08         0.00000E+00
    0.00000E+00         0.00000E+00        -0.79431E+08
 
   -0.79035E+08         0.16206E+07         0.00000E+00
    0.16206E+07        -0.97520E+08         0.00000E+00
    0.00000E+00         0.00000E+00        -0.79203E+08
 
   -0.78826E+08         0.16418E+07         0.00000E+00
    0.16418E+07        -0.97547E+08         0.00000E+00
    0.00000E+00         0.00000E+00        -0.78968E+08
 
   -0.78612E+08         0.16585E+07         0.00000E+00
    0.16585E+07        -0.97574E+08         0.00000E+00
    0.00000E+00         0.00000E+00        -0.78727E+08
 
   -0.78396E+08         0.16713E+07         0.00000E+00
    0.16713E+07        -0.97603E+08         0.00000E+00
    0.00000E+00         0.00000E+00        -0.78480E+08
 
   -0.78181E+08         0.16831E+07         0.00000E+00
    0.16831E+07        -0.97626E+08         0.00000E+00
    0.00000E+00         0.00000E+00        -0.78236E+08
 
   -0.77964E+08         0.16788E+07         0.00000E+00
    0.16788E+07        -0.97620E+08         0.00000E+00
    0.00000E+00         0.00000E+00        -0.78023E+08
 
   -0.77748E+08         0.16761E+07         0.00000E+00
    0.16761E+07        -0.97607E+08         0.00000E+00
    0.00000E+00         0.00000E+00        -0.77820E+08
 
   -0.77536E+08         0.16749E+07         0.00000E+00
    0.16749E+07        -0.97598E+08         0.00000E+00
    0.00000E+00         0.00000E+00        -0.77614E+08
 
   -0.77324E+08         0.16749E+07         0.00000E+00
    0.16749E+07        -0.97592E+08         0.00000E+00
    0.00000E+00         0.00000E+00        -0.77404E+08
 
   -0.77112E+08         0.16757E+07         0.00000E+00
    0.16757E+07        -0.97589E+08         0.00000E+00
    0.00000E+00         0.00000E+00        -0.77192E+08
 
   -0.76900E+08         0.16768E+07         0.00000E+00
    0.16768E+07        -0.97588E+08         0.00000E+00
    0.00000E+00         0.00000E+00        -0.76977E+08
 
   -0.76687E+08         0.16779E+07         0.00000E+00
    0.16779E+07        -0.97590E+08         0.00000E+00
    0.00000E+00         0.00000E+00        -0.76760E+08
 
   -0.76473E+08         0.16784E+07         0.00000E+00
    0.16784E+07        -0.97594E+08         0.00000E+00
    0.00000E+00         0.00000E+00        -0.76540E+08
 
   -0.76258E+08         0.16780E+07         0.00000E+00
    0.16780E+07        -0.97600E+08         0.00000E+00
    0.00000E+00         0.00000E+00        -0.76318E+08
 
   -0.76042E+08         0.16763E+07         0.00000E+00
    0.16763E+07        -0.97608E+08         0.00000E+00
    0.00000E+00         0.00000E+00        -0.76094E+08
 
   -0.75826E+08         0.16729E+07         0.00000E+00
    0.16729E+07        -0.97619E+08         0.00000E+00
    0.00000E+00         0.00000E+00        -0.75868E+08
 
   -0.75610E+08         0.16678E+07         0.00000E+00
    0.16678E+07        -0.97631E+08         0.00000E+00
    0.00000E+00         0.00000E+00        -0.75641E+08
 
   -0.75394E+08         0.16609E+07         0.00000E+00
    0.16609E+07        -0.97645E+08         0.00000E+00
    0.00000E+00         0.00000E+00        -0.75412E+08
 
   -0.75181E+08         0.16536E+07         0.00000E+00
    0.16536E+07        -0.97660E+08         0.00000E+00
    0.00000E+00         0.00000E+00        -0.75181E+08
 
   -0.74971E+08         0.16398E+07         0.00000E+00
    0.16398E+07        -0.97658E+08         0.00000E+00
    0.00000E+00         0.00000E+00        -0.74970E+08
 
   -0.74763E+08         0.16244E+07         0.00000E+00
    0.16244E+07        -0.97649E+08         0.00000E+00
    0.00000E+00         0.00000E+00        -0.74773E+08
 
   -0.74559E+08         0.16105E+07         0.00000E+00
    0.16105E+07        -0.97643E+08         0.00000E+00
    0.00000E+00         0.00000E+00        -0.74575E+08
 
   -0.74357E+08         0.15977E+07         0.00000E+00
    0.15977E+07        -0.97640E+08         0.00000E+00
    0.00000E+00         0.00000E+00        -0.74376E+08
 
   -0.74157E+08         0.15855E+07         0.00000E+00
    0.15855E+07        -0.97640E+08         0.00000E+00
    0.00000E+00         0.00000E+00        -0.74176E+08
 
   -0.73958E+08         0.15737E+07         0.00000E+00
    0.15737E+07        -0.97642E+08         0.00000E+00
    0.00000E+00         0.00000E+00        -0.73976E+08
 
   -0.73761E+08         0.15618E+07         0.00000E+00
    0.15618E+07        -0.97646E+08         0.00000E+00
    0.00000E+00         0.00000E+00        -0.73776E+08
 
   -0.73566E+08         0.15499E+07         0.00000E+00
    0.15499E+07        -0.97652E+08         0.00000E+00
    0.00000E+00         0.00000E+00        -0.73575E+08
 
   -0.73373E+08         0.15384E+07         0.00000E+00
    0.15384E+07        -0.97659E+08         0.00000E+00
    0.00000E+00         0.00000E+00        -0.73375E+08
 
   -0.73182E+08         0.15243E+07         0.00000E+00
    0.15243E+07        -0.97656E+08         0.00000E+00
    0.00000E+00         0.00000E+00        -0.73187E+08
 
   -0.72994E+08         0.15105E+07         0.00000E+00
    0.15105E+07        -0.97649E+08         0.00000E+00
    0.00000E+00         0.00000E+00        -0.73005E+08
 
   -0.72808E+08         0.14976E+07         0.00000E+00
    0.14976E+07        -0.97644E+08         0.00000E+00
    0.00000E+00         0.00000E+00        -0.72823E+08
 
   -0.72624E+08         0.14856E+07         0.00000E+00
    0.14856E+07        -0.97641E+08         0.00000E+00
    0.00000E+00         0.00000E+00        -0.72641E+08
 
   -0.72441E+08         0.14743E+07         0.00000E+00
    0.14743E+07        -0.97640E+08         0.00000E+00
    0.00000E+00         0.00000E+00        -0.72459E+08
 
   -0.72260E+08         0.14636E+07         0.00000E+00
    0.14636E+07        -0.97640E+08         0.00000E+00
    0.00000E+00         0.00000E+00        -0.72277E+08
 
   -0.72080E+08         0.14533E+07         0.00000E+00
    0.14533E+07        -0.97642E+08         0.00000E+00
    0.00000E+00         0.00000E+00        -0.72096E+08
 
   -0.71901E+08         0.14436E+07         0.00000E+00
    0.14436E+07        -0.97644E+08         0.00000E+00
    0.00000E+00         0.00000E+00        -0.71914E+08
 
   -0.71724E+08         0.14339E+07         0.00000E+00
    0.14339E+07        -0.97643E+08         0.00000E+00
    0.00000E+00         0.00000E+00        -0.71737E+08
 
   -0.71548E+08         0.14238E+07         0.00000E+00
    0.14238E+07        -0.97639E+08         0.00000E+00
    0.00000E+00         0.00000E+00        -0.71565E+08
 
   -0.71374E+08         0.14146E+07         0.00000E+00
    0.14146E+07        -0.97635E+08         0.00000E+00
    0.00000E+00         0.00000E+00        -0.71394E+08
 
   -0.71201E+08         0.14062E+07         0.00000E+00
    0.14062E+07        -0.97632E+08         0.00000E+00
    0.00000E+00         0.00000E+00        -0.71222E+08
 
   -0.71029E+08         0.13984E+07         0.00000E+00
    0.13984E+07        -0.97630E+08         0.00000E+00
    0.00000E+00         0.00000E+00        -0.71051E+08
 
   -0.70858E+08         0.13912E+07         0.00000E+00
    0.13912E+07        -0.97628E+08         0.00000E+00
    0.00000E+00         0.00000E+00        -0.70880E+08
 
   -0.70687E+08         0.13845E+07         0.00000E+00
    0.13845E+07        -0.97627E+08         0.00000E+00
    0.00000E+00         0.00000E+00        -0.70709E+08
 
   -0.70517E+08         0.13781E+07         0.00000E+00
    0.13781E+07        -0.97627E+08         0.00000E+00
    0.00000E+00         0.00000E+00        -0.70539E+08
 
   -0.70348E+08         0.13719E+07         0.00000E+00
    0.13719E+07        -0.97626E+08         0.00000E+00
    0.00000E+00         0.00000E+00        -0.70368E+08
 
   -0.70179E+08         0.13658E+07         0.00000E+00
    0.13658E+07        -0.97627E+08         0.00000E+00
    0.00000E+00         0.00000E+00        -0.70198E+08
 
   -0.70012E+08         0.13596E+07         0.00000E+00
    0.13596E+07        -0.97626E+08         0.00000E+00
    0.00000E+00         0.00000E+00        -0.70029E+08
 
   -0.69847E+08         0.13531E+07         0.00000E+00
    0.13531E+07        -0.97623E+08         0.00000E+00
    0.00000E+00         0.00000E+00        -0.69863E+08
 
   -0.69684E+08         0.13465E+07         0.00000E+00
    0.13465E+07        -0.97620E+08         0.00000E+00
    0.00000E+00         0.00000E+00        -0.69697E+08
 
   -0.69521E+08         0.13396E+07         0.00000E+00
    0.13396E+07        -0.97617E+08         0.00000E+00
    0.00000E+00         0.00000E+00        -0.69532E+08
 
   -0.69359E+08         0.13324E+07         0.00000E+00
    0.13324E+07        -0.97615E+08         0.00000E+00
    0.00000E+00         0.00000E+00        -0.69366E+08
 
   -0.69197E+08         0.13248E+07         0.00000E+00
    0.13248E+07        -0.97613E+08         0.00000E+00
    0.00000E+00         0.00000E+00        -0.69201E+08
 
   -0.69035E+08         0.13167E+07         0.00000E+00
    0.13167E+07        -0.97611E+08         0.00000E+00
    0.00000E+00         0.00000E+00        -0.69036E+08
 
   -0.68874E+08         0.13080E+07         0.00000E+00
    0.13080E+07        -0.97611E+08         0.00000E+00
    0.00000E+00         0.00000E+00        -0.68871E+08
 
   -0.68714E+08         0.12985E+07         0.00000E+00
    0.12985E+07        -0.97611E+08         0.00000E+00
    0.00000E+00         0.00000E+00        -0.68706E+08
 
   -0.68555E+08         0.12880E+07         0.00000E+00
    0.12880E+07        -0.97612E+08         0.00000E+00
    0.00000E+00         0.00000E+00        -0.68541E+08
 
   -0.68397E+08         0.12764E+07         0.00000E+00
    0.12764E+07        -0.97614E+08         0.00000E+00
    0.00000E+00         0.00000E+00        -0.68377E+08
 
   -0.68239E+08         0.12634E+07         0.00000E+00
    0.12634E+07        -0.97618E+08         0.00000E+00
    0.00000E+00         0.00000E+00        -0.68212E+08
 
   -0.68083E+08         0.12488E+07         0.00000E+00
    0.12488E+07        -0.97623E+08         0.00000E+00
    0.00000E+00         0.00000E+00        -0.68048E+08
 
   -0.67929E+08         0.12323E+07         0.00000E+00
    0.12323E+07        -0.97630E+08         0.00000E+00
    0.00000E+00         0.00000E+00        -0.67885E+08
 
   -0.67776E+08         0.12135E+07         0.00000E+00
    0.12135E+07        -0.97639E+08         0.00000E+00
    0.00000E+00         0.00000E+00        -0.67722E+08
 
   -0.67625E+08         0.11923E+07         0.00000E+00
    0.11923E+07        -0.97651E+08         0.00000E+00
    0.00000E+00         0.00000E+00        -0.67560E+08
 
   -0.67475E+08         0.11683E+07         0.00000E+00
    0.11683E+07        -0.97666E+08         0.00000E+00
    0.00000E+00         0.00000E+00        -0.67399E+08
 
   -0.67328E+08         0.11410E+07         0.00000E+00
    0.11410E+07        -0.97684E+08         0.00000E+00
    0.00000E+00         0.00000E+00        -0.67239E+08
 
   -0.67183E+08         0.11103E+07         0.00000E+00
    0.11103E+07        -0.97706E+08         0.00000E+00
    0.00000E+00         0.00000E+00        -0.67081E+08
 
   -0.67040E+08         0.10757E+07         0.00000E+00
    0.10757E+07        -0.97731E+08         0.00000E+00
    0.00000E+00         0.00000E+00        -0.66923E+08
 
   -0.66899E+08         0.10371E+07         0.00000E+00
    0.10371E+07        -0.97760E+08         0.00000E+00
    0.00000E+00         0.00000E+00        -0.66768E+08
 
   -0.66759E+08         0.99409E+06         0.00000E+00
    0.99409E+06        -0.97791E+08         0.00000E+00
    0.00000E+00         0.00000E+00        -0.66613E+08
 
   -0.66621E+08         0.94659E+06         0.00000E+00
    0.94659E+06        -0.97826E+08         0.00000E+00
    0.00000E+00         0.00000E+00        -0.66460E+08
 
   -0.66484E+08         0.89437E+06         0.00000E+00
    0.89437E+06        -0.97861E+08         0.00000E+00
    0.00000E+00         0.00000E+00        -0.66307E+08
 
   -0.66347E+08         0.83723E+06         0.00000E+00
    0.83723E+06        -0.97896E+08         0.00000E+00
    0.00000E+00         0.00000E+00        -0.66153E+08
 
   -0.66209E+08         0.77482E+06         0.00000E+00
    0.77482E+06        -0.97927E+08         0.00000E+00
    0.00000E+00         0.00000E+00        -0.65996E+08
 
   -0.66069E+08         0.70645E+06         0.00000E+00
    0.70645E+06        -0.97953E+08         0.00000E+00
    0.00000E+00         0.00000E+00        -0.65835E+08
 
   -0.65929E+08         0.63078E+06         0.00000E+00
    0.63078E+06        -0.97967E+08         0.00000E+00
    0.00000E+00         0.00000E+00        -0.65663E+08
 
   -0.65787E+08         0.54557E+06         0.00000E+00
    0.54557E+06        -0.97967E+08         0.00000E+00
    0.00000E+00         0.00000E+00        -0.65477E+08
 
   -0.65646E+08         0.44636E+06         0.00000E+00
    0.44636E+06        -0.97945E+08         0.00000E+00
    0.00000E+00         0.00000E+00        -0.65269E+08
 
   -0.65512E+08         0.32857E+06         0.00000E+00
    0.32857E+06        -0.97894E+08         0.00000E+00
    0.00000E+00         0.00000E+00        -0.65023E+08
 
   -0.65402E+08         0.19708E+06         0.00000E+00
    0.19708E+06        -0.97812E+08         0.00000E+00
    0.00000E+00         0.00000E+00        -0.64724E+08
 
   -0.65340E+08         0.64754E+05         0.00000E+00
    0.64754E+05        -0.97718E+08         0.00000E+00
    0.00000E+00         0.00000E+00        -0.64372E+08
 
   -0.83066E+08         0.78228E+05         0.00000E+00
    0.78228E+05        -0.97452E+08         0.00000E+00
    0.00000E+00         0.00000E+00        -0.84465E+08
 
   -0.82974E+08         0.24310E+06         0.00000E+00
    0.24310E+06        -0.97215E+08         0.00000E+00
    0.00000E+00         0.00000E+00        -0.84104E+08
 
   -0.82814E+08         0.41755E+06         0.00000E+00
    0.41755E+06        -0.97078E+08         0.00000E+00
    0.00000E+00         0.00000E+00        -0.83742E+08
 
   -0.82611E+08         0.58518E+06         0.00000E+00
    0.58518E+06        -0.97015E+08         0.00000E+00
    0.00000E+00         0.00000E+00        -0.83381E+08
 
   -0.82382E+08         0.73453E+06         0.00000E+00
    0.73453E+06        -0.97008E+08         0.00000E+00
    0.00000E+00         0.00000E+00        -0.83019E+08
 
   -0.82138E+08         0.86353E+06         0.00000E+00
    0.86353E+06        -0.97047E+08         0.00000E+00
    0.00000E+00         0.00000E+00        -0.82658E+08
 
   -0.81888E+08         0.97226E+06         0.00000E+00
    0.97226E+06        -0.97121E+08         0.00000E+00
    0.00000E+00         0.00000E+00        -0.82297E+08
 
   -0.81641E+08         0.10603E+07         0.00000E+00
    0.10603E+07        -0.97225E+08         0.00000E+00
    0.00000E+00         0.00000E+00        -0.81936E+08
 
   -0.81403E+08         0.11302E+07         0.00000E+00
    0.11302E+07        -0.97322E+08         0.00000E+00
    0.00000E+00         0.00000E+00        -0.81603E+08
 
   -0.81172E+08         0.11527E+07         0.00000E+00
    0.11527E+07        -0.97326E+08         0.00000E+00
    0.00000E+00         0.00000E+00        -0.81399E+08
 
   -0.80965E+08         0.11829E+07         0.00000E+00
    0.11829E+07        -0.97312E+08         0.00000E+00
    0.00000E+00         0.00000E+00        -0.81257E+08
 
   -0.80781E+08         0.12173E+07         0.00000E+00
    0.12173E+07        -0.97321E+08         0.00000E+00
    0.00000E+00         0.00000E+00        -0.81111E+08
 
   -0.80613E+08         0.12548E+07         0.00000E+00
    0.12548E+07        -0.97336E+08         0.00000E+00
    0.00000E+00         0.00000E+00        -0.80958E+08
 
   -0.80451E+08         0.12949E+07         0.00000E+00
    0.12949E+07        -0.97354E+08         0.00000E+00
    0.00000E+00         0.00000E+00        -0.80796E+08
 
   -0.80288E+08         0.13364E+07         0.00000E+00
    0.13364E+07        -0.97374E+08         0.00000E+00
    0.00000E+00         0.00000E+00        -0.80626E+08
 
   -0.80123E+08         0.13780E+07         0.00000E+00
    0.13780E+07        -0.97394E+08         0.00000E+00
    0.00000E+00         0.00000E+00        -0.80446E+08
 
   -0.79952E+08         0.14186E+07         0.00000E+00
    0.14186E+07        -0.97415E+08         0.00000E+00
    0.00000E+00         0.00000E+00        -0.80257E+08
 
   -0.79776E+08         0.14573E+07         0.00000E+00
    0.14573E+07        -0.97436E+08         0.00000E+00
    0.00000E+00         0.00000E+00        -0.80059E+08
 
   -0.79593E+08         0.14933E+07         0.00000E+00
    0.14933E+07        -0.97457E+08         0.00000E+00
    0.00000E+00         0.00000E+00        -0.79853E+08
 
   -0.79403E+08         0.15260E+07         0.00000E+00
    0.15260E+07        -0.97479E+08         0.00000E+00
    0.00000E+00         0.00000E+00        -0.79638E+08
 
   -0.79207E+08         0.15548E+07         0.00000E+00
    0.15548E+07        -0.97501E+08         0.00000E+00
    0.00000E+00         0.00000E+00        -0.79417E+08
 
   -0.79004E+08         0.15793E+07         0.00000E+00
    0.15793E+07        -0.97525E+08         0.00000E+00
    0.00000E+00         0.00000E+00        -0.79188E+08
 
   -0.78797E+08         0.15997E+07         0.00000E+00
    0.15997E+07        -0.97550E+08         0.00000E+00
    0.00000E+00         0.00000E+00        -0.78953E+08
 
   -0.78586E+08         0.16158E+07         0.00000E+00
    0.16158E+07        -0.97577E+08         0.00000E+00
    0.00000E+00         0.00000E+00        -0.78712E+08
 
   -0.78373E+08         0.16285E+07         0.00000E+00
    0.16285E+07        -0.97605E+08         0.00000E+00
    0.00000E+00         0.00000E+00        -0.78465E+08
 
   -0.78159E+08         0.16399E+07         0.00000E+00
    0.16399E+07        -0.97627E+08         0.00000E+00
    0.00000E+00         0.00000E+00        -0.78224E+08
 
   -0.77943E+08         0.16356E+07         0.00000E+00
    0.16356E+07        -0.97620E+08         0.00000E+00
    0.00000E+00         0.00000E+00        -0.78013E+08
 
   -0.77729E+08         0.16334E+07         0.00000E+00
    0.16334E+07        -0.97606E+08         0.00000E+00
    0.00000E+00         0.00000E+00        -0.77809E+08
 
   -0.77516E+08         0.16325E+07         0.00000E+00
    0.16325E+07        -0.97597E+08         0.00000E+00
    0.00000E+00         0.00000E+00        -0.77603E+08
 
   -0.77305E+08         0.16326E+07         0.00000E+00
    0.16326E+07        -0.97592E+08         0.00000E+00
    0.00000E+00         0.00000E+00        -0.77394E+08
 
   -0.77093E+08         0.16333E+07         0.00000E+00
    0.16333E+07        -0.97589E+08         0.00000E+00
    0.00000E+00         0.00000E+00        -0.77181E+08
 
   -0.76881E+08         0.16343E+07         0.00000E+00
    0.16343E+07        -0.97588E+08         0.00000E+00
    0.00000E+00         0.00000E+00        -0.76966E+08
 
   -0.76669E+08         0.16353E+07         0.00000E+00
    0.16353E+07        -0.97590E+08         0.00000E+00
    0.00000E+00         0.00000E+00        -0.76749E+08
 
   -0.76456E+08         0.16356E+07         0.00000E+00
    0.16356E+07        -0.97594E+08         0.00000E+00
    0.00000E+00         0.00000E+00        -0.76530E+08
 
   -0.76242E+08         0.16350E+07         0.00000E+00
    0.16350E+07        -0.97600E+08         0.00000E+00
    0.00000E+00         0.00000E+00        -0.76308E+08
 
   -0.76027E+08         0.16332E+07         0.00000E+00
    0.16332E+07        -0.97608E+08         0.00000E+00
    0.00000E+00         0.00000E+00        -0.76084E+08
 
   -0.75812E+08         0.16298E+07         0.00000E+00
    0.16298E+07        -0.97618E+08         0.00000E+00
    0.00000E+00         0.00000E+00        -0.75859E+08
 
   -0.75597E+08         0.16247E+07         0.00000E+00
    0.16247E+07        -0.97630E+08         0.00000E+00
    0.00000E+00         0.00000E+00        -0.75632E+08
 
   -0.75383E+08         0.16181E+07         0.00000E+00
    0.16181E+07        -0.97644E+08         0.00000E+00
    0.00000E+00         0.00000E+00        -0.75403E+08
 
   -0.75172E+08         0.16117E+07         0.00000E+00
    0.16117E+07        -0.97658E+08         0.00000E+00
    0.00000E+00         0.00000E+00        -0.75173E+08
 
   -0.74962E+08         0.15979E+07         0.00000E+00
    0.15979E+07        -0.97655E+08         0.00000E+00
    0.00000E+00         0.00000E+00        -0.74964E+08
 
   -0.74755E+08         0.15832E+07         0.00000E+00
    0.15832E+07        -0.97646E+08         0.00000E+00
    0.00000E+00         0.00000E+00        -0.74767E+08
 
   -0.74550E+08         0.15699E+07         0.00000E+00
    0.15699E+07        -0.97640E+08         0.00000E+00
    0.00000E+00         0.00000E+00        -0.74569E+08
 
   -0.74348E+08         0.15575E+07         0.00000E+00
    0.15575E+07        -0.97637E+08         0.00000E+00
    0.00000E+00         0.00000E+00        -0.74370E+08
 
   -0.74149E+08         0.15457E+07         0.00000E+00
    0.15457E+07        -0.97637E+08         0.00000E+00
    0.00000E+00         0.00000E+00        -0.74171E+08
 
   -0.73950E+08         0.15341E+07         0.00000E+00
    0.15341E+07        -0.97640E+08         0.00000E+00
    0.00000E+00         0.00000E+00        -0.73971E+08
 
   -0.73754E+08         0.15226E+07         0.00000E+00
    0.15226E+07        -0.97644E+08         0.00000E+00
    0.00000E+00         0.00000E+00        -0.73770E+08
 
   -0.73559E+08         0.15112E+07         0.00000E+00
    0.15112E+07        -0.97650E+08         0.00000E+00
    0.00000E+00         0.00000E+00        -0.73570E+08
 
   -0.73367E+08         0.15001E+07         0.00000E+00
    0.15001E+07        -0.97657E+08         0.00000E+00
    0.00000E+00         0.00000E+00        -0.73370E+08
 
   -0.73176E+08         0.14864E+07         0.00000E+00
    0.14864E+07        -0.97653E+08         0.00000E+00
    0.00000E+00         0.00000E+00        -0.73182E+08
 
   -0.72988E+08         0.14731E+07         0.00000E+00
    0.14731E+07        -0.97646E+08         0.00000E+00
    0.00000E+00         0.00000E+00        -0.73001E+08
 
   -0.72802E+08         0.14606E+07         0.00000E+00
    0.14606E+07        -0.97642E+08         0.00000E+00
    0.00000E+00         0.00000E+00        -0.72819E+08
 
   -0.72618E+08         0.14489E+07         0.00000E+00
    0.14489E+07        -0.97639E+08         0.00000E+00
    0.00000E+00         0.00000E+00        -0.72637E+08
 
   -0.72435E+08         0.14379E+07         0.00000E+00
    0.14379E+07        -0.97638E+08         0.00000E+00
    0.00000E+00         0.00000E+00        -0.72455E+08
 
   -0.72254E+08         0.14275E+07         0.00000E+00
    0.14275E+07        -0.97638E+08         0.00000E+00
    0.00000E+00         0.00000E+00        -0.72273E+08
 
   -0.72074E+08         0.14175E+07         0.00000E+00
    0.14175E+07        -0.97640E+08         0.00000E+00
    0.00000E+00         0.00000E+00        -0.72092E+08
 
   -0.71896E+08         0.14080E+07         0.00000E+00
    0.14080E+07        -0.97642E+08         0.00000E+00
    0.00000E+00         0.00000E+00        -0.71910E+08
 
   -0.71719E+08         0.13986E+07         0.00000E+00
    0.13986E+07        -0.97641E+08         0.00000E+00
    0.00000E+00         0.00000E+00        -0.71733E+08
 
   -0.71543E+08         0.13889E+07         0.00000E+00
    0.13889E+07        -0.97637E+08         0.00000E+00
    0.00000E+00         0.00000E+00        -0.71562E+08
 
   -0.71369E+08         0.13799E+07         0.00000E+00
    0.13799E+07        -0.97633E+08         0.00000E+00
    0.00000E+00         0.00000E+00        -0.71390E+08
 
   -0.71196E+08         0.13717E+07         0.00000E+00
    0.13717E+07        -0.97630E+08         0.00000E+00
    0.00000E+00         0.00000E+00        -0.71219E+08
 
   -0.71024E+08         0.13641E+07         0.00000E+00
    0.13641E+07        -0.97628E+08         0.00000E+00
    0.00000E+00         0.00000E+00        -0.71047E+08
 
   -0.70852E+08         0.13571E+07         0.00000E+00
    0.13571E+07        -0.97627E+08         0.00000E+00
    0.00000E+00         0.00000E+00        -0.70876E+08
 
   -0.70682E+08         0.13504E+07         0.00000E+00
    0.13504E+07        -0.97626E+08         0.00000E+00
    0.00000E+00         0.00000E+00        -0.70706E+08
 
   -0.70512E+08         0.13441E+07         0.00000E+00
    0.13441E+07        -0.97625E+08         0.00000E+00
    0.00000E+00         0.00000E+00        -0.70535E+08
 
   -0.70342E+08         0.13381E+07         0.00000E+00
    0.13381E+07        -0.97625E+08         0.00000E+00
    0.00000E+00         0.00000E+00        -0.70364E+08
 
   -0.70174E+08         0.13321E+07         0.00000E+00
    0.13321E+07        -0.97625E+08         0.00000E+00
    0.00000E+00         0.00000E+00        -0.70194E+08
 
   -0.70007E+08         0.13260E+07         0.00000E+00
    0.13260E+07        -0.97625E+08         0.00000E+00
    0.00000E+00         0.00000E+00        -0.70025E+08
 
   -0.69843E+08         0.13196E+07         0.00000E+00
    0.13196E+07        -0.97621E+08         0.00000E+00
    0.00000E+00         0.00000E+00        -0.69859E+08
 
   -0.69679E+08         0.13131E+07         0.00000E+00
    0.13131E+07        -0.97618E+08         0.00000E+00
    0.00000E+00         0.00000E+00        -0.69693E+08
 
   -0.69517E+08         0.13063E+07         0.00000E+00
    0.13063E+07        -0.97615E+08         0.00000E+00
    0.00000E+00         0.00000E+00        -0.69528E+08
 
   -0.69354E+08         0.12993E+07         0.00000E+00
    0.12993E+07        -0.97613E+08         0.00000E+00
    0.00000E+00         0.00000E+00        -0.69362E+08
 
   -0.69193E+08         0.12918E+07         0.00000E+00
    0.12918E+07        -0.97611E+08         0.00000E+00
    0.00000E+00         0.00000E+00        -0.69196E+08
 
   -0.69031E+08         0.12839E+07         0.00000E+00
    0.12839E+07        -0.97609E+08         0.00000E+00
    0.00000E+00         0.00000E+00        -0.69031E+08
 
   -0.68871E+08         0.12753E+07         0.00000E+00
    0.12753E+07        -0.97608E+08         0.00000E+00
    0.00000E+00         0.00000E+00        -0.68866E+08
 
   -0.68711E+08         0.12660E+07         0.00000E+00
    0.12660E+07        -0.97608E+08         0.00000E+00
    0.00000E+00         0.00000E+00        -0.68700E+08
 
   -0.68552E+08         0.12557E+07         0.00000E+00
    0.12557E+07        -0.97609E+08         0.00000E+00
    0.00000E+00         0.00000E+00        -0.68535E+08
 
   -0.68394E+08         0.12443E+07         0.00000E+00
    0.12443E+07        -0.97611E+08         0.00000E+00
    0.00000E+00         0.00000E+00        -0.68370E+08
 
   -0.68237E+08         0.12316E+07         0.00000E+00
    0.12316E+07        -0.97614E+08         0.00000E+00
    0.00000E+00         0.00000E+00        -0.68206E+08
 
   -0.68081E+08         0.12173E+07         0.00000E+00
    0.12173E+07        -0.97619E+08         0.00000E+00
    0.00000E+00         0.00000E+00        -0.68041E+08
 
   -0.67927E+08         0.12012E+07         0.00000E+00
    0.12012E+07        -0.97626E+08         0.00000E+00
    0.00000E+00         0.00000E+00        -0.67877E+08
 
   -0.67774E+08         0.11828E+07         0.00000E+00
    0.11828E+07        -0.97635E+08         0.00000E+00
    0.00000E+00         0.00000E+00        -0.67714E+08
 
   -0.67624E+08         0.11620E+07         0.00000E+00
    0.11620E+07        -0.97646E+08         0.00000E+00
    0.00000E+00         0.00000E+00        -0.67551E+08
 
   -0.67475E+08         0.11384E+07         0.00000E+00
    0.11384E+07        -0.97660E+08         0.00000E+00
    0.00000E+00         0.00000E+00        -0.67389E+08
 
   -0.67328E+08         0.11116E+07         0.00000E+00
    0.11116E+07        -0.97678E+08         0.00000E+00
    0.00000E+00         0.00000E+00        -0.67228E+08
 
   -0.67183E+08         0.10814E+07         0.00000E+00
    0.10814E+07        -0.97699E+08         0.00000E+00
    0.00000E+00         0.00000E+00        -0.67069E+08
 
   -0.67041E+08         0.10473E+07         0.00000E+00
    0.10473E+07        -0.97723E+08         0.00000E+00
    0.00000E+00         0.00000E+00        -0.66910E+08
 
   -0.66900E+08         0.10090E+07         0.00000E+00
    0.10090E+07        -0.97751E+08         0.00000E+00
    0.00000E+00         0.00000E+00        -0.66753E+08
 
   -0.66761E+08         0.96642E+06         0.00000E+00
    0.96642E+06        -0.97782E+08         0.00000E+00
    0.00000E+00         0.00000E+00        -0.66598E+08
 
   -0.66624E+08         0.91916E+06         0.00000E+00
    0.91916E+06        -0.97816E+08         0.00000E+00
    0.00000E+00         0.00000E+00        -0.66443E+08
 
   -0.66488E+08         0.86704E+06         0.00000E+00
    0.86704E+06        -0.97850E+08         0.00000E+00
    0.00000E+00         0.00000E+00        -0.66288E+08
 
   -0.66351E+08         0.80984E+06         0.00000E+00
    0.80984E+06        -0.97884E+08         0.00000E+00
    0.00000E+00         0.00000E+00        -0.66133E+08
 
   -0.66214E+08         0.74723E+06         0.00000E+00
    0.74723E+06        -0.97915E+08         0.00000E+00
    0.00000E+00         0.00000E+00        -0.65975E+08
 
   -0.66077E+08         0.67855E+06         0.00000E+00
    0.67855E+06        -0.97939E+08         0.00000E+00
    0.00000E+00         0.00000E+00        -0.65811E+08
 
   -0.65937E+08         0.60261E+06         0.00000E+00
    0.60261E+06        -0.97952E+08         0.00000E+00
    0.00000E+00         0.00000E+00        -0.65637E+08
 
   -0.65798E+08         0.51727E+06         0.00000E+00
    0.51727E+06        -0.97950E+08         0.00000E+00
    0.00000E+00         0.00000E+00        -0.65447E+08
 
   -0.65660E+08         0.41862E+06         0.00000E+00
    0.41862E+06        -0.97925E+08         0.00000E+00
    0.00000E+00         0.00000E+00        -0.65232E+08
 
   -0.65532E+08         0.30426E+06         0.00000E+00
    0.30426E+06        -0.97870E+08         0.00000E+00
    0.00000E+00         0.00000E+00        -0.64979E+08
 
   -0.65430E+08         0.18080E+06         0.00000E+00
    0.18080E+06        -0.97788E+08         0.00000E+00
    0.00000E+00         0.00000E+00        -0.64672E+08
 
   -0.65374E+08         0.59209E+05         0.00000E+00
    0.59209E+05        -0.97695E+08         0.00000E+00
    0.00000E+00         0.00000E+00        -0.64316E+08
 
   -0.82949E+08         0.68776E+05         0.00000E+00
    0.68776E+05        -0.97482E+08         0.00000E+00
    0.00000E+00         0.00000E+00        -0.84465E+08
 
   -0.82864E+08         0.21772E+06         0.00000E+00
    0.21772E+06        -0.97248E+08         0.00000E+00
    0.00000E+00         0.00000E+00        -0.84104E+08
 
   -0.82716E+08         0.38173E+06         0.00000E+00
    0.38173E+06        -0.97112E+08         0.00000E+00
    0.00000E+00         0.00000E+00        -0.83742E+08
 
   -0.82527E+08         0.54271E+06         0.00000E+00
    0.54271E+06        -0.97046E+08         0.00000E+00
    0.00000E+00         0.00000E+00        -0.83381E+08
 
   -0.82310E+08         0.68791E+06         0.00000E+00
    0.68791E+06        -0.97036E+08         0.00000E+00
    0.00000E+00         0.00000E+00        -0.83019E+08
 
   -0.82077E+08         0.81488E+06         0.00000E+00
    0.81488E+06        -0.97071E+08         0.00000E+00
    0.00000E+00         0.00000E+00        -0.82658E+08
 
   -0.81837E+08         0.92342E+06         0.00000E+00
    0.92342E+06        -0.97141E+08         0.00000E+00
    0.00000E+00         0.00000E+00        -0.82297E+08
 
   -0.81599E+08         0.10121E+07         0.00000E+00
    0.10121E+07        -0.97241E+08         0.00000E+00
    0.00000E+00         0.00000E+00        -0.81936E+08
 
   -0.81367E+08         0.10842E+07         0.00000E+00
    0.10842E+07        -0.97331E+08         0.00000E+00
    0.00000E+00         0.00000E+00        -0.81609E+08
 
   -0.81139E+08         0.11082E+07         0.00000E+00
    0.11082E+07        -0.97332E+08         0.00000E+00
    0.00000E+00         0.00000E+00        -0.81406E+08
 
   -0.80932E+08         0.11438E+07         0.00000E+00
    0.11438E+07        -0.97320E+08         0.00000E+00
    0.00000E+00         0.00000E+00        -0.81261E+08
 
   -0.80748E+08         0.11823E+07         0.00000E+00
    0.11823E+07        -0.97328E+08         0.00000E+00
    0.00000E+00         0.00000E+00        -0.81111E+08
 
   -0.80579E+08         0.12218E+07         0.00000E+00
    0.12218E+07        -0.97344E+08         0.00000E+00
    0.00000E+00         0.00000E+00        -0.80955E+08
 
   -0.80415E+08         0.12625E+07         0.00000E+00
    0.12625E+07        -0.97362E+08         0.00000E+00
    0.00000E+00         0.00000E+00        -0.80791E+08
 
   -0.80252E+08         0.13037E+07         0.00000E+00
    0.13037E+07        -0.97382E+08         0.00000E+00
    0.00000E+00         0.00000E+00        -0.80618E+08
 
   -0.80086E+08         0.13445E+07         0.00000E+00
    0.13445E+07        -0.97402E+08         0.00000E+00
    0.00000E+00         0.00000E+00        -0.80436E+08
 
   -0.79916E+08         0.13840E+07         0.00000E+00
    0.13840E+07        -0.97423E+08         0.00000E+00
    0.00000E+00         0.00000E+00        -0.80246E+08
 
   -0.79740E+08         0.14215E+07         0.00000E+00
    0.14215E+07        -0.97443E+08         0.00000E+00
    0.00000E+00         0.00000E+00        -0.80047E+08
 
   -0.79558E+08         0.14562E+07         0.00000E+00
    0.14562E+07        -0.97464E+08         0.00000E+00
    0.00000E+00         0.00000E+00        -0.79840E+08
 
   -0.79370E+08         0.14875E+07         0.00000E+00
    0.14875E+07        -0.97485E+08         0.00000E+00
    0.00000E+00         0.00000E+00        -0.79625E+08
 
   -0.79175E+08         0.15151E+07         0.00000E+00
    0.15151E+07        -0.97506E+08         0.00000E+00
    0.00000E+00         0.00000E+00        -0.79403E+08
 
   -0.78975E+08         0.15385E+07         0.00000E+00
    0.15385E+07        -0.97529E+08         0.00000E+00
    0.00000E+00         0.00000E+00        -0.79174E+08
 
   -0.78769E+08         0.15579E+07         0.00000E+00
    0.15579E+07        -0.97554E+08         0.00000E+00
    0.00000E+00         0.00000E+00        -0.78938E+08
 
   -0.78560E+08         0.15736E+07         0.00000E+00
    0.15736E+07        -0.97580E+08         0.00000E+00
    0.00000E+00         0.00000E+00        -0.78697E+08
 
   -0.78350E+08         0.15861E+07         0.00000E+00
    0.15861E+07        -0.97607E+08         0.00000E+00
    0.00000E+00         0.00000E+00        -0.78451E+08
 
   -0.78137E+08         0.15970E+07         0.00000E+00
    0.15970E+07        -0.97627E+08         0.00000E+00
    0.00000E+00         0.00000E+00        -0.78212E+08
 
   -0.77923E+08         0.15926E+07         0.00000E+00
    0.15926E+07        -0.97619E+08         0.00000E+00
    0.00000E+00         0.00000E+00        -0.78003E+08
 
   -0.77709E+08         0.15908E+07         0.00000E+00
    0.15908E+07        -0.97606E+08         0.00000E+00
    0.00000E+00         0.00000E+00        -0.77799E+08
 
   -0.77497E+08         0.15902E+07         0.00000E+00
    0.15902E+07        -0.97597E+08         0.00000E+00
    0.00000E+00         0.00000E+00        -0.77592E+08
 
   -0.77286E+08         0.15904E+07         0.00000E+00
    0.15904E+07        -0.97592E+08         0.00000E+00
    0.00000E+00         0.00000E+00        -0.77383E+08
 
   -0.77075E+08         0.15910E+07         0.00000E+00
    0.15910E+07        -0.97589E+08         0.00000E+00
    0.00000E+00         0.00000E+00        -0.77171E+08
 
   -0.76863E+08         0.15920E+07         0.00000E+00
    0.15920E+07        -0.97589E+08         0.00000E+00
    0.00000E+00         0.00000E+00        -0.76956E+08
 
   -0.76651E+08         0.15927E+07         0.00000E+00
    0.15927E+07        -0.97590E+08         0.00000E+00
    0.00000E+00         0.00000E+00        -0.76739E+08
 
   -0.76439E+08         0.15930E+07         0.00000E+00
    0.15930E+07        -0.97594E+08         0.00000E+00
    0.00000E+00         0.00000E+00        -0.76519E+08
 
   -0.76225E+08         0.15922E+07         0.00000E+00
    0.15922E+07        -0.97599E+08         0.00000E+00
    0.00000E+00         0.00000E+00        -0.76298E+08
 
   -0.76012E+08         0.15903E+07         0.00000E+00
    0.15903E+07        -0.97607E+08         0.00000E+00
    0.00000E+00         0.00000E+00        -0.76075E+08
 
   -0.75798E+08         0.15869E+07         0.00000E+00
    0.15869E+07        -0.97617E+08         0.00000E+00
    0.00000E+00         0.00000E+00        -0.75849E+08
 
   -0.75584E+08         0.15819E+07         0.00000E+00
    0.15819E+07        -0.97629E+08         0.00000E+00
    0.00000E+00         0.00000E+00        -0.75622E+08
 
   -0.75372E+08         0.15757E+07         0.00000E+00
    0.15757E+07        -0.97642E+08         0.00000E+00
    0.00000E+00         0.00000E+00        -0.75394E+08
 
   -0.75162E+08         0.15698E+07         0.00000E+00
    0.15698E+07        -0.97656E+08         0.00000E+00
    0.00000E+00         0.00000E+00        -0.75166E+08
 
   -0.74953E+08         0.15560E+07         0.00000E+00
    0.15560E+07        -0.97653E+08         0.00000E+00
    0.00000E+00         0.00000E+00        -0.74958E+08
 
   -0.74746E+08         0.15421E+07         0.00000E+00
    0.15421E+07        -0.97644E+08         0.00000E+00
    0.00000E+00         0.00000E+00        -0.74761E+08
 
   -0.74542E+08         0.15293E+07         0.00000E+00
    0.15293E+07        -0.97638E+08         0.00000E+00
    0.00000E+00         0.00000E+00        -0.74563E+08
 
   -0.74340E+08         0.15174E+07         0.00000E+00
    0.15174E+07        -0.97635E+08         0.00000E+00
    0.00000E+00         0.00000E+00        -0.74364E+08
 
   -0.74141E+08         0.15059E+07         0.00000E+00
    0.15059E+07        -0.97635E+08         0.00000E+00
    0.00000E+00         0.00000E+00        -0.74165E+08
 
   -0.73943E+08         0.14947E+07         0.00000E+00
    0.14947E+07        -0.97637E+08         0.00000E+00
    0.00000E+00         0.00000E+00        -0.73965E+08
 
   -0.73747E+08         0.14835E+07         0.00000E+00
    0.14835E+07        -0.97641E+08         0.00000E+00
    0.00000E+00         0.00000E+00        -0.73765E+08
 
   -0.73553E+08         0.14725E+07         0.00000E+00
    0.14725E+07        -0.97648E+08         0.00000E+00
    0.00000E+00         0.00000E+00        -0.73564E+08
 
   -0.73360E+08         0.14619E+07         0.00000E+00
    0.14619E+07        -0.97654E+08         0.00000E+00
    0.00000E+00         0.00000E+00        -0.73365E+08
 
   -0.73170E+08         0.14486E+07         0.00000E+00
    0.14486E+07        -0.97650E+08         0.00000E+00
    0.00000E+00         0.00000E+00        -0.73178E+08
 
   -0.72982E+08         0.14357E+07         0.00000E+00
    0.14357E+07        -0.97644E+08         0.00000E+00
    0.00000E+00         0.00000E+00        -0.72996E+08
 
   -0.72796E+08         0.14236E+07         0.00000E+00
    0.14236E+07        -0.97639E+08         0.00000E+00
    0.00000E+00         0.00000E+00        -0.72815E+08
 
   -0.72612E+08         0.14122E+07         0.00000E+00
    0.14122E+07        -0.97637E+08         0.00000E+00
    0.00000E+00         0.00000E+00        -0.72633E+08
 
   -0.72429E+08         0.14015E+07         0.00000E+00
    0.14015E+07        -0.97636E+08         0.00000E+00
    0.00000E+00         0.00000E+00        -0.72451E+08
 
   -0.72248E+08         0.13913E+07         0.00000E+00
    0.13913E+07        -0.97636E+08         0.00000E+00
    0.00000E+00         0.00000E+00        -0.72270E+08
 
   -0.72068E+08         0.13816E+07         0.00000E+00
    0.13816E+07        -0.97638E+08         0.00000E+00
    0.00000E+00         0.00000E+00        -0.72088E+08
 
   -0.71890E+08         0.13725E+07         0.00000E+00
    0.13725E+07        -0.97640E+08         0.00000E+00
    0.00000E+00         0.00000E+00        -0.71906E+08
 
   -0.71713E+08         0.13633E+07         0.00000E+00
    0.13633E+07        -0.97639E+08         0.00000E+00
    0.00000E+00         0.00000E+00        -0.71730E+08
 
   -0.71538E+08         0.13539E+07         0.00000E+00
    0.13539E+07        -0.97635E+08         0.00000E+00
    0.00000E+00         0.00000E+00        -0.71558E+08
 
   -0.71363E+08         0.13452E+07         0.00000E+00
    0.13452E+07        -0.97631E+08         0.00000E+00
    0.00000E+00         0.00000E+00        -0.71387E+08
 
   -0.71190E+08         0.13371E+07         0.00000E+00
    0.13371E+07        -0.97629E+08         0.00000E+00
    0.00000E+00         0.00000E+00        -0.71215E+08
 
   -0.71018E+08         0.13298E+07         0.00000E+00
    0.13298E+07        -0.97627E+08         0.00000E+00
    0.00000E+00         0.00000E+00        -0.71044E+08
 
   -0.70847E+08         0.13229E+07         0.00000E+00
    0.13229E+07        -0.97625E+08         0.00000E+00
    0.00000E+00         0.00000E+00        -0.70873E+08
 
   -0.70676E+08         0.13164E+07         0.00000E+00
    0.13164E+07        -0.97625E+08         0.00000E+00
    0.00000E+00         0.00000E+00        -0.70702E+08
 
   -0.70506E+08         0.13102E+07         0.00000E+00
    0.13102E+07        -0.97624E+08         0.00000E+00
    0.00000E+00         0.00000E+00        -0.70531E+08
 
   -0.70337E+08         0.13043E+07         0.00000E+00
    0.13043E+07        -0.97624E+08         0.00000E+00
    0.00000E+00         0.00000E+00        -0.70360E+08
 
   -0.70168E+08         0.12984E+07         0.00000E+00
    0.12984E+07        -0.97624E+08         0.00000E+00
    0.00000E+00         0.00000E+00        -0.70190E+08
 
   -0.70002E+08         0.12924E+07         0.00000E+00
    0.12924E+07        -0.97623E+08         0.00000E+00
    0.00000E+00         0.00000E+00        -0.70021E+08
 
   -0.69838E+08         0.12861E+07         0.00000E+00
    0.12861E+07        -0.97619E+08         0.00000E+00
    0.00000E+00         0.00000E+00        -0.69855E+08
 
   -0.69675E+08         0.12797E+07         0.00000E+00
    0.12797E+07        -0.97616E+08         0.00000E+00
    0.00000E+00         0.00000E+00        -0.69689E+08
 
   -0.69513E+08         0.12730E+07         0.00000E+00
    0.12730E+07        -0.97613E+08         0.00000E+00
    0.00000E+00         0.00000E+00        -0.69523E+08
 
   -0.69350E+08         0.12661E+07         0.00000E+00
    0.12661E+07        -0.97611E+08         0.00000E+00
    0.00000E+00         0.00000E+00        -0.69358E+08
 
   -0.69189E+08         0.12588E+07         0.00000E+00
    0.12588E+07        -0.97609E+08         0.00000E+00
    0.00000E+00         0.00000E+00        -0.69192E+08
 
   -0.69028E+08         0.12511E+07         0.00000E+00
    0.12511E+07        -0.97607E+08         0.00000E+00
    0.00000E+00         0.00000E+00        -0.69026E+08
 
   -0.68867E+08         0.12427E+07         0.00000E+00
    0.12427E+07        -0.97606E+08         0.00000E+00
    0.00000E+00         0.00000E+00        -0.68861E+08
 
   -0.68708E+08         0.12335E+07         0.00000E+00
    0.12335E+07        -0.97606E+08         0.00000E+00
    0.00000E+00         0.00000E+00        -0.68695E+08
 
   -0.68549E+08         0.12235E+07         0.00000E+00
    0.12235E+07        -0.97606E+08         0.00000E+00
    0.00000E+00         0.00000E+00        -0.68530E+08
 
   -0.68391E+08         0.12124E+07         0.00000E+00
    0.12124E+07        -0.97608E+08         0.00000E+00
    0.00000E+00         0.00000E+00        -0.68364E+08
 
   -0.68235E+08         0.12000E+07         0.00000E+00
    0.12000E+07        -0.97611E+08         0.00000E+00
    0.00000E+00         0.00000E+00        -0.68199E+08
 
   -0.68079E+08         0.11860E+07         0.00000E+00
    0.11860E+07        -0.97616E+08         0.00000E+00
    0.00000E+00         0.00000E+00        -0.68034E+08
 
   -0.67926E+08         0.11702E+07         0.00000E+00
    0.11702E+07        -0.97622E+08         0.00000E+00
    0.00000E+00         0.00000E+00        -0.67870E+08
 
   -0.67773E+08         0.11522E+07         0.00000E+00
    0.11522E+07        -0.97630E+08         0.00000E+00
    0.00000E+00         0.00000E+00        -0.67706E+08
 
   -0.67623E+08         0.11319E+07         0.00000E+00
    0.11319E+07        -0.97641E+08         0.00000E+00
    0.00000E+00         0.00000E+00        -0.67542E+08
 
   -0.67474E+08         0.11087E+07         0.00000E+00
    0.11087E+07        -0.97655E+08         0.00000E+00
    0.00000E+00         0.00000E+00        -0.67379E+08
 
   -0.67328E+08         0.10824E+07         0.00000E+00
    0.10824E+07        -0.97672E+08         0.00000E+00
    0.00000E+00         0.00000E+00        -0.67217E+08
 
   -0.67184E+08         0.10526E+07         0.00000E+00
    0.10526E+07        -0.97692E+08         0.00000E+00
    0.00000E+00         0.00000E+00        -0.67057E+08
 
   -0.67042E+08         0.10190E+07         0.00000E+00
    0.10190E+07        -0.97716E+08         0.00000E+00
    0.00000E+00         0.00000E+00        -0.66897E+08
 
   -0.66902E+08         0.98117E+06         0.00000E+00
    0.98117E+06        -0.97743E+08         0.00000E+00
    0.00000E+00         0.00000E+00        -0.66739E+08
 
   -0.66764E+08         0.93890E+06         0.00000E+00
    0.93890E+06        -0.97773E+08         0.00000E+00
    0.00000E+00         0.00000E+00        -0.66582E+08
 
   -0.66627E+08         0.89190E+06         0.00000E+00
    0.89190E+06        -0.97805E+08         0.00000E+00
    0.00000E+00         0.00000E+00        -0.66426E+08
 
   -0.66492E+08         0.83991E+06         0.00000E+00
    0.83991E+06        -0.97839E+08         0.00000E+00
    0.00000E+00         0.00000E+00        -0.66270E+08
 
   -0.66356E+08         0.78269E+06         0.00000E+00
    0.78269E+06        -0.97872E+08         0.00000E+00
    0.00000E+00         0.00000E+00        -0.66113E+08
 
   -0.66221E+08         0.71990E+06         0.00000E+00
    0.71990E+06        -0.97902E+08         0.00000E+00
    0.00000E+00         0.00000E+00        -0.65953E+08
 
   -0.66084E+08         0.65096E+06         0.00000E+00
    0.65096E+06        -0.97925E+08         0.00000E+00
    0.00000E+00         0.00000E+00        -0.65786E+08
 
   -0.65947E+08         0.57483E+06         0.00000E+00
    0.57483E+06        -0.97937E+08         0.00000E+00
    0.00000E+00         0.00000E+00        -0.65610E+08
 
   -0.65809E+08         0.48952E+06         0.00000E+00
    0.48952E+06        -0.97932E+08         0.00000E+00
    0.00000E+00         0.00000E+00        -0.65416E+08
 
   -0.65675E+08         0.39190E+06         0.00000E+00
    0.39190E+06        -0.97905E+08         0.00000E+00
    0.00000E+00         0.00000E+00        -0.65196E+08
 
   -0.65553E+08         0.28157E+06         0.00000E+00
    0.28157E+06        -0.97848E+08         0.00000E+00
    0.00000E+00         0.00000E+00        -0.64934E+08
 
   -0.65459E+08         0.16602E+06         0.00000E+00
    0.16602E+06        -0.97766E+08         0.00000E+00
    0.00000E+00         0.00000E+00        -0.64622E+08
 
   -0.65407E+08         0.54234E+05         0.00000E+00
    0.54234E+05        -0.97675E+08         0.00000E+00
    0.00000E+00         0.00000E+00        -0.64264E+08
 
   -0.82834E+08         0.59875E+05         0.00000E+00
    0.59875E+05        -0.97508E+08         0.00000E+00
    0.00000E+00         0.00000E+00        -0.84465E+08
 
   -0.82755E+08         0.19414E+06         0.00000E+00
    0.19414E+06        -0.97279E+08         0.00000E+00
    0.00000E+00         0.00000E+00        -0.84104E+08
 
   -0.82618E+08         0.34856E+06         0.00000E+00
    0.34856E+06        -0.97144E+08         0.00000E+00
    0.00000E+00         0.00000E+00        -0.83742E+08
 
   -0.82442E+08         0.50289E+06         0.00000E+00
    0.50289E+06        -0.97076E+08         0.00000E+00
    0.00000E+00         0.00000E+00        -0.83381E+08
 
   -0.82237E+08         0.64363E+06         0.00000E+00
    0.64363E+06        -0.97063E+08         0.00000E+00
    0.00000E+00         0.00000E+00        -0.83019E+08
 
   -0.82015E+08         0.76825E+06         0.00000E+00
    0.76825E+06        -0.97094E+08         0.00000E+00
    0.00000E+00         0.00000E+00        -0.82658E+08
 
   -0.81785E+08         0.87645E+06         0.00000E+00
    0.87645E+06        -0.97160E+08         0.00000E+00
    0.00000E+00         0.00000E+00        -0.82297E+08
 
   -0.81555E+08         0.96555E+06         0.00000E+00
    0.96555E+06        -0.97257E+08         0.00000E+00
    0.00000E+00         0.00000E+00        -0.81936E+08
 
   -0.81329E+08         0.10388E+07         0.00000E+00
    0.10388E+07        -0.97339E+08         0.00000E+00
    0.00000E+00         0.00000E+00        -0.81616E+08
 
   -0.81104E+08         0.10642E+07         0.00000E+00
    0.10642E+07        -0.97338E+08         0.00000E+00
    0.00000E+00         0.00000E+00        -0.81415E+08
 
   -0.80900E+08         0.11049E+07         0.00000E+00
    0.11049E+07        -0.97328E+08         0.00000E+00
    0.00000E+00         0.00000E+00        -0.81265E+08
 
   -0.80716E+08         0.11472E+07         0.00000E+00
    0.11472E+07        -0.97337E+08         0.00000E+00
    0.00000E+00         0.00000E+00        -0.81112E+08
 
   -0.80546E+08         0.11886E+07         0.00000E+00
    0.11886E+07        -0.97352E+08         0.00000E+00
    0.00000E+00         0.00000E+00        -0.80953E+08
 
   -0.80381E+08         0.12299E+07         0.00000E+00
    0.12299E+07        -0.97371E+08         0.00000E+00
    0.00000E+00         0.00000E+00        -0.80786E+08
 
   -0.80218E+08         0.12708E+07         0.00000E+00
    0.12708E+07        -0.97390E+08         0.00000E+00
    0.00000E+00         0.00000E+00        -0.80611E+08
 
   -0.80052E+08         0.13109E+07         0.00000E+00
    0.13109E+07        -0.97410E+08         0.00000E+00
    0.00000E+00         0.00000E+00        -0.80428E+08
 
   -0.79882E+08         0.13494E+07         0.00000E+00
    0.13494E+07        -0.97430E+08         0.00000E+00
    0.00000E+00         0.00000E+00        -0.80236E+08
 
   -0.79706E+08         0.13858E+07         0.00000E+00
    0.13858E+07        -0.97450E+08         0.00000E+00
    0.00000E+00         0.00000E+00        -0.80036E+08
 
   -0.79525E+08         0.14192E+07         0.00000E+00
    0.14192E+07        -0.97470E+08         0.00000E+00
    0.00000E+00         0.00000E+00        -0.79827E+08
 
   -0.79338E+08         0.14494E+07         0.00000E+00
    0.14494E+07        -0.97490E+08         0.00000E+00
    0.00000E+00         0.00000E+00        -0.79612E+08
 
   -0.79145E+08         0.14757E+07         0.00000E+00
    0.14757E+07        -0.97511E+08         0.00000E+00
    0.00000E+00         0.00000E+00        -0.79389E+08
 
   -0.78946E+08         0.14981E+07         0.00000E+00
    0.14981E+07        -0.97533E+08         0.00000E+00
    0.00000E+00         0.00000E+00        -0.79160E+08
 
   -0.78743E+08         0.15166E+07         0.00000E+00
    0.15166E+07        -0.97557E+08         0.00000E+00
    0.00000E+00         0.00000E+00        -0.78924E+08
 
   -0.78535E+08         0.15317E+07         0.00000E+00
    0.15317E+07        -0.97582E+08         0.00000E+00
    0.00000E+00         0.00000E+00        -0.78683E+08
 
   -0.78327E+08         0.15441E+07         0.00000E+00
    0.15441E+07        -0.97610E+08         0.00000E+00
    0.00000E+00         0.00000E+00        -0.78436E+08
 
   -0.78116E+08         0.15543E+07         0.00000E+00
    0.15543E+07        -0.97628E+08         0.00000E+00
    0.00000E+00         0.00000E+00        -0.78200E+08
 
   -0.77902E+08         0.15498E+07         0.00000E+00
    0.15498E+07        -0.97618E+08         0.00000E+00
    0.00000E+00         0.00000E+00        -0.77993E+08
 
   -0.77690E+08         0.15483E+07         0.00000E+00
    0.15483E+07        -0.97606E+08         0.00000E+00
    0.00000E+00         0.00000E+00        -0.77789E+08
 
   -0.77478E+08         0.15479E+07         0.00000E+00
    0.15479E+07        -0.97597E+08         0.00000E+00
    0.00000E+00         0.00000E+00        -0.77582E+08
 
   -0.77267E+08         0.15482E+07         0.00000E+00
    0.15482E+07        -0.97592E+08         0.00000E+00
    0.00000E+00         0.00000E+00        -0.77373E+08
 
   -0.77056E+08         0.15488E+07         0.00000E+00
    0.15488E+07        -0.97589E+08         0.00000E+00
    0.00000E+00         0.00000E+00        -0.77160E+08
 
   -0.76845E+08         0.15497E+07         0.00000E+00
    0.15497E+07        -0.97589E+08         0.00000E+00
    0.00000E+00         0.00000E+00        -0.76946E+08
 
   -0.76634E+08         0.15503E+07         0.00000E+00
    0.15503E+07        -0.97590E+08         0.00000E+00
    0.00000E+00         0.00000E+00        -0.76729E+08
 
   -0.76422E+08         0.15505E+07         0.00000E+00
    0.15505E+07        -0.97594E+08         0.00000E+00
    0.00000E+00         0.00000E+00        -0.76509E+08
 
   -0.76210E+08         0.15496E+07         0.00000E+00
    0.15496E+07        -0.97599E+08         0.00000E+00
    0.00000E+00         0.00000E+00        -0.76288E+08
 
   -0.75997E+08         0.15476E+07         0.00000E+00
    0.15476E+07        -0.97607E+08         0.00000E+00
    0.00000E+00         0.00000E+00        -0.76065E+08
 
   -0.75784E+08         0.15443E+07         0.00000E+00
    0.15443E+07        -0.97616E+08         0.00000E+00
    0.00000E+00         0.00000E+00        -0.75840E+08
 
   -0.75572E+08         0.15394E+07         0.00000E+00
    0.15394E+07        -0.97628E+08         0.00000E+00
    0.00000E+00         0.00000E+00        -0.75613E+08
 
   -0.75361E+08         0.15336E+07         0.00000E+00
    0.15336E+07        -0.97641E+08         0.00000E+00
    0.00000E+00         0.00000E+00        -0.75385E+08
 
   -0.75152E+08         0.15281E+07         0.00000E+00
    0.15281E+07        -0.97654E+08         0.00000E+00
    0.00000E+00         0.00000E+00        -0.75159E+08
 
   -0.74943E+08         0.15144E+07         0.00000E+00
    0.15144E+07        -0.97650E+08         0.00000E+00
    0.00000E+00         0.00000E+00        -0.74953E+08
 
   -0.74737E+08         0.15011E+07         0.00000E+00
    0.15011E+07        -0.97641E+08         0.00000E+00
    0.00000E+00         0.00000E+00        -0.74755E+08
 
   -0.74533E+08         0.14888E+07         0.00000E+00
    0.14888E+07        -0.97635E+08         0.00000E+00
    0.00000E+00         0.00000E+00        -0.74557E+08
 
   -0.74332E+08         0.14773E+07         0.00000E+00
    0.14773E+07        -0.97633E+08         0.00000E+00
    0.00000E+00         0.00000E+00        -0.74359E+08
 
   -0.74133E+08         0.14662E+07         0.00000E+00
    0.14662E+07        -0.97633E+08         0.00000E+00
    0.00000E+00         0.00000E+00        -0.74160E+08
 
   -0.73935E+08         0.14554E+07         0.00000E+00
    0.14554E+07        -0.97635E+08         0.00000E+00
    0.00000E+00         0.00000E+00        -0.73960E+08
 
   -0.73740E+08         0.14445E+07         0.00000E+00
    0.14445E+07        -0.97639E+08         0.00000E+00
    0.00000E+00         0.00000E+00        -0.73760E+08
 
   -0.73546E+08         0.14339E+07         0.00000E+00
    0.14339E+07        -0.97646E+08         0.00000E+00
    0.00000E+00         0.00000E+00        -0.73559E+08
 
   -0.73354E+08         0.14237E+07         0.00000E+00
    0.14237E+07        -0.97652E+08         0.00000E+00
    0.00000E+00         0.00000E+00        -0.73361E+08
 
   -0.73164E+08         0.14107E+07         0.00000E+00
    0.14107E+07        -0.97648E+08         0.00000E+00
    0.00000E+00         0.00000E+00        -0.73174E+08
 
   -0.72976E+08         0.13983E+07         0.00000E+00
    0.13983E+07        -0.97641E+08         0.00000E+00
    0.00000E+00         0.00000E+00        -0.72992E+08
 
   -0.72790E+08         0.13865E+07         0.00000E+00
    0.13865E+07        -0.97637E+08         0.00000E+00
    0.00000E+00         0.00000E+00        -0.72811E+08
 
   -0.72606E+08         0.13755E+07         0.00000E+00
    0.13755E+07        -0.97634E+08         0.00000E+00
    0.00000E+00         0.00000E+00        -0.72629E+08
 
   -0.72424E+08         0.13651E+07         0.00000E+00
    0.13651E+07        -0.97634E+08         0.00000E+00
    0.00000E+00         0.00000E+00        -0.72447E+08
 
   -0.72242E+08         0.13553E+07         0.00000E+00
    0.13553E+07        -0.97634E+08         0.00000E+00
    0.00000E+00         0.00000E+00        -0.72266E+08
 
   -0.72063E+08         0.13458E+07         0.00000E+00
    0.13458E+07        -0.97636E+08         0.00000E+00
    0.00000E+00         0.00000E+00        -0.72084E+08
 
   -0.71885E+08         0.13370E+07         0.00000E+00
    0.13370E+07        -0.97639E+08         0.00000E+00
    0.00000E+00         0.00000E+00        -0.71903E+08
 
   -0.71708E+08         0.13280E+07         0.00000E+00
    0.13280E+07        -0.97637E+08         0.00000E+00
    0.00000E+00         0.00000E+00        -0.71726E+08
 
   -0.71532E+08         0.13189E+07         0.00000E+00
    0.13189E+07        -0.97633E+08         0.00000E+00
    0.00000E+00         0.00000E+00        -0.71555E+08
 
   -0.71358E+08         0.13104E+07         0.00000E+00
    0.13104E+07        -0.97630E+08         0.00000E+00
    0.00000E+00         0.00000E+00        -0.71383E+08
 
   -0.71185E+08         0.13026E+07         0.00000E+00
    0.13026E+07        -0.97627E+08         0.00000E+00
    0.00000E+00         0.00000E+00        -0.71212E+08
 
   -0.71013E+08         0.12954E+07         0.00000E+00
    0.12954E+07        -0.97625E+08         0.00000E+00
    0.00000E+00         0.00000E+00        -0.71040E+08
 
   -0.70841E+08         0.12887E+07         0.00000E+00
    0.12887E+07        -0.97624E+08         0.00000E+00
    0.00000E+00         0.00000E+00        -0.70869E+08
 
   -0.70671E+08         0.12824E+07         0.00000E+00
    0.12824E+07        -0.97623E+08         0.00000E+00
    0.00000E+00         0.00000E+00        -0.70698E+08
 
   -0.70501E+08         0.12763E+07         0.00000E+00
    0.12763E+07        -0.97623E+08         0.00000E+00
    0.00000E+00         0.00000E+00        -0.70527E+08
 
   -0.70332E+08         0.12705E+07         0.00000E+00
    0.12705E+07        -0.97623E+08         0.00000E+00
    0.00000E+00         0.00000E+00        -0.70357E+08
 
   -0.70163E+08         0.12647E+07         0.00000E+00
    0.12647E+07        -0.97623E+08         0.00000E+00
    0.00000E+00         0.00000E+00        -0.70186E+08
 
   -0.69997E+08         0.12588E+07         0.00000E+00
    0.12588E+07        -0.97622E+08         0.00000E+00
    0.00000E+00         0.00000E+00        -0.70018E+08
 
   -0.69834E+08         0.12526E+07         0.00000E+00
    0.12526E+07        -0.97618E+08         0.00000E+00
    0.00000E+00         0.00000E+00        -0.69852E+08
 
   -0.69671E+08         0.12463E+07         0.00000E+00
    0.12463E+07        -0.97614E+08         0.00000E+00
    0.00000E+00         0.00000E+00        -0.69685E+08
 
   -0.69509E+08         0.12398E+07         0.00000E+00
    0.12398E+07        -0.97612E+08         0.00000E+00
    0.00000E+00         0.00000E+00        -0.69519E+08
 
   -0.69347E+08         0.12331E+07         0.00000E+00
    0.12331E+07        -0.97609E+08         0.00000E+00
    0.00000E+00         0.00000E+00        -0.69353E+08
 
   -0.69185E+08         0.12259E+07         0.00000E+00
    0.12259E+07        -0.97607E+08         0.00000E+00
    0.00000E+00         0.00000E+00        -0.69188E+08
 
   -0.69024E+08         0.12183E+07         0.00000E+00
    0.12183E+07        -0.97605E+08         0.00000E+00
    0.00000E+00         0.00000E+00        -0.69022E+08
 
   -0.68864E+08         0.12101E+07         0.00000E+00
    0.12101E+07        -0.97604E+08         0.00000E+00
    0.00000E+00         0.00000E+00        -0.68856E+08
 
   -0.68705E+08         0.12012E+07         0.00000E+00
    0.12012E+07        -0.97603E+08         0.00000E+00
    0.00000E+00         0.00000E+00        -0.68690E+08
 
   -0.68547E+08         0.11914E+07         0.00000E+00
    0.11914E+07        -0.97604E+08         0.00000E+00
    0.00000E+00         0.00000E+00        -0.68524E+08
 
   -0.68389E+08         0.11805E+07         0.00000E+00
    0.11805E+07        -0.97605E+08         0.00000E+00
    0.00000E+00         0.00000E+00        -0.68358E+08
 
   -0.68233E+08         0.11683E+07         0.00000E+00
    0.11683E+07        -0.97608E+08         0.00000E+00
    0.00000E+00         0.00000E+00        -0.68193E+08
 
   -0.68078E+08         0.11547E+07         0.00000E+00
    0.11547E+07        -0.97612E+08         0.00000E+00
    0.00000E+00         0.00000E+00        -0.68027E+08
 
   -0.67924E+08         0.11392E+07         0.00000E+00
    0.11392E+07        -0.97618E+08         0.00000E+00
    0.00000E+00         0.00000E+00        -0.67862E+08
 
   -0.67772E+08         0.11217E+07         0.00000E+00
    0.11217E+07        -0.97626E+08         0.00000E+00
    0.00000E+00         0.00000E+00        -0.67697E+08
 
   -0.67622E+08         0.11018E+07         0.00000E+00
    0.11018E+07        -0.97637E+08         0.00000E+00
    0.00000E+00         0.00000E+00        -0.67533E+08
 
   -0.67474E+08         0.10791E+07         0.00000E+00
    0.10791E+07        -0.97650E+08         0.00000E+00
    0.00000E+00         0.00000E+00        -0.67369E+08
 
   -0.67328E+08         0.10533E+07         0.00000E+00
    0.10533E+07        -0.97666E+08         0.00000E+00
    0.00000E+00         0.00000E+00        -0.67207E+08
 
   -0.67185E+08         0.10239E+07         0.00000E+00
    0.10239E+07        -0.97685E+08         0.00000E+00
    0.00000E+00         0.00000E+00        -0.67045E+08
 
   -0.67043E+08         0.99079E+06         0.00000E+00
    0.99079E+06        -0.97708E+08         0.00000E+00
    0.00000E+00         0.00000E+00        -0.66884E+08
 
   -0.66904E+08         0.95344E+06         0.00000E+00
    0.95344E+06        -0.97735E+08         0.00000E+00
    0.00000E+00         0.00000E+00        -0.66725E+08
 
   -0.66767E+08         0.91155E+06         0.00000E+00
    0.91155E+06        -0.97764E+08         0.00000E+00
    0.00000E+00         0.00000E+00        -0.66566E+08
 
   -0.66631E+08         0.86483E+06         0.00000E+00
    0.86483E+06        -0.97796E+08         0.00000E+00
    0.00000E+00         0.00000E+00        -0.66409E+08
 
   -0.66496E+08         0.81299E+06         0.00000E+00
    0.81299E+06        -0.97828E+08         0.00000E+00
    0.00000E+00         0.00000E+00        -0.66251E+08
 
   -0.66362E+08         0.75577E+06         0.00000E+00
    0.75577E+06        -0.97860E+08         0.00000E+00
    0.00000E+00         0.00000E+00        -0.66092E+08
 
   -0.66227E+08         0.69284E+06         0.00000E+00
    0.69284E+06        -0.97889E+08         0.00000E+00
    0.00000E+00         0.00000E+00        -0.65930E+08
 
   -0.66092E+08         0.62371E+06         0.00000E+00
    0.62371E+06        -0.97911E+08         0.00000E+00
    0.00000E+00         0.00000E+00        -0.65762E+08
 
   -0.65956E+08         0.54747E+06         0.00000E+00
    0.54747E+06        -0.97922E+08         0.00000E+00
    0.00000E+00         0.00000E+00        -0.65582E+08
 
   -0.65822E+08         0.46237E+06         0.00000E+00
    0.46237E+06        -0.97915E+08         0.00000E+00
    0.00000E+00         0.00000E+00        -0.65384E+08
 
   -0.65691E+08         0.36625E+06         0.00000E+00
    0.36625E+06        -0.97885E+08         0.00000E+00
    0.00000E+00         0.00000E+00        -0.65158E+08
 
   -0.65575E+08         0.26037E+06         0.00000E+00
    0.26037E+06        -0.97827E+08         0.00000E+00
    0.00000E+00         0.00000E+00        -0.64891E+08
 
   -0.65487E+08         0.15251E+06         0.00000E+00
    0.15251E+06        -0.97745E+08         0.00000E+00
    0.00000E+00         0.00000E+00        -0.64574E+08
 
   -0.65440E+08         0.49728E+05         0.00000E+00
    0.49728E+05        -0.97656E+08         0.00000E+00
    0.00000E+00         0.00000E+00        -0.64214E+08
 
   -0.82720E+08         0.51459E+05         0.00000E+00
    0.51459E+05        -0.97531E+08         0.00000E+00
    0.00000E+00         0.00000E+00        -0.84465E+08
 
   -0.82647E+08         0.17223E+06         0.00000E+00
    0.17223E+06        -0.97307E+08         0.00000E+00
    0.00000E+00         0.00000E+00        -0.84104E+08
 
   -0.82521E+08         0.31796E+06         0.00000E+00
    0.31796E+06        -0.97175E+08         0.00000E+00
    0.00000E+00         0.00000E+00        -0.83742E+08
 
   -0.82357E+08         0.46561E+06         0.00000E+00
    0.46561E+06        -0.97105E+08         0.00000E+00
    0.00000E+00         0.00000E+00        -0.83381E+08
 
   -0.82164E+08         0.60161E+06         0.00000E+00
    0.60161E+06        -0.97089E+08         0.00000E+00
    0.00000E+00         0.00000E+00        -0.83019E+08
 
   -0.81952E+08         0.72357E+06         0.00000E+00
    0.72357E+06        -0.97118E+08         0.00000E+00
    0.00000E+00         0.00000E+00        -0.82658E+08
 
   -0.81731E+08         0.83126E+06         0.00000E+00
    0.83126E+06        -0.97180E+08         0.00000E+00
    0.00000E+00         0.00000E+00        -0.82297E+08
 
   -0.81510E+08         0.92065E+06         0.00000E+00
    0.92065E+06        -0.97272E+08         0.00000E+00
    0.00000E+00         0.00000E+00        -0.81936E+08
 
   -0.81289E+08         0.99402E+06         0.00000E+00
    0.99402E+06        -0.97348E+08         0.00000E+00
    0.00000E+00         0.00000E+00        -0.81623E+08
 
   -0.81068E+08         0.10210E+07         0.00000E+00
    0.10210E+07        -0.97346E+08         0.00000E+00
    0.00000E+00         0.00000E+00        -0.81426E+08
 
   -0.80867E+08         0.10664E+07         0.00000E+00
    0.10664E+07        -0.97337E+08         0.00000E+00
    0.00000E+00         0.00000E+00        -0.81271E+08
 
   -0.80685E+08         0.11121E+07         0.00000E+00
    0.11121E+07        -0.97345E+08         0.00000E+00
    0.00000E+00         0.00000E+00        -0.81114E+08
 
   -0.80514E+08         0.11553E+07         0.00000E+00
    0.11553E+07        -0.97360E+08         0.00000E+00
    0.00000E+00         0.00000E+00        -0.80952E+08
 
   -0.80349E+08         0.11972E+07         0.00000E+00
    0.11972E+07        -0.97379E+08         0.00000E+00
    0.00000E+00         0.00000E+00        -0.80782E+08
 
   -0.80185E+08         0.12379E+07         0.00000E+00
    0.12379E+07        -0.97398E+08         0.00000E+00
    0.00000E+00         0.00000E+00        -0.80605E+08
 
   -0.80019E+08         0.12774E+07         0.00000E+00
    0.12774E+07        -0.97418E+08         0.00000E+00
    0.00000E+00         0.00000E+00        -0.80420E+08
 
   -0.79849E+08         0.13150E+07         0.00000E+00
    0.13150E+07        -0.97438E+08         0.00000E+00
    0.00000E+00         0.00000E+00        -0.80226E+08
 
   -0.79674E+08         0.13502E+07         0.00000E+00
    0.13502E+07        -0.97457E+08         0.00000E+00
    0.00000E+00         0.00000E+00        -0.80025E+08
 
   -0.79494E+08         0.13825E+07         0.00000E+00
    0.13825E+07        -0.97476E+08         0.00000E+00
    0.00000E+00         0.00000E+00        -0.79816E+08
 
   -0.79308E+08         0.14114E+07         0.00000E+00
    0.14114E+07        -0.97496E+08         0.00000E+00
    0.00000E+00         0.00000E+00        -0.79599E+08
 
   -0.79116E+08         0.14367E+07         0.00000E+00
    0.14367E+07        -0.97516E+08         0.00000E+00
    0.00000E+00         0.00000E+00        -0.79376E+08
 
   -0.78918E+08         0.14580E+07         0.00000E+00
    0.14580E+07        -0.97537E+08         0.00000E+00
    0.00000E+00         0.00000E+00        -0.79146E+08
 
   -0.78717E+08         0.14757E+07         0.00000E+00
    0.14757E+07        -0.97560E+08         0.00000E+00
    0.00000E+00         0.00000E+00        -0.78910E+08
 
   -0.78511E+08         0.14903E+07         0.00000E+00
    0.14903E+07        -0.97585E+08         0.00000E+00
    0.00000E+00         0.00000E+00        -0.78669E+08
 
   -0.78304E+08         0.15025E+07         0.00000E+00
    0.15025E+07        -0.97612E+08         0.00000E+00
    0.00000E+00         0.00000E+00        -0.78422E+08
 
   -0.78095E+08         0.15118E+07         0.00000E+00
    0.15118E+07        -0.97628E+08         0.00000E+00
    0.00000E+00         0.00000E+00        -0.78188E+08
 
   -0.77882E+08         0.15073E+07         0.00000E+00
    0.15073E+07        -0.97618E+08         0.00000E+00
    0.00000E+00         0.00000E+00        -0.77983E+08
 
   -0.77670E+08         0.15059E+07         0.00000E+00
    0.15059E+07        -0.97606E+08         0.00000E+00
    0.00000E+00         0.00000E+00        -0.77779E+08
 
   -0.77459E+08         0.15057E+07         0.00000E+00
    0.15057E+07        -0.97597E+08         0.00000E+00
    0.00000E+00         0.00000E+00        -0.77572E+08
 
   -0.77249E+08         0.15060E+07         0.00000E+00
    0.15060E+07        -0.97592E+08         0.00000E+00
    0.00000E+00         0.00000E+00        -0.77362E+08
 
   -0.77038E+08         0.15067E+07         0.00000E+00
    0.15067E+07        -0.97589E+08         0.00000E+00
    0.00000E+00         0.00000E+00        -0.77150E+08
 
   -0.76828E+08         0.15075E+07         0.00000E+00
    0.15075E+07        -0.97589E+08         0.00000E+00
    0.00000E+00         0.00000E+00        -0.76936E+08
 
   -0.76617E+08         0.15081E+07         0.00000E+00
    0.15081E+07        -0.97590E+08         0.00000E+00
    0.00000E+00         0.00000E+00        -0.76719E+08
 
   -0.76406E+08         0.15081E+07         0.00000E+00
    0.15081E+07        -0.97594E+08         0.00000E+00
    0.00000E+00         0.00000E+00        -0.76500E+08
 
   -0.76194E+08         0.15072E+07         0.00000E+00
    0.15072E+07        -0.97599E+08         0.00000E+00
    0.00000E+00         0.00000E+00        -0.76278E+08
 
   -0.75982E+08         0.15052E+07         0.00000E+00
    0.15052E+07        -0.97606E+08         0.00000E+00
    0.00000E+00         0.00000E+00        -0.76055E+08
 
   -0.75771E+08         0.15019E+07         0.00000E+00
    0.15019E+07        -0.97616E+08         0.00000E+00
    0.00000E+00         0.00000E+00        -0.75831E+08
 
   -0.75560E+08         0.14972E+07         0.00000E+00
    0.14972E+07        -0.97627E+08         0.00000E+00
    0.00000E+00         0.00000E+00        -0.75604E+08
 
   -0.75350E+08         0.14917E+07         0.00000E+00
    0.14917E+07        -0.97640E+08         0.00000E+00
    0.00000E+00         0.00000E+00        -0.75376E+08
 
   -0.75142E+08         0.14864E+07         0.00000E+00
    0.14864E+07        -0.97652E+08         0.00000E+00
    0.00000E+00         0.00000E+00        -0.75152E+08
 
   -0.74934E+08         0.14728E+07         0.00000E+00
    0.14728E+07        -0.97647E+08         0.00000E+00
    0.00000E+00         0.00000E+00        -0.74947E+08
 
   -0.74728E+08         0.14601E+07         0.00000E+00
    0.14601E+07        -0.97638E+08         0.00000E+00
    0.00000E+00         0.00000E+00        -0.74750E+08
 
   -0.74525E+08         0.14483E+07         0.00000E+00
    0.14483E+07        -0.97633E+08         0.00000E+00
    0.00000E+00         0.00000E+00        -0.74552E+08
 
   -0.74324E+08         0.14373E+07         0.00000E+00
    0.14373E+07        -0.97631E+08         0.00000E+00
    0.00000E+00         0.00000E+00        -0.74353E+08
 
   -0.74125E+08         0.14266E+07         0.00000E+00
    0.14266E+07        -0.97631E+08         0.00000E+00
    0.00000E+00         0.00000E+00        -0.74154E+08
 
   -0.73928E+08         0.14161E+07         0.00000E+00
    0.14161E+07        -0.97633E+08         0.00000E+00
    0.00000E+00         0.00000E+00        -0.73955E+08
 
   -0.73732E+08         0.14056E+07         0.00000E+00
    0.14056E+07        -0.97637E+08         0.00000E+00
    0.00000E+00         0.00000E+00        -0.73755E+08
 
   -0.73539E+08         0.13954E+07         0.00000E+00
    0.13954E+07        -0.97643E+08         0.00000E+00
    0.00000E+00         0.00000E+00        -0.73554E+08
 
   -0.73348E+08         0.13856E+07         0.00000E+00
    0.13856E+07        -0.97650E+08         0.00000E+00
    0.00000E+00         0.00000E+00        -0.73356E+08
 
   -0.73158E+08         0.13730E+07         0.00000E+00
    0.13730E+07        -0.97645E+08         0.00000E+00
    0.00000E+00         0.00000E+00        -0.73170E+08
 
   -0.72970E+08         0.13609E+07         0.00000E+00
    0.13609E+07        -0.97639E+08         0.00000E+00
    0.00000E+00         0.00000E+00        -0.72989E+08
 
   -0.72784E+08         0.13495E+07         0.00000E+00
    0.13495E+07        -0.97635E+08         0.00000E+00
    0.00000E+00         0.00000E+00        -0.72807E+08
 
   -0.72600E+08         0.13389E+07         0.00000E+00
    0.13389E+07        -0.97632E+08         0.00000E+00
    0.00000E+00         0.00000E+00        -0.72625E+08
 
   -0.72418E+08         0.13288E+07         0.00000E+00
    0.13288E+07        -0.97632E+08         0.00000E+00
    0.00000E+00         0.00000E+00        -0.72444E+08
 
   -0.72237E+08         0.13192E+07         0.00000E+00
    0.13192E+07        -0.97632E+08         0.00000E+00
    0.00000E+00         0.00000E+00        -0.72262E+08
 
   -0.72057E+08         0.13101E+07         0.00000E+00
    0.13101E+07        -0.97634E+08         0.00000E+00
    0.00000E+00         0.00000E+00        -0.72080E+08
 
   -0.71879E+08         0.13016E+07         0.00000E+00
    0.13016E+07        -0.97637E+08         0.00000E+00
    0.00000E+00         0.00000E+00        -0.71899E+08
 
   -0.71703E+08         0.12928E+07         0.00000E+00
    0.12928E+07        -0.97635E+08         0.00000E+00
    0.00000E+00         0.00000E+00        -0.71723E+08
 
   -0.71527E+08         0.12839E+07         0.00000E+00
    0.12839E+07        -0.97631E+08         0.00000E+00
    0.00000E+00         0.00000E+00        -0.71551E+08
 
   -0.71353E+08         0.12757E+07         0.00000E+00
    0.12757E+07        -0.97628E+08         0.00000E+00
    0.00000E+00         0.00000E+00        -0.71380E+08
 
   -0.71180E+08         0.12681E+07         0.00000E+00
    0.12681E+07        -0.97626E+08         0.00000E+00
    0.00000E+00         0.00000E+00        -0.71208E+08
 
   -0.71008E+08         0.12611E+07         0.00000E+00
    0.12611E+07        -0.97624E+08         0.00000E+00
    0.00000E+00         0.00000E+00        -0.71037E+08
 
   -0.70836E+08         0.12545E+07         0.00000E+00
    0.12545E+07        -0.97623E+08         0.00000E+00
    0.00000E+00         0.00000E+00        -0.70866E+08
 
   -0.70666E+08         0.12483E+07         0.00000E+00
    0.12483E+07        -0.97622E+08         0.00000E+00
    0.00000E+00         0.00000E+00        -0.70695E+08
 
   -0.70496E+08         0.12424E+07         0.00000E+00
    0.12424E+07        -0.97622E+08         0.00000E+00
    0.00000E+00         0.00000E+00        -0.70524E+08
 
   -0.70327E+08         0.12367E+07         0.00000E+00
    0.12367E+07        -0.97622E+08         0.00000E+00
    0.00000E+00         0.00000E+00        -0.70353E+08
 
   -0.70159E+08         0.12311E+07         0.00000E+00
    0.12311E+07        -0.97622E+08         0.00000E+00
    0.00000E+00         0.00000E+00        -0.70182E+08
 
   -0.69993E+08         0.12252E+07         0.00000E+00
    0.12252E+07        -0.97620E+08         0.00000E+00
    0.00000E+00         0.00000E+00        -0.70014E+08
 
   -0.69830E+08         0.12192E+07         0.00000E+00
    0.12192E+07        -0.97616E+08         0.00000E+00
    0.00000E+00         0.00000E+00        -0.69848E+08
 
   -0.69667E+08         0.12130E+07         0.00000E+00
    0.12130E+07        -0.97613E+08         0.00000E+00
    0.00000E+00         0.00000E+00        -0.69682E+08
 
   -0.69505E+08         0.12067E+07         0.00000E+00
    0.12067E+07        -0.97610E+08         0.00000E+00
    0.00000E+00         0.00000E+00        -0.69515E+08
 
   -0.69343E+08         0.12000E+07         0.00000E+00
    0.12000E+07        -0.97607E+08         0.00000E+00
    0.00000E+00         0.00000E+00        -0.69349E+08
 
   -0.69182E+08         0.11930E+07         0.00000E+00
    0.11930E+07        -0.97605E+08         0.00000E+00
    0.00000E+00         0.00000E+00        -0.69183E+08
 
   -0.69021E+08         0.11856E+07         0.00000E+00
    0.11856E+07        -0.97603E+08         0.00000E+00
    0.00000E+00         0.00000E+00        -0.69017E+08
 
   -0.68862E+08         0.11776E+07         0.00000E+00
    0.11776E+07        -0.97602E+08         0.00000E+00
    0.00000E+00         0.00000E+00        -0.68851E+08
 
   -0.68702E+08         0.11688E+07         0.00000E+00
    0.11688E+07        -0.97601E+08         0.00000E+00
    0.00000E+00         0.00000E+00        -0.68685E+08
 
   -0.68544E+08         0.11593E+07         0.00000E+00
    0.11593E+07        -0.97601E+08         0.00000E+00
    0.00000E+00         0.00000E+00        -0.68519E+08
 
   -0.68387E+08         0.11486E+07         0.00000E+00
    0.11486E+07        -0.97603E+08         0.00000E+00
    0.00000E+00         0.00000E+00        -0.68352E+08
 
   -0.68231E+08         0.11368E+07         0.00000E+00
    0.11368E+07        -0.97605E+08         0.00000E+00
    0.00000E+00         0.00000E+00        -0.68186E+08
 
   -0.68076E+08         0.11235E+07         0.00000E+00
    0.11235E+07        -0.97609E+08         0.00000E+00
    0.00000E+00         0.00000E+00        -0.68020E+08
 
   -0.67923E+08         0.11084E+07         0.00000E+00
    0.11084E+07        -0.97614E+08         0.00000E+00
    0.00000E+00         0.00000E+00        -0.67855E+08
 
   -0.67772E+08         0.10913E+07         0.00000E+00
    0.10913E+07        -0.97622E+08         0.00000E+00
    0.00000E+00         0.00000E+00        -0.67689E+08
 
   -0.67622E+08         0.10718E+07         0.00000E+00
    0.10718E+07        -0.97632E+08         0.00000E+00
    0.00000E+00         0.00000E+00        -0.67524E+08
 
   -0.67474E+08         0.10495E+07         0.00000E+00
    0.10495E+07        -0.97644E+08         0.00000E+00
    0.00000E+00         0.00000E+00        -0.67360E+08
 
   -0.67329E+08         0.10242E+07         0.00000E+00
    0.10242E+07        -0.97660E+08         0.00000E+00
    0.00000E+00         0.00000E+00        -0.67196E+08
 
   -0.67186E+08         0.99541E+06         0.00000E+00
    0.99541E+06        -0.97679E+08         0.00000E+00
    0.00000E+00         0.00000E+00        -0.67033E+08
 
   -0.67045E+08         0.96275E+06         0.00000E+00
    0.96275E+06        -0.97701E+08         0.00000E+00
    0.00000E+00         0.00000E+00        -0.66871E+08
 
   -0.66906E+08         0.92585E+06         0.00000E+00
    0.92585E+06        -0.97726E+08         0.00000E+00
    0.00000E+00         0.00000E+00        -0.66711E+08
 
   -0.66770E+08         0.88436E+06         0.00000E+00
    0.88436E+06        -0.97755E+08         0.00000E+00
    0.00000E+00         0.00000E+00        -0.66551E+08
 
   -0.66635E+08         0.83794E+06         0.00000E+00
    0.83794E+06        -0.97786E+08         0.00000E+00
    0.00000E+00         0.00000E+00        -0.66392E+08
 
   -0.66501E+08         0.78628E+06         0.00000E+00
    0.78628E+06        -0.97817E+08         0.00000E+00
    0.00000E+00         0.00000E+00        -0.66232E+08
 
   -0.66367E+08         0.72910E+06         0.00000E+00
    0.72910E+06        -0.97848E+08         0.00000E+00
    0.00000E+00         0.00000E+00        -0.66072E+08
 
   -0.66234E+08         0.66609E+06         0.00000E+00
    0.66609E+06        -0.97876E+08         0.00000E+00
    0.00000E+00         0.00000E+00        -0.65908E+08
 
   -0.66100E+08         0.59682E+06         0.00000E+00
    0.59682E+06        -0.97897E+08         0.00000E+00
    0.00000E+00         0.00000E+00        -0.65737E+08
 
   -0.65967E+08         0.52056E+06         0.00000E+00
    0.52056E+06        -0.97906E+08         0.00000E+00
    0.00000E+00         0.00000E+00        -0.65554E+08
 
   -0.65835E+08         0.43591E+06         0.00000E+00
    0.43591E+06        -0.97898E+08         0.00000E+00
    0.00000E+00         0.00000E+00        -0.65352E+08
 
   -0.65708E+08         0.34170E+06         0.00000E+00
    0.34170E+06        -0.97867E+08         0.00000E+00
    0.00000E+00         0.00000E+00        -0.65121E+08
 
   -0.65598E+08         0.24057E+06         0.00000E+00
    0.24057E+06        -0.97808E+08         0.00000E+00
    0.00000E+00         0.00000E+00        -0.64848E+08
 
   -0.65516E+08         0.14010E+06         0.00000E+00
    0.14010E+06        -0.97727E+08         0.00000E+00
    0.00000E+00         0.00000E+00        -0.64527E+08
 
   -0.65473E+08         0.45613E+05         0.00000E+00
    0.45613E+05        -0.97639E+08         0.00000E+00
    0.00000E+00         0.00000E+00        -0.64166E+08
 
   -0.82606E+08         0.43512E+05         0.00000E+00
    0.43512E+05        -0.97551E+08         0.00000E+00
    0.00000E+00         0.00000E+00        -0.84465E+08
 
   -0.82540E+08         0.15199E+06         0.00000E+00
    0.15199E+06        -0.97333E+08         0.00000E+00
    0.00000E+00         0.00000E+00        -0.84104E+08
 
   -0.82424E+08         0.28988E+06         0.00000E+00
    0.28988E+06        -0.97205E+08         0.00000E+00
    0.00000E+00         0.00000E+00        -0.83742E+08
 
   -0.82273E+08         0.43073E+06         0.00000E+00
    0.43073E+06        -0.97133E+08         0.00000E+00
    0.00000E+00         0.00000E+00        -0.83381E+08
 
   -0.82091E+08         0.56176E+06         0.00000E+00
    0.56176E+06        -0.97114E+08         0.00000E+00
    0.00000E+00         0.00000E+00        -0.83019E+08
 
   -0.81889E+08         0.68077E+06         0.00000E+00
    0.68077E+06        -0.97140E+08         0.00000E+00
    0.00000E+00         0.00000E+00        -0.82658E+08
 
   -0.81677E+08         0.78771E+06         0.00000E+00
    0.78771E+06        -0.97200E+08         0.00000E+00
    0.00000E+00         0.00000E+00        -0.82297E+08
 
   -0.81464E+08         0.87750E+06         0.00000E+00
    0.87750E+06        -0.97288E+08         0.00000E+00
    0.00000E+00         0.00000E+00        -0.81936E+08
 
   -0.81249E+08         0.94978E+06         0.00000E+00
    0.94978E+06        -0.97356E+08         0.00000E+00
    0.00000E+00         0.00000E+00        -0.81631E+08
 
   -0.81032E+08         0.97872E+06         0.00000E+00
    0.97872E+06        -0.97355E+08         0.00000E+00
    0.00000E+00         0.00000E+00        -0.81438E+08
 
   -0.80836E+08         0.10284E+07         0.00000E+00
    0.10284E+07        -0.97347E+08         0.00000E+00
    0.00000E+00         0.00000E+00        -0.81279E+08
 
   -0.80655E+08         0.10770E+07         0.00000E+00
    0.10770E+07        -0.97354E+08         0.00000E+00
    0.00000E+00         0.00000E+00        -0.81117E+08
 
   -0.80484E+08         0.11218E+07         0.00000E+00
    0.11218E+07        -0.97369E+08         0.00000E+00
    0.00000E+00         0.00000E+00        -0.80951E+08
 
   -0.80319E+08         0.11643E+07         0.00000E+00
    0.11643E+07        -0.97387E+08         0.00000E+00
    0.00000E+00         0.00000E+00        -0.80779E+08
 
   -0.80154E+08         0.12050E+07         0.00000E+00
    0.12050E+07        -0.97406E+08         0.00000E+00
    0.00000E+00         0.00000E+00        -0.80600E+08
 
   -0.79988E+08         0.12438E+07         0.00000E+00
    0.12438E+07        -0.97426E+08         0.00000E+00
    0.00000E+00         0.00000E+00        -0.80412E+08
 
   -0.79818E+08         0.12805E+07         0.00000E+00
    0.12805E+07        -0.97445E+08         0.00000E+00
    0.00000E+00         0.00000E+00        -0.80217E+08
 
   -0.79643E+08         0.13147E+07         0.00000E+00
    0.13147E+07        -0.97464E+08         0.00000E+00
    0.00000E+00         0.00000E+00        -0.80014E+08
 
   -0.79464E+08         0.13459E+07         0.00000E+00
    0.13459E+07        -0.97483E+08         0.00000E+00
    0.00000E+00         0.00000E+00        -0.79804E+08
 
   -0.79278E+08         0.13737E+07         0.00000E+00
    0.13737E+07        -0.97501E+08         0.00000E+00
    0.00000E+00         0.00000E+00        -0.79587E+08
 
   -0.79088E+08         0.13979E+07         0.00000E+00
    0.13979E+07        -0.97521E+08         0.00000E+00
    0.00000E+00         0.00000E+00        -0.79363E+08
 
   -0.78892E+08         0.14182E+07         0.00000E+00
    0.14182E+07        -0.97541E+08         0.00000E+00
    0.00000E+00         0.00000E+00        -0.79132E+08
 
   -0.78691E+08         0.14350E+07         0.00000E+00
    0.14350E+07        -0.97564E+08         0.00000E+00
    0.00000E+00         0.00000E+00        -0.78896E+08
 
   -0.78488E+08         0.14492E+07         0.00000E+00
    0.14492E+07        -0.97588E+08         0.00000E+00
    0.00000E+00         0.00000E+00        -0.78655E+08
 
   -0.78282E+08         0.14612E+07         0.00000E+00
    0.14612E+07        -0.97614E+08         0.00000E+00
    0.00000E+00         0.00000E+00        -0.78409E+08
 
   -0.78073E+08         0.14694E+07         0.00000E+00
    0.14694E+07        -0.97628E+08         0.00000E+00
    0.00000E+00         0.00000E+00        -0.78177E+08
 
   -0.77862E+08         0.14650E+07         0.00000E+00
    0.14650E+07        -0.97617E+08         0.00000E+00
    0.00000E+00         0.00000E+00        -0.77973E+08
 
   -0.77651E+08         0.14638E+07         0.00000E+00
    0.14638E+07        -0.97606E+08         0.00000E+00
    0.00000E+00         0.00000E+00        -0.77769E+08
 
   -0.77441E+08         0.14636E+07         0.00000E+00
    0.14636E+07        -0.97597E+08         0.00000E+00
    0.00000E+00         0.00000E+00        -0.77562E+08
 
   -0.77230E+08         0.14640E+07         0.00000E+00
    0.14640E+07        -0.97592E+08         0.00000E+00
    0.00000E+00         0.00000E+00        -0.77352E+08
 
   -0.77020E+08         0.14646E+07         0.00000E+00
    0.14646E+07        -0.97590E+08         0.00000E+00
    0.00000E+00         0.00000E+00        -0.77140E+08
 
   -0.76810E+08         0.14654E+07         0.00000E+00
    0.14654E+07        -0.97589E+08         0.00000E+00
    0.00000E+00         0.00000E+00        -0.76926E+08
 
   -0.76600E+08         0.14660E+07         0.00000E+00
    0.14660E+07        -0.97590E+08         0.00000E+00
    0.00000E+00         0.00000E+00        -0.76709E+08
 
   -0.76390E+08         0.14659E+07         0.00000E+00
    0.14659E+07        -0.97594E+08         0.00000E+00
    0.00000E+00         0.00000E+00        -0.76490E+08
 
   -0.76179E+08         0.14650E+07         0.00000E+00
    0.14650E+07        -0.97599E+08         0.00000E+00
    0.00000E+00         0.00000E+00        -0.76269E+08
 
   -0.75968E+08         0.14629E+07         0.00000E+00
    0.14629E+07        -0.97606E+08         0.00000E+00
    0.00000E+00         0.00000E+00        -0.76046E+08
 
   -0.75757E+08         0.14597E+07         0.00000E+00
    0.14597E+07        -0.97615E+08         0.00000E+00
    0.00000E+00         0.00000E+00        -0.75822E+08
 
   -0.75548E+08         0.14552E+07         0.00000E+00
    0.14552E+07        -0.97626E+08         0.00000E+00
    0.00000E+00         0.00000E+00        -0.75596E+08
 
   -0.75339E+08         0.14500E+07         0.00000E+00
    0.14500E+07        -0.97639E+08         0.00000E+00
    0.00000E+00         0.00000E+00        -0.75368E+08
 
   -0.75131E+08         0.14449E+07         0.00000E+00
    0.14449E+07        -0.97650E+08         0.00000E+00
    0.00000E+00         0.00000E+00        -0.75145E+08
 
   -0.74924E+08         0.14315E+07         0.00000E+00
    0.14315E+07        -0.97645E+08         0.00000E+00
    0.00000E+00         0.00000E+00        -0.74941E+08
 
   -0.74719E+08         0.14192E+07         0.00000E+00
    0.14192E+07        -0.97636E+08         0.00000E+00
    0.00000E+00         0.00000E+00        -0.74744E+08
 
   -0.74516E+08         0.14080E+07         0.00000E+00
    0.14080E+07        -0.97631E+08         0.00000E+00
    0.00000E+00         0.00000E+00        -0.74546E+08
 
   -0.74315E+08         0.13973E+07         0.00000E+00
    0.13973E+07        -0.97628E+08         0.00000E+00
    0.00000E+00         0.00000E+00        -0.74348E+08
 
   -0.74117E+08         0.13870E+07         0.00000E+00
    0.13870E+07        -0.97629E+08         0.00000E+00
    0.00000E+00         0.00000E+00        -0.74149E+08
 
   -0.73920E+08         0.13769E+07         0.00000E+00
    0.13769E+07        -0.97631E+08         0.00000E+00
    0.00000E+00         0.00000E+00        -0.73950E+08
 
   -0.73725E+08         0.13668E+07         0.00000E+00
    0.13668E+07        -0.97635E+08         0.00000E+00
    0.00000E+00         0.00000E+00        -0.73750E+08
 
   -0.73533E+08         0.13570E+07         0.00000E+00
    0.13570E+07        -0.97642E+08         0.00000E+00
    0.00000E+00         0.00000E+00        -0.73550E+08
 
   -0.73341E+08         0.13475E+07         0.00000E+00
    0.13475E+07        -0.97647E+08         0.00000E+00
    0.00000E+00         0.00000E+00        -0.73352E+08
 
   -0.73152E+08         0.13352E+07         0.00000E+00
    0.13352E+07        -0.97643E+08         0.00000E+00
    0.00000E+00         0.00000E+00        -0.73166E+08
 
   -0.72964E+08         0.13235E+07         0.00000E+00
    0.13235E+07        -0.97636E+08         0.00000E+00
    0.00000E+00         0.00000E+00        -0.72985E+08
 
   -0.72778E+08         0.13126E+07         0.00000E+00
    0.13126E+07        -0.97632E+08         0.00000E+00
    0.00000E+00         0.00000E+00        -0.72803E+08
 
   -0.72594E+08         0.13022E+07         0.00000E+00
    0.13022E+07        -0.97630E+08         0.00000E+00
    0.00000E+00         0.00000E+00        -0.72622E+08
 
   -0.72412E+08         0.12925E+07         0.00000E+00
    0.12925E+07        -0.97630E+08         0.00000E+00
    0.00000E+00         0.00000E+00        -0.72440E+08
 
   -0.72231E+08         0.12832E+07         0.00000E+00
    0.12832E+07        -0.97630E+08         0.00000E+00
    0.00000E+00         0.00000E+00        -0.72258E+08
 
   -0.72052E+08         0.12744E+07         0.00000E+00
    0.12744E+07        -0.97632E+08         0.00000E+00
    0.00000E+00         0.00000E+00        -0.72077E+08
 
   -0.71874E+08         0.12661E+07         0.00000E+00
    0.12661E+07        -0.97635E+08         0.00000E+00
    0.00000E+00         0.00000E+00        -0.71895E+08
 
   -0.71697E+08         0.12575E+07         0.00000E+00
    0.12575E+07        -0.97634E+08         0.00000E+00
    0.00000E+00         0.00000E+00        -0.71720E+08
 
   -0.71522E+08         0.12489E+07         0.00000E+00
    0.12489E+07        -0.97630E+08         0.00000E+00
    0.00000E+00         0.00000E+00        -0.71548E+08
 
   -0.71348E+08         0.12410E+07         0.00000E+00
    0.12410E+07        -0.97627E+08         0.00000E+00
    0.00000E+00         0.00000E+00        -0.71376E+08
 
   -0.71175E+08         0.12336E+07         0.00000E+00
    0.12336E+07        -0.97624E+08         0.00000E+00
    0.00000E+00         0.00000E+00        -0.71205E+08
 
   -0.71003E+08         0.12267E+07         0.00000E+00
    0.12267E+07        -0.97623E+08         0.00000E+00
    0.00000E+00         0.00000E+00        -0.71034E+08
 
   -0.70831E+08         0.12204E+07         0.00000E+00
    0.12204E+07        -0.97622E+08         0.00000E+00
    0.00000E+00         0.00000E+00        -0.70862E+08
 
   -0.70661E+08         0.12143E+07         0.00000E+00
    0.12143E+07        -0.97621E+08         0.00000E+00
    0.00000E+00         0.00000E+00        -0.70691E+08
 
   -0.70491E+08         0.12086E+07         0.00000E+00
    0.12086E+07        -0.97621E+08         0.00000E+00
    0.00000E+00         0.00000E+00        -0.70520E+08
 
   -0.70322E+08         0.12030E+07         0.00000E+00
    0.12030E+07        -0.97621E+08         0.00000E+00
    0.00000E+00         0.00000E+00        -0.70349E+08
 
   -0.70154E+08         0.11974E+07         0.00000E+00
    0.11974E+07        -0.97621E+08         0.00000E+00
    0.00000E+00         0.00000E+00        -0.70179E+08
 
   -0.69989E+08         0.11917E+07         0.00000E+00
    0.11917E+07        -0.97618E+08         0.00000E+00
    0.00000E+00         0.00000E+00        -0.70010E+08
 
   -0.69826E+08         0.11858E+07         0.00000E+00
    0.11858E+07        -0.97615E+08         0.00000E+00
    0.00000E+00         0.00000E+00        -0.69844E+08
 
   -0.69663E+08         0.11798E+07         0.00000E+00
    0.11798E+07        -0.97611E+08         0.00000E+00
    0.00000E+00         0.00000E+00        -0.69678E+08
 
   -0.69501E+08         0.11735E+07         0.00000E+00
    0.11735E+07        -0.97608E+08         0.00000E+00
    0.00000E+00         0.00000E+00        -0.69511E+08
 
   -0.69340E+08         0.11670E+07         0.00000E+00
    0.11670E+07        -0.97605E+08         0.00000E+00
    0.00000E+00         0.00000E+00        -0.69345E+08
 
   -0.69179E+08         0.11602E+07         0.00000E+00
    0.11602E+07        -0.97603E+08         0.00000E+00
    0.00000E+00         0.00000E+00        -0.69179E+08
 
   -0.69019E+08         0.11529E+07         0.00000E+00
    0.11529E+07        -0.97601E+08         0.00000E+00
    0.00000E+00         0.00000E+00        -0.69012E+08
 
   -0.68859E+08         0.11451E+07         0.00000E+00
    0.11451E+07        -0.97600E+08         0.00000E+00
    0.00000E+00         0.00000E+00        -0.68846E+08
 
   -0.68700E+08         0.11366E+07         0.00000E+00
    0.11366E+07        -0.97599E+08         0.00000E+00
    0.00000E+00         0.00000E+00        -0.68679E+08
 
   -0.68542E+08         0.11272E+07         0.00000E+00
    0.11272E+07        -0.97599E+08         0.00000E+00
    0.00000E+00         0.00000E+00        -0.68513E+08
 
   -0.68385E+08         0.11169E+07         0.00000E+00
    0.11169E+07        -0.97600E+08         0.00000E+00
    0.00000E+00         0.00000E+00        -0.68346E+08
 
   -0.68229E+08         0.11053E+07         0.00000E+00
    0.11053E+07        -0.97602E+08         0.00000E+00
    0.00000E+00         0.00000E+00        -0.68180E+08
 
   -0.68075E+08         0.10923E+07         0.00000E+00
    0.10923E+07        -0.97606E+08         0.00000E+00
    0.00000E+00         0.00000E+00        -0.68013E+08
 
   -0.67922E+08         0.10776E+07         0.00000E+00
    0.10776E+07        -0.97611E+08         0.00000E+00
    0.00000E+00         0.00000E+00        -0.67847E+08
 
   -0.67771E+08         0.10609E+07         0.00000E+00
    0.10609E+07        -0.97618E+08         0.00000E+00
    0.00000E+00         0.00000E+00        -0.67681E+08
 
   -0.67622E+08         0.10419E+07         0.00000E+00
    0.10419E+07        -0.97627E+08         0.00000E+00
    0.00000E+00         0.00000E+00        -0.67515E+08
 
   -0.67475E+08         0.10201E+07         0.00000E+00
    0.10201E+07        -0.97639E+08         0.00000E+00
    0.00000E+00         0.00000E+00        -0.67350E+08
 
   -0.67330E+08         0.99529E+06         0.00000E+00
    0.99529E+06        -0.97654E+08         0.00000E+00
    0.00000E+00         0.00000E+00        -0.67185E+08
 
   -0.67187E+08         0.96699E+06         0.00000E+00
    0.96699E+06        -0.97672E+08         0.00000E+00
    0.00000E+00         0.00000E+00        -0.67021E+08
 
   -0.67047E+08         0.93483E+06         0.00000E+00
    0.93483E+06        -0.97694E+08         0.00000E+00
    0.00000E+00         0.00000E+00        -0.66858E+08
 
   -0.66909E+08         0.89841E+06         0.00000E+00
    0.89841E+06        -0.97718E+08         0.00000E+00
    0.00000E+00         0.00000E+00        -0.66696E+08
 
   -0.66773E+08         0.85733E+06         0.00000E+00
    0.85733E+06        -0.97746E+08         0.00000E+00
    0.00000E+00         0.00000E+00        -0.66535E+08
 
   -0.66638E+08         0.81124E+06         0.00000E+00
    0.81124E+06        -0.97776E+08         0.00000E+00
    0.00000E+00         0.00000E+00        -0.66375E+08
 
   -0.66506E+08         0.75979E+06         0.00000E+00
    0.75979E+06        -0.97806E+08         0.00000E+00
    0.00000E+00         0.00000E+00        -0.66214E+08
 
   -0.66373E+08         0.70269E+06         0.00000E+00
    0.70269E+06        -0.97837E+08         0.00000E+00
    0.00000E+00         0.00000E+00        -0.66051E+08
 
   -0.66241E+08         0.63964E+06         0.00000E+00
    0.63964E+06        -0.97863E+08         0.00000E+00
    0.00000E+00         0.00000E+00        -0.65885E+08
 
   -0.66109E+08         0.57032E+06         0.00000E+00
    0.57032E+06        -0.97883E+08         0.00000E+00
    0.00000E+00         0.00000E+00        -0.65711E+08
 
   -0.65978E+08         0.49415E+06         0.00000E+00
    0.49415E+06        -0.97891E+08         0.00000E+00
    0.00000E+00         0.00000E+00        -0.65526E+08
 
   -0.65848E+08         0.41017E+06         0.00000E+00
    0.41017E+06        -0.97881E+08         0.00000E+00
    0.00000E+00         0.00000E+00        -0.65320E+08
 
   -0.65726E+08         0.31826E+06         0.00000E+00
    0.31826E+06        -0.97848E+08         0.00000E+00
    0.00000E+00         0.00000E+00        -0.65084E+08
 
   -0.65621E+08         0.22203E+06         0.00000E+00
    0.22203E+06        -0.97789E+08         0.00000E+00
    0.00000E+00         0.00000E+00        -0.64806E+08
 
   -0.65545E+08         0.12864E+06         0.00000E+00
    0.12864E+06        -0.97710E+08         0.00000E+00
    0.00000E+00         0.00000E+00        -0.64483E+08
 
   -0.65505E+08         0.41826E+05         0.00000E+00
    0.41826E+05        -0.97623E+08         0.00000E+00
    0.00000E+00         0.00000E+00        -0.64121E+08
 
   -0.82492E+08         0.36098E+05         0.00000E+00
    0.36098E+05        -0.97568E+08         0.00000E+00
    0.00000E+00         0.00000E+00        -0.84465E+08
 
   -0.82432E+08         0.13351E+06         0.00000E+00
    0.13351E+06        -0.97358E+08         0.00000E+00
    0.00000E+00         0.00000E+00        -0.84104E+08
 
   -0.82329E+08         0.26433E+06         0.00000E+00
    0.26433E+06        -0.97233E+08         0.00000E+00
    0.00000E+00         0.00000E+00        -0.83742E+08
 
   -0.82189E+08         0.39813E+06         0.00000E+00
    0.39813E+06        -0.97160E+08         0.00000E+00
    0.00000E+00         0.00000E+00        -0.83381E+08
 
   -0.82017E+08         0.52402E+06         0.00000E+00
    0.52402E+06        -0.97139E+08         0.00000E+00
    0.00000E+00         0.00000E+00        -0.83019E+08
 
   -0.81825E+08         0.63982E+06         0.00000E+00
    0.63982E+06        -0.97163E+08         0.00000E+00
    0.00000E+00         0.00000E+00        -0.82658E+08
 
   -0.81621E+08         0.74558E+06         0.00000E+00
    0.74558E+06        -0.97221E+08         0.00000E+00
    0.00000E+00         0.00000E+00        -0.82297E+08
 
   -0.81415E+08         0.83621E+06         0.00000E+00
    0.83621E+06        -0.97303E+08         0.00000E+00
    0.00000E+00         0.00000E+00        -0.81936E+08
 
   -0.81206E+08         0.90597E+06         0.00000E+00
    0.90597E+06        -0.97364E+08         0.00000E+00
    0.00000E+00         0.00000E+00        -0.81640E+08
 
   -0.80995E+08         0.93785E+06         0.00000E+00
    0.93785E+06        -0.97364E+08         0.00000E+00
    0.00000E+00         0.00000E+00        -0.81451E+08
 
   -0.80805E+08         0.99128E+06         0.00000E+00
    0.99128E+06        -0.97357E+08         0.00000E+00
    0.00000E+00         0.00000E+00        -0.81287E+08
 
   -0.80626E+08         0.10420E+07         0.00000E+00
    0.10420E+07        -0.97364E+08         0.00000E+00
    0.00000E+00         0.00000E+00        -0.81121E+08
 
   -0.80456E+08         0.10883E+07         0.00000E+00
    0.10883E+07        -0.97378E+08         0.00000E+00
    0.00000E+00         0.00000E+00        -0.80952E+08
 
   -0.80290E+08         0.11314E+07         0.00000E+00
    0.11314E+07        -0.97395E+08         0.00000E+00
    0.00000E+00         0.00000E+00        -0.80777E+08
 
   -0.80125E+08         0.11719E+07         0.00000E+00
    0.11719E+07        -0.97414E+08         0.00000E+00
    0.00000E+00         0.00000E+00        -0.80595E+08
 
   -0.79959E+08         0.12102E+07         0.00000E+00
    0.12102E+07        -0.97433E+08         0.00000E+00
    0.00000E+00         0.00000E+00        -0.80405E+08
 
   -0.79789E+08         0.12461E+07         0.00000E+00
    0.12461E+07        -0.97452E+08         0.00000E+00
    0.00000E+00         0.00000E+00        -0.80209E+08
 
   -0.79614E+08         0.12793E+07         0.00000E+00
    0.12793E+07        -0.97470E+08         0.00000E+00
    0.00000E+00         0.00000E+00        -0.80004E+08
 
   -0.79435E+08         0.13095E+07         0.00000E+00
    0.13095E+07        -0.97488E+08         0.00000E+00
    0.00000E+00         0.00000E+00        -0.79793E+08
 
   -0.79250E+08         0.13362E+07         0.00000E+00
    0.13362E+07        -0.97506E+08         0.00000E+00
    0.00000E+00         0.00000E+00        -0.79575E+08
 
   -0.79061E+08         0.13594E+07         0.00000E+00
    0.13594E+07        -0.97525E+08         0.00000E+00
    0.00000E+00         0.00000E+00        -0.79350E+08
 
   -0.78866E+08         0.13787E+07         0.00000E+00
    0.13787E+07        -0.97545E+08         0.00000E+00
    0.00000E+00         0.00000E+00        -0.79119E+08
 
   -0.78667E+08         0.13947E+07         0.00000E+00
    0.13947E+07        -0.97567E+08         0.00000E+00
    0.00000E+00         0.00000E+00        -0.78883E+08
 
   -0.78465E+08         0.14083E+07         0.00000E+00
    0.14083E+07        -0.97591E+08         0.00000E+00
    0.00000E+00         0.00000E+00        -0.78641E+08
 
   -0.78260E+08         0.14201E+07         0.00000E+00
    0.14201E+07        -0.97616E+08         0.00000E+00
    0.00000E+00         0.00000E+00        -0.78395E+08
 
   -0.78052E+08         0.14270E+07         0.00000E+00
    0.14270E+07        -0.97628E+08         0.00000E+00
    0.00000E+00         0.00000E+00        -0.78165E+08
 
   -0.77842E+08         0.14230E+07         0.00000E+00
    0.14230E+07        -0.97617E+08         0.00000E+00
    0.00000E+00         0.00000E+00        -0.77963E+08
 
   -0.77632E+08         0.14217E+07         0.00000E+00
    0.14217E+07        -0.97606E+08         0.00000E+00
    0.00000E+00         0.00000E+00        -0.77759E+08
 
   -0.77422E+08         0.14216E+07         0.00000E+00
    0.14216E+07        -0.97597E+08         0.00000E+00
    0.00000E+00         0.00000E+00        -0.77552E+08
 
   -0.77213E+08         0.14220E+07         0.00000E+00
    0.14220E+07        -0.97592E+08         0.00000E+00
    0.00000E+00         0.00000E+00        -0.77342E+08
 
   -0.77003E+08         0.14227E+07         0.00000E+00
    0.14227E+07        -0.97590E+08         0.00000E+00
    0.00000E+00         0.00000E+00        -0.77130E+08
 
   -0.76793E+08         0.14234E+07         0.00000E+00
    0.14234E+07        -0.97589E+08         0.00000E+00
    0.00000E+00         0.00000E+00        -0.76916E+08
 
   -0.76584E+08         0.14239E+07         0.00000E+00
    0.14239E+07        -0.97590E+08         0.00000E+00
    0.00000E+00         0.00000E+00        -0.76699E+08
 
   -0.76374E+08         0.14239E+07         0.00000E+00
    0.14239E+07        -0.97593E+08         0.00000E+00
    0.00000E+00         0.00000E+00        -0.76480E+08
 
   -0.76164E+08         0.14229E+07         0.00000E+00
    0.14229E+07        -0.97598E+08         0.00000E+00
    0.00000E+00         0.00000E+00        -0.76260E+08
 
   -0.75954E+08         0.14209E+07         0.00000E+00
    0.14209E+07        -0.97605E+08         0.00000E+00
    0.00000E+00         0.00000E+00        -0.76037E+08
 
   -0.75744E+08         0.14177E+07         0.00000E+00
    0.14177E+07        -0.97614E+08         0.00000E+00
    0.00000E+00         0.00000E+00        -0.75813E+08
 
   -0.75535E+08         0.14135E+07         0.00000E+00
    0.14135E+07        -0.97625E+08         0.00000E+00
    0.00000E+00         0.00000E+00        -0.75587E+08
 
   -0.75328E+08         0.14085E+07         0.00000E+00
    0.14085E+07        -0.97638E+08         0.00000E+00
    0.00000E+00         0.00000E+00        -0.75359E+08
 
   -0.75121E+08         0.14035E+07         0.00000E+00
    0.14035E+07        -0.97648E+08         0.00000E+00
    0.00000E+00         0.00000E+00        -0.75138E+08
 
   -0.74914E+08         0.13902E+07         0.00000E+00
    0.13902E+07        -0.97642E+08         0.00000E+00
    0.00000E+00         0.00000E+00        -0.74936E+08
 
   -0.74710E+08         0.13784E+07         0.00000E+00
    0.13784E+07        -0.97634E+08         0.00000E+00
    0.00000E+00         0.00000E+00        -0.74739E+08
 
   -0.74507E+08         0.13677E+07         0.00000E+00
    0.13677E+07        -0.97629E+08         0.00000E+00
    0.00000E+00         0.00000E+00        -0.74541E+08
 
   -0.74307E+08         0.13575E+07         0.00000E+00
    0.13575E+07        -0.97626E+08         0.00000E+00
    0.00000E+00         0.00000E+00        -0.74343E+08
 
   -0.74109E+08         0.13476E+07         0.00000E+00
    0.13476E+07        -0.97627E+08         0.00000E+00
    0.00000E+00         0.00000E+00        -0.74144E+08
 
   -0.73913E+08         0.13378E+07         0.00000E+00
    0.13378E+07        -0.97629E+08         0.00000E+00
    0.00000E+00         0.00000E+00        -0.73945E+08
 
   -0.73718E+08         0.13281E+07         0.00000E+00
    0.13281E+07        -0.97633E+08         0.00000E+00
    0.00000E+00         0.00000E+00        -0.73745E+08
 
   -0.73526E+08         0.13186E+07         0.00000E+00
    0.13186E+07        -0.97640E+08         0.00000E+00
    0.00000E+00         0.00000E+00        -0.73545E+08
 
   -0.73335E+08         0.13094E+07         0.00000E+00
    0.13094E+07        -0.97645E+08         0.00000E+00
    0.00000E+00         0.00000E+00        -0.73348E+08
 
   -0.73146E+08         0.12975E+07         0.00000E+00
    0.12975E+07        -0.97640E+08         0.00000E+00
    0.00000E+00         0.00000E+00        -0.73163E+08
 
   -0.72958E+08         0.12862E+07         0.00000E+00
    0.12862E+07        -0.97634E+08         0.00000E+00
    0.00000E+00         0.00000E+00        -0.72981E+08
 
   -0.72773E+08         0.12756E+07         0.00000E+00
    0.12756E+07        -0.97630E+08         0.00000E+00
    0.00000E+00         0.00000E+00        -0.72800E+08
 
   -0.72589E+08         0.12656E+07         0.00000E+00
    0.12656E+07        -0.97628E+08         0.00000E+00
    0.00000E+00         0.00000E+00        -0.72618E+08
 
   -0.72407E+08         0.12562E+07         0.00000E+00
    0.12562E+07        -0.97628E+08         0.00000E+00
    0.00000E+00         0.00000E+00        -0.72436E+08
 
   -0.72226E+08         0.12472E+07         0.00000E+00
    0.12472E+07        -0.97629E+08         0.00000E+00
    0.00000E+00         0.00000E+00        -0.72255E+08
 
   -0.72047E+08         0.12386E+07         0.00000E+00
    0.12386E+07        -0.97631E+08         0.00000E+00
    0.00000E+00         0.00000E+00        -0.72073E+08
 
   -0.71869E+08         0.12307E+07         0.00000E+00
    0.12307E+07        -0.97634E+08         0.00000E+00
    0.00000E+00         0.00000E+00        -0.71892E+08
 
   -0.71692E+08         0.12223E+07         0.00000E+00
    0.12223E+07        -0.97632E+08         0.00000E+00
    0.00000E+00         0.00000E+00        -0.71717E+08
 
   -0.71517E+08         0.12140E+07         0.00000E+00
    0.12140E+07        -0.97628E+08         0.00000E+00
    0.00000E+00         0.00000E+00        -0.71545E+08
 
   -0.71343E+08         0.12062E+07         0.00000E+00
    0.12062E+07        -0.97625E+08         0.00000E+00
    0.00000E+00         0.00000E+00        -0.71373E+08
 
   -0.71170E+08         0.11991E+07         0.00000E+00
    0.11991E+07        -0.97623E+08         0.00000E+00
    0.00000E+00         0.00000E+00        -0.71202E+08
 
   -0.70998E+08         0.11924E+07         0.00000E+00
    0.11924E+07        -0.97621E+08         0.00000E+00
    0.00000E+00         0.00000E+00        -0.71030E+08
 
   -0.70827E+08         0.11862E+07         0.00000E+00
    0.11862E+07        -0.97620E+08         0.00000E+00
    0.00000E+00         0.00000E+00        -0.70859E+08
 
   -0.70656E+08         0.11803E+07         0.00000E+00
    0.11803E+07        -0.97620E+08         0.00000E+00
    0.00000E+00         0.00000E+00        -0.70688E+08
 
   -0.70487E+08         0.11747E+07         0.00000E+00
    0.11747E+07        -0.97620E+08         0.00000E+00
    0.00000E+00         0.00000E+00        -0.70517E+08
 
   -0.70318E+08         0.11692E+07         0.00000E+00
    0.11692E+07        -0.97620E+08         0.00000E+00
    0.00000E+00         0.00000E+00        -0.70346E+08
 
   -0.70150E+08         0.11638E+07         0.00000E+00
    0.11638E+07        -0.97620E+08         0.00000E+00
    0.00000E+00         0.00000E+00        -0.70175E+08
 
   -0.69985E+08         0.11582E+07         0.00000E+00
    0.11582E+07        -0.97617E+08         0.00000E+00
    0.00000E+00         0.00000E+00        -0.70007E+08
 
   -0.69822E+08         0.11524E+07         0.00000E+00
    0.11524E+07        -0.97613E+08         0.00000E+00
    0.00000E+00         0.00000E+00        -0.69840E+08
 
   -0.69660E+08         0.11465E+07         0.00000E+00
    0.11465E+07        -0.97610E+08         0.00000E+00
    0.00000E+00         0.00000E+00        -0.69674E+08
 
   -0.69498E+08         0.11404E+07         0.00000E+00
    0.11404E+07        -0.97607E+08         0.00000E+00
    0.00000E+00         0.00000E+00        -0.69507E+08
 
   -0.69337E+08         0.11341E+07         0.00000E+00
    0.11341E+07        -0.97604E+08         0.00000E+00
    0.00000E+00         0.00000E+00        -0.69341E+08
 
   -0.69176E+08         0.11274E+07         0.00000E+00
    0.11274E+07        -0.97601E+08         0.00000E+00
    0.00000E+00         0.00000E+00        -0.69174E+08
 
   -0.69016E+08         0.11203E+07         0.00000E+00
    0.11203E+07        -0.97599E+08         0.00000E+00
    0.00000E+00         0.00000E+00        -0.69008E+08
 
   -0.68856E+08         0.11126E+07         0.00000E+00
    0.11126E+07        -0.97598E+08         0.00000E+00
    0.00000E+00         0.00000E+00        -0.68841E+08
 
   -0.68698E+08         0.11043E+07         0.00000E+00
    0.11043E+07        -0.97597E+08         0.00000E+00
    0.00000E+00         0.00000E+00        -0.68674E+08
 
   -0.68540E+08         0.10952E+07         0.00000E+00
    0.10952E+07        -0.97597E+08         0.00000E+00
    0.00000E+00         0.00000E+00        -0.68507E+08
 
   -0.68383E+08         0.10852E+07         0.00000E+00
    0.10852E+07        -0.97597E+08         0.00000E+00
    0.00000E+00         0.00000E+00        -0.68340E+08
 
   -0.68228E+08         0.10739E+07         0.00000E+00
    0.10739E+07        -0.97599E+08         0.00000E+00
    0.00000E+00         0.00000E+00        -0.68174E+08
 
   -0.68074E+08         0.10613E+07         0.00000E+00
    0.10613E+07        -0.97603E+08         0.00000E+00
    0.00000E+00         0.00000E+00        -0.68007E+08
 
   -0.67921E+08         0.10469E+07         0.00000E+00
    0.10469E+07        -0.97607E+08         0.00000E+00
    0.00000E+00         0.00000E+00        -0.67840E+08
 
   -0.67771E+08         0.10306E+07         0.00000E+00
    0.10306E+07        -0.97614E+08         0.00000E+00
    0.00000E+00         0.00000E+00        -0.67673E+08
 
   -0.67622E+08         0.10120E+07         0.00000E+00
    0.10120E+07        -0.97623E+08         0.00000E+00
    0.00000E+00         0.00000E+00        -0.67506E+08
 
   -0.67475E+08         0.99078E+06         0.00000E+00
    0.99078E+06        -0.97634E+08         0.00000E+00
    0.00000E+00         0.00000E+00        -0.67340E+08
 
   -0.67331E+08         0.96646E+06         0.00000E+00
    0.96646E+06        -0.97649E+08         0.00000E+00
    0.00000E+00         0.00000E+00        -0.67175E+08
 
   -0.67188E+08         0.93869E+06         0.00000E+00
    0.93869E+06        -0.97666E+08         0.00000E+00
    0.00000E+00         0.00000E+00        -0.67010E+08
 
   -0.67049E+08         0.90704E+06         0.00000E+00
    0.90704E+06        -0.97687E+08         0.00000E+00
    0.00000E+00         0.00000E+00        -0.66846E+08
 
   -0.66911E+08         0.87111E+06         0.00000E+00
    0.87111E+06        -0.97710E+08         0.00000E+00
    0.00000E+00         0.00000E+00        -0.66682E+08
 
   -0.66776E+08         0.83047E+06         0.00000E+00
    0.83047E+06        -0.97737E+08         0.00000E+00
    0.00000E+00         0.00000E+00        -0.66520E+08
 
   -0.66643E+08         0.78473E+06         0.00000E+00
    0.78473E+06        -0.97766E+08         0.00000E+00
    0.00000E+00         0.00000E+00        -0.66358E+08
 
   -0.66511E+08         0.73353E+06         0.00000E+00
    0.73353E+06        -0.97796E+08         0.00000E+00
    0.00000E+00         0.00000E+00        -0.66195E+08
 
   -0.66380E+08         0.67656E+06         0.00000E+00
    0.67656E+06        -0.97825E+08         0.00000E+00
    0.00000E+00         0.00000E+00        -0.66030E+08
 
   -0.66249E+08         0.61354E+06         0.00000E+00
    0.61354E+06        -0.97850E+08         0.00000E+00
    0.00000E+00         0.00000E+00        -0.65862E+08
 
   -0.66119E+08         0.54424E+06         0.00000E+00
    0.54424E+06        -0.97869E+08         0.00000E+00
    0.00000E+00         0.00000E+00        -0.65686E+08
 
   -0.65989E+08         0.46828E+06         0.00000E+00
    0.46828E+06        -0.97876E+08         0.00000E+00
    0.00000E+00         0.00000E+00        -0.65497E+08
 
   -0.65863E+08         0.38522E+06         0.00000E+00
    0.38522E+06        -0.97865E+08         0.00000E+00
    0.00000E+00         0.00000E+00        -0.65288E+08
 
   -0.65745E+08         0.29590E+06         0.00000E+00
    0.29590E+06        -0.97831E+08         0.00000E+00
    0.00000E+00         0.00000E+00        -0.65047E+08
 
   -0.65645E+08         0.20465E+06         0.00000E+00
    0.20465E+06        -0.97772E+08         0.00000E+00
    0.00000E+00         0.00000E+00        -0.64765E+08
 
   -0.65574E+08         0.11800E+06         0.00000E+00
    0.11800E+06        -0.97695E+08         0.00000E+00
    0.00000E+00         0.00000E+00        -0.64440E+08
 
   -0.65537E+08         0.38317E+05         0.00000E+00
    0.38317E+05        -0.97609E+08         0.00000E+00
    0.00000E+00         0.00000E+00        -0.64078E+08
 
   -0.82376E+08         0.29407E+05         0.00000E+00
    0.29407E+05        -0.97582E+08         0.00000E+00
    0.00000E+00         0.00000E+00        -0.84465E+08
 
   -0.82326E+08         0.11704E+06         0.00000E+00
    0.11704E+06        -0.97381E+08         0.00000E+00
    0.00000E+00         0.00000E+00        -0.84104E+08
 
   -0.82234E+08         0.24131E+06         0.00000E+00
    0.24131E+06        -0.97260E+08         0.00000E+00
    0.00000E+00         0.00000E+00        -0.83742E+08
 
   -0.82105E+08         0.36764E+06         0.00000E+00
    0.36764E+06        -0.97185E+08         0.00000E+00
    0.00000E+00         0.00000E+00        -0.83381E+08
 
   -0.81943E+08         0.48828E+06         0.00000E+00
    0.48828E+06        -0.97163E+08         0.00000E+00
    0.00000E+00         0.00000E+00        -0.83019E+08
 
   -0.81761E+08         0.60077E+06         0.00000E+00
    0.60077E+06        -0.97184E+08         0.00000E+00
    0.00000E+00         0.00000E+00        -0.82658E+08
 
   -0.81565E+08         0.70453E+06         0.00000E+00
    0.70453E+06        -0.97241E+08         0.00000E+00
    0.00000E+00         0.00000E+00        -0.82297E+08
 
   -0.81365E+08         0.79691E+06         0.00000E+00
    0.79691E+06        -0.97318E+08         0.00000E+00
    0.00000E+00         0.00000E+00        -0.81936E+08
 
   -0.81161E+08         0.86246E+06         0.00000E+00
    0.86246E+06        -0.97373E+08         0.00000E+00
    0.00000E+00         0.00000E+00        -0.81650E+08
 
   -0.80959E+08         0.89887E+06         0.00000E+00
    0.89887E+06        -0.97375E+08         0.00000E+00
    0.00000E+00         0.00000E+00        -0.81465E+08
 
   -0.80774E+08         0.95489E+06         0.00000E+00
    0.95489E+06        -0.97368E+08         0.00000E+00
    0.00000E+00         0.00000E+00        -0.81296E+08
 
   -0.80598E+08         0.10073E+07         0.00000E+00
    0.10073E+07        -0.97374E+08         0.00000E+00
    0.00000E+00         0.00000E+00        -0.81126E+08
 
   -0.80429E+08         0.10549E+07         0.00000E+00
    0.10549E+07        -0.97387E+08         0.00000E+00
    0.00000E+00         0.00000E+00        -0.80953E+08
 
   -0.80263E+08         0.10984E+07         0.00000E+00
    0.10984E+07        -0.97404E+08         0.00000E+00
    0.00000E+00         0.00000E+00        -0.80775E+08
 
   -0.80097E+08         0.11388E+07         0.00000E+00
    0.11388E+07        -0.97422E+08         0.00000E+00
    0.00000E+00         0.00000E+00        -0.80590E+08
 
   -0.79931E+08         0.11766E+07         0.00000E+00
    0.11766E+07        -0.97441E+08         0.00000E+00
    0.00000E+00         0.00000E+00        -0.80399E+08
 
   -0.79760E+08         0.12117E+07         0.00000E+00
    0.12117E+07        -0.97459E+08         0.00000E+00
    0.00000E+00         0.00000E+00        -0.80200E+08
 
   -0.79586E+08         0.12440E+07         0.00000E+00
    0.12440E+07        -0.97477E+08         0.00000E+00
    0.00000E+00         0.00000E+00        -0.79995E+08
 
   -0.79407E+08         0.12731E+07         0.00000E+00
    0.12731E+07        -0.97494E+08         0.00000E+00
    0.00000E+00         0.00000E+00        -0.79782E+08
 
   -0.79223E+08         0.12989E+07         0.00000E+00
    0.12989E+07        -0.97511E+08         0.00000E+00
    0.00000E+00         0.00000E+00        -0.79563E+08
 
   -0.79035E+08         0.13210E+07         0.00000E+00
    0.13210E+07        -0.97529E+08         0.00000E+00
    0.00000E+00         0.00000E+00        -0.79338E+08
 
   -0.78841E+08         0.13395E+07         0.00000E+00
    0.13395E+07        -0.97548E+08         0.00000E+00
    0.00000E+00         0.00000E+00        -0.79107E+08
 
   -0.78644E+08         0.13547E+07         0.00000E+00
    0.13547E+07        -0.97569E+08         0.00000E+00
    0.00000E+00         0.00000E+00        -0.78870E+08
 
   -0.78442E+08         0.13676E+07         0.00000E+00
    0.13676E+07        -0.97593E+08         0.00000E+00
    0.00000E+00         0.00000E+00        -0.78628E+08
 
   -0.78239E+08         0.13795E+07         0.00000E+00
    0.13795E+07        -0.97618E+08         0.00000E+00
    0.00000E+00         0.00000E+00        -0.78382E+08
 
   -0.78032E+08         0.13846E+07         0.00000E+00
    0.13846E+07        -0.97628E+08         0.00000E+00
    0.00000E+00         0.00000E+00        -0.78155E+08
 
   -0.77823E+08         0.13813E+07         0.00000E+00
    0.13813E+07        -0.97616E+08         0.00000E+00
    0.00000E+00         0.00000E+00        -0.77954E+08
 
   -0.77614E+08         0.13798E+07         0.00000E+00
    0.13798E+07        -0.97606E+08         0.00000E+00
    0.00000E+00         0.00000E+00        -0.77749E+08
 
   -0.77404E+08         0.13796E+07         0.00000E+00
    0.13796E+07        -0.97597E+08         0.00000E+00
    0.00000E+00         0.00000E+00        -0.77542E+08
 
   -0.77195E+08         0.13801E+07         0.00000E+00
    0.13801E+07        -0.97592E+08         0.00000E+00
    0.00000E+00         0.00000E+00        -0.77333E+08
 
   -0.76986E+08         0.13808E+07         0.00000E+00
    0.13808E+07        -0.97590E+08         0.00000E+00
    0.00000E+00         0.00000E+00        -0.77120E+08
 
   -0.76776E+08         0.13816E+07         0.00000E+00
    0.13816E+07        -0.97589E+08         0.00000E+00
    0.00000E+00         0.00000E+00        -0.76906E+08
 
   -0.76567E+08         0.13821E+07         0.00000E+00
    0.13821E+07        -0.97590E+08         0.00000E+00
    0.00000E+00         0.00000E+00        -0.76690E+08
 
   -0.76358E+08         0.13820E+07         0.00000E+00
    0.13820E+07        -0.97593E+08         0.00000E+00
    0.00000E+00         0.00000E+00        -0.76471E+08
 
   -0.76149E+08         0.13810E+07         0.00000E+00
    0.13810E+07        -0.97598E+08         0.00000E+00
    0.00000E+00         0.00000E+00        -0.76251E+08
 
   -0.75940E+08         0.13790E+07         0.00000E+00
    0.13790E+07        -0.97605E+08         0.00000E+00
    0.00000E+00         0.00000E+00        -0.76028E+08
 
   -0.75731E+08         0.13759E+07         0.00000E+00
    0.13759E+07        -0.97613E+08         0.00000E+00
    0.00000E+00         0.00000E+00        -0.75804E+08
 
   -0.75524E+08         0.13719E+07         0.00000E+00
    0.13719E+07        -0.97624E+08         0.00000E+00
    0.00000E+00         0.00000E+00        -0.75578E+08
 
   -0.75317E+08         0.13672E+07         0.00000E+00
    0.13672E+07        -0.97637E+08         0.00000E+00
    0.00000E+00         0.00000E+00        -0.75351E+08
 
   -0.75111E+08         0.13622E+07         0.00000E+00
    0.13622E+07        -0.97646E+08         0.00000E+00
    0.00000E+00         0.00000E+00        -0.75131E+08
 
   -0.74905E+08         0.13491E+07         0.00000E+00
    0.13491E+07        -0.97639E+08         0.00000E+00
    0.00000E+00         0.00000E+00        -0.74930E+08
 
   -0.74701E+08         0.13378E+07         0.00000E+00
    0.13378E+07        -0.97632E+08         0.00000E+00
    0.00000E+00         0.00000E+00        -0.74734E+08
 
   -0.74499E+08         0.13275E+07         0.00000E+00
    0.13275E+07        -0.97627E+08         0.00000E+00
    0.00000E+00         0.00000E+00        -0.74536E+08
 
   -0.74299E+08         0.13177E+07         0.00000E+00
    0.13177E+07        -0.97624E+08         0.00000E+00
    0.00000E+00         0.00000E+00        -0.74338E+08
 
   -0.74101E+08         0.13082E+07         0.00000E+00
    0.13082E+07        -0.97625E+08         0.00000E+00
    0.00000E+00         0.00000E+00        -0.74139E+08
 
   -0.73905E+08         0.12988E+07         0.00000E+00
    0.12988E+07        -0.97627E+08         0.00000E+00
    0.00000E+00         0.00000E+00        -0.73940E+08
 
   -0.73711E+08         0.12895E+07         0.00000E+00
    0.12895E+07        -0.97631E+08         0.00000E+00
    0.00000E+00         0.00000E+00        -0.73740E+08
 
   -0.73519E+08         0.12803E+07         0.00000E+00
    0.12803E+07        -0.97638E+08         0.00000E+00
    0.00000E+00         0.00000E+00        -0.73540E+08
 
   -0.73329E+08         0.12715E+07         0.00000E+00
    0.12715E+07        -0.97643E+08         0.00000E+00
    0.00000E+00         0.00000E+00        -0.73343E+08
 
   -0.73140E+08         0.12598E+07         0.00000E+00
    0.12598E+07        -0.97638E+08         0.00000E+00
    0.00000E+00         0.00000E+00        -0.73159E+08
 
   -0.72952E+08         0.12489E+07         0.00000E+00
    0.12489E+07        -0.97632E+08         0.00000E+00
    0.00000E+00         0.00000E+00        -0.72978E+08
 
   -0.72767E+08         0.12387E+07         0.00000E+00
    0.12387E+07        -0.97628E+08         0.00000E+00
    0.00000E+00         0.00000E+00        -0.72796E+08
 
   -0.72583E+08         0.12290E+07         0.00000E+00
    0.12290E+07        -0.97626E+08         0.00000E+00
    0.00000E+00         0.00000E+00        -0.72614E+08
 
   -0.72401E+08         0.12199E+07         0.00000E+00
    0.12199E+07        -0.97626E+08         0.00000E+00
    0.00000E+00         0.00000E+00        -0.72433E+08
 
   -0.72221E+08         0.12112E+07         0.00000E+00
    0.12112E+07        -0.97627E+08         0.00000E+00
    0.00000E+00         0.00000E+00        -0.72251E+08
 
   -0.72042E+08         0.12030E+07         0.00000E+00
    0.12030E+07        -0.97629E+08         0.00000E+00
    0.00000E+00         0.00000E+00        -0.72070E+08
 
   -0.71864E+08         0.11953E+07         0.00000E+00
    0.11953E+07        -0.97632E+08         0.00000E+00
    0.00000E+00         0.00000E+00        -0.71888E+08
 
   -0.71688E+08         0.11871E+07         0.00000E+00
    0.11871E+07        -0.97630E+08         0.00000E+00
    0.00000E+00         0.00000E+00        -0.71713E+08
 
   -0.71512E+08         0.11790E+07         0.00000E+00
    0.11790E+07        -0.97626E+08         0.00000E+00
    0.00000E+00         0.00000E+00        -0.71542E+08
 
   -0.71338E+08         0.11715E+07         0.00000E+00
    0.11715E+07        -0.97624E+08         0.00000E+00
    0.00000E+00         0.00000E+00        -0.71370E+08
 
   -0.71165E+08         0.11646E+07         0.00000E+00
    0.11646E+07        -0.97622E+08         0.00000E+00
    0.00000E+00         0.00000E+00        -0.71199E+08
 
   -0.70993E+08         0.11581E+07         0.00000E+00
    0.11581E+07        -0.97620E+08         0.00000E+00
    0.00000E+00         0.00000E+00        -0.71027E+08
 
   -0.70822E+08         0.11521E+07         0.00000E+00
    0.11521E+07        -0.97619E+08         0.00000E+00
    0.00000E+00         0.00000E+00        -0.70856E+08
 
   -0.70652E+08         0.11464E+07         0.00000E+00
    0.11464E+07        -0.97619E+08         0.00000E+00
    0.00000E+00         0.00000E+00        -0.70684E+08
 
   -0.70482E+08         0.11409E+07         0.00000E+00
    0.11409E+07        -0.97618E+08         0.00000E+00
    0.00000E+00         0.00000E+00        -0.70513E+08
 
   -0.70314E+08         0.11355E+07         0.00000E+00
    0.11355E+07        -0.97618E+08         0.00000E+00
    0.00000E+00         0.00000E+00        -0.70342E+08
 
   -0.70146E+08         0.11303E+07         0.00000E+00
    0.11303E+07        -0.97618E+08         0.00000E+00
    0.00000E+00         0.00000E+00        -0.70171E+08
 
   -0.69981E+08         0.11248E+07         0.00000E+00
    0.11248E+07        -0.97616E+08         0.00000E+00
    0.00000E+00         0.00000E+00        -0.70003E+08
 
   -0.69819E+08         0.11191E+07         0.00000E+00
    0.11191E+07        -0.97612E+08         0.00000E+00
    0.00000E+00         0.00000E+00        -0.69837E+08
 
   -0.69657E+08         0.11133E+07         0.00000E+00
    0.11133E+07        -0.97608E+08         0.00000E+00
    0.00000E+00         0.00000E+00        -0.69670E+08
 
   -0.69495E+08         0.11074E+07         0.00000E+00
    0.11074E+07        -0.97605E+08         0.00000E+00
    0.00000E+00         0.00000E+00        -0.69504E+08
 
   -0.69334E+08         0.11012E+07         0.00000E+00
    0.11012E+07        -0.97602E+08         0.00000E+00
    0.00000E+00         0.00000E+00        -0.69337E+08
 
   -0.69173E+08         0.10947E+07         0.00000E+00
    0.10947E+07        -0.97600E+08         0.00000E+00
    0.00000E+00         0.00000E+00        -0.69170E+08
 
   -0.69013E+08         0.10877E+07         0.00000E+00
    0.10877E+07        -0.97598E+08         0.00000E+00
    0.00000E+00         0.00000E+00        -0.69003E+08
 
   -0.68854E+08         0.10803E+07         0.00000E+00
    0.10803E+07        -0.97596E+08         0.00000E+00
    0.00000E+00         0.00000E+00        -0.68836E+08
 
   -0.68696E+08         0.10722E+07         0.00000E+00
    0.10722E+07        -0.97595E+08         0.00000E+00
    0.00000E+00         0.00000E+00        -0.68669E+08
 
   -0.68538E+08         0.10633E+07         0.00000E+00
    0.10633E+07        -0.97595E+08         0.00000E+00
    0.00000E+00         0.00000E+00        -0.68502E+08
 
   -0.68382E+08         0.10535E+07         0.00000E+00
    0.10535E+07        -0.97595E+08         0.00000E+00
    0.00000E+00         0.00000E+00        -0.68335E+08
 
   -0.68227E+08         0.10426E+07         0.00000E+00
    0.10426E+07        -0.97597E+08         0.00000E+00
    0.00000E+00         0.00000E+00        -0.68167E+08
 
   -0.68073E+08         0.10303E+07         0.00000E+00
    0.10303E+07        -0.97600E+08         0.00000E+00
    0.00000E+00         0.00000E+00        -0.68000E+08
 
   -0.67921E+08         0.10163E+07         0.00000E+00
    0.10163E+07        -0.97604E+08         0.00000E+00
    0.00000E+00         0.00000E+00        -0.67832E+08
 
   -0.67770E+08         0.10004E+07         0.00000E+00
    0.10004E+07        -0.97610E+08         0.00000E+00
    0.00000E+00         0.00000E+00        -0.67665E+08
 
   -0.67622E+08         0.98230E+06         0.00000E+00
    0.98230E+06        -0.97619E+08         0.00000E+00
    0.00000E+00         0.00000E+00        -0.67498E+08
 
   -0.67476E+08         0.96153E+06         0.00000E+00
    0.96153E+06        -0.97630E+08         0.00000E+00
    0.00000E+00         0.00000E+00        -0.67331E+08
 
   -0.67332E+08         0.93773E+06         0.00000E+00
    0.93773E+06        -0.97643E+08         0.00000E+00
    0.00000E+00         0.00000E+00        -0.67164E+08
 
   -0.67190E+08         0.91049E+06         0.00000E+00
    0.91049E+06        -0.97660E+08         0.00000E+00
    0.00000E+00         0.00000E+00        -0.66998E+08
 
   -0.67051E+08         0.87938E+06         0.00000E+00
    0.87938E+06        -0.97680E+08         0.00000E+00
    0.00000E+00         0.00000E+00        -0.66833E+08
 
   -0.66914E+08         0.84395E+06         0.00000E+00
    0.84395E+06        -0.97703E+08         0.00000E+00
    0.00000E+00         0.00000E+00        -0.66668E+08
 
   -0.66779E+08         0.80377E+06         0.00000E+00
    0.80377E+06        -0.97728E+08         0.00000E+00
    0.00000E+00         0.00000E+00        -0.66504E+08
 
   -0.66647E+08         0.75842E+06         0.00000E+00
    0.75842E+06        -0.97756E+08         0.00000E+00
    0.00000E+00         0.00000E+00        -0.66340E+08
 
   -0.66516E+08         0.70751E+06         0.00000E+00
    0.70751E+06        -0.97785E+08         0.00000E+00
    0.00000E+00         0.00000E+00        -0.66176E+08
 
   -0.66386E+08         0.65071E+06         0.00000E+00
    0.65071E+06        -0.97813E+08         0.00000E+00
    0.00000E+00         0.00000E+00        -0.66009E+08
 
   -0.66257E+08         0.58779E+06         0.00000E+00
    0.58779E+06        -0.97837E+08         0.00000E+00
    0.00000E+00         0.00000E+00        -0.65838E+08
 
   -0.66129E+08         0.51859E+06         0.00000E+00
    0.51859E+06        -0.97855E+08         0.00000E+00
    0.00000E+00         0.00000E+00        -0.65660E+08
 
   -0.66002E+08         0.44298E+06         0.00000E+00
    0.44298E+06        -0.97860E+08         0.00000E+00
    0.00000E+00         0.00000E+00        -0.65468E+08
 
   -0.65879E+08         0.36107E+06         0.00000E+00
    0.36107E+06        -0.97849E+08         0.00000E+00
    0.00000E+00         0.00000E+00        -0.65255E+08
 
   -0.65765E+08         0.27460E+06         0.00000E+00
    0.27460E+06        -0.97814E+08         0.00000E+00
    0.00000E+00         0.00000E+00        -0.65010E+08
 
   -0.65670E+08         0.18833E+06         0.00000E+00
    0.18833E+06        -0.97757E+08         0.00000E+00
    0.00000E+00         0.00000E+00        -0.64725E+08
 
   -0.65603E+08         0.10808E+06         0.00000E+00
    0.10808E+06        -0.97681E+08         0.00000E+00
    0.00000E+00         0.00000E+00        -0.64398E+08
 
   -0.65568E+08         0.35047E+05         0.00000E+00
    0.35047E+05        -0.97596E+08         0.00000E+00
    0.00000E+00         0.00000E+00        -0.64036E+08
 
   -0.82257E+08         0.23845E+05         0.00000E+00
    0.23845E+05        -0.97594E+08         0.00000E+00
    0.00000E+00         0.00000E+00        -0.84465E+08
 
   -0.82220E+08         0.10301E+06         0.00000E+00
    0.10301E+06        -0.97402E+08         0.00000E+00
    0.00000E+00         0.00000E+00        -0.84104E+08
 
   -0.82140E+08         0.22079E+06         0.00000E+00
    0.22079E+06        -0.97285E+08         0.00000E+00
    0.00000E+00         0.00000E+00        -0.83742E+08
 
   -0.82022E+08         0.33908E+06         0.00000E+00
    0.33908E+06        -0.97209E+08         0.00000E+00
    0.00000E+00         0.00000E+00        -0.83381E+08
 
   -0.81870E+08         0.45438E+06         0.00000E+00
    0.45438E+06        -0.97186E+08         0.00000E+00
    0.00000E+00         0.00000E+00        -0.83019E+08
 
   -0.81697E+08         0.56385E+06         0.00000E+00
    0.56385E+06        -0.97205E+08         0.00000E+00
    0.00000E+00         0.00000E+00        -0.82658E+08
 
   -0.81508E+08         0.66403E+06         0.00000E+00
    0.66403E+06        -0.97262E+08         0.00000E+00
    0.00000E+00         0.00000E+00        -0.82297E+08
 
   -0.81312E+08         0.75975E+06         0.00000E+00
    0.75975E+06        -0.97332E+08         0.00000E+00
    0.00000E+00         0.00000E+00        -0.81936E+08
 
   -0.81114E+08         0.81916E+06         0.00000E+00
    0.81916E+06        -0.97381E+08         0.00000E+00
    0.00000E+00         0.00000E+00        -0.81660E+08
 
   -0.80923E+08         0.86251E+06         0.00000E+00
    0.86251E+06        -0.97388E+08         0.00000E+00
    0.00000E+00         0.00000E+00        -0.81480E+08
 
   -0.80745E+08         0.91906E+06         0.00000E+00
    0.91906E+06        -0.97379E+08         0.00000E+00
    0.00000E+00         0.00000E+00        -0.81306E+08
 
   -0.80571E+08         0.97296E+06         0.00000E+00
    0.97296E+06        -0.97384E+08         0.00000E+00
    0.00000E+00         0.00000E+00        -0.81132E+08
 
   -0.80403E+08         0.10214E+07         0.00000E+00
    0.10214E+07        -0.97396E+08         0.00000E+00
    0.00000E+00         0.00000E+00        -0.80956E+08
 
   -0.80237E+08         0.10653E+07         0.00000E+00
    0.10653E+07        -0.97412E+08         0.00000E+00
    0.00000E+00         0.00000E+00        -0.80774E+08
 
   -0.80071E+08         0.11056E+07         0.00000E+00
    0.11056E+07        -0.97430E+08         0.00000E+00
    0.00000E+00         0.00000E+00        -0.80587E+08
 
   -0.79904E+08         0.11429E+07         0.00000E+00
    0.11429E+07        -0.97448E+08         0.00000E+00
    0.00000E+00         0.00000E+00        -0.80393E+08
 
   -0.79734E+08         0.11773E+07         0.00000E+00
    0.11773E+07        -0.97466E+08         0.00000E+00
    0.00000E+00         0.00000E+00        -0.80193E+08
 
   -0.79559E+08         0.12087E+07         0.00000E+00
    0.12087E+07        -0.97483E+08         0.00000E+00
    0.00000E+00         0.00000E+00        -0.79985E+08
 
   -0.79381E+08         0.12369E+07         0.00000E+00
    0.12369E+07        -0.97499E+08         0.00000E+00
    0.00000E+00         0.00000E+00        -0.79772E+08
 
   -0.79197E+08         0.12617E+07         0.00000E+00
    0.12617E+07        -0.97516E+08         0.00000E+00
    0.00000E+00         0.00000E+00        -0.79552E+08
 
   -0.79010E+08         0.12829E+07         0.00000E+00
    0.12829E+07        -0.97533E+08         0.00000E+00
    0.00000E+00         0.00000E+00        -0.79326E+08
 
   -0.78817E+08         0.13005E+07         0.00000E+00
    0.13005E+07        -0.97551E+08         0.00000E+00
    0.00000E+00         0.00000E+00        -0.79094E+08
 
   -0.78621E+08         0.13149E+07         0.00000E+00
    0.13149E+07        -0.97572E+08         0.00000E+00
    0.00000E+00         0.00000E+00        -0.78857E+08
 
   -0.78421E+08         0.13272E+07         0.00000E+00
    0.13272E+07        -0.97595E+08         0.00000E+00
    0.00000E+00         0.00000E+00        -0.78615E+08
 
   -0.78218E+08         0.13390E+07         0.00000E+00
    0.13390E+07        -0.97621E+08         0.00000E+00
    0.00000E+00         0.00000E+00        -0.78369E+08
 
   -0.78012E+08         0.13425E+07         0.00000E+00
    0.13425E+07        -0.97627E+08         0.00000E+00
    0.00000E+00         0.00000E+00        -0.78146E+08
 
   -0.77803E+08         0.13396E+07         0.00000E+00
    0.13396E+07        -0.97616E+08         0.00000E+00
    0.00000E+00         0.00000E+00        -0.77944E+08
 
   -0.77595E+08         0.13380E+07         0.00000E+00
    0.13380E+07        -0.97605E+08         0.00000E+00
    0.00000E+00         0.00000E+00        -0.77740E+08
 
   -0.77386E+08         0.13378E+07         0.00000E+00
    0.13378E+07        -0.97597E+08         0.00000E+00
    0.00000E+00         0.00000E+00        -0.77533E+08
 
   -0.77177E+08         0.13382E+07         0.00000E+00
    0.13382E+07        -0.97593E+08         0.00000E+00
    0.00000E+00         0.00000E+00        -0.77323E+08
 
   -0.76969E+08         0.13390E+07         0.00000E+00
    0.13390E+07        -0.97590E+08         0.00000E+00
    0.00000E+00         0.00000E+00        -0.77111E+08
 
   -0.76760E+08         0.13398E+07         0.00000E+00
    0.13398E+07        -0.97589E+08         0.00000E+00
    0.00000E+00         0.00000E+00        -0.76897E+08
 
   -0.76551E+08         0.13403E+07         0.00000E+00
    0.13403E+07        -0.97591E+08         0.00000E+00
    0.00000E+00         0.00000E+00        -0.76680E+08
 
   -0.76343E+08         0.13402E+07         0.00000E+00
    0.13402E+07        -0.97593E+08         0.00000E+00
    0.00000E+00         0.00000E+00        -0.76462E+08
 
   -0.76135E+08         0.13393E+07         0.00000E+00
    0.13393E+07        -0.97598E+08         0.00000E+00
    0.00000E+00         0.00000E+00        -0.76242E+08
 
   -0.75927E+08         0.13373E+07         0.00000E+00
    0.13373E+07        -0.97604E+08         0.00000E+00
    0.00000E+00         0.00000E+00        -0.76019E+08
 
   -0.75719E+08         0.13343E+07         0.00000E+00
    0.13343E+07        -0.97613E+08         0.00000E+00
    0.00000E+00         0.00000E+00        -0.75796E+08
 
   -0.75512E+08         0.13305E+07         0.00000E+00
    0.13305E+07        -0.97623E+08         0.00000E+00
    0.00000E+00         0.00000E+00        -0.75570E+08
 
   -0.75306E+08         0.13261E+07         0.00000E+00
    0.13261E+07        -0.97636E+08         0.00000E+00
    0.00000E+00         0.00000E+00        -0.75343E+08
 
   -0.75100E+08         0.13209E+07         0.00000E+00
    0.13209E+07        -0.97644E+08         0.00000E+00
    0.00000E+00         0.00000E+00        -0.75124E+08
 
   -0.74895E+08         0.13081E+07         0.00000E+00
    0.13081E+07        -0.97637E+08         0.00000E+00
    0.00000E+00         0.00000E+00        -0.74925E+08
 
   -0.74691E+08         0.12972E+07         0.00000E+00
    0.12972E+07        -0.97629E+08         0.00000E+00
    0.00000E+00         0.00000E+00        -0.74728E+08
 
   -0.74490E+08         0.12873E+07         0.00000E+00
    0.12873E+07        -0.97625E+08         0.00000E+00
    0.00000E+00         0.00000E+00        -0.74531E+08
 
   -0.74291E+08         0.12780E+07         0.00000E+00
    0.12780E+07        -0.97623E+08         0.00000E+00
    0.00000E+00         0.00000E+00        -0.74333E+08
 
   -0.74093E+08         0.12688E+07         0.00000E+00
    0.12688E+07        -0.97623E+08         0.00000E+00
    0.00000E+00         0.00000E+00        -0.74134E+08
 
   -0.73898E+08         0.12598E+07         0.00000E+00
    0.12598E+07        -0.97625E+08         0.00000E+00
    0.00000E+00         0.00000E+00        -0.73935E+08
 
   -0.73704E+08         0.12509E+07         0.00000E+00
    0.12509E+07        -0.97629E+08         0.00000E+00
    0.00000E+00         0.00000E+00        -0.73736E+08
 
   -0.73513E+08         0.12421E+07         0.00000E+00
    0.12421E+07        -0.97636E+08         0.00000E+00
    0.00000E+00         0.00000E+00        -0.73536E+08
 
   -0.73322E+08         0.12335E+07         0.00000E+00
    0.12335E+07        -0.97641E+08         0.00000E+00
    0.00000E+00         0.00000E+00        -0.73339E+08
 
   -0.73134E+08         0.12222E+07         0.00000E+00
    0.12222E+07        -0.97636E+08         0.00000E+00
    0.00000E+00         0.00000E+00        -0.73155E+08
 
   -0.72947E+08         0.12116E+07         0.00000E+00
    0.12116E+07        -0.97630E+08         0.00000E+00
    0.00000E+00         0.00000E+00        -0.72974E+08
 
   -0.72761E+08         0.12018E+07         0.00000E+00
    0.12018E+07        -0.97626E+08         0.00000E+00
    0.00000E+00         0.00000E+00        -0.72793E+08
 
   -0.72578E+08         0.11925E+07         0.00000E+00
    0.11925E+07        -0.97625E+08         0.00000E+00
    0.00000E+00         0.00000E+00        -0.72611E+08
 
   -0.72396E+08         0.11837E+07         0.00000E+00
    0.11837E+07        -0.97624E+08         0.00000E+00
    0.00000E+00         0.00000E+00        -0.72429E+08
 
   -0.72215E+08         0.11753E+07         0.00000E+00
    0.11753E+07        -0.97625E+08         0.00000E+00
    0.00000E+00         0.00000E+00        -0.72248E+08
 
   -0.72037E+08         0.11673E+07         0.00000E+00
    0.11673E+07        -0.97627E+08         0.00000E+00
    0.00000E+00         0.00000E+00        -0.72066E+08
 
   -0.71859E+08         0.11599E+07         0.00000E+00
    0.11599E+07        -0.97631E+08         0.00000E+00
    0.00000E+00         0.00000E+00        -0.71885E+08
 
   -0.71683E+08         0.11519E+07         0.00000E+00
    0.11519E+07        -0.97629E+08         0.00000E+00
    0.00000E+00         0.00000E+00        -0.71710E+08
 
   -0.71508E+08         0.11441E+07         0.00000E+00
    0.11441E+07        -0.97625E+08         0.00000E+00
    0.00000E+00         0.00000E+00        -0.71539E+08
 
   -0.71334E+08         0.11368E+07         0.00000E+00
    0.11368E+07        -0.97622E+08         0.00000E+00
    0.00000E+00         0.00000E+00        -0.71367E+08
 
   -0.71161E+08         0.11301E+07         0.00000E+00
    0.11301E+07        -0.97620E+08         0.00000E+00
    0.00000E+00         0.00000E+00        -0.71195E+08
 
   -0.70989E+08         0.11238E+07         0.00000E+00
    0.11238E+07        -0.97619E+08         0.00000E+00
    0.00000E+00         0.00000E+00        -0.71024E+08
 
   -0.70818E+08         0.11180E+07         0.00000E+00
    0.11180E+07        -0.97618E+08         0.00000E+00
    0.00000E+00         0.00000E+00        -0.70852E+08
 
   -0.70648E+08         0.11124E+07         0.00000E+00
    0.11124E+07        -0.97618E+08         0.00000E+00
    0.00000E+00         0.00000E+00        -0.70681E+08
 
   -0.70478E+08         0.11071E+07         0.00000E+00
    0.11071E+07        -0.97617E+08         0.00000E+00
    0.00000E+00         0.00000E+00        -0.70510E+08
 
   -0.70310E+08         0.11019E+07         0.00000E+00
    0.11019E+07        -0.97617E+08         0.00000E+00
    0.00000E+00         0.00000E+00        -0.70338E+08
 
   -0.70142E+08         0.10967E+07         0.00000E+00
    0.10967E+07        -0.97617E+08         0.00000E+00
    0.00000E+00         0.00000E+00        -0.70168E+08
 
   -0.69978E+08         0.10913E+07         0.00000E+00
    0.10913E+07        -0.97614E+08         0.00000E+00
    0.00000E+00         0.00000E+00        -0.70000E+08
 
   -0.69816E+08         0.10858E+07         0.00000E+00
    0.10858E+07        -0.97610E+08         0.00000E+00
    0.00000E+00         0.00000E+00        -0.69833E+08
 
   -0.69654E+08         0.10802E+07         0.00000E+00
    0.10802E+07        -0.97607E+08         0.00000E+00
    0.00000E+00         0.00000E+00        -0.69666E+08
 
   -0.69492E+08         0.10744E+07         0.00000E+00
    0.10744E+07        -0.97604E+08         0.00000E+00
    0.00000E+00         0.00000E+00        -0.69500E+08
 
   -0.69331E+08         0.10683E+07         0.00000E+00
    0.10683E+07        -0.97601E+08         0.00000E+00
    0.00000E+00         0.00000E+00        -0.69333E+08
 
   -0.69171E+08         0.10620E+07         0.00000E+00
    0.10620E+07        -0.97598E+08         0.00000E+00
    0.00000E+00         0.00000E+00        -0.69166E+08
 
   -0.69011E+08         0.10552E+07         0.00000E+00
    0.10552E+07        -0.97596E+08         0.00000E+00
    0.00000E+00         0.00000E+00        -0.68999E+08
 
   -0.68852E+08         0.10479E+07         0.00000E+00
    0.10479E+07        -0.97594E+08         0.00000E+00
    0.00000E+00         0.00000E+00        -0.68831E+08
 
   -0.68694E+08         0.10401E+07         0.00000E+00
    0.10401E+07        -0.97593E+08         0.00000E+00
    0.00000E+00         0.00000E+00        -0.68664E+08
 
   -0.68537E+08         0.10315E+07         0.00000E+00
    0.10315E+07        -0.97592E+08         0.00000E+00
    0.00000E+00         0.00000E+00        -0.68496E+08
 
   -0.68381E+08         0.10219E+07         0.00000E+00
    0.10219E+07        -0.97593E+08         0.00000E+00
    0.00000E+00         0.00000E+00        -0.68329E+08
 
   -0.68226E+08         0.10113E+07         0.00000E+00
    0.10113E+07        -0.97594E+08         0.00000E+00
    0.00000E+00         0.00000E+00        -0.68161E+08
 
   -0.68073E+08         0.99932E+06         0.00000E+00
    0.99932E+06        -0.97597E+08         0.00000E+00
    0.00000E+00         0.00000E+00        -0.67993E+08
 
   -0.67921E+08         0.98576E+06         0.00000E+00
    0.98576E+06        -0.97601E+08         0.00000E+00
    0.00000E+00         0.00000E+00        -0.67825E+08
 
   -0.67771E+08         0.97032E+06         0.00000E+00
    0.97032E+06        -0.97607E+08         0.00000E+00
    0.00000E+00         0.00000E+00        -0.67657E+08
 
   -0.67622E+08         0.95265E+06         0.00000E+00
    0.95265E+06        -0.97615E+08         0.00000E+00
    0.00000E+00         0.00000E+00        -0.67489E+08
 
   -0.67477E+08         0.93238E+06         0.00000E+00
    0.93238E+06        -0.97625E+08         0.00000E+00
    0.00000E+00         0.00000E+00        -0.67321E+08
 
   -0.67333E+08         0.90911E+06         0.00000E+00
    0.90911E+06        -0.97638E+08         0.00000E+00
    0.00000E+00         0.00000E+00        -0.67154E+08
 
   -0.67192E+08         0.88241E+06         0.00000E+00
    0.88241E+06        -0.97654E+08         0.00000E+00
    0.00000E+00         0.00000E+00        -0.66987E+08
 
   -0.67053E+08         0.85183E+06         0.00000E+00
    0.85183E+06        -0.97673E+08         0.00000E+00
    0.00000E+00         0.00000E+00        -0.66820E+08
 
   -0.66917E+08         0.81693E+06         0.00000E+00
    0.81693E+06        -0.97695E+08         0.00000E+00
    0.00000E+00         0.00000E+00        -0.66654E+08
 
   -0.66783E+08         0.77723E+06         0.00000E+00
    0.77723E+06        -0.97720E+08         0.00000E+00
    0.00000E+00         0.00000E+00        -0.66489E+08
 
   -0.66651E+08         0.73230E+06         0.00000E+00
    0.73230E+06        -0.97746E+08         0.00000E+00
    0.00000E+00         0.00000E+00        -0.66323E+08
 
   -0.66521E+08         0.68173E+06         0.00000E+00
    0.68173E+06        -0.97774E+08         0.00000E+00
    0.00000E+00         0.00000E+00        -0.66157E+08
 
   -0.66393E+08         0.62517E+06         0.00000E+00
    0.62517E+06        -0.97801E+08         0.00000E+00
    0.00000E+00         0.00000E+00        -0.65988E+08
 
   -0.66265E+08         0.56241E+06         0.00000E+00
    0.56241E+06        -0.97824E+08         0.00000E+00
    0.00000E+00         0.00000E+00        -0.65815E+08
 
   -0.66139E+08         0.49341E+06         0.00000E+00
    0.49341E+06        -0.97841E+08         0.00000E+00
    0.00000E+00         0.00000E+00        -0.65633E+08
 
   -0.66015E+08         0.41830E+06         0.00000E+00
    0.41830E+06        -0.97845E+08         0.00000E+00
    0.00000E+00         0.00000E+00        -0.65438E+08
 
   -0.65895E+08         0.33777E+06         0.00000E+00
    0.33777E+06        -0.97833E+08         0.00000E+00
    0.00000E+00         0.00000E+00        -0.65222E+08
 
   -0.65786E+08         0.25431E+06         0.00000E+00
    0.25431E+06        -0.97799E+08         0.00000E+00
    0.00000E+00         0.00000E+00        -0.64974E+08
 
   -0.65695E+08         0.17296E+06         0.00000E+00
    0.17296E+06        -0.97742E+08         0.00000E+00
    0.00000E+00         0.00000E+00        -0.64686E+08
 
   -0.65632E+08         0.98776E+05         0.00000E+00
    0.98776E+05        -0.97668E+08         0.00000E+00
    0.00000E+00         0.00000E+00        -0.64358E+08
 
   -0.65599E+08         0.31983E+05         0.00000E+00
    0.31983E+05        -0.97584E+08         0.00000E+00
    0.00000E+00         0.00000E+00        -0.63996E+08
 
   -0.82133E+08         0.20232E+05         0.00000E+00
    0.20232E+05        -0.97603E+08         0.00000E+00
    0.00000E+00         0.00000E+00        -0.84465E+08
 
   -0.82116E+08         0.92060E+05         0.00000E+00
    0.92060E+05        -0.97423E+08         0.00000E+00
    0.00000E+00         0.00000E+00        -0.84104E+08
 
   -0.82048E+08         0.20259E+06         0.00000E+00
    0.20259E+06        -0.97309E+08         0.00000E+00
    0.00000E+00         0.00000E+00        -0.83742E+08
 
   -0.81939E+08         0.31223E+06         0.00000E+00
    0.31223E+06        -0.97232E+08         0.00000E+00
    0.00000E+00         0.00000E+00        -0.83381E+08
 
   -0.81796E+08         0.42231E+06         0.00000E+00
    0.42231E+06        -0.97208E+08         0.00000E+00
    0.00000E+00         0.00000E+00        -0.83019E+08
 
   -0.81631E+08         0.52883E+06         0.00000E+00
    0.52883E+06        -0.97226E+08         0.00000E+00
    0.00000E+00         0.00000E+00        -0.82658E+08
 
   -0.81453E+08         0.62509E+06         0.00000E+00
    0.62509E+06        -0.97280E+08         0.00000E+00
    0.00000E+00         0.00000E+00        -0.82297E+08
 
   -0.81269E+08         0.72376E+06         0.00000E+00
    0.72376E+06        -0.97346E+08         0.00000E+00
    0.00000E+00         0.00000E+00        -0.81947E+08
 
   -0.81075E+08         0.77722E+06         0.00000E+00
    0.77722E+06        -0.97393E+08         0.00000E+00
    0.00000E+00         0.00000E+00        -0.81679E+08
 
   -0.80889E+08         0.82784E+06         0.00000E+00
    0.82784E+06        -0.97397E+08         0.00000E+00
    0.00000E+00         0.00000E+00        -0.81496E+08
 
   -0.80716E+08         0.88401E+06         0.00000E+00
    0.88401E+06        -0.97391E+08         0.00000E+00
    0.00000E+00         0.00000E+00        -0.81317E+08
 
   -0.80546E+08         0.93897E+06         0.00000E+00
    0.93897E+06        -0.97394E+08         0.00000E+00
    0.00000E+00         0.00000E+00        -0.81139E+08
 
   -0.80378E+08         0.98805E+06         0.00000E+00
    0.98805E+06        -0.97405E+08         0.00000E+00
    0.00000E+00         0.00000E+00        -0.80958E+08
 
   -0.80212E+08         0.10322E+07         0.00000E+00
    0.10322E+07        -0.97421E+08         0.00000E+00
    0.00000E+00         0.00000E+00        -0.80774E+08
 
   -0.80047E+08         0.10723E+07         0.00000E+00
    0.10723E+07        -0.97438E+08         0.00000E+00
    0.00000E+00         0.00000E+00        -0.80584E+08
 
   -0.79879E+08         0.11091E+07         0.00000E+00
    0.11091E+07        -0.97455E+08         0.00000E+00
    0.00000E+00         0.00000E+00        -0.80388E+08
 
   -0.79708E+08         0.11428E+07         0.00000E+00
    0.11428E+07        -0.97472E+08         0.00000E+00
    0.00000E+00         0.00000E+00        -0.80185E+08
 
   -0.79534E+08         0.11734E+07         0.00000E+00
    0.11734E+07        -0.97489E+08         0.00000E+00
    0.00000E+00         0.00000E+00        -0.79977E+08
 
   -0.79356E+08         0.12008E+07         0.00000E+00
    0.12008E+07        -0.97505E+08         0.00000E+00
    0.00000E+00         0.00000E+00        -0.79762E+08
 
   -0.79173E+08         0.12247E+07         0.00000E+00
    0.12247E+07        -0.97520E+08         0.00000E+00
    0.00000E+00         0.00000E+00        -0.79541E+08
 
   -0.78985E+08         0.12450E+07         0.00000E+00
    0.12450E+07        -0.97537E+08         0.00000E+00
    0.00000E+00         0.00000E+00        -0.79314E+08
 
   -0.78794E+08         0.12617E+07         0.00000E+00
    0.12617E+07        -0.97555E+08         0.00000E+00
    0.00000E+00         0.00000E+00        -0.79082E+08
 
   -0.78598E+08         0.12753E+07         0.00000E+00
    0.12753E+07        -0.97575E+08         0.00000E+00
    0.00000E+00         0.00000E+00        -0.78845E+08
 
   -0.78399E+08         0.12869E+07         0.00000E+00
    0.12869E+07        -0.97598E+08         0.00000E+00
    0.00000E+00         0.00000E+00        -0.78603E+08
 
   -0.78198E+08         0.12987E+07         0.00000E+00
    0.12987E+07        -0.97623E+08         0.00000E+00
    0.00000E+00         0.00000E+00        -0.78356E+08
 
   -0.77993E+08         0.13006E+07         0.00000E+00
    0.13006E+07        -0.97626E+08         0.00000E+00
    0.00000E+00         0.00000E+00        -0.78137E+08
 
   -0.77785E+08         0.12981E+07         0.00000E+00
    0.12981E+07        -0.97616E+08         0.00000E+00
    0.00000E+00         0.00000E+00        -0.77935E+08
 
   -0.77577E+08         0.12964E+07         0.00000E+00
    0.12964E+07        -0.97605E+08         0.00000E+00
    0.00000E+00         0.00000E+00        -0.77730E+08
 
   -0.77369E+08         0.12960E+07         0.00000E+00
    0.12960E+07        -0.97598E+08         0.00000E+00
    0.00000E+00         0.00000E+00        -0.77523E+08
 
   -0.77160E+08         0.12965E+07         0.00000E+00
    0.12965E+07        -0.97593E+08         0.00000E+00
    0.00000E+00         0.00000E+00        -0.77313E+08
 
   -0.76952E+08         0.12973E+07         0.00000E+00
    0.12973E+07        -0.97590E+08         0.00000E+00
    0.00000E+00         0.00000E+00        -0.77101E+08
 
   -0.76744E+08         0.12981E+07         0.00000E+00
    0.12981E+07        -0.97590E+08         0.00000E+00
    0.00000E+00         0.00000E+00        -0.76887E+08
 
   -0.76536E+08         0.12987E+07         0.00000E+00
    0.12987E+07        -0.97591E+08         0.00000E+00
    0.00000E+00         0.00000E+00        -0.76671E+08
 
   -0.76328E+08         0.12986E+07         0.00000E+00
    0.12986E+07        -0.97593E+08         0.00000E+00
    0.00000E+00         0.00000E+00        -0.76453E+08
 
   -0.76120E+08         0.12977E+07         0.00000E+00
    0.12977E+07        -0.97597E+08         0.00000E+00
    0.00000E+00         0.00000E+00        -0.76233E+08
 
   -0.75913E+08         0.12958E+07         0.00000E+00
    0.12958E+07        -0.97604E+08         0.00000E+00
    0.00000E+00         0.00000E+00        -0.76011E+08
 
   -0.75706E+08         0.12929E+07         0.00000E+00
    0.12929E+07        -0.97612E+08         0.00000E+00
    0.00000E+00         0.00000E+00        -0.75787E+08
 
   -0.75500E+08         0.12893E+07         0.00000E+00
    0.12893E+07        -0.97622E+08         0.00000E+00
    0.00000E+00         0.00000E+00        -0.75562E+08
 
   -0.75295E+08         0.12852E+07         0.00000E+00
    0.12852E+07        -0.97635E+08         0.00000E+00
    0.00000E+00         0.00000E+00        -0.75336E+08
 
   -0.75090E+08         0.12798E+07         0.00000E+00
    0.12798E+07        -0.97643E+08         0.00000E+00
    0.00000E+00         0.00000E+00        -0.75118E+08
 
   -0.74885E+08         0.12672E+07         0.00000E+00
    0.12672E+07        -0.97635E+08         0.00000E+00
    0.00000E+00         0.00000E+00        -0.74920E+08
 
   -0.74682E+08         0.12568E+07         0.00000E+00
    0.12568E+07        -0.97627E+08         0.00000E+00
    0.00000E+00         0.00000E+00        -0.74723E+08
 
   -0.74481E+08         0.12473E+07         0.00000E+00
    0.12473E+07        -0.97623E+08         0.00000E+00
    0.00000E+00         0.00000E+00        -0.74526E+08
 
   -0.74283E+08         0.12383E+07         0.00000E+00
    0.12383E+07        -0.97621E+08         0.00000E+00
    0.00000E+00         0.00000E+00        -0.74328E+08
 
   -0.74086E+08         0.12296E+07         0.00000E+00
    0.12296E+07        -0.97621E+08         0.00000E+00
    0.00000E+00         0.00000E+00        -0.74130E+08
 
   -0.73891E+08         0.12210E+07         0.00000E+00
    0.12210E+07        -0.97623E+08         0.00000E+00
    0.00000E+00         0.00000E+00        -0.73931E+08
 
   -0.73698E+08         0.12124E+07         0.00000E+00
    0.12124E+07        -0.97628E+08         0.00000E+00
    0.00000E+00         0.00000E+00        -0.73731E+08
 
   -0.73506E+08         0.12040E+07         0.00000E+00
    0.12040E+07        -0.97634E+08         0.00000E+00
    0.00000E+00         0.00000E+00        -0.73531E+08
 
   -0.73316E+08         0.11956E+07         0.00000E+00
    0.11956E+07        -0.97639E+08         0.00000E+00
    0.00000E+00         0.00000E+00        -0.73336E+08
 
   -0.73128E+08         0.11846E+07         0.00000E+00
    0.11846E+07        -0.97634E+08         0.00000E+00
    0.00000E+00         0.00000E+00        -0.73152E+08
 
   -0.72941E+08         0.11744E+07         0.00000E+00
    0.11744E+07        -0.97628E+08         0.00000E+00
    0.00000E+00         0.00000E+00        -0.72971E+08
 
   -0.72756E+08         0.11649E+07         0.00000E+00
    0.11649E+07        -0.97625E+08         0.00000E+00
    0.00000E+00         0.00000E+00        -0.72789E+08
 
   -0.72572E+08         0.11560E+07         0.00000E+00
    0.11560E+07        -0.97623E+08         0.00000E+00
    0.00000E+00         0.00000E+00        -0.72608E+08
 
   -0.72390E+08         0.11475E+07         0.00000E+00
    0.11475E+07        -0.97623E+08         0.00000E+00
    0.00000E+00         0.00000E+00        -0.72426E+08
 
   -0.72210E+08         0.11394E+07         0.00000E+00
    0.11394E+07        -0.97624E+08         0.00000E+00
    0.00000E+00         0.00000E+00        -0.72245E+08
 
   -0.72032E+08         0.11317E+07         0.00000E+00
    0.11317E+07        -0.97626E+08         0.00000E+00
    0.00000E+00         0.00000E+00        -0.72063E+08
 
   -0.71854E+08         0.11246E+07         0.00000E+00
    0.11246E+07        -0.97629E+08         0.00000E+00
    0.00000E+00         0.00000E+00        -0.71882E+08
 
   -0.71678E+08         0.11167E+07         0.00000E+00
    0.11167E+07        -0.97627E+08         0.00000E+00
    0.00000E+00         0.00000E+00        -0.71707E+08
 
   -0.71503E+08         0.11092E+07         0.00000E+00
    0.11092E+07        -0.97623E+08         0.00000E+00
    0.00000E+00         0.00000E+00        -0.71536E+08
 
   -0.71329E+08         0.11021E+07         0.00000E+00
    0.11021E+07        -0.97621E+08         0.00000E+00
    0.00000E+00         0.00000E+00        -0.71364E+08
 
   -0.71156E+08         0.10956E+07         0.00000E+00
    0.10956E+07        -0.97619E+08         0.00000E+00
    0.00000E+00         0.00000E+00        -0.71192E+08
 
   -0.70984E+08         0.10895E+07         0.00000E+00
    0.10895E+07        -0.97618E+08         0.00000E+00
    0.00000E+00         0.00000E+00        -0.71021E+08
 
   -0.70814E+08         0.10839E+07         0.00000E+00
    0.10839E+07        -0.97617E+08         0.00000E+00
    0.00000E+00         0.00000E+00        -0.70849E+08
 
   -0.70644E+08         0.10785E+07         0.00000E+00
    0.10785E+07        -0.97617E+08         0.00000E+00
    0.00000E+00         0.00000E+00        -0.70678E+08
 
   -0.70474E+08         0.10733E+07         0.00000E+00
    0.10733E+07        -0.97616E+08         0.00000E+00
    0.00000E+00         0.00000E+00        -0.70506E+08
 
   -0.70306E+08         0.10682E+07         0.00000E+00
    0.10682E+07        -0.97616E+08         0.00000E+00
    0.00000E+00         0.00000E+00        -0.70335E+08
 
   -0.70139E+08         0.10632E+07         0.00000E+00
    0.10632E+07        -0.97616E+08         0.00000E+00
    0.00000E+00         0.00000E+00        -0.70164E+08
 
   -0.69975E+08         0.10580E+07         0.00000E+00
    0.10580E+07        -0.97613E+08         0.00000E+00
    0.00000E+00         0.00000E+00        -0.69996E+08
 
   -0.69812E+08         0.10526E+07         0.00000E+00
    0.10526E+07        -0.97609E+08         0.00000E+00
    0.00000E+00         0.00000E+00        -0.69830E+08
 
   -0.69651E+08         0.10471E+07         0.00000E+00
    0.10471E+07        -0.97606E+08         0.00000E+00
    0.00000E+00         0.00000E+00        -0.69663E+08
 
   -0.69489E+08         0.10414E+07         0.00000E+00
    0.10414E+07        -0.97602E+08         0.00000E+00
    0.00000E+00         0.00000E+00        -0.69496E+08
 
   -0.69329E+08         0.10355E+07         0.00000E+00
    0.10355E+07        -0.97599E+08         0.00000E+00
    0.00000E+00         0.00000E+00        -0.69329E+08
 
   -0.69169E+08         0.10293E+07         0.00000E+00
    0.10293E+07        -0.97596E+08         0.00000E+00
    0.00000E+00         0.00000E+00        -0.69161E+08
 
   -0.69009E+08         0.10227E+07         0.00000E+00
    0.10227E+07        -0.97594E+08         0.00000E+00
    0.00000E+00         0.00000E+00        -0.68994E+08
 
   -0.68851E+08         0.10157E+07         0.00000E+00
    0.10157E+07        -0.97592E+08         0.00000E+00
    0.00000E+00         0.00000E+00        -0.68826E+08
 
   -0.68693E+08         0.10080E+07         0.00000E+00
    0.10080E+07        -0.97591E+08         0.00000E+00
    0.00000E+00         0.00000E+00        -0.68659E+08
 
   -0.68536E+08         0.99965E+06         0.00000E+00
    0.99965E+06        -0.97590E+08         0.00000E+00
    0.00000E+00         0.00000E+00        -0.68491E+08
 
   -0.68380E+08         0.99039E+06         0.00000E+00
    0.99039E+06        -0.97590E+08         0.00000E+00
    0.00000E+00         0.00000E+00        -0.68323E+08
 
   -0.68225E+08         0.98007E+06         0.00000E+00
    0.98007E+06        -0.97592E+08         0.00000E+00
    0.00000E+00         0.00000E+00        -0.68155E+08
 
   -0.68072E+08         0.96845E+06         0.00000E+00
    0.96845E+06        -0.97594E+08         0.00000E+00
    0.00000E+00         0.00000E+00        -0.67986E+08
 
   -0.67921E+08         0.95529E+06         0.00000E+00
    0.95529E+06        -0.97598E+08         0.00000E+00
    0.00000E+00         0.00000E+00        -0.67818E+08
 
   -0.67771E+08         0.94027E+06         0.00000E+00
    0.94027E+06        -0.97603E+08         0.00000E+00
    0.00000E+00         0.00000E+00        -0.67649E+08
 
   -0.67623E+08         0.92307E+06         0.00000E+00
    0.92307E+06        -0.97611E+08         0.00000E+00
    0.00000E+00         0.00000E+00        -0.67480E+08
 
   -0.67478E+08         0.90331E+06         0.00000E+00
    0.90331E+06        -0.97620E+08         0.00000E+00
    0.00000E+00         0.00000E+00        -0.67312E+08
 
   -0.67334E+08         0.88057E+06         0.00000E+00
    0.88057E+06        -0.97633E+08         0.00000E+00
    0.00000E+00         0.00000E+00        -0.67143E+08
 
   -0.67194E+08         0.85443E+06         0.00000E+00
    0.85443E+06        -0.97648E+08         0.00000E+00
    0.00000E+00         0.00000E+00        -0.66975E+08
 
   -0.67056E+08         0.82441E+06         0.00000E+00
    0.82441E+06        -0.97666E+08         0.00000E+00
    0.00000E+00         0.00000E+00        -0.66808E+08
 
   -0.66920E+08         0.79005E+06         0.00000E+00
    0.79005E+06        -0.97687E+08         0.00000E+00
    0.00000E+00         0.00000E+00        -0.66641E+08
 
   -0.66787E+08         0.75087E+06         0.00000E+00
    0.75087E+06        -0.97711E+08         0.00000E+00
    0.00000E+00         0.00000E+00        -0.66474E+08
 
   -0.66656E+08         0.70639E+06         0.00000E+00
    0.70639E+06        -0.97737E+08         0.00000E+00
    0.00000E+00         0.00000E+00        -0.66306E+08
 
   -0.66527E+08         0.65620E+06         0.00000E+00
    0.65620E+06        -0.97763E+08         0.00000E+00
    0.00000E+00         0.00000E+00        -0.66138E+08
 
   -0.66400E+08         0.59994E+06         0.00000E+00
    0.59994E+06        -0.97789E+08         0.00000E+00
    0.00000E+00         0.00000E+00        -0.65967E+08
 
   -0.66274E+08         0.53744E+06         0.00000E+00
    0.53744E+06        -0.97811E+08         0.00000E+00
    0.00000E+00         0.00000E+00        -0.65791E+08
 
   -0.66150E+08         0.46874E+06         0.00000E+00
    0.46874E+06        -0.97827E+08         0.00000E+00
    0.00000E+00         0.00000E+00        -0.65607E+08
 
   -0.66028E+08         0.39428E+06         0.00000E+00
    0.39428E+06        -0.97831E+08         0.00000E+00
    0.00000E+00         0.00000E+00        -0.65409E+08
 
   -0.65912E+08         0.31532E+06         0.00000E+00
    0.31532E+06        -0.97818E+08         0.00000E+00
    0.00000E+00         0.00000E+00        -0.65189E+08
 
   -0.65807E+08         0.23500E+06         0.00000E+00
    0.23500E+06        -0.97784E+08         0.00000E+00
    0.00000E+00         0.00000E+00        -0.64938E+08
 
   -0.65721E+08         0.15846E+06         0.00000E+00
    0.15846E+06        -0.97728E+08         0.00000E+00
    0.00000E+00         0.00000E+00        -0.64648E+08
 
   -0.65661E+08         0.90026E+05         0.00000E+00
    0.90026E+05        -0.97656E+08         0.00000E+00
    0.00000E+00         0.00000E+00        -0.64320E+08
 
   -0.65630E+08         0.29098E+05         0.00000E+00
    0.29098E+05        -0.97574E+08         0.00000E+00
    0.00000E+00         0.00000E+00        -0.63957E+08
 
   -0.82003E+08         0.19740E+05         0.00000E+00
    0.19740E+05        -0.97611E+08         0.00000E+00
    0.00000E+00         0.00000E+00        -0.84467E+08
 
   -0.82016E+08         0.85295E+05         0.00000E+00
    0.85295E+05        -0.97443E+08         0.00000E+00
    0.00000E+00         0.00000E+00        -0.84104E+08
 
   -0.81958E+08         0.18608E+06         0.00000E+00
    0.18608E+06        -0.97330E+08         0.00000E+00
    0.00000E+00         0.00000E+00        -0.83742E+08
 
   -0.81856E+08         0.28696E+06         0.00000E+00
    0.28696E+06        -0.97253E+08         0.00000E+00
    0.00000E+00         0.00000E+00        -0.83381E+08
 
   -0.81722E+08         0.39211E+06         0.00000E+00
    0.39211E+06        -0.97230E+08         0.00000E+00
    0.00000E+00         0.00000E+00        -0.83019E+08
 
   -0.81566E+08         0.49522E+06         0.00000E+00
    0.49522E+06        -0.97247E+08         0.00000E+00
    0.00000E+00         0.00000E+00        -0.82658E+08
 
   -0.81398E+08         0.58946E+06         0.00000E+00
    0.58946E+06        -0.97297E+08         0.00000E+00
    0.00000E+00         0.00000E+00        -0.82297E+08
 
   -0.81224E+08         0.68803E+06         0.00000E+00
    0.68803E+06        -0.97361E+08         0.00000E+00
    0.00000E+00         0.00000E+00        -0.81961E+08
 
   -0.81037E+08         0.73742E+06         0.00000E+00
    0.73742E+06        -0.97406E+08         0.00000E+00
    0.00000E+00         0.00000E+00        -0.81702E+08
 
   -0.80858E+08         0.79369E+06         0.00000E+00
    0.79369E+06        -0.97408E+08         0.00000E+00
    0.00000E+00         0.00000E+00        -0.81513E+08
 
   -0.80689E+08         0.84999E+06         0.00000E+00
    0.84999E+06        -0.97402E+08         0.00000E+00
    0.00000E+00         0.00000E+00        -0.81329E+08
 
   -0.80521E+08         0.90527E+06         0.00000E+00
    0.90527E+06        -0.97404E+08         0.00000E+00
    0.00000E+00         0.00000E+00        -0.81146E+08
 
   -0.80355E+08         0.95479E+06         0.00000E+00
    0.95479E+06        -0.97415E+08         0.00000E+00
    0.00000E+00         0.00000E+00        -0.80962E+08
 
   -0.80189E+08         0.99905E+06         0.00000E+00
    0.99905E+06        -0.97429E+08         0.00000E+00
    0.00000E+00         0.00000E+00        -0.80774E+08
 
   -0.80023E+08         0.10390E+07         0.00000E+00
    0.10390E+07        -0.97445E+08         0.00000E+00
    0.00000E+00         0.00000E+00        -0.80581E+08
 
   -0.79855E+08         0.10753E+07         0.00000E+00
    0.10753E+07        -0.97462E+08         0.00000E+00
    0.00000E+00         0.00000E+00        -0.80382E+08
 
   -0.79684E+08         0.11083E+07         0.00000E+00
    0.11083E+07        -0.97479E+08         0.00000E+00
    0.00000E+00         0.00000E+00        -0.80178E+08
 
   -0.79510E+08         0.11381E+07         0.00000E+00
    0.11381E+07        -0.97494E+08         0.00000E+00
    0.00000E+00         0.00000E+00        -0.79968E+08
 
   -0.79332E+08         0.11646E+07         0.00000E+00
    0.11646E+07        -0.97510E+08         0.00000E+00
    0.00000E+00         0.00000E+00        -0.79752E+08
 
   -0.79149E+08         0.11877E+07         0.00000E+00
    0.11877E+07        -0.97525E+08         0.00000E+00
    0.00000E+00         0.00000E+00        -0.79530E+08
 
   -0.78962E+08         0.12072E+07         0.00000E+00
    0.12072E+07        -0.97540E+08         0.00000E+00
    0.00000E+00         0.00000E+00        -0.79302E+08
 
   -0.78772E+08         0.12231E+07         0.00000E+00
    0.12231E+07        -0.97558E+08         0.00000E+00
    0.00000E+00         0.00000E+00        -0.79070E+08
 
   -0.78577E+08         0.12360E+07         0.00000E+00
    0.12360E+07        -0.97577E+08         0.00000E+00
    0.00000E+00         0.00000E+00        -0.78832E+08
 
   -0.78379E+08         0.12468E+07         0.00000E+00
    0.12468E+07        -0.97600E+08         0.00000E+00
    0.00000E+00         0.00000E+00        -0.78590E+08
 
   -0.78179E+08         0.12584E+07         0.00000E+00
    0.12584E+07        -0.97624E+08         0.00000E+00
    0.00000E+00         0.00000E+00        -0.78346E+08
 
   -0.77974E+08         0.12590E+07         0.00000E+00
    0.12590E+07        -0.97626E+08         0.00000E+00
    0.00000E+00         0.00000E+00        -0.78128E+08
 
   -0.77766E+08         0.12566E+07         0.00000E+00
    0.12566E+07        -0.97615E+08         0.00000E+00
    0.00000E+00         0.00000E+00        -0.77926E+08
 
   -0.77559E+08         0.12548E+07         0.00000E+00
    0.12548E+07        -0.97605E+08         0.00000E+00
    0.00000E+00         0.00000E+00        -0.77721E+08
 
   -0.77351E+08         0.12544E+07         0.00000E+00
    0.12544E+07        -0.97598E+08         0.00000E+00
    0.00000E+00         0.00000E+00        -0.77514E+08
 
   -0.77143E+08         0.12549E+07         0.00000E+00
    0.12549E+07        -0.97593E+08         0.00000E+00
    0.00000E+00         0.00000E+00        -0.77304E+08
 
   -0.76935E+08         0.12557E+07         0.00000E+00
    0.12557E+07        -0.97590E+08         0.00000E+00
    0.00000E+00         0.00000E+00        -0.77092E+08
 
   -0.76728E+08         0.12566E+07         0.00000E+00
    0.12566E+07        -0.97590E+08         0.00000E+00
    0.00000E+00         0.00000E+00        -0.76878E+08
 
   -0.76520E+08         0.12572E+07         0.00000E+00
    0.12572E+07        -0.97591E+08         0.00000E+00
    0.00000E+00         0.00000E+00        -0.76662E+08
 
   -0.76313E+08         0.12572E+07         0.00000E+00
    0.12572E+07        -0.97593E+08         0.00000E+00
    0.00000E+00         0.00000E+00        -0.76444E+08
 
   -0.76106E+08         0.12563E+07         0.00000E+00
    0.12563E+07        -0.97597E+08         0.00000E+00
    0.00000E+00         0.00000E+00        -0.76224E+08
 
   -0.75900E+08         0.12545E+07         0.00000E+00
    0.12545E+07        -0.97603E+08         0.00000E+00
    0.00000E+00         0.00000E+00        -0.76002E+08
 
   -0.75694E+08         0.12516E+07         0.00000E+00
    0.12516E+07        -0.97611E+08         0.00000E+00
    0.00000E+00         0.00000E+00        -0.75779E+08
 
   -0.75488E+08         0.12483E+07         0.00000E+00
    0.12483E+07        -0.97621E+08         0.00000E+00
    0.00000E+00         0.00000E+00        -0.75554E+08
 
   -0.75284E+08         0.12444E+07         0.00000E+00
    0.12444E+07        -0.97634E+08         0.00000E+00
    0.00000E+00         0.00000E+00        -0.75328E+08
 
   -0.75080E+08         0.12387E+07         0.00000E+00
    0.12387E+07        -0.97641E+08         0.00000E+00
    0.00000E+00         0.00000E+00        -0.75112E+08
 
   -0.74875E+08         0.12265E+07         0.00000E+00
    0.12265E+07        -0.97633E+08         0.00000E+00
    0.00000E+00         0.00000E+00        -0.74915E+08
 
   -0.74673E+08         0.12165E+07         0.00000E+00
    0.12165E+07        -0.97626E+08         0.00000E+00
    0.00000E+00         0.00000E+00        -0.74718E+08
 
   -0.74473E+08         0.12074E+07         0.00000E+00
    0.12074E+07        -0.97621E+08         0.00000E+00
    0.00000E+00         0.00000E+00        -0.74521E+08
 
   -0.74274E+08         0.11988E+07         0.00000E+00
    0.11988E+07        -0.97619E+08         0.00000E+00
    0.00000E+00         0.00000E+00        -0.74323E+08
 
   -0.74078E+08         0.11905E+07         0.00000E+00
    0.11905E+07        -0.97619E+08         0.00000E+00
    0.00000E+00         0.00000E+00        -0.74125E+08
 
   -0.73883E+08         0.11822E+07         0.00000E+00
    0.11822E+07        -0.97622E+08         0.00000E+00
    0.00000E+00         0.00000E+00        -0.73926E+08
 
   -0.73691E+08         0.11740E+07         0.00000E+00
    0.11740E+07        -0.97626E+08         0.00000E+00
    0.00000E+00         0.00000E+00        -0.73727E+08
 
   -0.73500E+08         0.11659E+07         0.00000E+00
    0.11659E+07        -0.97633E+08         0.00000E+00
    0.00000E+00         0.00000E+00        -0.73527E+08
 
   -0.73310E+08         0.11578E+07         0.00000E+00
    0.11578E+07        -0.97637E+08         0.00000E+00
    0.00000E+00         0.00000E+00        -0.73332E+08
 
   -0.73122E+08         0.11471E+07         0.00000E+00
    0.11471E+07        -0.97631E+08         0.00000E+00
    0.00000E+00         0.00000E+00        -0.73149E+08
 
   -0.72935E+08         0.11372E+07         0.00000E+00
    0.11372E+07        -0.97626E+08         0.00000E+00
    0.00000E+00         0.00000E+00        -0.72967E+08
 
   -0.72750E+08         0.11280E+07         0.00000E+00
    0.11280E+07        -0.97623E+08         0.00000E+00
    0.00000E+00         0.00000E+00        -0.72786E+08
 
   -0.72567E+08         0.11195E+07         0.00000E+00
    0.11195E+07        -0.97621E+08         0.00000E+00
    0.00000E+00         0.00000E+00        -0.72605E+08
 
   -0.72385E+08         0.11113E+07         0.00000E+00
    0.11113E+07        -0.97621E+08         0.00000E+00
    0.00000E+00         0.00000E+00        -0.72423E+08
 
   -0.72205E+08         0.11035E+07         0.00000E+00
    0.11035E+07        -0.97622E+08         0.00000E+00
    0.00000E+00         0.00000E+00        -0.72241E+08
 
   -0.72027E+08         0.10961E+07         0.00000E+00
    0.10961E+07        -0.97624E+08         0.00000E+00
    0.00000E+00         0.00000E+00        -0.72060E+08
 
   -0.71850E+08         0.10892E+07         0.00000E+00
    0.10892E+07        -0.97628E+08         0.00000E+00
    0.00000E+00         0.00000E+00        -0.71879E+08
 
   -0.71674E+08         0.10816E+07         0.00000E+00
    0.10816E+07        -0.97626E+08         0.00000E+00
    0.00000E+00         0.00000E+00        -0.71704E+08
 
   -0.71499E+08         0.10743E+07         0.00000E+00
    0.10743E+07        -0.97622E+08         0.00000E+00
    0.00000E+00         0.00000E+00        -0.71533E+08
 
   -0.71325E+08         0.10675E+07         0.00000E+00
    0.10675E+07        -0.97619E+08         0.00000E+00
    0.00000E+00         0.00000E+00        -0.71361E+08
 
   -0.71152E+08         0.10612E+07         0.00000E+00
    0.10612E+07        -0.97618E+08         0.00000E+00
    0.00000E+00         0.00000E+00        -0.71189E+08
 
   -0.70980E+08         0.10553E+07         0.00000E+00
    0.10553E+07        -0.97617E+08         0.00000E+00
    0.00000E+00         0.00000E+00        -0.71018E+08
 
   -0.70810E+08         0.10498E+07         0.00000E+00
    0.10498E+07        -0.97616E+08         0.00000E+00
    0.00000E+00         0.00000E+00        -0.70846E+08
 
   -0.70640E+08         0.10446E+07         0.00000E+00
    0.10446E+07        -0.97615E+08         0.00000E+00
    0.00000E+00         0.00000E+00        -0.70674E+08
 
   -0.70471E+08         0.10395E+07         0.00000E+00
    0.10395E+07        -0.97615E+08         0.00000E+00
    0.00000E+00         0.00000E+00        -0.70503E+08
 
   -0.70302E+08         0.10346E+07         0.00000E+00
    0.10346E+07        -0.97615E+08         0.00000E+00
    0.00000E+00         0.00000E+00        -0.70332E+08
 
   -0.70135E+08         0.10297E+07         0.00000E+00
    0.10297E+07        -0.97615E+08         0.00000E+00
    0.00000E+00         0.00000E+00        -0.70161E+08
 
   -0.69972E+08         0.10246E+07         0.00000E+00
    0.10246E+07        -0.97612E+08         0.00000E+00
    0.00000E+00         0.00000E+00        -0.69993E+08
 
   -0.69810E+08         0.10194E+07         0.00000E+00
    0.10194E+07        -0.97608E+08         0.00000E+00
    0.00000E+00         0.00000E+00        -0.69826E+08
 
   -0.69648E+08         0.10140E+07         0.00000E+00
    0.10140E+07        -0.97604E+08         0.00000E+00
    0.00000E+00         0.00000E+00        -0.69659E+08
 
   -0.69487E+08         0.10085E+07         0.00000E+00
    0.10085E+07        -0.97601E+08         0.00000E+00
    0.00000E+00         0.00000E+00        -0.69492E+08
 
   -0.69326E+08         0.10028E+07         0.00000E+00
    0.10028E+07        -0.97598E+08         0.00000E+00
    0.00000E+00         0.00000E+00        -0.69324E+08
 
   -0.69167E+08         0.99673E+06         0.00000E+00
    0.99673E+06        -0.97595E+08         0.00000E+00
    0.00000E+00         0.00000E+00        -0.69157E+08
 
   -0.69007E+08         0.99033E+06         0.00000E+00
    0.99033E+06        -0.97593E+08         0.00000E+00
    0.00000E+00         0.00000E+00        -0.68989E+08
 
   -0.68849E+08         0.98346E+06         0.00000E+00
    0.98346E+06        -0.97591E+08         0.00000E+00
    0.00000E+00         0.00000E+00        -0.68822E+08
 
   -0.68691E+08         0.97603E+06         0.00000E+00
    0.97603E+06        -0.97589E+08         0.00000E+00
    0.00000E+00         0.00000E+00        -0.68654E+08
 
   -0.68535E+08         0.96790E+06         0.00000E+00
    0.96790E+06        -0.97588E+08         0.00000E+00
    0.00000E+00         0.00000E+00        -0.68485E+08
 
   -0.68379E+08         0.95892E+06         0.00000E+00
    0.95892E+06        -0.97588E+08         0.00000E+00
    0.00000E+00         0.00000E+00        -0.68317E+08
 
   -0.68225E+08         0.94891E+06         0.00000E+00
    0.94891E+06        -0.97589E+08         0.00000E+00
    0.00000E+00         0.00000E+00        -0.68148E+08
 
   -0.68072E+08         0.93765E+06         0.00000E+00
    0.93765E+06        -0.97591E+08         0.00000E+00
    0.00000E+00         0.00000E+00        -0.67979E+08
 
   -0.67921E+08         0.92488E+06         0.00000E+00
    0.92488E+06        -0.97595E+08         0.00000E+00
    0.00000E+00         0.00000E+00        -0.67810E+08
 
   -0.67771E+08         0.91030E+06         0.00000E+00
    0.91030E+06        -0.97600E+08         0.00000E+00
    0.00000E+00         0.00000E+00        -0.67641E+08
 
   -0.67624E+08         0.89357E+06         0.00000E+00
    0.89357E+06        -0.97607E+08         0.00000E+00
    0.00000E+00         0.00000E+00        -0.67472E+08
 
   -0.67479E+08         0.87432E+06         0.00000E+00
    0.87432E+06        -0.97616E+08         0.00000E+00
    0.00000E+00         0.00000E+00        -0.67302E+08
 
   -0.67336E+08         0.85213E+06         0.00000E+00
    0.85213E+06        -0.97628E+08         0.00000E+00
    0.00000E+00         0.00000E+00        -0.67133E+08
 
   -0.67196E+08         0.82656E+06         0.00000E+00
    0.82656E+06        -0.97642E+08         0.00000E+00
    0.00000E+00         0.00000E+00        -0.66964E+08
 
   -0.67058E+08         0.79711E+06         0.00000E+00
    0.79711E+06        -0.97660E+08         0.00000E+00
    0.00000E+00         0.00000E+00        -0.66795E+08
 
   -0.66923E+08         0.76332E+06         0.00000E+00
    0.76332E+06        -0.97680E+08         0.00000E+00
    0.00000E+00         0.00000E+00        -0.66627E+08
 
   -0.66791E+08         0.72467E+06         0.00000E+00
    0.72467E+06        -0.97702E+08         0.00000E+00
    0.00000E+00         0.00000E+00        -0.66458E+08
 
   -0.66661E+08         0.68069E+06         0.00000E+00
    0.68069E+06        -0.97727E+08         0.00000E+00
    0.00000E+00         0.00000E+00        -0.66289E+08
 
   -0.66533E+08         0.63093E+06         0.00000E+00
    0.63093E+06        -0.97753E+08         0.00000E+00
    0.00000E+00         0.00000E+00        -0.66119E+08
 
   -0.66407E+08         0.57504E+06         0.00000E+00
    0.57504E+06        -0.97777E+08         0.00000E+00
    0.00000E+00         0.00000E+00        -0.65945E+08
 
   -0.66283E+08         0.51288E+06         0.00000E+00
    0.51288E+06        -0.97798E+08         0.00000E+00
    0.00000E+00         0.00000E+00        -0.65767E+08
 
   -0.66161E+08         0.44460E+06         0.00000E+00
    0.44460E+06        -0.97813E+08         0.00000E+00
    0.00000E+00         0.00000E+00        -0.65580E+08
 
   -0.66042E+08         0.37094E+06         0.00000E+00
    0.37094E+06        -0.97816E+08         0.00000E+00
    0.00000E+00         0.00000E+00        -0.65379E+08
 
   -0.65930E+08         0.29372E+06         0.00000E+00
    0.29372E+06        -0.97803E+08         0.00000E+00
    0.00000E+00         0.00000E+00        -0.65155E+08
 
   -0.65829E+08         0.21662E+06         0.00000E+00
    0.21662E+06        -0.97770E+08         0.00000E+00
    0.00000E+00         0.00000E+00        -0.64902E+08
 
   -0.65747E+08         0.14474E+06         0.00000E+00
    0.14474E+06        -0.97716E+08         0.00000E+00
    0.00000E+00         0.00000E+00        -0.64611E+08
 
   -0.65690E+08         0.81764E+05         0.00000E+00
    0.81764E+05        -0.97646E+08         0.00000E+00
    0.00000E+00         0.00000E+00        -0.64282E+08
 
   -0.65661E+08         0.26369E+05         0.00000E+00
    0.26369E+05        -0.97564E+08         0.00000E+00
    0.00000E+00         0.00000E+00        -0.63920E+08
 
   -0.81922E+08         0.19980E+05         0.00000E+00
    0.19980E+05        -0.97612E+08         0.00000E+00
    0.00000E+00         0.00000E+00        -0.84502E+08
 
   -0.81922E+08         0.81590E+05         0.00000E+00
    0.81590E+05        -0.97471E+08         0.00000E+00
    0.00000E+00         0.00000E+00        -0.84104E+08
 
   -0.81870E+08         0.17022E+06         0.00000E+00
    0.17022E+06        -0.97346E+08         0.00000E+00
    0.00000E+00         0.00000E+00        -0.83742E+08
 
   -0.81774E+08         0.26357E+06         0.00000E+00
    0.26357E+06        -0.97274E+08         0.00000E+00
    0.00000E+00         0.00000E+00        -0.83381E+08
 
   -0.81648E+08         0.36356E+06         0.00000E+00
    0.36356E+06        -0.97250E+08         0.00000E+00
    0.00000E+00         0.00000E+00        -0.83019E+08
 
   -0.81500E+08         0.46300E+06         0.00000E+00
    0.46300E+06        -0.97267E+08         0.00000E+00
    0.00000E+00         0.00000E+00        -0.82658E+08
 
   -0.81341E+08         0.55700E+06         0.00000E+00
    0.55700E+06        -0.97314E+08         0.00000E+00
    0.00000E+00         0.00000E+00        -0.82297E+08
 
   -0.81177E+08         0.65246E+06         0.00000E+00
    0.65246E+06        -0.97374E+08         0.00000E+00
    0.00000E+00         0.00000E+00        -0.81976E+08
 
   -0.80998E+08         0.70033E+06         0.00000E+00
    0.70033E+06        -0.97419E+08         0.00000E+00
    0.00000E+00         0.00000E+00        -0.81725E+08
 
   -0.80827E+08         0.76018E+06         0.00000E+00
    0.76018E+06        -0.97419E+08         0.00000E+00
    0.00000E+00         0.00000E+00        -0.81530E+08
 
   -0.80663E+08         0.81681E+06         0.00000E+00
    0.81681E+06        -0.97414E+08         0.00000E+00
    0.00000E+00         0.00000E+00        -0.81341E+08
 
   -0.80498E+08         0.87195E+06         0.00000E+00
    0.87195E+06        -0.97415E+08         0.00000E+00
    0.00000E+00         0.00000E+00        -0.81154E+08
 
   -0.80333E+08         0.92165E+06         0.00000E+00
    0.92165E+06        -0.97424E+08         0.00000E+00
    0.00000E+00         0.00000E+00        -0.80965E+08
 
   -0.80167E+08         0.96589E+06         0.00000E+00
    0.96589E+06        -0.97437E+08         0.00000E+00
    0.00000E+00         0.00000E+00        -0.80774E+08
 
   -0.80001E+08         0.10056E+07         0.00000E+00
    0.10056E+07        -0.97453E+08         0.00000E+00
    0.00000E+00         0.00000E+00        -0.80578E+08
 
   -0.79833E+08         0.10414E+07         0.00000E+00
    0.10414E+07        -0.97469E+08         0.00000E+00
    0.00000E+00         0.00000E+00        -0.80378E+08
 
   -0.79661E+08         0.10738E+07         0.00000E+00
    0.10738E+07        -0.97485E+08         0.00000E+00
    0.00000E+00         0.00000E+00        -0.80171E+08
 
   -0.79487E+08         0.11029E+07         0.00000E+00
    0.11029E+07        -0.97500E+08         0.00000E+00
    0.00000E+00         0.00000E+00        -0.79960E+08
 
   -0.79308E+08         0.11286E+07         0.00000E+00
    0.11286E+07        -0.97515E+08         0.00000E+00
    0.00000E+00         0.00000E+00        -0.79742E+08
 
   -0.79126E+08         0.11508E+07         0.00000E+00
    0.11508E+07        -0.97529E+08         0.00000E+00
    0.00000E+00         0.00000E+00        -0.79519E+08
 
   -0.78940E+08         0.11695E+07         0.00000E+00
    0.11695E+07        -0.97544E+08         0.00000E+00
    0.00000E+00         0.00000E+00        -0.79291E+08
 
   -0.78750E+08         0.11847E+07         0.00000E+00
    0.11847E+07        -0.97560E+08         0.00000E+00
    0.00000E+00         0.00000E+00        -0.79058E+08
 
   -0.78556E+08         0.11968E+07         0.00000E+00
    0.11968E+07        -0.97579E+08         0.00000E+00
    0.00000E+00         0.00000E+00        -0.78820E+08
 
   -0.78359E+08         0.12071E+07         0.00000E+00
    0.12071E+07        -0.97602E+08         0.00000E+00
    0.00000E+00         0.00000E+00        -0.78578E+08
 
   -0.78159E+08         0.12181E+07         0.00000E+00
    0.12181E+07        -0.97625E+08         0.00000E+00
    0.00000E+00         0.00000E+00        -0.78335E+08
 
   -0.77955E+08         0.12176E+07         0.00000E+00
    0.12176E+07        -0.97626E+08         0.00000E+00
    0.00000E+00         0.00000E+00        -0.78119E+08
 
   -0.77748E+08         0.12152E+07         0.00000E+00
    0.12152E+07        -0.97614E+08         0.00000E+00
    0.00000E+00         0.00000E+00        -0.77916E+08
 
   -0.77541E+08         0.12133E+07         0.00000E+00
    0.12133E+07        -0.97605E+08         0.00000E+00
    0.00000E+00         0.00000E+00        -0.77711E+08
 
   -0.77334E+08         0.12129E+07         0.00000E+00
    0.12129E+07        -0.97598E+08         0.00000E+00
    0.00000E+00         0.00000E+00        -0.77504E+08
 
   -0.77127E+08         0.12133E+07         0.00000E+00
    0.12133E+07        -0.97593E+08         0.00000E+00
    0.00000E+00         0.00000E+00        -0.77295E+08
 
   -0.76919E+08         0.12142E+07         0.00000E+00
    0.12142E+07        -0.97591E+08         0.00000E+00
    0.00000E+00         0.00000E+00        -0.77083E+08
 
   -0.76712E+08         0.12151E+07         0.00000E+00
    0.12151E+07        -0.97590E+08         0.00000E+00
    0.00000E+00         0.00000E+00        -0.76869E+08
 
   -0.76505E+08         0.12158E+07         0.00000E+00
    0.12158E+07        -0.97591E+08         0.00000E+00
    0.00000E+00         0.00000E+00        -0.76653E+08
 
   -0.76299E+08         0.12158E+07         0.00000E+00
    0.12158E+07        -0.97593E+08         0.00000E+00
    0.00000E+00         0.00000E+00        -0.76435E+08
 
   -0.76093E+08         0.12151E+07         0.00000E+00
    0.12151E+07        -0.97597E+08         0.00000E+00
    0.00000E+00         0.00000E+00        -0.76215E+08
 
   -0.75887E+08         0.12133E+07         0.00000E+00
    0.12133E+07        -0.97603E+08         0.00000E+00
    0.00000E+00         0.00000E+00        -0.75994E+08
 
   -0.75681E+08         0.12106E+07         0.00000E+00
    0.12106E+07        -0.97611E+08         0.00000E+00
    0.00000E+00         0.00000E+00        -0.75771E+08
 
   -0.75477E+08         0.12073E+07         0.00000E+00
    0.12073E+07        -0.97621E+08         0.00000E+00
    0.00000E+00         0.00000E+00        -0.75546E+08
 
   -0.75273E+08         0.12038E+07         0.00000E+00
    0.12038E+07        -0.97633E+08         0.00000E+00
    0.00000E+00         0.00000E+00        -0.75320E+08
 
   -0.75069E+08         0.11977E+07         0.00000E+00
    0.11977E+07        -0.97639E+08         0.00000E+00
    0.00000E+00         0.00000E+00        -0.75106E+08
 
   -0.74866E+08         0.11860E+07         0.00000E+00
    0.11860E+07        -0.97630E+08         0.00000E+00
    0.00000E+00         0.00000E+00        -0.74910E+08
 
   -0.74664E+08         0.11763E+07         0.00000E+00
    0.11763E+07        -0.97624E+08         0.00000E+00
    0.00000E+00         0.00000E+00        -0.74714E+08
 
   -0.74464E+08         0.11675E+07         0.00000E+00
    0.11675E+07        -0.97619E+08         0.00000E+00
    0.00000E+00         0.00000E+00        -0.74516E+08
 
   -0.74266E+08         0.11594E+07         0.00000E+00
    0.11594E+07        -0.97617E+08         0.00000E+00
    0.00000E+00         0.00000E+00        -0.74319E+08
 
   -0.74070E+08         0.11514E+07         0.00000E+00
    0.11514E+07        -0.97618E+08         0.00000E+00
    0.00000E+00         0.00000E+00        -0.74121E+08
 
   -0.73876E+08         0.11435E+07         0.00000E+00
    0.11435E+07        -0.97620E+08         0.00000E+00
    0.00000E+00         0.00000E+00        -0.73922E+08
 
   -0.73684E+08         0.11357E+07         0.00000E+00
    0.11357E+07        -0.97624E+08         0.00000E+00
    0.00000E+00         0.00000E+00        -0.73723E+08
 
   -0.73493E+08         0.11279E+07         0.00000E+00
    0.11279E+07        -0.97631E+08         0.00000E+00
    0.00000E+00         0.00000E+00        -0.73523E+08
 
   -0.73304E+08         0.11200E+07         0.00000E+00
    0.11200E+07        -0.97635E+08         0.00000E+00
    0.00000E+00         0.00000E+00        -0.73328E+08
 
   -0.73116E+08         0.11096E+07         0.00000E+00
    0.11096E+07        -0.97629E+08         0.00000E+00
    0.00000E+00         0.00000E+00        -0.73145E+08
 
   -0.72929E+08         0.11000E+07         0.00000E+00
    0.11000E+07        -0.97624E+08         0.00000E+00
    0.00000E+00         0.00000E+00        -0.72964E+08
 
   -0.72744E+08         0.10913E+07         0.00000E+00
    0.10913E+07        -0.97621E+08         0.00000E+00
    0.00000E+00         0.00000E+00        -0.72783E+08
 
   -0.72561E+08         0.10830E+07         0.00000E+00
    0.10830E+07        -0.97620E+08         0.00000E+00
    0.00000E+00         0.00000E+00        -0.72601E+08
 
   -0.72380E+08         0.10752E+07         0.00000E+00
    0.10752E+07        -0.97619E+08         0.00000E+00
    0.00000E+00         0.00000E+00        -0.72420E+08
 
   -0.72200E+08         0.10677E+07         0.00000E+00
    0.10677E+07        -0.97621E+08         0.00000E+00
    0.00000E+00         0.00000E+00        -0.72238E+08
 
   -0.72022E+08         0.10606E+07         0.00000E+00
    0.10606E+07        -0.97623E+08         0.00000E+00
    0.00000E+00         0.00000E+00        -0.72057E+08
 
   -0.71845E+08         0.10539E+07         0.00000E+00
    0.10539E+07        -0.97626E+08         0.00000E+00
    0.00000E+00         0.00000E+00        -0.71876E+08
 
   -0.71669E+08         0.10465E+07         0.00000E+00
    0.10465E+07        -0.97624E+08         0.00000E+00
    0.00000E+00         0.00000E+00        -0.71702E+08
 
   -0.71494E+08         0.10394E+07         0.00000E+00
    0.10394E+07        -0.97621E+08         0.00000E+00
    0.00000E+00         0.00000E+00        -0.71530E+08
 
   -0.71321E+08         0.10328E+07         0.00000E+00
    0.10328E+07        -0.97618E+08         0.00000E+00
    0.00000E+00         0.00000E+00        -0.71358E+08
 
   -0.71148E+08         0.10267E+07         0.00000E+00
    0.10267E+07        -0.97616E+08         0.00000E+00
    0.00000E+00         0.00000E+00        -0.71186E+08
 
   -0.70976E+08         0.10211E+07         0.00000E+00
    0.10211E+07        -0.97615E+08         0.00000E+00
    0.00000E+00         0.00000E+00        -0.71015E+08
 
   -0.70806E+08         0.10157E+07         0.00000E+00
    0.10157E+07        -0.97615E+08         0.00000E+00
    0.00000E+00         0.00000E+00        -0.70843E+08
 
   -0.70636E+08         0.10107E+07         0.00000E+00
    0.10107E+07        -0.97614E+08         0.00000E+00
    0.00000E+00         0.00000E+00        -0.70671E+08
 
   -0.70467E+08         0.10058E+07         0.00000E+00
    0.10058E+07        -0.97614E+08         0.00000E+00
    0.00000E+00         0.00000E+00        -0.70500E+08
 
   -0.70299E+08         0.10011E+07         0.00000E+00
    0.10011E+07        -0.97614E+08         0.00000E+00
    0.00000E+00         0.00000E+00        -0.70328E+08
 
   -0.70132E+08         0.99629E+06         0.00000E+00
    0.99629E+06        -0.97614E+08         0.00000E+00
    0.00000E+00         0.00000E+00        -0.70157E+08
 
   -0.69969E+08         0.99131E+06         0.00000E+00
    0.99131E+06        -0.97611E+08         0.00000E+00
    0.00000E+00         0.00000E+00        -0.69990E+08
 
   -0.69807E+08         0.98621E+06         0.00000E+00
    0.98621E+06        -0.97607E+08         0.00000E+00
    0.00000E+00         0.00000E+00        -0.69822E+08
 
   -0.69646E+08         0.98101E+06         0.00000E+00
    0.98101E+06        -0.97603E+08         0.00000E+00
    0.00000E+00         0.00000E+00        -0.69655E+08
 
   -0.69485E+08         0.97564E+06         0.00000E+00
    0.97564E+06        -0.97600E+08         0.00000E+00
    0.00000E+00         0.00000E+00        -0.69488E+08
 
   -0.69324E+08         0.97006E+06         0.00000E+00
    0.97006E+06        -0.97596E+08         0.00000E+00
    0.00000E+00         0.00000E+00        -0.69320E+08
 
   -0.69165E+08         0.96419E+06         0.00000E+00
    0.96419E+06        -0.97594E+08         0.00000E+00
    0.00000E+00         0.00000E+00        -0.69153E+08
 
   -0.69006E+08         0.95796E+06         0.00000E+00
    0.95796E+06        -0.97591E+08         0.00000E+00
    0.00000E+00         0.00000E+00        -0.68985E+08
 
   -0.68848E+08         0.95130E+06         0.00000E+00
    0.95130E+06        -0.97589E+08         0.00000E+00
    0.00000E+00         0.00000E+00        -0.68817E+08
 
   -0.68690E+08         0.94409E+06         0.00000E+00
    0.94409E+06        -0.97588E+08         0.00000E+00
    0.00000E+00         0.00000E+00        -0.68649E+08
 
   -0.68534E+08         0.93621E+06         0.00000E+00
    0.93621E+06        -0.97587E+08         0.00000E+00
    0.00000E+00         0.00000E+00        -0.68480E+08
 
   -0.68379E+08         0.92752E+06         0.00000E+00
    0.92752E+06        -0.97586E+08         0.00000E+00
    0.00000E+00         0.00000E+00        -0.68311E+08
 
   -0.68225E+08         0.91782E+06         0.00000E+00
    0.91782E+06        -0.97587E+08         0.00000E+00
    0.00000E+00         0.00000E+00        -0.68142E+08
 
   -0.68072E+08         0.90691E+06         0.00000E+00
    0.90691E+06        -0.97589E+08         0.00000E+00
    0.00000E+00         0.00000E+00        -0.67973E+08
 
   -0.67921E+08         0.89454E+06         0.00000E+00
    0.89454E+06        -0.97592E+08         0.00000E+00
    0.00000E+00         0.00000E+00        -0.67803E+08
 
   -0.67772E+08         0.88040E+06         0.00000E+00
    0.88040E+06        -0.97596E+08         0.00000E+00
    0.00000E+00         0.00000E+00        -0.67633E+08
 
   -0.67625E+08         0.86415E+06         0.00000E+00
    0.86415E+06        -0.97603E+08         0.00000E+00
    0.00000E+00         0.00000E+00        -0.67463E+08
 
   -0.67480E+08         0.84542E+06         0.00000E+00
    0.84542E+06        -0.97612E+08         0.00000E+00
    0.00000E+00         0.00000E+00        -0.67293E+08
 
   -0.67338E+08         0.82379E+06         0.00000E+00
    0.82379E+06        -0.97623E+08         0.00000E+00
    0.00000E+00         0.00000E+00        -0.67123E+08
 
   -0.67198E+08         0.79879E+06         0.00000E+00
    0.79879E+06        -0.97637E+08         0.00000E+00
    0.00000E+00         0.00000E+00        -0.66953E+08
 
   -0.67061E+08         0.76993E+06         0.00000E+00
    0.76993E+06        -0.97653E+08         0.00000E+00
    0.00000E+00         0.00000E+00        -0.66783E+08
 
   -0.66927E+08         0.73672E+06         0.00000E+00
    0.73672E+06        -0.97672E+08         0.00000E+00
    0.00000E+00         0.00000E+00        -0.66613E+08
 
   -0.66795E+08         0.69864E+06         0.00000E+00
    0.69864E+06        -0.97694E+08         0.00000E+00
    0.00000E+00         0.00000E+00        -0.66443E+08
 
   -0.66666E+08         0.65520E+06         0.00000E+00
    0.65520E+06        -0.97718E+08         0.00000E+00
    0.00000E+00         0.00000E+00        -0.66272E+08
 
   -0.66539E+08         0.60593E+06         0.00000E+00
    0.60593E+06        -0.97742E+08         0.00000E+00
    0.00000E+00         0.00000E+00        -0.66099E+08
 
   -0.66415E+08         0.55049E+06         0.00000E+00
    0.55049E+06        -0.97765E+08         0.00000E+00
    0.00000E+00         0.00000E+00        -0.65924E+08
 
   -0.66293E+08         0.48876E+06         0.00000E+00
    0.48876E+06        -0.97786E+08         0.00000E+00
    0.00000E+00         0.00000E+00        -0.65743E+08
 
   -0.66173E+08         0.42103E+06         0.00000E+00
    0.42103E+06        -0.97799E+08         0.00000E+00
    0.00000E+00         0.00000E+00        -0.65553E+08
 
   -0.66057E+08         0.34832E+06         0.00000E+00
    0.34832E+06        -0.97802E+08         0.00000E+00
    0.00000E+00         0.00000E+00        -0.65348E+08
 
   -0.65948E+08         0.27297E+06         0.00000E+00
    0.27297E+06        -0.97788E+08         0.00000E+00
    0.00000E+00         0.00000E+00        -0.65122E+08
 
   -0.65851E+08         0.19911E+06         0.00000E+00
    0.19911E+06        -0.97756E+08         0.00000E+00
    0.00000E+00         0.00000E+00        -0.64866E+08
 
   -0.65773E+08         0.13175E+06         0.00000E+00
    0.13175E+06        -0.97704E+08         0.00000E+00
    0.00000E+00         0.00000E+00        -0.64574E+08
 
   -0.65719E+08         0.73933E+05         0.00000E+00
    0.73933E+05        -0.97636E+08         0.00000E+00
    0.00000E+00         0.00000E+00        -0.64246E+08
 
   -0.65691E+08         0.23777E+05         0.00000E+00
    0.23777E+05        -0.97556E+08         0.00000E+00
    0.00000E+00         0.00000E+00        -0.63885E+08
 
   -0.81853E+08         0.17678E+05         0.00000E+00
    0.17678E+05        -0.97614E+08         0.00000E+00
    0.00000E+00         0.00000E+00        -0.84546E+08
 
   -0.81831E+08         0.76647E+05         0.00000E+00
    0.76647E+05        -0.97495E+08         0.00000E+00
    0.00000E+00         0.00000E+00        -0.84104E+08
 
   -0.81782E+08         0.15489E+06         0.00000E+00
    0.15489E+06        -0.97360E+08         0.00000E+00
    0.00000E+00         0.00000E+00        -0.83742E+08
 
   -0.81692E+08         0.24210E+06         0.00000E+00
    0.24210E+06        -0.97294E+08         0.00000E+00
    0.00000E+00         0.00000E+00        -0.83381E+08
 
   -0.81575E+08         0.33664E+06         0.00000E+00
    0.33664E+06        -0.97269E+08         0.00000E+00
    0.00000E+00         0.00000E+00        -0.83019E+08
 
   -0.81434E+08         0.43184E+06         0.00000E+00
    0.43184E+06        -0.97287E+08         0.00000E+00
    0.00000E+00         0.00000E+00        -0.82658E+08
 
   -0.81281E+08         0.52757E+06         0.00000E+00
    0.52757E+06        -0.97331E+08         0.00000E+00
    0.00000E+00         0.00000E+00        -0.82297E+08
 
   -0.81129E+08         0.61726E+06         0.00000E+00
    0.61726E+06        -0.97387E+08         0.00000E+00
    0.00000E+00         0.00000E+00        -0.81990E+08
 
   -0.80960E+08         0.66632E+06         0.00000E+00
    0.66632E+06        -0.97433E+08         0.00000E+00
    0.00000E+00         0.00000E+00        -0.81749E+08
 
   -0.80799E+08         0.72749E+06         0.00000E+00
    0.72749E+06        -0.97430E+08         0.00000E+00
    0.00000E+00         0.00000E+00        -0.81548E+08
 
   -0.80638E+08         0.78431E+06         0.00000E+00
    0.78431E+06        -0.97425E+08         0.00000E+00
    0.00000E+00         0.00000E+00        -0.81354E+08
 
   -0.80476E+08         0.83903E+06         0.00000E+00
    0.83903E+06        -0.97426E+08         0.00000E+00
    0.00000E+00         0.00000E+00        -0.81162E+08
 
   -0.80311E+08         0.88863E+06         0.00000E+00
    0.88863E+06        -0.97433E+08         0.00000E+00
    0.00000E+00         0.00000E+00        -0.80970E+08
 
   -0.80146E+08         0.93273E+06         0.00000E+00
    0.93273E+06        -0.97446E+08         0.00000E+00
    0.00000E+00         0.00000E+00        -0.80775E+08
 
   -0.79980E+08         0.97211E+06         0.00000E+00
    0.97211E+06        -0.97460E+08         0.00000E+00
    0.00000E+00         0.00000E+00        -0.80576E+08
 
   -0.79811E+08         0.10075E+07         0.00000E+00
    0.10075E+07        -0.97476E+08         0.00000E+00
    0.00000E+00         0.00000E+00        -0.80373E+08
 
   -0.79640E+08         0.10392E+07         0.00000E+00
    0.10392E+07        -0.97491E+08         0.00000E+00
    0.00000E+00         0.00000E+00        -0.80165E+08
 
   -0.79465E+08         0.10676E+07         0.00000E+00
    0.10676E+07        -0.97505E+08         0.00000E+00
    0.00000E+00         0.00000E+00        -0.79952E+08
 
   -0.79286E+08         0.10925E+07         0.00000E+00
    0.10925E+07        -0.97519E+08         0.00000E+00
    0.00000E+00         0.00000E+00        -0.79733E+08
 
   -0.79104E+08         0.11140E+07         0.00000E+00
    0.11140E+07        -0.97533E+08         0.00000E+00
    0.00000E+00         0.00000E+00        -0.79509E+08
 
   -0.78918E+08         0.11319E+07         0.00000E+00
    0.11319E+07        -0.97547E+08         0.00000E+00
    0.00000E+00         0.00000E+00        -0.79280E+08
 
   -0.78729E+08         0.11463E+07         0.00000E+00
    0.11463E+07        -0.97563E+08         0.00000E+00
    0.00000E+00         0.00000E+00        -0.79047E+08
 
   -0.78536E+08         0.11578E+07         0.00000E+00
    0.11578E+07        -0.97581E+08         0.00000E+00
    0.00000E+00         0.00000E+00        -0.78808E+08
 
   -0.78340E+08         0.11675E+07         0.00000E+00
    0.11675E+07        -0.97604E+08         0.00000E+00
    0.00000E+00         0.00000E+00        -0.78566E+08
 
   -0.78141E+08         0.11778E+07         0.00000E+00
    0.11778E+07        -0.97626E+08         0.00000E+00
    0.00000E+00         0.00000E+00        -0.78325E+08
 
   -0.77937E+08         0.11763E+07         0.00000E+00
    0.11763E+07        -0.97626E+08         0.00000E+00
    0.00000E+00         0.00000E+00        -0.78110E+08
 
   -0.77730E+08         0.11739E+07         0.00000E+00
    0.11739E+07        -0.97614E+08         0.00000E+00
    0.00000E+00         0.00000E+00        -0.77907E+08
 
   -0.77524E+08         0.11719E+07         0.00000E+00
    0.11719E+07        -0.97605E+08         0.00000E+00
    0.00000E+00         0.00000E+00        -0.77702E+08
 
   -0.77317E+08         0.11714E+07         0.00000E+00
    0.11714E+07        -0.97598E+08         0.00000E+00
    0.00000E+00         0.00000E+00        -0.77495E+08
 
   -0.77110E+08         0.11719E+07         0.00000E+00
    0.11719E+07        -0.97593E+08         0.00000E+00
    0.00000E+00         0.00000E+00        -0.77285E+08
 
   -0.76903E+08         0.11728E+07         0.00000E+00
    0.11728E+07        -0.97591E+08         0.00000E+00
    0.00000E+00         0.00000E+00        -0.77074E+08
 
   -0.76696E+08         0.11738E+07         0.00000E+00
    0.11738E+07        -0.97590E+08         0.00000E+00
    0.00000E+00         0.00000E+00        -0.76860E+08
 
   -0.76490E+08         0.11745E+07         0.00000E+00
    0.11745E+07        -0.97591E+08         0.00000E+00
    0.00000E+00         0.00000E+00        -0.76644E+08
 
   -0.76284E+08         0.11746E+07         0.00000E+00
    0.11746E+07        -0.97593E+08         0.00000E+00
    0.00000E+00         0.00000E+00        -0.76427E+08
 
   -0.76079E+08         0.11739E+07         0.00000E+00
    0.11739E+07        -0.97597E+08         0.00000E+00
    0.00000E+00         0.00000E+00        -0.76207E+08
 
   -0.75874E+08         0.11722E+07         0.00000E+00
    0.11722E+07        -0.97602E+08         0.00000E+00
    0.00000E+00         0.00000E+00        -0.75986E+08
 
   -0.75669E+08         0.11696E+07         0.00000E+00
    0.11696E+07        -0.97610E+08         0.00000E+00
    0.00000E+00         0.00000E+00        -0.75763E+08
 
   -0.75465E+08         0.11665E+07         0.00000E+00
    0.11665E+07        -0.97620E+08         0.00000E+00
    0.00000E+00         0.00000E+00        -0.75539E+08
 
   -0.75262E+08         0.11633E+07         0.00000E+00
    0.11633E+07        -0.97633E+08         0.00000E+00
    0.00000E+00         0.00000E+00        -0.75313E+08
 
   -0.75059E+08         0.11567E+07         0.00000E+00
    0.11567E+07        -0.97637E+08         0.00000E+00
    0.00000E+00         0.00000E+00        -0.75100E+08
 
   -0.74856E+08         0.11457E+07         0.00000E+00
    0.11457E+07        -0.97628E+08         0.00000E+00
    0.00000E+00         0.00000E+00        -0.74905E+08
 
   -0.74655E+08         0.11362E+07         0.00000E+00
    0.11362E+07        -0.97622E+08         0.00000E+00
    0.00000E+00         0.00000E+00        -0.74709E+08
 
   -0.74456E+08         0.11278E+07         0.00000E+00
    0.11278E+07        -0.97618E+08         0.00000E+00
    0.00000E+00         0.00000E+00        -0.74512E+08
 
   -0.74258E+08         0.11200E+07         0.00000E+00
    0.11200E+07        -0.97616E+08         0.00000E+00
    0.00000E+00         0.00000E+00        -0.74314E+08
 
   -0.74063E+08         0.11124E+07         0.00000E+00
    0.11124E+07        -0.97616E+08         0.00000E+00
    0.00000E+00         0.00000E+00        -0.74116E+08
 
   -0.73869E+08         0.11049E+07         0.00000E+00
    0.11049E+07        -0.97619E+08         0.00000E+00
    0.00000E+00         0.00000E+00        -0.73917E+08
 
   -0.73677E+08         0.10974E+07         0.00000E+00
    0.10974E+07        -0.97623E+08         0.00000E+00
    0.00000E+00         0.00000E+00        -0.73718E+08
 
   -0.73487E+08         0.10899E+07         0.00000E+00
    0.10899E+07        -0.97630E+08         0.00000E+00
    0.00000E+00         0.00000E+00        -0.73519E+08
 
   -0.73298E+08         0.10823E+07         0.00000E+00
    0.10823E+07        -0.97633E+08         0.00000E+00
    0.00000E+00         0.00000E+00        -0.73325E+08
 
   -0.73110E+08         0.10721E+07         0.00000E+00
    0.10721E+07        -0.97627E+08         0.00000E+00
    0.00000E+00         0.00000E+00        -0.73142E+08
 
   -0.72923E+08         0.10629E+07         0.00000E+00
    0.10629E+07        -0.97622E+08         0.00000E+00
    0.00000E+00         0.00000E+00        -0.72961E+08
 
   -0.72739E+08         0.10545E+07         0.00000E+00
    0.10545E+07        -0.97619E+08         0.00000E+00
    0.00000E+00         0.00000E+00        -0.72780E+08
 
   -0.72556E+08         0.10466E+07         0.00000E+00
    0.10466E+07        -0.97618E+08         0.00000E+00
    0.00000E+00         0.00000E+00        -0.72598E+08
 
   -0.72375E+08         0.10391E+07         0.00000E+00
    0.10391E+07        -0.97618E+08         0.00000E+00
    0.00000E+00         0.00000E+00        -0.72417E+08
 
   -0.72196E+08         0.10320E+07         0.00000E+00
    0.10320E+07        -0.97619E+08         0.00000E+00
    0.00000E+00         0.00000E+00        -0.72235E+08
 
   -0.72018E+08         0.10251E+07         0.00000E+00
    0.10251E+07        -0.97622E+08         0.00000E+00
    0.00000E+00         0.00000E+00        -0.72054E+08
 
   -0.71841E+08         0.10186E+07         0.00000E+00
    0.10186E+07        -0.97625E+08         0.00000E+00
    0.00000E+00         0.00000E+00        -0.71873E+08
 
   -0.71665E+08         0.10114E+07         0.00000E+00
    0.10114E+07        -0.97623E+08         0.00000E+00
    0.00000E+00         0.00000E+00        -0.71699E+08
 
   -0.71490E+08         0.10046E+07         0.00000E+00
    0.10046E+07        -0.97619E+08         0.00000E+00
    0.00000E+00         0.00000E+00        -0.71527E+08
 
   -0.71317E+08         0.99821E+06         0.00000E+00
    0.99821E+06        -0.97617E+08         0.00000E+00
    0.00000E+00         0.00000E+00        -0.71355E+08
 
   -0.71144E+08         0.99232E+06         0.00000E+00
    0.99232E+06        -0.97615E+08         0.00000E+00
    0.00000E+00         0.00000E+00        -0.71183E+08
 
   -0.70973E+08         0.98684E+06         0.00000E+00
    0.98684E+06        -0.97614E+08         0.00000E+00
    0.00000E+00         0.00000E+00        -0.71012E+08
 
   -0.70802E+08         0.98171E+06         0.00000E+00
    0.98171E+06        -0.97614E+08         0.00000E+00
    0.00000E+00         0.00000E+00        -0.70840E+08
 
   -0.70632E+08         0.97682E+06         0.00000E+00
    0.97682E+06        -0.97613E+08         0.00000E+00
    0.00000E+00         0.00000E+00        -0.70668E+08
 
   -0.70464E+08         0.97212E+06         0.00000E+00
    0.97212E+06        -0.97613E+08         0.00000E+00
    0.00000E+00         0.00000E+00        -0.70497E+08
 
   -0.70296E+08         0.96751E+06         0.00000E+00
    0.96751E+06        -0.97614E+08         0.00000E+00
    0.00000E+00         0.00000E+00        -0.70325E+08
 
   -0.70129E+08         0.96288E+06         0.00000E+00
    0.96288E+06        -0.97613E+08         0.00000E+00
    0.00000E+00         0.00000E+00        -0.70154E+08
 
   -0.69966E+08         0.95804E+06         0.00000E+00
    0.95804E+06        -0.97609E+08         0.00000E+00
    0.00000E+00         0.00000E+00        -0.69986E+08
 
   -0.69805E+08         0.95309E+06         0.00000E+00
    0.95309E+06        -0.97605E+08         0.00000E+00
    0.00000E+00         0.00000E+00        -0.69819E+08
 
   -0.69643E+08         0.94803E+06         0.00000E+00
    0.94803E+06        -0.97602E+08         0.00000E+00
    0.00000E+00         0.00000E+00        -0.69651E+08
 
   -0.69483E+08         0.94282E+06         0.00000E+00
    0.94282E+06        -0.97598E+08         0.00000E+00
    0.00000E+00         0.00000E+00        -0.69484E+08
 
   -0.69323E+08         0.93739E+06         0.00000E+00
    0.93739E+06        -0.97595E+08         0.00000E+00
    0.00000E+00         0.00000E+00        -0.69316E+08
 
   -0.69163E+08         0.93170E+06         0.00000E+00
    0.93170E+06        -0.97592E+08         0.00000E+00
    0.00000E+00         0.00000E+00        -0.69148E+08
 
   -0.69005E+08         0.92566E+06         0.00000E+00
    0.92566E+06        -0.97590E+08         0.00000E+00
    0.00000E+00         0.00000E+00        -0.68980E+08
 
   -0.68847E+08         0.91919E+06         0.00000E+00
    0.91919E+06        -0.97588E+08         0.00000E+00
    0.00000E+00         0.00000E+00        -0.68812E+08
 
   -0.68690E+08         0.91221E+06         0.00000E+00
    0.91221E+06        -0.97586E+08         0.00000E+00
    0.00000E+00         0.00000E+00        -0.68643E+08
 
   -0.68533E+08         0.90458E+06         0.00000E+00
    0.90458E+06        -0.97585E+08         0.00000E+00
    0.00000E+00         0.00000E+00        -0.68475E+08
 
   -0.68378E+08         0.89617E+06         0.00000E+00
    0.89617E+06        -0.97584E+08         0.00000E+00
    0.00000E+00         0.00000E+00        -0.68305E+08
 
   -0.68225E+08         0.88679E+06         0.00000E+00
    0.88679E+06        -0.97585E+08         0.00000E+00
    0.00000E+00         0.00000E+00        -0.68136E+08
 
   -0.68072E+08         0.87624E+06         0.00000E+00
    0.87624E+06        -0.97586E+08         0.00000E+00
    0.00000E+00         0.00000E+00        -0.67966E+08
 
   -0.67922E+08         0.86426E+06         0.00000E+00
    0.86426E+06        -0.97589E+08         0.00000E+00
    0.00000E+00         0.00000E+00        -0.67796E+08
 
   -0.67773E+08         0.85057E+06         0.00000E+00
    0.85057E+06        -0.97593E+08         0.00000E+00
    0.00000E+00         0.00000E+00        -0.67625E+08
 
   -0.67626E+08         0.83481E+06         0.00000E+00
    0.83481E+06        -0.97599E+08         0.00000E+00
    0.00000E+00         0.00000E+00        -0.67455E+08
 
   -0.67482E+08         0.81661E+06         0.00000E+00
    0.81661E+06        -0.97608E+08         0.00000E+00
    0.00000E+00         0.00000E+00        -0.67284E+08
 
   -0.67340E+08         0.79553E+06         0.00000E+00
    0.79553E+06        -0.97618E+08         0.00000E+00
    0.00000E+00         0.00000E+00        -0.67113E+08
 
   -0.67201E+08         0.77112E+06         0.00000E+00
    0.77112E+06        -0.97631E+08         0.00000E+00
    0.00000E+00         0.00000E+00        -0.66942E+08
 
   -0.67064E+08         0.74287E+06         0.00000E+00
    0.74287E+06        -0.97647E+08         0.00000E+00
    0.00000E+00         0.00000E+00        -0.66771E+08
 
   -0.66930E+08         0.71027E+06         0.00000E+00
    0.71027E+06        -0.97665E+08         0.00000E+00
    0.00000E+00         0.00000E+00        -0.66599E+08
 
   -0.66800E+08         0.67279E+06         0.00000E+00
    0.67279E+06        -0.97686E+08         0.00000E+00
    0.00000E+00         0.00000E+00        -0.66428E+08
 
   -0.66672E+08         0.62992E+06         0.00000E+00
    0.62992E+06        -0.97708E+08         0.00000E+00
    0.00000E+00         0.00000E+00        -0.66255E+08
 
   -0.66546E+08         0.58120E+06         0.00000E+00
    0.58120E+06        -0.97731E+08         0.00000E+00
    0.00000E+00         0.00000E+00        -0.66080E+08
 
   -0.66423E+08         0.52629E+06         0.00000E+00
    0.52629E+06        -0.97754E+08         0.00000E+00
    0.00000E+00         0.00000E+00        -0.65902E+08
 
   -0.66303E+08         0.46510E+06         0.00000E+00
    0.46510E+06        -0.97773E+08         0.00000E+00
    0.00000E+00         0.00000E+00        -0.65718E+08
 
   -0.66186E+08         0.39804E+06         0.00000E+00
    0.39804E+06        -0.97785E+08         0.00000E+00
    0.00000E+00         0.00000E+00        -0.65526E+08
 
   -0.66073E+08         0.32643E+06         0.00000E+00
    0.32643E+06        -0.97787E+08         0.00000E+00
    0.00000E+00         0.00000E+00        -0.65318E+08
 
   -0.65967E+08         0.25308E+06         0.00000E+00
    0.25308E+06        -0.97775E+08         0.00000E+00
    0.00000E+00         0.00000E+00        -0.65089E+08
 
   -0.65875E+08         0.18244E+06         0.00000E+00
    0.18244E+06        -0.97744E+08         0.00000E+00
    0.00000E+00         0.00000E+00        -0.64831E+08
 
   -0.65800E+08         0.11941E+06         0.00000E+00
    0.11941E+06        -0.97694E+08         0.00000E+00
    0.00000E+00         0.00000E+00        -0.64539E+08
 
   -0.65749E+08         0.66489E+05         0.00000E+00
    0.66489E+05        -0.97628E+08         0.00000E+00
    0.00000E+00         0.00000E+00        -0.64211E+08
 
   -0.65722E+08         0.21308E+05         0.00000E+00
    0.21308E+05        -0.97549E+08         0.00000E+00
    0.00000E+00         0.00000E+00        -0.63850E+08
 
   -0.81779E+08         0.14005E+05         0.00000E+00
    0.14005E+05        -0.97615E+08         0.00000E+00
    0.00000E+00         0.00000E+00        -0.84589E+08
 
   -0.81739E+08         0.70038E+05         0.00000E+00
    0.70038E+05        -0.97518E+08         0.00000E+00
    0.00000E+00         0.00000E+00        -0.84104E+08
 
   -0.81695E+08         0.14015E+06         0.00000E+00
    0.14015E+06        -0.97373E+08         0.00000E+00
    0.00000E+00         0.00000E+00        -0.83742E+08
 
   -0.81612E+08         0.22242E+06         0.00000E+00
    0.22242E+06        -0.97313E+08         0.00000E+00
    0.00000E+00         0.00000E+00        -0.83381E+08
 
   -0.81501E+08         0.31135E+06         0.00000E+00
    0.31135E+06        -0.97287E+08         0.00000E+00
    0.00000E+00         0.00000E+00        -0.83019E+08
 
   -0.81369E+08         0.40180E+06         0.00000E+00
    0.40180E+06        -0.97306E+08         0.00000E+00
    0.00000E+00         0.00000E+00        -0.82658E+08
 
   -0.81225E+08         0.50051E+06         0.00000E+00
    0.50051E+06        -0.97344E+08         0.00000E+00
    0.00000E+00         0.00000E+00        -0.82303E+08
 
   -0.81080E+08         0.58308E+06         0.00000E+00
    0.58308E+06        -0.97404E+08         0.00000E+00
    0.00000E+00         0.00000E+00        -0.82005E+08
 
   -0.80924E+08         0.63554E+06         0.00000E+00
    0.63554E+06        -0.97446E+08         0.00000E+00
    0.00000E+00         0.00000E+00        -0.81773E+08
 
   -0.80771E+08         0.69566E+06         0.00000E+00
    0.69566E+06        -0.97441E+08         0.00000E+00
    0.00000E+00         0.00000E+00        -0.81567E+08
 
   -0.80614E+08         0.75244E+06         0.00000E+00
    0.75244E+06        -0.97437E+08         0.00000E+00
    0.00000E+00         0.00000E+00        -0.81367E+08
 
   -0.80454E+08         0.80648E+06         0.00000E+00
    0.80648E+06        -0.97436E+08         0.00000E+00
    0.00000E+00         0.00000E+00        -0.81171E+08
 
   -0.80291E+08         0.85575E+06         0.00000E+00
    0.85575E+06        -0.97443E+08         0.00000E+00
    0.00000E+00         0.00000E+00        -0.80975E+08
 
   -0.80127E+08         0.89957E+06         0.00000E+00
    0.89957E+06        -0.97454E+08         0.00000E+00
    0.00000E+00         0.00000E+00        -0.80776E+08
 
   -0.79960E+08         0.93857E+06         0.00000E+00
    0.93857E+06        -0.97468E+08         0.00000E+00
    0.00000E+00         0.00000E+00        -0.80575E+08
 
   -0.79791E+08         0.97342E+06         0.00000E+00
    0.97342E+06        -0.97482E+08         0.00000E+00
    0.00000E+00         0.00000E+00        -0.80369E+08
 
   -0.79619E+08         0.10046E+07         0.00000E+00
    0.10046E+07        -0.97497E+08         0.00000E+00
    0.00000E+00         0.00000E+00        -0.80159E+08
 
   -0.79444E+08         0.10322E+07         0.00000E+00
    0.10322E+07        -0.97511E+08         0.00000E+00
    0.00000E+00         0.00000E+00        -0.79944E+08
 
   -0.79265E+08         0.10565E+07         0.00000E+00
    0.10565E+07        -0.97524E+08         0.00000E+00
    0.00000E+00         0.00000E+00        -0.79724E+08
 
   -0.79083E+08         0.10772E+07         0.00000E+00
    0.10772E+07        -0.97537E+08         0.00000E+00
    0.00000E+00         0.00000E+00        -0.79499E+08
 
   -0.78898E+08         0.10944E+07         0.00000E+00
    0.10944E+07        -0.97550E+08         0.00000E+00
    0.00000E+00         0.00000E+00        -0.79269E+08
 
   -0.78709E+08         0.11082E+07         0.00000E+00
    0.11082E+07        -0.97565E+08         0.00000E+00
    0.00000E+00         0.00000E+00        -0.79035E+08
 
   -0.78516E+08         0.11189E+07         0.00000E+00
    0.11189E+07        -0.97583E+08         0.00000E+00
    0.00000E+00         0.00000E+00        -0.78797E+08
 
   -0.78321E+08         0.11281E+07         0.00000E+00
    0.11281E+07        -0.97606E+08         0.00000E+00
    0.00000E+00         0.00000E+00        -0.78554E+08
 
   -0.78122E+08         0.11375E+07         0.00000E+00
    0.11375E+07        -0.97627E+08         0.00000E+00
    0.00000E+00         0.00000E+00        -0.78314E+08
 
   -0.77918E+08         0.11353E+07         0.00000E+00
    0.11353E+07        -0.97625E+08         0.00000E+00
    0.00000E+00         0.00000E+00        -0.78101E+08
 
   -0.77713E+08         0.11326E+07         0.00000E+00
    0.11326E+07        -0.97613E+08         0.00000E+00
    0.00000E+00         0.00000E+00        -0.77898E+08
 
   -0.77507E+08         0.11307E+07         0.00000E+00
    0.11307E+07        -0.97604E+08         0.00000E+00
    0.00000E+00         0.00000E+00        -0.77693E+08
 
   -0.77300E+08         0.11301E+07         0.00000E+00
    0.11301E+07        -0.97598E+08         0.00000E+00
    0.00000E+00         0.00000E+00        -0.77486E+08
 
   -0.77094E+08         0.11305E+07         0.00000E+00
    0.11305E+07        -0.97593E+08         0.00000E+00
    0.00000E+00         0.00000E+00        -0.77276E+08
 
   -0.76887E+08         0.11315E+07         0.00000E+00
    0.11315E+07        -0.97591E+08         0.00000E+00
    0.00000E+00         0.00000E+00        -0.77065E+08
 
   -0.76681E+08         0.11325E+07         0.00000E+00
    0.11325E+07        -0.97590E+08         0.00000E+00
    0.00000E+00         0.00000E+00        -0.76851E+08
 
   -0.76476E+08         0.11333E+07         0.00000E+00
    0.11333E+07        -0.97591E+08         0.00000E+00
    0.00000E+00         0.00000E+00        -0.76636E+08
 
   -0.76270E+08         0.11336E+07         0.00000E+00
    0.11336E+07        -0.97593E+08         0.00000E+00
    0.00000E+00         0.00000E+00        -0.76418E+08
 
   -0.76066E+08         0.11330E+07         0.00000E+00
    0.11330E+07        -0.97596E+08         0.00000E+00
    0.00000E+00         0.00000E+00        -0.76199E+08
 
   -0.75861E+08         0.11314E+07         0.00000E+00
    0.11314E+07        -0.97602E+08         0.00000E+00
    0.00000E+00         0.00000E+00        -0.75978E+08
 
   -0.75657E+08         0.11288E+07         0.00000E+00
    0.11288E+07        -0.97609E+08         0.00000E+00
    0.00000E+00         0.00000E+00        -0.75755E+08
 
   -0.75454E+08         0.11258E+07         0.00000E+00
    0.11258E+07        -0.97619E+08         0.00000E+00
    0.00000E+00         0.00000E+00        -0.75531E+08
 
   -0.75252E+08         0.11230E+07         0.00000E+00
    0.11230E+07        -0.97632E+08         0.00000E+00
    0.00000E+00         0.00000E+00        -0.75306E+08
 
   -0.75049E+08         0.11158E+07         0.00000E+00
    0.11158E+07        -0.97634E+08         0.00000E+00
    0.00000E+00         0.00000E+00        -0.75096E+08
 
   -0.74846E+08         0.11054E+07         0.00000E+00
    0.11054E+07        -0.97626E+08         0.00000E+00
    0.00000E+00         0.00000E+00        -0.74900E+08
 
   -0.74646E+08         0.10962E+07         0.00000E+00
    0.10962E+07        -0.97620E+08         0.00000E+00
    0.00000E+00         0.00000E+00        -0.74704E+08
 
   -0.74447E+08         0.10882E+07         0.00000E+00
    0.10882E+07        -0.97616E+08         0.00000E+00
    0.00000E+00         0.00000E+00        -0.74507E+08
 
   -0.74250E+08         0.10807E+07         0.00000E+00
    0.10807E+07        -0.97614E+08         0.00000E+00
    0.00000E+00         0.00000E+00        -0.74310E+08
 
   -0.74055E+08         0.10735E+07         0.00000E+00
    0.10735E+07        -0.97615E+08         0.00000E+00
    0.00000E+00         0.00000E+00        -0.74112E+08
 
   -0.73862E+08         0.10664E+07         0.00000E+00
    0.10664E+07        -0.97617E+08         0.00000E+00
    0.00000E+00         0.00000E+00        -0.73913E+08
 
   -0.73670E+08         0.10592E+07         0.00000E+00
    0.10592E+07        -0.97621E+08         0.00000E+00
    0.00000E+00         0.00000E+00        -0.73714E+08
 
   -0.73480E+08         0.10520E+07         0.00000E+00
    0.10520E+07        -0.97628E+08         0.00000E+00
    0.00000E+00         0.00000E+00        -0.73515E+08
 
   -0.73291E+08         0.10446E+07         0.00000E+00
    0.10446E+07        -0.97632E+08         0.00000E+00
    0.00000E+00         0.00000E+00        -0.73321E+08
 
   -0.73104E+08         0.10347E+07         0.00000E+00
    0.10347E+07        -0.97626E+08         0.00000E+00
    0.00000E+00         0.00000E+00        -0.73139E+08
 
   -0.72918E+08         0.10259E+07         0.00000E+00
    0.10259E+07        -0.97621E+08         0.00000E+00
    0.00000E+00         0.00000E+00        -0.72958E+08
 
   -0.72734E+08         0.10178E+07         0.00000E+00
    0.10178E+07        -0.97618E+08         0.00000E+00
    0.00000E+00         0.00000E+00        -0.72777E+08
 
   -0.72551E+08         0.10103E+07         0.00000E+00
    0.10103E+07        -0.97616E+08         0.00000E+00
    0.00000E+00         0.00000E+00        -0.72595E+08
 
   -0.72370E+08         0.10031E+07         0.00000E+00
    0.10031E+07        -0.97616E+08         0.00000E+00
    0.00000E+00         0.00000E+00        -0.72414E+08
 
   -0.72191E+08         0.99622E+06         0.00000E+00
    0.99622E+06        -0.97618E+08         0.00000E+00
    0.00000E+00         0.00000E+00        -0.72232E+08
 
   -0.72013E+08         0.98963E+06         0.00000E+00
    0.98963E+06        -0.97620E+08         0.00000E+00
    0.00000E+00         0.00000E+00        -0.72051E+08
 
   -0.71836E+08         0.98336E+06         0.00000E+00
    0.98336E+06        -0.97623E+08         0.00000E+00
    0.00000E+00         0.00000E+00        -0.71870E+08
 
   -0.71661E+08         0.97637E+06         0.00000E+00
    0.97637E+06        -0.97621E+08         0.00000E+00
    0.00000E+00         0.00000E+00        -0.71696E+08
 
   -0.71486E+08         0.96976E+06         0.00000E+00
    0.96976E+06        -0.97618E+08         0.00000E+00
    0.00000E+00         0.00000E+00        -0.71524E+08
 
   -0.71313E+08         0.96361E+06         0.00000E+00
    0.96361E+06        -0.97616E+08         0.00000E+00
    0.00000E+00         0.00000E+00        -0.71352E+08
 
   -0.71140E+08         0.95793E+06         0.00000E+00
    0.95793E+06        -0.97614E+08         0.00000E+00
    0.00000E+00         0.00000E+00        -0.71181E+08
 
   -0.70969E+08         0.95266E+06         0.00000E+00
    0.95266E+06        -0.97613E+08         0.00000E+00
    0.00000E+00         0.00000E+00        -0.71009E+08
 
   -0.70799E+08         0.94771E+06         0.00000E+00
    0.94771E+06        -0.97613E+08         0.00000E+00
    0.00000E+00         0.00000E+00        -0.70837E+08
 
   -0.70629E+08         0.94300E+06         0.00000E+00
    0.94300E+06        -0.97613E+08         0.00000E+00
    0.00000E+00         0.00000E+00        -0.70665E+08
 
   -0.70461E+08         0.93846E+06         0.00000E+00
    0.93846E+06        -0.97613E+08         0.00000E+00
    0.00000E+00         0.00000E+00        -0.70493E+08
 
   -0.70293E+08         0.93400E+06         0.00000E+00
    0.93400E+06        -0.97613E+08         0.00000E+00
    0.00000E+00         0.00000E+00        -0.70322E+08
 
   -0.70127E+08         0.92952E+06         0.00000E+00
    0.92952E+06        -0.97612E+08         0.00000E+00
    0.00000E+00         0.00000E+00        -0.70151E+08
 
   -0.69964E+08         0.92481E+06         0.00000E+00
    0.92481E+06        -0.97608E+08         0.00000E+00
    0.00000E+00         0.00000E+00        -0.69983E+08
 
   -0.69802E+08         0.92001E+06         0.00000E+00
    0.92001E+06        -0.97604E+08         0.00000E+00
    0.00000E+00         0.00000E+00        -0.69815E+08
 
   -0.69641E+08         0.91511E+06         0.00000E+00
    0.91511E+06        -0.97601E+08         0.00000E+00
    0.00000E+00         0.00000E+00        -0.69648E+08
 
   -0.69481E+08         0.91005E+06         0.00000E+00
    0.91005E+06        -0.97597E+08         0.00000E+00
    0.00000E+00         0.00000E+00        -0.69480E+08
 
   -0.69321E+08         0.90478E+06         0.00000E+00
    0.90478E+06        -0.97594E+08         0.00000E+00
    0.00000E+00         0.00000E+00        -0.69312E+08
 
   -0.69162E+08         0.89925E+06         0.00000E+00
    0.89925E+06        -0.97591E+08         0.00000E+00
    0.00000E+00         0.00000E+00        -0.69144E+08
 
   -0.69003E+08         0.89340E+06         0.00000E+00
    0.89340E+06        -0.97588E+08         0.00000E+00
    0.00000E+00         0.00000E+00        -0.68976E+08
 
   -0.68846E+08         0.88714E+06         0.00000E+00
    0.88714E+06        -0.97586E+08         0.00000E+00
    0.00000E+00         0.00000E+00        -0.68807E+08
 
   -0.68689E+08         0.88038E+06         0.00000E+00
    0.88038E+06        -0.97584E+08         0.00000E+00
    0.00000E+00         0.00000E+00        -0.68638E+08
 
   -0.68533E+08         0.87301E+06         0.00000E+00
    0.87301E+06        -0.97583E+08         0.00000E+00
    0.00000E+00         0.00000E+00        -0.68469E+08
 
   -0.68378E+08         0.86488E+06         0.00000E+00
    0.86488E+06        -0.97583E+08         0.00000E+00
    0.00000E+00         0.00000E+00        -0.68300E+08
 
   -0.68225E+08         0.85582E+06         0.00000E+00
    0.85582E+06        -0.97583E+08         0.00000E+00
    0.00000E+00         0.00000E+00        -0.68130E+08
 
   -0.68073E+08         0.84563E+06         0.00000E+00
    0.84563E+06        -0.97584E+08         0.00000E+00
    0.00000E+00         0.00000E+00        -0.67959E+08
 
   -0.67923E+08         0.83405E+06         0.00000E+00
    0.83405E+06        -0.97586E+08         0.00000E+00
    0.00000E+00         0.00000E+00        -0.67789E+08
 
   -0.67774E+08         0.82080E+06         0.00000E+00
    0.82080E+06        -0.97590E+08         0.00000E+00
    0.00000E+00         0.00000E+00        -0.67618E+08
 
   -0.67628E+08         0.80554E+06         0.00000E+00
    0.80554E+06        -0.97596E+08         0.00000E+00
    0.00000E+00         0.00000E+00        -0.67446E+08
 
   -0.67484E+08         0.78787E+06         0.00000E+00
    0.78787E+06        -0.97604E+08         0.00000E+00
    0.00000E+00         0.00000E+00        -0.67275E+08
 
   -0.67342E+08         0.76736E+06         0.00000E+00
    0.76736E+06        -0.97613E+08         0.00000E+00
    0.00000E+00         0.00000E+00        -0.67103E+08
 
   -0.67203E+08         0.74355E+06         0.00000E+00
    0.74355E+06        -0.97626E+08         0.00000E+00
    0.00000E+00         0.00000E+00        -0.66931E+08
 
   -0.67067E+08         0.71592E+06         0.00000E+00
    0.71592E+06        -0.97641E+08         0.00000E+00
    0.00000E+00         0.00000E+00        -0.66758E+08
 
   -0.66934E+08         0.68395E+06         0.00000E+00
    0.68395E+06        -0.97658E+08         0.00000E+00
    0.00000E+00         0.00000E+00        -0.66586E+08
 
   -0.66804E+08         0.64711E+06         0.00000E+00
    0.64711E+06        -0.97678E+08         0.00000E+00
    0.00000E+00         0.00000E+00        -0.66412E+08
 
   -0.66677E+08         0.60487E+06         0.00000E+00
    0.60487E+06        -0.97699E+08         0.00000E+00
    0.00000E+00         0.00000E+00        -0.66238E+08
 
   -0.66553E+08         0.55676E+06         0.00000E+00
    0.55676E+06        -0.97721E+08         0.00000E+00
    0.00000E+00         0.00000E+00        -0.66061E+08
 
   -0.66432E+08         0.50246E+06         0.00000E+00
    0.50246E+06        -0.97742E+08         0.00000E+00
    0.00000E+00         0.00000E+00        -0.65880E+08
 
   -0.66313E+08         0.44192E+06         0.00000E+00
    0.44192E+06        -0.97760E+08         0.00000E+00
    0.00000E+00         0.00000E+00        -0.65694E+08
 
   -0.66199E+08         0.37567E+06         0.00000E+00
    0.37567E+06        -0.97772E+08         0.00000E+00
    0.00000E+00         0.00000E+00        -0.65498E+08
 
   -0.66089E+08         0.30530E+06         0.00000E+00
    0.30530E+06        -0.97774E+08         0.00000E+00
    0.00000E+00         0.00000E+00        -0.65288E+08
 
   -0.65987E+08         0.23402E+06         0.00000E+00
    0.23402E+06        -0.97761E+08         0.00000E+00
    0.00000E+00         0.00000E+00        -0.65056E+08
 
   -0.65898E+08         0.16656E+06         0.00000E+00
    0.16656E+06        -0.97732E+08         0.00000E+00
    0.00000E+00         0.00000E+00        -0.64797E+08
 
   -0.65827E+08         0.10767E+06         0.00000E+00
    0.10767E+06        -0.97684E+08         0.00000E+00
    0.00000E+00         0.00000E+00        -0.64504E+08
 
   -0.65778E+08         0.59392E+05         0.00000E+00
    0.59392E+05        -0.97620E+08         0.00000E+00
    0.00000E+00         0.00000E+00        -0.64177E+08
 
   -0.65752E+08         0.18947E+05         0.00000E+00
    0.18947E+05        -0.97542E+08         0.00000E+00
    0.00000E+00         0.00000E+00        -0.63816E+08
 
   -0.81704E+08         0.86779E+04         0.00000E+00
    0.86779E+04        -0.97614E+08         0.00000E+00
    0.00000E+00         0.00000E+00        -0.84629E+08
 
   -0.81646E+08         0.62058E+05         0.00000E+00
    0.62058E+05        -0.97539E+08         0.00000E+00
    0.00000E+00         0.00000E+00        -0.84108E+08
 
   -0.81609E+08         0.12683E+06         0.00000E+00
    0.12683E+06        -0.97388E+08         0.00000E+00
    0.00000E+00         0.00000E+00        -0.83742E+08
 
   -0.81532E+08         0.20412E+06         0.00000E+00
    0.20412E+06        -0.97330E+08         0.00000E+00
    0.00000E+00         0.00000E+00        -0.83381E+08
 
   -0.81427E+08         0.28723E+06         0.00000E+00
    0.28723E+06        -0.97305E+08         0.00000E+00
    0.00000E+00         0.00000E+00        -0.83019E+08
 
   -0.81304E+08         0.37491E+06         0.00000E+00
    0.37491E+06        -0.97324E+08         0.00000E+00
    0.00000E+00         0.00000E+00        -0.82658E+08
 
   -0.81180E+08         0.47429E+06         0.00000E+00
    0.47429E+06        -0.97354E+08         0.00000E+00
    0.00000E+00         0.00000E+00        -0.82321E+08
 
   -0.81031E+08         0.55036E+06         0.00000E+00
    0.55036E+06        -0.97427E+08         0.00000E+00
    0.00000E+00         0.00000E+00        -0.82023E+08
 
   -0.80891E+08         0.60765E+06         0.00000E+00
    0.60765E+06        -0.97457E+08         0.00000E+00
    0.00000E+00         0.00000E+00        -0.81798E+08
 
   -0.80745E+08         0.66475E+06         0.00000E+00
    0.66475E+06        -0.97453E+08         0.00000E+00
    0.00000E+00         0.00000E+00        -0.81586E+08
 
   -0.80592E+08         0.72113E+06         0.00000E+00
    0.72113E+06        -0.97447E+08         0.00000E+00
    0.00000E+00         0.00000E+00        -0.81381E+08
 
   -0.80434E+08         0.77428E+06         0.00000E+00
    0.77428E+06        -0.97446E+08         0.00000E+00
    0.00000E+00         0.00000E+00        -0.81180E+08
 
   -0.80272E+08         0.82301E+06         0.00000E+00
    0.82301E+06        -0.97452E+08         0.00000E+00
    0.00000E+00         0.00000E+00        -0.80980E+08
 
   -0.80108E+08         0.86641E+06         0.00000E+00
    0.86641E+06        -0.97462E+08         0.00000E+00
    0.00000E+00         0.00000E+00        -0.80778E+08
 
   -0.79941E+08         0.90498E+06         0.00000E+00
    0.90498E+06        -0.97475E+08         0.00000E+00
    0.00000E+00         0.00000E+00        -0.80573E+08
 
   -0.79772E+08         0.93930E+06         0.00000E+00
    0.93930E+06        -0.97489E+08         0.00000E+00
    0.00000E+00         0.00000E+00        -0.80365E+08
 
   -0.79599E+08         0.96984E+06         0.00000E+00
    0.96984E+06        -0.97503E+08         0.00000E+00
    0.00000E+00         0.00000E+00        -0.80153E+08
 
   -0.79424E+08         0.99684E+06         0.00000E+00
    0.99684E+06        -0.97516E+08         0.00000E+00
    0.00000E+00         0.00000E+00        -0.79936E+08
 
   -0.79245E+08         0.10204E+07         0.00000E+00
    0.10204E+07        -0.97528E+08         0.00000E+00
    0.00000E+00         0.00000E+00        -0.79715E+08
 
   -0.79063E+08         0.10404E+07         0.00000E+00
    0.10404E+07        -0.97541E+08         0.00000E+00
    0.00000E+00         0.00000E+00        -0.79489E+08
 
   -0.78878E+08         0.10570E+07         0.00000E+00
    0.10570E+07        -0.97553E+08         0.00000E+00
    0.00000E+00         0.00000E+00        -0.79259E+08
 
   -0.78689E+08         0.10701E+07         0.00000E+00
    0.10701E+07        -0.97568E+08         0.00000E+00
    0.00000E+00         0.00000E+00        -0.79024E+08
 
   -0.78497E+08         0.10802E+07         0.00000E+00
    0.10802E+07        -0.97585E+08         0.00000E+00
    0.00000E+00         0.00000E+00        -0.78785E+08
 
   -0.78302E+08         0.10888E+07         0.00000E+00
    0.10888E+07        -0.97607E+08         0.00000E+00
    0.00000E+00         0.00000E+00        -0.78542E+08
 
   -0.78103E+08         0.10972E+07         0.00000E+00
    0.10972E+07        -0.97628E+08         0.00000E+00
    0.00000E+00         0.00000E+00        -0.78304E+08
 
   -0.77900E+08         0.10943E+07         0.00000E+00
    0.10943E+07        -0.97625E+08         0.00000E+00
    0.00000E+00         0.00000E+00        -0.78092E+08
 
   -0.77695E+08         0.10914E+07         0.00000E+00
    0.10914E+07        -0.97613E+08         0.00000E+00
    0.00000E+00         0.00000E+00        -0.77889E+08
 
   -0.77490E+08         0.10895E+07         0.00000E+00
    0.10895E+07        -0.97604E+08         0.00000E+00
    0.00000E+00         0.00000E+00        -0.77684E+08
 
   -0.77284E+08         0.10888E+07         0.00000E+00
    0.10888E+07        -0.97598E+08         0.00000E+00
    0.00000E+00         0.00000E+00        -0.77477E+08
 
   -0.77078E+08         0.10893E+07         0.00000E+00
    0.10893E+07        -0.97593E+08         0.00000E+00
    0.00000E+00         0.00000E+00        -0.77267E+08
 
   -0.76872E+08         0.10903E+07         0.00000E+00
    0.10903E+07        -0.97591E+08         0.00000E+00
    0.00000E+00         0.00000E+00        -0.77056E+08
 
   -0.76666E+08         0.10914E+07         0.00000E+00
    0.10914E+07        -0.97590E+08         0.00000E+00
    0.00000E+00         0.00000E+00        -0.76842E+08
 
   -0.76461E+08         0.10923E+07         0.00000E+00
    0.10923E+07        -0.97591E+08         0.00000E+00
    0.00000E+00         0.00000E+00        -0.76627E+08
 
   -0.76256E+08         0.10926E+07         0.00000E+00
    0.10926E+07        -0.97593E+08         0.00000E+00
    0.00000E+00         0.00000E+00        -0.76410E+08
 
   -0.76052E+08         0.10921E+07         0.00000E+00
    0.10921E+07        -0.97596E+08         0.00000E+00
    0.00000E+00         0.00000E+00        -0.76191E+08
 
   -0.75849E+08         0.10906E+07         0.00000E+00
    0.10906E+07        -0.97601E+08         0.00000E+00
    0.00000E+00         0.00000E+00        -0.75970E+08
 
   -0.75646E+08         0.10882E+07         0.00000E+00
    0.10882E+07        -0.97609E+08         0.00000E+00
    0.00000E+00         0.00000E+00        -0.75748E+08
 
   -0.75443E+08         0.10853E+07         0.00000E+00
    0.10853E+07        -0.97619E+08         0.00000E+00
    0.00000E+00         0.00000E+00        -0.75524E+08
 
   -0.75241E+08         0.10828E+07         0.00000E+00
    0.10828E+07        -0.97632E+08         0.00000E+00
    0.00000E+00         0.00000E+00        -0.75299E+08
 
   -0.75039E+08         0.10750E+07         0.00000E+00
    0.10750E+07        -0.97632E+08         0.00000E+00
    0.00000E+00         0.00000E+00        -0.75091E+08
 
   -0.74837E+08         0.10651E+07         0.00000E+00
    0.10651E+07        -0.97624E+08         0.00000E+00
    0.00000E+00         0.00000E+00        -0.74896E+08
 
   -0.74637E+08         0.10563E+07         0.00000E+00
    0.10563E+07        -0.97618E+08         0.00000E+00
    0.00000E+00         0.00000E+00        -0.74700E+08
 
   -0.74439E+08         0.10486E+07         0.00000E+00
    0.10486E+07        -0.97615E+08         0.00000E+00
    0.00000E+00         0.00000E+00        -0.74503E+08
 
   -0.74242E+08         0.10416E+07         0.00000E+00
    0.10416E+07        -0.97613E+08         0.00000E+00
    0.00000E+00         0.00000E+00        -0.74306E+08
 
   -0.74047E+08         0.10347E+07         0.00000E+00
    0.10347E+07        -0.97613E+08         0.00000E+00
    0.00000E+00         0.00000E+00        -0.74108E+08
 
   -0.73855E+08         0.10279E+07         0.00000E+00
    0.10279E+07        -0.97616E+08         0.00000E+00
    0.00000E+00         0.00000E+00        -0.73909E+08
 
   -0.73663E+08         0.10211E+07         0.00000E+00
    0.10211E+07        -0.97620E+08         0.00000E+00
    0.00000E+00         0.00000E+00        -0.73710E+08
 
   -0.73474E+08         0.10142E+07         0.00000E+00
    0.10142E+07        -0.97627E+08         0.00000E+00
    0.00000E+00         0.00000E+00        -0.73511E+08
 
   -0.73285E+08         0.10069E+07         0.00000E+00
    0.10069E+07        -0.97630E+08         0.00000E+00
    0.00000E+00         0.00000E+00        -0.73318E+08
 
   -0.73098E+08         0.99737E+06         0.00000E+00
    0.99737E+06        -0.97624E+08         0.00000E+00
    0.00000E+00         0.00000E+00        -0.73136E+08
 
   -0.72912E+08         0.98888E+06         0.00000E+00
    0.98888E+06        -0.97619E+08         0.00000E+00
    0.00000E+00         0.00000E+00        -0.72955E+08
 
   -0.72728E+08         0.98116E+06         0.00000E+00
    0.98116E+06        -0.97616E+08         0.00000E+00
    0.00000E+00         0.00000E+00        -0.72774E+08
 
   -0.72546E+08         0.97397E+06         0.00000E+00
    0.97397E+06        -0.97615E+08         0.00000E+00
    0.00000E+00         0.00000E+00        -0.72593E+08
 
   -0.72365E+08         0.96713E+06         0.00000E+00
    0.96713E+06        -0.97615E+08         0.00000E+00
    0.00000E+00         0.00000E+00        -0.72411E+08
 
   -0.72186E+08         0.96053E+06         0.00000E+00
    0.96053E+06        -0.97616E+08         0.00000E+00
    0.00000E+00         0.00000E+00        -0.72230E+08
 
   -0.72009E+08         0.95420E+06         0.00000E+00
    0.95420E+06        -0.97619E+08         0.00000E+00
    0.00000E+00         0.00000E+00        -0.72048E+08
 
   -0.71832E+08         0.94813E+06         0.00000E+00
    0.94813E+06        -0.97622E+08         0.00000E+00
    0.00000E+00         0.00000E+00        -0.71868E+08
 
   -0.71657E+08         0.94136E+06         0.00000E+00
    0.94136E+06        -0.97620E+08         0.00000E+00
    0.00000E+00         0.00000E+00        -0.71694E+08
 
   -0.71482E+08         0.93496E+06         0.00000E+00
    0.93496E+06        -0.97617E+08         0.00000E+00
    0.00000E+00         0.00000E+00        -0.71522E+08
 
   -0.71309E+08         0.92904E+06         0.00000E+00
    0.92904E+06        -0.97615E+08         0.00000E+00
    0.00000E+00         0.00000E+00        -0.71350E+08
 
   -0.71137E+08         0.92358E+06         0.00000E+00
    0.92358E+06        -0.97613E+08         0.00000E+00
    0.00000E+00         0.00000E+00        -0.71178E+08
 
   -0.70965E+08         0.91851E+06         0.00000E+00
    0.91851E+06        -0.97612E+08         0.00000E+00
    0.00000E+00         0.00000E+00        -0.71006E+08
 
   -0.70795E+08         0.91375E+06         0.00000E+00
    0.91375E+06        -0.97612E+08         0.00000E+00
    0.00000E+00         0.00000E+00        -0.70834E+08
 
   -0.70626E+08         0.90922E+06         0.00000E+00
    0.90922E+06        -0.97612E+08         0.00000E+00
    0.00000E+00         0.00000E+00        -0.70662E+08
 
   -0.70458E+08         0.90483E+06         0.00000E+00
    0.90483E+06        -0.97612E+08         0.00000E+00
    0.00000E+00         0.00000E+00        -0.70490E+08
 
   -0.70290E+08         0.90053E+06         0.00000E+00
    0.90053E+06        -0.97612E+08         0.00000E+00
    0.00000E+00         0.00000E+00        -0.70318E+08
 
   -0.70124E+08         0.89619E+06         0.00000E+00
    0.89619E+06        -0.97611E+08         0.00000E+00
    0.00000E+00         0.00000E+00        -0.70148E+08
 
   -0.69962E+08         0.89163E+06         0.00000E+00
    0.89163E+06        -0.97607E+08         0.00000E+00
    0.00000E+00         0.00000E+00        -0.69980E+08
 
   -0.69800E+08         0.88698E+06         0.00000E+00
    0.88698E+06        -0.97603E+08         0.00000E+00
    0.00000E+00         0.00000E+00        -0.69812E+08
 
   -0.69640E+08         0.88223E+06         0.00000E+00
    0.88223E+06        -0.97600E+08         0.00000E+00
    0.00000E+00         0.00000E+00        -0.69644E+08
 
   -0.69479E+08         0.87732E+06         0.00000E+00
    0.87732E+06        -0.97596E+08         0.00000E+00
    0.00000E+00         0.00000E+00        -0.69476E+08
 
   -0.69320E+08         0.87222E+06         0.00000E+00
    0.87222E+06        -0.97593E+08         0.00000E+00
    0.00000E+00         0.00000E+00        -0.69308E+08
 
   -0.69161E+08         0.86687E+06         0.00000E+00
    0.86687E+06        -0.97590E+08         0.00000E+00
    0.00000E+00         0.00000E+00        -0.69140E+08
 
   -0.69003E+08         0.86120E+06         0.00000E+00
    0.86120E+06        -0.97587E+08         0.00000E+00
    0.00000E+00         0.00000E+00        -0.68971E+08
 
   -0.68845E+08         0.85514E+06         0.00000E+00
    0.85514E+06        -0.97585E+08         0.00000E+00
    0.00000E+00         0.00000E+00        -0.68802E+08
 
   -0.68689E+08         0.84861E+06         0.00000E+00
    0.84861E+06        -0.97583E+08         0.00000E+00
    0.00000E+00         0.00000E+00        -0.68633E+08
 
   -0.68533E+08         0.84149E+06         0.00000E+00
    0.84149E+06        -0.97582E+08         0.00000E+00
    0.00000E+00         0.00000E+00        -0.68464E+08
 
   -0.68379E+08         0.83365E+06         0.00000E+00
    0.83365E+06        -0.97581E+08         0.00000E+00
    0.00000E+00         0.00000E+00        -0.68294E+08
 
   -0.68225E+08         0.82491E+06         0.00000E+00
    0.82491E+06        -0.97581E+08         0.00000E+00
    0.00000E+00         0.00000E+00        -0.68124E+08
 
   -0.68074E+08         0.81508E+06         0.00000E+00
    0.81508E+06        -0.97582E+08         0.00000E+00
    0.00000E+00         0.00000E+00        -0.67953E+08
 
   -0.67924E+08         0.80391E+06         0.00000E+00
    0.80391E+06        -0.97584E+08         0.00000E+00
    0.00000E+00         0.00000E+00        -0.67782E+08
 
   -0.67776E+08         0.79111E+06         0.00000E+00
    0.79111E+06        -0.97587E+08         0.00000E+00
    0.00000E+00         0.00000E+00        -0.67610E+08
 
   -0.67630E+08         0.77634E+06         0.00000E+00
    0.77634E+06        -0.97593E+08         0.00000E+00
    0.00000E+00         0.00000E+00        -0.67438E+08
 
   -0.67486E+08         0.75920E+06         0.00000E+00
    0.75920E+06        -0.97600E+08         0.00000E+00
    0.00000E+00         0.00000E+00        -0.67266E+08
 
   -0.67345E+08         0.73928E+06         0.00000E+00
    0.73928E+06        -0.97609E+08         0.00000E+00
    0.00000E+00         0.00000E+00        -0.67093E+08
 
   -0.67206E+08         0.71608E+06         0.00000E+00
    0.71608E+06        -0.97621E+08         0.00000E+00
    0.00000E+00         0.00000E+00        -0.66920E+08
 
   -0.67071E+08         0.68909E+06         0.00000E+00
    0.68909E+06        -0.97635E+08         0.00000E+00
    0.00000E+00         0.00000E+00        -0.66746E+08
 
   -0.66939E+08         0.65778E+06         0.00000E+00
    0.65778E+06        -0.97651E+08         0.00000E+00
    0.00000E+00         0.00000E+00        -0.66572E+08
 
   -0.66809E+08         0.62160E+06         0.00000E+00
    0.62160E+06        -0.97670E+08         0.00000E+00
    0.00000E+00         0.00000E+00        -0.66397E+08
 
   -0.66683E+08         0.58003E+06         0.00000E+00
    0.58003E+06        -0.97690E+08         0.00000E+00
    0.00000E+00         0.00000E+00        -0.66221E+08
 
   -0.66560E+08         0.53261E+06         0.00000E+00
    0.53261E+06        -0.97711E+08         0.00000E+00
    0.00000E+00         0.00000E+00        -0.66042E+08
 
   -0.66440E+08         0.47901E+06         0.00000E+00
    0.47901E+06        -0.97731E+08         0.00000E+00
    0.00000E+00         0.00000E+00        -0.65859E+08
 
   -0.66324E+08         0.41923E+06         0.00000E+00
    0.41923E+06        -0.97748E+08         0.00000E+00
    0.00000E+00         0.00000E+00        -0.65669E+08
 
   -0.66212E+08         0.35392E+06         0.00000E+00
    0.35392E+06        -0.97759E+08         0.00000E+00
    0.00000E+00         0.00000E+00        -0.65471E+08
 
   -0.66106E+08         0.28493E+06         0.00000E+00
    0.28493E+06        -0.97760E+08         0.00000E+00
    0.00000E+00         0.00000E+00        -0.65257E+08
 
   -0.66008E+08         0.21579E+06         0.00000E+00
    0.21579E+06        -0.97748E+08         0.00000E+00
    0.00000E+00         0.00000E+00        -0.65023E+08
 
   -0.65922E+08         0.15144E+06         0.00000E+00
    0.15144E+06        -0.97720E+08         0.00000E+00
    0.00000E+00         0.00000E+00        -0.64762E+08
 
   -0.65854E+08         0.96495E+05         0.00000E+00
    0.96495E+05        -0.97675E+08         0.00000E+00
    0.00000E+00         0.00000E+00        -0.64470E+08
 
   -0.65807E+08         0.52610E+05         0.00000E+00
    0.52610E+05        -0.97614E+08         0.00000E+00
    0.00000E+00         0.00000E+00        -0.64143E+08
 
   -0.65783E+08         0.16682E+05         0.00000E+00
    0.16682E+05        -0.97536E+08         0.00000E+00
    0.00000E+00         0.00000E+00        -0.63784E+08
 
   -0.81634E+08         0.48474E+04         0.00000E+00
    0.48474E+04        -0.97611E+08         0.00000E+00
    0.00000E+00         0.00000E+00        -0.84668E+08
 
   -0.81575E+08         0.50657E+05         0.00000E+00
    0.50657E+05        -0.97549E+08         0.00000E+00
    0.00000E+00         0.00000E+00        -0.84133E+08
 
   -0.81525E+08         0.11527E+06         0.00000E+00
    0.11527E+06        -0.97415E+08         0.00000E+00
    0.00000E+00         0.00000E+00        -0.83742E+08
 
   -0.81452E+08         0.18622E+06         0.00000E+00
    0.18622E+06        -0.97340E+08         0.00000E+00
    0.00000E+00         0.00000E+00        -0.83381E+08
 
   -0.81354E+08         0.26406E+06         0.00000E+00
    0.26406E+06        -0.97325E+08         0.00000E+00
    0.00000E+00         0.00000E+00        -0.83019E+08
 
   -0.81238E+08         0.35237E+06         0.00000E+00
    0.35237E+06        -0.97338E+08         0.00000E+00
    0.00000E+00         0.00000E+00        -0.82658E+08
 
   -0.81132E+08         0.44909E+06         0.00000E+00
    0.44909E+06        -0.97372E+08         0.00000E+00
    0.00000E+00         0.00000E+00        -0.82339E+08
 
   -0.80998E+08         0.52011E+06         0.00000E+00
    0.52011E+06        -0.97445E+08         0.00000E+00
    0.00000E+00         0.00000E+00        -0.82054E+08
 
   -0.80861E+08         0.58066E+06         0.00000E+00
    0.58066E+06        -0.97466E+08         0.00000E+00
    0.00000E+00         0.00000E+00        -0.81823E+08
 
   -0.80720E+08         0.63509E+06         0.00000E+00
    0.63509E+06        -0.97465E+08         0.00000E+00
    0.00000E+00         0.00000E+00        -0.81605E+08
 
   -0.80570E+08         0.69027E+06         0.00000E+00
    0.69027E+06        -0.97458E+08         0.00000E+00
    0.00000E+00         0.00000E+00        -0.81395E+08
 
   -0.80415E+08         0.74245E+06         0.00000E+00
    0.74245E+06        -0.97457E+08         0.00000E+00
    0.00000E+00         0.00000E+00        -0.81189E+08
 
   -0.80254E+08         0.79040E+06         0.00000E+00
    0.79040E+06        -0.97461E+08         0.00000E+00
    0.00000E+00         0.00000E+00        -0.80985E+08
 
   -0.80090E+08         0.83327E+06         0.00000E+00
    0.83327E+06        -0.97470E+08         0.00000E+00
    0.00000E+00         0.00000E+00        -0.80780E+08
 
   -0.79923E+08         0.87132E+06         0.00000E+00
    0.87132E+06        -0.97482E+08         0.00000E+00
    0.00000E+00         0.00000E+00        -0.80572E+08
 
   -0.79753E+08         0.90510E+06         0.00000E+00
    0.90510E+06        -0.97495E+08         0.00000E+00
    0.00000E+00         0.00000E+00        -0.80362E+08
 
   -0.79581E+08         0.93503E+06         0.00000E+00
    0.93503E+06        -0.97508E+08         0.00000E+00
    0.00000E+00         0.00000E+00        -0.80147E+08
 
   -0.79405E+08         0.96139E+06         0.00000E+00
    0.96139E+06        -0.97521E+08         0.00000E+00
    0.00000E+00         0.00000E+00        -0.79929E+08
 
   -0.79226E+08         0.98428E+06         0.00000E+00
    0.98428E+06        -0.97533E+08         0.00000E+00
    0.00000E+00         0.00000E+00        -0.79706E+08
 
   -0.79044E+08         0.10037E+07         0.00000E+00
    0.10037E+07        -0.97544E+08         0.00000E+00
    0.00000E+00         0.00000E+00        -0.79480E+08
 
   -0.78858E+08         0.10196E+07         0.00000E+00
    0.10196E+07        -0.97556E+08         0.00000E+00
    0.00000E+00         0.00000E+00        -0.79248E+08
 
   -0.78670E+08         0.10321E+07         0.00000E+00
    0.10321E+07        -0.97570E+08         0.00000E+00
    0.00000E+00         0.00000E+00        -0.79013E+08
 
   -0.78478E+08         0.10416E+07         0.00000E+00
    0.10416E+07        -0.97587E+08         0.00000E+00
    0.00000E+00         0.00000E+00        -0.78774E+08
 
   -0.78284E+08         0.10495E+07         0.00000E+00
    0.10495E+07        -0.97609E+08         0.00000E+00
    0.00000E+00         0.00000E+00        -0.78531E+08
 
   -0.78085E+08         0.10570E+07         0.00000E+00
    0.10570E+07        -0.97628E+08         0.00000E+00
    0.00000E+00         0.00000E+00        -0.78294E+08
 
   -0.77883E+08         0.10535E+07         0.00000E+00
    0.10535E+07        -0.97624E+08         0.00000E+00
    0.00000E+00         0.00000E+00        -0.78083E+08
 
   -0.77678E+08         0.10504E+07         0.00000E+00
    0.10504E+07        -0.97612E+08         0.00000E+00
    0.00000E+00         0.00000E+00        -0.77880E+08
 
   -0.77473E+08         0.10483E+07         0.00000E+00
    0.10483E+07        -0.97604E+08         0.00000E+00
    0.00000E+00         0.00000E+00        -0.77675E+08
 
   -0.77267E+08         0.10477E+07         0.00000E+00
    0.10477E+07        -0.97598E+08         0.00000E+00
    0.00000E+00         0.00000E+00        -0.77468E+08
 
   -0.77062E+08         0.10481E+07         0.00000E+00
    0.10481E+07        -0.97594E+08         0.00000E+00
    0.00000E+00         0.00000E+00        -0.77259E+08
 
   -0.76856E+08         0.10492E+07         0.00000E+00
    0.10492E+07        -0.97591E+08         0.00000E+00
    0.00000E+00         0.00000E+00        -0.77047E+08
 
   -0.76651E+08         0.10504E+07         0.00000E+00
    0.10504E+07        -0.97591E+08         0.00000E+00
    0.00000E+00         0.00000E+00        -0.76834E+08
 
   -0.76447E+08         0.10514E+07         0.00000E+00
    0.10514E+07        -0.97591E+08         0.00000E+00
    0.00000E+00         0.00000E+00        -0.76619E+08
 
   -0.76243E+08         0.10518E+07         0.00000E+00
    0.10518E+07        -0.97593E+08         0.00000E+00
    0.00000E+00         0.00000E+00        -0.76402E+08
 
   -0.76039E+08         0.10514E+07         0.00000E+00
    0.10514E+07        -0.97596E+08         0.00000E+00
    0.00000E+00         0.00000E+00        -0.76183E+08
 
   -0.75836E+08         0.10500E+07         0.00000E+00
    0.10500E+07        -0.97601E+08         0.00000E+00
    0.00000E+00         0.00000E+00        -0.75962E+08
 
   -0.75634E+08         0.10477E+07         0.00000E+00
    0.10477E+07        -0.97608E+08         0.00000E+00
    0.00000E+00         0.00000E+00        -0.75740E+08
 
   -0.75432E+08         0.10448E+07         0.00000E+00
    0.10448E+07        -0.97618E+08         0.00000E+00
    0.00000E+00         0.00000E+00        -0.75517E+08
 
   -0.75231E+08         0.10427E+07         0.00000E+00
    0.10427E+07        -0.97631E+08         0.00000E+00
    0.00000E+00         0.00000E+00        -0.75292E+08
 
   -0.75029E+08         0.10344E+07         0.00000E+00
    0.10344E+07        -0.97630E+08         0.00000E+00
    0.00000E+00         0.00000E+00        -0.75086E+08
 
   -0.74828E+08         0.10250E+07         0.00000E+00
    0.10250E+07        -0.97623E+08         0.00000E+00
    0.00000E+00         0.00000E+00        -0.74891E+08
 
   -0.74628E+08         0.10165E+07         0.00000E+00
    0.10165E+07        -0.97617E+08         0.00000E+00
    0.00000E+00         0.00000E+00        -0.74695E+08
 
   -0.74430E+08         0.10092E+07         0.00000E+00
    0.10092E+07        -0.97613E+08         0.00000E+00
    0.00000E+00         0.00000E+00        -0.74499E+08
 
   -0.74234E+08         0.10025E+07         0.00000E+00
    0.10025E+07        -0.97612E+08         0.00000E+00
    0.00000E+00         0.00000E+00        -0.74301E+08
 
   -0.74040E+08         0.99604E+06         0.00000E+00
    0.99604E+06        -0.97612E+08         0.00000E+00
    0.00000E+00         0.00000E+00        -0.74104E+08
 
   -0.73847E+08         0.98957E+06         0.00000E+00
    0.98957E+06        -0.97614E+08         0.00000E+00
    0.00000E+00         0.00000E+00        -0.73905E+08
 
   -0.73657E+08         0.98306E+06         0.00000E+00
    0.98306E+06        -0.97619E+08         0.00000E+00
    0.00000E+00         0.00000E+00        -0.73707E+08
 
   -0.73467E+08         0.97651E+06         0.00000E+00
    0.97651E+06        -0.97625E+08         0.00000E+00
    0.00000E+00         0.00000E+00        -0.73507E+08
 
   -0.73279E+08         0.96932E+06         0.00000E+00
    0.96932E+06        -0.97628E+08         0.00000E+00
    0.00000E+00         0.00000E+00        -0.73314E+08
 
   -0.73092E+08         0.96010E+06         0.00000E+00
    0.96010E+06        -0.97622E+08         0.00000E+00
    0.00000E+00         0.00000E+00        -0.73133E+08
 
   -0.72907E+08         0.95193E+06         0.00000E+00
    0.95193E+06        -0.97618E+08         0.00000E+00
    0.00000E+00         0.00000E+00        -0.72952E+08
 
   -0.72723E+08         0.94456E+06         0.00000E+00
    0.94456E+06        -0.97615E+08         0.00000E+00
    0.00000E+00         0.00000E+00        -0.72771E+08
 
   -0.72541E+08         0.93772E+06         0.00000E+00
    0.93772E+06        -0.97614E+08         0.00000E+00
    0.00000E+00         0.00000E+00        -0.72590E+08
 
   -0.72361E+08         0.93120E+06         0.00000E+00
    0.93120E+06        -0.97614E+08         0.00000E+00
    0.00000E+00         0.00000E+00        -0.72408E+08
 
   -0.72182E+08         0.92489E+06         0.00000E+00
    0.92489E+06        -0.97615E+08         0.00000E+00
    0.00000E+00         0.00000E+00        -0.72227E+08
 
   -0.72004E+08         0.91881E+06         0.00000E+00
    0.91881E+06        -0.97618E+08         0.00000E+00
    0.00000E+00         0.00000E+00        -0.72045E+08
 
   -0.71828E+08         0.91295E+06         0.00000E+00
    0.91295E+06        -0.97621E+08         0.00000E+00
    0.00000E+00         0.00000E+00        -0.71865E+08
 
   -0.71653E+08         0.90638E+06         0.00000E+00
    0.90638E+06        -0.97619E+08         0.00000E+00
    0.00000E+00         0.00000E+00        -0.71691E+08
 
   -0.71478E+08         0.90020E+06         0.00000E+00
    0.90020E+06        -0.97615E+08         0.00000E+00
    0.00000E+00         0.00000E+00        -0.71519E+08
 
   -0.71305E+08         0.89450E+06         0.00000E+00
    0.89450E+06        -0.97613E+08         0.00000E+00
    0.00000E+00         0.00000E+00        -0.71347E+08
 
   -0.71133E+08         0.88925E+06         0.00000E+00
    0.88925E+06        -0.97612E+08         0.00000E+00
    0.00000E+00         0.00000E+00        -0.71175E+08
 
   -0.70962E+08         0.88439E+06         0.00000E+00
    0.88439E+06        -0.97611E+08         0.00000E+00
    0.00000E+00         0.00000E+00        -0.71003E+08
 
   -0.70792E+08         0.87982E+06         0.00000E+00
    0.87982E+06        -0.97611E+08         0.00000E+00
    0.00000E+00         0.00000E+00        -0.70831E+08
 
   -0.70623E+08         0.87546E+06         0.00000E+00
    0.87546E+06        -0.97611E+08         0.00000E+00
    0.00000E+00         0.00000E+00        -0.70659E+08
 
   -0.70455E+08         0.87124E+06         0.00000E+00
    0.87124E+06        -0.97611E+08         0.00000E+00
    0.00000E+00         0.00000E+00        -0.70487E+08
 
   -0.70287E+08         0.86710E+06         0.00000E+00
    0.86710E+06        -0.97611E+08         0.00000E+00
    0.00000E+00         0.00000E+00        -0.70315E+08
 
   -0.70122E+08         0.86290E+06         0.00000E+00
    0.86290E+06        -0.97610E+08         0.00000E+00
    0.00000E+00         0.00000E+00        -0.70144E+08
 
   -0.69960E+08         0.85849E+06         0.00000E+00
    0.85849E+06        -0.97606E+08         0.00000E+00
    0.00000E+00         0.00000E+00        -0.69976E+08
 
   -0.69798E+08         0.85400E+06         0.00000E+00
    0.85400E+06        -0.97602E+08         0.00000E+00
    0.00000E+00         0.00000E+00        -0.69808E+08
 
   -0.69638E+08         0.84939E+06         0.00000E+00
    0.84939E+06        -0.97599E+08         0.00000E+00
    0.00000E+00         0.00000E+00        -0.69641E+08
 
   -0.69478E+08         0.84465E+06         0.00000E+00
    0.84465E+06        -0.97595E+08         0.00000E+00
    0.00000E+00         0.00000E+00        -0.69472E+08
 
   -0.69319E+08         0.83971E+06         0.00000E+00
    0.83971E+06        -0.97592E+08         0.00000E+00
    0.00000E+00         0.00000E+00        -0.69304E+08
 
   -0.69160E+08         0.83453E+06         0.00000E+00
    0.83453E+06        -0.97589E+08         0.00000E+00
    0.00000E+00         0.00000E+00        -0.69136E+08
 
   -0.69002E+08         0.82905E+06         0.00000E+00
    0.82905E+06        -0.97586E+08         0.00000E+00
    0.00000E+00         0.00000E+00        -0.68967E+08
 
   -0.68845E+08         0.82321E+06         0.00000E+00
    0.82321E+06        -0.97584E+08         0.00000E+00
    0.00000E+00         0.00000E+00        -0.68798E+08
 
   -0.68688E+08         0.81690E+06         0.00000E+00
    0.81690E+06        -0.97582E+08         0.00000E+00
    0.00000E+00         0.00000E+00        -0.68628E+08
 
   -0.68533E+08         0.81004E+06         0.00000E+00
    0.81004E+06        -0.97580E+08         0.00000E+00
    0.00000E+00         0.00000E+00        -0.68458E+08
 
   -0.68379E+08         0.80248E+06         0.00000E+00
    0.80248E+06        -0.97579E+08         0.00000E+00
    0.00000E+00         0.00000E+00        -0.68288E+08
 
   -0.68226E+08         0.79407E+06         0.00000E+00
    0.79407E+06        -0.97579E+08         0.00000E+00
    0.00000E+00         0.00000E+00        -0.68117E+08
 
   -0.68075E+08         0.78460E+06         0.00000E+00
    0.78460E+06        -0.97580E+08         0.00000E+00
    0.00000E+00         0.00000E+00        -0.67946E+08
 
   -0.67925E+08         0.77383E+06         0.00000E+00
    0.77383E+06        -0.97582E+08         0.00000E+00
    0.00000E+00         0.00000E+00        -0.67775E+08
 
   -0.67777E+08         0.76148E+06         0.00000E+00
    0.76148E+06        -0.97585E+08         0.00000E+00
    0.00000E+00         0.00000E+00        -0.67602E+08
 
   -0.67631E+08         0.74721E+06         0.00000E+00
    0.74721E+06        -0.97590E+08         0.00000E+00
    0.00000E+00         0.00000E+00        -0.67430E+08
 
   -0.67488E+08         0.73062E+06         0.00000E+00
    0.73062E+06        -0.97596E+08         0.00000E+00
    0.00000E+00         0.00000E+00        -0.67257E+08
 
   -0.67347E+08         0.71128E+06         0.00000E+00
    0.71128E+06        -0.97605E+08         0.00000E+00
    0.00000E+00         0.00000E+00        -0.67083E+08
 
   -0.67210E+08         0.68871E+06         0.00000E+00
    0.68871E+06        -0.97616E+08         0.00000E+00
    0.00000E+00         0.00000E+00        -0.66909E+08
 
   -0.67075E+08         0.66238E+06         0.00000E+00
    0.66238E+06        -0.97629E+08         0.00000E+00
    0.00000E+00         0.00000E+00        -0.66734E+08
 
   -0.66943E+08         0.63175E+06         0.00000E+00
    0.63175E+06        -0.97644E+08         0.00000E+00
    0.00000E+00         0.00000E+00        -0.66559E+08
 
   -0.66814E+08         0.59628E+06         0.00000E+00
    0.59628E+06        -0.97662E+08         0.00000E+00
    0.00000E+00         0.00000E+00        -0.66382E+08
 
   -0.66689E+08         0.55543E+06         0.00000E+00
    0.55543E+06        -0.97681E+08         0.00000E+00
    0.00000E+00         0.00000E+00        -0.66204E+08
 
   -0.66567E+08         0.50875E+06         0.00000E+00
    0.50875E+06        -0.97701E+08         0.00000E+00
    0.00000E+00         0.00000E+00        -0.66022E+08
 
   -0.66449E+08         0.45594E+06         0.00000E+00
    0.45594E+06        -0.97720E+08         0.00000E+00
    0.00000E+00         0.00000E+00        -0.65837E+08
 
   -0.66335E+08         0.39705E+06         0.00000E+00
    0.39705E+06        -0.97735E+08         0.00000E+00
    0.00000E+00         0.00000E+00        -0.65645E+08
 
   -0.66226E+08         0.33284E+06         0.00000E+00
    0.33284E+06        -0.97746E+08         0.00000E+00
    0.00000E+00         0.00000E+00        -0.65443E+08
 
   -0.66123E+08         0.26534E+06         0.00000E+00
    0.26534E+06        -0.97747E+08         0.00000E+00
    0.00000E+00         0.00000E+00        -0.65227E+08
 
   -0.66029E+08         0.19838E+06         0.00000E+00
    0.19838E+06        -0.97736E+08         0.00000E+00
    0.00000E+00         0.00000E+00        -0.64991E+08
 
   -0.65947E+08         0.13704E+06         0.00000E+00
    0.13704E+06        -0.97710E+08         0.00000E+00
    0.00000E+00         0.00000E+00        -0.64729E+08
 
   -0.65882E+08         0.85837E+05         0.00000E+00
    0.85837E+05        -0.97667E+08         0.00000E+00
    0.00000E+00         0.00000E+00        -0.64436E+08
 
   -0.65837E+08         0.46112E+05         0.00000E+00
    0.46112E+05        -0.97608E+08         0.00000E+00
    0.00000E+00         0.00000E+00        -0.64111E+08
 
   -0.65813E+08         0.14505E+05         0.00000E+00
    0.14505E+05        -0.97532E+08         0.00000E+00
    0.00000E+00         0.00000E+00        -0.63752E+08
 
   -0.81568E+08         0.35843E+04         0.00000E+00
    0.35843E+04        -0.97616E+08         0.00000E+00
    0.00000E+00         0.00000E+00        -0.84704E+08
 
   -0.81522E+08         0.36153E+05         0.00000E+00
    0.36153E+05        -0.97551E+08         0.00000E+00
    0.00000E+00         0.00000E+00        -0.84172E+08
 
   -0.81444E+08         0.10299E+06         0.00000E+00
    0.10299E+06        -0.97438E+08         0.00000E+00
    0.00000E+00         0.00000E+00        -0.83745E+08
 
   -0.81373E+08         0.16830E+06         0.00000E+00
    0.16830E+06        -0.97353E+08         0.00000E+00
    0.00000E+00         0.00000E+00        -0.83381E+08
 
   -0.81280E+08         0.24370E+06         0.00000E+00
    0.24370E+06        -0.97341E+08         0.00000E+00
    0.00000E+00         0.00000E+00        -0.83019E+08
 
   -0.81190E+08         0.33273E+06         0.00000E+00
    0.33273E+06        -0.97345E+08         0.00000E+00
    0.00000E+00         0.00000E+00        -0.82676E+08
 
   -0.81084E+08         0.42510E+06         0.00000E+00
    0.42510E+06        -0.97400E+08         0.00000E+00
    0.00000E+00         0.00000E+00        -0.82358E+08
 
   -0.80964E+08         0.49336E+06         0.00000E+00
    0.49336E+06        -0.97458E+08         0.00000E+00
    0.00000E+00         0.00000E+00        -0.82085E+08
 
   -0.80834E+08         0.55369E+06         0.00000E+00
    0.55369E+06        -0.97477E+08         0.00000E+00
    0.00000E+00         0.00000E+00        -0.81848E+08
 
   -0.80696E+08         0.60650E+06         0.00000E+00
    0.60650E+06        -0.97476E+08         0.00000E+00
    0.00000E+00         0.00000E+00        -0.81625E+08
 
   -0.80550E+08         0.65987E+06         0.00000E+00
    0.65987E+06        -0.97469E+08         0.00000E+00
    0.00000E+00         0.00000E+00        -0.81410E+08
 
   -0.80396E+08         0.71092E+06         0.00000E+00
    0.71092E+06        -0.97467E+08         0.00000E+00
    0.00000E+00         0.00000E+00        -0.81199E+08
 
   -0.80237E+08         0.75793E+06         0.00000E+00
    0.75793E+06        -0.97470E+08         0.00000E+00
    0.00000E+00         0.00000E+00        -0.80990E+08
 
   -0.80073E+08         0.80014E+06         0.00000E+00
    0.80014E+06        -0.97478E+08         0.00000E+00
    0.00000E+00         0.00000E+00        -0.80782E+08
 
   -0.79906E+08         0.83761E+06         0.00000E+00
    0.83761E+06        -0.97490E+08         0.00000E+00
    0.00000E+00         0.00000E+00        -0.80571E+08
 
   -0.79736E+08         0.87081E+06         0.00000E+00
    0.87081E+06        -0.97502E+08         0.00000E+00
    0.00000E+00         0.00000E+00        -0.80358E+08
 
   -0.79563E+08         0.90014E+06         0.00000E+00
    0.90014E+06        -0.97514E+08         0.00000E+00
    0.00000E+00         0.00000E+00        -0.80142E+08
 
   -0.79387E+08         0.92588E+06         0.00000E+00
    0.92588E+06        -0.97526E+08         0.00000E+00
    0.00000E+00         0.00000E+00        -0.79922E+08
 
   -0.79207E+08         0.94813E+06         0.00000E+00
    0.94813E+06        -0.97537E+08         0.00000E+00
    0.00000E+00         0.00000E+00        -0.79698E+08
 
   -0.79025E+08         0.96692E+06         0.00000E+00
    0.96692E+06        -0.97548E+08         0.00000E+00
    0.00000E+00         0.00000E+00        -0.79470E+08
 
   -0.78840E+08         0.98222E+06         0.00000E+00
    0.98222E+06        -0.97559E+08         0.00000E+00
    0.00000E+00         0.00000E+00        -0.79238E+08
 
   -0.78651E+08         0.99411E+06         0.00000E+00
    0.99411E+06        -0.97572E+08         0.00000E+00
    0.00000E+00         0.00000E+00        -0.79002E+08
 
   -0.78460E+08         0.10031E+07         0.00000E+00
    0.10031E+07        -0.97589E+08         0.00000E+00
    0.00000E+00         0.00000E+00        -0.78763E+08
 
   -0.78266E+08         0.10103E+07         0.00000E+00
    0.10103E+07        -0.97611E+08         0.00000E+00
    0.00000E+00         0.00000E+00        -0.78519E+08
 
   -0.78068E+08         0.10168E+07         0.00000E+00
    0.10168E+07        -0.97629E+08         0.00000E+00
    0.00000E+00         0.00000E+00        -0.78284E+08
 
   -0.77865E+08         0.10128E+07         0.00000E+00
    0.10128E+07        -0.97623E+08         0.00000E+00
    0.00000E+00         0.00000E+00        -0.78074E+08
 
   -0.77661E+08         0.10094E+07         0.00000E+00
    0.10094E+07        -0.97612E+08         0.00000E+00
    0.00000E+00         0.00000E+00        -0.77871E+08
 
   -0.77456E+08         0.10073E+07         0.00000E+00
    0.10073E+07        -0.97603E+08         0.00000E+00
    0.00000E+00         0.00000E+00        -0.77666E+08
 
   -0.77251E+08         0.10066E+07         0.00000E+00
    0.10066E+07        -0.97598E+08         0.00000E+00
    0.00000E+00         0.00000E+00        -0.77459E+08
 
   -0.77046E+08         0.10070E+07         0.00000E+00
    0.10070E+07        -0.97594E+08         0.00000E+00
    0.00000E+00         0.00000E+00        -0.77250E+08
 
   -0.76841E+08         0.10082E+07         0.00000E+00
    0.10082E+07        -0.97592E+08         0.00000E+00
    0.00000E+00         0.00000E+00        -0.77039E+08
 
   -0.76637E+08         0.10095E+07         0.00000E+00
    0.10095E+07        -0.97591E+08         0.00000E+00
    0.00000E+00         0.00000E+00        -0.76825E+08
 
   -0.76433E+08         0.10106E+07         0.00000E+00
    0.10106E+07        -0.97591E+08         0.00000E+00
    0.00000E+00         0.00000E+00        -0.76610E+08
 
   -0.76229E+08         0.10111E+07         0.00000E+00
    0.10111E+07        -0.97593E+08         0.00000E+00
    0.00000E+00         0.00000E+00        -0.76393E+08
 
   -0.76026E+08         0.10109E+07         0.00000E+00
    0.10109E+07        -0.97596E+08         0.00000E+00
    0.00000E+00         0.00000E+00        -0.76175E+08
 
   -0.75824E+08         0.10096E+07         0.00000E+00
    0.10096E+07        -0.97601E+08         0.00000E+00
    0.00000E+00         0.00000E+00        -0.75955E+08
 
   -0.75622E+08         0.10073E+07         0.00000E+00
    0.10073E+07        -0.97608E+08         0.00000E+00
    0.00000E+00         0.00000E+00        -0.75733E+08
 
   -0.75421E+08         0.10045E+07         0.00000E+00
    0.10045E+07        -0.97618E+08         0.00000E+00
    0.00000E+00         0.00000E+00        -0.75509E+08
 
   -0.75221E+08         0.10026E+07         0.00000E+00
    0.10026E+07        -0.97630E+08         0.00000E+00
    0.00000E+00         0.00000E+00        -0.75287E+08
 
   -0.75019E+08         0.99399E+06         0.00000E+00
    0.99399E+06        -0.97628E+08         0.00000E+00
    0.00000E+00         0.00000E+00        -0.75082E+08
 
   -0.74818E+08         0.98493E+06         0.00000E+00
    0.98493E+06        -0.97621E+08         0.00000E+00
    0.00000E+00         0.00000E+00        -0.74887E+08
 
   -0.74619E+08         0.97682E+06         0.00000E+00
    0.97682E+06        -0.97615E+08         0.00000E+00
    0.00000E+00         0.00000E+00        -0.74691E+08
 
   -0.74422E+08         0.96986E+06         0.00000E+00
    0.96986E+06        -0.97612E+08         0.00000E+00
    0.00000E+00         0.00000E+00        -0.74495E+08
 
   -0.74226E+08         0.96353E+06         0.00000E+00
    0.96353E+06        -0.97610E+08         0.00000E+00
    0.00000E+00         0.00000E+00        -0.74297E+08
 
   -0.74032E+08         0.95742E+06         0.00000E+00
    0.95742E+06        -0.97611E+08         0.00000E+00
    0.00000E+00         0.00000E+00        -0.74100E+08
 
   -0.73840E+08         0.95129E+06         0.00000E+00
    0.95129E+06        -0.97613E+08         0.00000E+00
    0.00000E+00         0.00000E+00        -0.73901E+08
 
   -0.73650E+08         0.94508E+06         0.00000E+00
    0.94508E+06        -0.97618E+08         0.00000E+00
    0.00000E+00         0.00000E+00        -0.73703E+08
 
   -0.73461E+08         0.93885E+06         0.00000E+00
    0.93885E+06        -0.97624E+08         0.00000E+00
    0.00000E+00         0.00000E+00        -0.73504E+08
 
   -0.73273E+08         0.93173E+06         0.00000E+00
    0.93173E+06        -0.97626E+08         0.00000E+00
    0.00000E+00         0.00000E+00        -0.73311E+08
 
   -0.73086E+08         0.92289E+06         0.00000E+00
    0.92289E+06        -0.97620E+08         0.00000E+00
    0.00000E+00         0.00000E+00        -0.73131E+08
 
   -0.72901E+08         0.91504E+06         0.00000E+00
    0.91504E+06        -0.97616E+08         0.00000E+00
    0.00000E+00         0.00000E+00        -0.72950E+08
 
   -0.72718E+08         0.90801E+06         0.00000E+00
    0.90801E+06        -0.97613E+08         0.00000E+00
    0.00000E+00         0.00000E+00        -0.72768E+08
 
   -0.72536E+08         0.90151E+06         0.00000E+00
    0.90151E+06        -0.97612E+08         0.00000E+00
    0.00000E+00         0.00000E+00        -0.72587E+08
 
   -0.72356E+08         0.89531E+06         0.00000E+00
    0.89531E+06        -0.97613E+08         0.00000E+00
    0.00000E+00         0.00000E+00        -0.72406E+08
 
   -0.72177E+08         0.88930E+06         0.00000E+00
    0.88930E+06        -0.97614E+08         0.00000E+00
    0.00000E+00         0.00000E+00        -0.72224E+08
 
   -0.72000E+08         0.88346E+06         0.00000E+00
    0.88346E+06        -0.97617E+08         0.00000E+00
    0.00000E+00         0.00000E+00        -0.72043E+08
 
   -0.71824E+08         0.87780E+06         0.00000E+00
    0.87780E+06        -0.97620E+08         0.00000E+00
    0.00000E+00         0.00000E+00        -0.71862E+08
 
   -0.71649E+08         0.87143E+06         0.00000E+00
    0.87143E+06        -0.97617E+08         0.00000E+00
    0.00000E+00         0.00000E+00        -0.71689E+08
 
   -0.71475E+08         0.86547E+06         0.00000E+00
    0.86547E+06        -0.97614E+08         0.00000E+00
    0.00000E+00         0.00000E+00        -0.71517E+08
 
   -0.71302E+08         0.86000E+06         0.00000E+00
    0.86000E+06        -0.97612E+08         0.00000E+00
    0.00000E+00         0.00000E+00        -0.71345E+08
 
   -0.71130E+08         0.85496E+06         0.00000E+00
    0.85496E+06        -0.97611E+08         0.00000E+00
    0.00000E+00         0.00000E+00        -0.71173E+08
 
   -0.70959E+08         0.85030E+06         0.00000E+00
    0.85030E+06        -0.97610E+08         0.00000E+00
    0.00000E+00         0.00000E+00        -0.71000E+08
 
   -0.70789E+08         0.84593E+06         0.00000E+00
    0.84593E+06        -0.97610E+08         0.00000E+00
    0.00000E+00         0.00000E+00        -0.70828E+08
 
   -0.70620E+08         0.84175E+06         0.00000E+00
    0.84175E+06        -0.97610E+08         0.00000E+00
    0.00000E+00         0.00000E+00        -0.70656E+08
 
   -0.70452E+08         0.83770E+06         0.00000E+00
    0.83770E+06        -0.97610E+08         0.00000E+00
    0.00000E+00         0.00000E+00        -0.70484E+08
 
   -0.70285E+08         0.83370E+06         0.00000E+00
    0.83370E+06        -0.97610E+08         0.00000E+00
    0.00000E+00         0.00000E+00        -0.70312E+08
 
   -0.70120E+08         0.82966E+06         0.00000E+00
    0.82966E+06        -0.97609E+08         0.00000E+00
    0.00000E+00         0.00000E+00        -0.70141E+08
 
   -0.69958E+08         0.82540E+06         0.00000E+00
    0.82540E+06        -0.97605E+08         0.00000E+00
    0.00000E+00         0.00000E+00        -0.69973E+08
 
   -0.69797E+08         0.82106E+06         0.00000E+00
    0.82106E+06        -0.97601E+08         0.00000E+00
    0.00000E+00         0.00000E+00        -0.69805E+08
 
   -0.69636E+08         0.81661E+06         0.00000E+00
    0.81661E+06        -0.97598E+08         0.00000E+00
    0.00000E+00         0.00000E+00        -0.69637E+08
 
   -0.69477E+08         0.81202E+06         0.00000E+00
    0.81202E+06        -0.97594E+08         0.00000E+00
    0.00000E+00         0.00000E+00        -0.69469E+08
 
   -0.69318E+08         0.80725E+06         0.00000E+00
    0.80725E+06        -0.97591E+08         0.00000E+00
    0.00000E+00         0.00000E+00        -0.69300E+08
 
   -0.69159E+08         0.80225E+06         0.00000E+00
    0.80225E+06        -0.97588E+08         0.00000E+00
    0.00000E+00         0.00000E+00        -0.69131E+08
 
   -0.69001E+08         0.79696E+06         0.00000E+00
    0.79696E+06        -0.97585E+08         0.00000E+00
    0.00000E+00         0.00000E+00        -0.68962E+08
 
   -0.68845E+08         0.79132E+06         0.00000E+00
    0.79132E+06        -0.97582E+08         0.00000E+00
    0.00000E+00         0.00000E+00        -0.68793E+08
 
   -0.68689E+08         0.78525E+06         0.00000E+00
    0.78525E+06        -0.97580E+08         0.00000E+00
    0.00000E+00         0.00000E+00        -0.68623E+08
 
   -0.68533E+08         0.77864E+06         0.00000E+00
    0.77864E+06        -0.97579E+08         0.00000E+00
    0.00000E+00         0.00000E+00        -0.68453E+08
 
   -0.68380E+08         0.77137E+06         0.00000E+00
    0.77137E+06        -0.97578E+08         0.00000E+00
    0.00000E+00         0.00000E+00        -0.68282E+08
 
   -0.68227E+08         0.76328E+06         0.00000E+00
    0.76328E+06        -0.97577E+08         0.00000E+00
    0.00000E+00         0.00000E+00        -0.68111E+08
 
   -0.68076E+08         0.75417E+06         0.00000E+00
    0.75417E+06        -0.97578E+08         0.00000E+00
    0.00000E+00         0.00000E+00        -0.67940E+08
 
   -0.67926E+08         0.74381E+06         0.00000E+00
    0.74381E+06        -0.97579E+08         0.00000E+00
    0.00000E+00         0.00000E+00        -0.67768E+08
 
   -0.67779E+08         0.73192E+06         0.00000E+00
    0.73192E+06        -0.97582E+08         0.00000E+00
    0.00000E+00         0.00000E+00        -0.67595E+08
 
   -0.67634E+08         0.71814E+06         0.00000E+00
    0.71814E+06        -0.97586E+08         0.00000E+00
    0.00000E+00         0.00000E+00        -0.67422E+08
 
   -0.67491E+08         0.70211E+06         0.00000E+00
    0.70211E+06        -0.97593E+08         0.00000E+00
    0.00000E+00         0.00000E+00        -0.67248E+08
 
   -0.67350E+08         0.68337E+06         0.00000E+00
    0.68337E+06        -0.97601E+08         0.00000E+00
    0.00000E+00         0.00000E+00        -0.67073E+08
 
   -0.67213E+08         0.66144E+06         0.00000E+00
    0.66144E+06        -0.97611E+08         0.00000E+00
    0.00000E+00         0.00000E+00        -0.66898E+08
 
   -0.67079E+08         0.63578E+06         0.00000E+00
    0.63578E+06        -0.97623E+08         0.00000E+00
    0.00000E+00         0.00000E+00        -0.66722E+08
 
   -0.66947E+08         0.60587E+06         0.00000E+00
    0.60587E+06        -0.97638E+08         0.00000E+00
    0.00000E+00         0.00000E+00        -0.66545E+08
 
   -0.66820E+08         0.57113E+06         0.00000E+00
    0.57113E+06        -0.97654E+08         0.00000E+00
    0.00000E+00         0.00000E+00        -0.66367E+08
 
   -0.66696E+08         0.53106E+06         0.00000E+00
    0.53106E+06        -0.97672E+08         0.00000E+00
    0.00000E+00         0.00000E+00        -0.66187E+08
 
   -0.66575E+08         0.48520E+06         0.00000E+00
    0.48520E+06        -0.97691E+08         0.00000E+00
    0.00000E+00         0.00000E+00        -0.66003E+08
 
   -0.66459E+08         0.43328E+06         0.00000E+00
    0.43328E+06        -0.97708E+08         0.00000E+00
    0.00000E+00         0.00000E+00        -0.65815E+08
 
   -0.66347E+08         0.37540E+06         0.00000E+00
    0.37540E+06        -0.97723E+08         0.00000E+00
    0.00000E+00         0.00000E+00        -0.65620E+08
 
   -0.66240E+08         0.31241E+06         0.00000E+00
    0.31241E+06        -0.97733E+08         0.00000E+00
    0.00000E+00         0.00000E+00        -0.65415E+08
 
   -0.66141E+08         0.24653E+06         0.00000E+00
    0.24653E+06        -0.97734E+08         0.00000E+00
    0.00000E+00         0.00000E+00        -0.65196E+08
 
   -0.66050E+08         0.18177E+06         0.00000E+00
    0.18177E+06        -0.97724E+08         0.00000E+00
    0.00000E+00         0.00000E+00        -0.64958E+08
 
   -0.65972E+08         0.12334E+06         0.00000E+00
    0.12334E+06        -0.97700E+08         0.00000E+00
    0.00000E+00         0.00000E+00        -0.64695E+08
 
   -0.65910E+08         0.75664E+05         0.00000E+00
    0.75664E+05        -0.97660E+08         0.00000E+00
    0.00000E+00         0.00000E+00        -0.64403E+08
 
   -0.65867E+08         0.39877E+05         0.00000E+00
    0.39877E+05        -0.97603E+08         0.00000E+00
    0.00000E+00         0.00000E+00        -0.64079E+08
 
   -0.65844E+08         0.12407E+05         0.00000E+00
    0.12407E+05        -0.97528E+08         0.00000E+00
    0.00000E+00         0.00000E+00        -0.63722E+08
 
   -0.81506E+08         0.19237E+04         0.00000E+00
    0.19237E+04        -0.97620E+08         0.00000E+00
    0.00000E+00         0.00000E+00        -0.84739E+08
 
   -0.81468E+08         0.23163E+05         0.00000E+00
    0.23163E+05        -0.97549E+08         0.00000E+00
    0.00000E+00         0.00000E+00        -0.84212E+08
 
   -0.81385E+08         0.86266E+05         0.00000E+00
    0.86266E+05        -0.97452E+08         0.00000E+00
    0.00000E+00         0.00000E+00        -0.83765E+08
 
   -0.81302E+08         0.15140E+06         0.00000E+00
    0.15140E+06        -0.97375E+08         0.00000E+00
    0.00000E+00         0.00000E+00        -0.83387E+08
 
   -0.81224E+08         0.22693E+06         0.00000E+00
    0.22693E+06        -0.97350E+08         0.00000E+00
    0.00000E+00         0.00000E+00        -0.83032E+08
 
   -0.81144E+08         0.31488E+06         0.00000E+00
    0.31488E+06        -0.97361E+08         0.00000E+00
    0.00000E+00         0.00000E+00        -0.82697E+08
 
   -0.81038E+08         0.40154E+06         0.00000E+00
    0.40154E+06        -0.97425E+08         0.00000E+00
    0.00000E+00         0.00000E+00        -0.82378E+08
 
   -0.80933E+08         0.46997E+06         0.00000E+00
    0.46997E+06        -0.97472E+08         0.00000E+00
    0.00000E+00         0.00000E+00        -0.82116E+08
 
   -0.80809E+08         0.52716E+06         0.00000E+00
    0.52716E+06        -0.97488E+08         0.00000E+00
    0.00000E+00         0.00000E+00        -0.81874E+08
 
   -0.80674E+08         0.57859E+06         0.00000E+00
    0.57859E+06        -0.97486E+08         0.00000E+00
    0.00000E+00         0.00000E+00        -0.81645E+08
 
   -0.80531E+08         0.62999E+06         0.00000E+00
    0.62999E+06        -0.97479E+08         0.00000E+00
    0.00000E+00         0.00000E+00        -0.81424E+08
 
   -0.80379E+08         0.67965E+06         0.00000E+00
    0.67965E+06        -0.97476E+08         0.00000E+00
    0.00000E+00         0.00000E+00        -0.81209E+08
 
   -0.80220E+08         0.72560E+06         0.00000E+00
    0.72560E+06        -0.97479E+08         0.00000E+00
    0.00000E+00         0.00000E+00        -0.80996E+08
 
   -0.80057E+08         0.76702E+06         0.00000E+00
    0.76702E+06        -0.97486E+08         0.00000E+00
    0.00000E+00         0.00000E+00        -0.80784E+08
 
   -0.79890E+08         0.80384E+06         0.00000E+00
    0.80384E+06        -0.97497E+08         0.00000E+00
    0.00000E+00         0.00000E+00        -0.80570E+08
 
   -0.79719E+08         0.83643E+06         0.00000E+00
    0.83643E+06        -0.97508E+08         0.00000E+00
    0.00000E+00         0.00000E+00        -0.80355E+08
 
   -0.79546E+08         0.86516E+06         0.00000E+00
    0.86516E+06        -0.97519E+08         0.00000E+00
    0.00000E+00         0.00000E+00        -0.80136E+08
 
   -0.79369E+08         0.89028E+06         0.00000E+00
    0.89028E+06        -0.97530E+08         0.00000E+00
    0.00000E+00         0.00000E+00        -0.79915E+08
 
   -0.79189E+08         0.91194E+06         0.00000E+00
    0.91194E+06        -0.97541E+08         0.00000E+00
    0.00000E+00         0.00000E+00        -0.79690E+08
 
   -0.79007E+08         0.93014E+06         0.00000E+00
    0.93014E+06        -0.97551E+08         0.00000E+00
    0.00000E+00         0.00000E+00        -0.79461E+08
 
   -0.78821E+08         0.94488E+06         0.00000E+00
    0.94488E+06        -0.97562E+08         0.00000E+00
    0.00000E+00         0.00000E+00        -0.79228E+08
 
   -0.78633E+08         0.95621E+06         0.00000E+00
    0.95621E+06        -0.97574E+08         0.00000E+00
    0.00000E+00         0.00000E+00        -0.78992E+08
 
   -0.78442E+08         0.96459E+06         0.00000E+00
    0.96459E+06        -0.97590E+08         0.00000E+00
    0.00000E+00         0.00000E+00        -0.78752E+08
 
   -0.78248E+08         0.97116E+06         0.00000E+00
    0.97116E+06        -0.97612E+08         0.00000E+00
    0.00000E+00         0.00000E+00        -0.78508E+08
 
   -0.78050E+08         0.97668E+06         0.00000E+00
    0.97668E+06        -0.97629E+08         0.00000E+00
    0.00000E+00         0.00000E+00        -0.78274E+08
 
   -0.77848E+08         0.97213E+06         0.00000E+00
    0.97213E+06        -0.97622E+08         0.00000E+00
    0.00000E+00         0.00000E+00        -0.78065E+08
 
   -0.77644E+08         0.96847E+06         0.00000E+00
    0.96847E+06        -0.97611E+08         0.00000E+00
    0.00000E+00         0.00000E+00        -0.77863E+08
 
   -0.77440E+08         0.96630E+06         0.00000E+00
    0.96630E+06        -0.97603E+08         0.00000E+00
    0.00000E+00         0.00000E+00        -0.77658E+08
 
   -0.77235E+08         0.96560E+06         0.00000E+00
    0.96560E+06        -0.97598E+08         0.00000E+00
    0.00000E+00         0.00000E+00        -0.77450E+08
 
   -0.77031E+08         0.96608E+06         0.00000E+00
    0.96608E+06        -0.97594E+08         0.00000E+00
    0.00000E+00         0.00000E+00        -0.77241E+08
 
   -0.76826E+08         0.96725E+06         0.00000E+00
    0.96725E+06        -0.97592E+08         0.00000E+00
    0.00000E+00         0.00000E+00        -0.77030E+08
 
   -0.76622E+08         0.96865E+06         0.00000E+00
    0.96865E+06        -0.97591E+08         0.00000E+00
    0.00000E+00         0.00000E+00        -0.76817E+08
 
   -0.76419E+08         0.96988E+06         0.00000E+00
    0.96988E+06        -0.97592E+08         0.00000E+00
    0.00000E+00         0.00000E+00        -0.76602E+08
 
   -0.76216E+08         0.97058E+06         0.00000E+00
    0.97058E+06        -0.97593E+08         0.00000E+00
    0.00000E+00         0.00000E+00        -0.76386E+08
 
   -0.76014E+08         0.97044E+06         0.00000E+00
    0.97044E+06        -0.97596E+08         0.00000E+00
    0.00000E+00         0.00000E+00        -0.76167E+08
 
   -0.75812E+08         0.96928E+06         0.00000E+00
    0.96928E+06        -0.97600E+08         0.00000E+00
    0.00000E+00         0.00000E+00        -0.75947E+08
 
   -0.75611E+08         0.96710E+06         0.00000E+00
    0.96710E+06        -0.97607E+08         0.00000E+00
    0.00000E+00         0.00000E+00        -0.75726E+08
 
   -0.75411E+08         0.96442E+06         0.00000E+00
    0.96442E+06        -0.97617E+08         0.00000E+00
    0.00000E+00         0.00000E+00        -0.75503E+08
 
   -0.75210E+08         0.96249E+06         0.00000E+00
    0.96249E+06        -0.97629E+08         0.00000E+00
    0.00000E+00         0.00000E+00        -0.75281E+08
 
   -0.75009E+08         0.95366E+06         0.00000E+00
    0.95366E+06        -0.97626E+08         0.00000E+00
    0.00000E+00         0.00000E+00        -0.75077E+08
 
   -0.74809E+08         0.94494E+06         0.00000E+00
    0.94494E+06        -0.97619E+08         0.00000E+00
    0.00000E+00         0.00000E+00        -0.74882E+08
 
   -0.74610E+08         0.93722E+06         0.00000E+00
    0.93722E+06        -0.97614E+08         0.00000E+00
    0.00000E+00         0.00000E+00        -0.74687E+08
 
   -0.74413E+08         0.93061E+06         0.00000E+00
    0.93061E+06        -0.97611E+08         0.00000E+00
    0.00000E+00         0.00000E+00        -0.74490E+08
 
   -0.74218E+08         0.92464E+06         0.00000E+00
    0.92464E+06        -0.97609E+08         0.00000E+00
    0.00000E+00         0.00000E+00        -0.74293E+08
 
   -0.74025E+08         0.91889E+06         0.00000E+00
    0.91889E+06        -0.97610E+08         0.00000E+00
    0.00000E+00         0.00000E+00        -0.74096E+08
 
   -0.73833E+08         0.91310E+06         0.00000E+00
    0.91310E+06        -0.97612E+08         0.00000E+00
    0.00000E+00         0.00000E+00        -0.73898E+08
 
   -0.73643E+08         0.90718E+06         0.00000E+00
    0.90718E+06        -0.97616E+08         0.00000E+00
    0.00000E+00         0.00000E+00        -0.73699E+08
 
   -0.73455E+08         0.90126E+06         0.00000E+00
    0.90126E+06        -0.97623E+08         0.00000E+00
    0.00000E+00         0.00000E+00        -0.73500E+08
 
   -0.73267E+08         0.89420E+06         0.00000E+00
    0.89420E+06        -0.97625E+08         0.00000E+00
    0.00000E+00         0.00000E+00        -0.73309E+08
 
   -0.73081E+08         0.88573E+06         0.00000E+00
    0.88573E+06        -0.97619E+08         0.00000E+00
    0.00000E+00         0.00000E+00        -0.73128E+08
 
   -0.72896E+08         0.87821E+06         0.00000E+00
    0.87821E+06        -0.97615E+08         0.00000E+00
    0.00000E+00         0.00000E+00        -0.72947E+08
 
   -0.72713E+08         0.87152E+06         0.00000E+00
    0.87152E+06        -0.97612E+08         0.00000E+00
    0.00000E+00         0.00000E+00        -0.72766E+08
 
   -0.72531E+08         0.86535E+06         0.00000E+00
    0.86535E+06        -0.97611E+08         0.00000E+00
    0.00000E+00         0.00000E+00        -0.72585E+08
 
   -0.72351E+08         0.85948E+06         0.00000E+00
    0.85948E+06        -0.97611E+08         0.00000E+00
    0.00000E+00         0.00000E+00        -0.72403E+08
 
   -0.72173E+08         0.85375E+06         0.00000E+00
    0.85375E+06        -0.97613E+08         0.00000E+00
    0.00000E+00         0.00000E+00        -0.72222E+08
 
   -0.71996E+08         0.84816E+06         0.00000E+00
    0.84816E+06        -0.97616E+08         0.00000E+00
    0.00000E+00         0.00000E+00        -0.72040E+08
 
   -0.71820E+08         0.84269E+06         0.00000E+00
    0.84269E+06        -0.97618E+08         0.00000E+00
    0.00000E+00         0.00000E+00        -0.71860E+08
 
   -0.71645E+08         0.83653E+06         0.00000E+00
    0.83653E+06        -0.97616E+08         0.00000E+00
    0.00000E+00         0.00000E+00        -0.71686E+08
 
   -0.71471E+08         0.83078E+06         0.00000E+00
    0.83078E+06        -0.97613E+08         0.00000E+00
    0.00000E+00         0.00000E+00        -0.71514E+08
 
   -0.71298E+08         0.82552E+06         0.00000E+00
    0.82552E+06        -0.97611E+08         0.00000E+00
    0.00000E+00         0.00000E+00        -0.71342E+08
 
   -0.71127E+08         0.82071E+06         0.00000E+00
    0.82071E+06        -0.97610E+08         0.00000E+00
    0.00000E+00         0.00000E+00        -0.71170E+08
 
   -0.70956E+08         0.81626E+06         0.00000E+00
    0.81626E+06        -0.97610E+08         0.00000E+00
    0.00000E+00         0.00000E+00        -0.70998E+08
 
   -0.70786E+08         0.81207E+06         0.00000E+00
    0.81207E+06        -0.97609E+08         0.00000E+00
    0.00000E+00         0.00000E+00        -0.70826E+08
 
   -0.70618E+08         0.80807E+06         0.00000E+00
    0.80807E+06        -0.97609E+08         0.00000E+00
    0.00000E+00         0.00000E+00        -0.70653E+08
 
   -0.70450E+08         0.80419E+06         0.00000E+00
    0.80419E+06        -0.97609E+08         0.00000E+00
    0.00000E+00         0.00000E+00        -0.70481E+08
 
   -0.70283E+08         0.80035E+06         0.00000E+00
    0.80035E+06        -0.97609E+08         0.00000E+00
    0.00000E+00         0.00000E+00        -0.70309E+08
 
   -0.70118E+08         0.79645E+06         0.00000E+00
    0.79645E+06        -0.97608E+08         0.00000E+00
    0.00000E+00         0.00000E+00        -0.70138E+08
 
   -0.69956E+08         0.79235E+06         0.00000E+00
    0.79235E+06        -0.97605E+08         0.00000E+00
    0.00000E+00         0.00000E+00        -0.69970E+08
 
   -0.69795E+08         0.78817E+06         0.00000E+00
    0.78817E+06        -0.97601E+08         0.00000E+00
    0.00000E+00         0.00000E+00        -0.69802E+08
 
   -0.69635E+08         0.78388E+06         0.00000E+00
    0.78388E+06        -0.97597E+08         0.00000E+00
    0.00000E+00         0.00000E+00        -0.69633E+08
 
   -0.69476E+08         0.77945E+06         0.00000E+00
    0.77945E+06        -0.97593E+08         0.00000E+00
    0.00000E+00         0.00000E+00        -0.69465E+08
 
   -0.69317E+08         0.77484E+06         0.00000E+00
    0.77484E+06        -0.97590E+08         0.00000E+00
    0.00000E+00         0.00000E+00        -0.69296E+08
 
   -0.69159E+08         0.77002E+06         0.00000E+00
    0.77002E+06        -0.97587E+08         0.00000E+00
    0.00000E+00         0.00000E+00        -0.69127E+08
 
   -0.69001E+08         0.76493E+06         0.00000E+00
    0.76493E+06        -0.97584E+08         0.00000E+00
    0.00000E+00         0.00000E+00        -0.68958E+08
 
   -0.68845E+08         0.75950E+06         0.00000E+00
    0.75950E+06        -0.97581E+08         0.00000E+00
    0.00000E+00         0.00000E+00        -0.68788E+08
 
   -0.68689E+08         0.75366E+06         0.00000E+00
    0.75366E+06        -0.97579E+08         0.00000E+00
    0.00000E+00         0.00000E+00        -0.68618E+08
 
   -0.68534E+08         0.74731E+06         0.00000E+00
    0.74731E+06        -0.97577E+08         0.00000E+00
    0.00000E+00         0.00000E+00        -0.68448E+08
 
   -0.68380E+08         0.74032E+06         0.00000E+00
    0.74032E+06        -0.97576E+08         0.00000E+00
    0.00000E+00         0.00000E+00        -0.68277E+08
 
   -0.68228E+08         0.73256E+06         0.00000E+00
    0.73256E+06        -0.97576E+08         0.00000E+00
    0.00000E+00         0.00000E+00        -0.68105E+08
 
   -0.68077E+08         0.72381E+06         0.00000E+00
    0.72381E+06        -0.97576E+08         0.00000E+00
    0.00000E+00         0.00000E+00        -0.67933E+08
 
   -0.67928E+08         0.71386E+06         0.00000E+00
    0.71386E+06        -0.97577E+08         0.00000E+00
    0.00000E+00         0.00000E+00        -0.67761E+08
 
   -0.67781E+08         0.70242E+06         0.00000E+00
    0.70242E+06        -0.97580E+08         0.00000E+00
    0.00000E+00         0.00000E+00        -0.67587E+08
 
   -0.67636E+08         0.68915E+06         0.00000E+00
    0.68915E+06        -0.97584E+08         0.00000E+00
    0.00000E+00         0.00000E+00        -0.67413E+08
 
   -0.67493E+08         0.67367E+06         0.00000E+00
    0.67367E+06        -0.97589E+08         0.00000E+00
    0.00000E+00         0.00000E+00        -0.67239E+08
 
   -0.67353E+08         0.65554E+06         0.00000E+00
    0.65554E+06        -0.97597E+08         0.00000E+00
    0.00000E+00         0.00000E+00        -0.67063E+08
 
   -0.67216E+08         0.63426E+06         0.00000E+00
    0.63426E+06        -0.97606E+08         0.00000E+00
    0.00000E+00         0.00000E+00        -0.66887E+08
 
   -0.67083E+08         0.60931E+06         0.00000E+00
    0.60931E+06        -0.97618E+08         0.00000E+00
    0.00000E+00         0.00000E+00        -0.66710E+08
 
   -0.66952E+08         0.58013E+06         0.00000E+00
    0.58013E+06        -0.97631E+08         0.00000E+00
    0.00000E+00         0.00000E+00        -0.66532E+08
 
   -0.66825E+08         0.54617E+06         0.00000E+00
    0.54617E+06        -0.97647E+08         0.00000E+00
    0.00000E+00         0.00000E+00        -0.66352E+08
 
   -0.66702E+08         0.50692E+06         0.00000E+00
    0.50692E+06        -0.97664E+08         0.00000E+00
    0.00000E+00         0.00000E+00        -0.66170E+08
 
   -0.66583E+08         0.46195E+06         0.00000E+00
    0.46195E+06        -0.97681E+08         0.00000E+00
    0.00000E+00         0.00000E+00        -0.65984E+08
 
   -0.66468E+08         0.41102E+06         0.00000E+00
    0.41102E+06        -0.97698E+08         0.00000E+00
    0.00000E+00         0.00000E+00        -0.65793E+08
 
   -0.66359E+08         0.35428E+06         0.00000E+00
    0.35428E+06        -0.97711E+08         0.00000E+00
    0.00000E+00         0.00000E+00        -0.65596E+08
 
   -0.66255E+08         0.29266E+06         0.00000E+00
    0.29266E+06        -0.97720E+08         0.00000E+00
    0.00000E+00         0.00000E+00        -0.65388E+08
 
   -0.66159E+08         0.22851E+06         0.00000E+00
    0.22851E+06        -0.97722E+08         0.00000E+00
    0.00000E+00         0.00000E+00        -0.65166E+08
 
   -0.66072E+08         0.16595E+06         0.00000E+00
    0.16595E+06        -0.97713E+08         0.00000E+00
    0.00000E+00         0.00000E+00        -0.64926E+08
 
   -0.65997E+08         0.11031E+06         0.00000E+00
    0.11031E+06        -0.97691E+08         0.00000E+00
    0.00000E+00         0.00000E+00        -0.64662E+08
 
   -0.65938E+08         0.65950E+05         0.00000E+00
    0.65950E+05        -0.97654E+08         0.00000E+00
    0.00000E+00         0.00000E+00        -0.64371E+08
 
   -0.65896E+08         0.33883E+05         0.00000E+00
    0.33883E+05        -0.97599E+08         0.00000E+00
    0.00000E+00         0.00000E+00        -0.64048E+08
 
   -0.65874E+08         0.10380E+05         0.00000E+00
    0.10380E+05        -0.97524E+08         0.00000E+00
    0.00000E+00         0.00000E+00        -0.63692E+08
 
   -0.81446E+08        -0.12171E+04         0.00000E+00
   -0.12171E+04        -0.97622E+08         0.00000E+00
    0.00000E+00         0.00000E+00        -0.84773E+08
 
   -0.81413E+08         0.12839E+05         0.00000E+00
    0.12839E+05        -0.97548E+08         0.00000E+00
    0.00000E+00         0.00000E+00        -0.84250E+08
 
   -0.81329E+08         0.67185E+05         0.00000E+00
    0.67185E+05        -0.97460E+08         0.00000E+00
    0.00000E+00         0.00000E+00        -0.83790E+08
 
   -0.81254E+08         0.13662E+06         0.00000E+00
    0.13662E+06        -0.97390E+08         0.00000E+00
    0.00000E+00         0.00000E+00        -0.83409E+08
 
   -0.81178E+08         0.21100E+06         0.00000E+00
    0.21100E+06        -0.97364E+08         0.00000E+00
    0.00000E+00         0.00000E+00        -0.83054E+08
 
   -0.81097E+08         0.29800E+06         0.00000E+00
    0.29800E+06        -0.97389E+08         0.00000E+00
    0.00000E+00         0.00000E+00        -0.82717E+08
 
   -0.81009E+08         0.37985E+06         0.00000E+00
    0.37985E+06        -0.97443E+08         0.00000E+00
    0.00000E+00         0.00000E+00        -0.82413E+08
 
   -0.80905E+08         0.44795E+06         0.00000E+00
    0.44795E+06        -0.97483E+08         0.00000E+00
    0.00000E+00         0.00000E+00        -0.82147E+08
 
   -0.80785E+08         0.50140E+06         0.00000E+00
    0.50140E+06        -0.97499E+08         0.00000E+00
    0.00000E+00         0.00000E+00        -0.81899E+08
 
   -0.80654E+08         0.55118E+06         0.00000E+00
    0.55118E+06        -0.97496E+08         0.00000E+00
    0.00000E+00         0.00000E+00        -0.81664E+08
 
   -0.80513E+08         0.60056E+06         0.00000E+00
    0.60056E+06        -0.97490E+08         0.00000E+00
    0.00000E+00         0.00000E+00        -0.81439E+08
 
   -0.80362E+08         0.64863E+06         0.00000E+00
    0.64863E+06        -0.97486E+08         0.00000E+00
    0.00000E+00         0.00000E+00        -0.81219E+08
 
   -0.80205E+08         0.69339E+06         0.00000E+00
    0.69339E+06        -0.97488E+08         0.00000E+00
    0.00000E+00         0.00000E+00        -0.81002E+08
 
   -0.80041E+08         0.73391E+06         0.00000E+00
    0.73391E+06        -0.97494E+08         0.00000E+00
    0.00000E+00         0.00000E+00        -0.80786E+08
 
   -0.79874E+08         0.77003E+06         0.00000E+00
    0.77003E+06        -0.97503E+08         0.00000E+00
    0.00000E+00         0.00000E+00        -0.80569E+08
 
   -0.79703E+08         0.80197E+06         0.00000E+00
    0.80197E+06        -0.97514E+08         0.00000E+00
    0.00000E+00         0.00000E+00        -0.80351E+08
 
   -0.79529E+08         0.83008E+06         0.00000E+00
    0.83008E+06        -0.97525E+08         0.00000E+00
    0.00000E+00         0.00000E+00        -0.80131E+08
 
   -0.79352E+08         0.85460E+06         0.00000E+00
    0.85460E+06        -0.97535E+08         0.00000E+00
    0.00000E+00         0.00000E+00        -0.79908E+08
 
   -0.79172E+08         0.87568E+06         0.00000E+00
    0.87568E+06        -0.97545E+08         0.00000E+00
    0.00000E+00         0.00000E+00        -0.79681E+08
 
   -0.78989E+08         0.89333E+06         0.00000E+00
    0.89333E+06        -0.97554E+08         0.00000E+00
    0.00000E+00         0.00000E+00        -0.79451E+08
 
   -0.78804E+08         0.90754E+06         0.00000E+00
    0.90754E+06        -0.97564E+08         0.00000E+00
    0.00000E+00         0.00000E+00        -0.79218E+08
 
   -0.78616E+08         0.91834E+06         0.00000E+00
    0.91834E+06        -0.97576E+08         0.00000E+00
    0.00000E+00         0.00000E+00        -0.78981E+08
 
   -0.78425E+08         0.92616E+06         0.00000E+00
    0.92616E+06        -0.97591E+08         0.00000E+00
    0.00000E+00         0.00000E+00        -0.78741E+08
 
   -0.78231E+08         0.93200E+06         0.00000E+00
    0.93200E+06        -0.97613E+08         0.00000E+00
    0.00000E+00         0.00000E+00        -0.78497E+08
 
   -0.78033E+08         0.93655E+06         0.00000E+00
    0.93655E+06        -0.97629E+08         0.00000E+00
    0.00000E+00         0.00000E+00        -0.78265E+08
 
   -0.77831E+08         0.93155E+06         0.00000E+00
    0.93155E+06        -0.97621E+08         0.00000E+00
    0.00000E+00         0.00000E+00        -0.78057E+08
 
   -0.77628E+08         0.92765E+06         0.00000E+00
    0.92765E+06        -0.97611E+08         0.00000E+00
    0.00000E+00         0.00000E+00        -0.77854E+08
 
   -0.77424E+08         0.92541E+06         0.00000E+00
    0.92541E+06        -0.97603E+08         0.00000E+00
    0.00000E+00         0.00000E+00        -0.77649E+08
 
   -0.77220E+08         0.92471E+06         0.00000E+00
    0.92471E+06        -0.97598E+08         0.00000E+00
    0.00000E+00         0.00000E+00        -0.77442E+08
 
   -0.77015E+08         0.92522E+06         0.00000E+00
    0.92522E+06        -0.97594E+08         0.00000E+00
    0.00000E+00         0.00000E+00        -0.77233E+08
 
   -0.76812E+08         0.92646E+06         0.00000E+00
    0.92646E+06        -0.97592E+08         0.00000E+00
    0.00000E+00         0.00000E+00        -0.77022E+08
 
   -0.76608E+08         0.92795E+06         0.00000E+00
    0.92795E+06        -0.97591E+08         0.00000E+00
    0.00000E+00         0.00000E+00        -0.76809E+08
 
   -0.76405E+08         0.92929E+06         0.00000E+00
    0.92929E+06        -0.97592E+08         0.00000E+00
    0.00000E+00         0.00000E+00        -0.76594E+08
 
   -0.76203E+08         0.93013E+06         0.00000E+00
    0.93013E+06        -0.97593E+08         0.00000E+00
    0.00000E+00         0.00000E+00        -0.76378E+08
 
   -0.76001E+08         0.93013E+06         0.00000E+00
    0.93013E+06        -0.97596E+08         0.00000E+00
    0.00000E+00         0.00000E+00        -0.76160E+08
 
   -0.75800E+08         0.92910E+06         0.00000E+00
    0.92910E+06        -0.97600E+08         0.00000E+00
    0.00000E+00         0.00000E+00        -0.75940E+08
 
   -0.75600E+08         0.92701E+06         0.00000E+00
    0.92701E+06        -0.97607E+08         0.00000E+00
    0.00000E+00         0.00000E+00        -0.75719E+08
 
   -0.75400E+08         0.92444E+06         0.00000E+00
    0.92444E+06        -0.97617E+08         0.00000E+00
    0.00000E+00         0.00000E+00        -0.75496E+08
 
   -0.75200E+08         0.92245E+06         0.00000E+00
    0.92245E+06        -0.97628E+08         0.00000E+00
    0.00000E+00         0.00000E+00        -0.75275E+08
 
   -0.75000E+08         0.91345E+06         0.00000E+00
    0.91345E+06        -0.97625E+08         0.00000E+00
    0.00000E+00         0.00000E+00        -0.75073E+08
 
   -0.74800E+08         0.90503E+06         0.00000E+00
    0.90503E+06        -0.97617E+08         0.00000E+00
    0.00000E+00         0.00000E+00        -0.74878E+08
 
   -0.74601E+08         0.89770E+06         0.00000E+00
    0.89770E+06        -0.97613E+08         0.00000E+00
    0.00000E+00         0.00000E+00        -0.74683E+08
 
   -0.74405E+08         0.89146E+06         0.00000E+00
    0.89146E+06        -0.97609E+08         0.00000E+00
    0.00000E+00         0.00000E+00        -0.74486E+08
 
   -0.74210E+08         0.88586E+06         0.00000E+00
    0.88586E+06        -0.97608E+08         0.00000E+00
    0.00000E+00         0.00000E+00        -0.74290E+08
 
   -0.74017E+08         0.88046E+06         0.00000E+00
    0.88046E+06        -0.97608E+08         0.00000E+00
    0.00000E+00         0.00000E+00        -0.74092E+08
 
   -0.73826E+08         0.87499E+06         0.00000E+00
    0.87499E+06        -0.97611E+08         0.00000E+00
    0.00000E+00         0.00000E+00        -0.73894E+08
 
   -0.73637E+08         0.86938E+06         0.00000E+00
    0.86938E+06        -0.97615E+08         0.00000E+00
    0.00000E+00         0.00000E+00        -0.73696E+08
 
   -0.73449E+08         0.86374E+06         0.00000E+00
    0.86374E+06        -0.97622E+08         0.00000E+00
    0.00000E+00         0.00000E+00        -0.73497E+08
 
   -0.73261E+08         0.85674E+06         0.00000E+00
    0.85674E+06        -0.97623E+08         0.00000E+00
    0.00000E+00         0.00000E+00        -0.73306E+08
 
   -0.73075E+08         0.84861E+06         0.00000E+00
    0.84861E+06        -0.97617E+08         0.00000E+00
    0.00000E+00         0.00000E+00        -0.73126E+08
 
   -0.72890E+08         0.84144E+06         0.00000E+00
    0.84144E+06        -0.97613E+08         0.00000E+00
    0.00000E+00         0.00000E+00        -0.72945E+08
 
   -0.72707E+08         0.83508E+06         0.00000E+00
    0.83508E+06        -0.97611E+08         0.00000E+00
    0.00000E+00         0.00000E+00        -0.72763E+08
 
   -0.72526E+08         0.82926E+06         0.00000E+00
    0.82926E+06        -0.97610E+08         0.00000E+00
    0.00000E+00         0.00000E+00        -0.72582E+08
 
   -0.72347E+08         0.82370E+06         0.00000E+00
    0.82370E+06        -0.97610E+08         0.00000E+00
    0.00000E+00         0.00000E+00        -0.72401E+08
 
   -0.72169E+08         0.81826E+06         0.00000E+00
    0.81826E+06        -0.97612E+08         0.00000E+00
    0.00000E+00         0.00000E+00        -0.72219E+08
 
   -0.71992E+08         0.81290E+06         0.00000E+00
    0.81290E+06        -0.97614E+08         0.00000E+00
    0.00000E+00         0.00000E+00        -0.72037E+08
 
   -0.71816E+08         0.80762E+06         0.00000E+00
    0.80762E+06        -0.97617E+08         0.00000E+00
    0.00000E+00         0.00000E+00        -0.71857E+08
 
   -0.71642E+08         0.80166E+06         0.00000E+00
    0.80166E+06        -0.97615E+08         0.00000E+00
    0.00000E+00         0.00000E+00        -0.71684E+08
 
   -0.71468E+08         0.79613E+06         0.00000E+00
    0.79613E+06        -0.97612E+08         0.00000E+00
    0.00000E+00         0.00000E+00        -0.71512E+08
 
   -0.71295E+08         0.79109E+06         0.00000E+00
    0.79109E+06        -0.97610E+08         0.00000E+00
    0.00000E+00         0.00000E+00        -0.71340E+08
 
   -0.71124E+08         0.78649E+06         0.00000E+00
    0.78649E+06        -0.97609E+08         0.00000E+00
    0.00000E+00         0.00000E+00        -0.71167E+08
 
   -0.70953E+08         0.78225E+06         0.00000E+00
    0.78225E+06        -0.97609E+08         0.00000E+00
    0.00000E+00         0.00000E+00        -0.70995E+08
 
   -0.70784E+08         0.77826E+06         0.00000E+00
    0.77826E+06        -0.97608E+08         0.00000E+00
    0.00000E+00         0.00000E+00        -0.70823E+08
 
   -0.70615E+08         0.77444E+06         0.00000E+00
    0.77444E+06        -0.97608E+08         0.00000E+00
    0.00000E+00         0.00000E+00        -0.70651E+08
 
   -0.70448E+08         0.77072E+06         0.00000E+00
    0.77072E+06        -0.97608E+08         0.00000E+00
    0.00000E+00         0.00000E+00        -0.70478E+08
 
   -0.70281E+08         0.76704E+06         0.00000E+00
    0.76704E+06        -0.97609E+08         0.00000E+00
    0.00000E+00         0.00000E+00        -0.70306E+08
 
   -0.70116E+08         0.76330E+06         0.00000E+00
    0.76330E+06        -0.97608E+08         0.00000E+00
    0.00000E+00         0.00000E+00        -0.70135E+08
 
   -0.69955E+08         0.75935E+06         0.00000E+00
    0.75935E+06        -0.97604E+08         0.00000E+00
    0.00000E+00         0.00000E+00        -0.69966E+08
 
   -0.69794E+08         0.75532E+06         0.00000E+00
    0.75532E+06        -0.97600E+08         0.00000E+00
    0.00000E+00         0.00000E+00        -0.69798E+08
 
   -0.69634E+08         0.75119E+06         0.00000E+00
    0.75119E+06        -0.97596E+08         0.00000E+00
    0.00000E+00         0.00000E+00        -0.69630E+08
 
   -0.69475E+08         0.74693E+06         0.00000E+00
    0.74693E+06        -0.97592E+08         0.00000E+00
    0.00000E+00         0.00000E+00        -0.69461E+08
 
   -0.69316E+08         0.74249E+06         0.00000E+00
    0.74249E+06        -0.97589E+08         0.00000E+00
    0.00000E+00         0.00000E+00        -0.69292E+08
 
   -0.69158E+08         0.73785E+06         0.00000E+00
    0.73785E+06        -0.97586E+08         0.00000E+00
    0.00000E+00         0.00000E+00        -0.69123E+08
 
   -0.69001E+08         0.73295E+06         0.00000E+00
    0.73295E+06        -0.97583E+08         0.00000E+00
    0.00000E+00         0.00000E+00        -0.68953E+08
 
   -0.68845E+08         0.72773E+06         0.00000E+00
    0.72773E+06        -0.97580E+08         0.00000E+00
    0.00000E+00         0.00000E+00        -0.68783E+08
 
   -0.68689E+08         0.72212E+06         0.00000E+00
    0.72212E+06        -0.97578E+08         0.00000E+00
    0.00000E+00         0.00000E+00        -0.68613E+08
 
   -0.68535E+08         0.71603E+06         0.00000E+00
    0.71603E+06        -0.97576E+08         0.00000E+00
    0.00000E+00         0.00000E+00        -0.68442E+08
 
   -0.68382E+08         0.70933E+06         0.00000E+00
    0.70933E+06        -0.97575E+08         0.00000E+00
    0.00000E+00         0.00000E+00        -0.68271E+08
 
   -0.68230E+08         0.70189E+06         0.00000E+00
    0.70189E+06        -0.97574E+08         0.00000E+00
    0.00000E+00         0.00000E+00        -0.68099E+08
 
   -0.68079E+08         0.69351E+06         0.00000E+00
    0.69351E+06        -0.97574E+08         0.00000E+00
    0.00000E+00         0.00000E+00        -0.67927E+08
 
   -0.67930E+08         0.68397E+06         0.00000E+00
    0.68397E+06        -0.97575E+08         0.00000E+00
    0.00000E+00         0.00000E+00        -0.67754E+08
 
   -0.67783E+08         0.67298E+06         0.00000E+00
    0.67298E+06        -0.97577E+08         0.00000E+00
    0.00000E+00         0.00000E+00        -0.67580E+08
 
   -0.67639E+08         0.66023E+06         0.00000E+00
    0.66023E+06        -0.97581E+08         0.00000E+00
    0.00000E+00         0.00000E+00        -0.67405E+08
 
   -0.67496E+08         0.64531E+06         0.00000E+00
    0.64531E+06        -0.97586E+08         0.00000E+00
    0.00000E+00         0.00000E+00        -0.67230E+08
 
   -0.67357E+08         0.62779E+06         0.00000E+00
    0.62779E+06        -0.97593E+08         0.00000E+00
    0.00000E+00         0.00000E+00        -0.67054E+08
 
   -0.67220E+08         0.60718E+06         0.00000E+00
    0.60718E+06        -0.97602E+08         0.00000E+00
    0.00000E+00         0.00000E+00        -0.66877E+08
 
   -0.67087E+08         0.58294E+06         0.00000E+00
    0.58294E+06        -0.97612E+08         0.00000E+00
    0.00000E+00         0.00000E+00        -0.66698E+08
 
   -0.66957E+08         0.55453E+06         0.00000E+00
    0.55453E+06        -0.97625E+08         0.00000E+00
    0.00000E+00         0.00000E+00        -0.66519E+08
 
   -0.66831E+08         0.52140E+06         0.00000E+00
    0.52140E+06        -0.97640E+08         0.00000E+00
    0.00000E+00         0.00000E+00        -0.66337E+08
 
   -0.66709E+08         0.48303E+06         0.00000E+00
    0.48303E+06        -0.97656E+08         0.00000E+00
    0.00000E+00         0.00000E+00        -0.66153E+08
 
   -0.66591E+08         0.43903E+06         0.00000E+00
    0.43903E+06        -0.97672E+08         0.00000E+00
    0.00000E+00         0.00000E+00        -0.65965E+08
 
   -0.66478E+08         0.38918E+06         0.00000E+00
    0.38918E+06        -0.97687E+08         0.00000E+00
    0.00000E+00         0.00000E+00        -0.65772E+08
 
   -0.66371E+08         0.33370E+06         0.00000E+00
    0.33370E+06        -0.97700E+08         0.00000E+00
    0.00000E+00         0.00000E+00        -0.65571E+08
 
   -0.66270E+08         0.27360E+06         0.00000E+00
    0.27360E+06        -0.97708E+08         0.00000E+00
    0.00000E+00         0.00000E+00        -0.65360E+08
 
   -0.66177E+08         0.21127E+06         0.00000E+00
    0.21127E+06        -0.97710E+08         0.00000E+00
    0.00000E+00         0.00000E+00        -0.65136E+08
 
   -0.66094E+08         0.15093E+06         0.00000E+00
    0.15093E+06        -0.97702E+08         0.00000E+00
    0.00000E+00         0.00000E+00        -0.64893E+08
 
   -0.66023E+08         0.97929E+05         0.00000E+00
    0.97929E+05        -0.97682E+08         0.00000E+00
    0.00000E+00         0.00000E+00        -0.64630E+08
 
   -0.65967E+08         0.56674E+05         0.00000E+00
    0.56674E+05        -0.97648E+08         0.00000E+00
    0.00000E+00         0.00000E+00        -0.64339E+08
 
   -0.65927E+08         0.28113E+05         0.00000E+00
    0.28113E+05        -0.97595E+08         0.00000E+00
    0.00000E+00         0.00000E+00        -0.64018E+08
 
   -0.65905E+08         0.84186E+04         0.00000E+00
    0.84186E+04        -0.97522E+08         0.00000E+00
    0.00000E+00         0.00000E+00        -0.63663E+08
 
   -0.81388E+08        -0.42131E+04         0.00000E+00
   -0.42131E+04        -0.97620E+08         0.00000E+00
    0.00000E+00         0.00000E+00        -0.84805E+08
 
   -0.81360E+08         0.36228E+04         0.00000E+00
    0.36228E+04        -0.97557E+08         0.00000E+00
    0.00000E+00         0.00000E+00        -0.84288E+08
 
   -0.81292E+08         0.49756E+05         0.00000E+00
    0.49756E+05        -0.97462E+08         0.00000E+00
    0.00000E+00         0.00000E+00        -0.83830E+08
 
   -0.81203E+08         0.12065E+06         0.00000E+00
    0.12065E+06        -0.97402E+08         0.00000E+00
    0.00000E+00         0.00000E+00        -0.83432E+08
 
   -0.81131E+08         0.19650E+06         0.00000E+00
    0.19650E+06        -0.97384E+08         0.00000E+00
    0.00000E+00         0.00000E+00        -0.83076E+08
 
   -0.81059E+08         0.28175E+06         0.00000E+00
    0.28175E+06        -0.97414E+08         0.00000E+00
    0.00000E+00         0.00000E+00        -0.82744E+08
 
   -0.80982E+08         0.36130E+06         0.00000E+00
    0.36130E+06        -0.97460E+08         0.00000E+00
    0.00000E+00         0.00000E+00        -0.82450E+08
 
   -0.80880E+08         0.42554E+06         0.00000E+00
    0.42554E+06        -0.97494E+08         0.00000E+00
    0.00000E+00         0.00000E+00        -0.82178E+08
 
   -0.80763E+08         0.47659E+06         0.00000E+00
    0.47659E+06        -0.97508E+08         0.00000E+00
    0.00000E+00         0.00000E+00        -0.81924E+08
 
   -0.80634E+08         0.52418E+06         0.00000E+00
    0.52418E+06        -0.97506E+08         0.00000E+00
    0.00000E+00         0.00000E+00        -0.81684E+08
 
   -0.80495E+08         0.57153E+06         0.00000E+00
    0.57153E+06        -0.97499E+08         0.00000E+00
    0.00000E+00         0.00000E+00        -0.81453E+08
 
   -0.80346E+08         0.61785E+06         0.00000E+00
    0.61785E+06        -0.97495E+08         0.00000E+00
    0.00000E+00         0.00000E+00        -0.81228E+08
 
   -0.80189E+08         0.66130E+06         0.00000E+00
    0.66130E+06        -0.97496E+08         0.00000E+00
    0.00000E+00         0.00000E+00        -0.81007E+08
 
   -0.80027E+08         0.70083E+06         0.00000E+00
    0.70083E+06        -0.97502E+08         0.00000E+00
    0.00000E+00         0.00000E+00        -0.80788E+08
 
   -0.79859E+08         0.73617E+06         0.00000E+00
    0.73617E+06        -0.97510E+08         0.00000E+00
    0.00000E+00         0.00000E+00        -0.80569E+08
 
   -0.79688E+08         0.76744E+06         0.00000E+00
    0.76744E+06        -0.97520E+08         0.00000E+00
    0.00000E+00         0.00000E+00        -0.80348E+08
 
   -0.79514E+08         0.79491E+06         0.00000E+00
    0.79491E+06        -0.97530E+08         0.00000E+00
    0.00000E+00         0.00000E+00        -0.80126E+08
 
   -0.79336E+08         0.81884E+06         0.00000E+00
    0.81884E+06        -0.97539E+08         0.00000E+00
    0.00000E+00         0.00000E+00        -0.79901E+08
 
   -0.79156E+08         0.83934E+06         0.00000E+00
    0.83934E+06        -0.97549E+08         0.00000E+00
    0.00000E+00         0.00000E+00        -0.79673E+08
 
   -0.78973E+08         0.85647E+06         0.00000E+00
    0.85647E+06        -0.97557E+08         0.00000E+00
    0.00000E+00         0.00000E+00        -0.79442E+08
 
   -0.78787E+08         0.87018E+06         0.00000E+00
    0.87018E+06        -0.97567E+08         0.00000E+00
    0.00000E+00         0.00000E+00        -0.79208E+08
 
   -0.78599E+08         0.88049E+06         0.00000E+00
    0.88049E+06        -0.97578E+08         0.00000E+00
    0.00000E+00         0.00000E+00        -0.78971E+08
 
   -0.78408E+08         0.88775E+06         0.00000E+00
    0.88775E+06        -0.97593E+08         0.00000E+00
    0.00000E+00         0.00000E+00        -0.78731E+08
 
   -0.78214E+08         0.89287E+06         0.00000E+00
    0.89287E+06        -0.97614E+08         0.00000E+00
    0.00000E+00         0.00000E+00        -0.78487E+08
 
   -0.78016E+08         0.89645E+06         0.00000E+00
    0.89645E+06        -0.97628E+08         0.00000E+00
    0.00000E+00         0.00000E+00        -0.78255E+08
 
   -0.77815E+08         0.89104E+06         0.00000E+00
    0.89104E+06        -0.97620E+08         0.00000E+00
    0.00000E+00         0.00000E+00        -0.78048E+08
 
   -0.77612E+08         0.88691E+06         0.00000E+00
    0.88691E+06        -0.97610E+08         0.00000E+00
    0.00000E+00         0.00000E+00        -0.77845E+08
 
   -0.77408E+08         0.88460E+06         0.00000E+00
    0.88460E+06        -0.97603E+08         0.00000E+00
    0.00000E+00         0.00000E+00        -0.77640E+08
 
   -0.77204E+08         0.88390E+06         0.00000E+00
    0.88390E+06        -0.97598E+08         0.00000E+00
    0.00000E+00         0.00000E+00        -0.77433E+08
 
   -0.77000E+08         0.88446E+06         0.00000E+00
    0.88446E+06        -0.97594E+08         0.00000E+00
    0.00000E+00         0.00000E+00        -0.77224E+08
 
   -0.76797E+08         0.88576E+06         0.00000E+00
    0.88576E+06        -0.97592E+08         0.00000E+00
    0.00000E+00         0.00000E+00        -0.77013E+08
 
   -0.76594E+08         0.88735E+06         0.00000E+00
    0.88735E+06        -0.97592E+08         0.00000E+00
    0.00000E+00         0.00000E+00        -0.76801E+08
 
   -0.76392E+08         0.88882E+06         0.00000E+00
    0.88882E+06        -0.97592E+08         0.00000E+00
    0.00000E+00         0.00000E+00        -0.76586E+08
 
   -0.76190E+08         0.88979E+06         0.00000E+00
    0.88979E+06        -0.97593E+08         0.00000E+00
    0.00000E+00         0.00000E+00        -0.76370E+08
 
   -0.75989E+08         0.88994E+06         0.00000E+00
    0.88994E+06        -0.97596E+08         0.00000E+00
    0.00000E+00         0.00000E+00        -0.76152E+08
 
   -0.75788E+08         0.88904E+06         0.00000E+00
    0.88904E+06        -0.97600E+08         0.00000E+00
    0.00000E+00         0.00000E+00        -0.75933E+08
 
   -0.75589E+08         0.88707E+06         0.00000E+00
    0.88707E+06        -0.97606E+08         0.00000E+00
    0.00000E+00         0.00000E+00        -0.75712E+08
 
   -0.75389E+08         0.88457E+06         0.00000E+00
    0.88457E+06        -0.97616E+08         0.00000E+00
    0.00000E+00         0.00000E+00        -0.75489E+08
 
   -0.75190E+08         0.88246E+06         0.00000E+00
    0.88246E+06        -0.97627E+08         0.00000E+00
    0.00000E+00         0.00000E+00        -0.75270E+08
 
   -0.74990E+08         0.87334E+06         0.00000E+00
    0.87334E+06        -0.97623E+08         0.00000E+00
    0.00000E+00         0.00000E+00        -0.75069E+08
 
   -0.74790E+08         0.86521E+06         0.00000E+00
    0.86521E+06        -0.97616E+08         0.00000E+00
    0.00000E+00         0.00000E+00        -0.74874E+08
 
   -0.74592E+08         0.85827E+06         0.00000E+00
    0.85827E+06        -0.97611E+08         0.00000E+00
    0.00000E+00         0.00000E+00        -0.74679E+08
 
   -0.74396E+08         0.85240E+06         0.00000E+00
    0.85240E+06        -0.97608E+08         0.00000E+00
    0.00000E+00         0.00000E+00        -0.74483E+08
 
   -0.74202E+08         0.84716E+06         0.00000E+00
    0.84716E+06        -0.97607E+08         0.00000E+00
    0.00000E+00         0.00000E+00        -0.74286E+08
 
   -0.74010E+08         0.84212E+06         0.00000E+00
    0.84212E+06        -0.97607E+08         0.00000E+00
    0.00000E+00         0.00000E+00        -0.74088E+08
 
   -0.73819E+08         0.83697E+06         0.00000E+00
    0.83697E+06        -0.97610E+08         0.00000E+00
    0.00000E+00         0.00000E+00        -0.73890E+08
 
   -0.73630E+08         0.83165E+06         0.00000E+00
    0.83165E+06        -0.97614E+08         0.00000E+00
    0.00000E+00         0.00000E+00        -0.73692E+08
 
   -0.73442E+08         0.82628E+06         0.00000E+00
    0.82628E+06        -0.97621E+08         0.00000E+00
    0.00000E+00         0.00000E+00        -0.73493E+08
 
   -0.73255E+08         0.81935E+06         0.00000E+00
    0.81935E+06        -0.97621E+08         0.00000E+00
    0.00000E+00         0.00000E+00        -0.73304E+08
 
   -0.73069E+08         0.81153E+06         0.00000E+00
    0.81153E+06        -0.97615E+08         0.00000E+00
    0.00000E+00         0.00000E+00        -0.73123E+08
 
   -0.72885E+08         0.80472E+06         0.00000E+00
    0.80472E+06        -0.97612E+08         0.00000E+00
    0.00000E+00         0.00000E+00        -0.72942E+08
 
   -0.72702E+08         0.79870E+06         0.00000E+00
    0.79870E+06        -0.97610E+08         0.00000E+00
    0.00000E+00         0.00000E+00        -0.72761E+08
 
   -0.72522E+08         0.79321E+06         0.00000E+00
    0.79321E+06        -0.97609E+08         0.00000E+00
    0.00000E+00         0.00000E+00        -0.72580E+08
 
   -0.72342E+08         0.78798E+06         0.00000E+00
    0.78798E+06        -0.97609E+08         0.00000E+00
    0.00000E+00         0.00000E+00        -0.72398E+08
 
   -0.72165E+08         0.78282E+06         0.00000E+00
    0.78282E+06        -0.97611E+08         0.00000E+00
    0.00000E+00         0.00000E+00        -0.72217E+08
 
   -0.71988E+08         0.77769E+06         0.00000E+00
    0.77769E+06        -0.97613E+08         0.00000E+00
    0.00000E+00         0.00000E+00        -0.72035E+08
 
   -0.71813E+08         0.77260E+06         0.00000E+00
    0.77260E+06        -0.97616E+08         0.00000E+00
    0.00000E+00         0.00000E+00        -0.71855E+08
 
   -0.71638E+08         0.76684E+06         0.00000E+00
    0.76684E+06        -0.97614E+08         0.00000E+00
    0.00000E+00         0.00000E+00        -0.71682E+08
 
   -0.71465E+08         0.76151E+06         0.00000E+00
    0.76151E+06        -0.97611E+08         0.00000E+00
    0.00000E+00         0.00000E+00        -0.71509E+08
 
   -0.71292E+08         0.75670E+06         0.00000E+00
    0.75670E+06        -0.97609E+08         0.00000E+00
    0.00000E+00         0.00000E+00        -0.71337E+08
 
   -0.71121E+08         0.75232E+06         0.00000E+00
    0.75232E+06        -0.97608E+08         0.00000E+00
    0.00000E+00         0.00000E+00        -0.71165E+08
 
   -0.70951E+08         0.74828E+06         0.00000E+00
    0.74828E+06        -0.97608E+08         0.00000E+00
    0.00000E+00         0.00000E+00        -0.70993E+08
 
   -0.70781E+08         0.74448E+06         0.00000E+00
    0.74448E+06        -0.97608E+08         0.00000E+00
    0.00000E+00         0.00000E+00        -0.70820E+08
 
   -0.70613E+08         0.74085E+06         0.00000E+00
    0.74085E+06        -0.97608E+08         0.00000E+00
    0.00000E+00         0.00000E+00        -0.70648E+08
 
   -0.70446E+08         0.73730E+06         0.00000E+00
    0.73730E+06        -0.97608E+08         0.00000E+00
    0.00000E+00         0.00000E+00        -0.70476E+08
 
   -0.70279E+08         0.73378E+06         0.00000E+00
    0.73378E+06        -0.97608E+08         0.00000E+00
    0.00000E+00         0.00000E+00        -0.70303E+08
 
   -0.70115E+08         0.73019E+06         0.00000E+00
    0.73019E+06        -0.97607E+08         0.00000E+00
    0.00000E+00         0.00000E+00        -0.70132E+08
 
   -0.69953E+08         0.72640E+06         0.00000E+00
    0.72640E+06        -0.97603E+08         0.00000E+00
    0.00000E+00         0.00000E+00        -0.69963E+08
 
   -0.69793E+08         0.72253E+06         0.00000E+00
    0.72253E+06        -0.97599E+08         0.00000E+00
    0.00000E+00         0.00000E+00        -0.69795E+08
 
   -0.69634E+08         0.71856E+06         0.00000E+00
    0.71856E+06        -0.97595E+08         0.00000E+00
    0.00000E+00         0.00000E+00        -0.69626E+08
 
   -0.69474E+08         0.71446E+06         0.00000E+00
    0.71446E+06        -0.97591E+08         0.00000E+00
    0.00000E+00         0.00000E+00        -0.69457E+08
 
   -0.69316E+08         0.71020E+06         0.00000E+00
    0.71020E+06        -0.97588E+08         0.00000E+00
    0.00000E+00         0.00000E+00        -0.69288E+08
 
   -0.69158E+08         0.70573E+06         0.00000E+00
    0.70573E+06        -0.97585E+08         0.00000E+00
    0.00000E+00         0.00000E+00        -0.69119E+08
 
   -0.69001E+08         0.70103E+06         0.00000E+00
    0.70103E+06        -0.97582E+08         0.00000E+00
    0.00000E+00         0.00000E+00        -0.68949E+08
 
   -0.68845E+08         0.69602E+06         0.00000E+00
    0.69602E+06        -0.97579E+08         0.00000E+00
    0.00000E+00         0.00000E+00        -0.68779E+08
 
   -0.68690E+08         0.69064E+06         0.00000E+00
    0.69064E+06        -0.97577E+08         0.00000E+00
    0.00000E+00         0.00000E+00        -0.68608E+08
 
   -0.68536E+08         0.68481E+06         0.00000E+00
    0.68481E+06        -0.97575E+08         0.00000E+00
    0.00000E+00         0.00000E+00        -0.68437E+08
 
   -0.68383E+08         0.67840E+06         0.00000E+00
    0.67840E+06        -0.97574E+08         0.00000E+00
    0.00000E+00         0.00000E+00        -0.68265E+08
 
   -0.68231E+08         0.67128E+06         0.00000E+00
    0.67128E+06        -0.97573E+08         0.00000E+00
    0.00000E+00         0.00000E+00        -0.68093E+08
 
   -0.68081E+08         0.66327E+06         0.00000E+00
    0.66327E+06        -0.97573E+08         0.00000E+00
    0.00000E+00         0.00000E+00        -0.67920E+08
 
   -0.67932E+08         0.65414E+06         0.00000E+00
    0.65414E+06        -0.97573E+08         0.00000E+00
    0.00000E+00         0.00000E+00        -0.67747E+08
 
   -0.67786E+08         0.64361E+06         0.00000E+00
    0.64361E+06        -0.97575E+08         0.00000E+00
    0.00000E+00         0.00000E+00        -0.67572E+08
 
   -0.67642E+08         0.63136E+06         0.00000E+00
    0.63136E+06        -0.97578E+08         0.00000E+00
    0.00000E+00         0.00000E+00        -0.67397E+08
 
   -0.67500E+08         0.61702E+06         0.00000E+00
    0.61702E+06        -0.97583E+08         0.00000E+00
    0.00000E+00         0.00000E+00        -0.67221E+08
 
   -0.67360E+08         0.60012E+06         0.00000E+00
    0.60012E+06        -0.97589E+08         0.00000E+00
    0.00000E+00         0.00000E+00        -0.67044E+08
 
   -0.67224E+08         0.58019E+06         0.00000E+00
    0.58019E+06        -0.97597E+08         0.00000E+00
    0.00000E+00         0.00000E+00        -0.66866E+08
 
   -0.67092E+08         0.55670E+06         0.00000E+00
    0.55670E+06        -0.97607E+08         0.00000E+00
    0.00000E+00         0.00000E+00        -0.66687E+08
 
   -0.66962E+08         0.52908E+06         0.00000E+00
    0.52908E+06        -0.97619E+08         0.00000E+00
    0.00000E+00         0.00000E+00        -0.66505E+08
 
   -0.66837E+08         0.49681E+06         0.00000E+00
    0.49681E+06        -0.97633E+08         0.00000E+00
    0.00000E+00         0.00000E+00        -0.66322E+08
 
   -0.66716E+08         0.45939E+06         0.00000E+00
    0.45939E+06        -0.97647E+08         0.00000E+00
    0.00000E+00         0.00000E+00        -0.66136E+08
 
   -0.66600E+08         0.41642E+06         0.00000E+00
    0.41642E+06        -0.97662E+08         0.00000E+00
    0.00000E+00         0.00000E+00        -0.65946E+08
 
   -0.66489E+08         0.36776E+06         0.00000E+00
    0.36776E+06        -0.97677E+08         0.00000E+00
    0.00000E+00         0.00000E+00        -0.65750E+08
 
   -0.66384E+08         0.31367E+06         0.00000E+00
    0.31367E+06        -0.97689E+08         0.00000E+00
    0.00000E+00         0.00000E+00        -0.65547E+08
 
   -0.66286E+08         0.25521E+06         0.00000E+00
    0.25521E+06        -0.97696E+08         0.00000E+00
    0.00000E+00         0.00000E+00        -0.65333E+08
 
   -0.66197E+08         0.19481E+06         0.00000E+00
    0.19481E+06        -0.97698E+08         0.00000E+00
    0.00000E+00         0.00000E+00        -0.65105E+08
 
   -0.66117E+08         0.13668E+06         0.00000E+00
    0.13668E+06        -0.97691E+08         0.00000E+00
    0.00000E+00         0.00000E+00        -0.64861E+08
 
   -0.66050E+08         0.86195E+05         0.00000E+00
    0.86195E+05        -0.97674E+08         0.00000E+00
    0.00000E+00         0.00000E+00        -0.64597E+08
 
   -0.65995E+08         0.47819E+05         0.00000E+00
    0.47819E+05        -0.97642E+08         0.00000E+00
    0.00000E+00         0.00000E+00        -0.64308E+08
 
   -0.65957E+08         0.22554E+05         0.00000E+00
    0.22554E+05        -0.97592E+08         0.00000E+00
    0.00000E+00         0.00000E+00        -0.63988E+08
 
   -0.65936E+08         0.65167E+04         0.00000E+00
    0.65167E+04        -0.97520E+08         0.00000E+00
    0.00000E+00         0.00000E+00        -0.63634E+08
 
   -0.81332E+08        -0.64044E+04         0.00000E+00
   -0.64044E+04        -0.97618E+08         0.00000E+00
    0.00000E+00         0.00000E+00        -0.84836E+08
 
   -0.81308E+08        -0.41936E+04         0.00000E+00
   -0.41936E+04        -0.97562E+08         0.00000E+00
    0.00000E+00         0.00000E+00        -0.84324E+08
 
   -0.81253E+08         0.34519E+05         0.00000E+00
    0.34519E+05        -0.97473E+08         0.00000E+00
    0.00000E+00         0.00000E+00        -0.83871E+08
 
   -0.81174E+08         0.10351E+06         0.00000E+00
    0.10351E+06        -0.97413E+08         0.00000E+00
    0.00000E+00         0.00000E+00        -0.83470E+08
 
   -0.81101E+08         0.18344E+06         0.00000E+00
    0.18344E+06        -0.97405E+08         0.00000E+00
    0.00000E+00         0.00000E+00        -0.83111E+08
 
   -0.81036E+08         0.26697E+06         0.00000E+00
    0.26697E+06        -0.97432E+08         0.00000E+00
    0.00000E+00         0.00000E+00        -0.82785E+08
 
   -0.80956E+08         0.34335E+06         0.00000E+00
    0.34335E+06        -0.97473E+08         0.00000E+00
    0.00000E+00         0.00000E+00        -0.82486E+08
 
   -0.80857E+08         0.40356E+06         0.00000E+00
    0.40356E+06        -0.97505E+08         0.00000E+00
    0.00000E+00         0.00000E+00        -0.82209E+08
 
   -0.80742E+08         0.45233E+06         0.00000E+00
    0.45233E+06        -0.97518E+08         0.00000E+00
    0.00000E+00         0.00000E+00        -0.81949E+08
 
   -0.80616E+08         0.49760E+06         0.00000E+00
    0.49760E+06        -0.97515E+08         0.00000E+00
    0.00000E+00         0.00000E+00        -0.81703E+08
 
   -0.80478E+08         0.54282E+06         0.00000E+00
    0.54282E+06        -0.97509E+08         0.00000E+00
    0.00000E+00         0.00000E+00        -0.81467E+08
 
   -0.80331E+08         0.58729E+06         0.00000E+00
    0.58729E+06        -0.97504E+08         0.00000E+00
    0.00000E+00         0.00000E+00        -0.81238E+08
 
   -0.80175E+08         0.62931E+06         0.00000E+00
    0.62931E+06        -0.97504E+08         0.00000E+00
    0.00000E+00         0.00000E+00        -0.81013E+08
 
   -0.80012E+08         0.66778E+06         0.00000E+00
    0.66778E+06        -0.97509E+08         0.00000E+00
    0.00000E+00         0.00000E+00        -0.80790E+08
 
   -0.79845E+08         0.70227E+06         0.00000E+00
    0.70227E+06        -0.97517E+08         0.00000E+00
    0.00000E+00         0.00000E+00        -0.80568E+08
 
   -0.79674E+08         0.73282E+06         0.00000E+00
    0.73282E+06        -0.97526E+08         0.00000E+00
    0.00000E+00         0.00000E+00        -0.80345E+08
 
   -0.79499E+08         0.75965E+06         0.00000E+00
    0.75965E+06        -0.97535E+08         0.00000E+00
    0.00000E+00         0.00000E+00        -0.80120E+08
 
   -0.79321E+08         0.78298E+06         0.00000E+00
    0.78298E+06        -0.97544E+08         0.00000E+00
    0.00000E+00         0.00000E+00        -0.79894E+08
 
   -0.79140E+08         0.80293E+06         0.00000E+00
    0.80293E+06        -0.97552E+08         0.00000E+00
    0.00000E+00         0.00000E+00        -0.79665E+08
 
   -0.78956E+08         0.81955E+06         0.00000E+00
    0.81955E+06        -0.97560E+08         0.00000E+00
    0.00000E+00         0.00000E+00        -0.79433E+08
 
   -0.78770E+08         0.83279E+06         0.00000E+00
    0.83279E+06        -0.97569E+08         0.00000E+00
    0.00000E+00         0.00000E+00        -0.79199E+08
 
   -0.78582E+08         0.84263E+06         0.00000E+00
    0.84263E+06        -0.97579E+08         0.00000E+00
    0.00000E+00         0.00000E+00        -0.78961E+08
 
   -0.78391E+08         0.84936E+06         0.00000E+00
    0.84936E+06        -0.97594E+08         0.00000E+00
    0.00000E+00         0.00000E+00        -0.78720E+08
 
   -0.78198E+08         0.85375E+06         0.00000E+00
    0.85375E+06        -0.97615E+08         0.00000E+00
    0.00000E+00         0.00000E+00        -0.78476E+08
 
   -0.78000E+08         0.85637E+06         0.00000E+00
    0.85637E+06        -0.97628E+08         0.00000E+00
    0.00000E+00         0.00000E+00        -0.78245E+08
 
   -0.77798E+08         0.85058E+06         0.00000E+00
    0.85058E+06        -0.97619E+08         0.00000E+00
    0.00000E+00         0.00000E+00        -0.78040E+08
 
   -0.77596E+08         0.84624E+06         0.00000E+00
    0.84624E+06        -0.97609E+08         0.00000E+00
    0.00000E+00         0.00000E+00        -0.77837E+08
 
   -0.77392E+08         0.84388E+06         0.00000E+00
    0.84388E+06        -0.97602E+08         0.00000E+00
    0.00000E+00         0.00000E+00        -0.77632E+08
 
   -0.77189E+08         0.84319E+06         0.00000E+00
    0.84319E+06        -0.97598E+08         0.00000E+00
    0.00000E+00         0.00000E+00        -0.77425E+08
 
   -0.76986E+08         0.84379E+06         0.00000E+00
    0.84379E+06        -0.97595E+08         0.00000E+00
    0.00000E+00         0.00000E+00        -0.77216E+08
 
   -0.76783E+08         0.84517E+06         0.00000E+00
    0.84517E+06        -0.97593E+08         0.00000E+00
    0.00000E+00         0.00000E+00        -0.77005E+08
 
   -0.76580E+08         0.84686E+06         0.00000E+00
    0.84686E+06        -0.97592E+08         0.00000E+00
    0.00000E+00         0.00000E+00        -0.76793E+08
 
   -0.76378E+08         0.84845E+06         0.00000E+00
    0.84845E+06        -0.97592E+08         0.00000E+00
    0.00000E+00         0.00000E+00        -0.76579E+08
 
   -0.76177E+08         0.84956E+06         0.00000E+00
    0.84956E+06        -0.97593E+08         0.00000E+00
    0.00000E+00         0.00000E+00        -0.76363E+08
 
   -0.75977E+08         0.84986E+06         0.00000E+00
    0.84986E+06        -0.97596E+08         0.00000E+00
    0.00000E+00         0.00000E+00        -0.76145E+08
 
   -0.75777E+08         0.84909E+06         0.00000E+00
    0.84909E+06        -0.97599E+08         0.00000E+00
    0.00000E+00         0.00000E+00        -0.75926E+08
 
   -0.75578E+08         0.84724E+06         0.00000E+00
    0.84724E+06        -0.97606E+08         0.00000E+00
    0.00000E+00         0.00000E+00        -0.75705E+08
 
   -0.75379E+08         0.84480E+06         0.00000E+00
    0.84480E+06        -0.97616E+08         0.00000E+00
    0.00000E+00         0.00000E+00        -0.75483E+08
 
   -0.75180E+08         0.84252E+06         0.00000E+00
    0.84252E+06        -0.97625E+08         0.00000E+00
    0.00000E+00         0.00000E+00        -0.75265E+08
 
   -0.74980E+08         0.83334E+06         0.00000E+00
    0.83334E+06        -0.97621E+08         0.00000E+00
    0.00000E+00         0.00000E+00        -0.75065E+08
 
   -0.74781E+08         0.82548E+06         0.00000E+00
    0.82548E+06        -0.97614E+08         0.00000E+00
    0.00000E+00         0.00000E+00        -0.74870E+08
 
   -0.74584E+08         0.81893E+06         0.00000E+00
    0.81893E+06        -0.97610E+08         0.00000E+00
    0.00000E+00         0.00000E+00        -0.74675E+08
 
   -0.74388E+08         0.81343E+06         0.00000E+00
    0.81343E+06        -0.97607E+08         0.00000E+00
    0.00000E+00         0.00000E+00        -0.74479E+08
 
   -0.74195E+08         0.80857E+06         0.00000E+00
    0.80857E+06        -0.97606E+08         0.00000E+00
    0.00000E+00         0.00000E+00        -0.74282E+08
 
   -0.74003E+08         0.80387E+06         0.00000E+00
    0.80387E+06        -0.97606E+08         0.00000E+00
    0.00000E+00         0.00000E+00        -0.74085E+08
 
   -0.73812E+08         0.79902E+06         0.00000E+00
    0.79902E+06        -0.97609E+08         0.00000E+00
    0.00000E+00         0.00000E+00        -0.73887E+08
 
   -0.73624E+08         0.79400E+06         0.00000E+00
    0.79400E+06        -0.97613E+08         0.00000E+00
    0.00000E+00         0.00000E+00        -0.73689E+08
 
   -0.73436E+08         0.78889E+06         0.00000E+00
    0.78889E+06        -0.97620E+08         0.00000E+00
    0.00000E+00         0.00000E+00        -0.73490E+08
 
   -0.73250E+08         0.78202E+06         0.00000E+00
    0.78202E+06        -0.97620E+08         0.00000E+00
    0.00000E+00         0.00000E+00        -0.73301E+08
 
   -0.73064E+08         0.77451E+06         0.00000E+00
    0.77451E+06        -0.97614E+08         0.00000E+00
    0.00000E+00         0.00000E+00        -0.73121E+08
 
   -0.72880E+08         0.76805E+06         0.00000E+00
    0.76805E+06        -0.97611E+08         0.00000E+00
    0.00000E+00         0.00000E+00        -0.72940E+08
 
   -0.72697E+08         0.76238E+06         0.00000E+00
    0.76238E+06        -0.97609E+08         0.00000E+00
    0.00000E+00         0.00000E+00        -0.72759E+08
 
   -0.72517E+08         0.75723E+06         0.00000E+00
    0.75723E+06        -0.97608E+08         0.00000E+00
    0.00000E+00         0.00000E+00        -0.72577E+08
 
   -0.72338E+08         0.75232E+06         0.00000E+00
    0.75232E+06        -0.97608E+08         0.00000E+00
    0.00000E+00         0.00000E+00        -0.72396E+08
 
   -0.72160E+08         0.74744E+06         0.00000E+00
    0.74744E+06        -0.97610E+08         0.00000E+00
    0.00000E+00         0.00000E+00        -0.72214E+08
 
   -0.71984E+08         0.74253E+06         0.00000E+00
    0.74253E+06        -0.97612E+08         0.00000E+00
    0.00000E+00         0.00000E+00        -0.72033E+08
 
   -0.71809E+08         0.73762E+06         0.00000E+00
    0.73762E+06        -0.97615E+08         0.00000E+00
    0.00000E+00         0.00000E+00        -0.71853E+08
 
   -0.71635E+08         0.73205E+06         0.00000E+00
    0.73205E+06        -0.97613E+08         0.00000E+00
    0.00000E+00         0.00000E+00        -0.71679E+08
 
   -0.71462E+08         0.72694E+06         0.00000E+00
    0.72694E+06        -0.97610E+08         0.00000E+00
    0.00000E+00         0.00000E+00        -0.71507E+08
 
   -0.71289E+08         0.72235E+06         0.00000E+00
    0.72235E+06        -0.97608E+08         0.00000E+00
    0.00000E+00         0.00000E+00        -0.71335E+08
 
   -0.71118E+08         0.71819E+06         0.00000E+00
    0.71819E+06        -0.97608E+08         0.00000E+00
    0.00000E+00         0.00000E+00        -0.71163E+08
 
   -0.70948E+08         0.71436E+06         0.00000E+00
    0.71436E+06        -0.97607E+08         0.00000E+00
    0.00000E+00         0.00000E+00        -0.70990E+08
 
   -0.70779E+08         0.71076E+06         0.00000E+00
    0.71076E+06        -0.97607E+08         0.00000E+00
    0.00000E+00         0.00000E+00        -0.70818E+08
 
   -0.70611E+08         0.70730E+06         0.00000E+00
    0.70730E+06        -0.97607E+08         0.00000E+00
    0.00000E+00         0.00000E+00        -0.70645E+08
 
   -0.70444E+08         0.70392E+06         0.00000E+00
    0.70392E+06        -0.97607E+08         0.00000E+00
    0.00000E+00         0.00000E+00        -0.70473E+08
 
   -0.70278E+08         0.70056E+06         0.00000E+00
    0.70056E+06        -0.97607E+08         0.00000E+00
    0.00000E+00         0.00000E+00        -0.70300E+08
 
   -0.70113E+08         0.69713E+06         0.00000E+00
    0.69713E+06        -0.97606E+08         0.00000E+00
    0.00000E+00         0.00000E+00        -0.70129E+08
 
   -0.69952E+08         0.69350E+06         0.00000E+00
    0.69350E+06        -0.97602E+08         0.00000E+00
    0.00000E+00         0.00000E+00        -0.69960E+08
 
   -0.69792E+08         0.68979E+06         0.00000E+00
    0.68979E+06        -0.97598E+08         0.00000E+00
    0.00000E+00         0.00000E+00        -0.69791E+08
 
   -0.69633E+08         0.68598E+06         0.00000E+00
    0.68598E+06        -0.97594E+08         0.00000E+00
    0.00000E+00         0.00000E+00        -0.69623E+08
 
   -0.69474E+08         0.68205E+06         0.00000E+00
    0.68205E+06        -0.97591E+08         0.00000E+00
    0.00000E+00         0.00000E+00        -0.69453E+08
 
   -0.69316E+08         0.67796E+06         0.00000E+00
    0.67796E+06        -0.97587E+08         0.00000E+00
    0.00000E+00         0.00000E+00        -0.69284E+08
 
   -0.69159E+08         0.67368E+06         0.00000E+00
    0.67368E+06        -0.97584E+08         0.00000E+00
    0.00000E+00         0.00000E+00        -0.69114E+08
 
   -0.69002E+08         0.66916E+06         0.00000E+00
    0.66916E+06        -0.97581E+08         0.00000E+00
    0.00000E+00         0.00000E+00        -0.68944E+08
 
   -0.68846E+08         0.66437E+06         0.00000E+00
    0.66437E+06        -0.97578E+08         0.00000E+00
    0.00000E+00         0.00000E+00        -0.68774E+08
 
   -0.68691E+08         0.65923E+06         0.00000E+00
    0.65923E+06        -0.97576E+08         0.00000E+00
    0.00000E+00         0.00000E+00        -0.68603E+08
 
   -0.68537E+08         0.65365E+06         0.00000E+00
    0.65365E+06        -0.97574E+08         0.00000E+00
    0.00000E+00         0.00000E+00        -0.68432E+08
 
   -0.68385E+08         0.64754E+06         0.00000E+00
    0.64754E+06        -0.97572E+08         0.00000E+00
    0.00000E+00         0.00000E+00        -0.68260E+08
 
   -0.68233E+08         0.64074E+06         0.00000E+00
    0.64074E+06        -0.97571E+08         0.00000E+00
    0.00000E+00         0.00000E+00        -0.68087E+08
 
   -0.68083E+08         0.63309E+06         0.00000E+00
    0.63309E+06        -0.97571E+08         0.00000E+00
    0.00000E+00         0.00000E+00        -0.67914E+08
 
   -0.67935E+08         0.62436E+06         0.00000E+00
    0.62436E+06        -0.97572E+08         0.00000E+00
    0.00000E+00         0.00000E+00        -0.67740E+08
 
   -0.67789E+08         0.61430E+06         0.00000E+00
    0.61430E+06        -0.97573E+08         0.00000E+00
    0.00000E+00         0.00000E+00        -0.67565E+08
 
   -0.67645E+08         0.60257E+06         0.00000E+00
    0.60257E+06        -0.97576E+08         0.00000E+00
    0.00000E+00         0.00000E+00        -0.67389E+08
 
   -0.67503E+08         0.58879E+06         0.00000E+00
    0.58879E+06        -0.97580E+08         0.00000E+00
    0.00000E+00         0.00000E+00        -0.67212E+08
 
   -0.67364E+08         0.57254E+06         0.00000E+00
    0.57254E+06        -0.97586E+08         0.00000E+00
    0.00000E+00         0.00000E+00        -0.67035E+08
 
   -0.67229E+08         0.55330E+06         0.00000E+00
    0.55330E+06        -0.97593E+08         0.00000E+00
    0.00000E+00         0.00000E+00        -0.66855E+08
 
   -0.67096E+08         0.53057E+06         0.00000E+00
    0.53057E+06        -0.97602E+08         0.00000E+00
    0.00000E+00         0.00000E+00        -0.66675E+08
 
   -0.66968E+08         0.50379E+06         0.00000E+00
    0.50379E+06        -0.97613E+08         0.00000E+00
    0.00000E+00         0.00000E+00        -0.66492E+08
 
   -0.66844E+08         0.47242E+06         0.00000E+00
    0.47242E+06        -0.97626E+08         0.00000E+00
    0.00000E+00         0.00000E+00        -0.66307E+08
 
   -0.66724E+08         0.43599E+06         0.00000E+00
    0.43599E+06        -0.97640E+08         0.00000E+00
    0.00000E+00         0.00000E+00        -0.66119E+08
 
   -0.66609E+08         0.39415E+06         0.00000E+00
    0.39415E+06        -0.97653E+08         0.00000E+00
    0.00000E+00         0.00000E+00        -0.65927E+08
 
   -0.66500E+08         0.34677E+06         0.00000E+00
    0.34677E+06        -0.97667E+08         0.00000E+00
    0.00000E+00         0.00000E+00        -0.65729E+08
 
   -0.66397E+08         0.29419E+06         0.00000E+00
    0.29419E+06        -0.97678E+08         0.00000E+00
    0.00000E+00         0.00000E+00        -0.65522E+08
 
   -0.66302E+08         0.23751E+06         0.00000E+00
    0.23751E+06        -0.97685E+08         0.00000E+00
    0.00000E+00         0.00000E+00        -0.65305E+08
 
   -0.66216E+08         0.17914E+06         0.00000E+00
    0.17914E+06        -0.97687E+08         0.00000E+00
    0.00000E+00         0.00000E+00        -0.65075E+08
 
   -0.66140E+08         0.12321E+06         0.00000E+00
    0.12321E+06        -0.97681E+08         0.00000E+00
    0.00000E+00         0.00000E+00        -0.64830E+08
 
   -0.66076E+08         0.75096E+05         0.00000E+00
    0.75096E+05        -0.97666E+08         0.00000E+00
    0.00000E+00         0.00000E+00        -0.64565E+08
 
   -0.66024E+08         0.39374E+05         0.00000E+00
    0.39374E+05        -0.97637E+08         0.00000E+00
    0.00000E+00         0.00000E+00        -0.64277E+08
 
   -0.65987E+08         0.17195E+05         0.00000E+00
    0.17195E+05        -0.97590E+08         0.00000E+00
    0.00000E+00         0.00000E+00        -0.63959E+08
 
   -0.65967E+08         0.46696E+04         0.00000E+00
    0.46696E+04        -0.97519E+08         0.00000E+00
    0.00000E+00         0.00000E+00        -0.63606E+08
 
   -0.81277E+08        -0.81565E+04         0.00000E+00
   -0.81565E+04        -0.97615E+08         0.00000E+00
    0.00000E+00         0.00000E+00        -0.84866E+08
 
   -0.81257E+08        -0.10589E+05         0.00000E+00
   -0.10589E+05        -0.97565E+08         0.00000E+00
    0.00000E+00         0.00000E+00        -0.84359E+08
 
   -0.81213E+08         0.22060E+05         0.00000E+00
    0.22060E+05        -0.97484E+08         0.00000E+00
    0.00000E+00         0.00000E+00        -0.83912E+08
 
   -0.81148E+08         0.88396E+05         0.00000E+00
    0.88396E+05        -0.97428E+08         0.00000E+00
    0.00000E+00         0.00000E+00        -0.83513E+08
 
   -0.81080E+08         0.16998E+06         0.00000E+00
    0.16998E+06        -0.97421E+08         0.00000E+00
    0.00000E+00         0.00000E+00        -0.83154E+08
 
   -0.81013E+08         0.25260E+06         0.00000E+00
    0.25260E+06        -0.97449E+08         0.00000E+00
    0.00000E+00         0.00000E+00        -0.82825E+08
 
   -0.80933E+08         0.32518E+06         0.00000E+00
    0.32518E+06        -0.97487E+08         0.00000E+00
    0.00000E+00         0.00000E+00        -0.82521E+08
 
   -0.80835E+08         0.38217E+06         0.00000E+00
    0.38217E+06        -0.97516E+08         0.00000E+00
    0.00000E+00         0.00000E+00        -0.82239E+08
 
   -0.80723E+08         0.42845E+06         0.00000E+00
    0.42845E+06        -0.97527E+08         0.00000E+00
    0.00000E+00         0.00000E+00        -0.81974E+08
 
   -0.80598E+08         0.47142E+06         0.00000E+00
    0.47142E+06        -0.97524E+08         0.00000E+00
    0.00000E+00         0.00000E+00        -0.81722E+08
 
   -0.80462E+08         0.51439E+06         0.00000E+00
    0.51439E+06        -0.97517E+08         0.00000E+00
    0.00000E+00         0.00000E+00        -0.81481E+08
 
   -0.80316E+08         0.55692E+06         0.00000E+00
    0.55692E+06        -0.97513E+08         0.00000E+00
    0.00000E+00         0.00000E+00        -0.81247E+08
 
   -0.80161E+08         0.59744E+06         0.00000E+00
    0.59744E+06        -0.97512E+08         0.00000E+00
    0.00000E+00         0.00000E+00        -0.81018E+08
 
   -0.79998E+08         0.63474E+06         0.00000E+00
    0.63474E+06        -0.97516E+08         0.00000E+00
    0.00000E+00         0.00000E+00        -0.80792E+08
 
   -0.79831E+08         0.66833E+06         0.00000E+00
    0.66833E+06        -0.97523E+08         0.00000E+00
    0.00000E+00         0.00000E+00        -0.80567E+08
 
   -0.79659E+08         0.69814E+06         0.00000E+00
    0.69814E+06        -0.97531E+08         0.00000E+00
    0.00000E+00         0.00000E+00        -0.80341E+08
 
   -0.79484E+08         0.72431E+06         0.00000E+00
    0.72431E+06        -0.97540E+08         0.00000E+00
    0.00000E+00         0.00000E+00        -0.80115E+08
 
   -0.79306E+08         0.74702E+06         0.00000E+00
    0.74702E+06        -0.97548E+08         0.00000E+00
    0.00000E+00         0.00000E+00        -0.79887E+08
 
   -0.79124E+08         0.76643E+06         0.00000E+00
    0.76643E+06        -0.97556E+08         0.00000E+00
    0.00000E+00         0.00000E+00        -0.79657E+08
 
   -0.78940E+08         0.78257E+06         0.00000E+00
    0.78257E+06        -0.97563E+08         0.00000E+00
    0.00000E+00         0.00000E+00        -0.79424E+08
 
   -0.78754E+08         0.79537E+06         0.00000E+00
    0.79537E+06        -0.97571E+08         0.00000E+00
    0.00000E+00         0.00000E+00        -0.79189E+08
 
   -0.78566E+08         0.80476E+06         0.00000E+00
    0.80476E+06        -0.97581E+08         0.00000E+00
    0.00000E+00         0.00000E+00        -0.78951E+08
 
   -0.78375E+08         0.81096E+06         0.00000E+00
    0.81096E+06        -0.97595E+08         0.00000E+00
    0.00000E+00         0.00000E+00        -0.78710E+08
 
   -0.78181E+08         0.81463E+06         0.00000E+00
    0.81463E+06        -0.97615E+08         0.00000E+00
    0.00000E+00         0.00000E+00        -0.78466E+08
 
   -0.77983E+08         0.81630E+06         0.00000E+00
    0.81630E+06        -0.97628E+08         0.00000E+00
    0.00000E+00         0.00000E+00        -0.78236E+08
 
   -0.77782E+08         0.81016E+06         0.00000E+00
    0.81016E+06        -0.97618E+08         0.00000E+00
    0.00000E+00         0.00000E+00        -0.78031E+08
 
   -0.77580E+08         0.80565E+06         0.00000E+00
    0.80565E+06        -0.97609E+08         0.00000E+00
    0.00000E+00         0.00000E+00        -0.77828E+08
 
   -0.77377E+08         0.80323E+06         0.00000E+00
    0.80323E+06        -0.97602E+08         0.00000E+00
    0.00000E+00         0.00000E+00        -0.77623E+08
 
   -0.77174E+08         0.80257E+06         0.00000E+00
    0.80257E+06        -0.97598E+08         0.00000E+00
    0.00000E+00         0.00000E+00        -0.77416E+08
 
   -0.76971E+08         0.80323E+06         0.00000E+00
    0.80323E+06        -0.97595E+08         0.00000E+00
    0.00000E+00         0.00000E+00        -0.77208E+08
 
   -0.76769E+08         0.80468E+06         0.00000E+00
    0.80468E+06        -0.97593E+08         0.00000E+00
    0.00000E+00         0.00000E+00        -0.76997E+08
 
   -0.76567E+08         0.80647E+06         0.00000E+00
    0.80647E+06        -0.97592E+08         0.00000E+00
    0.00000E+00         0.00000E+00        -0.76785E+08
 
   -0.76365E+08         0.80818E+06         0.00000E+00
    0.80818E+06        -0.97593E+08         0.00000E+00
    0.00000E+00         0.00000E+00        -0.76571E+08
 
   -0.76165E+08         0.80944E+06         0.00000E+00
    0.80944E+06        -0.97594E+08         0.00000E+00
    0.00000E+00         0.00000E+00        -0.76355E+08
 
   -0.75965E+08         0.80989E+06         0.00000E+00
    0.80989E+06        -0.97595E+08         0.00000E+00
    0.00000E+00         0.00000E+00        -0.76138E+08
 
   -0.75765E+08         0.80927E+06         0.00000E+00
    0.80927E+06        -0.97599E+08         0.00000E+00
    0.00000E+00         0.00000E+00        -0.75919E+08
 
   -0.75567E+08         0.80754E+06         0.00000E+00
    0.80754E+06        -0.97605E+08         0.00000E+00
    0.00000E+00         0.00000E+00        -0.75698E+08
 
   -0.75369E+08         0.80512E+06         0.00000E+00
    0.80512E+06        -0.97615E+08         0.00000E+00
    0.00000E+00         0.00000E+00        -0.75476E+08
 
   -0.75170E+08         0.80263E+06         0.00000E+00
    0.80263E+06        -0.97624E+08         0.00000E+00
    0.00000E+00         0.00000E+00        -0.75260E+08
 
   -0.74970E+08         0.79343E+06         0.00000E+00
    0.79343E+06        -0.97619E+08         0.00000E+00
    0.00000E+00         0.00000E+00        -0.75061E+08
 
   -0.74772E+08         0.78585E+06         0.00000E+00
    0.78585E+06        -0.97613E+08         0.00000E+00
    0.00000E+00         0.00000E+00        -0.74866E+08
 
   -0.74575E+08         0.77969E+06         0.00000E+00
    0.77969E+06        -0.97609E+08         0.00000E+00
    0.00000E+00         0.00000E+00        -0.74671E+08
 
   -0.74380E+08         0.77456E+06         0.00000E+00
    0.77456E+06        -0.97606E+08         0.00000E+00
    0.00000E+00         0.00000E+00        -0.74475E+08
 
   -0.74187E+08         0.77006E+06         0.00000E+00
    0.77006E+06        -0.97605E+08         0.00000E+00
    0.00000E+00         0.00000E+00        -0.74278E+08
 
   -0.73995E+08         0.76571E+06         0.00000E+00
    0.76571E+06        -0.97605E+08         0.00000E+00
    0.00000E+00         0.00000E+00        -0.74081E+08
 
   -0.73806E+08         0.76117E+06         0.00000E+00
    0.76117E+06        -0.97608E+08         0.00000E+00
    0.00000E+00         0.00000E+00        -0.73884E+08
 
   -0.73617E+08         0.75642E+06         0.00000E+00
    0.75642E+06        -0.97612E+08         0.00000E+00
    0.00000E+00         0.00000E+00        -0.73686E+08
 
   -0.73430E+08         0.75158E+06         0.00000E+00
    0.75158E+06        -0.97619E+08         0.00000E+00
    0.00000E+00         0.00000E+00        -0.73487E+08
 
   -0.73244E+08         0.74474E+06         0.00000E+00
    0.74474E+06        -0.97618E+08         0.00000E+00
    0.00000E+00         0.00000E+00        -0.73299E+08
 
   -0.73058E+08         0.73756E+06         0.00000E+00
    0.73756E+06        -0.97613E+08         0.00000E+00
    0.00000E+00         0.00000E+00        -0.73119E+08
 
   -0.72875E+08         0.73144E+06         0.00000E+00
    0.73144E+06        -0.97609E+08         0.00000E+00
    0.00000E+00         0.00000E+00        -0.72938E+08
 
   -0.72693E+08         0.72611E+06         0.00000E+00
    0.72611E+06        -0.97608E+08         0.00000E+00
    0.00000E+00         0.00000E+00        -0.72756E+08
 
   -0.72512E+08         0.72131E+06         0.00000E+00
    0.72131E+06        -0.97607E+08         0.00000E+00
    0.00000E+00         0.00000E+00        -0.72575E+08
 
   -0.72334E+08         0.71671E+06         0.00000E+00
    0.71671E+06        -0.97607E+08         0.00000E+00
    0.00000E+00         0.00000E+00        -0.72394E+08
 
   -0.72156E+08         0.71211E+06         0.00000E+00
    0.71211E+06        -0.97609E+08         0.00000E+00
    0.00000E+00         0.00000E+00        -0.72212E+08
 
   -0.71981E+08         0.70742E+06         0.00000E+00
    0.70742E+06        -0.97611E+08         0.00000E+00
    0.00000E+00         0.00000E+00        -0.72031E+08
 
   -0.71806E+08         0.70269E+06         0.00000E+00
    0.70269E+06        -0.97614E+08         0.00000E+00
    0.00000E+00         0.00000E+00        -0.71851E+08
 
   -0.71632E+08         0.69732E+06         0.00000E+00
    0.69732E+06        -0.97612E+08         0.00000E+00
    0.00000E+00         0.00000E+00        -0.71677E+08
 
   -0.71459E+08         0.69242E+06         0.00000E+00
    0.69242E+06        -0.97609E+08         0.00000E+00
    0.00000E+00         0.00000E+00        -0.71505E+08
 
   -0.71287E+08         0.68804E+06         0.00000E+00
    0.68804E+06        -0.97608E+08         0.00000E+00
    0.00000E+00         0.00000E+00        -0.71333E+08
 
   -0.71116E+08         0.68410E+06         0.00000E+00
    0.68410E+06        -0.97607E+08         0.00000E+00
    0.00000E+00         0.00000E+00        -0.71160E+08
 
   -0.70946E+08         0.68048E+06         0.00000E+00
    0.68048E+06        -0.97606E+08         0.00000E+00
    0.00000E+00         0.00000E+00        -0.70988E+08
 
   -0.70777E+08         0.67707E+06         0.00000E+00
    0.67707E+06        -0.97606E+08         0.00000E+00
    0.00000E+00         0.00000E+00        -0.70815E+08
 
   -0.70609E+08         0.67380E+06         0.00000E+00
    0.67380E+06        -0.97606E+08         0.00000E+00
    0.00000E+00         0.00000E+00        -0.70643E+08
 
   -0.70442E+08         0.67059E+06         0.00000E+00
    0.67059E+06        -0.97606E+08         0.00000E+00
    0.00000E+00         0.00000E+00        -0.70470E+08
 
   -0.70276E+08         0.66739E+06         0.00000E+00
    0.66739E+06        -0.97607E+08         0.00000E+00
    0.00000E+00         0.00000E+00        -0.70297E+08
 
   -0.70112E+08         0.66411E+06         0.00000E+00
    0.66411E+06        -0.97605E+08         0.00000E+00
    0.00000E+00         0.00000E+00        -0.70126E+08
 
   -0.69951E+08         0.66065E+06         0.00000E+00
    0.66065E+06        -0.97602E+08         0.00000E+00
    0.00000E+00         0.00000E+00        -0.69957E+08
 
   -0.69792E+08         0.65710E+06         0.00000E+00
    0.65710E+06        -0.97598E+08         0.00000E+00
    0.00000E+00         0.00000E+00        -0.69788E+08
 
   -0.69633E+08         0.65345E+06         0.00000E+00
    0.65345E+06        -0.97594E+08         0.00000E+00
    0.00000E+00         0.00000E+00        -0.69619E+08
 
   -0.69474E+08         0.64969E+06         0.00000E+00
    0.64969E+06        -0.97590E+08         0.00000E+00
    0.00000E+00         0.00000E+00        -0.69450E+08
 
   -0.69316E+08         0.64577E+06         0.00000E+00
    0.64577E+06        -0.97587E+08         0.00000E+00
    0.00000E+00         0.00000E+00        -0.69280E+08
 
   -0.69159E+08         0.64168E+06         0.00000E+00
    0.64168E+06        -0.97583E+08         0.00000E+00
    0.00000E+00         0.00000E+00        -0.69110E+08
 
   -0.69003E+08         0.63736E+06         0.00000E+00
    0.63736E+06        -0.97580E+08         0.00000E+00
    0.00000E+00         0.00000E+00        -0.68940E+08
 
   -0.68847E+08         0.63278E+06         0.00000E+00
    0.63278E+06        -0.97578E+08         0.00000E+00
    0.00000E+00         0.00000E+00        -0.68769E+08
 
   -0.68692E+08         0.62787E+06         0.00000E+00
    0.62787E+06        -0.97575E+08         0.00000E+00
    0.00000E+00         0.00000E+00        -0.68598E+08
 
   -0.68539E+08         0.62256E+06         0.00000E+00
    0.62256E+06        -0.97573E+08         0.00000E+00
    0.00000E+00         0.00000E+00        -0.68426E+08
 
   -0.68386E+08         0.61673E+06         0.00000E+00
    0.61673E+06        -0.97571E+08         0.00000E+00
    0.00000E+00         0.00000E+00        -0.68254E+08
 
   -0.68235E+08         0.61025E+06         0.00000E+00
    0.61025E+06        -0.97570E+08         0.00000E+00
    0.00000E+00         0.00000E+00        -0.68081E+08
 
   -0.68086E+08         0.60297E+06         0.00000E+00
    0.60297E+06        -0.97570E+08         0.00000E+00
    0.00000E+00         0.00000E+00        -0.67908E+08
 
   -0.67938E+08         0.59465E+06         0.00000E+00
    0.59465E+06        -0.97570E+08         0.00000E+00
    0.00000E+00         0.00000E+00        -0.67733E+08
 
   -0.67792E+08         0.58505E+06         0.00000E+00
    0.58505E+06        -0.97571E+08         0.00000E+00
    0.00000E+00         0.00000E+00        -0.67558E+08
 
   -0.67648E+08         0.57384E+06         0.00000E+00
    0.57384E+06        -0.97574E+08         0.00000E+00
    0.00000E+00         0.00000E+00        -0.67381E+08
 
   -0.67507E+08         0.56064E+06         0.00000E+00
    0.56064E+06        -0.97577E+08         0.00000E+00
    0.00000E+00         0.00000E+00        -0.67204E+08
 
   -0.67368E+08         0.54503E+06         0.00000E+00
    0.54503E+06        -0.97582E+08         0.00000E+00
    0.00000E+00         0.00000E+00        -0.67025E+08
 
   -0.67233E+08         0.52651E+06         0.00000E+00
    0.52651E+06        -0.97589E+08         0.00000E+00
    0.00000E+00         0.00000E+00        -0.66845E+08
 
   -0.67101E+08         0.50456E+06         0.00000E+00
    0.50456E+06        -0.97598E+08         0.00000E+00
    0.00000E+00         0.00000E+00        -0.66663E+08
 
   -0.66974E+08         0.47864E+06         0.00000E+00
    0.47864E+06        -0.97608E+08         0.00000E+00
    0.00000E+00         0.00000E+00        -0.66479E+08
 
   -0.66850E+08         0.44822E+06         0.00000E+00
    0.44822E+06        -0.97619E+08         0.00000E+00
    0.00000E+00         0.00000E+00        -0.66293E+08
 
   -0.66731E+08         0.41285E+06         0.00000E+00
    0.41285E+06        -0.97632E+08         0.00000E+00
    0.00000E+00         0.00000E+00        -0.66103E+08
 
   -0.66618E+08         0.37220E+06         0.00000E+00
    0.37220E+06        -0.97645E+08         0.00000E+00
    0.00000E+00         0.00000E+00        -0.65908E+08
 
   -0.66511E+08         0.32621E+06         0.00000E+00
    0.32621E+06        -0.97657E+08         0.00000E+00
    0.00000E+00         0.00000E+00        -0.65707E+08
 
   -0.66410E+08         0.27526E+06         0.00000E+00
    0.27526E+06        -0.97667E+08         0.00000E+00
    0.00000E+00         0.00000E+00        -0.65498E+08
 
   -0.66318E+08         0.22048E+06         0.00000E+00
    0.22048E+06        -0.97674E+08         0.00000E+00
    0.00000E+00         0.00000E+00        -0.65278E+08
 
   -0.66236E+08         0.16423E+06         0.00000E+00
    0.16423E+06        -0.97676E+08         0.00000E+00
    0.00000E+00         0.00000E+00        -0.65046E+08
 
   -0.66164E+08         0.11051E+06         0.00000E+00
    0.11051E+06        -0.97672E+08         0.00000E+00
    0.00000E+00         0.00000E+00        -0.64798E+08
 
   -0.66103E+08         0.64629E+05         0.00000E+00
    0.64629E+05        -0.97659E+08         0.00000E+00
    0.00000E+00         0.00000E+00        -0.64533E+08
 
   -0.66054E+08         0.31334E+05         0.00000E+00
    0.31334E+05        -0.97633E+08         0.00000E+00
    0.00000E+00         0.00000E+00        -0.64246E+08
 
   -0.66018E+08         0.12027E+05         0.00000E+00
    0.12027E+05        -0.97588E+08         0.00000E+00
    0.00000E+00         0.00000E+00        -0.63931E+08
 
   -0.65999E+08         0.28732E+04         0.00000E+00
    0.28732E+04        -0.97519E+08         0.00000E+00
    0.00000E+00         0.00000E+00        -0.63579E+08
 
   -0.81223E+08        -0.95499E+04         0.00000E+00
   -0.95499E+04        -0.97612E+08         0.00000E+00
    0.00000E+00         0.00000E+00        -0.84895E+08
 
   -0.81207E+08        -0.15724E+05         0.00000E+00
   -0.15724E+05        -0.97567E+08         0.00000E+00
    0.00000E+00         0.00000E+00        -0.84394E+08
 
   -0.81172E+08         0.12036E+05         0.00000E+00
    0.12036E+05        -0.97493E+08         0.00000E+00
    0.00000E+00         0.00000E+00        -0.83951E+08
 
   -0.81118E+08         0.75459E+05         0.00000E+00
    0.75459E+05        -0.97444E+08         0.00000E+00
    0.00000E+00         0.00000E+00        -0.83556E+08
 
   -0.81057E+08         0.15687E+06         0.00000E+00
    0.15687E+06        -0.97438E+08         0.00000E+00
    0.00000E+00         0.00000E+00        -0.83196E+08
 
   -0.80991E+08         0.23801E+06         0.00000E+00
    0.23801E+06        -0.97464E+08         0.00000E+00
    0.00000E+00         0.00000E+00        -0.82865E+08
 
   -0.80911E+08         0.30725E+06         0.00000E+00
    0.30725E+06        -0.97500E+08         0.00000E+00
    0.00000E+00         0.00000E+00        -0.82557E+08
 
   -0.80815E+08         0.36119E+06         0.00000E+00
    0.36119E+06        -0.97526E+08         0.00000E+00
    0.00000E+00         0.00000E+00        -0.82269E+08
 
   -0.80704E+08         0.40497E+06         0.00000E+00
    0.40497E+06        -0.97535E+08         0.00000E+00
    0.00000E+00         0.00000E+00        -0.81998E+08
 
   -0.80581E+08         0.44555E+06         0.00000E+00
    0.44555E+06        -0.97533E+08         0.00000E+00
    0.00000E+00         0.00000E+00        -0.81741E+08
 
   -0.80447E+08         0.48622E+06         0.00000E+00
    0.48622E+06        -0.97526E+08         0.00000E+00
    0.00000E+00         0.00000E+00        -0.81495E+08
 
   -0.80301E+08         0.52675E+06         0.00000E+00
    0.52675E+06        -0.97521E+08         0.00000E+00
    0.00000E+00         0.00000E+00        -0.81257E+08
 
   -0.80147E+08         0.56566E+06         0.00000E+00
    0.56566E+06        -0.97520E+08         0.00000E+00
    0.00000E+00         0.00000E+00        -0.81023E+08
 
   -0.79985E+08         0.60175E+06         0.00000E+00
    0.60175E+06        -0.97523E+08         0.00000E+00
    0.00000E+00         0.00000E+00        -0.80794E+08
 
   -0.79818E+08         0.63438E+06         0.00000E+00
    0.63438E+06        -0.97529E+08         0.00000E+00
    0.00000E+00         0.00000E+00        -0.80566E+08
 
   -0.79646E+08         0.66339E+06         0.00000E+00
    0.66339E+06        -0.97537E+08         0.00000E+00
    0.00000E+00         0.00000E+00        -0.80338E+08
 
   -0.79470E+08         0.68887E+06         0.00000E+00
    0.68887E+06        -0.97545E+08         0.00000E+00
    0.00000E+00         0.00000E+00        -0.80110E+08
 
   -0.79291E+08         0.71098E+06         0.00000E+00
    0.71098E+06        -0.97552E+08         0.00000E+00
    0.00000E+00         0.00000E+00        -0.79880E+08
 
   -0.79109E+08         0.72984E+06         0.00000E+00
    0.72984E+06        -0.97559E+08         0.00000E+00
    0.00000E+00         0.00000E+00        -0.79649E+08
 
   -0.78925E+08         0.74551E+06         0.00000E+00
    0.74551E+06        -0.97566E+08         0.00000E+00
    0.00000E+00         0.00000E+00        -0.79415E+08
 
   -0.78738E+08         0.75789E+06         0.00000E+00
    0.75789E+06        -0.97573E+08         0.00000E+00
    0.00000E+00         0.00000E+00        -0.79179E+08
 
   -0.78550E+08         0.76686E+06         0.00000E+00
    0.76686E+06        -0.97583E+08         0.00000E+00
    0.00000E+00         0.00000E+00        -0.78941E+08
 
   -0.78359E+08         0.77256E+06         0.00000E+00
    0.77256E+06        -0.97596E+08         0.00000E+00
    0.00000E+00         0.00000E+00        -0.78699E+08
 
   -0.78165E+08         0.77551E+06         0.00000E+00
    0.77551E+06        -0.97616E+08         0.00000E+00
    0.00000E+00         0.00000E+00        -0.78455E+08
 
   -0.77967E+08         0.77624E+06         0.00000E+00
    0.77624E+06        -0.97627E+08         0.00000E+00
    0.00000E+00         0.00000E+00        -0.78226E+08
 
   -0.77766E+08         0.76979E+06         0.00000E+00
    0.76979E+06        -0.97617E+08         0.00000E+00
    0.00000E+00         0.00000E+00        -0.78022E+08
 
   -0.77564E+08         0.76512E+06         0.00000E+00
    0.76512E+06        -0.97608E+08         0.00000E+00
    0.00000E+00         0.00000E+00        -0.77820E+08
 
   -0.77361E+08         0.76267E+06         0.00000E+00
    0.76267E+06        -0.97602E+08         0.00000E+00
    0.00000E+00         0.00000E+00        -0.77615E+08
 
   -0.77159E+08         0.76205E+06         0.00000E+00
    0.76205E+06        -0.97598E+08         0.00000E+00
    0.00000E+00         0.00000E+00        -0.77408E+08
 
   -0.76957E+08         0.76276E+06         0.00000E+00
    0.76276E+06        -0.97595E+08         0.00000E+00
    0.00000E+00         0.00000E+00        -0.77200E+08
 
   -0.76755E+08         0.76430E+06         0.00000E+00
    0.76430E+06        -0.97593E+08         0.00000E+00
    0.00000E+00         0.00000E+00        -0.76989E+08
 
   -0.76553E+08         0.76618E+06         0.00000E+00
    0.76618E+06        -0.97593E+08         0.00000E+00
    0.00000E+00         0.00000E+00        -0.76777E+08
 
   -0.76353E+08         0.76801E+06         0.00000E+00
    0.76801E+06        -0.97593E+08         0.00000E+00
    0.00000E+00         0.00000E+00        -0.76564E+08
 
   -0.76152E+08         0.76941E+06         0.00000E+00
    0.76941E+06        -0.97594E+08         0.00000E+00
    0.00000E+00         0.00000E+00        -0.76348E+08
 
   -0.75953E+08         0.77002E+06         0.00000E+00
    0.77002E+06        -0.97595E+08         0.00000E+00
    0.00000E+00         0.00000E+00        -0.76131E+08
 
   -0.75754E+08         0.76954E+06         0.00000E+00
    0.76954E+06        -0.97599E+08         0.00000E+00
    0.00000E+00         0.00000E+00        -0.75912E+08
 
   -0.75556E+08         0.76794E+06         0.00000E+00
    0.76794E+06        -0.97605E+08         0.00000E+00
    0.00000E+00         0.00000E+00        -0.75692E+08
 
   -0.75358E+08         0.76552E+06         0.00000E+00
    0.76552E+06        -0.97615E+08         0.00000E+00
    0.00000E+00         0.00000E+00        -0.75470E+08
 
   -0.75160E+08         0.76280E+06         0.00000E+00
    0.76280E+06        -0.97623E+08         0.00000E+00
    0.00000E+00         0.00000E+00        -0.75255E+08
 
   -0.74961E+08         0.75362E+06         0.00000E+00
    0.75362E+06        -0.97618E+08         0.00000E+00
    0.00000E+00         0.00000E+00        -0.75057E+08
 
   -0.74763E+08         0.74632E+06         0.00000E+00
    0.74632E+06        -0.97612E+08         0.00000E+00
    0.00000E+00         0.00000E+00        -0.74862E+08
 
   -0.74566E+08         0.74054E+06         0.00000E+00
    0.74054E+06        -0.97608E+08         0.00000E+00
    0.00000E+00         0.00000E+00        -0.74667E+08
 
   -0.74372E+08         0.73579E+06         0.00000E+00
    0.73579E+06        -0.97605E+08         0.00000E+00
    0.00000E+00         0.00000E+00        -0.74471E+08
 
   -0.74179E+08         0.73166E+06         0.00000E+00
    0.73166E+06        -0.97604E+08         0.00000E+00
    0.00000E+00         0.00000E+00        -0.74275E+08
 
   -0.73988E+08         0.72765E+06         0.00000E+00
    0.72765E+06        -0.97605E+08         0.00000E+00
    0.00000E+00         0.00000E+00        -0.74078E+08
 
   -0.73799E+08         0.72341E+06         0.00000E+00
    0.72341E+06        -0.97607E+08         0.00000E+00
    0.00000E+00         0.00000E+00        -0.73880E+08
 
   -0.73611E+08         0.71889E+06         0.00000E+00
    0.71889E+06        -0.97611E+08         0.00000E+00
    0.00000E+00         0.00000E+00        -0.73682E+08
 
   -0.73424E+08         0.71435E+06         0.00000E+00
    0.71435E+06        -0.97618E+08         0.00000E+00
    0.00000E+00         0.00000E+00        -0.73484E+08
 
   -0.73238E+08         0.70752E+06         0.00000E+00
    0.70752E+06        -0.97616E+08         0.00000E+00
    0.00000E+00         0.00000E+00        -0.73297E+08
 
   -0.73053E+08         0.70069E+06         0.00000E+00
    0.70069E+06        -0.97612E+08         0.00000E+00
    0.00000E+00         0.00000E+00        -0.73116E+08
 
   -0.72870E+08         0.69489E+06         0.00000E+00
    0.69489E+06        -0.97608E+08         0.00000E+00
    0.00000E+00         0.00000E+00        -0.72935E+08
 
   -0.72688E+08         0.68991E+06         0.00000E+00
    0.68991E+06        -0.97607E+08         0.00000E+00
    0.00000E+00         0.00000E+00        -0.72754E+08
 
   -0.72508E+08         0.68545E+06         0.00000E+00
    0.68545E+06        -0.97606E+08         0.00000E+00
    0.00000E+00         0.00000E+00        -0.72573E+08
 
   -0.72330E+08         0.68117E+06         0.00000E+00
    0.68117E+06        -0.97606E+08         0.00000E+00
    0.00000E+00         0.00000E+00        -0.72392E+08
 
   -0.72153E+08         0.67684E+06         0.00000E+00
    0.67684E+06        -0.97608E+08         0.00000E+00
    0.00000E+00         0.00000E+00        -0.72210E+08
 
   -0.71977E+08         0.67237E+06         0.00000E+00
    0.67237E+06        -0.97611E+08         0.00000E+00
    0.00000E+00         0.00000E+00        -0.72028E+08
 
   -0.71802E+08         0.66781E+06         0.00000E+00
    0.66781E+06        -0.97613E+08         0.00000E+00
    0.00000E+00         0.00000E+00        -0.71849E+08
 
   -0.71628E+08         0.66263E+06         0.00000E+00
    0.66263E+06        -0.97611E+08         0.00000E+00
    0.00000E+00         0.00000E+00        -0.71675E+08
 
   -0.71456E+08         0.65794E+06         0.00000E+00
    0.65794E+06        -0.97608E+08         0.00000E+00
    0.00000E+00         0.00000E+00        -0.71503E+08
 
   -0.71284E+08         0.65378E+06         0.00000E+00
    0.65378E+06        -0.97607E+08         0.00000E+00
    0.00000E+00         0.00000E+00        -0.71331E+08
 
   -0.71113E+08         0.65006E+06         0.00000E+00
    0.65006E+06        -0.97606E+08         0.00000E+00
    0.00000E+00         0.00000E+00        -0.71158E+08
 
   -0.70944E+08         0.64665E+06         0.00000E+00
    0.64665E+06        -0.97606E+08         0.00000E+00
    0.00000E+00         0.00000E+00        -0.70985E+08
 
   -0.70775E+08         0.64344E+06         0.00000E+00
    0.64344E+06        -0.97606E+08         0.00000E+00
    0.00000E+00         0.00000E+00        -0.70813E+08
 
   -0.70608E+08         0.64034E+06         0.00000E+00
    0.64034E+06        -0.97606E+08         0.00000E+00
    0.00000E+00         0.00000E+00        -0.70640E+08
 
   -0.70441E+08         0.63730E+06         0.00000E+00
    0.63730E+06        -0.97606E+08         0.00000E+00
    0.00000E+00         0.00000E+00        -0.70467E+08
 
   -0.70275E+08         0.63427E+06         0.00000E+00
    0.63427E+06        -0.97606E+08         0.00000E+00
    0.00000E+00         0.00000E+00        -0.70295E+08
 
   -0.70111E+08         0.63115E+06         0.00000E+00
    0.63115E+06        -0.97605E+08         0.00000E+00
    0.00000E+00         0.00000E+00        -0.70123E+08
 
   -0.69951E+08         0.62785E+06         0.00000E+00
    0.62785E+06        -0.97601E+08         0.00000E+00
    0.00000E+00         0.00000E+00        -0.69954E+08
 
   -0.69791E+08         0.62446E+06         0.00000E+00
    0.62446E+06        -0.97597E+08         0.00000E+00
    0.00000E+00         0.00000E+00        -0.69785E+08
 
   -0.69632E+08         0.62098E+06         0.00000E+00
    0.62098E+06        -0.97593E+08         0.00000E+00
    0.00000E+00         0.00000E+00        -0.69616E+08
 
   -0.69474E+08         0.61738E+06         0.00000E+00
    0.61738E+06        -0.97589E+08         0.00000E+00
    0.00000E+00         0.00000E+00        -0.69446E+08
 
   -0.69317E+08         0.61364E+06         0.00000E+00
    0.61364E+06        -0.97586E+08         0.00000E+00
    0.00000E+00         0.00000E+00        -0.69276E+08
 
   -0.69160E+08         0.60973E+06         0.00000E+00
    0.60973E+06        -0.97583E+08         0.00000E+00
    0.00000E+00         0.00000E+00        -0.69106E+08
 
   -0.69004E+08         0.60562E+06         0.00000E+00
    0.60562E+06        -0.97580E+08         0.00000E+00
    0.00000E+00         0.00000E+00        -0.68936E+08
 
   -0.68848E+08         0.60125E+06         0.00000E+00
    0.60125E+06        -0.97577E+08         0.00000E+00
    0.00000E+00         0.00000E+00        -0.68765E+08
 
   -0.68694E+08         0.59658E+06         0.00000E+00
    0.59658E+06        -0.97574E+08         0.00000E+00
    0.00000E+00         0.00000E+00        -0.68593E+08
 
   -0.68541E+08         0.59152E+06         0.00000E+00
    0.59152E+06        -0.97572E+08         0.00000E+00
    0.00000E+00         0.00000E+00        -0.68421E+08
 
   -0.68388E+08         0.58598E+06         0.00000E+00
    0.58598E+06        -0.97570E+08         0.00000E+00
    0.00000E+00         0.00000E+00        -0.68249E+08
 
   -0.68238E+08         0.57983E+06         0.00000E+00
    0.57983E+06        -0.97569E+08         0.00000E+00
    0.00000E+00         0.00000E+00        -0.68075E+08
 
   -0.68088E+08         0.57291E+06         0.00000E+00
    0.57291E+06        -0.97568E+08         0.00000E+00
    0.00000E+00         0.00000E+00        -0.67901E+08
 
   -0.67941E+08         0.56500E+06         0.00000E+00
    0.56500E+06        -0.97569E+08         0.00000E+00
    0.00000E+00         0.00000E+00        -0.67726E+08
 
   -0.67795E+08         0.55586E+06         0.00000E+00
    0.55586E+06        -0.97569E+08         0.00000E+00
    0.00000E+00         0.00000E+00        -0.67550E+08
 
   -0.67651E+08         0.54517E+06         0.00000E+00
    0.54517E+06        -0.97571E+08         0.00000E+00
    0.00000E+00         0.00000E+00        -0.67373E+08
 
   -0.67511E+08         0.53256E+06         0.00000E+00
    0.53256E+06        -0.97575E+08         0.00000E+00
    0.00000E+00         0.00000E+00        -0.67195E+08
 
   -0.67373E+08         0.51760E+06         0.00000E+00
    0.51760E+06        -0.97579E+08         0.00000E+00
    0.00000E+00         0.00000E+00        -0.67016E+08
 
   -0.67238E+08         0.49981E+06         0.00000E+00
    0.49981E+06        -0.97585E+08         0.00000E+00
    0.00000E+00         0.00000E+00        -0.66835E+08
 
   -0.67107E+08         0.47867E+06         0.00000E+00
    0.47867E+06        -0.97593E+08         0.00000E+00
    0.00000E+00         0.00000E+00        -0.66652E+08
 
   -0.66980E+08         0.45365E+06         0.00000E+00
    0.45365E+06        -0.97602E+08         0.00000E+00
    0.00000E+00         0.00000E+00        -0.66466E+08
 
   -0.66857E+08         0.42422E+06         0.00000E+00
    0.42422E+06        -0.97613E+08         0.00000E+00
    0.00000E+00         0.00000E+00        -0.66278E+08
 
   -0.66739E+08         0.38997E+06         0.00000E+00
    0.38997E+06        -0.97625E+08         0.00000E+00
    0.00000E+00         0.00000E+00        -0.66086E+08
 
   -0.66627E+08         0.35059E+06         0.00000E+00
    0.35059E+06        -0.97636E+08         0.00000E+00
    0.00000E+00         0.00000E+00        -0.65889E+08
 
   -0.66522E+08         0.30608E+06         0.00000E+00
    0.30608E+06        -0.97647E+08         0.00000E+00
    0.00000E+00         0.00000E+00        -0.65686E+08
 
   -0.66424E+08         0.25687E+06         0.00000E+00
    0.25687E+06        -0.97657E+08         0.00000E+00
    0.00000E+00         0.00000E+00        -0.65474E+08
 
   -0.66335E+08         0.20412E+06         0.00000E+00
    0.20412E+06        -0.97663E+08         0.00000E+00
    0.00000E+00         0.00000E+00        -0.65251E+08
 
   -0.66256E+08         0.15010E+06         0.00000E+00
    0.15010E+06        -0.97665E+08         0.00000E+00
    0.00000E+00         0.00000E+00        -0.65016E+08
 
   -0.66188E+08         0.98585E+05         0.00000E+00
    0.98585E+05        -0.97662E+08         0.00000E+00
    0.00000E+00         0.00000E+00        -0.64767E+08
 
   -0.66130E+08         0.54799E+05         0.00000E+00
    0.54799E+05        -0.97652E+08         0.00000E+00
    0.00000E+00         0.00000E+00        -0.64502E+08
 
   -0.66084E+08         0.23698E+05         0.00000E+00
    0.23698E+05        -0.97629E+08         0.00000E+00
    0.00000E+00         0.00000E+00        -0.64216E+08
 
   -0.66049E+08         0.70443E+04         0.00000E+00
    0.70443E+04        -0.97587E+08         0.00000E+00
    0.00000E+00         0.00000E+00        -0.63902E+08
 
   -0.66031E+08         0.11237E+04         0.00000E+00
    0.11237E+04        -0.97520E+08         0.00000E+00
    0.00000E+00         0.00000E+00        -0.63552E+08
 
   -0.81169E+08        -0.10623E+05         0.00000E+00
   -0.10623E+05        -0.97608E+08         0.00000E+00
    0.00000E+00         0.00000E+00        -0.84923E+08
 
   -0.81157E+08        -0.19756E+05         0.00000E+00
   -0.19756E+05        -0.97568E+08         0.00000E+00
    0.00000E+00         0.00000E+00        -0.84428E+08
 
   -0.81129E+08         0.40318E+04         0.00000E+00
    0.40318E+04        -0.97503E+08         0.00000E+00
    0.00000E+00         0.00000E+00        -0.83991E+08
 
   -0.81086E+08         0.64484E+05         0.00000E+00
    0.64484E+05        -0.97459E+08         0.00000E+00
    0.00000E+00         0.00000E+00        -0.83598E+08
 
   -0.81032E+08         0.14451E+06         0.00000E+00
    0.14451E+06        -0.97455E+08         0.00000E+00
    0.00000E+00         0.00000E+00        -0.83238E+08
 
   -0.80968E+08         0.22359E+06         0.00000E+00
    0.22359E+06        -0.97479E+08         0.00000E+00
    0.00000E+00         0.00000E+00        -0.82904E+08
 
   -0.80890E+08         0.28964E+06         0.00000E+00
    0.28964E+06        -0.97512E+08         0.00000E+00
    0.00000E+00         0.00000E+00        -0.82591E+08
 
   -0.80795E+08         0.34059E+06         0.00000E+00
    0.34059E+06        -0.97535E+08         0.00000E+00
    0.00000E+00         0.00000E+00        -0.82298E+08
 
   -0.80686E+08         0.38181E+06         0.00000E+00
    0.38181E+06        -0.97543E+08         0.00000E+00
    0.00000E+00         0.00000E+00        -0.82022E+08
 
   -0.80565E+08         0.41995E+06         0.00000E+00
    0.41995E+06        -0.97541E+08         0.00000E+00
    0.00000E+00         0.00000E+00        -0.81760E+08
 
   -0.80432E+08         0.45828E+06         0.00000E+00
    0.45828E+06        -0.97534E+08         0.00000E+00
    0.00000E+00         0.00000E+00        -0.81508E+08
 
   -0.80287E+08         0.49674E+06         0.00000E+00
    0.49674E+06        -0.97529E+08         0.00000E+00
    0.00000E+00         0.00000E+00        -0.81265E+08
 
   -0.80133E+08         0.53399E+06         0.00000E+00
    0.53399E+06        -0.97527E+08         0.00000E+00
    0.00000E+00         0.00000E+00        -0.81028E+08
 
   -0.79972E+08         0.56879E+06         0.00000E+00
    0.56879E+06        -0.97530E+08         0.00000E+00
    0.00000E+00         0.00000E+00        -0.80795E+08
 
   -0.79805E+08         0.60040E+06         0.00000E+00
    0.60040E+06        -0.97535E+08         0.00000E+00
    0.00000E+00         0.00000E+00        -0.80564E+08
 
   -0.79633E+08         0.62859E+06         0.00000E+00
    0.62859E+06        -0.97542E+08         0.00000E+00
    0.00000E+00         0.00000E+00        -0.80334E+08
 
   -0.79457E+08         0.65335E+06         0.00000E+00
    0.65335E+06        -0.97549E+08         0.00000E+00
    0.00000E+00         0.00000E+00        -0.80104E+08
 
   -0.79277E+08         0.67483E+06         0.00000E+00
    0.67483E+06        -0.97556E+08         0.00000E+00
    0.00000E+00         0.00000E+00        -0.79873E+08
 
   -0.79095E+08         0.69316E+06         0.00000E+00
    0.69316E+06        -0.97563E+08         0.00000E+00
    0.00000E+00         0.00000E+00        -0.79641E+08
 
   -0.78910E+08         0.70836E+06         0.00000E+00
    0.70836E+06        -0.97569E+08         0.00000E+00
    0.00000E+00         0.00000E+00        -0.79407E+08
 
   -0.78723E+08         0.72035E+06         0.00000E+00
    0.72035E+06        -0.97576E+08         0.00000E+00
    0.00000E+00         0.00000E+00        -0.79170E+08
 
   -0.78534E+08         0.72893E+06         0.00000E+00
    0.72893E+06        -0.97584E+08         0.00000E+00
    0.00000E+00         0.00000E+00        -0.78931E+08
 
   -0.78343E+08         0.73413E+06         0.00000E+00
    0.73413E+06        -0.97597E+08         0.00000E+00
    0.00000E+00         0.00000E+00        -0.78689E+08
 
   -0.78149E+08         0.73640E+06         0.00000E+00
    0.73640E+06        -0.97616E+08         0.00000E+00
    0.00000E+00         0.00000E+00        -0.78445E+08
 
   -0.77951E+08         0.73617E+06         0.00000E+00
    0.73617E+06        -0.97626E+08         0.00000E+00
    0.00000E+00         0.00000E+00        -0.78217E+08
 
   -0.77750E+08         0.72945E+06         0.00000E+00
    0.72945E+06        -0.97616E+08         0.00000E+00
    0.00000E+00         0.00000E+00        -0.78014E+08
 
   -0.77548E+08         0.72466E+06         0.00000E+00
    0.72466E+06        -0.97607E+08         0.00000E+00
    0.00000E+00         0.00000E+00        -0.77811E+08
 
   -0.77346E+08         0.72220E+06         0.00000E+00
    0.72220E+06        -0.97601E+08         0.00000E+00
    0.00000E+00         0.00000E+00        -0.77606E+08
 
   -0.77144E+08         0.72162E+06         0.00000E+00
    0.72162E+06        -0.97598E+08         0.00000E+00
    0.00000E+00         0.00000E+00        -0.77400E+08
 
   -0.76943E+08         0.72241E+06         0.00000E+00
    0.72241E+06        -0.97595E+08         0.00000E+00
    0.00000E+00         0.00000E+00        -0.77192E+08
 
   -0.76741E+08         0.72402E+06         0.00000E+00
    0.72402E+06        -0.97594E+08         0.00000E+00
    0.00000E+00         0.00000E+00        -0.76982E+08
 
   -0.76540E+08         0.72600E+06         0.00000E+00
    0.72600E+06        -0.97593E+08         0.00000E+00
    0.00000E+00         0.00000E+00        -0.76770E+08
 
   -0.76340E+08         0.72794E+06         0.00000E+00
    0.72794E+06        -0.97593E+08         0.00000E+00
    0.00000E+00         0.00000E+00        -0.76556E+08
 
   -0.76140E+08         0.72948E+06         0.00000E+00
    0.72948E+06        -0.97594E+08         0.00000E+00
    0.00000E+00         0.00000E+00        -0.76341E+08
 
   -0.75941E+08         0.73025E+06         0.00000E+00
    0.73025E+06        -0.97596E+08         0.00000E+00
    0.00000E+00         0.00000E+00        -0.76124E+08
 
   -0.75743E+08         0.72992E+06         0.00000E+00
    0.72992E+06        -0.97599E+08         0.00000E+00
    0.00000E+00         0.00000E+00        -0.75905E+08
 
   -0.75545E+08         0.72844E+06         0.00000E+00
    0.72844E+06        -0.97604E+08         0.00000E+00
    0.00000E+00         0.00000E+00        -0.75685E+08
 
   -0.75348E+08         0.72602E+06         0.00000E+00
    0.72602E+06        -0.97614E+08         0.00000E+00
    0.00000E+00         0.00000E+00        -0.75464E+08
 
   -0.75150E+08         0.72301E+06         0.00000E+00
    0.72301E+06        -0.97622E+08         0.00000E+00
    0.00000E+00         0.00000E+00        -0.75250E+08
 
   -0.74951E+08         0.71389E+06         0.00000E+00
    0.71389E+06        -0.97616E+08         0.00000E+00
    0.00000E+00         0.00000E+00        -0.75053E+08
 
   -0.74754E+08         0.70690E+06         0.00000E+00
    0.70690E+06        -0.97610E+08         0.00000E+00
    0.00000E+00         0.00000E+00        -0.74859E+08
 
   -0.74558E+08         0.70148E+06         0.00000E+00
    0.70148E+06        -0.97607E+08         0.00000E+00
    0.00000E+00         0.00000E+00        -0.74664E+08
 
   -0.74364E+08         0.69711E+06         0.00000E+00
    0.69711E+06        -0.97605E+08         0.00000E+00
    0.00000E+00         0.00000E+00        -0.74468E+08
 
   -0.74171E+08         0.69334E+06         0.00000E+00
    0.69334E+06        -0.97604E+08         0.00000E+00
    0.00000E+00         0.00000E+00        -0.74272E+08
 
   -0.73981E+08         0.68968E+06         0.00000E+00
    0.68968E+06        -0.97604E+08         0.00000E+00
    0.00000E+00         0.00000E+00        -0.74075E+08
 
   -0.73792E+08         0.68574E+06         0.00000E+00
    0.68574E+06        -0.97606E+08         0.00000E+00
    0.00000E+00         0.00000E+00        -0.73877E+08
 
   -0.73604E+08         0.68144E+06         0.00000E+00
    0.68144E+06        -0.97610E+08         0.00000E+00
    0.00000E+00         0.00000E+00        -0.73679E+08
 
   -0.73418E+08         0.67718E+06         0.00000E+00
    0.67718E+06        -0.97617E+08         0.00000E+00
    0.00000E+00         0.00000E+00        -0.73482E+08
 
   -0.73232E+08         0.67038E+06         0.00000E+00
    0.67038E+06        -0.97615E+08         0.00000E+00
    0.00000E+00         0.00000E+00        -0.73295E+08
 
   -0.73048E+08         0.66387E+06         0.00000E+00
    0.66387E+06        -0.97610E+08         0.00000E+00
    0.00000E+00         0.00000E+00        -0.73114E+08
 
   -0.72865E+08         0.65840E+06         0.00000E+00
    0.65840E+06        -0.97607E+08         0.00000E+00
    0.00000E+00         0.00000E+00        -0.72933E+08
 
   -0.72683E+08         0.65377E+06         0.00000E+00
    0.65377E+06        -0.97606E+08         0.00000E+00
    0.00000E+00         0.00000E+00        -0.72752E+08
 
   -0.72503E+08         0.64965E+06         0.00000E+00
    0.64965E+06        -0.97605E+08         0.00000E+00
    0.00000E+00         0.00000E+00        -0.72571E+08
 
   -0.72325E+08         0.64568E+06         0.00000E+00
    0.64568E+06        -0.97605E+08         0.00000E+00
    0.00000E+00         0.00000E+00        -0.72389E+08
 
   -0.72149E+08         0.64163E+06         0.00000E+00
    0.64163E+06        -0.97607E+08         0.00000E+00
    0.00000E+00         0.00000E+00        -0.72208E+08
 
   -0.71974E+08         0.63738E+06         0.00000E+00
    0.63738E+06        -0.97610E+08         0.00000E+00
    0.00000E+00         0.00000E+00        -0.72026E+08
 
   -0.71799E+08         0.63298E+06         0.00000E+00
    0.63298E+06        -0.97612E+08         0.00000E+00
    0.00000E+00         0.00000E+00        -0.71847E+08
 
   -0.71626E+08         0.62799E+06         0.00000E+00
    0.62799E+06        -0.97610E+08         0.00000E+00
    0.00000E+00         0.00000E+00        -0.71673E+08
 
   -0.71453E+08         0.62351E+06         0.00000E+00
    0.62351E+06        -0.97607E+08         0.00000E+00
    0.00000E+00         0.00000E+00        -0.71501E+08
 
   -0.71282E+08         0.61957E+06         0.00000E+00
    0.61957E+06        -0.97606E+08         0.00000E+00
    0.00000E+00         0.00000E+00        -0.71328E+08
 
   -0.71111E+08         0.61607E+06         0.00000E+00
    0.61607E+06        -0.97605E+08         0.00000E+00
    0.00000E+00         0.00000E+00        -0.71156E+08
 
   -0.70942E+08         0.61287E+06         0.00000E+00
    0.61287E+06        -0.97605E+08         0.00000E+00
    0.00000E+00         0.00000E+00        -0.70983E+08
 
   -0.70774E+08         0.60985E+06         0.00000E+00
    0.60985E+06        -0.97605E+08         0.00000E+00
    0.00000E+00         0.00000E+00        -0.70810E+08
 
   -0.70606E+08         0.60694E+06         0.00000E+00
    0.60694E+06        -0.97605E+08         0.00000E+00
    0.00000E+00         0.00000E+00        -0.70638E+08
 
   -0.70440E+08         0.60407E+06         0.00000E+00
    0.60407E+06        -0.97605E+08         0.00000E+00
    0.00000E+00         0.00000E+00        -0.70465E+08
 
   -0.70274E+08         0.60120E+06         0.00000E+00
    0.60120E+06        -0.97605E+08         0.00000E+00
    0.00000E+00         0.00000E+00        -0.70292E+08
 
   -0.70111E+08         0.59824E+06         0.00000E+00
    0.59824E+06        -0.97604E+08         0.00000E+00
    0.00000E+00         0.00000E+00        -0.70120E+08
 
   -0.69950E+08         0.59510E+06         0.00000E+00
    0.59510E+06        -0.97600E+08         0.00000E+00
    0.00000E+00         0.00000E+00        -0.69951E+08
 
   -0.69791E+08         0.59188E+06         0.00000E+00
    0.59188E+06        -0.97596E+08         0.00000E+00
    0.00000E+00         0.00000E+00        -0.69781E+08
 
   -0.69632E+08         0.58857E+06         0.00000E+00
    0.58857E+06        -0.97593E+08         0.00000E+00
    0.00000E+00         0.00000E+00        -0.69612E+08
 
   -0.69474E+08         0.58514E+06         0.00000E+00
    0.58514E+06        -0.97589E+08         0.00000E+00
    0.00000E+00         0.00000E+00        -0.69442E+08
 
   -0.69317E+08         0.58158E+06         0.00000E+00
    0.58158E+06        -0.97585E+08         0.00000E+00
    0.00000E+00         0.00000E+00        -0.69272E+08
 
   -0.69160E+08         0.57785E+06         0.00000E+00
    0.57785E+06        -0.97582E+08         0.00000E+00
    0.00000E+00         0.00000E+00        -0.69102E+08
 
   -0.69005E+08         0.57394E+06         0.00000E+00
    0.57394E+06        -0.97579E+08         0.00000E+00
    0.00000E+00         0.00000E+00        -0.68931E+08
 
   -0.68850E+08         0.56978E+06         0.00000E+00
    0.56978E+06        -0.97576E+08         0.00000E+00
    0.00000E+00         0.00000E+00        -0.68760E+08
 
   -0.68696E+08         0.56535E+06         0.00000E+00
    0.56535E+06        -0.97574E+08         0.00000E+00
    0.00000E+00         0.00000E+00        -0.68588E+08
 
   -0.68543E+08         0.56055E+06         0.00000E+00
    0.56055E+06        -0.97571E+08         0.00000E+00
    0.00000E+00         0.00000E+00        -0.68416E+08
 
   -0.68391E+08         0.55529E+06         0.00000E+00
    0.55529E+06        -0.97570E+08         0.00000E+00
    0.00000E+00         0.00000E+00        -0.68243E+08
 
   -0.68240E+08         0.54947E+06         0.00000E+00
    0.54947E+06        -0.97568E+08         0.00000E+00
    0.00000E+00         0.00000E+00        -0.68069E+08
 
   -0.68091E+08         0.54291E+06         0.00000E+00
    0.54291E+06        -0.97567E+08         0.00000E+00
    0.00000E+00         0.00000E+00        -0.67895E+08
 
   -0.67944E+08         0.53541E+06         0.00000E+00
    0.53541E+06        -0.97567E+08         0.00000E+00
    0.00000E+00         0.00000E+00        -0.67719E+08
 
   -0.67798E+08         0.52674E+06         0.00000E+00
    0.52674E+06        -0.97568E+08         0.00000E+00
    0.00000E+00         0.00000E+00        -0.67543E+08
 
   -0.67655E+08         0.51657E+06         0.00000E+00
    0.51657E+06        -0.97569E+08         0.00000E+00
    0.00000E+00         0.00000E+00        -0.67366E+08
 
   -0.67515E+08         0.50455E+06         0.00000E+00
    0.50455E+06        -0.97572E+08         0.00000E+00
    0.00000E+00         0.00000E+00        -0.67187E+08
 
   -0.67377E+08         0.49026E+06         0.00000E+00
    0.49026E+06        -0.97576E+08         0.00000E+00
    0.00000E+00         0.00000E+00        -0.67006E+08
 
   -0.67243E+08         0.47321E+06         0.00000E+00
    0.47321E+06        -0.97582E+08         0.00000E+00
    0.00000E+00         0.00000E+00        -0.66824E+08
 
   -0.67112E+08         0.45290E+06         0.00000E+00
    0.45290E+06        -0.97589E+08         0.00000E+00
    0.00000E+00         0.00000E+00        -0.66640E+08
 
   -0.66986E+08         0.42881E+06         0.00000E+00
    0.42881E+06        -0.97597E+08         0.00000E+00
    0.00000E+00         0.00000E+00        -0.66454E+08
 
   -0.66864E+08         0.40043E+06         0.00000E+00
    0.40043E+06        -0.97607E+08         0.00000E+00
    0.00000E+00         0.00000E+00        -0.66264E+08
 
   -0.66748E+08         0.36735E+06         0.00000E+00
    0.36735E+06        -0.97617E+08         0.00000E+00
    0.00000E+00         0.00000E+00        -0.66070E+08
 
   -0.66637E+08         0.32932E+06         0.00000E+00
    0.32932E+06        -0.97628E+08         0.00000E+00
    0.00000E+00         0.00000E+00        -0.65871E+08
 
   -0.66534E+08         0.28638E+06         0.00000E+00
    0.28638E+06        -0.97638E+08         0.00000E+00
    0.00000E+00         0.00000E+00        -0.65665E+08
 
   -0.66438E+08         0.23902E+06         0.00000E+00
    0.23902E+06        -0.97647E+08         0.00000E+00
    0.00000E+00         0.00000E+00        -0.65450E+08
 
   -0.66352E+08         0.18842E+06         0.00000E+00
    0.18842E+06        -0.97653E+08         0.00000E+00
    0.00000E+00         0.00000E+00        -0.65225E+08
 
   -0.66276E+08         0.13671E+06         0.00000E+00
    0.13671E+06        -0.97655E+08         0.00000E+00
    0.00000E+00         0.00000E+00        -0.64987E+08
 
   -0.66212E+08         0.87426E+05         0.00000E+00
    0.87426E+05        -0.97653E+08         0.00000E+00
    0.00000E+00         0.00000E+00        -0.64736E+08
 
   -0.66158E+08         0.45614E+05         0.00000E+00
    0.45614E+05        -0.97645E+08         0.00000E+00
    0.00000E+00         0.00000E+00        -0.64470E+08
 
   -0.66114E+08         0.16473E+05         0.00000E+00
    0.16473E+05        -0.97626E+08         0.00000E+00
    0.00000E+00         0.00000E+00        -0.64186E+08
 
   -0.66081E+08         0.22432E+04         0.00000E+00
    0.22432E+04        -0.97587E+08         0.00000E+00
    0.00000E+00         0.00000E+00        -0.63874E+08
 
   -0.66063E+08        -0.58242E+03         0.00000E+00
   -0.58242E+03        -0.97521E+08         0.00000E+00
    0.00000E+00         0.00000E+00        -0.63526E+08
 
   -0.81117E+08        -0.11408E+05         0.00000E+00
   -0.11408E+05        -0.97603E+08         0.00000E+00
    0.00000E+00         0.00000E+00        -0.84951E+08
 
   -0.81108E+08        -0.22819E+05         0.00000E+00
   -0.22819E+05        -0.97568E+08         0.00000E+00
    0.00000E+00         0.00000E+00        -0.84462E+08
 
   -0.81087E+08        -0.22325E+04         0.00000E+00
   -0.22325E+04        -0.97511E+08         0.00000E+00
    0.00000E+00         0.00000E+00        -0.84030E+08
 
   -0.81052E+08         0.55338E+05         0.00000E+00
    0.55338E+05        -0.97474E+08         0.00000E+00
    0.00000E+00         0.00000E+00        -0.83640E+08
 
   -0.81005E+08         0.13317E+06         0.00000E+00
    0.13317E+06        -0.97471E+08         0.00000E+00
    0.00000E+00         0.00000E+00        -0.83280E+08
 
   -0.80945E+08         0.20960E+06         0.00000E+00
    0.20960E+06        -0.97494E+08         0.00000E+00
    0.00000E+00         0.00000E+00        -0.82942E+08
 
   -0.80869E+08         0.27240E+06         0.00000E+00
    0.27240E+06        -0.97523E+08         0.00000E+00
    0.00000E+00         0.00000E+00        -0.82625E+08
 
   -0.80776E+08         0.32034E+06         0.00000E+00
    0.32034E+06        -0.97544E+08         0.00000E+00
    0.00000E+00         0.00000E+00        -0.82327E+08
 
   -0.80669E+08         0.35895E+06         0.00000E+00
    0.35895E+06        -0.97551E+08         0.00000E+00
    0.00000E+00         0.00000E+00        -0.82045E+08
 
   -0.80549E+08         0.39459E+06         0.00000E+00
    0.39459E+06        -0.97548E+08         0.00000E+00
    0.00000E+00         0.00000E+00        -0.81777E+08
 
   -0.80417E+08         0.43053E+06         0.00000E+00
    0.43053E+06        -0.97541E+08         0.00000E+00
    0.00000E+00         0.00000E+00        -0.81521E+08
 
   -0.80273E+08         0.46689E+06         0.00000E+00
    0.46689E+06        -0.97536E+08         0.00000E+00
    0.00000E+00         0.00000E+00        -0.81274E+08
 
   -0.80120E+08         0.50243E+06         0.00000E+00
    0.50243E+06        -0.97535E+08         0.00000E+00
    0.00000E+00         0.00000E+00        -0.81033E+08
 
   -0.79959E+08         0.53588E+06         0.00000E+00
    0.53588E+06        -0.97537E+08         0.00000E+00
    0.00000E+00         0.00000E+00        -0.80796E+08
 
   -0.79792E+08         0.56643E+06         0.00000E+00
    0.56643E+06        -0.97541E+08         0.00000E+00
    0.00000E+00         0.00000E+00        -0.80563E+08
 
   -0.79620E+08         0.59374E+06         0.00000E+00
    0.59374E+06        -0.97547E+08         0.00000E+00
    0.00000E+00         0.00000E+00        -0.80331E+08
 
   -0.79443E+08         0.61776E+06         0.00000E+00
    0.61776E+06        -0.97554E+08         0.00000E+00
    0.00000E+00         0.00000E+00        -0.80099E+08
 
   -0.79264E+08         0.63860E+06         0.00000E+00
    0.63860E+06        -0.97560E+08         0.00000E+00
    0.00000E+00         0.00000E+00        -0.79866E+08
 
   -0.79081E+08         0.65637E+06         0.00000E+00
    0.65637E+06        -0.97566E+08         0.00000E+00
    0.00000E+00         0.00000E+00        -0.79633E+08
 
   -0.78896E+08         0.67112E+06         0.00000E+00
    0.67112E+06        -0.97572E+08         0.00000E+00
    0.00000E+00         0.00000E+00        -0.79398E+08
 
   -0.78708E+08         0.68274E+06         0.00000E+00
    0.68274E+06        -0.97578E+08         0.00000E+00
    0.00000E+00         0.00000E+00        -0.79161E+08
 
   -0.78519E+08         0.69095E+06         0.00000E+00
    0.69095E+06        -0.97585E+08         0.00000E+00
    0.00000E+00         0.00000E+00        -0.78921E+08
 
   -0.78328E+08         0.69567E+06         0.00000E+00
    0.69567E+06        -0.97597E+08         0.00000E+00
    0.00000E+00         0.00000E+00        -0.78679E+08
 
   -0.78134E+08         0.69727E+06         0.00000E+00
    0.69727E+06        -0.97616E+08         0.00000E+00
    0.00000E+00         0.00000E+00        -0.78435E+08
 
   -0.77936E+08         0.69609E+06         0.00000E+00
    0.69609E+06        -0.97625E+08         0.00000E+00
    0.00000E+00         0.00000E+00        -0.78208E+08
 
   -0.77735E+08         0.68914E+06         0.00000E+00
    0.68914E+06        -0.97615E+08         0.00000E+00
    0.00000E+00         0.00000E+00        -0.78006E+08
 
   -0.77533E+08         0.68427E+06         0.00000E+00
    0.68427E+06        -0.97607E+08         0.00000E+00
    0.00000E+00         0.00000E+00        -0.77803E+08
 
   -0.77331E+08         0.68181E+06         0.00000E+00
    0.68181E+06        -0.97601E+08         0.00000E+00
    0.00000E+00         0.00000E+00        -0.77598E+08
 
   -0.77130E+08         0.68130E+06         0.00000E+00
    0.68130E+06        -0.97598E+08         0.00000E+00
    0.00000E+00         0.00000E+00        -0.77392E+08
 
   -0.76929E+08         0.68216E+06         0.00000E+00
    0.68216E+06        -0.97596E+08         0.00000E+00
    0.00000E+00         0.00000E+00        -0.77184E+08
 
   -0.76728E+08         0.68385E+06         0.00000E+00
    0.68385E+06        -0.97594E+08         0.00000E+00
    0.00000E+00         0.00000E+00        -0.76974E+08
 
   -0.76528E+08         0.68591E+06         0.00000E+00
    0.68591E+06        -0.97594E+08         0.00000E+00
    0.00000E+00         0.00000E+00        -0.76762E+08
 
   -0.76328E+08         0.68796E+06         0.00000E+00
    0.68796E+06        -0.97594E+08         0.00000E+00
    0.00000E+00         0.00000E+00        -0.76549E+08
 
   -0.76128E+08         0.68965E+06         0.00000E+00
    0.68965E+06        -0.97594E+08         0.00000E+00
    0.00000E+00         0.00000E+00        -0.76334E+08
 
   -0.75930E+08         0.69057E+06         0.00000E+00
    0.69057E+06        -0.97596E+08         0.00000E+00
    0.00000E+00         0.00000E+00        -0.76117E+08
 
   -0.75732E+08         0.69038E+06         0.00000E+00
    0.69038E+06        -0.97599E+08         0.00000E+00
    0.00000E+00         0.00000E+00        -0.75899E+08
 
   -0.75535E+08         0.68902E+06         0.00000E+00
    0.68902E+06        -0.97604E+08         0.00000E+00
    0.00000E+00         0.00000E+00        -0.75679E+08
 
   -0.75338E+08         0.68660E+06         0.00000E+00
    0.68660E+06        -0.97614E+08         0.00000E+00
    0.00000E+00         0.00000E+00        -0.75458E+08
 
   -0.75140E+08         0.68326E+06         0.00000E+00
    0.68326E+06        -0.97620E+08         0.00000E+00
    0.00000E+00         0.00000E+00        -0.75245E+08
 
   -0.74942E+08         0.67425E+06         0.00000E+00
    0.67425E+06        -0.97615E+08         0.00000E+00
    0.00000E+00         0.00000E+00        -0.75049E+08
 
   -0.74744E+08         0.66758E+06         0.00000E+00
    0.66758E+06        -0.97609E+08         0.00000E+00
    0.00000E+00         0.00000E+00        -0.74855E+08
 
   -0.74549E+08         0.66252E+06         0.00000E+00
    0.66252E+06        -0.97606E+08         0.00000E+00
    0.00000E+00         0.00000E+00        -0.74660E+08
 
   -0.74355E+08         0.65852E+06         0.00000E+00
    0.65852E+06        -0.97604E+08         0.00000E+00
    0.00000E+00         0.00000E+00        -0.74465E+08
 
   -0.74164E+08         0.65512E+06         0.00000E+00
    0.65512E+06        -0.97603E+08         0.00000E+00
    0.00000E+00         0.00000E+00        -0.74268E+08
 
   -0.73974E+08         0.65181E+06         0.00000E+00
    0.65181E+06        -0.97603E+08         0.00000E+00
    0.00000E+00         0.00000E+00        -0.74072E+08
 
   -0.73785E+08         0.64816E+06         0.00000E+00
    0.64816E+06        -0.97605E+08         0.00000E+00
    0.00000E+00         0.00000E+00        -0.73874E+08
 
   -0.73598E+08         0.64409E+06         0.00000E+00
    0.64409E+06        -0.97609E+08         0.00000E+00
    0.00000E+00         0.00000E+00        -0.73676E+08
 
   -0.73412E+08         0.64004E+06         0.00000E+00
    0.64004E+06        -0.97615E+08         0.00000E+00
    0.00000E+00         0.00000E+00        -0.73479E+08
 
   -0.73227E+08         0.63330E+06         0.00000E+00
    0.63330E+06        -0.97614E+08         0.00000E+00
    0.00000E+00         0.00000E+00        -0.73293E+08
 
   -0.73042E+08         0.62711E+06         0.00000E+00
    0.62711E+06        -0.97609E+08         0.00000E+00
    0.00000E+00         0.00000E+00        -0.73112E+08
 
   -0.72860E+08         0.62197E+06         0.00000E+00
    0.62197E+06        -0.97606E+08         0.00000E+00
    0.00000E+00         0.00000E+00        -0.72931E+08
 
   -0.72678E+08         0.61770E+06         0.00000E+00
    0.61770E+06        -0.97605E+08         0.00000E+00
    0.00000E+00         0.00000E+00        -0.72750E+08
 
   -0.72499E+08         0.61391E+06         0.00000E+00
    0.61391E+06        -0.97604E+08         0.00000E+00
    0.00000E+00         0.00000E+00        -0.72569E+08
 
   -0.72321E+08         0.61027E+06         0.00000E+00
    0.61027E+06        -0.97605E+08         0.00000E+00
    0.00000E+00         0.00000E+00        -0.72387E+08
 
   -0.72145E+08         0.60648E+06         0.00000E+00
    0.60648E+06        -0.97606E+08         0.00000E+00
    0.00000E+00         0.00000E+00        -0.72206E+08
 
   -0.71970E+08         0.60244E+06         0.00000E+00
    0.60244E+06        -0.97609E+08         0.00000E+00
    0.00000E+00         0.00000E+00        -0.72024E+08
 
   -0.71796E+08         0.59820E+06         0.00000E+00
    0.59820E+06        -0.97611E+08         0.00000E+00
    0.00000E+00         0.00000E+00        -0.71845E+08
 
   -0.71623E+08         0.59340E+06         0.00000E+00
    0.59340E+06        -0.97609E+08         0.00000E+00
    0.00000E+00         0.00000E+00        -0.71671E+08
 
   -0.71450E+08         0.58913E+06         0.00000E+00
    0.58913E+06        -0.97607E+08         0.00000E+00
    0.00000E+00         0.00000E+00        -0.71499E+08
 
   -0.71279E+08         0.58542E+06         0.00000E+00
    0.58542E+06        -0.97605E+08         0.00000E+00
    0.00000E+00         0.00000E+00        -0.71326E+08
 
   -0.71109E+08         0.58214E+06         0.00000E+00
    0.58214E+06        -0.97605E+08         0.00000E+00
    0.00000E+00         0.00000E+00        -0.71154E+08
 
   -0.70940E+08         0.57914E+06         0.00000E+00
    0.57914E+06        -0.97605E+08         0.00000E+00
    0.00000E+00         0.00000E+00        -0.70981E+08
 
   -0.70772E+08         0.57632E+06         0.00000E+00
    0.57632E+06        -0.97604E+08         0.00000E+00
    0.00000E+00         0.00000E+00        -0.70808E+08
 
   -0.70605E+08         0.57359E+06         0.00000E+00
    0.57359E+06        -0.97604E+08         0.00000E+00
    0.00000E+00         0.00000E+00        -0.70635E+08
 
   -0.70439E+08         0.57089E+06         0.00000E+00
    0.57089E+06        -0.97605E+08         0.00000E+00
    0.00000E+00         0.00000E+00        -0.70462E+08
 
   -0.70274E+08         0.56818E+06         0.00000E+00
    0.56818E+06        -0.97605E+08         0.00000E+00
    0.00000E+00         0.00000E+00        -0.70289E+08
 
   -0.70110E+08         0.56538E+06         0.00000E+00
    0.56538E+06        -0.97604E+08         0.00000E+00
    0.00000E+00         0.00000E+00        -0.70117E+08
 
   -0.69950E+08         0.56241E+06         0.00000E+00
    0.56241E+06        -0.97600E+08         0.00000E+00
    0.00000E+00         0.00000E+00        -0.69948E+08
 
   -0.69791E+08         0.55935E+06         0.00000E+00
    0.55935E+06        -0.97596E+08         0.00000E+00
    0.00000E+00         0.00000E+00        -0.69778E+08
 
   -0.69633E+08         0.55621E+06         0.00000E+00
    0.55621E+06        -0.97592E+08         0.00000E+00
    0.00000E+00         0.00000E+00        -0.69609E+08
 
   -0.69475E+08         0.55295E+06         0.00000E+00
    0.55295E+06        -0.97588E+08         0.00000E+00
    0.00000E+00         0.00000E+00        -0.69439E+08
 
   -0.69318E+08         0.54957E+06         0.00000E+00
    0.54957E+06        -0.97585E+08         0.00000E+00
    0.00000E+00         0.00000E+00        -0.69268E+08
 
   -0.69162E+08         0.54603E+06         0.00000E+00
    0.54603E+06        -0.97582E+08         0.00000E+00
    0.00000E+00         0.00000E+00        -0.69098E+08
 
   -0.69006E+08         0.54231E+06         0.00000E+00
    0.54231E+06        -0.97579E+08         0.00000E+00
    0.00000E+00         0.00000E+00        -0.68927E+08
 
   -0.68851E+08         0.53838E+06         0.00000E+00
    0.53838E+06        -0.97576E+08         0.00000E+00
    0.00000E+00         0.00000E+00        -0.68755E+08
 
   -0.68697E+08         0.53418E+06         0.00000E+00
    0.53418E+06        -0.97573E+08         0.00000E+00
    0.00000E+00         0.00000E+00        -0.68583E+08
 
   -0.68545E+08         0.52964E+06         0.00000E+00
    0.52964E+06        -0.97571E+08         0.00000E+00
    0.00000E+00         0.00000E+00        -0.68411E+08
 
   -0.68393E+08         0.52467E+06         0.00000E+00
    0.52467E+06        -0.97569E+08         0.00000E+00
    0.00000E+00         0.00000E+00        -0.68237E+08
 
   -0.68243E+08         0.51917E+06         0.00000E+00
    0.51917E+06        -0.97567E+08         0.00000E+00
    0.00000E+00         0.00000E+00        -0.68063E+08
 
   -0.68094E+08         0.51297E+06         0.00000E+00
    0.51297E+06        -0.97566E+08         0.00000E+00
    0.00000E+00         0.00000E+00        -0.67888E+08
 
   -0.67947E+08         0.50588E+06         0.00000E+00
    0.50588E+06        -0.97566E+08         0.00000E+00
    0.00000E+00         0.00000E+00        -0.67713E+08
 
   -0.67802E+08         0.49767E+06         0.00000E+00
    0.49767E+06        -0.97566E+08         0.00000E+00
    0.00000E+00         0.00000E+00        -0.67536E+08
 
   -0.67659E+08         0.48803E+06         0.00000E+00
    0.48803E+06        -0.97568E+08         0.00000E+00
    0.00000E+00         0.00000E+00        -0.67358E+08
 
   -0.67519E+08         0.47661E+06         0.00000E+00
    0.47661E+06        -0.97570E+08         0.00000E+00
    0.00000E+00         0.00000E+00        -0.67178E+08
 
   -0.67382E+08         0.46299E+06         0.00000E+00
    0.46299E+06        -0.97574E+08         0.00000E+00
    0.00000E+00         0.00000E+00        -0.66997E+08
 
   -0.67248E+08         0.44671E+06         0.00000E+00
    0.44671E+06        -0.97578E+08         0.00000E+00
    0.00000E+00         0.00000E+00        -0.66814E+08
 
   -0.67118E+08         0.42726E+06         0.00000E+00
    0.42726E+06        -0.97585E+08         0.00000E+00
    0.00000E+00         0.00000E+00        -0.66629E+08
 
   -0.66992E+08         0.40413E+06         0.00000E+00
    0.40413E+06        -0.97592E+08         0.00000E+00
    0.00000E+00         0.00000E+00        -0.66441E+08
 
   -0.66872E+08         0.37683E+06         0.00000E+00
    0.37683E+06        -0.97601E+08         0.00000E+00
    0.00000E+00         0.00000E+00        -0.66249E+08
 
   -0.66756E+08         0.34499E+06         0.00000E+00
    0.34499E+06        -0.97611E+08         0.00000E+00
    0.00000E+00         0.00000E+00        -0.66054E+08
 
   -0.66647E+08         0.30839E+06         0.00000E+00
    0.30839E+06        -0.97620E+08         0.00000E+00
    0.00000E+00         0.00000E+00        -0.65852E+08
 
   -0.66546E+08         0.26712E+06         0.00000E+00
    0.26712E+06        -0.97630E+08         0.00000E+00
    0.00000E+00         0.00000E+00        -0.65644E+08
 
   -0.66453E+08         0.22171E+06         0.00000E+00
    0.22171E+06        -0.97637E+08         0.00000E+00
    0.00000E+00         0.00000E+00        -0.65426E+08
 
   -0.66369E+08         0.17336E+06         0.00000E+00
    0.17336E+06        -0.97643E+08         0.00000E+00
    0.00000E+00         0.00000E+00        -0.65198E+08
 
   -0.66297E+08         0.12407E+06         0.00000E+00
    0.12407E+06        -0.97646E+08         0.00000E+00
    0.00000E+00         0.00000E+00        -0.64958E+08
 
   -0.66236E+08         0.77035E+05         0.00000E+00
    0.77035E+05        -0.97645E+08         0.00000E+00
    0.00000E+00         0.00000E+00        -0.64705E+08
 
   -0.66185E+08         0.37088E+05         0.00000E+00
    0.37088E+05        -0.97639E+08         0.00000E+00
    0.00000E+00         0.00000E+00        -0.64439E+08
 
   -0.66144E+08         0.96696E+04         0.00000E+00
    0.96696E+04        -0.97623E+08         0.00000E+00
    0.00000E+00         0.00000E+00        -0.64156E+08
 
   -0.66113E+08        -0.23767E+04         0.00000E+00
   -0.23767E+04        -0.97587E+08         0.00000E+00
    0.00000E+00         0.00000E+00        -0.63847E+08
 
   -0.66095E+08        -0.22482E+04         0.00000E+00
   -0.22482E+04        -0.97522E+08         0.00000E+00
    0.00000E+00         0.00000E+00        -0.63500E+08
 
   -0.81065E+08        -0.11937E+05         0.00000E+00
   -0.11937E+05        -0.97599E+08         0.00000E+00
    0.00000E+00         0.00000E+00        -0.84978E+08
 
   -0.81058E+08        -0.25019E+05         0.00000E+00
   -0.25019E+05        -0.97568E+08         0.00000E+00
    0.00000E+00         0.00000E+00        -0.84495E+08
 
   -0.81044E+08        -0.69413E+04         0.00000E+00
   -0.69413E+04        -0.97519E+08         0.00000E+00
    0.00000E+00         0.00000E+00        -0.84069E+08
 
   -0.81018E+08         0.47935E+05         0.00000E+00
    0.47935E+05        -0.97488E+08         0.00000E+00
    0.00000E+00         0.00000E+00        -0.83682E+08
 
   -0.80978E+08         0.12300E+06         0.00000E+00
    0.12300E+06        -0.97487E+08         0.00000E+00
    0.00000E+00         0.00000E+00        -0.83321E+08
 
   -0.80923E+08         0.19622E+06         0.00000E+00
    0.19622E+06        -0.97508E+08         0.00000E+00
    0.00000E+00         0.00000E+00        -0.82980E+08
 
   -0.80849E+08         0.25558E+06         0.00000E+00
    0.25558E+06        -0.97534E+08         0.00000E+00
    0.00000E+00         0.00000E+00        -0.82658E+08
 
   -0.80758E+08         0.30042E+06         0.00000E+00
    0.30042E+06        -0.97552E+08         0.00000E+00
    0.00000E+00         0.00000E+00        -0.82355E+08
 
   -0.80652E+08         0.33634E+06         0.00000E+00
    0.33634E+06        -0.97558E+08         0.00000E+00
    0.00000E+00         0.00000E+00        -0.82067E+08
 
   -0.80533E+08         0.36944E+06         0.00000E+00
    0.36944E+06        -0.97555E+08         0.00000E+00
    0.00000E+00         0.00000E+00        -0.81794E+08
 
   -0.80402E+08         0.40298E+06         0.00000E+00
    0.40298E+06        -0.97548E+08         0.00000E+00
    0.00000E+00         0.00000E+00        -0.81533E+08
 
   -0.80259E+08         0.43721E+06         0.00000E+00
    0.43721E+06        -0.97543E+08         0.00000E+00
    0.00000E+00         0.00000E+00        -0.81282E+08
 
   -0.80106E+08         0.47099E+06         0.00000E+00
    0.47099E+06        -0.97541E+08         0.00000E+00
    0.00000E+00         0.00000E+00        -0.81037E+08
 
   -0.79946E+08         0.50304E+06         0.00000E+00
    0.50304E+06        -0.97543E+08         0.00000E+00
    0.00000E+00         0.00000E+00        -0.80797E+08
 
   -0.79779E+08         0.53247E+06         0.00000E+00
    0.53247E+06        -0.97547E+08         0.00000E+00
    0.00000E+00         0.00000E+00        -0.80561E+08
 
   -0.79607E+08         0.55886E+06         0.00000E+00
    0.55886E+06        -0.97553E+08         0.00000E+00
    0.00000E+00         0.00000E+00        -0.80327E+08
 
   -0.79431E+08         0.58211E+06         0.00000E+00
    0.58211E+06        -0.97558E+08         0.00000E+00
    0.00000E+00         0.00000E+00        -0.80093E+08
 
   -0.79251E+08         0.60228E+06         0.00000E+00
    0.60228E+06        -0.97564E+08         0.00000E+00
    0.00000E+00         0.00000E+00        -0.79859E+08
 
   -0.79067E+08         0.61949E+06         0.00000E+00
    0.61949E+06        -0.97569E+08         0.00000E+00
    0.00000E+00         0.00000E+00        -0.79625E+08
 
   -0.78881E+08         0.63378E+06         0.00000E+00
    0.63378E+06        -0.97574E+08         0.00000E+00
    0.00000E+00         0.00000E+00        -0.79389E+08
 
   -0.78693E+08         0.64504E+06         0.00000E+00
    0.64504E+06        -0.97580E+08         0.00000E+00
    0.00000E+00         0.00000E+00        -0.79151E+08
 
   -0.78504E+08         0.65292E+06         0.00000E+00
    0.65292E+06        -0.97587E+08         0.00000E+00
    0.00000E+00         0.00000E+00        -0.78911E+08
 
   -0.78312E+08         0.65717E+06         0.00000E+00
    0.65717E+06        -0.97598E+08         0.00000E+00
    0.00000E+00         0.00000E+00        -0.78669E+08
 
   -0.78118E+08         0.65814E+06         0.00000E+00
    0.65814E+06        -0.97616E+08         0.00000E+00
    0.00000E+00         0.00000E+00        -0.78425E+08
 
   -0.77920E+08         0.65598E+06         0.00000E+00
    0.65598E+06        -0.97624E+08         0.00000E+00
    0.00000E+00         0.00000E+00        -0.78199E+08
 
   -0.77719E+08         0.64889E+06         0.00000E+00
    0.64889E+06        -0.97613E+08         0.00000E+00
    0.00000E+00         0.00000E+00        -0.77997E+08
 
   -0.77518E+08         0.64395E+06         0.00000E+00
    0.64395E+06        -0.97606E+08         0.00000E+00
    0.00000E+00         0.00000E+00        -0.77794E+08
 
   -0.77317E+08         0.64152E+06         0.00000E+00
    0.64152E+06        -0.97601E+08         0.00000E+00
    0.00000E+00         0.00000E+00        -0.77590E+08
 
   -0.77116E+08         0.64109E+06         0.00000E+00
    0.64109E+06        -0.97598E+08         0.00000E+00
    0.00000E+00         0.00000E+00        -0.77384E+08
 
   -0.76915E+08         0.64202E+06         0.00000E+00
    0.64202E+06        -0.97596E+08         0.00000E+00
    0.00000E+00         0.00000E+00        -0.77176E+08
 
   -0.76715E+08         0.64378E+06         0.00000E+00
    0.64378E+06        -0.97595E+08         0.00000E+00
    0.00000E+00         0.00000E+00        -0.76966E+08
 
   -0.76515E+08         0.64592E+06         0.00000E+00
    0.64592E+06        -0.97594E+08         0.00000E+00
    0.00000E+00         0.00000E+00        -0.76755E+08
 
   -0.76315E+08         0.64808E+06         0.00000E+00
    0.64808E+06        -0.97594E+08         0.00000E+00
    0.00000E+00         0.00000E+00        -0.76542E+08
 
   -0.76117E+08         0.64989E+06         0.00000E+00
    0.64989E+06        -0.97594E+08         0.00000E+00
    0.00000E+00         0.00000E+00        -0.76327E+08
 
   -0.75918E+08         0.65097E+06         0.00000E+00
    0.65097E+06        -0.97596E+08         0.00000E+00
    0.00000E+00         0.00000E+00        -0.76111E+08
 
   -0.75721E+08         0.65094E+06         0.00000E+00
    0.65094E+06        -0.97598E+08         0.00000E+00
    0.00000E+00         0.00000E+00        -0.75892E+08
 
   -0.75524E+08         0.64967E+06         0.00000E+00
    0.64967E+06        -0.97604E+08         0.00000E+00
    0.00000E+00         0.00000E+00        -0.75673E+08
 
   -0.75328E+08         0.64726E+06         0.00000E+00
    0.64726E+06        -0.97613E+08         0.00000E+00
    0.00000E+00         0.00000E+00        -0.75452E+08
 
   -0.75130E+08         0.64353E+06         0.00000E+00
    0.64353E+06        -0.97619E+08         0.00000E+00
    0.00000E+00         0.00000E+00        -0.75240E+08
 
   -0.74932E+08         0.63472E+06         0.00000E+00
    0.63472E+06        -0.97613E+08         0.00000E+00
    0.00000E+00         0.00000E+00        -0.75045E+08
 
   -0.74735E+08         0.62837E+06         0.00000E+00
    0.62837E+06        -0.97608E+08         0.00000E+00
    0.00000E+00         0.00000E+00        -0.74851E+08
 
   -0.74540E+08         0.62365E+06         0.00000E+00
    0.62365E+06        -0.97605E+08         0.00000E+00
    0.00000E+00         0.00000E+00        -0.74657E+08
 
   -0.74347E+08         0.62003E+06         0.00000E+00
    0.62003E+06        -0.97603E+08         0.00000E+00
    0.00000E+00         0.00000E+00        -0.74461E+08
 
   -0.74156E+08         0.61700E+06         0.00000E+00
    0.61700E+06        -0.97602E+08         0.00000E+00
    0.00000E+00         0.00000E+00        -0.74265E+08
 
   -0.73967E+08         0.61403E+06         0.00000E+00
    0.61403E+06        -0.97602E+08         0.00000E+00
    0.00000E+00         0.00000E+00        -0.74068E+08
 
   -0.73779E+08         0.61067E+06         0.00000E+00
    0.61067E+06        -0.97604E+08         0.00000E+00
    0.00000E+00         0.00000E+00        -0.73871E+08
 
   -0.73592E+08         0.60684E+06         0.00000E+00
    0.60684E+06        -0.97608E+08         0.00000E+00
    0.00000E+00         0.00000E+00        -0.73674E+08
 
   -0.73406E+08         0.60296E+06         0.00000E+00
    0.60296E+06        -0.97614E+08         0.00000E+00
    0.00000E+00         0.00000E+00        -0.73477E+08
 
   -0.73221E+08         0.59630E+06         0.00000E+00
    0.59630E+06        -0.97612E+08         0.00000E+00
    0.00000E+00         0.00000E+00        -0.73291E+08
 
   -0.73037E+08         0.59041E+06         0.00000E+00
    0.59041E+06        -0.97608E+08         0.00000E+00
    0.00000E+00         0.00000E+00        -0.73110E+08
 
   -0.72855E+08         0.58561E+06         0.00000E+00
    0.58561E+06        -0.97605E+08         0.00000E+00
    0.00000E+00         0.00000E+00        -0.72929E+08
 
   -0.72674E+08         0.58169E+06         0.00000E+00
    0.58169E+06        -0.97604E+08         0.00000E+00
    0.00000E+00         0.00000E+00        -0.72748E+08
 
   -0.72495E+08         0.57825E+06         0.00000E+00
    0.57825E+06        -0.97604E+08         0.00000E+00
    0.00000E+00         0.00000E+00        -0.72567E+08
 
   -0.72318E+08         0.57491E+06         0.00000E+00
    0.57491E+06        -0.97604E+08         0.00000E+00
    0.00000E+00         0.00000E+00        -0.72386E+08
 
   -0.72142E+08         0.57140E+06         0.00000E+00
    0.57140E+06        -0.97605E+08         0.00000E+00
    0.00000E+00         0.00000E+00        -0.72204E+08
 
   -0.71967E+08         0.56756E+06         0.00000E+00
    0.56756E+06        -0.97608E+08         0.00000E+00
    0.00000E+00         0.00000E+00        -0.72022E+08
 
   -0.71793E+08         0.56347E+06         0.00000E+00
    0.56347E+06        -0.97610E+08         0.00000E+00
    0.00000E+00         0.00000E+00        -0.71843E+08
 
   -0.71620E+08         0.55886E+06         0.00000E+00
    0.55886E+06        -0.97608E+08         0.00000E+00
    0.00000E+00         0.00000E+00        -0.71670E+08
 
   -0.71448E+08         0.55480E+06         0.00000E+00
    0.55480E+06        -0.97606E+08         0.00000E+00
    0.00000E+00         0.00000E+00        -0.71497E+08
 
   -0.71277E+08         0.55131E+06         0.00000E+00
    0.55131E+06        -0.97605E+08         0.00000E+00
    0.00000E+00         0.00000E+00        -0.71324E+08
 
   -0.71107E+08         0.54826E+06         0.00000E+00
    0.54826E+06        -0.97604E+08         0.00000E+00
    0.00000E+00         0.00000E+00        -0.71152E+08
 
   -0.70939E+08         0.54547E+06         0.00000E+00
    0.54547E+06        -0.97604E+08         0.00000E+00
    0.00000E+00         0.00000E+00        -0.70979E+08
 
   -0.70771E+08         0.54285E+06         0.00000E+00
    0.54285E+06        -0.97604E+08         0.00000E+00
    0.00000E+00         0.00000E+00        -0.70806E+08
 
   -0.70604E+08         0.54029E+06         0.00000E+00
    0.54029E+06        -0.97604E+08         0.00000E+00
    0.00000E+00         0.00000E+00        -0.70633E+08
 
   -0.70438E+08         0.53776E+06         0.00000E+00
    0.53776E+06        -0.97604E+08         0.00000E+00
    0.00000E+00         0.00000E+00        -0.70460E+08
 
   -0.70273E+08         0.53521E+06         0.00000E+00
    0.53521E+06        -0.97604E+08         0.00000E+00
    0.00000E+00         0.00000E+00        -0.70286E+08
 
   -0.70110E+08         0.53258E+06         0.00000E+00
    0.53258E+06        -0.97603E+08         0.00000E+00
    0.00000E+00         0.00000E+00        -0.70114E+08
 
   -0.69950E+08         0.52977E+06         0.00000E+00
    0.52977E+06        -0.97599E+08         0.00000E+00
    0.00000E+00         0.00000E+00        -0.69944E+08
 
   -0.69791E+08         0.52688E+06         0.00000E+00
    0.52688E+06        -0.97595E+08         0.00000E+00
    0.00000E+00         0.00000E+00        -0.69775E+08
 
   -0.69633E+08         0.52390E+06         0.00000E+00
    0.52390E+06        -0.97592E+08         0.00000E+00
    0.00000E+00         0.00000E+00        -0.69605E+08
 
   -0.69476E+08         0.52082E+06         0.00000E+00
    0.52082E+06        -0.97588E+08         0.00000E+00
    0.00000E+00         0.00000E+00        -0.69435E+08
 
   -0.69319E+08         0.51762E+06         0.00000E+00
    0.51762E+06        -0.97585E+08         0.00000E+00
    0.00000E+00         0.00000E+00        -0.69264E+08
 
   -0.69163E+08         0.51427E+06         0.00000E+00
    0.51427E+06        -0.97581E+08         0.00000E+00
    0.00000E+00         0.00000E+00        -0.69094E+08
 
   -0.69008E+08         0.51076E+06         0.00000E+00
    0.51076E+06        -0.97578E+08         0.00000E+00
    0.00000E+00         0.00000E+00        -0.68922E+08
 
   -0.68853E+08         0.50704E+06         0.00000E+00
    0.50704E+06        -0.97575E+08         0.00000E+00
    0.00000E+00         0.00000E+00        -0.68751E+08
 
   -0.68700E+08         0.50307E+06         0.00000E+00
    0.50307E+06        -0.97573E+08         0.00000E+00
    0.00000E+00         0.00000E+00        -0.68578E+08
 
   -0.68547E+08         0.49879E+06         0.00000E+00
    0.49879E+06        -0.97570E+08         0.00000E+00
    0.00000E+00         0.00000E+00        -0.68405E+08
 
   -0.68396E+08         0.49411E+06         0.00000E+00
    0.49411E+06        -0.97568E+08         0.00000E+00
    0.00000E+00         0.00000E+00        -0.68232E+08
 
   -0.68246E+08         0.48893E+06         0.00000E+00
    0.48893E+06        -0.97567E+08         0.00000E+00
    0.00000E+00         0.00000E+00        -0.68057E+08
 
   -0.68098E+08         0.48309E+06         0.00000E+00
    0.48309E+06        -0.97565E+08         0.00000E+00
    0.00000E+00         0.00000E+00        -0.67882E+08
 
   -0.67951E+08         0.47642E+06         0.00000E+00
    0.47642E+06        -0.97565E+08         0.00000E+00
    0.00000E+00         0.00000E+00        -0.67706E+08
 
   -0.67806E+08         0.46867E+06         0.00000E+00
    0.46867E+06        -0.97565E+08         0.00000E+00
    0.00000E+00         0.00000E+00        -0.67529E+08
 
   -0.67664E+08         0.45956E+06         0.00000E+00
    0.45956E+06        -0.97566E+08         0.00000E+00
    0.00000E+00         0.00000E+00        -0.67350E+08
 
   -0.67524E+08         0.44874E+06         0.00000E+00
    0.44874E+06        -0.97568E+08         0.00000E+00
    0.00000E+00         0.00000E+00        -0.67170E+08
 
   -0.67387E+08         0.43581E+06         0.00000E+00
    0.43581E+06        -0.97571E+08         0.00000E+00
    0.00000E+00         0.00000E+00        -0.66988E+08
 
   -0.67254E+08         0.42030E+06         0.00000E+00
    0.42030E+06        -0.97575E+08         0.00000E+00
    0.00000E+00         0.00000E+00        -0.66804E+08
 
   -0.67124E+08         0.40173E+06         0.00000E+00
    0.40173E+06        -0.97581E+08         0.00000E+00
    0.00000E+00         0.00000E+00        -0.66617E+08
 
   -0.66999E+08         0.37960E+06         0.00000E+00
    0.37960E+06        -0.97588E+08         0.00000E+00
    0.00000E+00         0.00000E+00        -0.66428E+08
 
   -0.66879E+08         0.35345E+06         0.00000E+00
    0.35345E+06        -0.97596E+08         0.00000E+00
    0.00000E+00         0.00000E+00        -0.66235E+08
 
   -0.66765E+08         0.32291E+06         0.00000E+00
    0.32291E+06        -0.97604E+08         0.00000E+00
    0.00000E+00         0.00000E+00        -0.66037E+08
 
   -0.66658E+08         0.28781E+06         0.00000E+00
    0.28781E+06        -0.97613E+08         0.00000E+00
    0.00000E+00         0.00000E+00        -0.65834E+08
 
   -0.66558E+08         0.24829E+06         0.00000E+00
    0.24829E+06        -0.97621E+08         0.00000E+00
    0.00000E+00         0.00000E+00        -0.65623E+08
 
   -0.66467E+08         0.20493E+06         0.00000E+00
    0.20493E+06        -0.97628E+08         0.00000E+00
    0.00000E+00         0.00000E+00        -0.65403E+08
 
   -0.66387E+08         0.15892E+06         0.00000E+00
    0.15892E+06        -0.97634E+08         0.00000E+00
    0.00000E+00         0.00000E+00        -0.65172E+08
 
   -0.66318E+08         0.11214E+06         0.00000E+00
    0.11214E+06        -0.97636E+08         0.00000E+00
    0.00000E+00         0.00000E+00        -0.64929E+08
 
   -0.66260E+08         0.67412E+05         0.00000E+00
    0.67412E+05        -0.97637E+08         0.00000E+00
    0.00000E+00         0.00000E+00        -0.64675E+08
 
   -0.66213E+08         0.29241E+05         0.00000E+00
    0.29241E+05        -0.97633E+08         0.00000E+00
    0.00000E+00         0.00000E+00        -0.64408E+08
 
   -0.66175E+08         0.33062E+04         0.00000E+00
    0.33062E+04        -0.97620E+08         0.00000E+00
    0.00000E+00         0.00000E+00        -0.64126E+08
 
   -0.66145E+08        -0.68132E+04         0.00000E+00
   -0.68132E+04        -0.97587E+08         0.00000E+00
    0.00000E+00         0.00000E+00        -0.63819E+08
 
   -0.66128E+08        -0.38765E+04         0.00000E+00
   -0.38765E+04        -0.97525E+08         0.00000E+00
    0.00000E+00         0.00000E+00        -0.63474E+08
 
   -0.81014E+08        -0.12233E+05         0.00000E+00
   -0.12233E+05        -0.97594E+08         0.00000E+00
    0.00000E+00         0.00000E+00        -0.85004E+08
 
   -0.81010E+08        -0.26433E+05         0.00000E+00
   -0.26433E+05        -0.97568E+08         0.00000E+00
    0.00000E+00         0.00000E+00        -0.84528E+08
 
   -0.81001E+08        -0.10207E+05         0.00000E+00
   -0.10207E+05        -0.97526E+08         0.00000E+00
    0.00000E+00         0.00000E+00        -0.84108E+08
 
   -0.80983E+08         0.42218E+05         0.00000E+00
    0.42218E+05        -0.97501E+08         0.00000E+00
    0.00000E+00         0.00000E+00        -0.83723E+08
 
   -0.80951E+08         0.11409E+06         0.00000E+00
    0.11409E+06        -0.97503E+08         0.00000E+00
    0.00000E+00         0.00000E+00        -0.83361E+08
 
   -0.80900E+08         0.18355E+06         0.00000E+00
    0.18355E+06        -0.97521E+08         0.00000E+00
    0.00000E+00         0.00000E+00        -0.83017E+08
 
   -0.80829E+08         0.23919E+06         0.00000E+00
    0.23919E+06        -0.97544E+08         0.00000E+00
    0.00000E+00         0.00000E+00        -0.82691E+08
 
   -0.80740E+08         0.28082E+06         0.00000E+00
    0.28082E+06        -0.97559E+08         0.00000E+00
    0.00000E+00         0.00000E+00        -0.82382E+08
 
   -0.80635E+08         0.31396E+06         0.00000E+00
    0.31396E+06        -0.97565E+08         0.00000E+00
    0.00000E+00         0.00000E+00        -0.82089E+08
 
   -0.80517E+08         0.34449E+06         0.00000E+00
    0.34449E+06        -0.97561E+08         0.00000E+00
    0.00000E+00         0.00000E+00        -0.81811E+08
 
   -0.80387E+08         0.37560E+06         0.00000E+00
    0.37560E+06        -0.97555E+08         0.00000E+00
    0.00000E+00         0.00000E+00        -0.81545E+08
 
   -0.80245E+08         0.40768E+06         0.00000E+00
    0.40768E+06        -0.97550E+08         0.00000E+00
    0.00000E+00         0.00000E+00        -0.81289E+08
 
   -0.80093E+08         0.43967E+06         0.00000E+00
    0.43967E+06        -0.97548E+08         0.00000E+00
    0.00000E+00         0.00000E+00        -0.81040E+08
 
   -0.79933E+08         0.47027E+06         0.00000E+00
    0.47027E+06        -0.97549E+08         0.00000E+00
    0.00000E+00         0.00000E+00        -0.80798E+08
 
   -0.79767E+08         0.49854E+06         0.00000E+00
    0.49854E+06        -0.97553E+08         0.00000E+00
    0.00000E+00         0.00000E+00        -0.80559E+08
 
   -0.79595E+08         0.52397E+06         0.00000E+00
    0.52397E+06        -0.97557E+08         0.00000E+00
    0.00000E+00         0.00000E+00        -0.80322E+08
 
   -0.79418E+08         0.54640E+06         0.00000E+00
    0.54640E+06        -0.97563E+08         0.00000E+00
    0.00000E+00         0.00000E+00        -0.80087E+08
 
   -0.79238E+08         0.56588E+06         0.00000E+00
    0.56588E+06        -0.97568E+08         0.00000E+00
    0.00000E+00         0.00000E+00        -0.79852E+08
 
   -0.79054E+08         0.58251E+06         0.00000E+00
    0.58251E+06        -0.97572E+08         0.00000E+00
    0.00000E+00         0.00000E+00        -0.79616E+08
 
   -0.78868E+08         0.59634E+06         0.00000E+00
    0.59634E+06        -0.97577E+08         0.00000E+00
    0.00000E+00         0.00000E+00        -0.79380E+08
 
   -0.78679E+08         0.60724E+06         0.00000E+00
    0.60724E+06        -0.97581E+08         0.00000E+00
    0.00000E+00         0.00000E+00        -0.79142E+08
 
   -0.78489E+08         0.61482E+06         0.00000E+00
    0.61482E+06        -0.97588E+08         0.00000E+00
    0.00000E+00         0.00000E+00        -0.78902E+08
 
   -0.78297E+08         0.61863E+06         0.00000E+00
    0.61863E+06        -0.97598E+08         0.00000E+00
    0.00000E+00         0.00000E+00        -0.78660E+08
 
   -0.78103E+08         0.61899E+06         0.00000E+00
    0.61899E+06        -0.97616E+08         0.00000E+00
    0.00000E+00         0.00000E+00        -0.78415E+08
 
   -0.77905E+08         0.61586E+06         0.00000E+00
    0.61586E+06        -0.97623E+08         0.00000E+00
    0.00000E+00         0.00000E+00        -0.78190E+08
 
   -0.77704E+08         0.60869E+06         0.00000E+00
    0.60869E+06        -0.97612E+08         0.00000E+00
    0.00000E+00         0.00000E+00        -0.77989E+08
 
   -0.77503E+08         0.60368E+06         0.00000E+00
    0.60368E+06        -0.97605E+08         0.00000E+00
    0.00000E+00         0.00000E+00        -0.77786E+08
 
   -0.77302E+08         0.60132E+06         0.00000E+00
    0.60132E+06        -0.97601E+08         0.00000E+00
    0.00000E+00         0.00000E+00        -0.77582E+08
 
   -0.77102E+08         0.60098E+06         0.00000E+00
    0.60098E+06        -0.97598E+08         0.00000E+00
    0.00000E+00         0.00000E+00        -0.77376E+08
 
   -0.76902E+08         0.60200E+06         0.00000E+00
    0.60200E+06        -0.97596E+08         0.00000E+00
    0.00000E+00         0.00000E+00        -0.77168E+08
 
   -0.76702E+08         0.60382E+06         0.00000E+00
    0.60382E+06        -0.97595E+08         0.00000E+00
    0.00000E+00         0.00000E+00        -0.76959E+08
 
   -0.76503E+08         0.60603E+06         0.00000E+00
    0.60603E+06        -0.97595E+08         0.00000E+00
    0.00000E+00         0.00000E+00        -0.76748E+08
 
   -0.76304E+08         0.60828E+06         0.00000E+00
    0.60828E+06        -0.97594E+08         0.00000E+00
    0.00000E+00         0.00000E+00        -0.76535E+08
 
   -0.76105E+08         0.61022E+06         0.00000E+00
    0.61022E+06        -0.97595E+08         0.00000E+00
    0.00000E+00         0.00000E+00        -0.76320E+08
 
   -0.75907E+08         0.61146E+06         0.00000E+00
    0.61146E+06        -0.97596E+08         0.00000E+00
    0.00000E+00         0.00000E+00        -0.76104E+08
 
   -0.75710E+08         0.61157E+06         0.00000E+00
    0.61157E+06        -0.97598E+08         0.00000E+00
    0.00000E+00         0.00000E+00        -0.75886E+08
 
   -0.75514E+08         0.61039E+06         0.00000E+00
    0.61039E+06        -0.97603E+08         0.00000E+00
    0.00000E+00         0.00000E+00        -0.75667E+08
 
   -0.75317E+08         0.60801E+06         0.00000E+00
    0.60801E+06        -0.97612E+08         0.00000E+00
    0.00000E+00         0.00000E+00        -0.75446E+08
 
   -0.75120E+08         0.60382E+06         0.00000E+00
    0.60382E+06        -0.97618E+08         0.00000E+00
    0.00000E+00         0.00000E+00        -0.75236E+08
 
   -0.74922E+08         0.59530E+06         0.00000E+00
    0.59530E+06        -0.97612E+08         0.00000E+00
    0.00000E+00         0.00000E+00        -0.75042E+08
 
   -0.74726E+08         0.58926E+06         0.00000E+00
    0.58926E+06        -0.97607E+08         0.00000E+00
    0.00000E+00         0.00000E+00        -0.74848E+08
 
   -0.74532E+08         0.58489E+06         0.00000E+00
    0.58489E+06        -0.97604E+08         0.00000E+00
    0.00000E+00         0.00000E+00        -0.74653E+08
 
   -0.74339E+08         0.58163E+06         0.00000E+00
    0.58163E+06        -0.97602E+08         0.00000E+00
    0.00000E+00         0.00000E+00        -0.74458E+08
 
   -0.74149E+08         0.57896E+06         0.00000E+00
    0.57896E+06        -0.97602E+08         0.00000E+00
    0.00000E+00         0.00000E+00        -0.74262E+08
 
   -0.73959E+08         0.57634E+06         0.00000E+00
    0.57634E+06        -0.97602E+08         0.00000E+00
    0.00000E+00         0.00000E+00        -0.74065E+08
 
   -0.73772E+08         0.57328E+06         0.00000E+00
    0.57328E+06        -0.97604E+08         0.00000E+00
    0.00000E+00         0.00000E+00        -0.73868E+08
 
   -0.73586E+08         0.56967E+06         0.00000E+00
    0.56967E+06        -0.97608E+08         0.00000E+00
    0.00000E+00         0.00000E+00        -0.73671E+08
 
   -0.73400E+08         0.56593E+06         0.00000E+00
    0.56593E+06        -0.97613E+08         0.00000E+00
    0.00000E+00         0.00000E+00        -0.73475E+08
 
   -0.73216E+08         0.55936E+06         0.00000E+00
    0.55936E+06        -0.97611E+08         0.00000E+00
    0.00000E+00         0.00000E+00        -0.73289E+08
 
   -0.73032E+08         0.55377E+06         0.00000E+00
    0.55377E+06        -0.97607E+08         0.00000E+00
    0.00000E+00         0.00000E+00        -0.73109E+08
 
   -0.72850E+08         0.54933E+06         0.00000E+00
    0.54933E+06        -0.97605E+08         0.00000E+00
    0.00000E+00         0.00000E+00        -0.72928E+08
 
   -0.72669E+08         0.54576E+06         0.00000E+00
    0.54576E+06        -0.97603E+08         0.00000E+00
    0.00000E+00         0.00000E+00        -0.72747E+08
 
   -0.72491E+08         0.54265E+06         0.00000E+00
    0.54265E+06        -0.97603E+08         0.00000E+00
    0.00000E+00         0.00000E+00        -0.72565E+08
 
   -0.72314E+08         0.53962E+06         0.00000E+00
    0.53962E+06        -0.97603E+08         0.00000E+00
    0.00000E+00         0.00000E+00        -0.72384E+08
 
   -0.72138E+08         0.53638E+06         0.00000E+00
    0.53638E+06        -0.97605E+08         0.00000E+00
    0.00000E+00         0.00000E+00        -0.72202E+08
 
   -0.71964E+08         0.53274E+06         0.00000E+00
    0.53274E+06        -0.97607E+08         0.00000E+00
    0.00000E+00         0.00000E+00        -0.72021E+08
 
   -0.71790E+08         0.52880E+06         0.00000E+00
    0.52880E+06        -0.97609E+08         0.00000E+00
    0.00000E+00         0.00000E+00        -0.71841E+08
 
   -0.71617E+08         0.52437E+06         0.00000E+00
    0.52437E+06        -0.97607E+08         0.00000E+00
    0.00000E+00         0.00000E+00        -0.71668E+08
 
   -0.71446E+08         0.52053E+06         0.00000E+00
    0.52053E+06        -0.97605E+08         0.00000E+00
    0.00000E+00         0.00000E+00        -0.71495E+08
 
   -0.71275E+08         0.51727E+06         0.00000E+00
    0.51727E+06        -0.97604E+08         0.00000E+00
    0.00000E+00         0.00000E+00        -0.71323E+08
 
   -0.71106E+08         0.51444E+06         0.00000E+00
    0.51444E+06        -0.97604E+08         0.00000E+00
    0.00000E+00         0.00000E+00        -0.71150E+08
 
   -0.70937E+08         0.51186E+06         0.00000E+00
    0.51186E+06        -0.97603E+08         0.00000E+00
    0.00000E+00         0.00000E+00        -0.70977E+08
 
   -0.70770E+08         0.50943E+06         0.00000E+00
    0.50943E+06        -0.97603E+08         0.00000E+00
    0.00000E+00         0.00000E+00        -0.70804E+08
 
   -0.70603E+08         0.50705E+06         0.00000E+00
    0.50705E+06        -0.97603E+08         0.00000E+00
    0.00000E+00         0.00000E+00        -0.70630E+08
 
   -0.70438E+08         0.50469E+06         0.00000E+00
    0.50469E+06        -0.97604E+08         0.00000E+00
    0.00000E+00         0.00000E+00        -0.70457E+08
 
   -0.70273E+08         0.50230E+06         0.00000E+00
    0.50230E+06        -0.97604E+08         0.00000E+00
    0.00000E+00         0.00000E+00        -0.70284E+08
 
   -0.70110E+08         0.49983E+06         0.00000E+00
    0.49983E+06        -0.97603E+08         0.00000E+00
    0.00000E+00         0.00000E+00        -0.70111E+08
 
   -0.69950E+08         0.49719E+06         0.00000E+00
    0.49719E+06        -0.97599E+08         0.00000E+00
    0.00000E+00         0.00000E+00        -0.69941E+08
 
   -0.69792E+08         0.49447E+06         0.00000E+00
    0.49447E+06        -0.97595E+08         0.00000E+00
    0.00000E+00         0.00000E+00        -0.69772E+08
 
   -0.69634E+08         0.49166E+06         0.00000E+00
    0.49166E+06        -0.97591E+08         0.00000E+00
    0.00000E+00         0.00000E+00        -0.69602E+08
 
   -0.69477E+08         0.48875E+06         0.00000E+00
    0.48875E+06        -0.97588E+08         0.00000E+00
    0.00000E+00         0.00000E+00        -0.69431E+08
 
   -0.69320E+08         0.48573E+06         0.00000E+00
    0.48573E+06        -0.97584E+08         0.00000E+00
    0.00000E+00         0.00000E+00        -0.69261E+08
 
   -0.69164E+08         0.48257E+06         0.00000E+00
    0.48257E+06        -0.97581E+08         0.00000E+00
    0.00000E+00         0.00000E+00        -0.69089E+08
 
   -0.69009E+08         0.47926E+06         0.00000E+00
    0.47926E+06        -0.97578E+08         0.00000E+00
    0.00000E+00         0.00000E+00        -0.68918E+08
 
   -0.68855E+08         0.47576E+06         0.00000E+00
    0.47576E+06        -0.97575E+08         0.00000E+00
    0.00000E+00         0.00000E+00        -0.68746E+08
 
   -0.68702E+08         0.47203E+06         0.00000E+00
    0.47203E+06        -0.97572E+08         0.00000E+00
    0.00000E+00         0.00000E+00        -0.68573E+08
 
   -0.68550E+08         0.46801E+06         0.00000E+00
    0.46801E+06        -0.97570E+08         0.00000E+00
    0.00000E+00         0.00000E+00        -0.68400E+08
 
   -0.68399E+08         0.46361E+06         0.00000E+00
    0.46361E+06        -0.97568E+08         0.00000E+00
    0.00000E+00         0.00000E+00        -0.68226E+08
 
   -0.68249E+08         0.45875E+06         0.00000E+00
    0.45875E+06        -0.97566E+08         0.00000E+00
    0.00000E+00         0.00000E+00        -0.68051E+08
 
   -0.68101E+08         0.45328E+06         0.00000E+00
    0.45328E+06        -0.97565E+08         0.00000E+00
    0.00000E+00         0.00000E+00        -0.67876E+08
 
   -0.67955E+08         0.44701E+06         0.00000E+00
    0.44701E+06        -0.97564E+08         0.00000E+00
    0.00000E+00         0.00000E+00        -0.67699E+08
 
   -0.67810E+08         0.43973E+06         0.00000E+00
    0.43973E+06        -0.97564E+08         0.00000E+00
    0.00000E+00         0.00000E+00        -0.67521E+08
 
   -0.67668E+08         0.43115E+06         0.00000E+00
    0.43115E+06        -0.97564E+08         0.00000E+00
    0.00000E+00         0.00000E+00        -0.67342E+08
 
   -0.67529E+08         0.42094E+06         0.00000E+00
    0.42094E+06        -0.97566E+08         0.00000E+00
    0.00000E+00         0.00000E+00        -0.67161E+08
 
   -0.67392E+08         0.40871E+06         0.00000E+00
    0.40871E+06        -0.97569E+08         0.00000E+00
    0.00000E+00         0.00000E+00        -0.66979E+08
 
   -0.67259E+08         0.39400E+06         0.00000E+00
    0.39400E+06        -0.97572E+08         0.00000E+00
    0.00000E+00         0.00000E+00        -0.66794E+08
 
   -0.67130E+08         0.37634E+06         0.00000E+00
    0.37634E+06        -0.97577E+08         0.00000E+00
    0.00000E+00         0.00000E+00        -0.66606E+08
 
   -0.67006E+08         0.35524E+06         0.00000E+00
    0.35524E+06        -0.97583E+08         0.00000E+00
    0.00000E+00         0.00000E+00        -0.66416E+08
 
   -0.66887E+08         0.33027E+06         0.00000E+00
    0.33027E+06        -0.97590E+08         0.00000E+00
    0.00000E+00         0.00000E+00        -0.66221E+08
 
   -0.66775E+08         0.30110E+06         0.00000E+00
    0.30110E+06        -0.97598E+08         0.00000E+00
    0.00000E+00         0.00000E+00        -0.66021E+08
 
   -0.66669E+08         0.26758E+06         0.00000E+00
    0.26758E+06        -0.97606E+08         0.00000E+00
    0.00000E+00         0.00000E+00        -0.65816E+08
 
   -0.66571E+08         0.22990E+06         0.00000E+00
    0.22990E+06        -0.97614E+08         0.00000E+00
    0.00000E+00         0.00000E+00        -0.65602E+08
 
   -0.66482E+08         0.18867E+06         0.00000E+00
    0.18867E+06        -0.97620E+08         0.00000E+00
    0.00000E+00         0.00000E+00        -0.65380E+08
 
   -0.66405E+08         0.14509E+06         0.00000E+00
    0.14509E+06        -0.97625E+08         0.00000E+00
    0.00000E+00         0.00000E+00        -0.65146E+08
 
   -0.66339E+08         0.10090E+06         0.00000E+00
    0.10090E+06        -0.97628E+08         0.00000E+00
    0.00000E+00         0.00000E+00        -0.64901E+08
 
   -0.66285E+08         0.58552E+05         0.00000E+00
    0.58552E+05        -0.97629E+08         0.00000E+00
    0.00000E+00         0.00000E+00        -0.64644E+08
 
   -0.66241E+08         0.22097E+05         0.00000E+00
    0.22097E+05        -0.97627E+08         0.00000E+00
    0.00000E+00         0.00000E+00        -0.64377E+08
 
   -0.66206E+08        -0.25913E+04         0.00000E+00
   -0.25913E+04        -0.97617E+08         0.00000E+00
    0.00000E+00         0.00000E+00        -0.64096E+08
 
   -0.66178E+08        -0.11060E+05         0.00000E+00
   -0.11060E+05        -0.97588E+08         0.00000E+00
    0.00000E+00         0.00000E+00        -0.63792E+08
 
   -0.66161E+08        -0.54701E+04         0.00000E+00
   -0.54701E+04        -0.97527E+08         0.00000E+00
    0.00000E+00         0.00000E+00        -0.63449E+08
 
   -0.80964E+08        -0.12313E+05         0.00000E+00
   -0.12313E+05        -0.97588E+08         0.00000E+00
    0.00000E+00         0.00000E+00        -0.85031E+08
 
   -0.80962E+08        -0.27107E+05         0.00000E+00
   -0.27107E+05        -0.97567E+08         0.00000E+00
    0.00000E+00         0.00000E+00        -0.84562E+08
 
   -0.80959E+08        -0.12091E+05         0.00000E+00
   -0.12091E+05        -0.97533E+08         0.00000E+00
    0.00000E+00         0.00000E+00        -0.84147E+08
 
   -0.80949E+08         0.38141E+05         0.00000E+00
    0.38141E+05        -0.97515E+08         0.00000E+00
    0.00000E+00         0.00000E+00        -0.83765E+08
 
   -0.80924E+08         0.10645E+06         0.00000E+00
    0.10645E+06        -0.97517E+08         0.00000E+00
    0.00000E+00         0.00000E+00        -0.83401E+08
 
   -0.80878E+08         0.17161E+06         0.00000E+00
    0.17161E+06        -0.97534E+08         0.00000E+00
    0.00000E+00         0.00000E+00        -0.83053E+08
 
   -0.80809E+08         0.22322E+06         0.00000E+00
    0.22322E+06        -0.97553E+08         0.00000E+00
    0.00000E+00         0.00000E+00        -0.82722E+08
 
   -0.80722E+08         0.26149E+06         0.00000E+00
    0.26149E+06        -0.97567E+08         0.00000E+00
    0.00000E+00         0.00000E+00        -0.82408E+08
 
   -0.80618E+08         0.29178E+06         0.00000E+00
    0.29178E+06        -0.97571E+08         0.00000E+00
    0.00000E+00         0.00000E+00        -0.82110E+08
 
   -0.80501E+08         0.31971E+06         0.00000E+00
    0.31971E+06        -0.97567E+08         0.00000E+00
    0.00000E+00         0.00000E+00        -0.81826E+08
 
   -0.80372E+08         0.34840E+06         0.00000E+00
    0.34840E+06        -0.97561E+08         0.00000E+00
    0.00000E+00         0.00000E+00        -0.81556E+08
 
   -0.80231E+08         0.37833E+06         0.00000E+00
    0.37833E+06        -0.97556E+08         0.00000E+00
    0.00000E+00         0.00000E+00        -0.81295E+08
 
   -0.80080E+08         0.40850E+06         0.00000E+00
    0.40850E+06        -0.97554E+08         0.00000E+00
    0.00000E+00         0.00000E+00        -0.81043E+08
 
   -0.79920E+08         0.43761E+06         0.00000E+00
    0.43761E+06        -0.97555E+08         0.00000E+00
    0.00000E+00         0.00000E+00        -0.80798E+08
 
   -0.79754E+08         0.46466E+06         0.00000E+00
    0.46466E+06        -0.97558E+08         0.00000E+00
    0.00000E+00         0.00000E+00        -0.80556E+08
 
   -0.79582E+08         0.48907E+06         0.00000E+00
    0.48907E+06        -0.97562E+08         0.00000E+00
    0.00000E+00         0.00000E+00        -0.80318E+08
 
   -0.79406E+08         0.51065E+06         0.00000E+00
    0.51065E+06        -0.97567E+08         0.00000E+00
    0.00000E+00         0.00000E+00        -0.80081E+08
 
   -0.79225E+08         0.52940E+06         0.00000E+00
    0.52940E+06        -0.97571E+08         0.00000E+00
    0.00000E+00         0.00000E+00        -0.79845E+08
 
   -0.79041E+08         0.54542E+06         0.00000E+00
    0.54542E+06        -0.97575E+08         0.00000E+00
    0.00000E+00         0.00000E+00        -0.79608E+08
 
   -0.78854E+08         0.55878E+06         0.00000E+00
    0.55878E+06        -0.97579E+08         0.00000E+00
    0.00000E+00         0.00000E+00        -0.79371E+08
 
   -0.78665E+08         0.56934E+06         0.00000E+00
    0.56934E+06        -0.97583E+08         0.00000E+00
    0.00000E+00         0.00000E+00        -0.79132E+08
 
   -0.78474E+08         0.57664E+06         0.00000E+00
    0.57664E+06        -0.97589E+08         0.00000E+00
    0.00000E+00         0.00000E+00        -0.78892E+08
 
   -0.78282E+08         0.58005E+06         0.00000E+00
    0.58005E+06        -0.97598E+08         0.00000E+00
    0.00000E+00         0.00000E+00        -0.78650E+08
 
   -0.78088E+08         0.57982E+06         0.00000E+00
    0.57982E+06        -0.97616E+08         0.00000E+00
    0.00000E+00         0.00000E+00        -0.78406E+08
 
   -0.77889E+08         0.57574E+06         0.00000E+00
    0.57574E+06        -0.97622E+08         0.00000E+00
    0.00000E+00         0.00000E+00        -0.78181E+08
 
   -0.77689E+08         0.56850E+06         0.00000E+00
    0.56850E+06        -0.97611E+08         0.00000E+00
    0.00000E+00         0.00000E+00        -0.77980E+08
 
   -0.77488E+08         0.56349E+06         0.00000E+00
    0.56349E+06        -0.97604E+08         0.00000E+00
    0.00000E+00         0.00000E+00        -0.77778E+08
 
   -0.77288E+08         0.56123E+06         0.00000E+00
    0.56123E+06        -0.97600E+08         0.00000E+00
    0.00000E+00         0.00000E+00        -0.77574E+08
 
   -0.77088E+08         0.56100E+06         0.00000E+00
    0.56100E+06        -0.97598E+08         0.00000E+00
    0.00000E+00         0.00000E+00        -0.77368E+08
 
   -0.76888E+08         0.56209E+06         0.00000E+00
    0.56209E+06        -0.97596E+08         0.00000E+00
    0.00000E+00         0.00000E+00        -0.77161E+08
 
   -0.76689E+08         0.56398E+06         0.00000E+00
    0.56398E+06        -0.97595E+08         0.00000E+00
    0.00000E+00         0.00000E+00        -0.76951E+08
 
   -0.76490E+08         0.56624E+06         0.00000E+00
    0.56624E+06        -0.97595E+08         0.00000E+00
    0.00000E+00         0.00000E+00        -0.76741E+08
 
   -0.76292E+08         0.56856E+06         0.00000E+00
    0.56856E+06        -0.97595E+08         0.00000E+00
    0.00000E+00         0.00000E+00        -0.76528E+08
 
   -0.76094E+08         0.57062E+06         0.00000E+00
    0.57062E+06        -0.97595E+08         0.00000E+00
    0.00000E+00         0.00000E+00        -0.76314E+08
 
   -0.75896E+08         0.57200E+06         0.00000E+00
    0.57200E+06        -0.97596E+08         0.00000E+00
    0.00000E+00         0.00000E+00        -0.76098E+08
 
   -0.75699E+08         0.57227E+06         0.00000E+00
    0.57227E+06        -0.97598E+08         0.00000E+00
    0.00000E+00         0.00000E+00        -0.75880E+08
 
   -0.75503E+08         0.57115E+06         0.00000E+00
    0.57115E+06        -0.97603E+08         0.00000E+00
    0.00000E+00         0.00000E+00        -0.75661E+08
 
   -0.75307E+08         0.56884E+06         0.00000E+00
    0.56884E+06        -0.97612E+08         0.00000E+00
    0.00000E+00         0.00000E+00        -0.75441E+08
 
   -0.75110E+08         0.56411E+06         0.00000E+00
    0.56411E+06        -0.97616E+08         0.00000E+00
    0.00000E+00         0.00000E+00        -0.75231E+08
 
   -0.74913E+08         0.55602E+06         0.00000E+00
    0.55602E+06        -0.97610E+08         0.00000E+00
    0.00000E+00         0.00000E+00        -0.75038E+08
 
   -0.74717E+08         0.55025E+06         0.00000E+00
    0.55025E+06        -0.97606E+08         0.00000E+00
    0.00000E+00         0.00000E+00        -0.74845E+08
 
   -0.74524E+08         0.54622E+06         0.00000E+00
    0.54622E+06        -0.97603E+08         0.00000E+00
    0.00000E+00         0.00000E+00        -0.74650E+08
 
   -0.74331E+08         0.54333E+06         0.00000E+00
    0.54333E+06        -0.97602E+08         0.00000E+00
    0.00000E+00         0.00000E+00        -0.74455E+08
 
   -0.74141E+08         0.54102E+06         0.00000E+00
    0.54102E+06        -0.97601E+08         0.00000E+00
    0.00000E+00         0.00000E+00        -0.74259E+08
 
   -0.73952E+08         0.53874E+06         0.00000E+00
    0.53874E+06        -0.97601E+08         0.00000E+00
    0.00000E+00         0.00000E+00        -0.74063E+08
 
   -0.73765E+08         0.53598E+06         0.00000E+00
    0.53598E+06        -0.97603E+08         0.00000E+00
    0.00000E+00         0.00000E+00        -0.73866E+08
 
   -0.73580E+08         0.53259E+06         0.00000E+00
    0.53259E+06        -0.97607E+08         0.00000E+00
    0.00000E+00         0.00000E+00        -0.73668E+08
 
   -0.73395E+08         0.52895E+06         0.00000E+00
    0.52895E+06        -0.97612E+08         0.00000E+00
    0.00000E+00         0.00000E+00        -0.73472E+08
 
   -0.73210E+08         0.52250E+06         0.00000E+00
    0.52250E+06        -0.97610E+08         0.00000E+00
    0.00000E+00         0.00000E+00        -0.73288E+08
 
   -0.73027E+08         0.51721E+06         0.00000E+00
    0.51721E+06        -0.97606E+08         0.00000E+00
    0.00000E+00         0.00000E+00        -0.73107E+08
 
   -0.72845E+08         0.51312E+06         0.00000E+00
    0.51312E+06        -0.97604E+08         0.00000E+00
    0.00000E+00         0.00000E+00        -0.72926E+08
 
   -0.72665E+08         0.50989E+06         0.00000E+00
    0.50989E+06        -0.97603E+08         0.00000E+00
    0.00000E+00         0.00000E+00        -0.72745E+08
 
   -0.72487E+08         0.50711E+06         0.00000E+00
    0.50711E+06        -0.97603E+08         0.00000E+00
    0.00000E+00         0.00000E+00        -0.72564E+08
 
   -0.72310E+08         0.50440E+06         0.00000E+00
    0.50440E+06        -0.97603E+08         0.00000E+00
    0.00000E+00         0.00000E+00        -0.72382E+08
 
   -0.72135E+08         0.50142E+06         0.00000E+00
    0.50142E+06        -0.97604E+08         0.00000E+00
    0.00000E+00         0.00000E+00        -0.72201E+08
 
   -0.71961E+08         0.49799E+06         0.00000E+00
    0.49799E+06        -0.97606E+08         0.00000E+00
    0.00000E+00         0.00000E+00        -0.72019E+08
 
   -0.71787E+08         0.49419E+06         0.00000E+00
    0.49419E+06        -0.97608E+08         0.00000E+00
    0.00000E+00         0.00000E+00        -0.71840E+08
 
   -0.71615E+08         0.48994E+06         0.00000E+00
    0.48994E+06        -0.97606E+08         0.00000E+00
    0.00000E+00         0.00000E+00        -0.71666E+08
 
   -0.71444E+08         0.48631E+06         0.00000E+00
    0.48631E+06        -0.97604E+08         0.00000E+00
    0.00000E+00         0.00000E+00        -0.71493E+08
 
   -0.71273E+08         0.48329E+06         0.00000E+00
    0.48329E+06        -0.97603E+08         0.00000E+00
    0.00000E+00         0.00000E+00        -0.71321E+08
 
   -0.71104E+08         0.48068E+06         0.00000E+00
    0.48068E+06        -0.97603E+08         0.00000E+00
    0.00000E+00         0.00000E+00        -0.71148E+08
 
   -0.70936E+08         0.47831E+06         0.00000E+00
    0.47831E+06        -0.97603E+08         0.00000E+00
    0.00000E+00         0.00000E+00        -0.70975E+08
 
   -0.70769E+08         0.47606E+06         0.00000E+00
    0.47606E+06        -0.97603E+08         0.00000E+00
    0.00000E+00         0.00000E+00        -0.70801E+08
 
   -0.70603E+08         0.47387E+06         0.00000E+00
    0.47387E+06        -0.97603E+08         0.00000E+00
    0.00000E+00         0.00000E+00        -0.70628E+08
 
   -0.70437E+08         0.47167E+06         0.00000E+00
    0.47167E+06        -0.97603E+08         0.00000E+00
    0.00000E+00         0.00000E+00        -0.70455E+08
 
   -0.70273E+08         0.46944E+06         0.00000E+00
    0.46944E+06        -0.97603E+08         0.00000E+00
    0.00000E+00         0.00000E+00        -0.70281E+08
 
   -0.70110E+08         0.46713E+06         0.00000E+00
    0.46713E+06        -0.97602E+08         0.00000E+00
    0.00000E+00         0.00000E+00        -0.70109E+08
 
   -0.69951E+08         0.46467E+06         0.00000E+00
    0.46467E+06        -0.97599E+08         0.00000E+00
    0.00000E+00         0.00000E+00        -0.69938E+08
 
   -0.69792E+08         0.46211E+06         0.00000E+00
    0.46211E+06        -0.97595E+08         0.00000E+00
    0.00000E+00         0.00000E+00        -0.69768E+08
 
   -0.69635E+08         0.45947E+06         0.00000E+00
    0.45947E+06        -0.97591E+08         0.00000E+00
    0.00000E+00         0.00000E+00        -0.69598E+08
 
   -0.69478E+08         0.45674E+06         0.00000E+00
    0.45674E+06        -0.97587E+08         0.00000E+00
    0.00000E+00         0.00000E+00        -0.69428E+08
 
   -0.69321E+08         0.45390E+06         0.00000E+00
    0.45390E+06        -0.97584E+08         0.00000E+00
    0.00000E+00         0.00000E+00        -0.69257E+08
 
   -0.69166E+08         0.45094E+06         0.00000E+00
    0.45094E+06        -0.97581E+08         0.00000E+00
    0.00000E+00         0.00000E+00        -0.69085E+08
 
   -0.69011E+08         0.44783E+06         0.00000E+00
    0.44783E+06        -0.97577E+08         0.00000E+00
    0.00000E+00         0.00000E+00        -0.68913E+08
 
   -0.68857E+08         0.44455E+06         0.00000E+00
    0.44455E+06        -0.97574E+08         0.00000E+00
    0.00000E+00         0.00000E+00        -0.68741E+08
 
   -0.68705E+08         0.44105E+06         0.00000E+00
    0.44105E+06        -0.97572E+08         0.00000E+00
    0.00000E+00         0.00000E+00        -0.68568E+08
 
   -0.68553E+08         0.43729E+06         0.00000E+00
    0.43729E+06        -0.97569E+08         0.00000E+00
    0.00000E+00         0.00000E+00        -0.68395E+08
 
   -0.68402E+08         0.43318E+06         0.00000E+00
    0.43318E+06        -0.97567E+08         0.00000E+00
    0.00000E+00         0.00000E+00        -0.68221E+08
 
   -0.68253E+08         0.42864E+06         0.00000E+00
    0.42864E+06        -0.97565E+08         0.00000E+00
    0.00000E+00         0.00000E+00        -0.68045E+08
 
   -0.68105E+08         0.42352E+06         0.00000E+00
    0.42352E+06        -0.97564E+08         0.00000E+00
    0.00000E+00         0.00000E+00        -0.67869E+08
 
   -0.67959E+08         0.41767E+06         0.00000E+00
    0.41767E+06        -0.97563E+08         0.00000E+00
    0.00000E+00         0.00000E+00        -0.67692E+08
 
   -0.67815E+08         0.41085E+06         0.00000E+00
    0.41085E+06        -0.97563E+08         0.00000E+00
    0.00000E+00         0.00000E+00        -0.67514E+08
 
   -0.67673E+08         0.40281E+06         0.00000E+00
    0.40281E+06        -0.97563E+08         0.00000E+00
    0.00000E+00         0.00000E+00        -0.67334E+08
 
   -0.67534E+08         0.39321E+06         0.00000E+00
    0.39321E+06        -0.97564E+08         0.00000E+00
    0.00000E+00         0.00000E+00        -0.67153E+08
 
   -0.67398E+08         0.38169E+06         0.00000E+00
    0.38169E+06        -0.97566E+08         0.00000E+00
    0.00000E+00         0.00000E+00        -0.66969E+08
 
   -0.67265E+08         0.36779E+06         0.00000E+00
    0.36779E+06        -0.97569E+08         0.00000E+00
    0.00000E+00         0.00000E+00        -0.66784E+08
 
   -0.67137E+08         0.35106E+06         0.00000E+00
    0.35106E+06        -0.97574E+08         0.00000E+00
    0.00000E+00         0.00000E+00        -0.66595E+08
 
   -0.67014E+08         0.33104E+06         0.00000E+00
    0.33104E+06        -0.97579E+08         0.00000E+00
    0.00000E+00         0.00000E+00        -0.66403E+08
 
   -0.66896E+08         0.30731E+06         0.00000E+00
    0.30731E+06        -0.97585E+08         0.00000E+00
    0.00000E+00         0.00000E+00        -0.66207E+08
 
   -0.66784E+08         0.27956E+06         0.00000E+00
    0.27956E+06        -0.97592E+08         0.00000E+00
    0.00000E+00         0.00000E+00        -0.66006E+08
 
   -0.66680E+08         0.24770E+06         0.00000E+00
    0.24770E+06        -0.97599E+08         0.00000E+00
    0.00000E+00         0.00000E+00        -0.65798E+08
 
   -0.66584E+08         0.21194E+06         0.00000E+00
    0.21194E+06        -0.97606E+08         0.00000E+00
    0.00000E+00         0.00000E+00        -0.65582E+08
 
   -0.66498E+08         0.17293E+06         0.00000E+00
    0.17293E+06        -0.97612E+08         0.00000E+00
    0.00000E+00         0.00000E+00        -0.65357E+08
 
   -0.66423E+08         0.13185E+06         0.00000E+00
    0.13185E+06        -0.97617E+08         0.00000E+00
    0.00000E+00         0.00000E+00        -0.65121E+08
 
   -0.66360E+08         0.90341E+05         0.00000E+00
    0.90341E+05        -0.97619E+08         0.00000E+00
    0.00000E+00         0.00000E+00        -0.64873E+08
 
   -0.66309E+08         0.50445E+05         0.00000E+00
    0.50445E+05        -0.97621E+08         0.00000E+00
    0.00000E+00         0.00000E+00        -0.64615E+08
 
   -0.66270E+08         0.15683E+05         0.00000E+00
    0.15683E+05        -0.97621E+08         0.00000E+00
    0.00000E+00         0.00000E+00        -0.64346E+08
 
   -0.66237E+08        -0.79885E+04         0.00000E+00
   -0.79885E+04        -0.97614E+08         0.00000E+00
    0.00000E+00         0.00000E+00        -0.64066E+08
 
   -0.66211E+08        -0.15109E+05         0.00000E+00
   -0.15109E+05        -0.97589E+08         0.00000E+00
    0.00000E+00         0.00000E+00        -0.63764E+08
 
   -0.66195E+08        -0.70317E+04         0.00000E+00
   -0.70317E+04        -0.97531E+08         0.00000E+00
    0.00000E+00         0.00000E+00        -0.63424E+08
 
   -0.80915E+08        -0.12190E+05         0.00000E+00
   -0.12190E+05        -0.97583E+08         0.00000E+00
    0.00000E+00         0.00000E+00        -0.85057E+08
 
   -0.80916E+08        -0.27061E+05         0.00000E+00
   -0.27061E+05        -0.97566E+08         0.00000E+00
    0.00000E+00         0.00000E+00        -0.84595E+08
 
   -0.80918E+08        -0.12616E+05         0.00000E+00
   -0.12616E+05        -0.97539E+08         0.00000E+00
    0.00000E+00         0.00000E+00        -0.84187E+08
 
   -0.80915E+08         0.35651E+05         0.00000E+00
    0.35651E+05        -0.97527E+08         0.00000E+00
    0.00000E+00         0.00000E+00        -0.83806E+08
 
   -0.80897E+08         0.10001E+06         0.00000E+00
    0.10001E+06        -0.97531E+08         0.00000E+00
    0.00000E+00         0.00000E+00        -0.83441E+08
 
   -0.80855E+08         0.16038E+06         0.00000E+00
    0.16038E+06        -0.97545E+08         0.00000E+00
    0.00000E+00         0.00000E+00        -0.83089E+08
 
   -0.80789E+08         0.20766E+06         0.00000E+00
    0.20766E+06        -0.97562E+08         0.00000E+00
    0.00000E+00         0.00000E+00        -0.82753E+08
 
   -0.80703E+08         0.24241E+06         0.00000E+00
    0.24241E+06        -0.97573E+08         0.00000E+00
    0.00000E+00         0.00000E+00        -0.82433E+08
 
   -0.80601E+08         0.26978E+06         0.00000E+00
    0.26978E+06        -0.97576E+08         0.00000E+00
    0.00000E+00         0.00000E+00        -0.82129E+08
 
   -0.80485E+08         0.29510E+06         0.00000E+00
    0.29510E+06        -0.97573E+08         0.00000E+00
    0.00000E+00         0.00000E+00        -0.81841E+08
 
   -0.80356E+08         0.32139E+06         0.00000E+00
    0.32139E+06        -0.97567E+08         0.00000E+00
    0.00000E+00         0.00000E+00        -0.81565E+08
 
   -0.80216E+08         0.34916E+06         0.00000E+00
    0.34916E+06        -0.97562E+08         0.00000E+00
    0.00000E+00         0.00000E+00        -0.81301E+08
 
   -0.80066E+08         0.37749E+06         0.00000E+00
    0.37749E+06        -0.97560E+08         0.00000E+00
    0.00000E+00         0.00000E+00        -0.81046E+08
 
   -0.79907E+08         0.40507E+06         0.00000E+00
    0.40507E+06        -0.97560E+08         0.00000E+00
    0.00000E+00         0.00000E+00        -0.80797E+08
 
   -0.79742E+08         0.43085E+06         0.00000E+00
    0.43085E+06        -0.97563E+08         0.00000E+00
    0.00000E+00         0.00000E+00        -0.80553E+08
 
   -0.79570E+08         0.45420E+06         0.00000E+00
    0.45420E+06        -0.97567E+08         0.00000E+00
    0.00000E+00         0.00000E+00        -0.80313E+08
 
   -0.79394E+08         0.47487E+06         0.00000E+00
    0.47487E+06        -0.97571E+08         0.00000E+00
    0.00000E+00         0.00000E+00        -0.80074E+08
 
   -0.79213E+08         0.49285E+06         0.00000E+00
    0.49285E+06        -0.97575E+08         0.00000E+00
    0.00000E+00         0.00000E+00        -0.79837E+08
 
   -0.79028E+08         0.50824E+06         0.00000E+00
    0.50824E+06        -0.97578E+08         0.00000E+00
    0.00000E+00         0.00000E+00        -0.79600E+08
 
   -0.78841E+08         0.52111E+06         0.00000E+00
    0.52111E+06        -0.97582E+08         0.00000E+00
    0.00000E+00         0.00000E+00        -0.79362E+08
 
   -0.78651E+08         0.53132E+06         0.00000E+00
    0.53132E+06        -0.97585E+08         0.00000E+00
    0.00000E+00         0.00000E+00        -0.79123E+08
 
   -0.78460E+08         0.53836E+06         0.00000E+00
    0.53836E+06        -0.97590E+08         0.00000E+00
    0.00000E+00         0.00000E+00        -0.78883E+08
 
   -0.78268E+08         0.54143E+06         0.00000E+00
    0.54143E+06        -0.97599E+08         0.00000E+00
    0.00000E+00         0.00000E+00        -0.78640E+08
 
   -0.78073E+08         0.54061E+06         0.00000E+00
    0.54061E+06        -0.97616E+08         0.00000E+00
    0.00000E+00         0.00000E+00        -0.78396E+08
 
   -0.77874E+08         0.53564E+06         0.00000E+00
    0.53564E+06        -0.97620E+08         0.00000E+00
    0.00000E+00         0.00000E+00        -0.78173E+08
 
   -0.77674E+08         0.52831E+06         0.00000E+00
    0.52831E+06        -0.97610E+08         0.00000E+00
    0.00000E+00         0.00000E+00        -0.77972E+08
 
   -0.77473E+08         0.52337E+06         0.00000E+00
    0.52337E+06        -0.97604E+08         0.00000E+00
    0.00000E+00         0.00000E+00        -0.77770E+08
 
   -0.77273E+08         0.52125E+06         0.00000E+00
    0.52125E+06        -0.97600E+08         0.00000E+00
    0.00000E+00         0.00000E+00        -0.77566E+08
 
   -0.77074E+08         0.52114E+06         0.00000E+00
    0.52114E+06        -0.97598E+08         0.00000E+00
    0.00000E+00         0.00000E+00        -0.77360E+08
 
   -0.76875E+08         0.52231E+06         0.00000E+00
    0.52231E+06        -0.97597E+08         0.00000E+00
    0.00000E+00         0.00000E+00        -0.77153E+08
 
   -0.76677E+08         0.52424E+06         0.00000E+00
    0.52424E+06        -0.97596E+08         0.00000E+00
    0.00000E+00         0.00000E+00        -0.76944E+08
 
   -0.76478E+08         0.52655E+06         0.00000E+00
    0.52655E+06        -0.97595E+08         0.00000E+00
    0.00000E+00         0.00000E+00        -0.76734E+08
 
   -0.76280E+08         0.52893E+06         0.00000E+00
    0.52893E+06        -0.97595E+08         0.00000E+00
    0.00000E+00         0.00000E+00        -0.76521E+08
 
   -0.76083E+08         0.53108E+06         0.00000E+00
    0.53108E+06        -0.97596E+08         0.00000E+00
    0.00000E+00         0.00000E+00        -0.76307E+08
 
   -0.75885E+08         0.53262E+06         0.00000E+00
    0.53262E+06        -0.97596E+08         0.00000E+00
    0.00000E+00         0.00000E+00        -0.76091E+08
 
   -0.75689E+08         0.53303E+06         0.00000E+00
    0.53303E+06        -0.97598E+08         0.00000E+00
    0.00000E+00         0.00000E+00        -0.75874E+08
 
   -0.75493E+08         0.53197E+06         0.00000E+00
    0.53197E+06        -0.97603E+08         0.00000E+00
    0.00000E+00         0.00000E+00        -0.75655E+08
 
   -0.75297E+08         0.52975E+06         0.00000E+00
    0.52975E+06        -0.97611E+08         0.00000E+00
    0.00000E+00         0.00000E+00        -0.75435E+08
 
   -0.75101E+08         0.52444E+06         0.00000E+00
    0.52444E+06        -0.97614E+08         0.00000E+00
    0.00000E+00         0.00000E+00        -0.75228E+08
 
   -0.74904E+08         0.51682E+06         0.00000E+00
    0.51682E+06        -0.97609E+08         0.00000E+00
    0.00000E+00         0.00000E+00        -0.75035E+08
 
   -0.74709E+08         0.51134E+06         0.00000E+00
    0.51134E+06        -0.97605E+08         0.00000E+00
    0.00000E+00         0.00000E+00        -0.74841E+08
 
   -0.74515E+08         0.50766E+06         0.00000E+00
    0.50766E+06        -0.97603E+08         0.00000E+00
    0.00000E+00         0.00000E+00        -0.74647E+08
 
   -0.74324E+08         0.50513E+06         0.00000E+00
    0.50513E+06        -0.97601E+08         0.00000E+00
    0.00000E+00         0.00000E+00        -0.74452E+08
 
   -0.74134E+08         0.50317E+06         0.00000E+00
    0.50317E+06        -0.97601E+08         0.00000E+00
    0.00000E+00         0.00000E+00        -0.74256E+08
 
   -0.73945E+08         0.50123E+06         0.00000E+00
    0.50123E+06        -0.97601E+08         0.00000E+00
    0.00000E+00         0.00000E+00        -0.74060E+08
 
   -0.73759E+08         0.49877E+06         0.00000E+00
    0.49877E+06        -0.97602E+08         0.00000E+00
    0.00000E+00         0.00000E+00        -0.73863E+08
 
   -0.73573E+08         0.49558E+06         0.00000E+00
    0.49558E+06        -0.97606E+08         0.00000E+00
    0.00000E+00         0.00000E+00        -0.73666E+08
 
   -0.73389E+08         0.49203E+06         0.00000E+00
    0.49203E+06        -0.97611E+08         0.00000E+00
    0.00000E+00         0.00000E+00        -0.73470E+08
 
   -0.73205E+08         0.48571E+06         0.00000E+00
    0.48571E+06        -0.97609E+08         0.00000E+00
    0.00000E+00         0.00000E+00        -0.73286E+08
 
   -0.73022E+08         0.48071E+06         0.00000E+00
    0.48071E+06        -0.97605E+08         0.00000E+00
    0.00000E+00         0.00000E+00        -0.73105E+08
 
   -0.72840E+08         0.47698E+06         0.00000E+00
    0.47698E+06        -0.97603E+08         0.00000E+00
    0.00000E+00         0.00000E+00        -0.72924E+08
 
   -0.72661E+08         0.47410E+06         0.00000E+00
    0.47410E+06        -0.97602E+08         0.00000E+00
    0.00000E+00         0.00000E+00        -0.72743E+08
 
   -0.72483E+08         0.47165E+06         0.00000E+00
    0.47165E+06        -0.97602E+08         0.00000E+00
    0.00000E+00         0.00000E+00        -0.72562E+08
 
   -0.72306E+08         0.46924E+06         0.00000E+00
    0.46924E+06        -0.97602E+08         0.00000E+00
    0.00000E+00         0.00000E+00        -0.72380E+08
 
   -0.72131E+08         0.46653E+06         0.00000E+00
    0.46653E+06        -0.97603E+08         0.00000E+00
    0.00000E+00         0.00000E+00        -0.72199E+08
 
   -0.71958E+08         0.46330E+06         0.00000E+00
    0.46330E+06        -0.97606E+08         0.00000E+00
    0.00000E+00         0.00000E+00        -0.72017E+08
 
   -0.71785E+08         0.45963E+06         0.00000E+00
    0.45963E+06        -0.97608E+08         0.00000E+00
    0.00000E+00         0.00000E+00        -0.71838E+08
 
   -0.71613E+08         0.45557E+06         0.00000E+00
    0.45557E+06        -0.97605E+08         0.00000E+00
    0.00000E+00         0.00000E+00        -0.71665E+08
 
   -0.71441E+08         0.45216E+06         0.00000E+00
    0.45216E+06        -0.97604E+08         0.00000E+00
    0.00000E+00         0.00000E+00        -0.71492E+08
 
   -0.71271E+08         0.44937E+06         0.00000E+00
    0.44937E+06        -0.97603E+08         0.00000E+00
    0.00000E+00         0.00000E+00        -0.71319E+08
 
   -0.71103E+08         0.44698E+06         0.00000E+00
    0.44698E+06        -0.97603E+08         0.00000E+00
    0.00000E+00         0.00000E+00        -0.71146E+08
 
   -0.70935E+08         0.44482E+06         0.00000E+00
    0.44482E+06        -0.97603E+08         0.00000E+00
    0.00000E+00         0.00000E+00        -0.70973E+08
 
   -0.70768E+08         0.44276E+06         0.00000E+00
    0.44276E+06        -0.97603E+08         0.00000E+00
    0.00000E+00         0.00000E+00        -0.70799E+08
 
   -0.70602E+08         0.44074E+06         0.00000E+00
    0.44074E+06        -0.97603E+08         0.00000E+00
    0.00000E+00         0.00000E+00        -0.70626E+08
 
   -0.70437E+08         0.43871E+06         0.00000E+00
    0.43871E+06        -0.97603E+08         0.00000E+00
    0.00000E+00         0.00000E+00        -0.70452E+08
 
   -0.70273E+08         0.43664E+06         0.00000E+00
    0.43664E+06        -0.97603E+08         0.00000E+00
    0.00000E+00         0.00000E+00        -0.70279E+08
 
   -0.70110E+08         0.43450E+06         0.00000E+00
    0.43450E+06        -0.97602E+08         0.00000E+00
    0.00000E+00         0.00000E+00        -0.70106E+08
 
   -0.69951E+08         0.43220E+06         0.00000E+00
    0.43220E+06        -0.97598E+08         0.00000E+00
    0.00000E+00         0.00000E+00        -0.69935E+08
 
   -0.69793E+08         0.42981E+06         0.00000E+00
    0.42981E+06        -0.97595E+08         0.00000E+00
    0.00000E+00         0.00000E+00        -0.69765E+08
 
   -0.69636E+08         0.42735E+06         0.00000E+00
    0.42735E+06        -0.97591E+08         0.00000E+00
    0.00000E+00         0.00000E+00        -0.69595E+08
 
   -0.69479E+08         0.42479E+06         0.00000E+00
    0.42479E+06        -0.97587E+08         0.00000E+00
    0.00000E+00         0.00000E+00        -0.69424E+08
 
   -0.69323E+08         0.42214E+06         0.00000E+00
    0.42214E+06        -0.97584E+08         0.00000E+00
    0.00000E+00         0.00000E+00        -0.69253E+08
 
   -0.69168E+08         0.41937E+06         0.00000E+00
    0.41937E+06        -0.97580E+08         0.00000E+00
    0.00000E+00         0.00000E+00        -0.69081E+08
 
   -0.69014E+08         0.41646E+06         0.00000E+00
    0.41646E+06        -0.97577E+08         0.00000E+00
    0.00000E+00         0.00000E+00        -0.68909E+08
 
   -0.68860E+08         0.41340E+06         0.00000E+00
    0.41340E+06        -0.97574E+08         0.00000E+00
    0.00000E+00         0.00000E+00        -0.68736E+08
 
   -0.68707E+08         0.41014E+06         0.00000E+00
    0.41014E+06        -0.97571E+08         0.00000E+00
    0.00000E+00         0.00000E+00        -0.68563E+08
 
   -0.68556E+08         0.40663E+06         0.00000E+00
    0.40663E+06        -0.97569E+08         0.00000E+00
    0.00000E+00         0.00000E+00        -0.68389E+08
 
   -0.68406E+08         0.40282E+06         0.00000E+00
    0.40282E+06        -0.97567E+08         0.00000E+00
    0.00000E+00         0.00000E+00        -0.68215E+08
 
   -0.68257E+08         0.39859E+06         0.00000E+00
    0.39859E+06        -0.97565E+08         0.00000E+00
    0.00000E+00         0.00000E+00        -0.68040E+08
 
   -0.68109E+08         0.39383E+06         0.00000E+00
    0.39383E+06        -0.97563E+08         0.00000E+00
    0.00000E+00         0.00000E+00        -0.67863E+08
 
   -0.67963E+08         0.38838E+06         0.00000E+00
    0.38838E+06        -0.97562E+08         0.00000E+00
    0.00000E+00         0.00000E+00        -0.67686E+08
 
   -0.67820E+08         0.38204E+06         0.00000E+00
    0.38204E+06        -0.97562E+08         0.00000E+00
    0.00000E+00         0.00000E+00        -0.67507E+08
 
   -0.67678E+08         0.37453E+06         0.00000E+00
    0.37453E+06        -0.97562E+08         0.00000E+00
    0.00000E+00         0.00000E+00        -0.67327E+08
 
   -0.67539E+08         0.36556E+06         0.00000E+00
    0.36556E+06        -0.97563E+08         0.00000E+00
    0.00000E+00         0.00000E+00        -0.67145E+08
 
   -0.67404E+08         0.35475E+06         0.00000E+00
    0.35475E+06        -0.97564E+08         0.00000E+00
    0.00000E+00         0.00000E+00        -0.66960E+08
 
   -0.67272E+08         0.34168E+06         0.00000E+00
    0.34168E+06        -0.97567E+08         0.00000E+00
    0.00000E+00         0.00000E+00        -0.66774E+08
 
   -0.67144E+08         0.32592E+06         0.00000E+00
    0.32592E+06        -0.97571E+08         0.00000E+00
    0.00000E+00         0.00000E+00        -0.66584E+08
 
   -0.67021E+08         0.30701E+06         0.00000E+00
    0.30701E+06        -0.97575E+08         0.00000E+00
    0.00000E+00         0.00000E+00        -0.66391E+08
 
   -0.66904E+08         0.28457E+06         0.00000E+00
    0.28457E+06        -0.97581E+08         0.00000E+00
    0.00000E+00         0.00000E+00        -0.66193E+08
 
   -0.66794E+08         0.25831E+06         0.00000E+00
    0.25831E+06        -0.97587E+08         0.00000E+00
    0.00000E+00         0.00000E+00        -0.65990E+08
 
   -0.66691E+08         0.22817E+06         0.00000E+00
    0.22817E+06        -0.97593E+08         0.00000E+00
    0.00000E+00         0.00000E+00        -0.65780E+08
 
   -0.66597E+08         0.19441E+06         0.00000E+00
    0.19441E+06        -0.97599E+08         0.00000E+00
    0.00000E+00         0.00000E+00        -0.65562E+08
 
   -0.66514E+08         0.15770E+06         0.00000E+00
    0.15770E+06        -0.97605E+08         0.00000E+00
    0.00000E+00         0.00000E+00        -0.65334E+08
 
   -0.66441E+08         0.11919E+06         0.00000E+00
    0.11919E+06        -0.97609E+08         0.00000E+00
    0.00000E+00         0.00000E+00        -0.65096E+08
 
   -0.66381E+08         0.80415E+05         0.00000E+00
    0.80415E+05        -0.97612E+08         0.00000E+00
    0.00000E+00         0.00000E+00        -0.64846E+08
 
   -0.66334E+08         0.43078E+05         0.00000E+00
    0.43078E+05        -0.97614E+08         0.00000E+00
    0.00000E+00         0.00000E+00        -0.64585E+08
 
   -0.66298E+08         0.10028E+05         0.00000E+00
    0.10028E+05        -0.97615E+08         0.00000E+00
    0.00000E+00         0.00000E+00        -0.64315E+08
 
   -0.66269E+08        -0.12841E+05         0.00000E+00
   -0.12841E+05        -0.97612E+08         0.00000E+00
    0.00000E+00         0.00000E+00        -0.64036E+08
 
   -0.66245E+08        -0.18943E+05         0.00000E+00
   -0.18943E+05        -0.97591E+08         0.00000E+00
    0.00000E+00         0.00000E+00        -0.63737E+08
 
   -0.66229E+08        -0.85639E+04         0.00000E+00
   -0.85639E+04        -0.97535E+08         0.00000E+00
    0.00000E+00         0.00000E+00        -0.63399E+08
 
   -0.80867E+08        -0.11868E+05         0.00000E+00
   -0.11868E+05        -0.97578E+08         0.00000E+00
    0.00000E+00         0.00000E+00        -0.85083E+08
 
   -0.80871E+08        -0.26295E+05         0.00000E+00
   -0.26295E+05        -0.97565E+08         0.00000E+00
    0.00000E+00         0.00000E+00        -0.84629E+08
 
   -0.80878E+08        -0.11783E+05         0.00000E+00
   -0.11783E+05        -0.97546E+08         0.00000E+00
    0.00000E+00         0.00000E+00        -0.84226E+08
 
   -0.80883E+08         0.34675E+05         0.00000E+00
    0.34675E+05        -0.97539E+08         0.00000E+00
    0.00000E+00         0.00000E+00        -0.83847E+08
 
   -0.80871E+08         0.94661E+05         0.00000E+00
    0.94661E+05        -0.97544E+08         0.00000E+00
    0.00000E+00         0.00000E+00        -0.83479E+08
 
   -0.80833E+08         0.14977E+06         0.00000E+00
    0.14977E+06        -0.97556E+08         0.00000E+00
    0.00000E+00         0.00000E+00        -0.83123E+08
 
   -0.80769E+08         0.19244E+06         0.00000E+00
    0.19244E+06        -0.97569E+08         0.00000E+00
    0.00000E+00         0.00000E+00        -0.82782E+08
 
   -0.80684E+08         0.22355E+06         0.00000E+00
    0.22355E+06        -0.97579E+08         0.00000E+00
    0.00000E+00         0.00000E+00        -0.82456E+08
 
   -0.80583E+08         0.24796E+06         0.00000E+00
    0.24796E+06        -0.97581E+08         0.00000E+00
    0.00000E+00         0.00000E+00        -0.82148E+08
 
   -0.80467E+08         0.27067E+06         0.00000E+00
    0.27067E+06        -0.97578E+08         0.00000E+00
    0.00000E+00         0.00000E+00        -0.81854E+08
 
   -0.80340E+08         0.29457E+06         0.00000E+00
    0.29457E+06        -0.97572E+08         0.00000E+00
    0.00000E+00         0.00000E+00        -0.81574E+08
 
   -0.80201E+08         0.32020E+06         0.00000E+00
    0.32020E+06        -0.97568E+08         0.00000E+00
    0.00000E+00         0.00000E+00        -0.81306E+08
 
   -0.80052E+08         0.34667E+06         0.00000E+00
    0.34667E+06        -0.97565E+08         0.00000E+00
    0.00000E+00         0.00000E+00        -0.81047E+08
 
   -0.79894E+08         0.37267E+06         0.00000E+00
    0.37267E+06        -0.97566E+08         0.00000E+00
    0.00000E+00         0.00000E+00        -0.80796E+08
 
   -0.79729E+08         0.39713E+06         0.00000E+00
    0.39713E+06        -0.97568E+08         0.00000E+00
    0.00000E+00         0.00000E+00        -0.80550E+08
 
   -0.79558E+08         0.41937E+06         0.00000E+00
    0.41937E+06        -0.97571E+08         0.00000E+00
    0.00000E+00         0.00000E+00        -0.80307E+08
 
   -0.79382E+08         0.43908E+06         0.00000E+00
    0.43908E+06        -0.97574E+08         0.00000E+00
    0.00000E+00         0.00000E+00        -0.80068E+08
 
   -0.79201E+08         0.45624E+06         0.00000E+00
    0.45624E+06        -0.97578E+08         0.00000E+00
    0.00000E+00         0.00000E+00        -0.79829E+08
 
   -0.79016E+08         0.47096E+06         0.00000E+00
    0.47096E+06        -0.97581E+08         0.00000E+00
    0.00000E+00         0.00000E+00        -0.79591E+08
 
   -0.78828E+08         0.48331E+06         0.00000E+00
    0.48331E+06        -0.97584E+08         0.00000E+00
    0.00000E+00         0.00000E+00        -0.79353E+08
 
   -0.78638E+08         0.49317E+06         0.00000E+00
    0.49317E+06        -0.97587E+08         0.00000E+00
    0.00000E+00         0.00000E+00        -0.79114E+08
 
   -0.78446E+08         0.49998E+06         0.00000E+00
    0.49998E+06        -0.97591E+08         0.00000E+00
    0.00000E+00         0.00000E+00        -0.78873E+08
 
   -0.78253E+08         0.50277E+06         0.00000E+00
    0.50277E+06        -0.97599E+08         0.00000E+00
    0.00000E+00         0.00000E+00        -0.78631E+08
 
   -0.78058E+08         0.50137E+06         0.00000E+00
    0.50137E+06        -0.97615E+08         0.00000E+00
    0.00000E+00         0.00000E+00        -0.78387E+08
 
   -0.77860E+08         0.49556E+06         0.00000E+00
    0.49556E+06        -0.97618E+08         0.00000E+00
    0.00000E+00         0.00000E+00        -0.78165E+08
 
   -0.77659E+08         0.48812E+06         0.00000E+00
    0.48812E+06        -0.97608E+08         0.00000E+00
    0.00000E+00         0.00000E+00        -0.77964E+08
 
   -0.77459E+08         0.48334E+06         0.00000E+00
    0.48334E+06        -0.97603E+08         0.00000E+00
    0.00000E+00         0.00000E+00        -0.77762E+08
 
   -0.77259E+08         0.48139E+06         0.00000E+00
    0.48139E+06        -0.97600E+08         0.00000E+00
    0.00000E+00         0.00000E+00        -0.77558E+08
 
   -0.77061E+08         0.48142E+06         0.00000E+00
    0.48142E+06        -0.97598E+08         0.00000E+00
    0.00000E+00         0.00000E+00        -0.77353E+08
 
   -0.76863E+08         0.48265E+06         0.00000E+00
    0.48265E+06        -0.97597E+08         0.00000E+00
    0.00000E+00         0.00000E+00        -0.77146E+08
 
   -0.76665E+08         0.48462E+06         0.00000E+00
    0.48462E+06        -0.97596E+08         0.00000E+00
    0.00000E+00         0.00000E+00        -0.76937E+08
 
   -0.76467E+08         0.48695E+06         0.00000E+00
    0.48695E+06        -0.97596E+08         0.00000E+00
    0.00000E+00         0.00000E+00        -0.76727E+08
 
   -0.76269E+08         0.48937E+06         0.00000E+00
    0.48937E+06        -0.97596E+08         0.00000E+00
    0.00000E+00         0.00000E+00        -0.76514E+08
 
   -0.76072E+08         0.49160E+06         0.00000E+00
    0.49160E+06        -0.97596E+08         0.00000E+00
    0.00000E+00         0.00000E+00        -0.76301E+08
 
   -0.75875E+08         0.49328E+06         0.00000E+00
    0.49328E+06        -0.97596E+08         0.00000E+00
    0.00000E+00         0.00000E+00        -0.76085E+08
 
   -0.75678E+08         0.49384E+06         0.00000E+00
    0.49384E+06        -0.97598E+08         0.00000E+00
    0.00000E+00         0.00000E+00        -0.75868E+08
 
   -0.75483E+08         0.49284E+06         0.00000E+00
    0.49284E+06        -0.97602E+08         0.00000E+00
    0.00000E+00         0.00000E+00        -0.75650E+08
 
   -0.75287E+08         0.49072E+06         0.00000E+00
    0.49072E+06        -0.97611E+08         0.00000E+00
    0.00000E+00         0.00000E+00        -0.75430E+08
 
   -0.75091E+08         0.48487E+06         0.00000E+00
    0.48487E+06        -0.97613E+08         0.00000E+00
    0.00000E+00         0.00000E+00        -0.75224E+08
 
   -0.74894E+08         0.47767E+06         0.00000E+00
    0.47767E+06        -0.97608E+08         0.00000E+00
    0.00000E+00         0.00000E+00        -0.75032E+08
 
   -0.74700E+08         0.47253E+06         0.00000E+00
    0.47253E+06        -0.97604E+08         0.00000E+00
    0.00000E+00         0.00000E+00        -0.74838E+08
 
   -0.74507E+08         0.46921E+06         0.00000E+00
    0.46921E+06        -0.97602E+08         0.00000E+00
    0.00000E+00         0.00000E+00        -0.74644E+08
 
   -0.74316E+08         0.46702E+06         0.00000E+00
    0.46702E+06        -0.97601E+08         0.00000E+00
    0.00000E+00         0.00000E+00        -0.74449E+08
 
   -0.74126E+08         0.46540E+06         0.00000E+00
    0.46540E+06        -0.97600E+08         0.00000E+00
    0.00000E+00         0.00000E+00        -0.74253E+08
 
   -0.73939E+08         0.46380E+06         0.00000E+00
    0.46380E+06        -0.97601E+08         0.00000E+00
    0.00000E+00         0.00000E+00        -0.74057E+08
 
   -0.73752E+08         0.46164E+06         0.00000E+00
    0.46164E+06        -0.97602E+08         0.00000E+00
    0.00000E+00         0.00000E+00        -0.73860E+08
 
   -0.73567E+08         0.45865E+06         0.00000E+00
    0.45865E+06        -0.97606E+08         0.00000E+00
    0.00000E+00         0.00000E+00        -0.73663E+08
 
   -0.73383E+08         0.45517E+06         0.00000E+00
    0.45517E+06        -0.97610E+08         0.00000E+00
    0.00000E+00         0.00000E+00        -0.73468E+08
 
   -0.73199E+08         0.44899E+06         0.00000E+00
    0.44899E+06        -0.97608E+08         0.00000E+00
    0.00000E+00         0.00000E+00        -0.73284E+08
 
   -0.73017E+08         0.44429E+06         0.00000E+00
    0.44429E+06        -0.97604E+08         0.00000E+00
    0.00000E+00         0.00000E+00        -0.73104E+08
 
   -0.72836E+08         0.44092E+06         0.00000E+00
    0.44092E+06        -0.97603E+08         0.00000E+00
    0.00000E+00         0.00000E+00        -0.72923E+08
 
   -0.72657E+08         0.43839E+06         0.00000E+00
    0.43839E+06        -0.97602E+08         0.00000E+00
    0.00000E+00         0.00000E+00        -0.72742E+08
 
   -0.72479E+08         0.43626E+06         0.00000E+00
    0.43626E+06        -0.97602E+08         0.00000E+00
    0.00000E+00         0.00000E+00        -0.72560E+08
 
   -0.72303E+08         0.43415E+06         0.00000E+00
    0.43415E+06        -0.97602E+08         0.00000E+00
    0.00000E+00         0.00000E+00        -0.72379E+08
 
   -0.72128E+08         0.43171E+06         0.00000E+00
    0.43171E+06        -0.97603E+08         0.00000E+00
    0.00000E+00         0.00000E+00        -0.72197E+08
 
   -0.71955E+08         0.42867E+06         0.00000E+00
    0.42867E+06        -0.97605E+08         0.00000E+00
    0.00000E+00         0.00000E+00        -0.72016E+08
 
   -0.71782E+08         0.42514E+06         0.00000E+00
    0.42514E+06        -0.97607E+08         0.00000E+00
    0.00000E+00         0.00000E+00        -0.71836E+08
 
   -0.71610E+08         0.42126E+06         0.00000E+00
    0.42126E+06        -0.97605E+08         0.00000E+00
    0.00000E+00         0.00000E+00        -0.71663E+08
 
   -0.71440E+08         0.41808E+06         0.00000E+00
    0.41808E+06        -0.97603E+08         0.00000E+00
    0.00000E+00         0.00000E+00        -0.71490E+08
 
   -0.71270E+08         0.41552E+06         0.00000E+00
    0.41552E+06        -0.97602E+08         0.00000E+00
    0.00000E+00         0.00000E+00        -0.71317E+08
 
   -0.71101E+08         0.41336E+06         0.00000E+00
    0.41336E+06        -0.97602E+08         0.00000E+00
    0.00000E+00         0.00000E+00        -0.71144E+08
 
   -0.70934E+08         0.41139E+06         0.00000E+00
    0.41139E+06        -0.97602E+08         0.00000E+00
    0.00000E+00         0.00000E+00        -0.70971E+08
 
   -0.70767E+08         0.40952E+06         0.00000E+00
    0.40952E+06        -0.97602E+08         0.00000E+00
    0.00000E+00         0.00000E+00        -0.70797E+08
 
   -0.70602E+08         0.40767E+06         0.00000E+00
    0.40767E+06        -0.97602E+08         0.00000E+00
    0.00000E+00         0.00000E+00        -0.70624E+08
 
   -0.70437E+08         0.40581E+06         0.00000E+00
    0.40581E+06        -0.97602E+08         0.00000E+00
    0.00000E+00         0.00000E+00        -0.70450E+08
 
   -0.70273E+08         0.40390E+06         0.00000E+00
    0.40390E+06        -0.97602E+08         0.00000E+00
    0.00000E+00         0.00000E+00        -0.70276E+08
 
   -0.70111E+08         0.40192E+06         0.00000E+00
    0.40192E+06        -0.97602E+08         0.00000E+00
    0.00000E+00         0.00000E+00        -0.70103E+08
 
   -0.69952E+08         0.39979E+06         0.00000E+00
    0.39979E+06        -0.97598E+08         0.00000E+00
    0.00000E+00         0.00000E+00        -0.69932E+08
 
   -0.69794E+08         0.39757E+06         0.00000E+00
    0.39757E+06        -0.97594E+08         0.00000E+00
    0.00000E+00         0.00000E+00        -0.69762E+08
 
   -0.69637E+08         0.39528E+06         0.00000E+00
    0.39528E+06        -0.97591E+08         0.00000E+00
    0.00000E+00         0.00000E+00        -0.69591E+08
 
   -0.69481E+08         0.39291E+06         0.00000E+00
    0.39291E+06        -0.97587E+08         0.00000E+00
    0.00000E+00         0.00000E+00        -0.69420E+08
 
   -0.69325E+08         0.39044E+06         0.00000E+00
    0.39044E+06        -0.97583E+08         0.00000E+00
    0.00000E+00         0.00000E+00        -0.69249E+08
 
   -0.69170E+08         0.38786E+06         0.00000E+00
    0.38786E+06        -0.97580E+08         0.00000E+00
    0.00000E+00         0.00000E+00        -0.69077E+08
 
   -0.69016E+08         0.38516E+06         0.00000E+00
    0.38516E+06        -0.97577E+08         0.00000E+00
    0.00000E+00         0.00000E+00        -0.68905E+08
 
   -0.68863E+08         0.38232E+06         0.00000E+00
    0.38232E+06        -0.97574E+08         0.00000E+00
    0.00000E+00         0.00000E+00        -0.68732E+08
 
   -0.68711E+08         0.37930E+06         0.00000E+00
    0.37930E+06        -0.97571E+08         0.00000E+00
    0.00000E+00         0.00000E+00        -0.68558E+08
 
   -0.68559E+08         0.37605E+06         0.00000E+00
    0.37605E+06        -0.97569E+08         0.00000E+00
    0.00000E+00         0.00000E+00        -0.68384E+08
 
   -0.68409E+08         0.37251E+06         0.00000E+00
    0.37251E+06        -0.97566E+08         0.00000E+00
    0.00000E+00         0.00000E+00        -0.68209E+08
 
   -0.68261E+08         0.36861E+06         0.00000E+00
    0.36861E+06        -0.97564E+08         0.00000E+00
    0.00000E+00         0.00000E+00        -0.68034E+08
 
   -0.68114E+08         0.36421E+06         0.00000E+00
    0.36421E+06        -0.97563E+08         0.00000E+00
    0.00000E+00         0.00000E+00        -0.67857E+08
 
   -0.67968E+08         0.35916E+06         0.00000E+00
    0.35916E+06        -0.97562E+08         0.00000E+00
    0.00000E+00         0.00000E+00        -0.67679E+08
 
   -0.67825E+08         0.35328E+06         0.00000E+00
    0.35328E+06        -0.97561E+08         0.00000E+00
    0.00000E+00         0.00000E+00        -0.67500E+08
 
   -0.67683E+08         0.34632E+06         0.00000E+00
    0.34632E+06        -0.97561E+08         0.00000E+00
    0.00000E+00         0.00000E+00        -0.67319E+08
 
   -0.67545E+08         0.33797E+06         0.00000E+00
    0.33797E+06        -0.97561E+08         0.00000E+00
    0.00000E+00         0.00000E+00        -0.67136E+08
 
   -0.67410E+08         0.32789E+06         0.00000E+00
    0.32789E+06        -0.97563E+08         0.00000E+00
    0.00000E+00         0.00000E+00        -0.66951E+08
 
   -0.67278E+08         0.31568E+06         0.00000E+00
    0.31568E+06        -0.97565E+08         0.00000E+00
    0.00000E+00         0.00000E+00        -0.66764E+08
 
   -0.67151E+08         0.30090E+06         0.00000E+00
    0.30090E+06        -0.97568E+08         0.00000E+00
    0.00000E+00         0.00000E+00        -0.66573E+08
 
   -0.67029E+08         0.28315E+06         0.00000E+00
    0.28315E+06        -0.97572E+08         0.00000E+00
    0.00000E+00         0.00000E+00        -0.66379E+08
 
   -0.66913E+08         0.26204E+06         0.00000E+00
    0.26204E+06        -0.97576E+08         0.00000E+00
    0.00000E+00         0.00000E+00        -0.66179E+08
 
   -0.66804E+08         0.23733E+06         0.00000E+00
    0.23733E+06        -0.97582E+08         0.00000E+00
    0.00000E+00         0.00000E+00        -0.65974E+08
 
   -0.66703E+08         0.20900E+06         0.00000E+00
    0.20900E+06        -0.97587E+08         0.00000E+00
    0.00000E+00         0.00000E+00        -0.65762E+08
 
   -0.66611E+08         0.17732E+06         0.00000E+00
    0.17732E+06        -0.97593E+08         0.00000E+00
    0.00000E+00         0.00000E+00        -0.65542E+08
 
   -0.66530E+08         0.14297E+06         0.00000E+00
    0.14297E+06        -0.97598E+08         0.00000E+00
    0.00000E+00         0.00000E+00        -0.65312E+08
 
   -0.66460E+08         0.10707E+06         0.00000E+00
    0.10707E+06        -0.97602E+08         0.00000E+00
    0.00000E+00         0.00000E+00        -0.65071E+08
 
   -0.66403E+08         0.71097E+05         0.00000E+00
    0.71097E+05        -0.97605E+08         0.00000E+00
    0.00000E+00         0.00000E+00        -0.64819E+08
 
   -0.66359E+08         0.36426E+05         0.00000E+00
    0.36426E+05        -0.97607E+08         0.00000E+00
    0.00000E+00         0.00000E+00        -0.64556E+08
 
   -0.66327E+08         0.51620E+04         0.00000E+00
    0.51620E+04        -0.97610E+08         0.00000E+00
    0.00000E+00         0.00000E+00        -0.64285E+08
 
   -0.66301E+08        -0.17095E+05         0.00000E+00
   -0.17095E+05        -0.97609E+08         0.00000E+00
    0.00000E+00         0.00000E+00        -0.64005E+08
 
   -0.66279E+08        -0.22542E+05         0.00000E+00
   -0.22542E+05        -0.97592E+08         0.00000E+00
    0.00000E+00         0.00000E+00        -0.63709E+08
 
   -0.66264E+08        -0.10070E+05         0.00000E+00
   -0.10070E+05        -0.97539E+08         0.00000E+00
    0.00000E+00         0.00000E+00        -0.63374E+08
 
   -0.80822E+08        -0.11350E+05         0.00000E+00
   -0.11350E+05        -0.97573E+08         0.00000E+00
    0.00000E+00         0.00000E+00        -0.85109E+08
 
   -0.80828E+08        -0.24789E+05         0.00000E+00
   -0.24789E+05        -0.97564E+08         0.00000E+00
    0.00000E+00         0.00000E+00        -0.84663E+08
 
   -0.80841E+08        -0.95817E+04         0.00000E+00
   -0.95817E+04        -0.97552E+08         0.00000E+00
    0.00000E+00         0.00000E+00        -0.84266E+08
 
   -0.80853E+08         0.35101E+05         0.00000E+00
    0.35101E+05        -0.97550E+08         0.00000E+00
    0.00000E+00         0.00000E+00        -0.83888E+08
 
   -0.80846E+08         0.90234E+05         0.00000E+00
    0.90234E+05        -0.97555E+08         0.00000E+00
    0.00000E+00         0.00000E+00        -0.83517E+08
 
   -0.80811E+08         0.13965E+06         0.00000E+00
    0.13965E+06        -0.97565E+08         0.00000E+00
    0.00000E+00         0.00000E+00        -0.83157E+08
 
   -0.80748E+08         0.17749E+06         0.00000E+00
    0.17749E+06        -0.97576E+08         0.00000E+00
    0.00000E+00         0.00000E+00        -0.82810E+08
 
   -0.80664E+08         0.20488E+06         0.00000E+00
    0.20488E+06        -0.97584E+08         0.00000E+00
    0.00000E+00         0.00000E+00        -0.82479E+08
 
   -0.80564E+08         0.22630E+06         0.00000E+00
    0.22630E+06        -0.97585E+08         0.00000E+00
    0.00000E+00         0.00000E+00        -0.82165E+08
 
   -0.80449E+08         0.24643E+06         0.00000E+00
    0.24643E+06        -0.97582E+08         0.00000E+00
    0.00000E+00         0.00000E+00        -0.81866E+08
 
   -0.80323E+08         0.26797E+06         0.00000E+00
    0.26797E+06        -0.97577E+08         0.00000E+00
    0.00000E+00         0.00000E+00        -0.81582E+08
 
   -0.80185E+08         0.29147E+06         0.00000E+00
    0.29147E+06        -0.97573E+08         0.00000E+00
    0.00000E+00         0.00000E+00        -0.81310E+08
 
   -0.80037E+08         0.31607E+06         0.00000E+00
    0.31607E+06        -0.97571E+08         0.00000E+00
    0.00000E+00         0.00000E+00        -0.81048E+08
 
   -0.79881E+08         0.34046E+06         0.00000E+00
    0.34046E+06        -0.97571E+08         0.00000E+00
    0.00000E+00         0.00000E+00        -0.80794E+08
 
   -0.79717E+08         0.36355E+06         0.00000E+00
    0.36355E+06        -0.97572E+08         0.00000E+00
    0.00000E+00         0.00000E+00        -0.80545E+08
 
   -0.79546E+08         0.38460E+06         0.00000E+00
    0.38460E+06        -0.97575E+08         0.00000E+00
    0.00000E+00         0.00000E+00        -0.80301E+08
 
   -0.79370E+08         0.40329E+06         0.00000E+00
    0.40329E+06        -0.97578E+08         0.00000E+00
    0.00000E+00         0.00000E+00        -0.80060E+08
 
   -0.79189E+08         0.41959E+06         0.00000E+00
    0.41959E+06        -0.97581E+08         0.00000E+00
    0.00000E+00         0.00000E+00        -0.79821E+08
 
   -0.79004E+08         0.43359E+06         0.00000E+00
    0.43359E+06        -0.97584E+08         0.00000E+00
    0.00000E+00         0.00000E+00        -0.79582E+08
 
   -0.78815E+08         0.44539E+06         0.00000E+00
    0.44539E+06        -0.97586E+08         0.00000E+00
    0.00000E+00         0.00000E+00        -0.79344E+08
 
   -0.78624E+08         0.45487E+06         0.00000E+00
    0.45487E+06        -0.97589E+08         0.00000E+00
    0.00000E+00         0.00000E+00        -0.79104E+08
 
   -0.78432E+08         0.46147E+06         0.00000E+00
    0.46147E+06        -0.97592E+08         0.00000E+00
    0.00000E+00         0.00000E+00        -0.78864E+08
 
   -0.78238E+08         0.46404E+06         0.00000E+00
    0.46404E+06        -0.97599E+08         0.00000E+00
    0.00000E+00         0.00000E+00        -0.78621E+08
 
   -0.78043E+08         0.46209E+06         0.00000E+00
    0.46209E+06        -0.97614E+08         0.00000E+00
    0.00000E+00         0.00000E+00        -0.78377E+08
 
   -0.77845E+08         0.45548E+06         0.00000E+00
    0.45548E+06        -0.97617E+08         0.00000E+00
    0.00000E+00         0.00000E+00        -0.78156E+08
 
   -0.77644E+08         0.44796E+06         0.00000E+00
    0.44796E+06        -0.97607E+08         0.00000E+00
    0.00000E+00         0.00000E+00        -0.77956E+08
 
   -0.77444E+08         0.44339E+06         0.00000E+00
    0.44339E+06        -0.97602E+08         0.00000E+00
    0.00000E+00         0.00000E+00        -0.77754E+08
 
   -0.77245E+08         0.44167E+06         0.00000E+00
    0.44167E+06        -0.97600E+08         0.00000E+00
    0.00000E+00         0.00000E+00        -0.77550E+08
 
   -0.77047E+08         0.44183E+06         0.00000E+00
    0.44183E+06        -0.97598E+08         0.00000E+00
    0.00000E+00         0.00000E+00        -0.77345E+08
 
   -0.76850E+08         0.44313E+06         0.00000E+00
    0.44313E+06        -0.97597E+08         0.00000E+00
    0.00000E+00         0.00000E+00        -0.77138E+08
 
   -0.76653E+08         0.44511E+06         0.00000E+00
    0.44511E+06        -0.97597E+08         0.00000E+00
    0.00000E+00         0.00000E+00        -0.76930E+08
 
   -0.76456E+08         0.44744E+06         0.00000E+00
    0.44744E+06        -0.97596E+08         0.00000E+00
    0.00000E+00         0.00000E+00        -0.76720E+08
 
   -0.76258E+08         0.44988E+06         0.00000E+00
    0.44988E+06        -0.97596E+08         0.00000E+00
    0.00000E+00         0.00000E+00        -0.76508E+08
 
   -0.76061E+08         0.45217E+06         0.00000E+00
    0.45217E+06        -0.97596E+08         0.00000E+00
    0.00000E+00         0.00000E+00        -0.76294E+08
 
   -0.75864E+08         0.45398E+06         0.00000E+00
    0.45398E+06        -0.97597E+08         0.00000E+00
    0.00000E+00         0.00000E+00        -0.76079E+08
 
   -0.75668E+08         0.45470E+06         0.00000E+00
    0.45470E+06        -0.97598E+08         0.00000E+00
    0.00000E+00         0.00000E+00        -0.75863E+08
 
   -0.75473E+08         0.45372E+06         0.00000E+00
    0.45372E+06        -0.97602E+08         0.00000E+00
    0.00000E+00         0.00000E+00        -0.75644E+08
 
   -0.75277E+08         0.45175E+06         0.00000E+00
    0.45175E+06        -0.97610E+08         0.00000E+00
    0.00000E+00         0.00000E+00        -0.75425E+08
 
   -0.75081E+08         0.44537E+06         0.00000E+00
    0.44537E+06        -0.97611E+08         0.00000E+00
    0.00000E+00         0.00000E+00        -0.75221E+08
 
   -0.74885E+08         0.43859E+06         0.00000E+00
    0.43859E+06        -0.97606E+08         0.00000E+00
    0.00000E+00         0.00000E+00        -0.75028E+08
 
   -0.74691E+08         0.43382E+06         0.00000E+00
    0.43382E+06        -0.97604E+08         0.00000E+00
    0.00000E+00         0.00000E+00        -0.74835E+08
 
   -0.74499E+08         0.43087E+06         0.00000E+00
    0.43087E+06        -0.97602E+08         0.00000E+00
    0.00000E+00         0.00000E+00        -0.74641E+08
 
   -0.74308E+08         0.42902E+06         0.00000E+00
    0.42902E+06        -0.97601E+08         0.00000E+00
    0.00000E+00         0.00000E+00        -0.74446E+08
 
   -0.74119E+08         0.42772E+06         0.00000E+00
    0.42772E+06        -0.97600E+08         0.00000E+00
    0.00000E+00         0.00000E+00        -0.74250E+08
 
   -0.73932E+08         0.42645E+06         0.00000E+00
    0.42645E+06        -0.97600E+08         0.00000E+00
    0.00000E+00         0.00000E+00        -0.74054E+08
 
   -0.73746E+08         0.42460E+06         0.00000E+00
    0.42460E+06        -0.97601E+08         0.00000E+00
    0.00000E+00         0.00000E+00        -0.73858E+08
 
   -0.73561E+08         0.42179E+06         0.00000E+00
    0.42179E+06        -0.97605E+08         0.00000E+00
    0.00000E+00         0.00000E+00        -0.73661E+08
 
   -0.73377E+08         0.41837E+06         0.00000E+00
    0.41837E+06        -0.97609E+08         0.00000E+00
    0.00000E+00         0.00000E+00        -0.73467E+08
 
   -0.73194E+08         0.41234E+06         0.00000E+00
    0.41234E+06        -0.97606E+08         0.00000E+00
    0.00000E+00         0.00000E+00        -0.73283E+08
 
   -0.73012E+08         0.40796E+06         0.00000E+00
    0.40796E+06        -0.97603E+08         0.00000E+00
    0.00000E+00         0.00000E+00        -0.73102E+08
 
   -0.72831E+08         0.40496E+06         0.00000E+00
    0.40496E+06        -0.97602E+08         0.00000E+00
    0.00000E+00         0.00000E+00        -0.72921E+08
 
   -0.72652E+08         0.40275E+06         0.00000E+00
    0.40275E+06        -0.97601E+08         0.00000E+00
    0.00000E+00         0.00000E+00        -0.72740E+08
 
   -0.72475E+08         0.40093E+06         0.00000E+00
    0.40093E+06        -0.97601E+08         0.00000E+00
    0.00000E+00         0.00000E+00        -0.72559E+08
 
   -0.72300E+08         0.39913E+06         0.00000E+00
    0.39913E+06        -0.97601E+08         0.00000E+00
    0.00000E+00         0.00000E+00        -0.72377E+08
 
   -0.72125E+08         0.39695E+06         0.00000E+00
    0.39695E+06        -0.97602E+08         0.00000E+00
    0.00000E+00         0.00000E+00        -0.72196E+08
 
   -0.71952E+08         0.39411E+06         0.00000E+00
    0.39411E+06        -0.97604E+08         0.00000E+00
    0.00000E+00         0.00000E+00        -0.72014E+08
 
   -0.71780E+08         0.39070E+06         0.00000E+00
    0.39070E+06        -0.97606E+08         0.00000E+00
    0.00000E+00         0.00000E+00        -0.71835E+08
 
   -0.71608E+08         0.38701E+06         0.00000E+00
    0.38701E+06        -0.97604E+08         0.00000E+00
    0.00000E+00         0.00000E+00        -0.71662E+08
 
   -0.71438E+08         0.38406E+06         0.00000E+00
    0.38406E+06        -0.97603E+08         0.00000E+00
    0.00000E+00         0.00000E+00        -0.71489E+08
 
   -0.71268E+08         0.38174E+06         0.00000E+00
    0.38174E+06        -0.97602E+08         0.00000E+00
    0.00000E+00         0.00000E+00        -0.71315E+08
 
   -0.71100E+08         0.37980E+06         0.00000E+00
    0.37980E+06        -0.97602E+08         0.00000E+00
    0.00000E+00         0.00000E+00        -0.71142E+08
 
   -0.70933E+08         0.37804E+06         0.00000E+00
    0.37804E+06        -0.97602E+08         0.00000E+00
    0.00000E+00         0.00000E+00        -0.70969E+08
 
   -0.70767E+08         0.37635E+06         0.00000E+00
    0.37635E+06        -0.97602E+08         0.00000E+00
    0.00000E+00         0.00000E+00        -0.70795E+08
 
   -0.70602E+08         0.37467E+06         0.00000E+00
    0.37467E+06        -0.97602E+08         0.00000E+00
    0.00000E+00         0.00000E+00        -0.70622E+08
 
   -0.70437E+08         0.37297E+06         0.00000E+00
    0.37297E+06        -0.97602E+08         0.00000E+00
    0.00000E+00         0.00000E+00        -0.70448E+08
 
   -0.70274E+08         0.37122E+06         0.00000E+00
    0.37122E+06        -0.97602E+08         0.00000E+00
    0.00000E+00         0.00000E+00        -0.70274E+08
 
   -0.70112E+08         0.36940E+06         0.00000E+00
    0.36940E+06        -0.97601E+08         0.00000E+00
    0.00000E+00         0.00000E+00        -0.70101E+08
 
   -0.69953E+08         0.36744E+06         0.00000E+00
    0.36744E+06        -0.97598E+08         0.00000E+00
    0.00000E+00         0.00000E+00        -0.69930E+08
 
   -0.69795E+08         0.36539E+06         0.00000E+00
    0.36539E+06        -0.97594E+08         0.00000E+00
    0.00000E+00         0.00000E+00        -0.69759E+08
 
   -0.69638E+08         0.36328E+06         0.00000E+00
    0.36328E+06        -0.97590E+08         0.00000E+00
    0.00000E+00         0.00000E+00        -0.69588E+08
 
   -0.69482E+08         0.36108E+06         0.00000E+00
    0.36108E+06        -0.97587E+08         0.00000E+00
    0.00000E+00         0.00000E+00        -0.69417E+08
 
   -0.69327E+08         0.35880E+06         0.00000E+00
    0.35880E+06        -0.97583E+08         0.00000E+00
    0.00000E+00         0.00000E+00        -0.69245E+08
 
   -0.69172E+08         0.35642E+06         0.00000E+00
    0.35642E+06        -0.97580E+08         0.00000E+00
    0.00000E+00         0.00000E+00        -0.69073E+08
 
   -0.69019E+08         0.35393E+06         0.00000E+00
    0.35393E+06        -0.97577E+08         0.00000E+00
    0.00000E+00         0.00000E+00        -0.68900E+08
 
   -0.68866E+08         0.35130E+06         0.00000E+00
    0.35130E+06        -0.97574E+08         0.00000E+00
    0.00000E+00         0.00000E+00        -0.68727E+08
 
   -0.68714E+08         0.34852E+06         0.00000E+00
    0.34852E+06        -0.97571E+08         0.00000E+00
    0.00000E+00         0.00000E+00        -0.68553E+08
 
   -0.68563E+08         0.34553E+06         0.00000E+00
    0.34553E+06        -0.97569E+08         0.00000E+00
    0.00000E+00         0.00000E+00        -0.68379E+08
 
   -0.68413E+08         0.34228E+06         0.00000E+00
    0.34228E+06        -0.97566E+08         0.00000E+00
    0.00000E+00         0.00000E+00        -0.68204E+08
 
   -0.68265E+08         0.33869E+06         0.00000E+00
    0.33869E+06        -0.97564E+08         0.00000E+00
    0.00000E+00         0.00000E+00        -0.68028E+08
 
   -0.68118E+08         0.33465E+06         0.00000E+00
    0.33465E+06        -0.97563E+08         0.00000E+00
    0.00000E+00         0.00000E+00        -0.67851E+08
 
   -0.67973E+08         0.33001E+06         0.00000E+00
    0.33001E+06        -0.97561E+08         0.00000E+00
    0.00000E+00         0.00000E+00        -0.67672E+08
 
   -0.67830E+08         0.32460E+06         0.00000E+00
    0.32460E+06        -0.97560E+08         0.00000E+00
    0.00000E+00         0.00000E+00        -0.67493E+08
 
   -0.67689E+08         0.31817E+06         0.00000E+00
    0.31817E+06        -0.97560E+08         0.00000E+00
    0.00000E+00         0.00000E+00        -0.67311E+08
 
   -0.67551E+08         0.31046E+06         0.00000E+00
    0.31046E+06        -0.97560E+08         0.00000E+00
    0.00000E+00         0.00000E+00        -0.67128E+08
 
   -0.67416E+08         0.30112E+06         0.00000E+00
    0.30112E+06        -0.97561E+08         0.00000E+00
    0.00000E+00         0.00000E+00        -0.66942E+08
 
   -0.67285E+08         0.28977E+06         0.00000E+00
    0.28977E+06        -0.97563E+08         0.00000E+00
    0.00000E+00         0.00000E+00        -0.66754E+08
 
   -0.67159E+08         0.27602E+06         0.00000E+00
    0.27602E+06        -0.97565E+08         0.00000E+00
    0.00000E+00         0.00000E+00        -0.66562E+08
 
   -0.67037E+08         0.25945E+06         0.00000E+00
    0.25945E+06        -0.97568E+08         0.00000E+00
    0.00000E+00         0.00000E+00        -0.66366E+08
 
   -0.66922E+08         0.23973E+06         0.00000E+00
    0.23973E+06        -0.97572E+08         0.00000E+00
    0.00000E+00         0.00000E+00        -0.66166E+08
 
   -0.66815E+08         0.21664E+06         0.00000E+00
    0.21664E+06        -0.97577E+08         0.00000E+00
    0.00000E+00         0.00000E+00        -0.65959E+08
 
   -0.66715E+08         0.19018E+06         0.00000E+00
    0.19018E+06        -0.97582E+08         0.00000E+00
    0.00000E+00         0.00000E+00        -0.65745E+08
 
   -0.66625E+08         0.16065E+06         0.00000E+00
    0.16065E+06        -0.97587E+08         0.00000E+00
    0.00000E+00         0.00000E+00        -0.65523E+08
 
   -0.66546E+08         0.12874E+06         0.00000E+00
    0.12874E+06        -0.97591E+08         0.00000E+00
    0.00000E+00         0.00000E+00        -0.65290E+08
 
   -0.66479E+08         0.95509E+05         0.00000E+00
    0.95509E+05        -0.97595E+08         0.00000E+00
    0.00000E+00         0.00000E+00        -0.65047E+08
 
   -0.66425E+08         0.62355E+05         0.00000E+00
    0.62355E+05        -0.97598E+08         0.00000E+00
    0.00000E+00         0.00000E+00        -0.64793E+08
 
   -0.66384E+08         0.30455E+05         0.00000E+00
    0.30455E+05        -0.97601E+08         0.00000E+00
    0.00000E+00         0.00000E+00        -0.64528E+08
 
   -0.66355E+08         0.11094E+04         0.00000E+00
    0.11094E+04        -0.97605E+08         0.00000E+00
    0.00000E+00         0.00000E+00        -0.64254E+08
 
   -0.66334E+08        -0.20680E+05         0.00000E+00
   -0.20680E+05        -0.97607E+08         0.00000E+00
    0.00000E+00         0.00000E+00        -0.63975E+08
 
   -0.66314E+08        -0.25875E+05         0.00000E+00
   -0.25875E+05        -0.97594E+08         0.00000E+00
    0.00000E+00         0.00000E+00        -0.63681E+08
 
   -0.66299E+08        -0.11552E+05         0.00000E+00
   -0.11552E+05        -0.97544E+08         0.00000E+00
    0.00000E+00         0.00000E+00        -0.63350E+08
 
   -0.80779E+08        -0.10637E+05         0.00000E+00
   -0.10637E+05        -0.97568E+08         0.00000E+00
    0.00000E+00         0.00000E+00        -0.85135E+08
 
   -0.80788E+08        -0.22514E+05         0.00000E+00
   -0.22514E+05        -0.97563E+08         0.00000E+00
    0.00000E+00         0.00000E+00        -0.84698E+08
 
   -0.80807E+08        -0.60116E+04         0.00000E+00
   -0.60116E+04        -0.97559E+08         0.00000E+00
    0.00000E+00         0.00000E+00        -0.84307E+08
 
   -0.80825E+08         0.36757E+05         0.00000E+00
    0.36757E+05        -0.97561E+08         0.00000E+00
    0.00000E+00         0.00000E+00        -0.83928E+08
 
   -0.80822E+08         0.86484E+05         0.00000E+00
    0.86484E+05        -0.97566E+08         0.00000E+00
    0.00000E+00         0.00000E+00        -0.83554E+08
 
   -0.80788E+08         0.12985E+06         0.00000E+00
    0.12985E+06        -0.97573E+08         0.00000E+00
    0.00000E+00         0.00000E+00        -0.83189E+08
 
   -0.80727E+08         0.16274E+06         0.00000E+00
    0.16274E+06        -0.97582E+08         0.00000E+00
    0.00000E+00         0.00000E+00        -0.82836E+08
 
   -0.80644E+08         0.18635E+06         0.00000E+00
    0.18635E+06        -0.97588E+08         0.00000E+00
    0.00000E+00         0.00000E+00        -0.82500E+08
 
   -0.80544E+08         0.20481E+06         0.00000E+00
    0.20481E+06        -0.97589E+08         0.00000E+00
    0.00000E+00         0.00000E+00        -0.82180E+08
 
   -0.80430E+08         0.22239E+06         0.00000E+00
    0.22239E+06        -0.97586E+08         0.00000E+00
    0.00000E+00         0.00000E+00        -0.81877E+08
 
   -0.80305E+08         0.24163E+06         0.00000E+00
    0.24163E+06        -0.97581E+08         0.00000E+00
    0.00000E+00         0.00000E+00        -0.81589E+08
 
   -0.80169E+08         0.26302E+06         0.00000E+00
    0.26302E+06        -0.97577E+08         0.00000E+00
    0.00000E+00         0.00000E+00        -0.81313E+08
 
   -0.80022E+08         0.28573E+06         0.00000E+00
    0.28573E+06        -0.97575E+08         0.00000E+00
    0.00000E+00         0.00000E+00        -0.81048E+08
 
   -0.79867E+08         0.30847E+06         0.00000E+00
    0.30847E+06        -0.97575E+08         0.00000E+00
    0.00000E+00         0.00000E+00        -0.80791E+08
 
   -0.79704E+08         0.33012E+06         0.00000E+00
    0.33012E+06        -0.97577E+08         0.00000E+00
    0.00000E+00         0.00000E+00        -0.80541E+08
 
   -0.79534E+08         0.34992E+06         0.00000E+00
    0.34992E+06        -0.97579E+08         0.00000E+00
    0.00000E+00         0.00000E+00        -0.80295E+08
 
   -0.79358E+08         0.36754E+06         0.00000E+00
    0.36754E+06        -0.97581E+08         0.00000E+00
    0.00000E+00         0.00000E+00        -0.80053E+08
 
   -0.79177E+08         0.38291E+06         0.00000E+00
    0.38291E+06        -0.97584E+08         0.00000E+00
    0.00000E+00         0.00000E+00        -0.79813E+08
 
   -0.78992E+08         0.39614E+06         0.00000E+00
    0.39614E+06        -0.97586E+08         0.00000E+00
    0.00000E+00         0.00000E+00        -0.79573E+08
 
   -0.78803E+08         0.40733E+06         0.00000E+00
    0.40733E+06        -0.97588E+08         0.00000E+00
    0.00000E+00         0.00000E+00        -0.79334E+08
 
   -0.78611E+08         0.41643E+06         0.00000E+00
    0.41643E+06        -0.97590E+08         0.00000E+00
    0.00000E+00         0.00000E+00        -0.79095E+08
 
   -0.78418E+08         0.42283E+06         0.00000E+00
    0.42283E+06        -0.97593E+08         0.00000E+00
    0.00000E+00         0.00000E+00        -0.78854E+08
 
   -0.78224E+08         0.42522E+06         0.00000E+00
    0.42522E+06        -0.97599E+08         0.00000E+00
    0.00000E+00         0.00000E+00        -0.78612E+08
 
   -0.78028E+08         0.42277E+06         0.00000E+00
    0.42277E+06        -0.97613E+08         0.00000E+00
    0.00000E+00         0.00000E+00        -0.78368E+08
 
   -0.77829E+08         0.41541E+06         0.00000E+00
    0.41541E+06        -0.97615E+08         0.00000E+00
    0.00000E+00         0.00000E+00        -0.78148E+08
 
   -0.77629E+08         0.40785E+06         0.00000E+00
    0.40785E+06        -0.97606E+08         0.00000E+00
    0.00000E+00         0.00000E+00        -0.77948E+08
 
   -0.77430E+08         0.40356E+06         0.00000E+00
    0.40356E+06        -0.97602E+08         0.00000E+00
    0.00000E+00         0.00000E+00        -0.77746E+08
 
   -0.77232E+08         0.40210E+06         0.00000E+00
    0.40210E+06        -0.97600E+08         0.00000E+00
    0.00000E+00         0.00000E+00        -0.77543E+08
 
   -0.77034E+08         0.40240E+06         0.00000E+00
    0.40240E+06        -0.97599E+08         0.00000E+00
    0.00000E+00         0.00000E+00        -0.77338E+08
 
   -0.76838E+08         0.40374E+06         0.00000E+00
    0.40374E+06        -0.97598E+08         0.00000E+00
    0.00000E+00         0.00000E+00        -0.77131E+08
 
   -0.76641E+08         0.40572E+06         0.00000E+00
    0.40572E+06        -0.97597E+08         0.00000E+00
    0.00000E+00         0.00000E+00        -0.76923E+08
 
   -0.76445E+08         0.40803E+06         0.00000E+00
    0.40803E+06        -0.97597E+08         0.00000E+00
    0.00000E+00         0.00000E+00        -0.76713E+08
 
   -0.76248E+08         0.41046E+06         0.00000E+00
    0.41046E+06        -0.97597E+08         0.00000E+00
    0.00000E+00         0.00000E+00        -0.76502E+08
 
   -0.76051E+08         0.41279E+06         0.00000E+00
    0.41279E+06        -0.97597E+08         0.00000E+00
    0.00000E+00         0.00000E+00        -0.76288E+08
 
   -0.75854E+08         0.41471E+06         0.00000E+00
    0.41471E+06        -0.97597E+08         0.00000E+00
    0.00000E+00         0.00000E+00        -0.76073E+08
 
   -0.75658E+08         0.41559E+06         0.00000E+00
    0.41559E+06        -0.97598E+08         0.00000E+00
    0.00000E+00         0.00000E+00        -0.75857E+08
 
   -0.75463E+08         0.41467E+06         0.00000E+00
    0.41467E+06        -0.97601E+08         0.00000E+00
    0.00000E+00         0.00000E+00        -0.75639E+08
 
   -0.75268E+08         0.41276E+06         0.00000E+00
    0.41276E+06        -0.97610E+08         0.00000E+00
    0.00000E+00         0.00000E+00        -0.75421E+08
 
   -0.75072E+08         0.40596E+06         0.00000E+00
    0.40596E+06        -0.97610E+08         0.00000E+00
    0.00000E+00         0.00000E+00        -0.75218E+08
 
   -0.74876E+08         0.39958E+06         0.00000E+00
    0.39958E+06        -0.97605E+08         0.00000E+00
    0.00000E+00         0.00000E+00        -0.75025E+08
 
   -0.74682E+08         0.39522E+06         0.00000E+00
    0.39522E+06        -0.97603E+08         0.00000E+00
    0.00000E+00         0.00000E+00        -0.74832E+08
 
   -0.74490E+08         0.39264E+06         0.00000E+00
    0.39264E+06        -0.97601E+08         0.00000E+00
    0.00000E+00         0.00000E+00        -0.74638E+08
 
   -0.74300E+08         0.39111E+06         0.00000E+00
    0.39111E+06        -0.97600E+08         0.00000E+00
    0.00000E+00         0.00000E+00        -0.74443E+08
 
   -0.74112E+08         0.39012E+06         0.00000E+00
    0.39012E+06        -0.97600E+08         0.00000E+00
    0.00000E+00         0.00000E+00        -0.74248E+08
 
   -0.73925E+08         0.38918E+06         0.00000E+00
    0.38918E+06        -0.97600E+08         0.00000E+00
    0.00000E+00         0.00000E+00        -0.74052E+08
 
   -0.73739E+08         0.38764E+06         0.00000E+00
    0.38764E+06        -0.97601E+08         0.00000E+00
    0.00000E+00         0.00000E+00        -0.73855E+08
 
   -0.73555E+08         0.38501E+06         0.00000E+00
    0.38501E+06        -0.97604E+08         0.00000E+00
    0.00000E+00         0.00000E+00        -0.73658E+08
 
   -0.73372E+08         0.38162E+06         0.00000E+00
    0.38162E+06        -0.97608E+08         0.00000E+00
    0.00000E+00         0.00000E+00        -0.73465E+08
 
   -0.73188E+08         0.37577E+06         0.00000E+00
    0.37577E+06        -0.97605E+08         0.00000E+00
    0.00000E+00         0.00000E+00        -0.73282E+08
 
   -0.73007E+08         0.37172E+06         0.00000E+00
    0.37172E+06        -0.97603E+08         0.00000E+00
    0.00000E+00         0.00000E+00        -0.73101E+08
 
   -0.72827E+08         0.36908E+06         0.00000E+00
    0.36908E+06        -0.97602E+08         0.00000E+00
    0.00000E+00         0.00000E+00        -0.72920E+08
 
   -0.72648E+08         0.36721E+06         0.00000E+00
    0.36721E+06        -0.97601E+08         0.00000E+00
    0.00000E+00         0.00000E+00        -0.72739E+08
 
   -0.72472E+08         0.36568E+06         0.00000E+00
    0.36568E+06        -0.97601E+08         0.00000E+00
    0.00000E+00         0.00000E+00        -0.72557E+08
 
   -0.72296E+08         0.36417E+06         0.00000E+00
    0.36417E+06        -0.97601E+08         0.00000E+00
    0.00000E+00         0.00000E+00        -0.72376E+08
 
   -0.72122E+08         0.36226E+06         0.00000E+00
    0.36226E+06        -0.97602E+08         0.00000E+00
    0.00000E+00         0.00000E+00        -0.72194E+08
 
   -0.71949E+08         0.35962E+06         0.00000E+00
    0.35962E+06        -0.97604E+08         0.00000E+00
    0.00000E+00         0.00000E+00        -0.72013E+08
 
   -0.71777E+08         0.35633E+06         0.00000E+00
    0.35633E+06        -0.97605E+08         0.00000E+00
    0.00000E+00         0.00000E+00        -0.71834E+08
 
   -0.71606E+08         0.35283E+06         0.00000E+00
    0.35283E+06        -0.97603E+08         0.00000E+00
    0.00000E+00         0.00000E+00        -0.71660E+08
 
   -0.71436E+08         0.35011E+06         0.00000E+00
    0.35011E+06        -0.97602E+08         0.00000E+00
    0.00000E+00         0.00000E+00        -0.71487E+08
 
   -0.71267E+08         0.34804E+06         0.00000E+00
    0.34804E+06        -0.97602E+08         0.00000E+00
    0.00000E+00         0.00000E+00        -0.71314E+08
 
   -0.71099E+08         0.34631E+06         0.00000E+00
    0.34631E+06        -0.97601E+08         0.00000E+00
    0.00000E+00         0.00000E+00        -0.71140E+08
 
   -0.70933E+08         0.34475E+06         0.00000E+00
    0.34475E+06        -0.97601E+08         0.00000E+00
    0.00000E+00         0.00000E+00        -0.70967E+08
 
   -0.70767E+08         0.34324E+06         0.00000E+00
    0.34324E+06        -0.97601E+08         0.00000E+00
    0.00000E+00         0.00000E+00        -0.70793E+08
 
   -0.70602E+08         0.34173E+06         0.00000E+00
    0.34173E+06        -0.97602E+08         0.00000E+00
    0.00000E+00         0.00000E+00        -0.70619E+08
 
   -0.70438E+08         0.34018E+06         0.00000E+00
    0.34018E+06        -0.97602E+08         0.00000E+00
    0.00000E+00         0.00000E+00        -0.70446E+08
 
   -0.70274E+08         0.33860E+06         0.00000E+00
    0.33860E+06        -0.97602E+08         0.00000E+00
    0.00000E+00         0.00000E+00        -0.70272E+08
 
   -0.70113E+08         0.33693E+06         0.00000E+00
    0.33693E+06        -0.97601E+08         0.00000E+00
    0.00000E+00         0.00000E+00        -0.70098E+08
 
   -0.69954E+08         0.33515E+06         0.00000E+00
    0.33515E+06        -0.97598E+08         0.00000E+00
    0.00000E+00         0.00000E+00        -0.69927E+08
 
   -0.69797E+08         0.33328E+06         0.00000E+00
    0.33328E+06        -0.97594E+08         0.00000E+00
    0.00000E+00         0.00000E+00        -0.69756E+08
 
   -0.69640E+08         0.33134E+06         0.00000E+00
    0.33134E+06        -0.97590E+08         0.00000E+00
    0.00000E+00         0.00000E+00        -0.69585E+08
 
   -0.69484E+08         0.32932E+06         0.00000E+00
    0.32932E+06        -0.97587E+08         0.00000E+00
    0.00000E+00         0.00000E+00        -0.69413E+08
 
   -0.69329E+08         0.32723E+06         0.00000E+00
    0.32723E+06        -0.97583E+08         0.00000E+00
    0.00000E+00         0.00000E+00        -0.69241E+08
 
   -0.69175E+08         0.32505E+06         0.00000E+00
    0.32505E+06        -0.97580E+08         0.00000E+00
    0.00000E+00         0.00000E+00        -0.69069E+08
 
   -0.69021E+08         0.32276E+06         0.00000E+00
    0.32276E+06        -0.97577E+08         0.00000E+00
    0.00000E+00         0.00000E+00        -0.68896E+08
 
   -0.68869E+08         0.32036E+06         0.00000E+00
    0.32036E+06        -0.97574E+08         0.00000E+00
    0.00000E+00         0.00000E+00        -0.68722E+08
 
   -0.68717E+08         0.31781E+06         0.00000E+00
    0.31781E+06        -0.97571E+08         0.00000E+00
    0.00000E+00         0.00000E+00        -0.68548E+08
 
   -0.68567E+08         0.31508E+06         0.00000E+00
    0.31508E+06        -0.97569E+08         0.00000E+00
    0.00000E+00         0.00000E+00        -0.68374E+08
 
   -0.68418E+08         0.31212E+06         0.00000E+00
    0.31212E+06        -0.97566E+08         0.00000E+00
    0.00000E+00         0.00000E+00        -0.68198E+08
 
   -0.68270E+08         0.30884E+06         0.00000E+00
    0.30884E+06        -0.97564E+08         0.00000E+00
    0.00000E+00         0.00000E+00        -0.68022E+08
 
   -0.68123E+08         0.30515E+06         0.00000E+00
    0.30515E+06        -0.97562E+08         0.00000E+00
    0.00000E+00         0.00000E+00        -0.67844E+08
 
   -0.67978E+08         0.30092E+06         0.00000E+00
    0.30092E+06        -0.97561E+08         0.00000E+00
    0.00000E+00         0.00000E+00        -0.67665E+08
 
   -0.67835E+08         0.29598E+06         0.00000E+00
    0.29598E+06        -0.97560E+08         0.00000E+00
    0.00000E+00         0.00000E+00        -0.67485E+08
 
   -0.67695E+08         0.29010E+06         0.00000E+00
    0.29010E+06        -0.97559E+08         0.00000E+00
    0.00000E+00         0.00000E+00        -0.67304E+08
 
   -0.67557E+08         0.28302E+06         0.00000E+00
    0.28302E+06        -0.97559E+08         0.00000E+00
    0.00000E+00         0.00000E+00        -0.67120E+08
 
   -0.67423E+08         0.27443E+06         0.00000E+00
    0.27443E+06        -0.97560E+08         0.00000E+00
    0.00000E+00         0.00000E+00        -0.66933E+08
 
   -0.67292E+08         0.26397E+06         0.00000E+00
    0.26397E+06        -0.97561E+08         0.00000E+00
    0.00000E+00         0.00000E+00        -0.66744E+08
 
   -0.67166E+08         0.25126E+06         0.00000E+00
    0.25126E+06        -0.97563E+08         0.00000E+00
    0.00000E+00         0.00000E+00        -0.66551E+08
 
   -0.67046E+08         0.23593E+06         0.00000E+00
    0.23593E+06        -0.97565E+08         0.00000E+00
    0.00000E+00         0.00000E+00        -0.66354E+08
 
   -0.66932E+08         0.21765E+06         0.00000E+00
    0.21765E+06        -0.97569E+08         0.00000E+00
    0.00000E+00         0.00000E+00        -0.66152E+08
 
   -0.66825E+08         0.19624E+06         0.00000E+00
    0.19624E+06        -0.97573E+08         0.00000E+00
    0.00000E+00         0.00000E+00        -0.65944E+08
 
   -0.66727E+08         0.17172E+06         0.00000E+00
    0.17172E+06        -0.97577E+08         0.00000E+00
    0.00000E+00         0.00000E+00        -0.65728E+08
 
   -0.66640E+08         0.14441E+06         0.00000E+00
    0.14441E+06        -0.97581E+08         0.00000E+00
    0.00000E+00         0.00000E+00        -0.65503E+08
 
   -0.66563E+08         0.11499E+06         0.00000E+00
    0.11499E+06        -0.97585E+08         0.00000E+00
    0.00000E+00         0.00000E+00        -0.65269E+08
 
   -0.66498E+08         0.84479E+05         0.00000E+00
    0.84479E+05        -0.97589E+08         0.00000E+00
    0.00000E+00         0.00000E+00        -0.65023E+08
 
   -0.66447E+08         0.54160E+05         0.00000E+00
    0.54160E+05        -0.97592E+08         0.00000E+00
    0.00000E+00         0.00000E+00        -0.64767E+08
 
   -0.66409E+08         0.25118E+05         0.00000E+00
    0.25118E+05        -0.97595E+08         0.00000E+00
    0.00000E+00         0.00000E+00        -0.64500E+08
 
   -0.66384E+08        -0.21133E+04         0.00000E+00
   -0.21133E+04        -0.97599E+08         0.00000E+00
    0.00000E+00         0.00000E+00        -0.64224E+08
 
   -0.66366E+08        -0.23516E+05         0.00000E+00
   -0.23516E+05        -0.97604E+08         0.00000E+00
    0.00000E+00         0.00000E+00        -0.63944E+08
 
   -0.66349E+08        -0.28900E+05         0.00000E+00
   -0.28900E+05        -0.97596E+08         0.00000E+00
    0.00000E+00         0.00000E+00        -0.63653E+08
 
   -0.66336E+08        -0.13015E+05         0.00000E+00
   -0.13015E+05        -0.97550E+08         0.00000E+00
    0.00000E+00         0.00000E+00        -0.63325E+08
 
   -0.80740E+08        -0.97310E+04         0.00000E+00
   -0.97310E+04        -0.97563E+08         0.00000E+00
    0.00000E+00         0.00000E+00        -0.85162E+08
 
   -0.80751E+08        -0.19428E+05         0.00000E+00
   -0.19428E+05        -0.97563E+08         0.00000E+00
    0.00000E+00         0.00000E+00        -0.84734E+08
 
   -0.80777E+08        -0.11001E+04         0.00000E+00
   -0.11001E+04        -0.97566E+08         0.00000E+00
    0.00000E+00         0.00000E+00        -0.84348E+08
 
   -0.80800E+08         0.39388E+05         0.00000E+00
    0.39388E+05        -0.97571E+08         0.00000E+00
    0.00000E+00         0.00000E+00        -0.83968E+08
 
   -0.80799E+08         0.83108E+05         0.00000E+00
    0.83108E+05        -0.97575E+08         0.00000E+00
    0.00000E+00         0.00000E+00        -0.83590E+08
 
   -0.80766E+08         0.12019E+06         0.00000E+00
    0.12019E+06        -0.97581E+08         0.00000E+00
    0.00000E+00         0.00000E+00        -0.83220E+08
 
   -0.80704E+08         0.14807E+06         0.00000E+00
    0.14807E+06        -0.97588E+08         0.00000E+00
    0.00000E+00         0.00000E+00        -0.82862E+08
 
   -0.80621E+08         0.16794E+06         0.00000E+00
    0.16794E+06        -0.97592E+08         0.00000E+00
    0.00000E+00         0.00000E+00        -0.82519E+08
 
   -0.80522E+08         0.18349E+06         0.00000E+00
    0.18349E+06        -0.97592E+08         0.00000E+00
    0.00000E+00         0.00000E+00        -0.82195E+08
 
   -0.80410E+08         0.19859E+06         0.00000E+00
    0.19859E+06        -0.97589E+08         0.00000E+00
    0.00000E+00         0.00000E+00        -0.81887E+08
 
   -0.80286E+08         0.21558E+06         0.00000E+00
    0.21558E+06        -0.97585E+08         0.00000E+00
    0.00000E+00         0.00000E+00        -0.81594E+08
 
   -0.80151E+08         0.23489E+06         0.00000E+00
    0.23489E+06        -0.97582E+08         0.00000E+00
    0.00000E+00         0.00000E+00        -0.81315E+08
 
   -0.80007E+08         0.25570E+06         0.00000E+00
    0.25570E+06        -0.97580E+08         0.00000E+00
    0.00000E+00         0.00000E+00        -0.81047E+08
 
   -0.79853E+08         0.27674E+06         0.00000E+00
    0.27674E+06        -0.97580E+08         0.00000E+00
    0.00000E+00         0.00000E+00        -0.80787E+08
 
   -0.79691E+08         0.29688E+06         0.00000E+00
    0.29688E+06        -0.97581E+08         0.00000E+00
    0.00000E+00         0.00000E+00        -0.80535E+08
 
   -0.79522E+08         0.31536E+06         0.00000E+00
    0.31536E+06        -0.97583E+08         0.00000E+00
    0.00000E+00         0.00000E+00        -0.80288E+08
 
   -0.79347E+08         0.33183E+06         0.00000E+00
    0.33183E+06        -0.97585E+08         0.00000E+00
    0.00000E+00         0.00000E+00        -0.80045E+08
 
   -0.79166E+08         0.34621E+06         0.00000E+00
    0.34621E+06        -0.97587E+08         0.00000E+00
    0.00000E+00         0.00000E+00        -0.79804E+08
 
   -0.78980E+08         0.35861E+06         0.00000E+00
    0.35861E+06        -0.97589E+08         0.00000E+00
    0.00000E+00         0.00000E+00        -0.79564E+08
 
   -0.78791E+08         0.36915E+06         0.00000E+00
    0.36915E+06        -0.97590E+08         0.00000E+00
    0.00000E+00         0.00000E+00        -0.79325E+08
 
   -0.78598E+08         0.37781E+06         0.00000E+00
    0.37781E+06        -0.97592E+08         0.00000E+00
    0.00000E+00         0.00000E+00        -0.79085E+08
 
   -0.78404E+08         0.38402E+06         0.00000E+00
    0.38402E+06        -0.97594E+08         0.00000E+00
    0.00000E+00         0.00000E+00        -0.78845E+08
 
   -0.78209E+08         0.38631E+06         0.00000E+00
    0.38631E+06        -0.97599E+08         0.00000E+00
    0.00000E+00         0.00000E+00        -0.78603E+08
 
   -0.78013E+08         0.38341E+06         0.00000E+00
    0.38341E+06        -0.97612E+08         0.00000E+00
    0.00000E+00         0.00000E+00        -0.78359E+08
 
   -0.77814E+08         0.37533E+06         0.00000E+00
    0.37533E+06        -0.97613E+08         0.00000E+00
    0.00000E+00         0.00000E+00        -0.78140E+08
 
   -0.77614E+08         0.36780E+06         0.00000E+00
    0.36780E+06        -0.97605E+08         0.00000E+00
    0.00000E+00         0.00000E+00        -0.77940E+08
 
   -0.77415E+08         0.36385E+06         0.00000E+00
    0.36385E+06        -0.97601E+08         0.00000E+00
    0.00000E+00         0.00000E+00        -0.77738E+08
 
   -0.77218E+08         0.36269E+06         0.00000E+00
    0.36269E+06        -0.97600E+08         0.00000E+00
    0.00000E+00         0.00000E+00        -0.77535E+08
 
   -0.77022E+08         0.36312E+06         0.00000E+00
    0.36312E+06        -0.97599E+08         0.00000E+00
    0.00000E+00         0.00000E+00        -0.77330E+08
 
   -0.76826E+08         0.36450E+06         0.00000E+00
    0.36450E+06        -0.97598E+08         0.00000E+00
    0.00000E+00         0.00000E+00        -0.77124E+08
 
   -0.76630E+08         0.36645E+06         0.00000E+00
    0.36645E+06        -0.97598E+08         0.00000E+00
    0.00000E+00         0.00000E+00        -0.76916E+08
 
   -0.76434E+08         0.36871E+06         0.00000E+00
    0.36871E+06        -0.97597E+08         0.00000E+00
    0.00000E+00         0.00000E+00        -0.76707E+08
 
   -0.76237E+08         0.37110E+06         0.00000E+00
    0.37110E+06        -0.97597E+08         0.00000E+00
    0.00000E+00         0.00000E+00        -0.76495E+08
 
   -0.76041E+08         0.37343E+06         0.00000E+00
    0.37343E+06        -0.97597E+08         0.00000E+00
    0.00000E+00         0.00000E+00        -0.76282E+08
 
   -0.75844E+08         0.37545E+06         0.00000E+00
    0.37545E+06        -0.97597E+08         0.00000E+00
    0.00000E+00         0.00000E+00        -0.76068E+08
 
   -0.75648E+08         0.37650E+06         0.00000E+00
    0.37650E+06        -0.97598E+08         0.00000E+00
    0.00000E+00         0.00000E+00        -0.75852E+08
 
   -0.75453E+08         0.37571E+06         0.00000E+00
    0.37571E+06        -0.97601E+08         0.00000E+00
    0.00000E+00         0.00000E+00        -0.75634E+08
 
   -0.75258E+08         0.37374E+06         0.00000E+00
    0.37374E+06        -0.97609E+08         0.00000E+00
    0.00000E+00         0.00000E+00        -0.75416E+08
 
   -0.75062E+08         0.36663E+06         0.00000E+00
    0.36663E+06        -0.97608E+08         0.00000E+00
    0.00000E+00         0.00000E+00        -0.75215E+08
 
   -0.74867E+08         0.36065E+06         0.00000E+00
    0.36065E+06        -0.97604E+08         0.00000E+00
    0.00000E+00         0.00000E+00        -0.75022E+08
 
   -0.74674E+08         0.35674E+06         0.00000E+00
    0.35674E+06        -0.97602E+08         0.00000E+00
    0.00000E+00         0.00000E+00        -0.74829E+08
 
   -0.74482E+08         0.35453E+06         0.00000E+00
    0.35453E+06        -0.97601E+08         0.00000E+00
    0.00000E+00         0.00000E+00        -0.74635E+08
 
   -0.74293E+08         0.35331E+06         0.00000E+00
    0.35331E+06        -0.97600E+08         0.00000E+00
    0.00000E+00         0.00000E+00        -0.74440E+08
 
   -0.74105E+08         0.35261E+06         0.00000E+00
    0.35261E+06        -0.97600E+08         0.00000E+00
    0.00000E+00         0.00000E+00        -0.74245E+08
 
   -0.73918E+08         0.35197E+06         0.00000E+00
    0.35197E+06        -0.97600E+08         0.00000E+00
    0.00000E+00         0.00000E+00        -0.74049E+08
 
   -0.73733E+08         0.35075E+06         0.00000E+00
    0.35075E+06        -0.97601E+08         0.00000E+00
    0.00000E+00         0.00000E+00        -0.73853E+08
 
   -0.73549E+08         0.34830E+06         0.00000E+00
    0.34830E+06        -0.97604E+08         0.00000E+00
    0.00000E+00         0.00000E+00        -0.73656E+08
 
   -0.73366E+08         0.34493E+06         0.00000E+00
    0.34493E+06        -0.97607E+08         0.00000E+00
    0.00000E+00         0.00000E+00        -0.73463E+08
 
   -0.73183E+08         0.33928E+06         0.00000E+00
    0.33928E+06        -0.97604E+08         0.00000E+00
    0.00000E+00         0.00000E+00        -0.73280E+08
 
   -0.73002E+08         0.33559E+06         0.00000E+00
    0.33559E+06        -0.97602E+08         0.00000E+00
    0.00000E+00         0.00000E+00        -0.73100E+08
 
   -0.72822E+08         0.33331E+06         0.00000E+00
    0.33331E+06        -0.97601E+08         0.00000E+00
    0.00000E+00         0.00000E+00        -0.72919E+08
 
   -0.72645E+08         0.33174E+06         0.00000E+00
    0.33174E+06        -0.97601E+08         0.00000E+00
    0.00000E+00         0.00000E+00        -0.72737E+08
 
   -0.72468E+08         0.33050E+06         0.00000E+00
    0.33050E+06        -0.97601E+08         0.00000E+00
    0.00000E+00         0.00000E+00        -0.72556E+08
 
   -0.72293E+08         0.32926E+06         0.00000E+00
    0.32926E+06        -0.97601E+08         0.00000E+00
    0.00000E+00         0.00000E+00        -0.72375E+08
 
   -0.72119E+08         0.32763E+06         0.00000E+00
    0.32763E+06        -0.97601E+08         0.00000E+00
    0.00000E+00         0.00000E+00        -0.72193E+08
 
   -0.71947E+08         0.32519E+06         0.00000E+00
    0.32519E+06        -0.97603E+08         0.00000E+00
    0.00000E+00         0.00000E+00        -0.72011E+08
 
   -0.71775E+08         0.32202E+06         0.00000E+00
    0.32202E+06        -0.97605E+08         0.00000E+00
    0.00000E+00         0.00000E+00        -0.71832E+08
 
   -0.71604E+08         0.31871E+06         0.00000E+00
    0.31871E+06        -0.97603E+08         0.00000E+00
    0.00000E+00         0.00000E+00        -0.71659E+08
 
   -0.71435E+08         0.31624E+06         0.00000E+00
    0.31624E+06        -0.97602E+08         0.00000E+00
    0.00000E+00         0.00000E+00        -0.71486E+08
 
   -0.71266E+08         0.31441E+06         0.00000E+00
    0.31441E+06        -0.97601E+08         0.00000E+00
    0.00000E+00         0.00000E+00        -0.71312E+08
 
   -0.71099E+08         0.31291E+06         0.00000E+00
    0.31291E+06        -0.97601E+08         0.00000E+00
    0.00000E+00         0.00000E+00        -0.71139E+08
 
   -0.70932E+08         0.31153E+06         0.00000E+00
    0.31153E+06        -0.97601E+08         0.00000E+00
    0.00000E+00         0.00000E+00        -0.70965E+08
 
   -0.70767E+08         0.31019E+06         0.00000E+00
    0.31019E+06        -0.97601E+08         0.00000E+00
    0.00000E+00         0.00000E+00        -0.70791E+08
 
   -0.70602E+08         0.30885E+06         0.00000E+00
    0.30885E+06        -0.97601E+08         0.00000E+00
    0.00000E+00         0.00000E+00        -0.70617E+08
 
   -0.70438E+08         0.30747E+06         0.00000E+00
    0.30747E+06        -0.97601E+08         0.00000E+00
    0.00000E+00         0.00000E+00        -0.70443E+08
 
   -0.70275E+08         0.30603E+06         0.00000E+00
    0.30603E+06        -0.97601E+08         0.00000E+00
    0.00000E+00         0.00000E+00        -0.70269E+08
 
   -0.70114E+08         0.30453E+06         0.00000E+00
    0.30453E+06        -0.97601E+08         0.00000E+00
    0.00000E+00         0.00000E+00        -0.70095E+08
 
   -0.69955E+08         0.30292E+06         0.00000E+00
    0.30292E+06        -0.97598E+08         0.00000E+00
    0.00000E+00         0.00000E+00        -0.69924E+08
 
   -0.69798E+08         0.30122E+06         0.00000E+00
    0.30122E+06        -0.97594E+08         0.00000E+00
    0.00000E+00         0.00000E+00        -0.69753E+08
 
   -0.69642E+08         0.29946E+06         0.00000E+00
    0.29946E+06        -0.97590E+08         0.00000E+00
    0.00000E+00         0.00000E+00        -0.69581E+08
 
   -0.69486E+08         0.29763E+06         0.00000E+00
    0.29763E+06        -0.97587E+08         0.00000E+00
    0.00000E+00         0.00000E+00        -0.69410E+08
 
   -0.69332E+08         0.29572E+06         0.00000E+00
    0.29572E+06        -0.97583E+08         0.00000E+00
    0.00000E+00         0.00000E+00        -0.69237E+08
 
   -0.69178E+08         0.29374E+06         0.00000E+00
    0.29374E+06        -0.97580E+08         0.00000E+00
    0.00000E+00         0.00000E+00        -0.69065E+08
 
   -0.69025E+08         0.29167E+06         0.00000E+00
    0.29167E+06        -0.97577E+08         0.00000E+00
    0.00000E+00         0.00000E+00        -0.68892E+08
 
   -0.68872E+08         0.28949E+06         0.00000E+00
    0.28949E+06        -0.97574E+08         0.00000E+00
    0.00000E+00         0.00000E+00        -0.68718E+08
 
   -0.68721E+08         0.28718E+06         0.00000E+00
    0.28718E+06        -0.97571E+08         0.00000E+00
    0.00000E+00         0.00000E+00        -0.68543E+08
 
   -0.68571E+08         0.28470E+06         0.00000E+00
    0.28470E+06        -0.97569E+08         0.00000E+00
    0.00000E+00         0.00000E+00        -0.68368E+08
 
   -0.68422E+08         0.28202E+06         0.00000E+00
    0.28202E+06        -0.97566E+08         0.00000E+00
    0.00000E+00         0.00000E+00        -0.68193E+08
 
   -0.68274E+08         0.27906E+06         0.00000E+00
    0.27906E+06        -0.97564E+08         0.00000E+00
    0.00000E+00         0.00000E+00        -0.68016E+08
 
   -0.68128E+08         0.27573E+06         0.00000E+00
    0.27573E+06        -0.97562E+08         0.00000E+00
    0.00000E+00         0.00000E+00        -0.67838E+08
 
   -0.67984E+08         0.27190E+06         0.00000E+00
    0.27190E+06        -0.97561E+08         0.00000E+00
    0.00000E+00         0.00000E+00        -0.67659E+08
 
   -0.67841E+08         0.26742E+06         0.00000E+00
    0.26742E+06        -0.97559E+08         0.00000E+00
    0.00000E+00         0.00000E+00        -0.67478E+08
 
   -0.67701E+08         0.26209E+06         0.00000E+00
    0.26209E+06        -0.97558E+08         0.00000E+00
    0.00000E+00         0.00000E+00        -0.67296E+08
 
   -0.67564E+08         0.25566E+06         0.00000E+00
    0.25566E+06        -0.97558E+08         0.00000E+00
    0.00000E+00         0.00000E+00        -0.67111E+08
 
   -0.67430E+08         0.24783E+06         0.00000E+00
    0.24783E+06        -0.97558E+08         0.00000E+00
    0.00000E+00         0.00000E+00        -0.66925E+08
 
   -0.67300E+08         0.23828E+06         0.00000E+00
    0.23828E+06        -0.97559E+08         0.00000E+00
    0.00000E+00         0.00000E+00        -0.66734E+08
 
   -0.67175E+08         0.22664E+06         0.00000E+00
    0.22664E+06        -0.97561E+08         0.00000E+00
    0.00000E+00         0.00000E+00        -0.66541E+08
 
   -0.67055E+08         0.21258E+06         0.00000E+00
    0.21258E+06        -0.97563E+08         0.00000E+00
    0.00000E+00         0.00000E+00        -0.66343E+08
 
   -0.66942E+08         0.19579E+06         0.00000E+00
    0.19579E+06        -0.97566E+08         0.00000E+00
    0.00000E+00         0.00000E+00        -0.66139E+08
 
   -0.66837E+08         0.17612E+06         0.00000E+00
    0.17612E+06        -0.97569E+08         0.00000E+00
    0.00000E+00         0.00000E+00        -0.65929E+08
 
   -0.66740E+08         0.15361E+06         0.00000E+00
    0.15361E+06        -0.97573E+08         0.00000E+00
    0.00000E+00         0.00000E+00        -0.65711E+08
 
   -0.66654E+08         0.12859E+06         0.00000E+00
    0.12859E+06        -0.97576E+08         0.00000E+00
    0.00000E+00         0.00000E+00        -0.65484E+08
 
   -0.66580E+08         0.10173E+06         0.00000E+00
    0.10173E+06        -0.97580E+08         0.00000E+00
    0.00000E+00         0.00000E+00        -0.65248E+08
 
   -0.66518E+08         0.73978E+05         0.00000E+00
    0.73978E+05        -0.97584E+08         0.00000E+00
    0.00000E+00         0.00000E+00        -0.65000E+08
 
   -0.66470E+08         0.46492E+05         0.00000E+00
    0.46492E+05        -0.97587E+08         0.00000E+00
    0.00000E+00         0.00000E+00        -0.64741E+08
 
   -0.66435E+08         0.20359E+05         0.00000E+00
    0.20359E+05        -0.97590E+08         0.00000E+00
    0.00000E+00         0.00000E+00        -0.64472E+08
 
   -0.66413E+08        -0.45066E+04         0.00000E+00
   -0.45066E+04        -0.97594E+08         0.00000E+00
    0.00000E+00         0.00000E+00        -0.64194E+08
 
   -0.66399E+08        -0.25505E+05         0.00000E+00
   -0.25505E+05        -0.97601E+08         0.00000E+00
    0.00000E+00         0.00000E+00        -0.63913E+08
 
   -0.66385E+08        -0.31560E+05         0.00000E+00
   -0.31560E+05        -0.97597E+08         0.00000E+00
    0.00000E+00         0.00000E+00        -0.63624E+08
 
   -0.66373E+08        -0.14461E+05         0.00000E+00
   -0.14461E+05        -0.97556E+08         0.00000E+00
    0.00000E+00         0.00000E+00        -0.63300E+08
 
   -0.80705E+08        -0.86424E+04         0.00000E+00
   -0.86424E+04        -0.97558E+08         0.00000E+00
    0.00000E+00         0.00000E+00        -0.85190E+08
 
   -0.80720E+08        -0.15493E+05         0.00000E+00
   -0.15493E+05        -0.97564E+08         0.00000E+00
    0.00000E+00         0.00000E+00        -0.84771E+08
 
   -0.80751E+08         0.50655E+04         0.00000E+00
    0.50655E+04        -0.97573E+08         0.00000E+00
    0.00000E+00         0.00000E+00        -0.84389E+08
 
   -0.80777E+08         0.42628E+05         0.00000E+00
    0.42628E+05        -0.97580E+08         0.00000E+00
    0.00000E+00         0.00000E+00        -0.84008E+08
 
   -0.80776E+08         0.79742E+05         0.00000E+00
    0.79742E+05        -0.97583E+08         0.00000E+00
    0.00000E+00         0.00000E+00        -0.83625E+08
 
   -0.80742E+08         0.11045E+06         0.00000E+00
    0.11045E+06        -0.97587E+08         0.00000E+00
    0.00000E+00         0.00000E+00        -0.83249E+08
 
   -0.80680E+08         0.13340E+06         0.00000E+00
    0.13340E+06        -0.97592E+08         0.00000E+00
    0.00000E+00         0.00000E+00        -0.82885E+08
 
   -0.80597E+08         0.14961E+06         0.00000E+00
    0.14961E+06        -0.97595E+08         0.00000E+00
    0.00000E+00         0.00000E+00        -0.82537E+08
 
   -0.80499E+08         0.16234E+06         0.00000E+00
    0.16234E+06        -0.97595E+08         0.00000E+00
    0.00000E+00         0.00000E+00        -0.82207E+08
 
   -0.80388E+08         0.17507E+06         0.00000E+00
    0.17507E+06        -0.97592E+08         0.00000E+00
    0.00000E+00         0.00000E+00        -0.81895E+08
 
   -0.80265E+08         0.18987E+06         0.00000E+00
    0.18987E+06        -0.97589E+08         0.00000E+00
    0.00000E+00         0.00000E+00        -0.81598E+08
 
   -0.80133E+08         0.20713E+06         0.00000E+00
    0.20713E+06        -0.97586E+08         0.00000E+00
    0.00000E+00         0.00000E+00        -0.81315E+08
 
   -0.79990E+08         0.22603E+06         0.00000E+00
    0.22603E+06        -0.97584E+08         0.00000E+00
    0.00000E+00         0.00000E+00        -0.81044E+08
 
   -0.79838E+08         0.24532E+06         0.00000E+00
    0.24532E+06        -0.97584E+08         0.00000E+00
    0.00000E+00         0.00000E+00        -0.80783E+08
 
   -0.79678E+08         0.26388E+06         0.00000E+00
    0.26388E+06        -0.97584E+08         0.00000E+00
    0.00000E+00         0.00000E+00        -0.80529E+08
 
   -0.79510E+08         0.28096E+06         0.00000E+00
    0.28096E+06        -0.97586E+08         0.00000E+00
    0.00000E+00         0.00000E+00        -0.80281E+08
 
   -0.79335E+08         0.29619E+06         0.00000E+00
    0.29619E+06        -0.97588E+08         0.00000E+00
    0.00000E+00         0.00000E+00        -0.80037E+08
 
   -0.79155E+08         0.30950E+06         0.00000E+00
    0.30950E+06        -0.97589E+08         0.00000E+00
    0.00000E+00         0.00000E+00        -0.79795E+08
 
   -0.78969E+08         0.32100E+06         0.00000E+00
    0.32100E+06        -0.97591E+08         0.00000E+00
    0.00000E+00         0.00000E+00        -0.79555E+08
 
   -0.78779E+08         0.33083E+06         0.00000E+00
    0.33083E+06        -0.97592E+08         0.00000E+00
    0.00000E+00         0.00000E+00        -0.79315E+08
 
   -0.78585E+08         0.33900E+06         0.00000E+00
    0.33900E+06        -0.97593E+08         0.00000E+00
    0.00000E+00         0.00000E+00        -0.79076E+08
 
   -0.78390E+08         0.34503E+06         0.00000E+00
    0.34503E+06        -0.97595E+08         0.00000E+00
    0.00000E+00         0.00000E+00        -0.78835E+08
 
   -0.78195E+08         0.34729E+06         0.00000E+00
    0.34729E+06        -0.97599E+08         0.00000E+00
    0.00000E+00         0.00000E+00        -0.78593E+08
 
   -0.77998E+08         0.34399E+06         0.00000E+00
    0.34399E+06        -0.97611E+08         0.00000E+00
    0.00000E+00         0.00000E+00        -0.78350E+08
 
   -0.77799E+08         0.33525E+06         0.00000E+00
    0.33525E+06        -0.97611E+08         0.00000E+00
    0.00000E+00         0.00000E+00        -0.78131E+08
 
   -0.77599E+08         0.32781E+06         0.00000E+00
    0.32781E+06        -0.97603E+08         0.00000E+00
    0.00000E+00         0.00000E+00        -0.77931E+08
 
   -0.77401E+08         0.32431E+06         0.00000E+00
    0.32431E+06        -0.97601E+08         0.00000E+00
    0.00000E+00         0.00000E+00        -0.77730E+08
 
   -0.77205E+08         0.32347E+06         0.00000E+00
    0.32347E+06        -0.97600E+08         0.00000E+00
    0.00000E+00         0.00000E+00        -0.77527E+08
 
   -0.77009E+08         0.32401E+06         0.00000E+00
    0.32401E+06        -0.97599E+08         0.00000E+00
    0.00000E+00         0.00000E+00        -0.77323E+08
 
   -0.76814E+08         0.32540E+06         0.00000E+00
    0.32540E+06        -0.97598E+08         0.00000E+00
    0.00000E+00         0.00000E+00        -0.77117E+08
 
   -0.76619E+08         0.32730E+06         0.00000E+00
    0.32730E+06        -0.97598E+08         0.00000E+00
    0.00000E+00         0.00000E+00        -0.76910E+08
 
   -0.76423E+08         0.32949E+06         0.00000E+00
    0.32949E+06        -0.97598E+08         0.00000E+00
    0.00000E+00         0.00000E+00        -0.76700E+08
 
   -0.76227E+08         0.33181E+06         0.00000E+00
    0.33181E+06        -0.97598E+08         0.00000E+00
    0.00000E+00         0.00000E+00        -0.76489E+08
 
   -0.76031E+08         0.33411E+06         0.00000E+00
    0.33411E+06        -0.97598E+08         0.00000E+00
    0.00000E+00         0.00000E+00        -0.76276E+08
 
   -0.75834E+08         0.33618E+06         0.00000E+00
    0.33618E+06        -0.97598E+08         0.00000E+00
    0.00000E+00         0.00000E+00        -0.76062E+08
 
   -0.75638E+08         0.33741E+06         0.00000E+00
    0.33741E+06        -0.97598E+08         0.00000E+00
    0.00000E+00         0.00000E+00        -0.75846E+08
 
   -0.75443E+08         0.33680E+06         0.00000E+00
    0.33680E+06        -0.97601E+08         0.00000E+00
    0.00000E+00         0.00000E+00        -0.75629E+08
 
   -0.75248E+08         0.33468E+06         0.00000E+00
    0.33468E+06        -0.97608E+08         0.00000E+00
    0.00000E+00         0.00000E+00        -0.75412E+08
 
   -0.75052E+08         0.32737E+06         0.00000E+00
    0.32737E+06        -0.97607E+08         0.00000E+00
    0.00000E+00         0.00000E+00        -0.75212E+08
 
   -0.74857E+08         0.32181E+06         0.00000E+00
    0.32181E+06        -0.97603E+08         0.00000E+00
    0.00000E+00         0.00000E+00        -0.75019E+08
 
   -0.74665E+08         0.31839E+06         0.00000E+00
    0.31839E+06        -0.97602E+08         0.00000E+00
    0.00000E+00         0.00000E+00        -0.74826E+08
 
   -0.74474E+08         0.31655E+06         0.00000E+00
    0.31655E+06        -0.97601E+08         0.00000E+00
    0.00000E+00         0.00000E+00        -0.74632E+08
 
   -0.74286E+08         0.31561E+06         0.00000E+00
    0.31561E+06        -0.97600E+08         0.00000E+00
    0.00000E+00         0.00000E+00        -0.74438E+08
 
   -0.74098E+08         0.31517E+06         0.00000E+00
    0.31517E+06        -0.97600E+08         0.00000E+00
    0.00000E+00         0.00000E+00        -0.74243E+08
 
   -0.73912E+08         0.31482E+06         0.00000E+00
    0.31482E+06        -0.97600E+08         0.00000E+00
    0.00000E+00         0.00000E+00        -0.74047E+08
 
   -0.73727E+08         0.31392E+06         0.00000E+00
    0.31392E+06        -0.97600E+08         0.00000E+00
    0.00000E+00         0.00000E+00        -0.73851E+08
 
   -0.73543E+08         0.31167E+06         0.00000E+00
    0.31167E+06        -0.97603E+08         0.00000E+00
    0.00000E+00         0.00000E+00        -0.73654E+08
 
   -0.73360E+08         0.30830E+06         0.00000E+00
    0.30830E+06        -0.97606E+08         0.00000E+00
    0.00000E+00         0.00000E+00        -0.73462E+08
 
   -0.73178E+08         0.30287E+06         0.00000E+00
    0.30287E+06        -0.97604E+08         0.00000E+00
    0.00000E+00         0.00000E+00        -0.73279E+08
 
   -0.72997E+08         0.29956E+06         0.00000E+00
    0.29956E+06        -0.97602E+08         0.00000E+00
    0.00000E+00         0.00000E+00        -0.73098E+08
 
   -0.72818E+08         0.29764E+06         0.00000E+00
    0.29764E+06        -0.97601E+08         0.00000E+00
    0.00000E+00         0.00000E+00        -0.72917E+08
 
   -0.72641E+08         0.29637E+06         0.00000E+00
    0.29637E+06        -0.97601E+08         0.00000E+00
    0.00000E+00         0.00000E+00        -0.72736E+08
 
   -0.72465E+08         0.29539E+06         0.00000E+00
    0.29539E+06        -0.97600E+08         0.00000E+00
    0.00000E+00         0.00000E+00        -0.72555E+08
 
   -0.72290E+08         0.29442E+06         0.00000E+00
    0.29442E+06        -0.97600E+08         0.00000E+00
    0.00000E+00         0.00000E+00        -0.72373E+08
 
   -0.72117E+08         0.29306E+06         0.00000E+00
    0.29306E+06        -0.97601E+08         0.00000E+00
    0.00000E+00         0.00000E+00        -0.72192E+08
 
   -0.71944E+08         0.29083E+06         0.00000E+00
    0.29083E+06        -0.97603E+08         0.00000E+00
    0.00000E+00         0.00000E+00        -0.72010E+08
 
   -0.71773E+08         0.28777E+06         0.00000E+00
    0.28777E+06        -0.97604E+08         0.00000E+00
    0.00000E+00         0.00000E+00        -0.71831E+08
 
   -0.71603E+08         0.28467E+06         0.00000E+00
    0.28467E+06        -0.97602E+08         0.00000E+00
    0.00000E+00         0.00000E+00        -0.71657E+08
 
   -0.71433E+08         0.28245E+06         0.00000E+00
    0.28245E+06        -0.97601E+08         0.00000E+00
    0.00000E+00         0.00000E+00        -0.71484E+08
 
   -0.71265E+08         0.28088E+06         0.00000E+00
    0.28088E+06        -0.97601E+08         0.00000E+00
    0.00000E+00         0.00000E+00        -0.71311E+08
 
   -0.71098E+08         0.27958E+06         0.00000E+00
    0.27958E+06        -0.97601E+08         0.00000E+00
    0.00000E+00         0.00000E+00        -0.71137E+08
 
   -0.70932E+08         0.27839E+06         0.00000E+00
    0.27839E+06        -0.97601E+08         0.00000E+00
    0.00000E+00         0.00000E+00        -0.70963E+08
 
   -0.70767E+08         0.27722E+06         0.00000E+00
    0.27722E+06        -0.97601E+08         0.00000E+00
    0.00000E+00         0.00000E+00        -0.70790E+08
 
   -0.70603E+08         0.27603E+06         0.00000E+00
    0.27603E+06        -0.97601E+08         0.00000E+00
    0.00000E+00         0.00000E+00        -0.70615E+08
 
   -0.70439E+08         0.27481E+06         0.00000E+00
    0.27481E+06        -0.97601E+08         0.00000E+00
    0.00000E+00         0.00000E+00        -0.70441E+08
 
   -0.70277E+08         0.27353E+06         0.00000E+00
    0.27353E+06        -0.97601E+08         0.00000E+00
    0.00000E+00         0.00000E+00        -0.70267E+08
 
   -0.70115E+08         0.27220E+06         0.00000E+00
    0.27220E+06        -0.97601E+08         0.00000E+00
    0.00000E+00         0.00000E+00        -0.70093E+08
 
   -0.69957E+08         0.27075E+06         0.00000E+00
    0.27075E+06        -0.97598E+08         0.00000E+00
    0.00000E+00         0.00000E+00        -0.69921E+08
 
   -0.69800E+08         0.26923E+06         0.00000E+00
    0.26923E+06        -0.97594E+08         0.00000E+00
    0.00000E+00         0.00000E+00        -0.69750E+08
 
   -0.69644E+08         0.26764E+06         0.00000E+00
    0.26764E+06        -0.97590E+08         0.00000E+00
    0.00000E+00         0.00000E+00        -0.69578E+08
 
   -0.69489E+08         0.26600E+06         0.00000E+00
    0.26600E+06        -0.97587E+08         0.00000E+00
    0.00000E+00         0.00000E+00        -0.69406E+08
 
   -0.69334E+08         0.26428E+06         0.00000E+00
    0.26428E+06        -0.97583E+08         0.00000E+00
    0.00000E+00         0.00000E+00        -0.69234E+08
 
   -0.69181E+08         0.26250E+06         0.00000E+00
    0.26250E+06        -0.97580E+08         0.00000E+00
    0.00000E+00         0.00000E+00        -0.69061E+08
 
   -0.69028E+08         0.26064E+06         0.00000E+00
    0.26064E+06        -0.97577E+08         0.00000E+00
    0.00000E+00         0.00000E+00        -0.68887E+08
 
   -0.68876E+08         0.25868E+06         0.00000E+00
    0.25868E+06        -0.97574E+08         0.00000E+00
    0.00000E+00         0.00000E+00        -0.68713E+08
 
   -0.68725E+08         0.25661E+06         0.00000E+00
    0.25661E+06        -0.97571E+08         0.00000E+00
    0.00000E+00         0.00000E+00        -0.68538E+08
 
   -0.68575E+08         0.25440E+06         0.00000E+00
    0.25440E+06        -0.97569E+08         0.00000E+00
    0.00000E+00         0.00000E+00        -0.68363E+08
 
   -0.68427E+08         0.25200E+06         0.00000E+00
    0.25200E+06        -0.97566E+08         0.00000E+00
    0.00000E+00         0.00000E+00        -0.68187E+08
 
   -0.68279E+08         0.24935E+06         0.00000E+00
    0.24935E+06        -0.97564E+08         0.00000E+00
    0.00000E+00         0.00000E+00        -0.68010E+08
 
   -0.68134E+08         0.24637E+06         0.00000E+00
    0.24637E+06        -0.97562E+08         0.00000E+00
    0.00000E+00         0.00000E+00        -0.67832E+08
 
   -0.67989E+08         0.24295E+06         0.00000E+00
    0.24295E+06        -0.97560E+08         0.00000E+00
    0.00000E+00         0.00000E+00        -0.67652E+08
 
   -0.67847E+08         0.23894E+06         0.00000E+00
    0.23894E+06        -0.97559E+08         0.00000E+00
    0.00000E+00         0.00000E+00        -0.67471E+08
 
   -0.67708E+08         0.23416E+06         0.00000E+00
    0.23416E+06        -0.97558E+08         0.00000E+00
    0.00000E+00         0.00000E+00        -0.67288E+08
 
   -0.67571E+08         0.22838E+06         0.00000E+00
    0.22838E+06        -0.97557E+08         0.00000E+00
    0.00000E+00         0.00000E+00        -0.67103E+08
 
   -0.67437E+08         0.22132E+06         0.00000E+00
    0.22132E+06        -0.97557E+08         0.00000E+00
    0.00000E+00         0.00000E+00        -0.66916E+08
 
   -0.67308E+08         0.21269E+06         0.00000E+00
    0.21269E+06        -0.97558E+08         0.00000E+00
    0.00000E+00         0.00000E+00        -0.66725E+08
 
   -0.67183E+08         0.20216E+06         0.00000E+00
    0.20216E+06        -0.97559E+08         0.00000E+00
    0.00000E+00         0.00000E+00        -0.66530E+08
 
   -0.67064E+08         0.18940E+06         0.00000E+00
    0.18940E+06        -0.97560E+08         0.00000E+00
    0.00000E+00         0.00000E+00        -0.66331E+08
 
   -0.66952E+08         0.17416E+06         0.00000E+00
    0.17416E+06        -0.97563E+08         0.00000E+00
    0.00000E+00         0.00000E+00        -0.66126E+08
 
   -0.66848E+08         0.15629E+06         0.00000E+00
    0.15629E+06        -0.97566E+08         0.00000E+00
    0.00000E+00         0.00000E+00        -0.65914E+08
 
   -0.66753E+08         0.13586E+06         0.00000E+00
    0.13586E+06        -0.97569E+08         0.00000E+00
    0.00000E+00         0.00000E+00        -0.65695E+08
 
   -0.66669E+08         0.11319E+06         0.00000E+00
    0.11319E+06        -0.97572E+08         0.00000E+00
    0.00000E+00         0.00000E+00        -0.65466E+08
 
   -0.66597E+08         0.88948E+05         0.00000E+00
    0.88948E+05        -0.97576E+08         0.00000E+00
    0.00000E+00         0.00000E+00        -0.65227E+08
 
   -0.66538E+08         0.64000E+05         0.00000E+00
    0.64000E+05        -0.97579E+08         0.00000E+00
    0.00000E+00         0.00000E+00        -0.64977E+08
 
   -0.66492E+08         0.39344E+05         0.00000E+00
    0.39344E+05        -0.97582E+08         0.00000E+00
    0.00000E+00         0.00000E+00        -0.64716E+08
 
   -0.66460E+08         0.16110E+05         0.00000E+00
    0.16110E+05        -0.97585E+08         0.00000E+00
    0.00000E+00         0.00000E+00        -0.64445E+08
 
   -0.66441E+08        -0.60991E+04         0.00000E+00
   -0.60991E+04        -0.97590E+08         0.00000E+00
    0.00000E+00         0.00000E+00        -0.64165E+08
 
   -0.66432E+08        -0.26532E+05         0.00000E+00
   -0.26532E+05        -0.97597E+08         0.00000E+00
    0.00000E+00         0.00000E+00        -0.63882E+08
 
   -0.66422E+08        -0.33774E+05         0.00000E+00
   -0.33774E+05        -0.97599E+08         0.00000E+00
    0.00000E+00         0.00000E+00        -0.63595E+08
 
   -0.66411E+08        -0.15894E+05         0.00000E+00
   -0.15894E+05        -0.97562E+08         0.00000E+00
    0.00000E+00         0.00000E+00        -0.63275E+08
 
   -0.80676E+08        -0.74016E+04         0.00000E+00
   -0.74016E+04        -0.97553E+08         0.00000E+00
    0.00000E+00         0.00000E+00        -0.85218E+08
 
   -0.80694E+08        -0.10686E+05         0.00000E+00
   -0.10686E+05        -0.97565E+08         0.00000E+00
    0.00000E+00         0.00000E+00        -0.84810E+08
 
   -0.80730E+08         0.12293E+05         0.00000E+00
    0.12293E+05        -0.97580E+08         0.00000E+00
    0.00000E+00         0.00000E+00        -0.84431E+08
 
   -0.80758E+08         0.45972E+05         0.00000E+00
    0.45972E+05        -0.97587E+08         0.00000E+00
    0.00000E+00         0.00000E+00        -0.84047E+08
 
   -0.80754E+08         0.75981E+05         0.00000E+00
    0.75981E+05        -0.97589E+08         0.00000E+00
    0.00000E+00         0.00000E+00        -0.83659E+08
 
   -0.80718E+08         0.10042E+06         0.00000E+00
    0.10042E+06        -0.97592E+08         0.00000E+00
    0.00000E+00         0.00000E+00        -0.83277E+08
 
   -0.80654E+08         0.11863E+06         0.00000E+00
    0.11863E+06        -0.97596E+08         0.00000E+00
    0.00000E+00         0.00000E+00        -0.82907E+08
 
   -0.80571E+08         0.13135E+06         0.00000E+00
    0.13135E+06        -0.97598E+08         0.00000E+00
    0.00000E+00         0.00000E+00        -0.82553E+08
 
   -0.80473E+08         0.14141E+06         0.00000E+00
    0.14141E+06        -0.97597E+08         0.00000E+00
    0.00000E+00         0.00000E+00        -0.82218E+08
 
   -0.80364E+08         0.15188E+06         0.00000E+00
    0.15188E+06        -0.97595E+08         0.00000E+00
    0.00000E+00         0.00000E+00        -0.81901E+08
 
   -0.80243E+08         0.16458E+06         0.00000E+00
    0.16458E+06        -0.97592E+08         0.00000E+00
    0.00000E+00         0.00000E+00        -0.81600E+08
 
   -0.80113E+08         0.17982E+06         0.00000E+00
    0.17982E+06        -0.97589E+08         0.00000E+00
    0.00000E+00         0.00000E+00        -0.81314E+08
 
   -0.79973E+08         0.19677E+06         0.00000E+00
    0.19677E+06        -0.97588E+08         0.00000E+00
    0.00000E+00         0.00000E+00        -0.81041E+08
 
   -0.79823E+08         0.21425E+06         0.00000E+00
    0.21425E+06        -0.97587E+08         0.00000E+00
    0.00000E+00         0.00000E+00        -0.80778E+08
 
   -0.79665E+08         0.23115E+06         0.00000E+00
    0.23115E+06        -0.97588E+08         0.00000E+00
    0.00000E+00         0.00000E+00        -0.80522E+08
 
   -0.79498E+08         0.24673E+06         0.00000E+00
    0.24673E+06        -0.97589E+08         0.00000E+00
    0.00000E+00         0.00000E+00        -0.80273E+08
 
   -0.79324E+08         0.26064E+06         0.00000E+00
    0.26064E+06        -0.97590E+08         0.00000E+00
    0.00000E+00         0.00000E+00        -0.80028E+08
 
   -0.79144E+08         0.27281E+06         0.00000E+00
    0.27281E+06        -0.97592E+08         0.00000E+00
    0.00000E+00         0.00000E+00        -0.79786E+08
 
   -0.78958E+08         0.28334E+06         0.00000E+00
    0.28334E+06        -0.97593E+08         0.00000E+00
    0.00000E+00         0.00000E+00        -0.79546E+08
 
   -0.78767E+08         0.29239E+06         0.00000E+00
    0.29239E+06        -0.97594E+08         0.00000E+00
    0.00000E+00         0.00000E+00        -0.79306E+08
 
   -0.78573E+08         0.30000E+06         0.00000E+00
    0.30000E+06        -0.97595E+08         0.00000E+00
    0.00000E+00         0.00000E+00        -0.79066E+08
 
   -0.78377E+08         0.30581E+06         0.00000E+00
    0.30581E+06        -0.97596E+08         0.00000E+00
    0.00000E+00         0.00000E+00        -0.78826E+08
 
   -0.78180E+08         0.30814E+06         0.00000E+00
    0.30814E+06        -0.97599E+08         0.00000E+00
    0.00000E+00         0.00000E+00        -0.78584E+08
 
   -0.77983E+08         0.30450E+06         0.00000E+00
    0.30450E+06        -0.97610E+08         0.00000E+00
    0.00000E+00         0.00000E+00        -0.78342E+08
 
   -0.77784E+08         0.29516E+06         0.00000E+00
    0.29516E+06        -0.97610E+08         0.00000E+00
    0.00000E+00         0.00000E+00        -0.78123E+08
 
   -0.77584E+08         0.28792E+06         0.00000E+00
    0.28792E+06        -0.97602E+08         0.00000E+00
    0.00000E+00         0.00000E+00        -0.77923E+08
 
   -0.77387E+08         0.28497E+06         0.00000E+00
    0.28497E+06        -0.97601E+08         0.00000E+00
    0.00000E+00         0.00000E+00        -0.77722E+08
 
   -0.77191E+08         0.28444E+06         0.00000E+00
    0.28444E+06        -0.97600E+08         0.00000E+00
    0.00000E+00         0.00000E+00        -0.77520E+08
 
   -0.76997E+08         0.28508E+06         0.00000E+00
    0.28508E+06        -0.97599E+08         0.00000E+00
    0.00000E+00         0.00000E+00        -0.77316E+08
 
   -0.76803E+08         0.28645E+06         0.00000E+00
    0.28645E+06        -0.97599E+08         0.00000E+00
    0.00000E+00         0.00000E+00        -0.77110E+08
 
   -0.76608E+08         0.28828E+06         0.00000E+00
    0.28828E+06        -0.97598E+08         0.00000E+00
    0.00000E+00         0.00000E+00        -0.76903E+08
 
   -0.76413E+08         0.29036E+06         0.00000E+00
    0.29036E+06        -0.97598E+08         0.00000E+00
    0.00000E+00         0.00000E+00        -0.76694E+08
 
   -0.76218E+08         0.29257E+06         0.00000E+00
    0.29257E+06        -0.97598E+08         0.00000E+00
    0.00000E+00         0.00000E+00        -0.76483E+08
 
   -0.76021E+08         0.29480E+06         0.00000E+00
    0.29480E+06        -0.97598E+08         0.00000E+00
    0.00000E+00         0.00000E+00        -0.76271E+08
 
   -0.75825E+08         0.29689E+06         0.00000E+00
    0.29689E+06        -0.97598E+08         0.00000E+00
    0.00000E+00         0.00000E+00        -0.76057E+08
 
   -0.75629E+08         0.29831E+06         0.00000E+00
    0.29831E+06        -0.97598E+08         0.00000E+00
    0.00000E+00         0.00000E+00        -0.75841E+08
 
   -0.75433E+08         0.29790E+06         0.00000E+00
    0.29790E+06        -0.97600E+08         0.00000E+00
    0.00000E+00         0.00000E+00        -0.75624E+08
 
   -0.75238E+08         0.29560E+06         0.00000E+00
    0.29560E+06        -0.97607E+08         0.00000E+00
    0.00000E+00         0.00000E+00        -0.75408E+08
 
   -0.75043E+08         0.28819E+06         0.00000E+00
    0.28819E+06        -0.97606E+08         0.00000E+00
    0.00000E+00         0.00000E+00        -0.75208E+08
 
   -0.74848E+08         0.28308E+06         0.00000E+00
    0.28308E+06        -0.97602E+08         0.00000E+00
    0.00000E+00         0.00000E+00        -0.75016E+08
 
   -0.74656E+08         0.28018E+06         0.00000E+00
    0.28018E+06        -0.97601E+08         0.00000E+00
    0.00000E+00         0.00000E+00        -0.74823E+08
 
   -0.74467E+08         0.27870E+06         0.00000E+00
    0.27870E+06        -0.97601E+08         0.00000E+00
    0.00000E+00         0.00000E+00        -0.74630E+08
 
   -0.74278E+08         0.27802E+06         0.00000E+00
    0.27802E+06        -0.97600E+08         0.00000E+00
    0.00000E+00         0.00000E+00        -0.74435E+08
 
   -0.74091E+08         0.27781E+06         0.00000E+00
    0.27781E+06        -0.97600E+08         0.00000E+00
    0.00000E+00         0.00000E+00        -0.74240E+08
 
   -0.73905E+08         0.27772E+06         0.00000E+00
    0.27772E+06        -0.97600E+08         0.00000E+00
    0.00000E+00         0.00000E+00        -0.74045E+08
 
   -0.73720E+08         0.27715E+06         0.00000E+00
    0.27715E+06        -0.97600E+08         0.00000E+00
    0.00000E+00         0.00000E+00        -0.73849E+08
 
   -0.73537E+08         0.27510E+06         0.00000E+00
    0.27510E+06        -0.97602E+08         0.00000E+00
    0.00000E+00         0.00000E+00        -0.73652E+08
 
   -0.73354E+08         0.27171E+06         0.00000E+00
    0.27171E+06        -0.97605E+08         0.00000E+00
    0.00000E+00         0.00000E+00        -0.73460E+08
 
   -0.73172E+08         0.26655E+06         0.00000E+00
    0.26655E+06        -0.97603E+08         0.00000E+00
    0.00000E+00         0.00000E+00        -0.73278E+08
 
   -0.72992E+08         0.26366E+06         0.00000E+00
    0.26366E+06        -0.97601E+08         0.00000E+00
    0.00000E+00         0.00000E+00        -0.73097E+08
 
   -0.72814E+08         0.26208E+06         0.00000E+00
    0.26208E+06        -0.97601E+08         0.00000E+00
    0.00000E+00         0.00000E+00        -0.72916E+08
 
   -0.72637E+08         0.26109E+06         0.00000E+00
    0.26109E+06        -0.97600E+08         0.00000E+00
    0.00000E+00         0.00000E+00        -0.72735E+08
 
   -0.72462E+08         0.26036E+06         0.00000E+00
    0.26036E+06        -0.97600E+08         0.00000E+00
    0.00000E+00         0.00000E+00        -0.72554E+08
 
   -0.72287E+08         0.25963E+06         0.00000E+00
    0.25963E+06        -0.97600E+08         0.00000E+00
    0.00000E+00         0.00000E+00        -0.72372E+08
 
   -0.72114E+08         0.25854E+06         0.00000E+00
    0.25854E+06        -0.97601E+08         0.00000E+00
    0.00000E+00         0.00000E+00        -0.72191E+08
 
   -0.71942E+08         0.25654E+06         0.00000E+00
    0.25654E+06        -0.97602E+08         0.00000E+00
    0.00000E+00         0.00000E+00        -0.72009E+08
 
   -0.71771E+08         0.25358E+06         0.00000E+00
    0.25358E+06        -0.97603E+08         0.00000E+00
    0.00000E+00         0.00000E+00        -0.71830E+08
 
   -0.71601E+08         0.25070E+06         0.00000E+00
    0.25070E+06        -0.97602E+08         0.00000E+00
    0.00000E+00         0.00000E+00        -0.71656E+08
 
   -0.71432E+08         0.24876E+06         0.00000E+00
    0.24876E+06        -0.97601E+08         0.00000E+00
    0.00000E+00         0.00000E+00        -0.71483E+08
 
   -0.71264E+08         0.24743E+06         0.00000E+00
    0.24743E+06        -0.97601E+08         0.00000E+00
    0.00000E+00         0.00000E+00        -0.71309E+08
 
   -0.71098E+08         0.24633E+06         0.00000E+00
    0.24633E+06        -0.97601E+08         0.00000E+00
    0.00000E+00         0.00000E+00        -0.71136E+08
 
   -0.70932E+08         0.24532E+06         0.00000E+00
    0.24532E+06        -0.97601E+08         0.00000E+00
    0.00000E+00         0.00000E+00        -0.70962E+08
 
   -0.70768E+08         0.24432E+06         0.00000E+00
    0.24432E+06        -0.97601E+08         0.00000E+00
    0.00000E+00         0.00000E+00        -0.70788E+08
 
   -0.70604E+08         0.24329E+06         0.00000E+00
    0.24329E+06        -0.97601E+08         0.00000E+00
    0.00000E+00         0.00000E+00        -0.70614E+08
 
   -0.70440E+08         0.24222E+06         0.00000E+00
    0.24222E+06        -0.97601E+08         0.00000E+00
    0.00000E+00         0.00000E+00        -0.70439E+08
 
   -0.70278E+08         0.24110E+06         0.00000E+00
    0.24110E+06        -0.97601E+08         0.00000E+00
    0.00000E+00         0.00000E+00        -0.70265E+08
 
   -0.70117E+08         0.23992E+06         0.00000E+00
    0.23992E+06        -0.97601E+08         0.00000E+00
    0.00000E+00         0.00000E+00        -0.70090E+08
 
   -0.69958E+08         0.23865E+06         0.00000E+00
    0.23865E+06        -0.97598E+08         0.00000E+00
    0.00000E+00         0.00000E+00        -0.69918E+08
 
   -0.69802E+08         0.23730E+06         0.00000E+00
    0.23730E+06        -0.97594E+08         0.00000E+00
    0.00000E+00         0.00000E+00        -0.69747E+08
 
   -0.69646E+08         0.23589E+06         0.00000E+00
    0.23589E+06        -0.97591E+08         0.00000E+00
    0.00000E+00         0.00000E+00        -0.69575E+08
 
   -0.69491E+08         0.23443E+06         0.00000E+00
    0.23443E+06        -0.97587E+08         0.00000E+00
    0.00000E+00         0.00000E+00        -0.69402E+08
 
   -0.69337E+08         0.23291E+06         0.00000E+00
    0.23291E+06        -0.97584E+08         0.00000E+00
    0.00000E+00         0.00000E+00        -0.69230E+08
 
   -0.69184E+08         0.23133E+06         0.00000E+00
    0.23133E+06        -0.97580E+08         0.00000E+00
    0.00000E+00         0.00000E+00        -0.69056E+08
 
   -0.69031E+08         0.22968E+06         0.00000E+00
    0.22968E+06        -0.97577E+08         0.00000E+00
    0.00000E+00         0.00000E+00        -0.68883E+08
 
   -0.68880E+08         0.22795E+06         0.00000E+00
    0.22795E+06        -0.97574E+08         0.00000E+00
    0.00000E+00         0.00000E+00        -0.68708E+08
 
   -0.68729E+08         0.22612E+06         0.00000E+00
    0.22612E+06        -0.97572E+08         0.00000E+00
    0.00000E+00         0.00000E+00        -0.68533E+08
 
   -0.68580E+08         0.22416E+06         0.00000E+00
    0.22416E+06        -0.97569E+08         0.00000E+00
    0.00000E+00         0.00000E+00        -0.68358E+08
 
   -0.68432E+08         0.22204E+06         0.00000E+00
    0.22204E+06        -0.97567E+08         0.00000E+00
    0.00000E+00         0.00000E+00        -0.68181E+08
 
   -0.68285E+08         0.21971E+06         0.00000E+00
    0.21971E+06        -0.97564E+08         0.00000E+00
    0.00000E+00         0.00000E+00        -0.68004E+08
 
   -0.68139E+08         0.21708E+06         0.00000E+00
    0.21708E+06        -0.97562E+08         0.00000E+00
    0.00000E+00         0.00000E+00        -0.67825E+08
 
   -0.67995E+08         0.21406E+06         0.00000E+00
    0.21406E+06        -0.97560E+08         0.00000E+00
    0.00000E+00         0.00000E+00        -0.67645E+08
 
   -0.67854E+08         0.21052E+06         0.00000E+00
    0.21052E+06        -0.97559E+08         0.00000E+00
    0.00000E+00         0.00000E+00        -0.67464E+08
 
   -0.67714E+08         0.20629E+06         0.00000E+00
    0.20629E+06        -0.97558E+08         0.00000E+00
    0.00000E+00         0.00000E+00        -0.67281E+08
 
   -0.67578E+08         0.20117E+06         0.00000E+00
    0.20117E+06        -0.97557E+08         0.00000E+00
    0.00000E+00         0.00000E+00        -0.67095E+08
 
   -0.67445E+08         0.19490E+06         0.00000E+00
    0.19490E+06        -0.97557E+08         0.00000E+00
    0.00000E+00         0.00000E+00        -0.66907E+08
 
   -0.67316E+08         0.18722E+06         0.00000E+00
    0.18722E+06        -0.97557E+08         0.00000E+00
    0.00000E+00         0.00000E+00        -0.66715E+08
 
   -0.67192E+08         0.17781E+06         0.00000E+00
    0.17781E+06        -0.97557E+08         0.00000E+00
    0.00000E+00         0.00000E+00        -0.66520E+08
 
   -0.67074E+08         0.16640E+06         0.00000E+00
    0.16640E+06        -0.97558E+08         0.00000E+00
    0.00000E+00         0.00000E+00        -0.66319E+08
 
   -0.66963E+08         0.15275E+06         0.00000E+00
    0.15275E+06        -0.97560E+08         0.00000E+00
    0.00000E+00         0.00000E+00        -0.66113E+08
 
   -0.66860E+08         0.13675E+06         0.00000E+00
    0.13675E+06        -0.97563E+08         0.00000E+00
    0.00000E+00         0.00000E+00        -0.65900E+08
 
   -0.66767E+08         0.11846E+06         0.00000E+00
    0.11846E+06        -0.97565E+08         0.00000E+00
    0.00000E+00         0.00000E+00        -0.65678E+08
 
   -0.66685E+08         0.98223E+05         0.00000E+00
    0.98223E+05        -0.97568E+08         0.00000E+00
    0.00000E+00         0.00000E+00        -0.65447E+08
 
   -0.66615E+08         0.76634E+05         0.00000E+00
    0.76634E+05        -0.97571E+08         0.00000E+00
    0.00000E+00         0.00000E+00        -0.65206E+08
 
   -0.66558E+08         0.54534E+05         0.00000E+00
    0.54534E+05        -0.97575E+08         0.00000E+00
    0.00000E+00         0.00000E+00        -0.64955E+08
 
   -0.66515E+08         0.32720E+05         0.00000E+00
    0.32720E+05        -0.97578E+08         0.00000E+00
    0.00000E+00         0.00000E+00        -0.64692E+08
 
   -0.66486E+08         0.12310E+05         0.00000E+00
    0.12310E+05        -0.97582E+08         0.00000E+00
    0.00000E+00         0.00000E+00        -0.64419E+08
 
   -0.66470E+08        -0.69611E+04         0.00000E+00
   -0.69611E+04        -0.97586E+08         0.00000E+00
    0.00000E+00         0.00000E+00        -0.64136E+08
 
   -0.66465E+08        -0.26473E+05         0.00000E+00
   -0.26473E+05        -0.97593E+08         0.00000E+00
    0.00000E+00         0.00000E+00        -0.63850E+08
 
   -0.66460E+08        -0.35431E+05         0.00000E+00
   -0.35431E+05        -0.97600E+08         0.00000E+00
    0.00000E+00         0.00000E+00        -0.63564E+08
 
   -0.66450E+08        -0.17318E+05         0.00000E+00
   -0.17318E+05        -0.97569E+08         0.00000E+00
    0.00000E+00         0.00000E+00        -0.63250E+08
 
   -0.80655E+08        -0.60772E+04         0.00000E+00
   -0.60772E+04        -0.97549E+08         0.00000E+00
    0.00000E+00         0.00000E+00        -0.85248E+08
 
   -0.80676E+08        -0.50150E+04         0.00000E+00
   -0.50150E+04        -0.97567E+08         0.00000E+00
    0.00000E+00         0.00000E+00        -0.84849E+08
 
   -0.80716E+08         0.20220E+05         0.00000E+00
    0.20220E+05        -0.97586E+08         0.00000E+00
    0.00000E+00         0.00000E+00        -0.84474E+08
 
   -0.80741E+08         0.48755E+05         0.00000E+00
    0.48755E+05        -0.97593E+08         0.00000E+00
    0.00000E+00         0.00000E+00        -0.84085E+08
 
   -0.80732E+08         0.71394E+05         0.00000E+00
    0.71394E+05        -0.97594E+08         0.00000E+00
    0.00000E+00         0.00000E+00        -0.83691E+08
 
   -0.80691E+08         0.89912E+05         0.00000E+00
    0.89912E+05        -0.97596E+08         0.00000E+00
    0.00000E+00         0.00000E+00        -0.83303E+08
 
   -0.80626E+08         0.10367E+06         0.00000E+00
    0.10367E+06        -0.97598E+08         0.00000E+00
    0.00000E+00         0.00000E+00        -0.82926E+08
 
   -0.80542E+08         0.11314E+06         0.00000E+00
    0.11314E+06        -0.97600E+08         0.00000E+00
    0.00000E+00         0.00000E+00        -0.82567E+08
 
   -0.80445E+08         0.12074E+06         0.00000E+00
    0.12074E+06        -0.97599E+08         0.00000E+00
    0.00000E+00         0.00000E+00        -0.82227E+08
 
   -0.80338E+08         0.12908E+06         0.00000E+00
    0.12908E+06        -0.97597E+08         0.00000E+00
    0.00000E+00         0.00000E+00        -0.81905E+08
 
   -0.80220E+08         0.13978E+06         0.00000E+00
    0.13978E+06        -0.97594E+08         0.00000E+00
    0.00000E+00         0.00000E+00        -0.81601E+08
 
   -0.80092E+08         0.15301E+06         0.00000E+00
    0.15301E+06        -0.97592E+08         0.00000E+00
    0.00000E+00         0.00000E+00        -0.81312E+08
 
   -0.79955E+08         0.16801E+06         0.00000E+00
    0.16801E+06        -0.97591E+08         0.00000E+00
    0.00000E+00         0.00000E+00        -0.81037E+08
 
   -0.79808E+08         0.18359E+06         0.00000E+00
    0.18359E+06        -0.97591E+08         0.00000E+00
    0.00000E+00         0.00000E+00        -0.80771E+08
 
   -0.79651E+08         0.19874E+06         0.00000E+00
    0.19874E+06        -0.97591E+08         0.00000E+00
    0.00000E+00         0.00000E+00        -0.80515E+08
 
   -0.79486E+08         0.21272E+06         0.00000E+00
    0.21272E+06        -0.97592E+08         0.00000E+00
    0.00000E+00         0.00000E+00        -0.80264E+08
 
   -0.79313E+08         0.22522E+06         0.00000E+00
    0.22522E+06        -0.97593E+08         0.00000E+00
    0.00000E+00         0.00000E+00        -0.80019E+08
 
   -0.79133E+08         0.23614E+06         0.00000E+00
    0.23614E+06        -0.97594E+08         0.00000E+00
    0.00000E+00         0.00000E+00        -0.79776E+08
 
   -0.78947E+08         0.24562E+06         0.00000E+00
    0.24562E+06        -0.97595E+08         0.00000E+00
    0.00000E+00         0.00000E+00        -0.79536E+08
 
   -0.78756E+08         0.25381E+06         0.00000E+00
    0.25381E+06        -0.97595E+08         0.00000E+00
    0.00000E+00         0.00000E+00        -0.79296E+08
 
   -0.78561E+08         0.26079E+06         0.00000E+00
    0.26079E+06        -0.97596E+08         0.00000E+00
    0.00000E+00         0.00000E+00        -0.79057E+08
 
   -0.78363E+08         0.26632E+06         0.00000E+00
    0.26632E+06        -0.97597E+08         0.00000E+00
    0.00000E+00         0.00000E+00        -0.78816E+08
 
   -0.78165E+08         0.26880E+06         0.00000E+00
    0.26880E+06        -0.97599E+08         0.00000E+00
    0.00000E+00         0.00000E+00        -0.78575E+08
 
   -0.77967E+08         0.26495E+06         0.00000E+00
    0.26495E+06        -0.97608E+08         0.00000E+00
    0.00000E+00         0.00000E+00        -0.78333E+08
 
   -0.77768E+08         0.25506E+06         0.00000E+00
    0.25506E+06        -0.97608E+08         0.00000E+00
    0.00000E+00         0.00000E+00        -0.78115E+08
 
   -0.77569E+08         0.24817E+06         0.00000E+00
    0.24817E+06        -0.97602E+08         0.00000E+00
    0.00000E+00         0.00000E+00        -0.77916E+08
 
   -0.77372E+08         0.24586E+06         0.00000E+00
    0.24586E+06        -0.97600E+08         0.00000E+00
    0.00000E+00         0.00000E+00        -0.77715E+08
 
   -0.77178E+08         0.24563E+06         0.00000E+00
    0.24563E+06        -0.97600E+08         0.00000E+00
    0.00000E+00         0.00000E+00        -0.77513E+08
 
   -0.76985E+08         0.24634E+06         0.00000E+00
    0.24634E+06        -0.97599E+08         0.00000E+00
    0.00000E+00         0.00000E+00        -0.77309E+08
 
   -0.76792E+08         0.24767E+06         0.00000E+00
    0.24767E+06        -0.97599E+08         0.00000E+00
    0.00000E+00         0.00000E+00        -0.77104E+08
 
   -0.76598E+08         0.24939E+06         0.00000E+00
    0.24939E+06        -0.97599E+08         0.00000E+00
    0.00000E+00         0.00000E+00        -0.76896E+08
 
   -0.76404E+08         0.25133E+06         0.00000E+00
    0.25133E+06        -0.97599E+08         0.00000E+00
    0.00000E+00         0.00000E+00        -0.76688E+08
 
   -0.76208E+08         0.25339E+06         0.00000E+00
    0.25339E+06        -0.97599E+08         0.00000E+00
    0.00000E+00         0.00000E+00        -0.76477E+08
 
   -0.76012E+08         0.25550E+06         0.00000E+00
    0.25550E+06        -0.97599E+08         0.00000E+00
    0.00000E+00         0.00000E+00        -0.76265E+08
 
   -0.75815E+08         0.25757E+06         0.00000E+00
    0.25757E+06        -0.97598E+08         0.00000E+00
    0.00000E+00         0.00000E+00        -0.76051E+08
 
   -0.75619E+08         0.25916E+06         0.00000E+00
    0.25916E+06        -0.97598E+08         0.00000E+00
    0.00000E+00         0.00000E+00        -0.75836E+08
 
   -0.75423E+08         0.25897E+06         0.00000E+00
    0.25897E+06        -0.97600E+08         0.00000E+00
    0.00000E+00         0.00000E+00        -0.75619E+08
 
   -0.75228E+08         0.25648E+06         0.00000E+00
    0.25648E+06        -0.97606E+08         0.00000E+00
    0.00000E+00         0.00000E+00        -0.75405E+08
 
   -0.75033E+08         0.24909E+06         0.00000E+00
    0.24909E+06        -0.97604E+08         0.00000E+00
    0.00000E+00         0.00000E+00        -0.75206E+08
 
   -0.74839E+08         0.24449E+06         0.00000E+00
    0.24449E+06        -0.97602E+08         0.00000E+00
    0.00000E+00         0.00000E+00        -0.75013E+08
 
   -0.74648E+08         0.24213E+06         0.00000E+00
    0.24213E+06        -0.97601E+08         0.00000E+00
    0.00000E+00         0.00000E+00        -0.74821E+08
 
   -0.74459E+08         0.24098E+06         0.00000E+00
    0.24098E+06        -0.97600E+08         0.00000E+00
    0.00000E+00         0.00000E+00        -0.74627E+08
 
   -0.74271E+08         0.24054E+06         0.00000E+00
    0.24054E+06        -0.97600E+08         0.00000E+00
    0.00000E+00         0.00000E+00        -0.74433E+08
 
   -0.74084E+08         0.24052E+06         0.00000E+00
    0.24052E+06        -0.97600E+08         0.00000E+00
    0.00000E+00         0.00000E+00        -0.74238E+08
 
   -0.73899E+08         0.24065E+06         0.00000E+00
    0.24065E+06        -0.97600E+08         0.00000E+00
    0.00000E+00         0.00000E+00        -0.74042E+08
 
   -0.73714E+08         0.24041E+06         0.00000E+00
    0.24041E+06        -0.97600E+08         0.00000E+00
    0.00000E+00         0.00000E+00        -0.73846E+08
 
   -0.73531E+08         0.23859E+06         0.00000E+00
    0.23859E+06        -0.97602E+08         0.00000E+00
    0.00000E+00         0.00000E+00        -0.73650E+08
 
   -0.73348E+08         0.23517E+06         0.00000E+00
    0.23517E+06        -0.97604E+08         0.00000E+00
    0.00000E+00         0.00000E+00        -0.73459E+08
 
   -0.73167E+08         0.23034E+06         0.00000E+00
    0.23034E+06        -0.97602E+08         0.00000E+00
    0.00000E+00         0.00000E+00        -0.73277E+08
 
   -0.72987E+08         0.22790E+06         0.00000E+00
    0.22790E+06        -0.97601E+08         0.00000E+00
    0.00000E+00         0.00000E+00        -0.73096E+08
 
   -0.72810E+08         0.22665E+06         0.00000E+00
    0.22665E+06        -0.97600E+08         0.00000E+00
    0.00000E+00         0.00000E+00        -0.72915E+08
 
   -0.72634E+08         0.22591E+06         0.00000E+00
    0.22591E+06        -0.97600E+08         0.00000E+00
    0.00000E+00         0.00000E+00        -0.72734E+08
 
   -0.72458E+08         0.22539E+06         0.00000E+00
    0.22539E+06        -0.97600E+08         0.00000E+00
    0.00000E+00         0.00000E+00        -0.72553E+08
 
   -0.72284E+08         0.22489E+06         0.00000E+00
    0.22489E+06        -0.97600E+08         0.00000E+00
    0.00000E+00         0.00000E+00        -0.72371E+08
 
   -0.72111E+08         0.22407E+06         0.00000E+00
    0.22407E+06        -0.97600E+08         0.00000E+00
    0.00000E+00         0.00000E+00        -0.72189E+08
 
   -0.71940E+08         0.22230E+06         0.00000E+00
    0.22230E+06        -0.97602E+08         0.00000E+00
    0.00000E+00         0.00000E+00        -0.72008E+08
 
   -0.71769E+08         0.21946E+06         0.00000E+00
    0.21946E+06        -0.97603E+08         0.00000E+00
    0.00000E+00         0.00000E+00        -0.71829E+08
 
   -0.71599E+08         0.21681E+06         0.00000E+00
    0.21681E+06        -0.97601E+08         0.00000E+00
    0.00000E+00         0.00000E+00        -0.71655E+08
 
   -0.71431E+08         0.21516E+06         0.00000E+00
    0.21516E+06        -0.97601E+08         0.00000E+00
    0.00000E+00         0.00000E+00        -0.71482E+08
 
   -0.71264E+08         0.21407E+06         0.00000E+00
    0.21407E+06        -0.97601E+08         0.00000E+00
    0.00000E+00         0.00000E+00        -0.71308E+08
 
   -0.71098E+08         0.21318E+06         0.00000E+00
    0.21318E+06        -0.97600E+08         0.00000E+00
    0.00000E+00         0.00000E+00        -0.71134E+08
 
   -0.70932E+08         0.21233E+06         0.00000E+00
    0.21233E+06        -0.97601E+08         0.00000E+00
    0.00000E+00         0.00000E+00        -0.70960E+08
 
   -0.70768E+08         0.21149E+06         0.00000E+00
    0.21149E+06        -0.97601E+08         0.00000E+00
    0.00000E+00         0.00000E+00        -0.70786E+08
 
   -0.70605E+08         0.21061E+06         0.00000E+00
    0.21061E+06        -0.97601E+08         0.00000E+00
    0.00000E+00         0.00000E+00        -0.70612E+08
 
   -0.70442E+08         0.20969E+06         0.00000E+00
    0.20969E+06        -0.97601E+08         0.00000E+00
    0.00000E+00         0.00000E+00        -0.70437E+08
 
   -0.70280E+08         0.20873E+06         0.00000E+00
    0.20873E+06        -0.97601E+08         0.00000E+00
    0.00000E+00         0.00000E+00        -0.70263E+08
 
   -0.70118E+08         0.20771E+06         0.00000E+00
    0.20771E+06        -0.97601E+08         0.00000E+00
    0.00000E+00         0.00000E+00        -0.70088E+08
 
   -0.69960E+08         0.20660E+06         0.00000E+00
    0.20660E+06        -0.97598E+08         0.00000E+00
    0.00000E+00         0.00000E+00        -0.69915E+08
 
   -0.69804E+08         0.20543E+06         0.00000E+00
    0.20543E+06        -0.97594E+08         0.00000E+00
    0.00000E+00         0.00000E+00        -0.69743E+08
 
   -0.69649E+08         0.20421E+06         0.00000E+00
    0.20421E+06        -0.97591E+08         0.00000E+00
    0.00000E+00         0.00000E+00        -0.69571E+08
 
   -0.69494E+08         0.20293E+06         0.00000E+00
    0.20293E+06        -0.97587E+08         0.00000E+00
    0.00000E+00         0.00000E+00        -0.69399E+08
 
   -0.69340E+08         0.20161E+06         0.00000E+00
    0.20161E+06        -0.97584E+08         0.00000E+00
    0.00000E+00         0.00000E+00        -0.69226E+08
 
   -0.69187E+08         0.20023E+06         0.00000E+00
    0.20023E+06        -0.97581E+08         0.00000E+00
    0.00000E+00         0.00000E+00        -0.69052E+08
 
   -0.69035E+08         0.19880E+06         0.00000E+00
    0.19880E+06        -0.97578E+08         0.00000E+00
    0.00000E+00         0.00000E+00        -0.68878E+08
 
   -0.68884E+08         0.19729E+06         0.00000E+00
    0.19729E+06        -0.97575E+08         0.00000E+00
    0.00000E+00         0.00000E+00        -0.68704E+08
 
   -0.68734E+08         0.19570E+06         0.00000E+00
    0.19570E+06        -0.97572E+08         0.00000E+00
    0.00000E+00         0.00000E+00        -0.68529E+08
 
   -0.68585E+08         0.19400E+06         0.00000E+00
    0.19400E+06        -0.97569E+08         0.00000E+00
    0.00000E+00         0.00000E+00        -0.68352E+08
 
   -0.68437E+08         0.19216E+06         0.00000E+00
    0.19216E+06        -0.97567E+08         0.00000E+00
    0.00000E+00         0.00000E+00        -0.68176E+08
 
   -0.68290E+08         0.19014E+06         0.00000E+00
    0.19014E+06        -0.97565E+08         0.00000E+00
    0.00000E+00         0.00000E+00        -0.67998E+08
 
   -0.68145E+08         0.18786E+06         0.00000E+00
    0.18786E+06        -0.97562E+08         0.00000E+00
    0.00000E+00         0.00000E+00        -0.67819E+08
 
   -0.68002E+08         0.18525E+06         0.00000E+00
    0.18525E+06        -0.97561E+08         0.00000E+00
    0.00000E+00         0.00000E+00        -0.67639E+08
 
   -0.67860E+08         0.18218E+06         0.00000E+00
    0.18218E+06        -0.97559E+08         0.00000E+00
    0.00000E+00         0.00000E+00        -0.67457E+08
 
   -0.67721E+08         0.17850E+06         0.00000E+00
    0.17850E+06        -0.97558E+08         0.00000E+00
    0.00000E+00         0.00000E+00        -0.67273E+08
 
   -0.67585E+08         0.17404E+06         0.00000E+00
    0.17404E+06        -0.97557E+08         0.00000E+00
    0.00000E+00         0.00000E+00        -0.67087E+08
 
   -0.67453E+08         0.16857E+06         0.00000E+00
    0.16857E+06        -0.97556E+08         0.00000E+00
    0.00000E+00         0.00000E+00        -0.66898E+08
 
   -0.67324E+08         0.16185E+06         0.00000E+00
    0.16185E+06        -0.97556E+08         0.00000E+00
    0.00000E+00         0.00000E+00        -0.66706E+08
 
   -0.67201E+08         0.15360E+06         0.00000E+00
    0.15360E+06        -0.97556E+08         0.00000E+00
    0.00000E+00         0.00000E+00        -0.66509E+08
 
   -0.67083E+08         0.14358E+06         0.00000E+00
    0.14358E+06        -0.97557E+08         0.00000E+00
    0.00000E+00         0.00000E+00        -0.66308E+08
 
   -0.66973E+08         0.13157E+06         0.00000E+00
    0.13157E+06        -0.97558E+08         0.00000E+00
    0.00000E+00         0.00000E+00        -0.66100E+08
 
   -0.66872E+08         0.11749E+06         0.00000E+00
    0.11749E+06        -0.97560E+08         0.00000E+00
    0.00000E+00         0.00000E+00        -0.65885E+08
 
   -0.66781E+08         0.10142E+06         0.00000E+00
    0.10142E+06        -0.97562E+08         0.00000E+00
    0.00000E+00         0.00000E+00        -0.65662E+08
 
   -0.66700E+08         0.83673E+05         0.00000E+00
    0.83673E+05        -0.97565E+08         0.00000E+00
    0.00000E+00         0.00000E+00        -0.65429E+08
 
   -0.66633E+08         0.64788E+05         0.00000E+00
    0.64788E+05        -0.97568E+08         0.00000E+00
    0.00000E+00         0.00000E+00        -0.65186E+08
 
   -0.66579E+08         0.45564E+05         0.00000E+00
    0.45564E+05        -0.97571E+08         0.00000E+00
    0.00000E+00         0.00000E+00        -0.64932E+08
 
   -0.66538E+08         0.26637E+05         0.00000E+00
    0.26637E+05        -0.97574E+08         0.00000E+00
    0.00000E+00         0.00000E+00        -0.64667E+08
 
   -0.66512E+08         0.89185E+04         0.00000E+00
    0.89185E+04        -0.97578E+08         0.00000E+00
    0.00000E+00         0.00000E+00        -0.64393E+08
 
   -0.66498E+08        -0.72207E+04         0.00000E+00
   -0.72207E+04        -0.97582E+08         0.00000E+00
    0.00000E+00         0.00000E+00        -0.64108E+08
 
   -0.66497E+08        -0.25198E+05         0.00000E+00
   -0.25198E+05        -0.97589E+08         0.00000E+00
    0.00000E+00         0.00000E+00        -0.63819E+08
 
   -0.66498E+08        -0.36369E+05         0.00000E+00
   -0.36369E+05        -0.97600E+08         0.00000E+00
    0.00000E+00         0.00000E+00        -0.63533E+08
 
   -0.66490E+08        -0.18737E+05         0.00000E+00
   -0.18737E+05        -0.97577E+08         0.00000E+00
    0.00000E+00         0.00000E+00        -0.63224E+08
 
   -0.80645E+08        -0.48129E+04         0.00000E+00
   -0.48129E+04        -0.97545E+08         0.00000E+00
    0.00000E+00         0.00000E+00        -0.85278E+08
 
   -0.80668E+08         0.14413E+04         0.00000E+00
    0.14413E+04        -0.97571E+08         0.00000E+00
    0.00000E+00         0.00000E+00        -0.84891E+08
 
   -0.80709E+08         0.28221E+05         0.00000E+00
    0.28221E+05        -0.97593E+08         0.00000E+00
    0.00000E+00         0.00000E+00        -0.84516E+08
 
   -0.80727E+08         0.50145E+05         0.00000E+00
    0.50145E+05        -0.97598E+08         0.00000E+00
    0.00000E+00         0.00000E+00        -0.84122E+08
 
   -0.80709E+08         0.65571E+05         0.00000E+00
    0.65571E+05        -0.97598E+08         0.00000E+00
    0.00000E+00         0.00000E+00        -0.83722E+08
 
   -0.80663E+08         0.78722E+05         0.00000E+00
    0.78722E+05        -0.97599E+08         0.00000E+00
    0.00000E+00         0.00000E+00        -0.83326E+08
 
   -0.80595E+08         0.88426E+05         0.00000E+00
    0.88426E+05        -0.97601E+08         0.00000E+00
    0.00000E+00         0.00000E+00        -0.82944E+08
 
   -0.80511E+08         0.94982E+05         0.00000E+00
    0.94982E+05        -0.97601E+08         0.00000E+00
    0.00000E+00         0.00000E+00        -0.82579E+08
 
   -0.80415E+08         0.10036E+06         0.00000E+00
    0.10036E+06        -0.97601E+08         0.00000E+00
    0.00000E+00         0.00000E+00        -0.82234E+08
 
   -0.80309E+08         0.10677E+06         0.00000E+00
    0.10677E+06        -0.97599E+08         0.00000E+00
    0.00000E+00         0.00000E+00        -0.81908E+08
 
   -0.80195E+08         0.11555E+06         0.00000E+00
    0.11555E+06        -0.97597E+08         0.00000E+00
    0.00000E+00         0.00000E+00        -0.81600E+08
 
   -0.80070E+08         0.12682E+06         0.00000E+00
    0.12682E+06        -0.97595E+08         0.00000E+00
    0.00000E+00         0.00000E+00        -0.81309E+08
 
   -0.79936E+08         0.13980E+06         0.00000E+00
    0.13980E+06        -0.97594E+08         0.00000E+00
    0.00000E+00         0.00000E+00        -0.81031E+08
 
   -0.79792E+08         0.15342E+06         0.00000E+00
    0.15342E+06        -0.97594E+08         0.00000E+00
    0.00000E+00         0.00000E+00        -0.80764E+08
 
   -0.79637E+08         0.16669E+06         0.00000E+00
    0.16669E+06        -0.97594E+08         0.00000E+00
    0.00000E+00         0.00000E+00        -0.80506E+08
 
   -0.79474E+08         0.17897E+06         0.00000E+00
    0.17897E+06        -0.97594E+08         0.00000E+00
    0.00000E+00         0.00000E+00        -0.80255E+08
 
   -0.79302E+08         0.18994E+06         0.00000E+00
    0.18994E+06        -0.97595E+08         0.00000E+00
    0.00000E+00         0.00000E+00        -0.80009E+08
 
   -0.79122E+08         0.19953E+06         0.00000E+00
    0.19953E+06        -0.97596E+08         0.00000E+00
    0.00000E+00         0.00000E+00        -0.79766E+08
 
   -0.78936E+08         0.20786E+06         0.00000E+00
    0.20786E+06        -0.97596E+08         0.00000E+00
    0.00000E+00         0.00000E+00        -0.79526E+08
 
   -0.78745E+08         0.21510E+06         0.00000E+00
    0.21510E+06        -0.97597E+08         0.00000E+00
    0.00000E+00         0.00000E+00        -0.79286E+08
 
   -0.78549E+08         0.22136E+06         0.00000E+00
    0.22136E+06        -0.97597E+08         0.00000E+00
    0.00000E+00         0.00000E+00        -0.79047E+08
 
   -0.78350E+08         0.22652E+06         0.00000E+00
    0.22652E+06        -0.97597E+08         0.00000E+00
    0.00000E+00         0.00000E+00        -0.78807E+08
 
   -0.78150E+08         0.22922E+06         0.00000E+00
    0.22922E+06        -0.97599E+08         0.00000E+00
    0.00000E+00         0.00000E+00        -0.78566E+08
 
   -0.77951E+08         0.22534E+06         0.00000E+00
    0.22534E+06        -0.97606E+08         0.00000E+00
    0.00000E+00         0.00000E+00        -0.78324E+08
 
   -0.77752E+08         0.21495E+06         0.00000E+00
    0.21495E+06        -0.97606E+08         0.00000E+00
    0.00000E+00         0.00000E+00        -0.78107E+08
 
   -0.77553E+08         0.20860E+06         0.00000E+00
    0.20860E+06        -0.97601E+08         0.00000E+00
    0.00000E+00         0.00000E+00        -0.77908E+08
 
   -0.77358E+08         0.20703E+06         0.00000E+00
    0.20703E+06        -0.97600E+08         0.00000E+00
    0.00000E+00         0.00000E+00        -0.77707E+08
 
   -0.77166E+08         0.20706E+06         0.00000E+00
    0.20706E+06        -0.97600E+08         0.00000E+00
    0.00000E+00         0.00000E+00        -0.77505E+08
 
   -0.76974E+08         0.20780E+06         0.00000E+00
    0.20780E+06        -0.97600E+08         0.00000E+00
    0.00000E+00         0.00000E+00        -0.77302E+08
 
   -0.76781E+08         0.20905E+06         0.00000E+00
    0.20905E+06        -0.97599E+08         0.00000E+00
    0.00000E+00         0.00000E+00        -0.77097E+08
 
   -0.76588E+08         0.21062E+06         0.00000E+00
    0.21062E+06        -0.97599E+08         0.00000E+00
    0.00000E+00         0.00000E+00        -0.76890E+08
 
   -0.76394E+08         0.21239E+06         0.00000E+00
    0.21239E+06        -0.97599E+08         0.00000E+00
    0.00000E+00         0.00000E+00        -0.76682E+08
 
   -0.76199E+08         0.21427E+06         0.00000E+00
    0.21427E+06        -0.97599E+08         0.00000E+00
    0.00000E+00         0.00000E+00        -0.76471E+08
 
   -0.76003E+08         0.21621E+06         0.00000E+00
    0.21621E+06        -0.97599E+08         0.00000E+00
    0.00000E+00         0.00000E+00        -0.76260E+08
 
   -0.75806E+08         0.21818E+06         0.00000E+00
    0.21818E+06        -0.97599E+08         0.00000E+00
    0.00000E+00         0.00000E+00        -0.76046E+08
 
   -0.75609E+08         0.21992E+06         0.00000E+00
    0.21992E+06        -0.97599E+08         0.00000E+00
    0.00000E+00         0.00000E+00        -0.75831E+08
 
   -0.75413E+08         0.22000E+06         0.00000E+00
    0.22000E+06        -0.97600E+08         0.00000E+00
    0.00000E+00         0.00000E+00        -0.75614E+08
 
   -0.75218E+08         0.21732E+06         0.00000E+00
    0.21732E+06        -0.97604E+08         0.00000E+00
    0.00000E+00         0.00000E+00        -0.75401E+08
 
   -0.75022E+08         0.21007E+06         0.00000E+00
    0.21007E+06        -0.97603E+08         0.00000E+00
    0.00000E+00         0.00000E+00        -0.75203E+08
 
   -0.74829E+08         0.20607E+06         0.00000E+00
    0.20607E+06        -0.97601E+08         0.00000E+00
    0.00000E+00         0.00000E+00        -0.75011E+08
 
   -0.74639E+08         0.20426E+06         0.00000E+00
    0.20426E+06        -0.97601E+08         0.00000E+00
    0.00000E+00         0.00000E+00        -0.74818E+08
 
   -0.74451E+08         0.20342E+06         0.00000E+00
    0.20342E+06        -0.97600E+08         0.00000E+00
    0.00000E+00         0.00000E+00        -0.74624E+08
 
   -0.74264E+08         0.20318E+06         0.00000E+00
    0.20318E+06        -0.97600E+08         0.00000E+00
    0.00000E+00         0.00000E+00        -0.74430E+08
 
   -0.74078E+08         0.20330E+06         0.00000E+00
    0.20330E+06        -0.97600E+08         0.00000E+00
    0.00000E+00         0.00000E+00        -0.74236E+08
 
   -0.73892E+08         0.20361E+06         0.00000E+00
    0.20361E+06        -0.97600E+08         0.00000E+00
    0.00000E+00         0.00000E+00        -0.74040E+08
 
   -0.73708E+08         0.20368E+06         0.00000E+00
    0.20368E+06        -0.97600E+08         0.00000E+00
    0.00000E+00         0.00000E+00        -0.73844E+08
 
   -0.73525E+08         0.20214E+06         0.00000E+00
    0.20214E+06        -0.97601E+08         0.00000E+00
    0.00000E+00         0.00000E+00        -0.73648E+08
 
   -0.73343E+08         0.19866E+06         0.00000E+00
    0.19866E+06        -0.97603E+08         0.00000E+00
    0.00000E+00         0.00000E+00        -0.73457E+08
 
   -0.73161E+08         0.19425E+06         0.00000E+00
    0.19425E+06        -0.97601E+08         0.00000E+00
    0.00000E+00         0.00000E+00        -0.73276E+08
 
   -0.72983E+08         0.19229E+06         0.00000E+00
    0.19229E+06        -0.97601E+08         0.00000E+00
    0.00000E+00         0.00000E+00        -0.73095E+08
 
   -0.72806E+08         0.19135E+06         0.00000E+00
    0.19135E+06        -0.97600E+08         0.00000E+00
    0.00000E+00         0.00000E+00        -0.72914E+08
 
   -0.72630E+08         0.19083E+06         0.00000E+00
    0.19083E+06        -0.97600E+08         0.00000E+00
    0.00000E+00         0.00000E+00        -0.72733E+08
 
   -0.72456E+08         0.19050E+06         0.00000E+00
    0.19050E+06        -0.97600E+08         0.00000E+00
    0.00000E+00         0.00000E+00        -0.72551E+08
 
   -0.72282E+08         0.19019E+06         0.00000E+00
    0.19019E+06        -0.97600E+08         0.00000E+00
    0.00000E+00         0.00000E+00        -0.72370E+08
 
   -0.72109E+08         0.18963E+06         0.00000E+00
    0.18963E+06        -0.97600E+08         0.00000E+00
    0.00000E+00         0.00000E+00        -0.72188E+08
 
   -0.71937E+08         0.18813E+06         0.00000E+00
    0.18813E+06        -0.97601E+08         0.00000E+00
    0.00000E+00         0.00000E+00        -0.72007E+08
 
   -0.71767E+08         0.18541E+06         0.00000E+00
    0.18541E+06        -0.97602E+08         0.00000E+00
    0.00000E+00         0.00000E+00        -0.71828E+08
 
   -0.71598E+08         0.18301E+06         0.00000E+00
    0.18301E+06        -0.97601E+08         0.00000E+00
    0.00000E+00         0.00000E+00        -0.71654E+08
 
   -0.71430E+08         0.18167E+06         0.00000E+00
    0.18167E+06        -0.97600E+08         0.00000E+00
    0.00000E+00         0.00000E+00        -0.71480E+08
 
   -0.71263E+08         0.18082E+06         0.00000E+00
    0.18082E+06        -0.97600E+08         0.00000E+00
    0.00000E+00         0.00000E+00        -0.71306E+08
 
   -0.71098E+08         0.18010E+06         0.00000E+00
    0.18010E+06        -0.97600E+08         0.00000E+00
    0.00000E+00         0.00000E+00        -0.71133E+08
 
   -0.70933E+08         0.17942E+06         0.00000E+00
    0.17942E+06        -0.97600E+08         0.00000E+00
    0.00000E+00         0.00000E+00        -0.70959E+08
 
   -0.70769E+08         0.17873E+06         0.00000E+00
    0.17873E+06        -0.97600E+08         0.00000E+00
    0.00000E+00         0.00000E+00        -0.70784E+08
 
   -0.70606E+08         0.17800E+06         0.00000E+00
    0.17800E+06        -0.97600E+08         0.00000E+00
    0.00000E+00         0.00000E+00        -0.70610E+08
 
   -0.70443E+08         0.17723E+06         0.00000E+00
    0.17723E+06        -0.97600E+08         0.00000E+00
    0.00000E+00         0.00000E+00        -0.70435E+08
 
   -0.70281E+08         0.17642E+06         0.00000E+00
    0.17642E+06        -0.97600E+08         0.00000E+00
    0.00000E+00         0.00000E+00        -0.70260E+08
 
   -0.70120E+08         0.17556E+06         0.00000E+00
    0.17556E+06        -0.97600E+08         0.00000E+00
    0.00000E+00         0.00000E+00        -0.70085E+08
 
   -0.69962E+08         0.17462E+06         0.00000E+00
    0.17462E+06        -0.97598E+08         0.00000E+00
    0.00000E+00         0.00000E+00        -0.69912E+08
 
   -0.69807E+08         0.17363E+06         0.00000E+00
    0.17363E+06        -0.97595E+08         0.00000E+00
    0.00000E+00         0.00000E+00        -0.69740E+08
 
   -0.69651E+08         0.17259E+06         0.00000E+00
    0.17259E+06        -0.97591E+08         0.00000E+00
    0.00000E+00         0.00000E+00        -0.69568E+08
 
   -0.69497E+08         0.17150E+06         0.00000E+00
    0.17150E+06        -0.97587E+08         0.00000E+00
    0.00000E+00         0.00000E+00        -0.69395E+08
 
   -0.69344E+08         0.17038E+06         0.00000E+00
    0.17038E+06        -0.97584E+08         0.00000E+00
    0.00000E+00         0.00000E+00        -0.69222E+08
 
   -0.69191E+08         0.16921E+06         0.00000E+00
    0.16921E+06        -0.97581E+08         0.00000E+00
    0.00000E+00         0.00000E+00        -0.69048E+08
 
   -0.69039E+08         0.16798E+06         0.00000E+00
    0.16798E+06        -0.97578E+08         0.00000E+00
    0.00000E+00         0.00000E+00        -0.68874E+08
 
   -0.68888E+08         0.16670E+06         0.00000E+00
    0.16670E+06        -0.97575E+08         0.00000E+00
    0.00000E+00         0.00000E+00        -0.68699E+08
 
   -0.68738E+08         0.16535E+06         0.00000E+00
    0.16535E+06        -0.97572E+08         0.00000E+00
    0.00000E+00         0.00000E+00        -0.68524E+08
 
   -0.68590E+08         0.16392E+06         0.00000E+00
    0.16392E+06        -0.97570E+08         0.00000E+00
    0.00000E+00         0.00000E+00        -0.68347E+08
 
   -0.68442E+08         0.16236E+06         0.00000E+00
    0.16236E+06        -0.97567E+08         0.00000E+00
    0.00000E+00         0.00000E+00        -0.68170E+08
 
   -0.68296E+08         0.16065E+06         0.00000E+00
    0.16065E+06        -0.97565E+08         0.00000E+00
    0.00000E+00         0.00000E+00        -0.67992E+08
 
   -0.68151E+08         0.15872E+06         0.00000E+00
    0.15872E+06        -0.97563E+08         0.00000E+00
    0.00000E+00         0.00000E+00        -0.67812E+08
 
   -0.68008E+08         0.15651E+06         0.00000E+00
    0.15651E+06        -0.97561E+08         0.00000E+00
    0.00000E+00         0.00000E+00        -0.67632E+08
 
   -0.67867E+08         0.15391E+06         0.00000E+00
    0.15391E+06        -0.97559E+08         0.00000E+00
    0.00000E+00         0.00000E+00        -0.67450E+08
 
   -0.67729E+08         0.15079E+06         0.00000E+00
    0.15079E+06        -0.97558E+08         0.00000E+00
    0.00000E+00         0.00000E+00        -0.67265E+08
 
   -0.67593E+08         0.14700E+06         0.00000E+00
    0.14700E+06        -0.97557E+08         0.00000E+00
    0.00000E+00         0.00000E+00        -0.67079E+08
 
   -0.67461E+08         0.14234E+06         0.00000E+00
    0.14234E+06        -0.97556E+08         0.00000E+00
    0.00000E+00         0.00000E+00        -0.66889E+08
 
   -0.67333E+08         0.13659E+06         0.00000E+00
    0.13659E+06        -0.97555E+08         0.00000E+00
    0.00000E+00         0.00000E+00        -0.66696E+08
 
   -0.67210E+08         0.12953E+06         0.00000E+00
    0.12953E+06        -0.97555E+08         0.00000E+00
    0.00000E+00         0.00000E+00        -0.66499E+08
 
   -0.67094E+08         0.12093E+06         0.00000E+00
    0.12093E+06        -0.97556E+08         0.00000E+00
    0.00000E+00         0.00000E+00        -0.66296E+08
 
   -0.66985E+08         0.11062E+06         0.00000E+00
    0.11062E+06        -0.97557E+08         0.00000E+00
    0.00000E+00         0.00000E+00        -0.66088E+08
 
   -0.66885E+08         0.98534E+05         0.00000E+00
    0.98534E+05        -0.97558E+08         0.00000E+00
    0.00000E+00         0.00000E+00        -0.65871E+08
 
   -0.66795E+08         0.84739E+05         0.00000E+00
    0.84739E+05        -0.97560E+08         0.00000E+00
    0.00000E+00         0.00000E+00        -0.65646E+08
 
   -0.66717E+08         0.69542E+05         0.00000E+00
    0.69542E+05        -0.97562E+08         0.00000E+00
    0.00000E+00         0.00000E+00        -0.65412E+08
 
   -0.66651E+08         0.53416E+05         0.00000E+00
    0.53416E+05        -0.97565E+08         0.00000E+00
    0.00000E+00         0.00000E+00        -0.65167E+08
 
   -0.66600E+08         0.37070E+05         0.00000E+00
    0.37070E+05        -0.97568E+08         0.00000E+00
    0.00000E+00         0.00000E+00        -0.64911E+08
 
   -0.66562E+08         0.21107E+05         0.00000E+00
    0.21107E+05        -0.97571E+08         0.00000E+00
    0.00000E+00         0.00000E+00        -0.64644E+08
 
   -0.66538E+08         0.59449E+04         0.00000E+00
    0.59449E+04        -0.97575E+08         0.00000E+00
    0.00000E+00         0.00000E+00        -0.64367E+08
 
   -0.66527E+08        -0.70764E+04         0.00000E+00
   -0.70764E+04        -0.97579E+08         0.00000E+00
    0.00000E+00         0.00000E+00        -0.64080E+08
 
   -0.66529E+08        -0.22598E+05         0.00000E+00
   -0.22598E+05        -0.97585E+08         0.00000E+00
    0.00000E+00         0.00000E+00        -0.63787E+08
 
   -0.66536E+08        -0.36352E+05         0.00000E+00
   -0.36352E+05        -0.97599E+08         0.00000E+00
    0.00000E+00         0.00000E+00        -0.63500E+08
 
   -0.66531E+08        -0.20163E+05         0.00000E+00
   -0.20163E+05        -0.97584E+08         0.00000E+00
    0.00000E+00         0.00000E+00        -0.63198E+08
 
   -0.80647E+08        -0.38983E+04         0.00000E+00
   -0.38983E+04        -0.97541E+08         0.00000E+00
    0.00000E+00         0.00000E+00        -0.85311E+08
 
   -0.80673E+08         0.84733E+04         0.00000E+00
    0.84733E+04        -0.97576E+08         0.00000E+00
    0.00000E+00         0.00000E+00        -0.84934E+08
 
   -0.80709E+08         0.35269E+05         0.00000E+00
    0.35269E+05        -0.97599E+08         0.00000E+00
    0.00000E+00         0.00000E+00        -0.84558E+08
 
   -0.80714E+08         0.49179E+05         0.00000E+00
    0.49179E+05        -0.97601E+08         0.00000E+00
    0.00000E+00         0.00000E+00        -0.84158E+08
 
   -0.80685E+08         0.58158E+05         0.00000E+00
    0.58158E+05        -0.97600E+08         0.00000E+00
    0.00000E+00         0.00000E+00        -0.83750E+08
 
   -0.80632E+08         0.66674E+05         0.00000E+00
    0.66674E+05        -0.97601E+08         0.00000E+00
    0.00000E+00         0.00000E+00        -0.83348E+08
 
   -0.80561E+08         0.72844E+05         0.00000E+00
    0.72844E+05        -0.97602E+08         0.00000E+00
    0.00000E+00         0.00000E+00        -0.82959E+08
 
   -0.80476E+08         0.76904E+05         0.00000E+00
    0.76904E+05        -0.97602E+08         0.00000E+00
    0.00000E+00         0.00000E+00        -0.82589E+08
 
   -0.80381E+08         0.80363E+05         0.00000E+00
    0.80363E+05        -0.97602E+08         0.00000E+00
    0.00000E+00         0.00000E+00        -0.82239E+08
 
   -0.80278E+08         0.85037E+05         0.00000E+00
    0.85037E+05        -0.97600E+08         0.00000E+00
    0.00000E+00         0.00000E+00        -0.81909E+08
 
   -0.80167E+08         0.92011E+05         0.00000E+00
    0.92011E+05        -0.97599E+08         0.00000E+00
    0.00000E+00         0.00000E+00        -0.81598E+08
 
   -0.80047E+08         0.10132E+06         0.00000E+00
    0.10132E+06        -0.97597E+08         0.00000E+00
    0.00000E+00         0.00000E+00        -0.81304E+08
 
   -0.79916E+08         0.11224E+06         0.00000E+00
    0.11224E+06        -0.97596E+08         0.00000E+00
    0.00000E+00         0.00000E+00        -0.81024E+08
 
   -0.79775E+08         0.12378E+06         0.00000E+00
    0.12378E+06        -0.97596E+08         0.00000E+00
    0.00000E+00         0.00000E+00        -0.80756E+08
 
   -0.79623E+08         0.13507E+06         0.00000E+00
    0.13507E+06        -0.97596E+08         0.00000E+00
    0.00000E+00         0.00000E+00        -0.80497E+08
 
   -0.79461E+08         0.14552E+06         0.00000E+00
    0.14552E+06        -0.97597E+08         0.00000E+00
    0.00000E+00         0.00000E+00        -0.80245E+08
 
   -0.79290E+08         0.15484E+06         0.00000E+00
    0.15484E+06        -0.97597E+08         0.00000E+00
    0.00000E+00         0.00000E+00        -0.79999E+08
 
   -0.79112E+08         0.16299E+06         0.00000E+00
    0.16299E+06        -0.97597E+08         0.00000E+00
    0.00000E+00         0.00000E+00        -0.79756E+08
 
   -0.78926E+08         0.17008E+06         0.00000E+00
    0.17008E+06        -0.97598E+08         0.00000E+00
    0.00000E+00         0.00000E+00        -0.79516E+08
 
   -0.78734E+08         0.17627E+06         0.00000E+00
    0.17627E+06        -0.97598E+08         0.00000E+00
    0.00000E+00         0.00000E+00        -0.79276E+08
 
   -0.78538E+08         0.18170E+06         0.00000E+00
    0.18170E+06        -0.97598E+08         0.00000E+00
    0.00000E+00         0.00000E+00        -0.79037E+08
 
   -0.78337E+08         0.18636E+06         0.00000E+00
    0.18636E+06        -0.97598E+08         0.00000E+00
    0.00000E+00         0.00000E+00        -0.78798E+08
 
   -0.78135E+08         0.18929E+06         0.00000E+00
    0.18929E+06        -0.97599E+08         0.00000E+00
    0.00000E+00         0.00000E+00        -0.78557E+08
 
   -0.77935E+08         0.18565E+06         0.00000E+00
    0.18565E+06        -0.97604E+08         0.00000E+00
    0.00000E+00         0.00000E+00        -0.78316E+08
 
   -0.77735E+08         0.17482E+06         0.00000E+00
    0.17482E+06        -0.97604E+08         0.00000E+00
    0.00000E+00         0.00000E+00        -0.78099E+08
 
   -0.77538E+08         0.16931E+06         0.00000E+00
    0.16931E+06        -0.97600E+08         0.00000E+00
    0.00000E+00         0.00000E+00        -0.77900E+08
 
   -0.77344E+08         0.16852E+06         0.00000E+00
    0.16852E+06        -0.97600E+08         0.00000E+00
    0.00000E+00         0.00000E+00        -0.77700E+08
 
   -0.77153E+08         0.16873E+06         0.00000E+00
    0.16873E+06        -0.97600E+08         0.00000E+00
    0.00000E+00         0.00000E+00        -0.77498E+08
 
   -0.76962E+08         0.16947E+06         0.00000E+00
    0.16947E+06        -0.97600E+08         0.00000E+00
    0.00000E+00         0.00000E+00        -0.77295E+08
 
   -0.76771E+08         0.17061E+06         0.00000E+00
    0.17061E+06        -0.97600E+08         0.00000E+00
    0.00000E+00         0.00000E+00        -0.77090E+08
 
   -0.76579E+08         0.17200E+06         0.00000E+00
    0.17200E+06        -0.97600E+08         0.00000E+00
    0.00000E+00         0.00000E+00        -0.76884E+08
 
   -0.76385E+08         0.17354E+06         0.00000E+00
    0.17354E+06        -0.97599E+08         0.00000E+00
    0.00000E+00         0.00000E+00        -0.76676E+08
 
   -0.76191E+08         0.17520E+06         0.00000E+00
    0.17520E+06        -0.97599E+08         0.00000E+00
    0.00000E+00         0.00000E+00        -0.76466E+08
 
   -0.75995E+08         0.17692E+06         0.00000E+00
    0.17692E+06        -0.97599E+08         0.00000E+00
    0.00000E+00         0.00000E+00        -0.76254E+08
 
   -0.75798E+08         0.17871E+06         0.00000E+00
    0.17871E+06        -0.97599E+08         0.00000E+00
    0.00000E+00         0.00000E+00        -0.76041E+08
 
   -0.75600E+08         0.18055E+06         0.00000E+00
    0.18055E+06        -0.97599E+08         0.00000E+00
    0.00000E+00         0.00000E+00        -0.75826E+08
 
   -0.75403E+08         0.18094E+06         0.00000E+00
    0.18094E+06        -0.97600E+08         0.00000E+00
    0.00000E+00         0.00000E+00        -0.75610E+08
 
   -0.75207E+08         0.17811E+06         0.00000E+00
    0.17811E+06        -0.97603E+08         0.00000E+00
    0.00000E+00         0.00000E+00        -0.75397E+08
 
   -0.75012E+08         0.17115E+06         0.00000E+00
    0.17115E+06        -0.97602E+08         0.00000E+00
    0.00000E+00         0.00000E+00        -0.75200E+08
 
   -0.74820E+08         0.16787E+06         0.00000E+00
    0.16787E+06        -0.97601E+08         0.00000E+00
    0.00000E+00         0.00000E+00        -0.75008E+08
 
   -0.74631E+08         0.16658E+06         0.00000E+00
    0.16658E+06        -0.97600E+08         0.00000E+00
    0.00000E+00         0.00000E+00        -0.74815E+08
 
   -0.74444E+08         0.16601E+06         0.00000E+00
    0.16601E+06        -0.97600E+08         0.00000E+00
    0.00000E+00         0.00000E+00        -0.74622E+08
 
   -0.74257E+08         0.16593E+06         0.00000E+00
    0.16593E+06        -0.97600E+08         0.00000E+00
    0.00000E+00         0.00000E+00        -0.74428E+08
 
   -0.74072E+08         0.16616E+06         0.00000E+00
    0.16616E+06        -0.97600E+08         0.00000E+00
    0.00000E+00         0.00000E+00        -0.74233E+08
 
   -0.73886E+08         0.16657E+06         0.00000E+00
    0.16657E+06        -0.97600E+08         0.00000E+00
    0.00000E+00         0.00000E+00        -0.74038E+08
 
   -0.73702E+08         0.16693E+06         0.00000E+00
    0.16693E+06        -0.97600E+08         0.00000E+00
    0.00000E+00         0.00000E+00        -0.73842E+08
 
   -0.73519E+08         0.16574E+06         0.00000E+00
    0.16574E+06        -0.97601E+08         0.00000E+00
    0.00000E+00         0.00000E+00        -0.73646E+08
 
   -0.73336E+08         0.16219E+06         0.00000E+00
    0.16219E+06        -0.97602E+08         0.00000E+00
    0.00000E+00         0.00000E+00        -0.73456E+08
 
   -0.73156E+08         0.15832E+06         0.00000E+00
    0.15832E+06        -0.97601E+08         0.00000E+00
    0.00000E+00         0.00000E+00        -0.73275E+08
 
   -0.72978E+08         0.15685E+06         0.00000E+00
    0.15685E+06        -0.97600E+08         0.00000E+00
    0.00000E+00         0.00000E+00        -0.73094E+08
 
   -0.72802E+08         0.15618E+06         0.00000E+00
    0.15618E+06        -0.97600E+08         0.00000E+00
    0.00000E+00         0.00000E+00        -0.72913E+08
 
   -0.72627E+08         0.15586E+06         0.00000E+00
    0.15586E+06        -0.97600E+08         0.00000E+00
    0.00000E+00         0.00000E+00        -0.72732E+08
 
   -0.72453E+08         0.15569E+06         0.00000E+00
    0.15569E+06        -0.97600E+08         0.00000E+00
    0.00000E+00         0.00000E+00        -0.72551E+08
 
   -0.72279E+08         0.15553E+06         0.00000E+00
    0.15553E+06        -0.97600E+08         0.00000E+00
    0.00000E+00         0.00000E+00        -0.72369E+08
 
   -0.72106E+08         0.15522E+06         0.00000E+00
    0.15522E+06        -0.97600E+08         0.00000E+00
    0.00000E+00         0.00000E+00        -0.72187E+08
 
   -0.71935E+08         0.15401E+06         0.00000E+00
    0.15401E+06        -0.97601E+08         0.00000E+00
    0.00000E+00         0.00000E+00        -0.72006E+08
 
   -0.71765E+08         0.15142E+06         0.00000E+00
    0.15142E+06        -0.97602E+08         0.00000E+00
    0.00000E+00         0.00000E+00        -0.71827E+08
 
   -0.71596E+08         0.14932E+06         0.00000E+00
    0.14932E+06        -0.97600E+08         0.00000E+00
    0.00000E+00         0.00000E+00        -0.71653E+08
 
   -0.71429E+08         0.14830E+06         0.00000E+00
    0.14830E+06        -0.97600E+08         0.00000E+00
    0.00000E+00         0.00000E+00        -0.71479E+08
 
   -0.71263E+08         0.14767E+06         0.00000E+00
    0.14767E+06        -0.97600E+08         0.00000E+00
    0.00000E+00         0.00000E+00        -0.71305E+08
 
   -0.71098E+08         0.14712E+06         0.00000E+00
    0.14712E+06        -0.97600E+08         0.00000E+00
    0.00000E+00         0.00000E+00        -0.71131E+08
 
   -0.70934E+08         0.14659E+06         0.00000E+00
    0.14659E+06        -0.97600E+08         0.00000E+00
    0.00000E+00         0.00000E+00        -0.70957E+08
 
   -0.70770E+08         0.14604E+06         0.00000E+00
    0.14604E+06        -0.97600E+08         0.00000E+00
    0.00000E+00         0.00000E+00        -0.70783E+08
 
   -0.70607E+08         0.14546E+06         0.00000E+00
    0.14546E+06        -0.97600E+08         0.00000E+00
    0.00000E+00         0.00000E+00        -0.70608E+08
 
   -0.70445E+08         0.14484E+06         0.00000E+00
    0.14484E+06        -0.97600E+08         0.00000E+00
    0.00000E+00         0.00000E+00        -0.70433E+08
 
   -0.70283E+08         0.14417E+06         0.00000E+00
    0.14417E+06        -0.97600E+08         0.00000E+00
    0.00000E+00         0.00000E+00        -0.70258E+08
 
   -0.70123E+08         0.14347E+06         0.00000E+00
    0.14347E+06        -0.97600E+08         0.00000E+00
    0.00000E+00         0.00000E+00        -0.70083E+08
 
   -0.69965E+08         0.14271E+06         0.00000E+00
    0.14271E+06        -0.97599E+08         0.00000E+00
    0.00000E+00         0.00000E+00        -0.69910E+08
 
   -0.69809E+08         0.14189E+06         0.00000E+00
    0.14189E+06        -0.97595E+08         0.00000E+00
    0.00000E+00         0.00000E+00        -0.69737E+08
 
   -0.69654E+08         0.14103E+06         0.00000E+00
    0.14103E+06        -0.97591E+08         0.00000E+00
    0.00000E+00         0.00000E+00        -0.69565E+08
 
   -0.69500E+08         0.14014E+06         0.00000E+00
    0.14014E+06        -0.97588E+08         0.00000E+00
    0.00000E+00         0.00000E+00        -0.69392E+08
 
   -0.69347E+08         0.13922E+06         0.00000E+00
    0.13922E+06        -0.97585E+08         0.00000E+00
    0.00000E+00         0.00000E+00        -0.69218E+08
 
   -0.69195E+08         0.13825E+06         0.00000E+00
    0.13825E+06        -0.97581E+08         0.00000E+00
    0.00000E+00         0.00000E+00        -0.69044E+08
 
   -0.69043E+08         0.13725E+06         0.00000E+00
    0.13725E+06        -0.97578E+08         0.00000E+00
    0.00000E+00         0.00000E+00        -0.68870E+08
 
   -0.68893E+08         0.13619E+06         0.00000E+00
    0.13619E+06        -0.97575E+08         0.00000E+00
    0.00000E+00         0.00000E+00        -0.68694E+08
 
   -0.68743E+08         0.13509E+06         0.00000E+00
    0.13509E+06        -0.97573E+08         0.00000E+00
    0.00000E+00         0.00000E+00        -0.68519E+08
 
   -0.68595E+08         0.13391E+06         0.00000E+00
    0.13391E+06        -0.97570E+08         0.00000E+00
    0.00000E+00         0.00000E+00        -0.68342E+08
 
   -0.68448E+08         0.13263E+06         0.00000E+00
    0.13263E+06        -0.97568E+08         0.00000E+00
    0.00000E+00         0.00000E+00        -0.68164E+08
 
   -0.68302E+08         0.13123E+06         0.00000E+00
    0.13123E+06        -0.97565E+08         0.00000E+00
    0.00000E+00         0.00000E+00        -0.67986E+08
 
   -0.68158E+08         0.12966E+06         0.00000E+00
    0.12966E+06        -0.97563E+08         0.00000E+00
    0.00000E+00         0.00000E+00        -0.67806E+08
 
   -0.68015E+08         0.12785E+06         0.00000E+00
    0.12785E+06        -0.97561E+08         0.00000E+00
    0.00000E+00         0.00000E+00        -0.67625E+08
 
   -0.67874E+08         0.12572E+06         0.00000E+00
    0.12572E+06        -0.97560E+08         0.00000E+00
    0.00000E+00         0.00000E+00        -0.67442E+08
 
   -0.67736E+08         0.12316E+06         0.00000E+00
    0.12316E+06        -0.97558E+08         0.00000E+00
    0.00000E+00         0.00000E+00        -0.67258E+08
 
   -0.67601E+08         0.12004E+06         0.00000E+00
    0.12004E+06        -0.97557E+08         0.00000E+00
    0.00000E+00         0.00000E+00        -0.67071E+08
 
   -0.67469E+08         0.11619E+06         0.00000E+00
    0.11619E+06        -0.97556E+08         0.00000E+00
    0.00000E+00         0.00000E+00        -0.66881E+08
 
   -0.67342E+08         0.11145E+06         0.00000E+00
    0.11145E+06        -0.97555E+08         0.00000E+00
    0.00000E+00         0.00000E+00        -0.66687E+08
 
   -0.67220E+08         0.10560E+06         0.00000E+00
    0.10560E+06        -0.97555E+08         0.00000E+00
    0.00000E+00         0.00000E+00        -0.66489E+08
 
   -0.67104E+08         0.98469E+05         0.00000E+00
    0.98469E+05        -0.97555E+08         0.00000E+00
    0.00000E+00         0.00000E+00        -0.66285E+08
 
   -0.66996E+08         0.89908E+05         0.00000E+00
    0.89908E+05        -0.97555E+08         0.00000E+00
    0.00000E+00         0.00000E+00        -0.66075E+08
 
   -0.66897E+08         0.79864E+05         0.00000E+00
    0.79864E+05        -0.97556E+08         0.00000E+00
    0.00000E+00         0.00000E+00        -0.65857E+08
 
   -0.66809E+08         0.68414E+05         0.00000E+00
    0.68414E+05        -0.97558E+08         0.00000E+00
    0.00000E+00         0.00000E+00        -0.65631E+08
 
   -0.66733E+08         0.55823E+05         0.00000E+00
    0.55823E+05        -0.97560E+08         0.00000E+00
    0.00000E+00         0.00000E+00        -0.65394E+08
 
   -0.66670E+08         0.42524E+05         0.00000E+00
    0.42524E+05        -0.97563E+08         0.00000E+00
    0.00000E+00         0.00000E+00        -0.65147E+08
 
   -0.66621E+08         0.29042E+05         0.00000E+00
    0.29042E+05        -0.97566E+08         0.00000E+00
    0.00000E+00         0.00000E+00        -0.64889E+08
 
   -0.66586E+08         0.16108E+05         0.00000E+00
    0.16108E+05        -0.97569E+08         0.00000E+00
    0.00000E+00         0.00000E+00        -0.64620E+08
 
   -0.66565E+08         0.34833E+04         0.00000E+00
    0.34833E+04        -0.97573E+08         0.00000E+00
    0.00000E+00         0.00000E+00        -0.64341E+08
 
   -0.66556E+08        -0.67888E+04         0.00000E+00
   -0.67888E+04        -0.97577E+08         0.00000E+00
    0.00000E+00         0.00000E+00        -0.64054E+08
 
   -0.66561E+08        -0.18650E+05         0.00000E+00
   -0.18650E+05        -0.97581E+08         0.00000E+00
    0.00000E+00         0.00000E+00        -0.63756E+08
 
   -0.66575E+08        -0.35007E+05         0.00000E+00
   -0.35007E+05        -0.97597E+08         0.00000E+00
    0.00000E+00         0.00000E+00        -0.63466E+08
 
   -0.66575E+08        -0.21634E+05         0.00000E+00
   -0.21634E+05        -0.97592E+08         0.00000E+00
    0.00000E+00         0.00000E+00        -0.63170E+08
 
   -0.80668E+08        -0.39079E+04         0.00000E+00
   -0.39079E+04        -0.97537E+08         0.00000E+00
    0.00000E+00         0.00000E+00        -0.85345E+08
 
   -0.80693E+08         0.15635E+05         0.00000E+00
    0.15635E+05        -0.97583E+08         0.00000E+00
    0.00000E+00         0.00000E+00        -0.84978E+08
 
   -0.80715E+08         0.39757E+05         0.00000E+00
    0.39757E+05        -0.97603E+08         0.00000E+00
    0.00000E+00         0.00000E+00        -0.84599E+08
 
   -0.80701E+08         0.44873E+05         0.00000E+00
    0.44873E+05        -0.97602E+08         0.00000E+00
    0.00000E+00         0.00000E+00        -0.84191E+08
 
   -0.80658E+08         0.48903E+05         0.00000E+00
    0.48903E+05        -0.97602E+08         0.00000E+00
    0.00000E+00         0.00000E+00        -0.83777E+08
 
   -0.80598E+08         0.53591E+05         0.00000E+00
    0.53591E+05        -0.97603E+08         0.00000E+00
    0.00000E+00         0.00000E+00        -0.83368E+08
 
   -0.80523E+08         0.56885E+05         0.00000E+00
    0.56885E+05        -0.97603E+08         0.00000E+00
    0.00000E+00         0.00000E+00        -0.82972E+08
 
   -0.80437E+08         0.58945E+05         0.00000E+00
    0.58945E+05        -0.97603E+08         0.00000E+00
    0.00000E+00         0.00000E+00        -0.82596E+08
 
   -0.80344E+08         0.60834E+05         0.00000E+00
    0.60834E+05        -0.97602E+08         0.00000E+00
    0.00000E+00         0.00000E+00        -0.82241E+08
 
   -0.80245E+08         0.64002E+05         0.00000E+00
    0.64002E+05        -0.97601E+08         0.00000E+00
    0.00000E+00         0.00000E+00        -0.81907E+08
 
   -0.80138E+08         0.69278E+05         0.00000E+00
    0.69278E+05        -0.97600E+08         0.00000E+00
    0.00000E+00         0.00000E+00        -0.81593E+08
 
   -0.80022E+08         0.76631E+05         0.00000E+00
    0.76631E+05        -0.97599E+08         0.00000E+00
    0.00000E+00         0.00000E+00        -0.81297E+08
 
   -0.79895E+08         0.85411E+05         0.00000E+00
    0.85411E+05        -0.97598E+08         0.00000E+00
    0.00000E+00         0.00000E+00        -0.81015E+08
 
   -0.79757E+08         0.94757E+05         0.00000E+00
    0.94757E+05        -0.97598E+08         0.00000E+00
    0.00000E+00         0.00000E+00        -0.80746E+08
 
   -0.79608E+08         0.10392E+06         0.00000E+00
    0.10392E+06        -0.97598E+08         0.00000E+00
    0.00000E+00         0.00000E+00        -0.80487E+08
 
   -0.79449E+08         0.11239E+06         0.00000E+00
    0.11239E+06        -0.97598E+08         0.00000E+00
    0.00000E+00         0.00000E+00        -0.80234E+08
 
   -0.79280E+08         0.11994E+06         0.00000E+00
    0.11994E+06        -0.97599E+08         0.00000E+00
    0.00000E+00         0.00000E+00        -0.79988E+08
 
   -0.79102E+08         0.12654E+06         0.00000E+00
    0.12654E+06        -0.97599E+08         0.00000E+00
    0.00000E+00         0.00000E+00        -0.79745E+08
 
   -0.78916E+08         0.13228E+06         0.00000E+00
    0.13228E+06        -0.97599E+08         0.00000E+00
    0.00000E+00         0.00000E+00        -0.79505E+08
 
   -0.78724E+08         0.13732E+06         0.00000E+00
    0.13732E+06        -0.97599E+08         0.00000E+00
    0.00000E+00         0.00000E+00        -0.79266E+08
 
   -0.78526E+08         0.14181E+06         0.00000E+00
    0.14181E+06        -0.97599E+08         0.00000E+00
    0.00000E+00         0.00000E+00        -0.79027E+08
 
   -0.78324E+08         0.14579E+06         0.00000E+00
    0.14579E+06        -0.97599E+08         0.00000E+00
    0.00000E+00         0.00000E+00        -0.78788E+08
 
   -0.78120E+08         0.14889E+06         0.00000E+00
    0.14889E+06        -0.97599E+08         0.00000E+00
    0.00000E+00         0.00000E+00        -0.78548E+08
 
   -0.77918E+08         0.14588E+06         0.00000E+00
    0.14588E+06        -0.97603E+08         0.00000E+00
    0.00000E+00         0.00000E+00        -0.78308E+08
 
   -0.77718E+08         0.13469E+06         0.00000E+00
    0.13469E+06        -0.97602E+08         0.00000E+00
    0.00000E+00         0.00000E+00        -0.78090E+08
 
   -0.77522E+08         0.13041E+06         0.00000E+00
    0.13041E+06        -0.97600E+08         0.00000E+00
    0.00000E+00         0.00000E+00        -0.77892E+08
 
   -0.77331E+08         0.13038E+06         0.00000E+00
    0.13038E+06        -0.97600E+08         0.00000E+00
    0.00000E+00         0.00000E+00        -0.77692E+08
 
   -0.77141E+08         0.13067E+06         0.00000E+00
    0.13067E+06        -0.97600E+08         0.00000E+00
    0.00000E+00         0.00000E+00        -0.77491E+08
 
   -0.76951E+08         0.13136E+06         0.00000E+00
    0.13136E+06        -0.97600E+08         0.00000E+00
    0.00000E+00         0.00000E+00        -0.77288E+08
 
   -0.76761E+08         0.13234E+06         0.00000E+00
    0.13234E+06        -0.97600E+08         0.00000E+00
    0.00000E+00         0.00000E+00        -0.77084E+08
 
   -0.76569E+08         0.13351E+06         0.00000E+00
    0.13351E+06        -0.97600E+08         0.00000E+00
    0.00000E+00         0.00000E+00        -0.76878E+08
 
   -0.76377E+08         0.13480E+06         0.00000E+00
    0.13480E+06        -0.97600E+08         0.00000E+00
    0.00000E+00         0.00000E+00        -0.76670E+08
 
   -0.76182E+08         0.13617E+06         0.00000E+00
    0.13617E+06        -0.97600E+08         0.00000E+00
    0.00000E+00         0.00000E+00        -0.76460E+08
 
   -0.75987E+08         0.13763E+06         0.00000E+00
    0.13763E+06        -0.97600E+08         0.00000E+00
    0.00000E+00         0.00000E+00        -0.76249E+08
 
   -0.75790E+08         0.13916E+06         0.00000E+00
    0.13916E+06        -0.97600E+08         0.00000E+00
    0.00000E+00         0.00000E+00        -0.76036E+08
 
   -0.75591E+08         0.14098E+06         0.00000E+00
    0.14098E+06        -0.97599E+08         0.00000E+00
    0.00000E+00         0.00000E+00        -0.75821E+08
 
   -0.75393E+08         0.14174E+06         0.00000E+00
    0.14174E+06        -0.97599E+08         0.00000E+00
    0.00000E+00         0.00000E+00        -0.75605E+08
 
   -0.75196E+08         0.13881E+06         0.00000E+00
    0.13881E+06        -0.97602E+08         0.00000E+00
    0.00000E+00         0.00000E+00        -0.75394E+08
 
   -0.75001E+08         0.13236E+06         0.00000E+00
    0.13236E+06        -0.97601E+08         0.00000E+00
    0.00000E+00         0.00000E+00        -0.75197E+08
 
   -0.74810E+08         0.12991E+06         0.00000E+00
    0.12991E+06        -0.97600E+08         0.00000E+00
    0.00000E+00         0.00000E+00        -0.75005E+08
 
   -0.74623E+08         0.12911E+06         0.00000E+00
    0.12911E+06        -0.97600E+08         0.00000E+00
    0.00000E+00         0.00000E+00        -0.74813E+08
 
   -0.74436E+08         0.12877E+06         0.00000E+00
    0.12877E+06        -0.97600E+08         0.00000E+00
    0.00000E+00         0.00000E+00        -0.74620E+08
 
   -0.74251E+08         0.12880E+06         0.00000E+00
    0.12880E+06        -0.97600E+08         0.00000E+00
    0.00000E+00         0.00000E+00        -0.74426E+08
 
   -0.74066E+08         0.12909E+06         0.00000E+00
    0.12909E+06        -0.97600E+08         0.00000E+00
    0.00000E+00         0.00000E+00        -0.74231E+08
 
   -0.73880E+08         0.12955E+06         0.00000E+00
    0.12955E+06        -0.97600E+08         0.00000E+00
    0.00000E+00         0.00000E+00        -0.74036E+08
 
   -0.73696E+08         0.13012E+06         0.00000E+00
    0.13012E+06        -0.97600E+08         0.00000E+00
    0.00000E+00         0.00000E+00        -0.73841E+08
 
   -0.73512E+08         0.12938E+06         0.00000E+00
    0.12938E+06        -0.97600E+08         0.00000E+00
    0.00000E+00         0.00000E+00        -0.73645E+08
 
   -0.73330E+08         0.12573E+06         0.00000E+00
    0.12573E+06        -0.97602E+08         0.00000E+00
    0.00000E+00         0.00000E+00        -0.73455E+08
 
   -0.73150E+08         0.12260E+06         0.00000E+00
    0.12260E+06        -0.97600E+08         0.00000E+00
    0.00000E+00         0.00000E+00        -0.73274E+08
 
   -0.72974E+08         0.12159E+06         0.00000E+00
    0.12159E+06        -0.97600E+08         0.00000E+00
    0.00000E+00         0.00000E+00        -0.73093E+08
 
   -0.72798E+08         0.12115E+06         0.00000E+00
    0.12115E+06        -0.97600E+08         0.00000E+00
    0.00000E+00         0.00000E+00        -0.72912E+08
 
   -0.72624E+08         0.12100E+06         0.00000E+00
    0.12100E+06        -0.97600E+08         0.00000E+00
    0.00000E+00         0.00000E+00        -0.72731E+08
 
   -0.72450E+08         0.12094E+06         0.00000E+00
    0.12094E+06        -0.97600E+08         0.00000E+00
    0.00000E+00         0.00000E+00        -0.72550E+08
 
   -0.72277E+08         0.12090E+06         0.00000E+00
    0.12090E+06        -0.97600E+08         0.00000E+00
    0.00000E+00         0.00000E+00        -0.72368E+08
 
   -0.72104E+08         0.12080E+06         0.00000E+00
    0.12080E+06        -0.97600E+08         0.00000E+00
    0.00000E+00         0.00000E+00        -0.72187E+08
 
   -0.71933E+08         0.11994E+06         0.00000E+00
    0.11994E+06        -0.97600E+08         0.00000E+00
    0.00000E+00         0.00000E+00        -0.72005E+08
 
   -0.71763E+08         0.11750E+06         0.00000E+00
    0.11750E+06        -0.97601E+08         0.00000E+00
    0.00000E+00         0.00000E+00        -0.71826E+08
 
   -0.71595E+08         0.11575E+06         0.00000E+00
    0.11575E+06        -0.97600E+08         0.00000E+00
    0.00000E+00         0.00000E+00        -0.71652E+08
 
   -0.71428E+08         0.11506E+06         0.00000E+00
    0.11506E+06        -0.97600E+08         0.00000E+00
    0.00000E+00         0.00000E+00        -0.71478E+08
 
   -0.71263E+08         0.11463E+06         0.00000E+00
    0.11463E+06        -0.97600E+08         0.00000E+00
    0.00000E+00         0.00000E+00        -0.71304E+08
 
   -0.71098E+08         0.11423E+06         0.00000E+00
    0.11423E+06        -0.97600E+08         0.00000E+00
    0.00000E+00         0.00000E+00        -0.71130E+08
 
   -0.70934E+08         0.11385E+06         0.00000E+00
    0.11385E+06        -0.97600E+08         0.00000E+00
    0.00000E+00         0.00000E+00        -0.70956E+08
 
   -0.70771E+08         0.11343E+06         0.00000E+00
    0.11343E+06        -0.97600E+08         0.00000E+00
    0.00000E+00         0.00000E+00        -0.70781E+08
 
   -0.70609E+08         0.11299E+06         0.00000E+00
    0.11299E+06        -0.97600E+08         0.00000E+00
    0.00000E+00         0.00000E+00        -0.70606E+08
 
   -0.70447E+08         0.11251E+06         0.00000E+00
    0.11251E+06        -0.97600E+08         0.00000E+00
    0.00000E+00         0.00000E+00        -0.70432E+08
 
   -0.70286E+08         0.11200E+06         0.00000E+00
    0.11200E+06        -0.97600E+08         0.00000E+00
    0.00000E+00         0.00000E+00        -0.70256E+08
 
   -0.70125E+08         0.11145E+06         0.00000E+00
    0.11145E+06        -0.97600E+08         0.00000E+00
    0.00000E+00         0.00000E+00        -0.70081E+08
 
   -0.69967E+08         0.11086E+06         0.00000E+00
    0.11086E+06        -0.97599E+08         0.00000E+00
    0.00000E+00         0.00000E+00        -0.69907E+08
 
   -0.69812E+08         0.11022E+06         0.00000E+00
    0.11022E+06        -0.97595E+08         0.00000E+00
    0.00000E+00         0.00000E+00        -0.69734E+08
 
   -0.69657E+08         0.10955E+06         0.00000E+00
    0.10955E+06        -0.97592E+08         0.00000E+00
    0.00000E+00         0.00000E+00        -0.69562E+08
 
   -0.69504E+08         0.10885E+06         0.00000E+00
    0.10885E+06        -0.97588E+08         0.00000E+00
    0.00000E+00         0.00000E+00        -0.69388E+08
 
   -0.69351E+08         0.10812E+06         0.00000E+00
    0.10812E+06        -0.97585E+08         0.00000E+00
    0.00000E+00         0.00000E+00        -0.69214E+08
 
   -0.69199E+08         0.10737E+06         0.00000E+00
    0.10737E+06        -0.97582E+08         0.00000E+00
    0.00000E+00         0.00000E+00        -0.69040E+08
 
   -0.69048E+08         0.10658E+06         0.00000E+00
    0.10658E+06        -0.97579E+08         0.00000E+00
    0.00000E+00         0.00000E+00        -0.68865E+08
 
   -0.68898E+08         0.10576E+06         0.00000E+00
    0.10576E+06        -0.97576E+08         0.00000E+00
    0.00000E+00         0.00000E+00        -0.68690E+08
 
   -0.68749E+08         0.10489E+06         0.00000E+00
    0.10489E+06        -0.97573E+08         0.00000E+00
    0.00000E+00         0.00000E+00        -0.68514E+08
 
   -0.68601E+08         0.10397E+06         0.00000E+00
    0.10397E+06        -0.97571E+08         0.00000E+00
    0.00000E+00         0.00000E+00        -0.68337E+08
 
   -0.68454E+08         0.10298E+06         0.00000E+00
    0.10298E+06        -0.97568E+08         0.00000E+00
    0.00000E+00         0.00000E+00        -0.68159E+08
 
   -0.68308E+08         0.10189E+06         0.00000E+00
    0.10189E+06        -0.97566E+08         0.00000E+00
    0.00000E+00         0.00000E+00        -0.67980E+08
 
   -0.68164E+08         0.10067E+06         0.00000E+00
    0.10067E+06        -0.97564E+08         0.00000E+00
    0.00000E+00         0.00000E+00        -0.67800E+08
 
   -0.68022E+08         0.99258E+05         0.00000E+00
    0.99258E+05        -0.97562E+08         0.00000E+00
    0.00000E+00         0.00000E+00        -0.67618E+08
 
   -0.67882E+08         0.97599E+05         0.00000E+00
    0.97599E+05        -0.97560E+08         0.00000E+00
    0.00000E+00         0.00000E+00        -0.67435E+08
 
   -0.67744E+08         0.95602E+05         0.00000E+00
    0.95602E+05        -0.97558E+08         0.00000E+00
    0.00000E+00         0.00000E+00        -0.67250E+08
 
   -0.67609E+08         0.93163E+05         0.00000E+00
    0.93163E+05        -0.97557E+08         0.00000E+00
    0.00000E+00         0.00000E+00        -0.67062E+08
 
   -0.67478E+08         0.90151E+05         0.00000E+00
    0.90151E+05        -0.97556E+08         0.00000E+00
    0.00000E+00         0.00000E+00        -0.66872E+08
 
   -0.67351E+08         0.86420E+05         0.00000E+00
    0.86420E+05        -0.97555E+08         0.00000E+00
    0.00000E+00         0.00000E+00        -0.66678E+08
 
   -0.67230E+08         0.81815E+05         0.00000E+00
    0.81815E+05        -0.97554E+08         0.00000E+00
    0.00000E+00         0.00000E+00        -0.66479E+08
 
   -0.67115E+08         0.76187E+05         0.00000E+00
    0.76187E+05        -0.97554E+08         0.00000E+00
    0.00000E+00         0.00000E+00        -0.66274E+08
 
   -0.67008E+08         0.69424E+05         0.00000E+00
    0.69424E+05        -0.97555E+08         0.00000E+00
    0.00000E+00         0.00000E+00        -0.66063E+08
 
   -0.66911E+08         0.61484E+05         0.00000E+00
    0.61484E+05        -0.97555E+08         0.00000E+00
    0.00000E+00         0.00000E+00        -0.65844E+08
 
   -0.66824E+08         0.52449E+05         0.00000E+00
    0.52449E+05        -0.97557E+08         0.00000E+00
    0.00000E+00         0.00000E+00        -0.65616E+08
 
   -0.66750E+08         0.42514E+05         0.00000E+00
    0.42514E+05        -0.97559E+08         0.00000E+00
    0.00000E+00         0.00000E+00        -0.65377E+08
 
   -0.66689E+08         0.32105E+05         0.00000E+00
    0.32105E+05        -0.97561E+08         0.00000E+00
    0.00000E+00         0.00000E+00        -0.65128E+08
 
   -0.66643E+08         0.21507E+05         0.00000E+00
    0.21507E+05        -0.97564E+08         0.00000E+00
    0.00000E+00         0.00000E+00        -0.64868E+08
 
   -0.66610E+08         0.11551E+05         0.00000E+00
    0.11551E+05        -0.97567E+08         0.00000E+00
    0.00000E+00         0.00000E+00        -0.64597E+08
 
   -0.66592E+08         0.17210E+04         0.00000E+00
    0.17210E+04        -0.97571E+08         0.00000E+00
    0.00000E+00         0.00000E+00        -0.64316E+08
 
   -0.66586E+08        -0.66059E+04         0.00000E+00
   -0.66059E+04        -0.97576E+08         0.00000E+00
    0.00000E+00         0.00000E+00        -0.64027E+08
 
   -0.66592E+08        -0.13551E+05         0.00000E+00
   -0.13551E+05        -0.97577E+08         0.00000E+00
    0.00000E+00         0.00000E+00        -0.63727E+08
 
   -0.66614E+08        -0.31706E+05         0.00000E+00
   -0.31706E+05        -0.97593E+08         0.00000E+00
    0.00000E+00         0.00000E+00        -0.63430E+08
 
   -0.66621E+08        -0.23274E+05         0.00000E+00
   -0.23274E+05        -0.97600E+08         0.00000E+00
    0.00000E+00         0.00000E+00        -0.63141E+08
 
   -0.80715E+08        -0.59931E+04         0.00000E+00
   -0.59931E+04        -0.97531E+08         0.00000E+00
    0.00000E+00         0.00000E+00        -0.85382E+08
 
   -0.80731E+08         0.22065E+05         0.00000E+00
    0.22065E+05        -0.97593E+08         0.00000E+00
    0.00000E+00         0.00000E+00        -0.85024E+08
 
   -0.80727E+08         0.39270E+05         0.00000E+00
    0.39270E+05        -0.97605E+08         0.00000E+00
    0.00000E+00         0.00000E+00        -0.84638E+08
 
   -0.80686E+08         0.36483E+05         0.00000E+00
    0.36483E+05        -0.97603E+08         0.00000E+00
    0.00000E+00         0.00000E+00        -0.84223E+08
 
   -0.80628E+08         0.37625E+05         0.00000E+00
    0.37625E+05        -0.97603E+08         0.00000E+00
    0.00000E+00         0.00000E+00        -0.83801E+08
 
   -0.80559E+08         0.39305E+05         0.00000E+00
    0.39305E+05        -0.97603E+08         0.00000E+00
    0.00000E+00         0.00000E+00        -0.83385E+08
 
   -0.80480E+08         0.40553E+05         0.00000E+00
    0.40553E+05        -0.97604E+08         0.00000E+00
    0.00000E+00         0.00000E+00        -0.82983E+08
 
   -0.80394E+08         0.41161E+05         0.00000E+00
    0.41161E+05        -0.97603E+08         0.00000E+00
    0.00000E+00         0.00000E+00        -0.82601E+08
 
   -0.80304E+08         0.41887E+05         0.00000E+00
    0.41887E+05        -0.97603E+08         0.00000E+00
    0.00000E+00         0.00000E+00        -0.82241E+08
 
   -0.80208E+08         0.43803E+05         0.00000E+00
    0.43803E+05        -0.97602E+08         0.00000E+00
    0.00000E+00         0.00000E+00        -0.81904E+08
 
   -0.80106E+08         0.47491E+05         0.00000E+00
    0.47491E+05        -0.97601E+08         0.00000E+00
    0.00000E+00         0.00000E+00        -0.81587E+08
 
   -0.79995E+08         0.52880E+05         0.00000E+00
    0.52880E+05        -0.97601E+08         0.00000E+00
    0.00000E+00         0.00000E+00        -0.81288E+08
 
   -0.79873E+08         0.59422E+05         0.00000E+00
    0.59422E+05        -0.97600E+08         0.00000E+00
    0.00000E+00         0.00000E+00        -0.81005E+08
 
   -0.79739E+08         0.66425E+05         0.00000E+00
    0.66425E+05        -0.97600E+08         0.00000E+00
    0.00000E+00         0.00000E+00        -0.80735E+08
 
   -0.79594E+08         0.73295E+05         0.00000E+00
    0.73295E+05        -0.97600E+08         0.00000E+00
    0.00000E+00         0.00000E+00        -0.80475E+08
 
   -0.79437E+08         0.79641E+05         0.00000E+00
    0.79641E+05        -0.97600E+08         0.00000E+00
    0.00000E+00         0.00000E+00        -0.80223E+08
 
   -0.79269E+08         0.85285E+05         0.00000E+00
    0.85285E+05        -0.97600E+08         0.00000E+00
    0.00000E+00         0.00000E+00        -0.79977E+08
 
   -0.79092E+08         0.90206E+05         0.00000E+00
    0.90206E+05        -0.97600E+08         0.00000E+00
    0.00000E+00         0.00000E+00        -0.79734E+08
 
   -0.78907E+08         0.94489E+05         0.00000E+00
    0.94489E+05        -0.97600E+08         0.00000E+00
    0.00000E+00         0.00000E+00        -0.79494E+08
 
   -0.78714E+08         0.98264E+05         0.00000E+00
    0.98264E+05        -0.97600E+08         0.00000E+00
    0.00000E+00         0.00000E+00        -0.79256E+08
 
   -0.78516E+08         0.10169E+06         0.00000E+00
    0.10169E+06        -0.97600E+08         0.00000E+00
    0.00000E+00         0.00000E+00        -0.79017E+08
 
   -0.78312E+08         0.10479E+06         0.00000E+00
    0.10479E+06        -0.97600E+08         0.00000E+00
    0.00000E+00         0.00000E+00        -0.78779E+08
 
   -0.78105E+08         0.10782E+06         0.00000E+00
    0.10782E+06        -0.97600E+08         0.00000E+00
    0.00000E+00         0.00000E+00        -0.78539E+08
 
   -0.77900E+08         0.10597E+06         0.00000E+00
    0.10597E+06        -0.97601E+08         0.00000E+00
    0.00000E+00         0.00000E+00        -0.78299E+08
 
   -0.77700E+08         0.94582E+05         0.00000E+00
    0.94582E+05        -0.97600E+08         0.00000E+00
    0.00000E+00         0.00000E+00        -0.78082E+08
 
   -0.77506E+08         0.92085E+05         0.00000E+00
    0.92085E+05        -0.97600E+08         0.00000E+00
    0.00000E+00         0.00000E+00        -0.77884E+08
 
   -0.77317E+08         0.92604E+05         0.00000E+00
    0.92604E+05        -0.97600E+08         0.00000E+00
    0.00000E+00         0.00000E+00        -0.77685E+08
 
   -0.77129E+08         0.92872E+05         0.00000E+00
    0.92872E+05        -0.97600E+08         0.00000E+00
    0.00000E+00         0.00000E+00        -0.77484E+08
 
   -0.76941E+08         0.93482E+05         0.00000E+00
    0.93482E+05        -0.97600E+08         0.00000E+00
    0.00000E+00         0.00000E+00        -0.77282E+08
 
   -0.76751E+08         0.94252E+05         0.00000E+00
    0.94252E+05        -0.97600E+08         0.00000E+00
    0.00000E+00         0.00000E+00        -0.77078E+08
 
   -0.76561E+08         0.95156E+05         0.00000E+00
    0.95156E+05        -0.97600E+08         0.00000E+00
    0.00000E+00         0.00000E+00        -0.76872E+08
 
   -0.76369E+08         0.96147E+05         0.00000E+00
    0.96147E+05        -0.97600E+08         0.00000E+00
    0.00000E+00         0.00000E+00        -0.76664E+08
 
   -0.76175E+08         0.97201E+05         0.00000E+00
    0.97201E+05        -0.97600E+08         0.00000E+00
    0.00000E+00         0.00000E+00        -0.76455E+08
 
   -0.75979E+08         0.98334E+05         0.00000E+00
    0.98334E+05        -0.97600E+08         0.00000E+00
    0.00000E+00         0.00000E+00        -0.76244E+08
 
   -0.75782E+08         0.99525E+05         0.00000E+00
    0.99525E+05        -0.97600E+08         0.00000E+00
    0.00000E+00         0.00000E+00        -0.76031E+08
 
   -0.75582E+08         0.10114E+06         0.00000E+00
    0.10114E+06        -0.97600E+08         0.00000E+00
    0.00000E+00         0.00000E+00        -0.75817E+08
 
   -0.75383E+08         0.10232E+06         0.00000E+00
    0.10232E+06        -0.97599E+08         0.00000E+00
    0.00000E+00         0.00000E+00        -0.75601E+08
 
   -0.75185E+08         0.99398E+05         0.00000E+00
    0.99398E+05        -0.97601E+08         0.00000E+00
    0.00000E+00         0.00000E+00        -0.75390E+08
 
   -0.74990E+08         0.93763E+05         0.00000E+00
    0.93763E+05        -0.97600E+08         0.00000E+00
    0.00000E+00         0.00000E+00        -0.75194E+08
 
   -0.74801E+08         0.92261E+05         0.00000E+00
    0.92261E+05        -0.97600E+08         0.00000E+00
    0.00000E+00         0.00000E+00        -0.75003E+08
 
   -0.74614E+08         0.91858E+05         0.00000E+00
    0.91858E+05        -0.97600E+08         0.00000E+00
    0.00000E+00         0.00000E+00        -0.74810E+08
 
   -0.74429E+08         0.91694E+05         0.00000E+00
    0.91694E+05        -0.97600E+08         0.00000E+00
    0.00000E+00         0.00000E+00        -0.74617E+08
 
   -0.74244E+08         0.91799E+05         0.00000E+00
    0.91799E+05        -0.97600E+08         0.00000E+00
    0.00000E+00         0.00000E+00        -0.74424E+08
 
   -0.74060E+08         0.92098E+05         0.00000E+00
    0.92098E+05        -0.97600E+08         0.00000E+00
    0.00000E+00         0.00000E+00        -0.74229E+08
 
   -0.73875E+08         0.92515E+05         0.00000E+00
    0.92515E+05        -0.97600E+08         0.00000E+00
    0.00000E+00         0.00000E+00        -0.74034E+08
 
   -0.73690E+08         0.93190E+05         0.00000E+00
    0.93190E+05        -0.97600E+08         0.00000E+00
    0.00000E+00         0.00000E+00        -0.73839E+08
 
   -0.73506E+08         0.93014E+05         0.00000E+00
    0.93014E+05        -0.97600E+08         0.00000E+00
    0.00000E+00         0.00000E+00        -0.73643E+08
 
   -0.73324E+08         0.89313E+05         0.00000E+00
    0.89313E+05        -0.97601E+08         0.00000E+00
    0.00000E+00         0.00000E+00        -0.73454E+08
 
   -0.73145E+08         0.87120E+05         0.00000E+00
    0.87120E+05        -0.97600E+08         0.00000E+00
    0.00000E+00         0.00000E+00        -0.73273E+08
 
   -0.72969E+08         0.86531E+05         0.00000E+00
    0.86531E+05        -0.97600E+08         0.00000E+00
    0.00000E+00         0.00000E+00        -0.73092E+08
 
   -0.72795E+08         0.86279E+05         0.00000E+00
    0.86279E+05        -0.97600E+08         0.00000E+00
    0.00000E+00         0.00000E+00        -0.72911E+08
 
   -0.72621E+08         0.86245E+05         0.00000E+00
    0.86245E+05        -0.97600E+08         0.00000E+00
    0.00000E+00         0.00000E+00        -0.72730E+08
 
   -0.72448E+08         0.86275E+05         0.00000E+00
    0.86275E+05        -0.97600E+08         0.00000E+00
    0.00000E+00         0.00000E+00        -0.72549E+08
 
   -0.72275E+08         0.86304E+05         0.00000E+00
    0.86304E+05        -0.97600E+08         0.00000E+00
    0.00000E+00         0.00000E+00        -0.72367E+08
 
   -0.72102E+08         0.86364E+05         0.00000E+00
    0.86364E+05        -0.97600E+08         0.00000E+00
    0.00000E+00         0.00000E+00        -0.72186E+08
 
   -0.71931E+08         0.85896E+05         0.00000E+00
    0.85896E+05        -0.97600E+08         0.00000E+00
    0.00000E+00         0.00000E+00        -0.72004E+08
 
   -0.71761E+08         0.83650E+05         0.00000E+00
    0.83650E+05        -0.97601E+08         0.00000E+00
    0.00000E+00         0.00000E+00        -0.71825E+08
 
   -0.71593E+08         0.82335E+05         0.00000E+00
    0.82335E+05        -0.97600E+08         0.00000E+00
    0.00000E+00         0.00000E+00        -0.71651E+08
 
   -0.71428E+08         0.81955E+05         0.00000E+00
    0.81955E+05        -0.97600E+08         0.00000E+00
    0.00000E+00         0.00000E+00        -0.71477E+08
 
   -0.71263E+08         0.81693E+05         0.00000E+00
    0.81693E+05        -0.97600E+08         0.00000E+00
    0.00000E+00         0.00000E+00        -0.71303E+08
 
   -0.71099E+08         0.81442E+05         0.00000E+00
    0.81442E+05        -0.97600E+08         0.00000E+00
    0.00000E+00         0.00000E+00        -0.71129E+08
 
   -0.70935E+08         0.81183E+05         0.00000E+00
    0.81183E+05        -0.97600E+08         0.00000E+00
    0.00000E+00         0.00000E+00        -0.70954E+08
 
   -0.70773E+08         0.80900E+05         0.00000E+00
    0.80900E+05        -0.97600E+08         0.00000E+00
    0.00000E+00         0.00000E+00        -0.70780E+08
 
   -0.70610E+08         0.80590E+05         0.00000E+00
    0.80590E+05        -0.97600E+08         0.00000E+00
    0.00000E+00         0.00000E+00        -0.70605E+08
 
   -0.70449E+08         0.80252E+05         0.00000E+00
    0.80252E+05        -0.97600E+08         0.00000E+00
    0.00000E+00         0.00000E+00        -0.70430E+08
 
   -0.70288E+08         0.79886E+05         0.00000E+00
    0.79886E+05        -0.97600E+08         0.00000E+00
    0.00000E+00         0.00000E+00        -0.70254E+08
 
   -0.70128E+08         0.79494E+05         0.00000E+00
    0.79494E+05        -0.97600E+08         0.00000E+00
    0.00000E+00         0.00000E+00        -0.70079E+08
 
   -0.69970E+08         0.79071E+05         0.00000E+00
    0.79071E+05        -0.97599E+08         0.00000E+00
    0.00000E+00         0.00000E+00        -0.69904E+08
 
   -0.69815E+08         0.78612E+05         0.00000E+00
    0.78612E+05        -0.97596E+08         0.00000E+00
    0.00000E+00         0.00000E+00        -0.69731E+08
 
   -0.69661E+08         0.78130E+05         0.00000E+00
    0.78130E+05        -0.97592E+08         0.00000E+00
    0.00000E+00         0.00000E+00        -0.69558E+08
 
   -0.69507E+08         0.77628E+05         0.00000E+00
    0.77628E+05        -0.97589E+08         0.00000E+00
    0.00000E+00         0.00000E+00        -0.69385E+08
 
   -0.69355E+08         0.77105E+05         0.00000E+00
    0.77105E+05        -0.97585E+08         0.00000E+00
    0.00000E+00         0.00000E+00        -0.69211E+08
 
   -0.69203E+08         0.76561E+05         0.00000E+00
    0.76561E+05        -0.97582E+08         0.00000E+00
    0.00000E+00         0.00000E+00        -0.69036E+08
 
   -0.69052E+08         0.75995E+05         0.00000E+00
    0.75995E+05        -0.97579E+08         0.00000E+00
    0.00000E+00         0.00000E+00        -0.68861E+08
 
   -0.68903E+08         0.75404E+05         0.00000E+00
    0.75404E+05        -0.97577E+08         0.00000E+00
    0.00000E+00         0.00000E+00        -0.68685E+08
 
   -0.68754E+08         0.74783E+05         0.00000E+00
    0.74783E+05        -0.97574E+08         0.00000E+00
    0.00000E+00         0.00000E+00        -0.68509E+08
 
   -0.68606E+08         0.74123E+05         0.00000E+00
    0.74123E+05        -0.97571E+08         0.00000E+00
    0.00000E+00         0.00000E+00        -0.68331E+08
 
   -0.68460E+08         0.73413E+05         0.00000E+00
    0.73413E+05        -0.97569E+08         0.00000E+00
    0.00000E+00         0.00000E+00        -0.68153E+08
 
   -0.68315E+08         0.72633E+05         0.00000E+00
    0.72633E+05        -0.97567E+08         0.00000E+00
    0.00000E+00         0.00000E+00        -0.67974E+08
 
   -0.68171E+08         0.71758E+05         0.00000E+00
    0.71758E+05        -0.97564E+08         0.00000E+00
    0.00000E+00         0.00000E+00        -0.67793E+08
 
   -0.68029E+08         0.70750E+05         0.00000E+00
    0.70750E+05        -0.97562E+08         0.00000E+00
    0.00000E+00         0.00000E+00        -0.67611E+08
 
   -0.67890E+08         0.69562E+05         0.00000E+00
    0.69562E+05        -0.97561E+08         0.00000E+00
    0.00000E+00         0.00000E+00        -0.67428E+08
 
   -0.67752E+08         0.68131E+05         0.00000E+00
    0.68131E+05        -0.97559E+08         0.00000E+00
    0.00000E+00         0.00000E+00        -0.67242E+08
 
   -0.67618E+08         0.66377E+05         0.00000E+00
    0.66377E+05        -0.97557E+08         0.00000E+00
    0.00000E+00         0.00000E+00        -0.67054E+08
 
   -0.67487E+08         0.64206E+05         0.00000E+00
    0.64206E+05        -0.97556E+08         0.00000E+00
    0.00000E+00         0.00000E+00        -0.66863E+08
 
   -0.67361E+08         0.61510E+05         0.00000E+00
    0.61510E+05        -0.97555E+08         0.00000E+00
    0.00000E+00         0.00000E+00        -0.66668E+08
 
   -0.67240E+08         0.58174E+05         0.00000E+00
    0.58174E+05        -0.97554E+08         0.00000E+00
    0.00000E+00         0.00000E+00        -0.66469E+08
 
   -0.67126E+08         0.54087E+05         0.00000E+00
    0.54087E+05        -0.97554E+08         0.00000E+00
    0.00000E+00         0.00000E+00        -0.66263E+08
 
   -0.67020E+08         0.49173E+05         0.00000E+00
    0.49173E+05        -0.97554E+08         0.00000E+00
    0.00000E+00         0.00000E+00        -0.66051E+08
 
   -0.66924E+08         0.43397E+05         0.00000E+00
    0.43397E+05        -0.97555E+08         0.00000E+00
    0.00000E+00         0.00000E+00        -0.65830E+08
 
   -0.66839E+08         0.36837E+05         0.00000E+00
    0.36837E+05        -0.97556E+08         0.00000E+00
    0.00000E+00         0.00000E+00        -0.65601E+08
 
   -0.66767E+08         0.29634E+05         0.00000E+00
    0.29634E+05        -0.97558E+08         0.00000E+00
    0.00000E+00         0.00000E+00        -0.65361E+08
 
   -0.66709E+08         0.22119E+05         0.00000E+00
    0.22119E+05        -0.97560E+08         0.00000E+00
    0.00000E+00         0.00000E+00        -0.65110E+08
 
   -0.66664E+08         0.14548E+05         0.00000E+00
    0.14548E+05        -0.97563E+08         0.00000E+00
    0.00000E+00         0.00000E+00        -0.64848E+08
 
   -0.66635E+08         0.72884E+04         0.00000E+00
    0.72884E+04        -0.97566E+08         0.00000E+00
    0.00000E+00         0.00000E+00        -0.64575E+08
 
   -0.66619E+08         0.83494E+03         0.00000E+00
    0.83494E+03        -0.97569E+08         0.00000E+00
    0.00000E+00         0.00000E+00        -0.64291E+08
 
   -0.66617E+08        -0.65139E+04         0.00000E+00
   -0.65139E+04        -0.97575E+08         0.00000E+00
    0.00000E+00         0.00000E+00        -0.64000E+08
 
   -0.66624E+08        -0.80547E+04         0.00000E+00
   -0.80547E+04        -0.97575E+08         0.00000E+00
    0.00000E+00         0.00000E+00        -0.63699E+08
 
   -0.66652E+08        -0.25301E+05         0.00000E+00
   -0.25301E+05        -0.97586E+08         0.00000E+00
    0.00000E+00         0.00000E+00        -0.63393E+08
 
   -0.66669E+08        -0.25457E+05         0.00000E+00
   -0.25457E+05        -0.97609E+08         0.00000E+00
    0.00000E+00         0.00000E+00        -0.63110E+08
 
   -0.80797E+08        -0.12518E+05         0.00000E+00
   -0.12518E+05        -0.97523E+08         0.00000E+00
    0.00000E+00         0.00000E+00        -0.85421E+08
 
   -0.80790E+08         0.26207E+05         0.00000E+00
    0.26207E+05        -0.97607E+08         0.00000E+00
    0.00000E+00         0.00000E+00        -0.85070E+08
 
   -0.80740E+08         0.30337E+05         0.00000E+00
    0.30337E+05        -0.97604E+08         0.00000E+00
    0.00000E+00         0.00000E+00        -0.84675E+08
 
   -0.80667E+08         0.23991E+05         0.00000E+00
    0.23991E+05        -0.97603E+08         0.00000E+00
    0.00000E+00         0.00000E+00        -0.84252E+08
 
   -0.80594E+08         0.24034E+05         0.00000E+00
    0.24034E+05        -0.97604E+08         0.00000E+00
    0.00000E+00         0.00000E+00        -0.83823E+08
 
   -0.80515E+08         0.23721E+05         0.00000E+00
    0.23721E+05        -0.97604E+08         0.00000E+00
    0.00000E+00         0.00000E+00        -0.83399E+08
 
   -0.80432E+08         0.23882E+05         0.00000E+00
    0.23882E+05        -0.97604E+08         0.00000E+00
    0.00000E+00         0.00000E+00        -0.82990E+08
 
   -0.80346E+08         0.23630E+05         0.00000E+00
    0.23630E+05        -0.97604E+08         0.00000E+00
    0.00000E+00         0.00000E+00        -0.82603E+08
 
   -0.80259E+08         0.23668E+05         0.00000E+00
    0.23668E+05        -0.97603E+08         0.00000E+00
    0.00000E+00         0.00000E+00        -0.82239E+08
 
   -0.80168E+08         0.24600E+05         0.00000E+00
    0.24600E+05        -0.97603E+08         0.00000E+00
    0.00000E+00         0.00000E+00        -0.81898E+08
 
   -0.80071E+08         0.26809E+05         0.00000E+00
    0.26809E+05        -0.97602E+08         0.00000E+00
    0.00000E+00         0.00000E+00        -0.81578E+08
 
   -0.79966E+08         0.30199E+05         0.00000E+00
    0.30199E+05        -0.97602E+08         0.00000E+00
    0.00000E+00         0.00000E+00        -0.81278E+08
 
   -0.79850E+08         0.34378E+05         0.00000E+00
    0.34378E+05        -0.97601E+08         0.00000E+00
    0.00000E+00         0.00000E+00        -0.80994E+08
 
   -0.79721E+08         0.38866E+05         0.00000E+00
    0.38866E+05        -0.97601E+08         0.00000E+00
    0.00000E+00         0.00000E+00        -0.80723E+08
 
   -0.79579E+08         0.43261E+05         0.00000E+00
    0.43261E+05        -0.97601E+08         0.00000E+00
    0.00000E+00         0.00000E+00        -0.80463E+08
 
   -0.79424E+08         0.47306E+05         0.00000E+00
    0.47306E+05        -0.97601E+08         0.00000E+00
    0.00000E+00         0.00000E+00        -0.80211E+08
 
   -0.79258E+08         0.50890E+05         0.00000E+00
    0.50890E+05        -0.97601E+08         0.00000E+00
    0.00000E+00         0.00000E+00        -0.79965E+08
 
   -0.79082E+08         0.54003E+05         0.00000E+00
    0.54003E+05        -0.97601E+08         0.00000E+00
    0.00000E+00         0.00000E+00        -0.79723E+08
 
   -0.78897E+08         0.56714E+05         0.00000E+00
    0.56714E+05        -0.97601E+08         0.00000E+00
    0.00000E+00         0.00000E+00        -0.79483E+08
 
   -0.78705E+08         0.59104E+05         0.00000E+00
    0.59104E+05        -0.97601E+08         0.00000E+00
    0.00000E+00         0.00000E+00        -0.79245E+08
 
   -0.78506E+08         0.61339E+05         0.00000E+00
    0.61339E+05        -0.97600E+08         0.00000E+00
    0.00000E+00         0.00000E+00        -0.79007E+08
 
   -0.78301E+08         0.63380E+05         0.00000E+00
    0.63380E+05        -0.97600E+08         0.00000E+00
    0.00000E+00         0.00000E+00        -0.78769E+08
 
   -0.78090E+08         0.65796E+05         0.00000E+00
    0.65796E+05        -0.97600E+08         0.00000E+00
    0.00000E+00         0.00000E+00        -0.78530E+08
 
   -0.77880E+08         0.65854E+05         0.00000E+00
    0.65854E+05        -0.97599E+08         0.00000E+00
    0.00000E+00         0.00000E+00        -0.78291E+08
 
   -0.77680E+08         0.54574E+05         0.00000E+00
    0.54574E+05        -0.97598E+08         0.00000E+00
    0.00000E+00         0.00000E+00        -0.78074E+08
 
   -0.77490E+08         0.54580E+05         0.00000E+00
    0.54580E+05        -0.97600E+08         0.00000E+00
    0.00000E+00         0.00000E+00        -0.77876E+08
 
   -0.77304E+08         0.55170E+05         0.00000E+00
    0.55170E+05        -0.97600E+08         0.00000E+00
    0.00000E+00         0.00000E+00        -0.77678E+08
 
   -0.77118E+08         0.55376E+05         0.00000E+00
    0.55376E+05        -0.97600E+08         0.00000E+00
    0.00000E+00         0.00000E+00        -0.77477E+08
 
   -0.76930E+08         0.55841E+05         0.00000E+00
    0.55841E+05        -0.97600E+08         0.00000E+00
    0.00000E+00         0.00000E+00        -0.77275E+08
 
   -0.76742E+08         0.56352E+05         0.00000E+00
    0.56352E+05        -0.97600E+08         0.00000E+00
    0.00000E+00         0.00000E+00        -0.77071E+08
 
   -0.76552E+08         0.56951E+05         0.00000E+00
    0.56951E+05        -0.97600E+08         0.00000E+00
    0.00000E+00         0.00000E+00        -0.76866E+08
 
   -0.76361E+08         0.57597E+05         0.00000E+00
    0.57597E+05        -0.97600E+08         0.00000E+00
    0.00000E+00         0.00000E+00        -0.76659E+08
 
   -0.76167E+08         0.58280E+05         0.00000E+00
    0.58280E+05        -0.97600E+08         0.00000E+00
    0.00000E+00         0.00000E+00        -0.76450E+08
 
   -0.75972E+08         0.59033E+05         0.00000E+00
    0.59033E+05        -0.97600E+08         0.00000E+00
    0.00000E+00         0.00000E+00        -0.76239E+08
 
   -0.75774E+08         0.59820E+05         0.00000E+00
    0.59820E+05        -0.97600E+08         0.00000E+00
    0.00000E+00         0.00000E+00        -0.76027E+08
 
   -0.75574E+08         0.60957E+05         0.00000E+00
    0.60957E+05        -0.97600E+08         0.00000E+00
    0.00000E+00         0.00000E+00        -0.75813E+08
 
   -0.75372E+08         0.62579E+05         0.00000E+00
    0.62579E+05        -0.97599E+08         0.00000E+00
    0.00000E+00         0.00000E+00        -0.75597E+08
 
   -0.75172E+08         0.59833E+05         0.00000E+00
    0.59833E+05        -0.97600E+08         0.00000E+00
    0.00000E+00         0.00000E+00        -0.75387E+08
 
   -0.74979E+08         0.55463E+05         0.00000E+00
    0.55463E+05        -0.97600E+08         0.00000E+00
    0.00000E+00         0.00000E+00        -0.75192E+08
 
   -0.74791E+08         0.54973E+05         0.00000E+00
    0.54973E+05        -0.97600E+08         0.00000E+00
    0.00000E+00         0.00000E+00        -0.75000E+08
 
   -0.74606E+08         0.54839E+05         0.00000E+00
    0.54839E+05        -0.97600E+08         0.00000E+00
    0.00000E+00         0.00000E+00        -0.74808E+08
 
   -0.74422E+08         0.54804E+05         0.00000E+00
    0.54804E+05        -0.97600E+08         0.00000E+00
    0.00000E+00         0.00000E+00        -0.74615E+08
 
   -0.74238E+08         0.54928E+05         0.00000E+00
    0.54928E+05        -0.97600E+08         0.00000E+00
    0.00000E+00         0.00000E+00        -0.74421E+08
 
   -0.74054E+08         0.55183E+05         0.00000E+00
    0.55183E+05        -0.97600E+08         0.00000E+00
    0.00000E+00         0.00000E+00        -0.74227E+08
 
   -0.73869E+08         0.55496E+05         0.00000E+00
    0.55496E+05        -0.97600E+08         0.00000E+00
    0.00000E+00         0.00000E+00        -0.74033E+08
 
   -0.73684E+08         0.56073E+05         0.00000E+00
    0.56073E+05        -0.97600E+08         0.00000E+00
    0.00000E+00         0.00000E+00        -0.73837E+08
 
   -0.73499E+08         0.56610E+05         0.00000E+00
    0.56610E+05        -0.97599E+08         0.00000E+00
    0.00000E+00         0.00000E+00        -0.73642E+08
 
   -0.73317E+08         0.52957E+05         0.00000E+00
    0.52957E+05        -0.97600E+08         0.00000E+00
    0.00000E+00         0.00000E+00        -0.73453E+08
 
   -0.73139E+08         0.51940E+05         0.00000E+00
    0.51940E+05        -0.97600E+08         0.00000E+00
    0.00000E+00         0.00000E+00        -0.73272E+08
 
   -0.72965E+08         0.51666E+05         0.00000E+00
    0.51666E+05        -0.97600E+08         0.00000E+00
    0.00000E+00         0.00000E+00        -0.73091E+08
 
   -0.72791E+08         0.51567E+05         0.00000E+00
    0.51567E+05        -0.97600E+08         0.00000E+00
    0.00000E+00         0.00000E+00        -0.72910E+08
 
   -0.72618E+08         0.51611E+05         0.00000E+00
    0.51611E+05        -0.97600E+08         0.00000E+00
    0.00000E+00         0.00000E+00        -0.72729E+08
 
   -0.72446E+08         0.51681E+05         0.00000E+00
    0.51681E+05        -0.97600E+08         0.00000E+00
    0.00000E+00         0.00000E+00        -0.72548E+08
 
   -0.72273E+08         0.51746E+05         0.00000E+00
    0.51746E+05        -0.97600E+08         0.00000E+00
    0.00000E+00         0.00000E+00        -0.72367E+08
 
   -0.72100E+08         0.51860E+05         0.00000E+00
    0.51860E+05        -0.97600E+08         0.00000E+00
    0.00000E+00         0.00000E+00        -0.72185E+08
 
   -0.71928E+08         0.51853E+05         0.00000E+00
    0.51853E+05        -0.97600E+08         0.00000E+00
    0.00000E+00         0.00000E+00        -0.72003E+08
 
   -0.71759E+08         0.49878E+05         0.00000E+00
    0.49878E+05        -0.97600E+08         0.00000E+00
    0.00000E+00         0.00000E+00        -0.71824E+08
 
   -0.71592E+08         0.49104E+05         0.00000E+00
    0.49104E+05        -0.97600E+08         0.00000E+00
    0.00000E+00         0.00000E+00        -0.71650E+08
 
   -0.71427E+08         0.49003E+05         0.00000E+00
    0.49003E+05        -0.97600E+08         0.00000E+00
    0.00000E+00         0.00000E+00        -0.71476E+08
 
   -0.71263E+08         0.48873E+05         0.00000E+00
    0.48873E+05        -0.97600E+08         0.00000E+00
    0.00000E+00         0.00000E+00        -0.71302E+08
 
   -0.71100E+08         0.48745E+05         0.00000E+00
    0.48745E+05        -0.97600E+08         0.00000E+00
    0.00000E+00         0.00000E+00        -0.71127E+08
 
   -0.70937E+08         0.48604E+05         0.00000E+00
    0.48604E+05        -0.97600E+08         0.00000E+00
    0.00000E+00         0.00000E+00        -0.70953E+08
 
   -0.70774E+08         0.48443E+05         0.00000E+00
    0.48443E+05        -0.97600E+08         0.00000E+00
    0.00000E+00         0.00000E+00        -0.70778E+08
 
   -0.70612E+08         0.48262E+05         0.00000E+00
    0.48262E+05        -0.97600E+08         0.00000E+00
    0.00000E+00         0.00000E+00        -0.70603E+08
 
   -0.70451E+08         0.48061E+05         0.00000E+00
    0.48061E+05        -0.97600E+08         0.00000E+00
    0.00000E+00         0.00000E+00        -0.70428E+08
 
   -0.70291E+08         0.47842E+05         0.00000E+00
    0.47842E+05        -0.97600E+08         0.00000E+00
    0.00000E+00         0.00000E+00        -0.70253E+08
 
   -0.70131E+08         0.47606E+05         0.00000E+00
    0.47606E+05        -0.97600E+08         0.00000E+00
    0.00000E+00         0.00000E+00        -0.70077E+08
 
   -0.69973E+08         0.47351E+05         0.00000E+00
    0.47351E+05        -0.97599E+08         0.00000E+00
    0.00000E+00         0.00000E+00        -0.69902E+08
 
   -0.69818E+08         0.47073E+05         0.00000E+00
    0.47073E+05        -0.97596E+08         0.00000E+00
    0.00000E+00         0.00000E+00        -0.69728E+08
 
   -0.69664E+08         0.46781E+05         0.00000E+00
    0.46781E+05        -0.97593E+08         0.00000E+00
    0.00000E+00         0.00000E+00        -0.69555E+08
 
   -0.69511E+08         0.46476E+05         0.00000E+00
    0.46476E+05        -0.97589E+08         0.00000E+00
    0.00000E+00         0.00000E+00        -0.69381E+08
 
   -0.69359E+08         0.46158E+05         0.00000E+00
    0.46158E+05        -0.97586E+08         0.00000E+00
    0.00000E+00         0.00000E+00        -0.69207E+08
 
   -0.69208E+08         0.45828E+05         0.00000E+00
    0.45828E+05        -0.97583E+08         0.00000E+00
    0.00000E+00         0.00000E+00        -0.69032E+08
 
   -0.69057E+08         0.45484E+05         0.00000E+00
    0.45484E+05        -0.97580E+08         0.00000E+00
    0.00000E+00         0.00000E+00        -0.68857E+08
 
   -0.68908E+08         0.45126E+05         0.00000E+00
    0.45126E+05        -0.97577E+08         0.00000E+00
    0.00000E+00         0.00000E+00        -0.68680E+08
 
   -0.68760E+08         0.44750E+05         0.00000E+00
    0.44750E+05        -0.97575E+08         0.00000E+00
    0.00000E+00         0.00000E+00        -0.68503E+08
 
   -0.68612E+08         0.44352E+05         0.00000E+00
    0.44352E+05        -0.97572E+08         0.00000E+00
    0.00000E+00         0.00000E+00        -0.68326E+08
 
   -0.68466E+08         0.43924E+05         0.00000E+00
    0.43924E+05        -0.97570E+08         0.00000E+00
    0.00000E+00         0.00000E+00        -0.68147E+08
 
   -0.68322E+08         0.43455E+05         0.00000E+00
    0.43455E+05        -0.97567E+08         0.00000E+00
    0.00000E+00         0.00000E+00        -0.67968E+08
 
   -0.68179E+08         0.42929E+05         0.00000E+00
    0.42929E+05        -0.97565E+08         0.00000E+00
    0.00000E+00         0.00000E+00        -0.67787E+08
 
   -0.68037E+08         0.42323E+05         0.00000E+00
    0.42323E+05        -0.97563E+08         0.00000E+00
    0.00000E+00         0.00000E+00        -0.67605E+08
 
   -0.67898E+08         0.41608E+05         0.00000E+00
    0.41608E+05        -0.97561E+08         0.00000E+00
    0.00000E+00         0.00000E+00        -0.67421E+08
 
   -0.67761E+08         0.40744E+05         0.00000E+00
    0.40744E+05        -0.97560E+08         0.00000E+00
    0.00000E+00         0.00000E+00        -0.67235E+08
 
   -0.67627E+08         0.39682E+05         0.00000E+00
    0.39682E+05        -0.97558E+08         0.00000E+00
    0.00000E+00         0.00000E+00        -0.67046E+08
 
   -0.67497E+08         0.38363E+05         0.00000E+00
    0.38363E+05        -0.97557E+08         0.00000E+00
    0.00000E+00         0.00000E+00        -0.66855E+08
 
   -0.67371E+08         0.36719E+05         0.00000E+00
    0.36719E+05        -0.97555E+08         0.00000E+00
    0.00000E+00         0.00000E+00        -0.66659E+08
 
   -0.67251E+08         0.34678E+05         0.00000E+00
    0.34678E+05        -0.97555E+08         0.00000E+00
    0.00000E+00         0.00000E+00        -0.66459E+08
 
   -0.67138E+08         0.32174E+05         0.00000E+00
    0.32174E+05        -0.97554E+08         0.00000E+00
    0.00000E+00         0.00000E+00        -0.66252E+08
 
   -0.67033E+08         0.29151E+05         0.00000E+00
    0.29151E+05        -0.97554E+08         0.00000E+00
    0.00000E+00         0.00000E+00        -0.66039E+08
 
   -0.66938E+08         0.25612E+05         0.00000E+00
    0.25612E+05        -0.97555E+08         0.00000E+00
    0.00000E+00         0.00000E+00        -0.65817E+08
 
   -0.66855E+08         0.21563E+05         0.00000E+00
    0.21563E+05        -0.97556E+08         0.00000E+00
    0.00000E+00         0.00000E+00        -0.65586E+08
 
   -0.66785E+08         0.17211E+05         0.00000E+00
    0.17211E+05        -0.97558E+08         0.00000E+00
    0.00000E+00         0.00000E+00        -0.65344E+08
 
   -0.66729E+08         0.12523E+05         0.00000E+00
    0.12523E+05        -0.97560E+08         0.00000E+00
    0.00000E+00         0.00000E+00        -0.65092E+08
 
   -0.66687E+08         0.82076E+04         0.00000E+00
    0.82076E+04        -0.97562E+08         0.00000E+00
    0.00000E+00         0.00000E+00        -0.64827E+08
 
   -0.66660E+08         0.33448E+04         0.00000E+00
    0.33448E+04        -0.97566E+08         0.00000E+00
    0.00000E+00         0.00000E+00        -0.64552E+08
 
   -0.66646E+08         0.54162E+03         0.00000E+00
    0.54162E+03        -0.97569E+08         0.00000E+00
    0.00000E+00         0.00000E+00        -0.64267E+08
 
   -0.66647E+08        -0.55596E+04         0.00000E+00
   -0.55596E+04        -0.97573E+08         0.00000E+00
    0.00000E+00         0.00000E+00        -0.63973E+08
 
   -0.66656E+08        -0.41947E+04         0.00000E+00
   -0.41947E+04        -0.97577E+08         0.00000E+00
    0.00000E+00         0.00000E+00        -0.63673E+08
 
   -0.66686E+08        -0.13535E+05         0.00000E+00
   -0.13535E+05        -0.97575E+08         0.00000E+00
    0.00000E+00         0.00000E+00        -0.63355E+08
 
   -0.66722E+08        -0.29218E+05         0.00000E+00
   -0.29218E+05        -0.97617E+08         0.00000E+00
    0.00000E+00         0.00000E+00        -0.63076E+08
 
   -0.80931E+08        -0.28525E+05         0.00000E+00
   -0.28525E+05        -0.97511E+08         0.00000E+00
    0.00000E+00         0.00000E+00        -0.85466E+08
 
   -0.80869E+08         0.25455E+05         0.00000E+00
    0.25455E+05        -0.97627E+08         0.00000E+00
    0.00000E+00         0.00000E+00        -0.85115E+08
 
   -0.80747E+08         0.82709E+04         0.00000E+00
    0.82709E+04        -0.97596E+08         0.00000E+00
    0.00000E+00         0.00000E+00        -0.84709E+08
 
   -0.80645E+08         0.89413E+04         0.00000E+00
    0.89413E+04        -0.97606E+08         0.00000E+00
    0.00000E+00         0.00000E+00        -0.84280E+08
 
   -0.80553E+08         0.71924E+04         0.00000E+00
    0.71924E+04        -0.97603E+08         0.00000E+00
    0.00000E+00         0.00000E+00        -0.83842E+08
 
   -0.80465E+08         0.71090E+04         0.00000E+00
    0.71090E+04        -0.97604E+08         0.00000E+00
    0.00000E+00         0.00000E+00        -0.83410E+08
 
   -0.80378E+08         0.68050E+04         0.00000E+00
    0.68050E+04        -0.97604E+08         0.00000E+00
    0.00000E+00         0.00000E+00        -0.82995E+08
 
   -0.80293E+08         0.65076E+04         0.00000E+00
    0.65076E+04        -0.97604E+08         0.00000E+00
    0.00000E+00         0.00000E+00        -0.82602E+08
 
   -0.80209E+08         0.63263E+04         0.00000E+00
    0.63263E+04        -0.97603E+08         0.00000E+00
    0.00000E+00         0.00000E+00        -0.82233E+08
 
   -0.80124E+08         0.65851E+04         0.00000E+00
    0.65851E+04        -0.97603E+08         0.00000E+00
    0.00000E+00         0.00000E+00        -0.81889E+08
 
   -0.80034E+08         0.74099E+04         0.00000E+00
    0.74099E+04        -0.97603E+08         0.00000E+00
    0.00000E+00         0.00000E+00        -0.81567E+08
 
   -0.79936E+08         0.87433E+04         0.00000E+00
    0.87433E+04        -0.97602E+08         0.00000E+00
    0.00000E+00         0.00000E+00        -0.81266E+08
 
   -0.79826E+08         0.10398E+05         0.00000E+00
    0.10398E+05        -0.97602E+08         0.00000E+00
    0.00000E+00         0.00000E+00        -0.80981E+08
 
   -0.79702E+08         0.12165E+05         0.00000E+00
    0.12165E+05        -0.97602E+08         0.00000E+00
    0.00000E+00         0.00000E+00        -0.80710E+08
 
   -0.79564E+08         0.13875E+05         0.00000E+00
    0.13875E+05        -0.97601E+08         0.00000E+00
    0.00000E+00         0.00000E+00        -0.80450E+08
 
   -0.79412E+08         0.15429E+05         0.00000E+00
    0.15429E+05        -0.97601E+08         0.00000E+00
    0.00000E+00         0.00000E+00        -0.80198E+08
 
   -0.79248E+08         0.16788E+05         0.00000E+00
    0.16788E+05        -0.97601E+08         0.00000E+00
    0.00000E+00         0.00000E+00        -0.79952E+08
 
   -0.79073E+08         0.17957E+05         0.00000E+00
    0.17957E+05        -0.97601E+08         0.00000E+00
    0.00000E+00         0.00000E+00        -0.79711E+08
 
   -0.78889E+08         0.18967E+05         0.00000E+00
    0.18967E+05        -0.97601E+08         0.00000E+00
    0.00000E+00         0.00000E+00        -0.79472E+08
 
   -0.78696E+08         0.19877E+05         0.00000E+00
    0.19877E+05        -0.97601E+08         0.00000E+00
    0.00000E+00         0.00000E+00        -0.79234E+08
 
   -0.78496E+08         0.20705E+05         0.00000E+00
    0.20705E+05        -0.97601E+08         0.00000E+00
    0.00000E+00         0.00000E+00        -0.78997E+08
 
   -0.78290E+08         0.21700E+05         0.00000E+00
    0.21700E+05        -0.97600E+08         0.00000E+00
    0.00000E+00         0.00000E+00        -0.78760E+08
 
   -0.78076E+08         0.22424E+05         0.00000E+00
    0.22424E+05        -0.97601E+08         0.00000E+00
    0.00000E+00         0.00000E+00        -0.78522E+08
 
   -0.77859E+08         0.25339E+05         0.00000E+00
    0.25339E+05        -0.97598E+08         0.00000E+00
    0.00000E+00         0.00000E+00        -0.78283E+08
 
   -0.77658E+08         0.14847E+05         0.00000E+00
    0.14847E+05        -0.97597E+08         0.00000E+00
    0.00000E+00         0.00000E+00        -0.78066E+08
 
   -0.77475E+08         0.18254E+05         0.00000E+00
    0.18254E+05        -0.97601E+08         0.00000E+00
    0.00000E+00         0.00000E+00        -0.77869E+08
 
   -0.77291E+08         0.17924E+05         0.00000E+00
    0.17924E+05        -0.97600E+08         0.00000E+00
    0.00000E+00         0.00000E+00        -0.77670E+08
 
   -0.77106E+08         0.18260E+05         0.00000E+00
    0.18260E+05        -0.97600E+08         0.00000E+00
    0.00000E+00         0.00000E+00        -0.77470E+08
 
   -0.76921E+08         0.18422E+05         0.00000E+00
    0.18422E+05        -0.97600E+08         0.00000E+00
    0.00000E+00         0.00000E+00        -0.77269E+08
 
   -0.76734E+08         0.18651E+05         0.00000E+00
    0.18651E+05        -0.97600E+08         0.00000E+00
    0.00000E+00         0.00000E+00        -0.77065E+08
 
   -0.76545E+08         0.18890E+05         0.00000E+00
    0.18890E+05        -0.97600E+08         0.00000E+00
    0.00000E+00         0.00000E+00        -0.76860E+08
 
   -0.76354E+08         0.19145E+05         0.00000E+00
    0.19145E+05        -0.97600E+08         0.00000E+00
    0.00000E+00         0.00000E+00        -0.76653E+08
 
   -0.76161E+08         0.19420E+05         0.00000E+00
    0.19420E+05        -0.97600E+08         0.00000E+00
    0.00000E+00         0.00000E+00        -0.76444E+08
 
   -0.75965E+08         0.19700E+05         0.00000E+00
    0.19700E+05        -0.97600E+08         0.00000E+00
    0.00000E+00         0.00000E+00        -0.76234E+08
 
   -0.75767E+08         0.20102E+05         0.00000E+00
    0.20102E+05        -0.97600E+08         0.00000E+00
    0.00000E+00         0.00000E+00        -0.76022E+08
 
   -0.75567E+08         0.20337E+05         0.00000E+00
    0.20337E+05        -0.97601E+08         0.00000E+00
    0.00000E+00         0.00000E+00        -0.75808E+08
 
   -0.75362E+08         0.22331E+05         0.00000E+00
    0.22331E+05        -0.97599E+08         0.00000E+00
    0.00000E+00         0.00000E+00        -0.75593E+08
 
   -0.75159E+08         0.20065E+05         0.00000E+00
    0.20065E+05        -0.97599E+08         0.00000E+00
    0.00000E+00         0.00000E+00        -0.75384E+08
 
   -0.74967E+08         0.17635E+05         0.00000E+00
    0.17635E+05        -0.97600E+08         0.00000E+00
    0.00000E+00         0.00000E+00        -0.75189E+08
 
   -0.74782E+08         0.18092E+05         0.00000E+00
    0.18092E+05        -0.97600E+08         0.00000E+00
    0.00000E+00         0.00000E+00        -0.74998E+08
 
   -0.74599E+08         0.18046E+05         0.00000E+00
    0.18046E+05        -0.97600E+08         0.00000E+00
    0.00000E+00         0.00000E+00        -0.74806E+08
 
   -0.74416E+08         0.18111E+05         0.00000E+00
    0.18111E+05        -0.97600E+08         0.00000E+00
    0.00000E+00         0.00000E+00        -0.74613E+08
 
   -0.74232E+08         0.18198E+05         0.00000E+00
    0.18198E+05        -0.97600E+08         0.00000E+00
    0.00000E+00         0.00000E+00        -0.74419E+08
 
   -0.74049E+08         0.18328E+05         0.00000E+00
    0.18328E+05        -0.97600E+08         0.00000E+00
    0.00000E+00         0.00000E+00        -0.74225E+08
 
   -0.73864E+08         0.18545E+05         0.00000E+00
    0.18545E+05        -0.97600E+08         0.00000E+00
    0.00000E+00         0.00000E+00        -0.74031E+08
 
   -0.73679E+08         0.18647E+05         0.00000E+00
    0.18647E+05        -0.97600E+08         0.00000E+00
    0.00000E+00         0.00000E+00        -0.73836E+08
 
   -0.73491E+08         0.20084E+05         0.00000E+00
    0.20084E+05        -0.97599E+08         0.00000E+00
    0.00000E+00         0.00000E+00        -0.73640E+08
 
   -0.73309E+08         0.16704E+05         0.00000E+00
    0.16704E+05        -0.97599E+08         0.00000E+00
    0.00000E+00         0.00000E+00        -0.73452E+08
 
   -0.73134E+08         0.17184E+05         0.00000E+00
    0.17184E+05        -0.97600E+08         0.00000E+00
    0.00000E+00         0.00000E+00        -0.73272E+08
 
   -0.72961E+08         0.16963E+05         0.00000E+00
    0.16963E+05        -0.97600E+08         0.00000E+00
    0.00000E+00         0.00000E+00        -0.73091E+08
 
   -0.72788E+08         0.17044E+05         0.00000E+00
    0.17044E+05        -0.97600E+08         0.00000E+00
    0.00000E+00         0.00000E+00        -0.72910E+08
 
   -0.72616E+08         0.17093E+05         0.00000E+00
    0.17093E+05        -0.97600E+08         0.00000E+00
    0.00000E+00         0.00000E+00        -0.72729E+08
 
   -0.72444E+08         0.17155E+05         0.00000E+00
    0.17155E+05        -0.97600E+08         0.00000E+00
    0.00000E+00         0.00000E+00        -0.72547E+08
 
   -0.72271E+08         0.17244E+05         0.00000E+00
    0.17244E+05        -0.97600E+08         0.00000E+00
    0.00000E+00         0.00000E+00        -0.72366E+08
 
   -0.72099E+08         0.17246E+05         0.00000E+00
    0.17246E+05        -0.97600E+08         0.00000E+00
    0.00000E+00         0.00000E+00        -0.72184E+08
 
   -0.71926E+08         0.17760E+05         0.00000E+00
    0.17760E+05        -0.97600E+08         0.00000E+00
    0.00000E+00         0.00000E+00        -0.72003E+08
 
   -0.71756E+08         0.16203E+05         0.00000E+00
    0.16203E+05        -0.97600E+08         0.00000E+00
    0.00000E+00         0.00000E+00        -0.71824E+08
 
   -0.71591E+08         0.16124E+05         0.00000E+00
    0.16124E+05        -0.97600E+08         0.00000E+00
    0.00000E+00         0.00000E+00        -0.71649E+08
 
   -0.71427E+08         0.16195E+05         0.00000E+00
    0.16195E+05        -0.97600E+08         0.00000E+00
    0.00000E+00         0.00000E+00        -0.71475E+08
 
   -0.71263E+08         0.16168E+05         0.00000E+00
    0.16168E+05        -0.97600E+08         0.00000E+00
    0.00000E+00         0.00000E+00        -0.71301E+08
 
   -0.71100E+08         0.16147E+05         0.00000E+00
    0.16147E+05        -0.97600E+08         0.00000E+00
    0.00000E+00         0.00000E+00        -0.71126E+08
 
   -0.70938E+08         0.16109E+05         0.00000E+00
    0.16109E+05        -0.97600E+08         0.00000E+00
    0.00000E+00         0.00000E+00        -0.70951E+08
 
   -0.70776E+08         0.16062E+05         0.00000E+00
    0.16062E+05        -0.97600E+08         0.00000E+00
    0.00000E+00         0.00000E+00        -0.70777E+08
 
   -0.70615E+08         0.16005E+05         0.00000E+00
    0.16005E+05        -0.97600E+08         0.00000E+00
    0.00000E+00         0.00000E+00        -0.70602E+08
 
   -0.70454E+08         0.15939E+05         0.00000E+00
    0.15939E+05        -0.97600E+08         0.00000E+00
    0.00000E+00         0.00000E+00        -0.70426E+08
 
   -0.70294E+08         0.15866E+05         0.00000E+00
    0.15866E+05        -0.97600E+08         0.00000E+00
    0.00000E+00         0.00000E+00        -0.70251E+08
 
   -0.70134E+08         0.15785E+05         0.00000E+00
    0.15785E+05        -0.97600E+08         0.00000E+00
    0.00000E+00         0.00000E+00        -0.70075E+08
 
   -0.69977E+08         0.15698E+05         0.00000E+00
    0.15698E+05        -0.97599E+08         0.00000E+00
    0.00000E+00         0.00000E+00        -0.69899E+08
 
   -0.69821E+08         0.15602E+05         0.00000E+00
    0.15602E+05        -0.97597E+08         0.00000E+00
    0.00000E+00         0.00000E+00        -0.69725E+08
 
   -0.69668E+08         0.15501E+05         0.00000E+00
    0.15501E+05        -0.97593E+08         0.00000E+00
    0.00000E+00         0.00000E+00        -0.69552E+08
 
   -0.69515E+08         0.15395E+05         0.00000E+00
    0.15395E+05        -0.97590E+08         0.00000E+00
    0.00000E+00         0.00000E+00        -0.69378E+08
 
   -0.69363E+08         0.15284E+05         0.00000E+00
    0.15284E+05        -0.97587E+08         0.00000E+00
    0.00000E+00         0.00000E+00        -0.69203E+08
 
   -0.69212E+08         0.15170E+05         0.00000E+00
    0.15170E+05        -0.97584E+08         0.00000E+00
    0.00000E+00         0.00000E+00        -0.69028E+08
 
   -0.69062E+08         0.15051E+05         0.00000E+00
    0.15051E+05        -0.97581E+08         0.00000E+00
    0.00000E+00         0.00000E+00        -0.68852E+08
 
   -0.68913E+08         0.14928E+05         0.00000E+00
    0.14928E+05        -0.97578E+08         0.00000E+00
    0.00000E+00         0.00000E+00        -0.68676E+08
 
   -0.68765E+08         0.14800E+05         0.00000E+00
    0.14800E+05        -0.97575E+08         0.00000E+00
    0.00000E+00         0.00000E+00        -0.68498E+08
 
   -0.68619E+08         0.14664E+05         0.00000E+00
    0.14664E+05        -0.97573E+08         0.00000E+00
    0.00000E+00         0.00000E+00        -0.68320E+08
 
   -0.68473E+08         0.14519E+05         0.00000E+00
    0.14519E+05        -0.97571E+08         0.00000E+00
    0.00000E+00         0.00000E+00        -0.68141E+08
 
   -0.68329E+08         0.14361E+05         0.00000E+00
    0.14361E+05        -0.97568E+08         0.00000E+00
    0.00000E+00         0.00000E+00        -0.67961E+08
 
   -0.68186E+08         0.14184E+05         0.00000E+00
    0.14184E+05        -0.97566E+08         0.00000E+00
    0.00000E+00         0.00000E+00        -0.67780E+08
 
   -0.68045E+08         0.13980E+05         0.00000E+00
    0.13980E+05        -0.97564E+08         0.00000E+00
    0.00000E+00         0.00000E+00        -0.67598E+08
 
   -0.67906E+08         0.13738E+05         0.00000E+00
    0.13738E+05        -0.97562E+08         0.00000E+00
    0.00000E+00         0.00000E+00        -0.67413E+08
 
   -0.67770E+08         0.13444E+05         0.00000E+00
    0.13444E+05        -0.97560E+08         0.00000E+00
    0.00000E+00         0.00000E+00        -0.67227E+08
 
   -0.67636E+08         0.13080E+05         0.00000E+00
    0.13080E+05        -0.97559E+08         0.00000E+00
    0.00000E+00         0.00000E+00        -0.67038E+08
 
   -0.67506E+08         0.12624E+05         0.00000E+00
    0.12624E+05        -0.97557E+08         0.00000E+00
    0.00000E+00         0.00000E+00        -0.66846E+08
 
   -0.67381E+08         0.12050E+05         0.00000E+00
    0.12050E+05        -0.97556E+08         0.00000E+00
    0.00000E+00         0.00000E+00        -0.66650E+08
 
   -0.67262E+08         0.11332E+05         0.00000E+00
    0.11332E+05        -0.97555E+08         0.00000E+00
    0.00000E+00         0.00000E+00        -0.66449E+08
 
   -0.67150E+08         0.10443E+05         0.00000E+00
    0.10443E+05        -0.97555E+08         0.00000E+00
    0.00000E+00         0.00000E+00        -0.66242E+08
 
   -0.67046E+08         0.93712E+04         0.00000E+00
    0.93712E+04        -0.97555E+08         0.00000E+00
    0.00000E+00         0.00000E+00        -0.66027E+08
 
   -0.66953E+08         0.81043E+04         0.00000E+00
    0.81043E+04        -0.97555E+08         0.00000E+00
    0.00000E+00         0.00000E+00        -0.65805E+08
 
   -0.66871E+08         0.66863E+04         0.00000E+00
    0.66863E+04        -0.97556E+08         0.00000E+00
    0.00000E+00         0.00000E+00        -0.65572E+08
 
   -0.66803E+08         0.51168E+04         0.00000E+00
    0.51168E+04        -0.97558E+08         0.00000E+00
    0.00000E+00         0.00000E+00        -0.65329E+08
 
   -0.66749E+08         0.35964E+04         0.00000E+00
    0.35964E+04        -0.97560E+08         0.00000E+00
    0.00000E+00         0.00000E+00        -0.65074E+08
 
   -0.66710E+08         0.19135E+04         0.00000E+00
    0.19135E+04        -0.97563E+08         0.00000E+00
    0.00000E+00         0.00000E+00        -0.64808E+08
 
   -0.66685E+08         0.86040E+03         0.00000E+00
    0.86040E+03        -0.97565E+08         0.00000E+00
    0.00000E+00         0.00000E+00        -0.64529E+08
 
   -0.66676E+08        -0.12700E+04         0.00000E+00
   -0.12700E+04        -0.97571E+08         0.00000E+00
    0.00000E+00         0.00000E+00        -0.64244E+08
 
   -0.66676E+08        -0.18831E+03         0.00000E+00
   -0.18831E+03        -0.97567E+08         0.00000E+00
    0.00000E+00         0.00000E+00        -0.63943E+08
 
   -0.66695E+08        -0.68938E+04         0.00000E+00
   -0.68938E+04        -0.97586E+08         0.00000E+00
    0.00000E+00         0.00000E+00        -0.63650E+08
 
   -0.66713E+08         0.82253E+04         0.00000E+00
    0.82253E+04        -0.97559E+08         0.00000E+00
    0.00000E+00         0.00000E+00        -0.63318E+08
 
   -0.66781E+08        -0.37203E+05         0.00000E+00
   -0.37203E+05        -0.97626E+08         0.00000E+00
    0.00000E+00         0.00000E+00        -0.63038E+08
 
SCALARS stresss double 
LOOKUP_TABLE default
  -88594019.7400710     
  -88307398.0772396     
  -88046895.2700531     
  -87806723.2402795     
  -87583474.7274388     
  -87373778.5576907     
  -87175957.6928274     
  -86989455.6818160     
  -86828073.0738364     
  -86716964.8456851     
  -86623003.9469574     
  -86531052.2767599     
  -86439056.7820446     
  -86343836.1478811     
  -86243716.8293546     
  -86137767.9351162     
  -86025606.2196904     
  -85907194.8143541     
  -85782740.0633631     
  -85652609.1524746     
  -85517264.1630886     
  -85377206.4890340     
  -85232911.4337413     
  -85084775.5223079     
  -84932867.3067867     
  -84777428.6147473     
  -84622359.6924880     
  -84476693.7322265     
  -84334892.6225131     
  -84192706.8034174     
  -84049760.1859296     
  -83905949.5146648     
  -83761288.8169577     
  -83615851.6438596     
  -83469741.8573686     
  -83323075.5313929     
  -83175956.5347685     
  -83028460.0521880     
  -82880568.8619825     
  -82732491.3313149     
  -82584759.6053273     
  -82443164.0338838     
  -82306441.3838074     
  -82171251.7898840     
  -82037113.6089498     
  -81903824.0629502     
  -81771271.5902624     
  -81639368.2151532     
  -81507914.4044471     
  -81378196.2724261     
  -81252303.0722905     
  -81128080.5431694     
  -81004925.6345329     
  -80882680.2465268     
  -80761241.5787261     
  -80640502.9580965     
  -80520383.1594565     
  -80400691.8030374     
  -80282674.9784165     
  -80166171.9810515     
  -80050412.8813992     
  -79935266.6507588     
  -79820649.7914132     
  -79706508.2562686     
  -79592799.8076610     
  -79479495.4593307     
  -79366577.1857425     
  -79254037.5089896     
  -79142002.7198565     
  -79031083.4330505     
  -78920863.1624705     
  -78811066.9613323     
  -78701738.6946596     
  -78592937.9830622     
  -78484742.1762773     
  -78377248.4065828     
  -78270575.4549089     
  -78164865.0712239     
  -78060282.2889545     
  -77957014.1603596     
  -77855266.2442683     
  -77755256.0652075     
  -77657202.7629580     
  -77561311.9884827     
  -77467755.4955340     
  -77376644.1160401     
  -77287995.1942209     
  -77201691.0322857     
  -77117438.5393809     
  -77034713.6327408     
  -76952747.3034526     
  -76870452.3582741     
  -76786568.1576498     
  -76699423.7446539     
  -76607697.6810925     
  -76509021.6254319     
  -76403484.6291796     
  -76286063.3634745     
  -76164351.5843103     
  -76014473.6625504     
  -88560346.5971537     
  -88287631.7321789     
  -88030582.8609451     
  -87793769.6843405     
  -87572793.8978214     
  -87365274.5795002     
  -87169509.8852129     
  -86985790.6523725     
  -86825009.3675102     
  -86704215.1890207     
  -86605688.1174317     
  -86512181.2684082     
  -86419203.7261407     
  -86323567.7333820     
  -86223332.5301941     
  -86117494.6576694     
  -86005603.4422315     
  -85887587.6687849     
  -85763628.3109842     
  -85634075.4266014     
  -85499379.7931424     
  -85360034.1565871     
  -85216522.9377573     
  -85069231.4247970     
  -84918359.3052024     
  -84764193.4437650     
  -84611224.6145853     
  -84465608.5216257     
  -84323484.1704765     
  -84181232.1971680     
  -84038353.2497770     
  -83894705.0907175     
  -83750280.1728595     
  -83605138.7887873     
  -83459376.6872472     
  -83313103.5872352     
  -83166426.5473068     
  -83019415.9392440     
  -82872124.1796294     
  -82724745.8594363     
  -82578587.9836170     
  -82437162.5801350     
  -82300198.7169969     
  -82165042.4811296     
  -82030980.0762330     
  -81897825.9760794     
  -81765450.7095149     
  -81633778.3765523     
  -81502739.5718188     
  -81373503.1990503     
  -81247509.9642647     
  -81123260.0718434     
  -81000099.0841509     
  -80877880.4388441     
  -80756482.1240151     
  -80635814.5892832     
  -80515781.1061169     
  -80396436.8022404     
  -80278474.9377642     
  -80161895.1968105     
  -80046121.3473572     
  -79930960.2319695     
  -79816334.3279210     
  -79702183.6574277     
  -79588465.7204000     
  -79475150.0479123     
  -79362217.6277440     
  -79249659.7669085     
  -79137720.2113626     
  -79026898.1375525     
  -78916647.7832140     
  -78806809.9804530     
  -78697426.7629255     
  -78588555.6462541     
  -78480271.6380280     
  -78372669.3562306     
  -78265864.9975914     
  -78159997.8064499     
  -78055230.5875715     
  -77951748.6997442     
  -77849756.8411832     
  -77749472.8768540     
  -77651117.7974107     
  -77554901.0817873     
  -77461000.2240726     
  -77369534.5134070     
  -77280530.3746615     
  -77193883.0926200     
  -77109304.5186225     
  -77026286.6539808     
  -76944028.6785015     
  -76861474.2823086     
  -76777176.6671579     
  -76689642.0753257     
  -76596788.4081631     
  -76497284.1167628     
  -76388254.9520319     
  -76269284.6721654     
  -76137014.3190688     
  -75975457.2928264     
  -88528837.5609532     
  -88266069.5654928     
  -88013788.3016580     
  -87780079.4346507     
  -87561627.5598707     
  -87356289.0401187     
  -87162653.7798786     
  -86981470.4270819     
  -86820598.8794577     
  -86692814.4693146     
  -86589786.0438000     
  -86494569.2211597     
  -86400581.0555249     
  -86304421.9305003     
  -86203978.2905547     
  -86098153.1222411     
  -85986441.0067882     
  -85868734.2766528     
  -85745190.2484599     
  -85616141.7828364     
  -85482029.2362239     
  -85343336.7387134     
  -85200558.9848888     
  -85054078.8935958     
  -84904211.1287472     
  -84751289.2243656     
  -84599753.6441850     
  -84454703.0717430     
  -84312287.8835933     
  -84169984.1551950     
  -84027172.3989795     
  -83883682.7460628     
  -83739486.2537428     
  -83594632.1984570     
  -83449207.9516702     
  -83303319.9171055     
  -83157073.2398057     
  -83010552.4014978     
  -82863826.3105913     
  -82717183.6226484     
  -82572181.5966376     
  -82431126.2091947     
  -82294059.7405135     
  -82158927.7240767     
  -82024955.8378874     
  -81891937.2055034     
  -81759747.0448982     
  -81628293.2304386     
  -81497718.6506396     
  -81368928.0336536     
  -81242801.0636883     
  -81118516.6418371     
  -80995362.8506893     
  -80873173.1235046     
  -80751823.3121823     
  -80631222.9162603     
  -80511303.1590235     
  -80392207.5033478     
  -80274325.9715144     
  -80157704.7090497     
  -80041915.0119854     
  -79926745.0404746     
  -79812112.4348848     
  -79697955.5300173     
  -79584230.2994998     
  -79470905.3456556     
  -79357960.5860440     
  -79245386.2391358     
  -79133538.0276259     
  -79022808.9340517     
  -78912529.8470947     
  -78802651.9399938     
  -78693215.4567170     
  -78584275.8430156     
  -78475905.7889787     
  -78368197.4076158     
  -78261264.2992117     
  -78155243.1589164     
  -78050294.4801094     
  -77946601.7862388     
  -77844368.7164766     
  -77743813.1626097     
  -77645157.6235413     
  -77548614.7736061     
  -77454367.5058154     
  -77362542.1307639     
  -77273174.9272961     
  -77186169.6453205     
  -77101250.8489001     
  -77017907.4183354     
  -76935349.1741532     
  -76852460.7173426     
  -76767806.3736207     
  -76679668.5847068     
  -76586022.0544372     
  -76485014.0034661     
  -76373622.0551900     
  -76251594.5545668     
  -76109839.2472669     
  -75941898.5852107     
  -88498758.4279182     
  -88243467.1074433     
  -87996294.6235825     
  -87765780.0755396     
  -87549946.7966264     
  -87346841.7403846     
  -87155373.3482654     
  -86976441.1446137     
  -86815357.9878351     
  -86682359.9581856     
  -86575242.0135821     
  -86478197.9893268     
  -86383159.9580385     
  -86286385.3349454     
  -86185638.7289511     
  -86079731.2140845     
  -85968107.2180162     
  -85850624.1820713     
  -85727416.0867538     
  -85598799.8159636     
  -85465203.4262133     
  -85327110.0491307     
  -85185002.5926877     
  -85039337.1060667     
  -84890330.5458217     
  -84738906.8394200     
  -84589002.7712032     
  -84443906.3280280     
  -84301303.8298595     
  -84158945.7322641     
  -84016209.7948989     
  -83872873.5250737     
  -83728900.1719840     
  -83584325.3897820     
  -83439230.4374231     
  -83293718.3818751     
  -83147894.5474402     
  -83001855.7517837     
  -82855689.8190389     
  -82709733.5861961     
  -82565623.9364779     
  -82425060.3412002     
  -82288009.6690461     
  -82152907.2600047     
  -82019035.0608783     
  -81886156.8429402     
  -81754150.0895621     
  -81622930.6868618     
  -81492750.3841470     
  -81364307.3114432     
  -81238168.5671633     
  -81113851.2835400     
  -80990714.1547816     
  -80868558.2324391     
  -80747261.2978833     
  -80626731.8750612     
  -80506929.4683776     
  -80388023.1602529     
  -80270231.5265463     
  -80153597.0350421     
  -80037794.8648675     
  -79922620.2565365     
  -79807983.9879127     
  -79693823.4418125     
  -79580093.1885048     
  -79466760.9489420     
  -79353805.6730941     
  -79241216.5507979     
  -79129486.8131091     
  -79018815.7321857     
  -78908509.2982902     
  -78798592.8352115     
  -78689104.8387700     
  -78580098.7188462     
  -78471644.8709946     
  -78363832.9100729     
  -78256773.8233654     
  -78150601.7089868     
  -78045474.6568519     
  -77941574.2112914     
  -77839102.7300427     
  -77738277.8447926     
  -77639323.1262502     
  -77542454.0061905     
  -77447857.9608147     
  -77355667.9750087     
  -77265928.4766351     
  -77178552.7972629     
  -77093273.5755930     
  -77009584.7007739     
  -76926691.0465045     
  -76843449.9819064     
  -76758388.4487060     
  -76669643.4263279     
  -76575180.1338463     
  -76472576.4403963     
  -76359215.0921925     
  -76233187.3901539     
  -76083792.9624797     
  -75912697.9640693     
  -88469612.5231997     
  -88220202.3482901     
  -87978081.4220487     
  -87750912.7917870     
  -87537760.3666379     
  -87336942.5158553     
  -87147644.8018344     
  -86970738.4549400     
  -86809563.9332601     
  -86672643.2931706     
  -86561957.1780792     
  -86463048.4353645     
  -86366911.5491308     
  -86269440.0344830     
  -86168297.2223380     
  -86062214.5925715     
  -85950589.1009273     
  -85833245.5649097     
  -85710295.3471483     
  -85582039.3977727     
  -85448895.1995200     
  -85311341.2132959     
  -85169860.7709017     
  -85024948.7301443     
  -84876853.2332285     
  -84726567.1237348     
  -84578073.9010607     
  -84433282.4585578     
  -84290488.5752634     
  -84148115.9525857     
  -84005452.8488033     
  -83862270.5745141     
  -83718514.6480968     
  -83574212.3822883     
  -83429438.6961834     
  -83284293.7428061     
  -83138886.2656626     
  -82993317.9233824     
  -82847715.4401957     
  -82702364.9350611     
  -82558947.6943377     
  -82418989.6136437     
  -82282035.6624199     
  -82146978.8658768     
  -82013214.2987323     
  -81880480.3531945     
  -81748659.2671399     
  -81617679.3575271     
  -81487826.8347851     
  -81359677.0482796     
  -81233599.1277200     
  -81109265.6076627     
  -80986150.8246857     
  -80864034.8278065     
  -80742794.1898923     
  -80622341.0658984     
  -80502650.0648012     
  -80383893.4524648     
  -80266196.8186953     
  -80149570.1570841     
  -80033761.0851949     
  -79918585.5105560     
  -79803948.7152899     
  -79689787.0598760     
  -79576054.0303918     
  -79462716.4892617     
  -79349752.5198650     
  -79237150.3477230     
  -79125605.8313194     
  -79014918.4463350     
  -78904586.0821982     
  -78794632.6586852     
  -78685094.9643658     
  -78576024.4063939     
  -78467489.1073044     
  -78359576.1881658     
  -78252394.0034894     
  -78146074.0011149     
  -78040771.7707999     
  -77936666.7231799     
  -77833959.7122724     
  -77732867.7957447     
  -77633615.2150824     
  -77536419.6200337     
  -77441472.4631070     
  -77348912.6007126     
  -77258791.8783319     
  -77171032.3682265     
  -77085374.0995062     
  -77001316.8693576     
  -76918057.9584672     
  -76834439.9991232     
  -76748927.6158518     
  -76659584.0927615     
  -76564226.5089651     
  -76460123.8693953     
  -76344797.0707671     
  -76214445.9972858     
  -76059340.8187047     
  -75887044.4258672     
  -88441042.3923901     
  -88196459.1985651     
  -87959194.9681760     
  -87735498.6116451     
  -87525085.5214873     
  -87326598.2473620     
  -87139453.1502310     
  -86964420.4336191     
  -86803375.0621347     
  -86663546.7636998     
  -86549832.9518368     
  -86449091.7782468     
  -86351807.7289461     
  -86253564.3440426     
  -86151935.3819008     
  -86045587.0012540     
  -85933872.2117239     
  -85816585.4563422     
  -85693816.3547296     
  -85565850.1489188     
  -85433094.9144484     
  -85296021.9423296     
  -85155124.4546702     
  -85010902.0292542     
  -84863771.7057072     
  -84714433.2438574     
  -84567115.2370372     
  -84422782.0585762     
  -84279838.8068895     
  -84137482.1022037     
  -83994893.4183695     
  -83851866.1012806     
  -83708323.0998950     
  -83564287.1806367     
  -83419827.6323671     
  -83275040.5876947     
  -83130044.3020913     
  -82984932.3160182     
  -82839896.5349658     
  -82695082.8023223     
  -82552184.1779688     
  -82412952.7889322     
  -82276124.0386301     
  -82141141.3405667     
  -82007489.6691648     
  -81874904.5053117     
  -81743271.3747021     
  -81612533.1697917     
  -81482942.6780754     
  -81355058.7303123     
  -81229090.5170758     
  -81104757.3304995     
  -80981672.2061578     
  -80859601.5310077     
  -80738420.5197426     
  -80618048.9771825     
  -80498459.9113428     
  -80379822.6559800     
  -80262227.5588383     
  -80145623.1300724     
  -80029813.5060389     
  -79914640.6086561     
  -79800006.3295124     
  -79685846.0904357     
  -79572112.4904840     
  -79458771.6222286     
  -79345800.7785385     
  -79233242.5150268     
  -79121819.3877036     
  -79011116.9945822     
  -78900760.1447440     
  -78790771.3994854     
  -78681185.8804734     
  -78572053.0245281     
  -78463438.7013653     
  -78355427.5406116     
  -78248125.2411015     
  -78141660.5431454     
  -78036186.4338636     
  -77931880.0300390     
  -77828940.4508516     
  -77727583.8623896     
  -77628034.7634185     
  -77530512.4884585     
  -77435211.8445357     
  -77342276.7671278     
  -77251765.8373271     
  -77163608.8276962     
  -77077553.2743880     
  -76993103.6293029     
  -76909452.9736635     
  -76825427.8646742     
  -76739436.8073770     
  -76649482.6372659     
  -76553188.0629531     
  -76447693.9182296     
  -76330279.0096027     
  -76195758.1241735     
  -76036663.9682208     
  -75864331.5057013     
  -88412775.1953141     
  -88172319.0881792     
  -87939697.0836730     
  -87719558.4408611     
  -87511940.2744914     
  -87315815.9549374     
  -87130793.7577582     
  -86957542.8022847     
  -86796885.8413009     
  -86654997.7264158     
  -86538783.3327256     
  -86436291.4698329     
  -86337819.5507040     
  -86238733.7940985     
  -86136532.7275363     
  -86029830.4049470     
  -85917940.6202728     
  -85800629.7073011     
  -85677966.3802249     
  -85550221.0631218     
  -85417791.5366334     
  -85281145.6297868     
  -85140776.4097196     
  -84997210.6193317     
  -84850988.1968015     
  -84703354.4573163     
  -84556557.0030511     
  -84412273.8937911     
  -84269383.7143660     
  -84127021.4061599     
  -83984527.5392689     
  -83841651.4418310     
  -83698319.5015950     
  -83554544.2656867     
  -83410391.1624672     
  -83265956.9809497     
  -83121355.1128560     
  -82976718.7368055     
  -82832155.0743427     
  -82688091.7411870     
  -82545983.3017218     
  -82406936.3724177     
  -82270281.4737063     
  -82135387.4572325     
  -82001859.2971375     
  -81869426.5766828     
  -81737980.5680465     
  -81607492.7800239     
  -81478092.9749937     
  -81350468.5275684     
  -81224645.4306631     
  -81100322.8052300     
  -80977278.2522196     
  -80855256.9825722     
  -80734138.6872905     
  -80613854.0781685     
  -80494357.1484674     
  -80375810.7255883     
  -80258330.4416846     
  -80141755.1796811     
  -80025952.0813228     
  -79910785.3410400     
  -79796156.5953148     
  -79682000.2539196     
  -79568268.2625693     
  -79454926.0241427     
  -79341950.1220925     
  -79229469.8250237     
  -79118127.3934805     
  -79007411.2979603     
  -78897031.4316677     
  -78787009.0424445     
  -78677377.6249833     
  -78568184.6774810     
  -78459493.8359422     
  -78351387.2391419     
  -78243967.9047220     
  -78137361.8046122     
  -78031719.2161077     
  -77927214.7966284     
  -77824045.6928183     
  -77722426.8572253     
  -77622582.6236872     
  -77524733.4856713     
  -77429076.9595541     
  -77335761.3286713     
  -77244851.1142204     
  -77156283.0225335     
  -77069811.7642897     
  -76984946.0290048     
  -76900877.4121529     
  -76816414.8188661     
  -76729923.7862151     
  -76639335.8670328     
  -76542100.6631710     
  -76435281.0387174     
  -76315681.1186485     
  -76177446.7856809     
  -76015787.4626260     
  -75844098.6586016     
  -88384590.6144523     
  -88147808.2191249     
  -87919647.0309256     
  -87703117.1546896     
  -87498342.1566850     
  -87304604.2582558     
  -87121669.8660475     
  -86950150.4630438     
  -86790153.2786120     
  -86646948.0015302     
  -86528736.8018639     
  -86424606.5292162     
  -86324916.0804299     
  -86224921.6358211     
  -86122066.6344878     
  -86014925.0246294     
  -85902776.9527957     
  -85785362.9170308     
  -85662731.9036763     
  -85535139.7578003     
  -85402974.9944627     
  -85266700.2109670     
  -85126813.2365610     
  -84983846.6495915     
  -84838520.6750858     
  -84692212.1665381     
  -84546035.4516022     
  -84401886.7186265     
  -84259070.1954015     
  -84116739.5266541     
  -83974342.5550251     
  -83831621.2873923     
  -83688497.3009136     
  -83544978.0099797     
  -83401125.2400491     
  -83257035.1963140     
  -83112823.1396244     
  -82968642.9648473     
  -82824576.6774722     
  -82681111.4105206     
  -82539705.5434436     
  -82400996.7306761     
  -82264491.2325373     
  -82129718.8487439     
  -81996319.2923847     
  -81864042.6202921     
  -81732787.7036831     
  -81602538.8230901     
  -81473502.9201042     
  -81346004.8201645     
  -81220236.2274835     
  -81095970.0980839     
  -80972965.0405670     
  -80851000.7432136     
  -80729948.5878189     
  -80609749.1016089     
  -80490358.4245569     
  -80371905.2585854     
  -80254508.7478686     
  -80137966.7255684     
  -80022176.5815470     
  -79907019.5837078     
  -79792399.2902235     
  -79678249.2979348     
  -79564521.0621718     
  -79451179.3928835     
  -79338200.2425751     
  -79225794.9513643     
  -79114529.7644144     
  -79003801.2798207     
  -78893399.8878620     
  -78783345.5675147     
  -78673670.2260243     
  -78564419.4541136     
  -78455654.6722792     
  -78347455.5275849     
  -78239922.3288078     
  -78133178.2156039     
  -78027370.6444283     
  -77922671.6430877     
  -77819276.1432979     
  -77717397.5569748     
  -77617259.6283965     
  -77519083.4821826     
  -77423068.7021786     
  -77329367.2010585     
  -77238048.6309377     
  -77149055.9741928     
  -77062150.5419517     
  -76976845.5942863     
  -76892332.4689611     
  -76807404.2601127     
  -76720392.5281707     
  -76629149.2749681     
  -76530991.6964964     
  -76422876.7751657     
  -76301087.7029048     
  -76159753.7870182     
  -75996654.7917033     
  -75825990.5619516     
  -88356300.7118297     
  -88122922.9134743     
  -87899096.9981073     
  -87686202.9796705     
  -87484308.4048113     
  -87292974.0976525     
  -87112089.9073371     
  -86942274.9287052     
  -86783210.1329367     
  -86639364.5587353     
  -86519635.2184937     
  -86413994.0537390     
  -86313063.9810131     
  -86212099.0335322     
  -86108512.3935390     
  -86000849.3736977     
  -85888362.3834785     
  -85770768.5656922     
  -85648098.2964534     
  -85520593.4730974     
  -85388633.3580316     
  -85252676.4070124     
  -85113221.6731762     
  -84970809.7180584     
  -84826305.8016149     
  -84681064.2094141     
  -84535545.0506724     
  -84391616.1033788     
  -84248895.7767648     
  -84106625.4551700     
  -83964332.4066195     
  -83821768.6035265     
  -83678850.8345290     
  -83535583.1547240     
  -83392024.9042871     
  -83248271.0159923     
  -83104443.1407324     
  -82960699.2445371     
  -82817163.9659341     
  -82674112.7610196     
  -82533390.1024232     
  -82395127.4210497     
  -82258755.8822199     
  -82124132.3650442     
  -81990866.6410962     
  -81858751.3472074     
  -81727684.9581779     
  -81597678.9251843     
  -81468940.1954420     
  -81341590.1613549     
  -81215892.3798497     
  -81091688.9617589     
  -80968734.9203921     
  -80846830.4540949     
  -80725850.3743202     
  -80605729.0876271     
  -80486470.5218144     
  -80368136.2478594     
  -80250763.8218269     
  -80134258.7892119     
  -80018486.7302290     
  -79903343.2711597     
  -79788734.2051700     
  -79674592.9970314     
  -79560870.6244823     
  -79447531.4472443     
  -79334550.8500121     
  -79222217.7119326     
  -79111026.4201155     
  -79000286.8652326     
  -78889865.4567923     
  -78779780.9491991     
  -78670063.7013784     
  -78560757.4272882     
  -78451921.3494058     
  -78343632.6210934     
  -78235988.8128738     
  -78129110.1658282     
  -78023141.2014613     
  -77918251.1440226     
  -77814632.4642016     
  -77712496.7025838     
  -77612066.5883639     
  -77513563.3485233     
  -77417188.0027494     
  -77323095.3740801     
  -77231359.4720818     
  -77141928.8845623     
  -77054570.9932698     
  -76968804.0911397     
  -76883820.0448863     
  -76798400.1076689     
  -76710846.3969682     
  -76618933.6419666     
  -76519879.1676423     
  -76410486.9550744     
  -76286611.2906465     
  -76142845.6999257     
  -75979170.5694738     
  -75809728.7891212     
  -88327736.2195361     
  -88097643.9916031     
  -87878093.0174229     
  -87668845.9923356     
  -87469856.0801397     
  -87280939.0957790     
  -87102065.8182276     
  -86933933.4512695     
  -86776071.5461808     
  -86632225.7699142     
  -86511432.2193619     
  -86404410.6226595     
  -86302227.5473812     
  -86200235.1377090     
  -86095843.3076468     
  -85987580.2824940     
  -85874676.6973238     
  -85756828.9647391     
  -85634050.0572360     
  -85506568.4984717     
  -85374754.5445423     
  -85239063.0087350     
  -85099992.0139365     
  -84958089.2408979     
  -84814309.0804835     
  -84669950.8831702     
  -84525096.8421267     
  -84381456.7321399     
  -84238857.6966683     
  -84096670.4505609     
  -83954490.6816037     
  -83812087.1217932     
  -83669374.5525270     
  -83526354.7756739     
  -83383085.1729202     
  -83239661.0975302     
  -83096207.2663521     
  -82952892.3408706     
  -82809880.2723338     
  -82667572.6072395     
  -82527256.6401938     
  -82389263.9744546     
  -82253096.5516564     
  -82118619.2793467     
  -81985501.2151993     
  -81853548.6692891     
  -81722671.6564308     
  -81592901.5734369     
  -81464418.6013327     
  -81337224.8573734     
  -81211613.8727403     
  -81087480.2702995     
  -80964586.1361923     
  -80842746.4097758     
  -80721839.9024667     
  -80601801.7661664     
  -80482660.9115298     
  -80364428.4022767     
  -80247100.4714496     
  -80130631.0252791     
  -80014882.8367027     
  -79899756.1824660     
  -79785161.2151489     
  -79671031.1263685     
  -79557316.7119929     
  -79443981.9228219     
  -79331001.6726375     
  -79218737.9342789     
  -79107617.2836138     
  -78996867.9803734     
  -78886428.0800141     
  -78776315.1560577     
  -78666558.0579922     
  -78557198.6533507     
  -78448293.9835793     
  -78339918.7055227     
  -78232167.6208038     
  -78125158.0038489     
  -78019031.3247834     
  -77913953.8277068     
  -77810115.2735059     
  -77707724.9988820     
  -77607004.2923346     
  -77508173.9572904     
  -77411435.8267926     
  -77316946.9238249     
  -77224784.8747210     
  -77134903.1844800     
  -77047074.8836772     
  -76960823.6217973     
  -76875342.8635378     
  -76789406.3712378     
  -76701289.9325421     
  -76608701.5140406     
  -76508776.1526816     
  -76398135.2053001     
  -76272368.6267667     
  -76126827.4391499     
  -75963224.4736248     
  -75795091.9418005     
  -88298736.1883214     
  -88071945.7739928     
  -87856677.9564037     
  -87651076.7871631     
  -87455001.8049630     
  -87268515.6924177     
  -87091612.7662455     
  -86925128.0771380     
  -86768737.9767855     
  -86625520.9465076     
  -86504091.7941999     
  -86395812.7797444     
  -86292368.9626462     
  -86189297.1391809     
  -86084030.7809737     
  -85975092.9526290     
  -85861698.3209536     
  -85743525.3163428     
  -85620570.7709390     
  -85493050.3897112     
  -85361325.8404562     
  -85225848.2331662     
  -85087114.7012338     
  -84945672.9897720     
  -84802509.9245683     
  -84658892.6783869     
  -84514704.6285282     
  -84371406.2882825     
  -84228952.3234856     
  -84086867.4651623     
  -83944811.0947587     
  -83802571.0492930     
  -83660063.2245257     
  -83517287.9998273     
  -83374301.8212930     
  -83231200.5618354     
  -83088112.8188236     
  -82945213.0227523     
  -82802727.1983480     
  -82661191.0565819     
  -82521222.4259838     
  -82383439.7725313     
  -82247502.4121271     
  -82113181.8485905     
  -81980219.3914258     
  -81848432.5740006     
  -81717744.9196562     
  -81588200.9451917     
  -81459946.4296446     
  -81332911.4064449     
  -81207400.5991867     
  -81083344.4789682     
  -80960517.8589664     
  -80838747.4650049     
  -80717917.0086671     
  -80597964.0440536     
  -80478928.6336371     
  -80360788.0206901     
  -80243516.5876817     
  -80127085.1238258     
  -80011364.6087062     
  -79896258.3427069     
  -79781680.1405869     
  -79667563.5069361     
  -79553859.0976629     
  -79440530.5764260     
  -79327552.4542569     
  -79215356.2478394     
  -79104302.2805218     
  -78993544.5521470     
  -78883087.6967053     
  -78772948.1503155     
  -78663153.2915795     
  -78553743.1717316     
  -78444772.6678553     
  -78336313.9369641     
  -78228458.9803393     
  -78121322.0365245     
  -78015041.4063450     
  -77909780.1755110     
  -77805725.1448647     
  -77703083.1142971     
  -77602073.5074157     
  -77502916.1838702     
  -77405813.1771540     
  -77310923.0174706     
  -77218326.2297334     
  -77127980.5619298     
  -77039664.3332927     
  -76952906.7580066     
  -76866904.3630593     
  -76780427.3633862     
  -76691729.3005412     
  -76598465.3669620     
  -76497695.4128260     
  -76385859.8042970     
  -76258466.6643869     
  -76111756.7469383     
  -75948704.2591220     
  -75781901.5593285     
  -88269139.0799013     
  -88045802.8516854     
  -87834895.2344326     
  -87632925.3762815     
  -87439761.1899048     
  -87255722.9500543     
  -87080750.6853600     
  -86915843.7063445     
  -86761195.5690121     
  -86619252.5707541     
  -86497586.9303855     
  -86388156.8340599     
  -86283448.6734383     
  -86179250.3170871     
  -86073044.4080640     
  -85963361.0195703     
  -85849404.3700136     
  -85730837.7507674     
  -85607643.1473430     
  -85480024.0017175     
  -85348333.8926861     
  -85213019.9724693     
  -85074579.3803915     
  -84933550.5881097     
  -84790894.2002911     
  -84647897.2865298     
  -84504383.0446220     
  -84361464.9983362     
  -84219175.6379445     
  -84077210.5918993     
  -83935287.7315276     
  -83793214.9952230     
  -83650911.8822061     
  -83508378.2891368     
  -83365670.5439422     
  -83222885.4400057     
  -83080155.3087933     
  -82937657.8985472     
  -82795689.0194719     
  -82654792.1460412     
  -82515214.6479543     
  -82377677.7522853     
  -82241968.1138310     
  -82107820.2645316     
  -81975018.7234373     
  -81843400.9584133     
  -81712901.7328379     
  -81583573.7854186     
  -81455528.6898059     
  -81328652.6008037     
  -81203252.7580903     
  -81079281.8585867     
  -80956529.4534593     
  -80834832.7040308     
  -80714081.1318069     
  -80594213.8415986     
  -80475273.1558629     
  -80357218.8388919     
  -80240012.0301929     
  -80123621.7841013     
  -80007932.1442761     
  -79892849.6810629     
  -79778290.8621960     
  -79664189.9643137     
  -79550497.5777051     
  -79437177.1804436     
  -79324202.9551394     
  -79212132.7847152     
  -79101081.3388103     
  -78990316.5076790     
  -78879844.2433392     
  -78769679.8875314     
  -78659849.3863298     
  -78550391.0046576     
  -78441357.4717956     
  -78332818.4414342     
  -78224863.0827469     
  -78117602.5286573     
  -78011171.7921194     
  -77905730.6215911     
  -77801462.6074462     
  -77698571.6808682     
  -77597274.9796820     
  -77497790.9071810     
  -77400321.0967316     
  -77305024.9151080     
  -77211985.0891566     
  -77121162.9707844     
  -77032341.8236463     
  -76945056.6162470     
  -76858508.6169567     
  -76771468.0418193     
  -76682172.0919248     
  -76588237.2482747     
  -76486652.3705819     
  -76373708.2069837     
  -76244995.6983946     
  -76097656.9328106     
  -75935502.4716001     
  -75770011.9925652     
  -88238773.8676968     
  -88019196.7822430     
  -87812792.6879520     
  -87614420.0227283     
  -87424148.2572611     
  -87242581.5214332     
  -87069508.4742419     
  -86906044.3591029     
  -86753414.1009462     
  -86613441.7948005     
  -86491897.6462375     
  -86381398.2716541     
  -86275425.8570830     
  -86170058.0497645     
  -86062852.0808697     
  -85952356.6183882     
  -85837770.7041931     
  -85718745.3700132     
  -85595249.0649084     
  -85467473.5204505     
  -85335764.7360404     
  -85200565.8919556     
  -85062374.5269863     
  -84921714.9636647     
  -84779451.2961322     
  -84636961.2777066     
  -84494148.8412770     
  -84351634.3427326     
  -84209523.5941723     
  -84067694.7892939     
  -83925915.1129038     
  -83784013.9407362     
  -83641915.8595874     
  -83499621.3454944     
  -83357187.2220278     
  -83214711.9887009     
  -83072330.2612140     
  -82930224.9057043     
  -82788744.7757494     
  -82648402.2135188     
  -82509234.3484036     
  -82371975.5006095     
  -82236496.5673135     
  -82102532.3912153     
  -81969897.7889815     
  -81838451.6236778     
  -81708139.3882671     
  -81579018.0722233     
  -81451168.5876192     
  -81324450.9888982     
  -81199170.8332687     
  -81075292.5812045     
  -80952620.4374394     
  -80831001.3362382     
  -80710331.5026430     
  -80590550.0454753     
  -80471693.7250006     
  -80353723.2609487     
  -80236587.5934153     
  -80120241.3085553     
  -80004585.6422490     
  -79889530.1405731     
  -79774993.2762142     
  -79660910.3439115     
  -79547231.9645077     
  -79433921.5243004     
  -79320952.9504951     
  -79209004.2752048     
  -79097954.3882485     
  -78987183.7740185     
  -78876697.6533805     
  -78766510.3163708     
  -78656646.3147094     
  -78547142.1569802     
  -78438048.4413117     
  -78329432.3147202     
  -78221380.0826586     
  -78113999.7028383     
  -78007422.7819672     
  -77901805.5528208     
  -77797328.1459885     
  -77694191.2945472     
  -77592609.4348540     
  -77492799.0107779     
  -77394960.6706721     
  -77299253.9715326     
  -77205763.1729270     
  -77114452.6325796     
  -77025110.2181750     
  -76937276.8825061     
  -76850160.3357403     
  -76762534.2542404     
  -76672626.9965115     
  -76578029.2098555     
  -76475666.2784893     
  -76361731.5532686     
  -76232027.0885554     
  -76084527.1156609     
  -75923519.5767986     
  -75759303.0226061     
  -88207449.7489809     
  -87992124.7614233     
  -87790426.1685270     
  -87595585.4677338     
  -87408175.6315564     
  -87229110.4014764     
  -87057932.7401228     
  -86895666.5166952     
  -86745341.7976116     
  -86608139.1486943     
  -86487006.8126991     
  -86375491.4031442     
  -86268258.8844941     
  -86161681.7623128     
  -86053420.1390496     
  -85942050.4389603     
  -85826771.9921531     
  -85707226.3041503     
  -85583369.5955238     
  -85455382.5591807     
  -85323603.6939929     
  -85188473.7555814     
  -85050486.8666131     
  -84910163.0569068     
  -84768174.2098718     
  -84626067.4084303     
  -84484025.3308038     
  -84341914.4971422     
  -84199992.7829205     
  -84058315.6112184     
  -83916688.2179361     
  -83774963.2372924     
  -83633070.7960415     
  -83491013.0877558     
  -83348848.0265471     
  -83206676.3489180     
  -83064634.3906104     
  -82922909.3837587     
  -82781883.2291440     
  -82642035.2610763     
  -82503285.9435563     
  -82366331.8644336     
  -82231089.4476067     
  -82097316.9864165     
  -81964855.0711506     
  -81833582.6341992     
  -81703455.4932120     
  -81574532.4209757     
  -81446868.2340072     
  -81320308.7406068     
  -81195155.4895963     
  -81071376.7967555     
  -80948790.4240147     
  -80827252.7056838     
  -80706667.1014574     
  -80586972.6757777     
  -80468188.8346104     
  -80350303.0573106     
  -80233244.6123152     
  -80116943.7295263     
  -80001325.3698940     
  -79886299.6712505     
  -79771787.2978230     
  -79657724.5073645     
  -79544062.0868160     
  -79430763.4133157     
  -79317802.2299886     
  -79205968.5701465     
  -79094921.3600642     
  -78984146.2778500     
  -78873647.8570780     
  -78763439.3784551     
  -78653544.0373642     
  -78543996.6161219     
  -78434845.5986404     
  -78326155.6223822     
  -78218010.0980944     
  -78110513.7394894     
  -78003794.6297152     
  -77898005.3089497     
  -77793322.2010852     
  -77689942.5157332     
  -77588077.5791099     
  -77487941.3841720     
  -77389733.0280872     
  -77293611.6384214     
  -77199662.3729042     
  -77107852.0379858     
  -77017972.7802320     
  -76929571.8152557     
  -76841864.9181152     
  -76753632.8514982     
  -76663103.5915073     
  -76567853.9489261     
  -76464760.0271987     
  -76349980.1761021     
  -76219613.6622165     
  -76072350.0366405     
  -75912665.0909264     
  -75749674.4016186     
  -88174942.7143320     
  -87964612.9596791     
  -87767862.2422121     
  -87576439.5296900     
  -87391857.4873726     
  -87215318.1291244     
  -87046105.0771060     
  -86884607.5351593     
  -86736895.0931156     
  -86603444.7693007     
  -86482890.1476481     
  -86370390.9793359     
  -86261905.2117431     
  -86154080.9556123     
  -86044713.5370354     
  -85932411.7718143     
  -85816381.7796329     
  -85696257.8019164     
  -85571984.9603808     
  -85443734.4135231     
  -85311834.9968872     
  -85176732.1859621     
  -85038900.4408070     
  -84898895.5587468     
  -84757063.7378227     
  -84615175.3819347     
  -84474052.7174691     
  -84332298.2082672     
  -84190582.8171606     
  -84049068.2125894     
  -83907602.8010906     
  -83766058.4882804     
  -83624372.6659882     
  -83482549.6758612     
  -83340649.3157576     
  -83198774.8707221     
  -83057064.6493464     
  -82915706.7837476     
  -82775097.4843199     
  -82635698.4839249     
  -82497374.6987214     
  -82360747.1506380     
  -82225747.6749892     
  -82092173.2642742     
  -81959889.1518011     
  -81828792.2396090     
  -81698848.0065300     
  -81570115.7588366     
  -81442629.0138852     
  -81316227.6490685     
  -81191207.4729769     
  -81067534.7095607     
  -80945038.9973423     
  -80823586.5009128     
  -80703086.2230777     
  -80583483.5602316     
  -80464755.3712671     
  -80346960.0168406     
  -80229984.8132106     
  -80113728.7119103     
  -79998151.7651873     
  -79883158.1592325     
  -79768672.8927599     
  -79654632.3170833     
  -79540987.7948853     
  -79427702.6656512     
  -79314773.7151115     
  -79203025.6156765     
  -79091982.1868123     
  -78981203.9452162     
  -78870694.7813487     
  -78760467.0082891     
  -78650542.5031245     
  -78540954.3521341     
  -78431748.9424561     
  -78322988.3999065     
  -78214753.2106536     
  -78107144.7770971     
  -78000287.5434441     
  -77894330.1829756     
  -77789445.1696931     
  -77685825.8699935     
  -77583680.1000657     
  -77483218.9242162     
  -77384639.3435598     
  -77288099.4664182     
  -77193684.7546363     
  -77101363.9488601     
  -77010933.1824923     
  -76921946.2449724     
  -76833628.5107663     
  -76744771.7117057     
  -76653612.2888910     
  -76557725.3168212     
  -76453959.1546253     
  -76338500.3924359     
  -76207791.5017701     
  -76061097.8103074     
  -75902857.6304122     
  -75741041.7570577     
  -88140976.3729276     
  -87936738.7360937     
  -87745178.8859527     
  -87556985.7225556     
  -87375220.3412111     
  -87201180.6348636     
  -87034176.2670366     
  -86872705.3341308     
  -86727939.1841144     
  -86599547.2894259     
  -86479492.0876469     
  -86366060.6123232     
  -86256318.4896903     
  -86147214.2133728     
  -86036695.7037078     
  -85923408.6225088     
  -85806572.6265096     
  -85685816.0880994     
  -85561075.1530744     
  -85432510.5303355     
  -85300446.1851235     
  -85165318.7900787     
  -85027628.7644542     
  -84887830.4338663     
  -84746355.1385332     
  -84604964.7986889     
  -84464220.3492638     
  -84322793.1209949     
  -84181288.5731682     
  -84039949.9682191     
  -83898654.4327210     
  -83757295.8748125     
  -83615817.6642803     
  -83474227.5463473     
  -83332587.6311008     
  -83191004.1329533     
  -83049618.0255546     
  -82908613.6649127     
  -82768382.5979968     
  -82629394.5594914     
  -82491506.1359874     
  -82355222.8514091     
  -82220471.7438904     
  -82087100.6789565     
  -81954998.7680946     
  -81824078.8634448     
  -81694315.2086842     
  -81565767.1585159     
  -81438451.7867898     
  -81312209.1593555     
  -81187327.6010364     
  -81063766.4621072     
  -80941366.0669919     
  -80820001.6851305     
  -80699589.5191219     
  -80580077.6915637     
  -80461466.4843867     
  -80343723.8961722     
  -80226799.4821618     
  -80110599.5932541     
  -79995063.9550786     
  -79880105.9577269     
  -79765649.8834210     
  -79651633.7044735     
  -79538008.9350195     
  -79424739.1205056     
  -79311867.0046377     
  -79200175.3606170     
  -79089136.8016223     
  -78978356.7015528     
  -78867838.3496531     
  -78757593.1333052     
  -78647641.6490977     
  -78538015.3178764     
  -78428758.4481151     
  -78319930.6530144     
  -78211609.4658822     
  -78103892.9126354     
  -77996901.6859784     
  -77890780.4217218     
  -77785697.4058457     
  -77681841.8489600     
  -77579417.6679100     
  -77478632.5364955     
  -77379680.8385745     
  -77282719.1067307     
  -77187832.5577824     
  -77094991.3995579     
  -77003995.5081857     
  -76914405.5752832     
  -76825458.0517152     
  -76735959.7258805     
  -76644164.3928645     
  -76547658.5628720     
  -76443290.5266665     
  -76327332.4973829     
  -76196582.3014994     
  -76050736.0420122     
  -75894024.4085944     
  -75733333.4760315     
  -88105192.8739521     
  -87908668.6568199     
  -87722462.6927992     
  -87537195.8371270     
  -87358334.4586785     
  -87186587.6542294     
  -87022435.2191700     
  -86859701.9046550     
  -86718250.5233758     
  -86596800.9812572     
  -86476668.2221086     
  -86362501.0859752     
  -86251435.6537092     
  -86141044.7898033     
  -86029326.4023525     
  -85915008.7176428     
  -85797315.7307770     
  -85675876.8944688     
  -85550618.9574591     
  -85421693.5179119     
  -85289419.4306244     
  -85154226.0519992     
  -85016638.3589573     
  -84877027.5248872     
  -84735856.1007880     
  -84595083.5119748     
  -84454569.2099644     
  -84313385.8866944     
  -84172112.6501993     
  -84030956.0415536     
  -83889840.0113712     
  -83748671.6133935     
  -83607402.3939334     
  -83466043.3425317     
  -83324659.7293552     
  -83183360.9297804     
  -83042291.4541986     
  -82901628.1539727     
  -82761734.5636778     
  -82623122.2295633     
  -82485686.4179812     
  -82349761.2475895     
  -82215261.8806029     
  -82082098.8491836     
  -81950182.8054410     
  -81819441.1077499     
  -81689855.6619241     
  -81561485.7501303     
  -81434336.9796488     
  -81308254.4499044     
  -81183516.6673795     
  -81060072.3351841     
  -80937771.2733375     
  -80816498.1917354     
  -80696175.0249518     
  -80576757.8408125     
  -80458254.0591511     
  -80340570.6369585     
  -80223697.2239656     
  -80107553.9316182     
  -79992062.9749346     
  -79877142.7846329     
  -79762718.3226376     
  -79648728.5409688     
  -79535125.3927588     
  -79421872.6225294     
  -79309055.4720464     
  -79197417.7538050     
  -79086385.1388504     
  -78975604.4713200     
  -78865078.4821030     
  -78754817.6739334     
  -78644841.4008793     
  -78535179.4493028     
  -78425874.0680330     
  -78316982.3581184     
  -78208578.8738036     
  -78100758.2021695     
  -77993637.1755676     
  -77887356.2266123     
  -77782079.2215504     
  -77677990.9113871     
  -77575290.9366511     
  -77474183.1367023     
  -77374858.7828694     
  -77277472.3121264     
  -77182108.1957038     
  -77088737.6962609     
  -76997164.2465420     
  -76906955.7834238     
  -76817361.2889877     
  -76727206.7770919     
  -76634772.1969176     
  -76537670.3134509     
  -76432781.0135726     
  -76316509.7366112     
  -76185995.8157682     
  -76041226.7021131     
  -75886100.4783819     
  -75726488.3039638     
  -88067102.7838212     
  -87880740.2799060     
  -87699758.4770140     
  -87517073.7678977     
  -87341135.1660177     
  -87171856.5419220     
  -87009882.6792521     
  -86854017.7343705     
  -86715599.8306077     
  -86594196.2654861     
  -86474738.7196594     
  -86359550.2782015     
  -86247248.4043521     
  -86135515.2679604     
  -86022570.8598013     
  -85907176.3836158     
  -85788582.2077695     
  -85666414.9191388     
  -85540594.7925166     
  -85411265.2259680     
  -85278737.4021072     
  -85143443.8471120     
  -85005902.0205119     
  -84866525.5581224     
  -84725611.4135031     
  -84585306.8274972     
  -84445072.7983469     
  -84304082.2178849     
  -84163051.9212328     
  -84022083.7903411     
  -83881156.2742459     
  -83740182.4323714     
  -83599123.7035912     
  -83457993.9753984     
  -83316862.5360039     
  -83175842.3536552     
  -83035081.5951848     
  -82894750.2927612     
  -82755150.1605048     
  -82616875.5195315     
  -82479923.6604607     
  -82344364.7674628     
  -82210118.1599114     
  -82077167.5410359     
  -81945440.2664770     
  -81814877.7558135     
  -81685468.1838985     
  -81557270.6635371     
  -81430284.6354203     
  -81304364.4726552     
  -81179775.5010110     
  -81056452.5519370     
  -80934254.5219382     
  -80813075.3459832     
  -80692842.7433831     
  -80573521.1259467     
  -80455114.1727414     
  -80337496.5365204     
  -80220678.6959932     
  -80104592.1168637     
  -79989148.8253323     
  -79874268.7270055     
  -79759878.1468733     
  -79645916.7560298     
  -79532337.0514518     
  -79419103.0354023     
  -79306339.0228060     
  -79194752.7461352     
  -79083727.1331945     
  -78972947.1782537     
  -78862415.0954545     
  -78752140.5438219     
  -78642141.6728371     
  -78532446.6658677     
  -78423095.7321903     
  -78314143.4629296     
  -78205661.4096181     
  -78097740.6616413     
  -77990494.0867536     
  -77884057.7546312     
  -77778590.8878591     
  -77674273.4843504     
  -77571300.5454530     
  -77469871.6520036     
  -77370174.4956462     
  -77272360.9373744     
  -77176514.2543317     
  -77082606.4138315     
  -76990444.2843637     
  -76899603.4158531     
  -76809346.7761100     
  -76718523.7241243     
  -76625449.0635897     
  -76527778.3514795     
  -76422456.3509311     
  -76306058.0029190     
  -76176032.1423714     
  -76032530.0787710     
  -75879027.8867733     
  -75720453.4708002     
  -88027087.8621537     
  -87854051.3139673     
  -87676850.1013497     
  -87496632.0864917     
  -87323726.6483413     
  -87156764.5256148     
  -86997139.3017370     
  -86848694.8434902     
  -86714699.2879183     
  -86592632.0969999     
  -86473375.8527964     
  -86357261.0059298     
  -86243674.2750711     
  -86130591.7118101     
  -86016384.7867491     
  -85899877.8069971     
  -85780341.4268311     
  -85657404.4259618     
  -85530980.8390129     
  -85401206.0314627     
  -85268385.9495279     
  -85132951.1319225     
  -84995425.2577358     
  -84856258.8143703     
  -84716147.0496941     
  -84575889.8048829     
  -84435632.4418207     
  -84294911.2578159     
  -84154095.1152705     
  -84013333.8200545     
  -83872599.3182466     
  -83731825.7527819     
  -83590978.5964534     
  -83450076.6989825     
  -83309193.0159471     
  -83168446.0439365     
  -83027984.3815980     
  -82887982.3009161     
  -82748627.8842502     
  -82610641.0343865     
  -82474230.9024470     
  -82339034.5084752     
  -82205040.9164649     
  -82072306.5602322     
  -81940770.2708415     
  -81810387.7561480     
  -81681151.8426449     
  -81553120.9949420     
  -81426294.3986080     
  -81300540.0389338     
  -81176104.9374986     
  -81052907.3698515     
  -80930815.6775091     
  -80809732.7079951     
  -80689592.2665714     
  -80570365.6263979     
  -80452049.5604766     
  -80334501.5401944     
  -80217743.4988745     
  -80101714.6584504     
  -79986321.5068443     
  -79871483.8512899     
  -79757129.3182229     
  -79643198.2841477     
  -79529643.8107478     
  -79416430.2345522     
  -79303717.5694433     
  -79192180.2892845     
  -79081162.7200446     
  -78970384.7452667     
  -78859848.1033123     
  -78749561.6500911     
  -78639542.3685078     
  -78529816.8710364     
  -78420423.3487679     
  -78311413.8872069     
  -78202857.0145595     
  -78094840.2678228     
  -77987472.4514156     
  -77880885.1194538     
  -77775232.6360907     
  -77670689.9645628     
  -77567447.1200207     
  -77465699.0223758     
  -77365629.3465870     
  -77267386.9392165     
  -77171053.4902433     
  -77076601.3902911     
  -76983840.8945854     
  -76892355.5759493     
  -76801423.8491826     
  -76709922.3865182     
  -76616209.4543264     
  -76518001.2809728     
  -76412340.2723837     
  -76295996.0282043     
  -76166683.7229377     
  -76024606.0601313     
  -75872754.8299038     
  -75715183.2119115     
  -88012012.8906139     
  -87831965.6994917     
  -87652507.4044877     
  -87476310.7831408     
  -87305946.5179898     
  -87141485.6674604     
  -86983890.4657353     
  -86842480.0905338     
  -86714099.7599668     
  -86592071.3443766     
  -86472572.8152530     
  -86355569.3146217     
  -86240670.1684000     
  -86126224.8080351     
  -86010727.8515911     
  -85893076.5622775     
  -85772562.5925055     
  -85648819.0520847     
  -85521754.4862673     
  -85391497.2348566     
  -85258347.1006649     
  -85122736.8729461     
  -84985184.9055091     
  -84846237.1817357     
  -84706664.6649543     
  -84566549.2307062     
  -84426330.1001511     
  -84285841.2429565     
  -84145251.1029527     
  -84004700.4185827     
  -83864167.7936072     
  -83723598.6183127     
  -83582964.5256559     
  -83442289.1424466     
  -83301647.9037406     
  -83161170.6873830     
  -83020994.3848955     
  -82881328.2643806     
  -82742171.2082002     
  -82604391.3806510     
  -82468632.8163082     
  -82333766.3275708     
  -82200032.3875090     
  -82067515.0910905     
  -81936172.2938189     
  -81805970.0966905     
  -81676906.0155398     
  -81549035.7753273     
  -81422365.4503587     
  -81296781.9120866     
  -81172505.8441249     
  -81049437.0364658     
  -80927454.6175843     
  -80806469.9505237     
  -80686422.9698626     
  -80567290.3414448     
  -80449061.7451360     
  -80331585.9087583     
  -80214891.3511796     
  -80098921.8582816     
  -79983581.0902948     
  -79868788.1947702     
  -79754471.8194248     
  -79640573.0679516     
  -79527045.5841067     
  -79413854.1077874     
  -79301191.0309678     
  -79189700.3358238     
  -79078691.8354091     
  -78967917.0945916     
  -78857377.4163458     
  -78747080.8936880     
  -78637043.3810799     
  -78527289.9529073     
  -78417856.8049055     
  -78308793.5236481     
  -78200165.5969081     
  -78092056.9594366     
  -77984572.2599823     
  -77877838.3927382     
  -77772004.6591901     
  -77667240.7197888     
  -77563731.2740147     
  -77461666.2018825     
  -77361224.7566481     
  -77262552.3759040     
  -77165728.8278532     
  -77070726.7192492     
  -76977359.7219361     
  -76885219.9025501     
  -76793602.5897232     
  -76701415.5217097     
  -76607068.8990594     
  -76508358.1545701     
  -76402453.9340568     
  -76286335.8871513     
  -76157937.0236464     
  -76017414.9348298     
  -75867234.8528526     
  -75710637.5879639     
  -88004421.7092350     
  -87810020.2764729     
  -87627949.4597607     
  -87455789.9699800     
  -87287823.2591754     
  -87126247.0857245     
  -86969587.0283453     
  -86835575.1228430     
  -86714106.5958347     
  -86592262.1141736     
  -86472360.3301949     
  -86354401.9153561     
  -86238192.1792300     
  -86122364.7566331     
  -86005558.3875059     
  -85886735.6443979     
  -85765214.2172442     
  -85640631.8931184     
  -85512893.0345689     
  -85382119.1070530     
  -85248604.9443035     
  -85112783.5290685     
  -84975176.3050434     
  -84836411.8062910     
  -84697216.1501364     
  -84557277.7146550     
  -84417149.7034683     
  -84276875.2139518     
  -84136516.2702854     
  -83996182.6132818     
  -83855859.1659453     
  -83715498.8108261     
  -83575079.4080843     
  -83434628.1948088     
  -83294227.1277427     
  -83154006.5908675     
  -83014130.0562549     
  -82874727.0457487     
  -82735963.1398734     
  -82598647.1361811     
  -82463110.4862778     
  -82328569.9750000     
  -82195089.9492246     
  -82062794.0776323     
  -81931645.3179055     
  -81801624.0499373     
  -81672730.3376209     
  -81545014.0202106     
  -81418496.3331280     
  -81293090.9790336     
  -81168979.1202879     
  -81046041.7594122     
  -80924171.2597763     
  -80803286.7750574     
  -80683334.2346472     
  -80564294.6840088     
  -80446151.6069854     
  -80328749.9492940     
  -80212122.0838509     
  -80096213.8887451     
  -79980927.6652941     
  -79866181.7889563     
  -79751905.6431321     
  -79638041.0614570     
  -79524542.2971334     
  -79411374.5554416     
  -79298759.3325860     
  -79187312.8392530     
  -79076314.4159570     
  -78965544.1479594     
  -78855002.9425797     
  -78744698.1698178     
  -78634644.5939696     
  -78524865.7849403     
  -78415395.9675815     
  -78306282.2389178     
  -78197587.0331527     
  -78089390.6384341     
  -77981793.4628022     
  -77874917.6055634     
  -77768907.1132081     
  -77663926.0903286     
  -77560153.6104696     
  -77457774.1598522     
  -77356962.1986044     
  -77257859.4063077     
  -77160543.3557044     
  -77064986.7406244     
  -76971006.7655633     
  -76878204.5395922     
  -76785893.7756632     
  -76693016.7846420     
  -76598043.9104399     
  -76498868.1238961     
  -76392815.6117121     
  -76277083.6762845     
  -76149773.9043293     
  -76010917.8499359     
  -75862426.1131194     
  -75706781.5339494     
  -87994095.7202255     
  -87786944.6073864     
  -87603146.6366172     
  -87435233.0652530     
  -87269249.9892710     
  -87111068.4064730     
  -86957585.9596208     
  -86829542.8693616     
  -86714578.5855822     
  -86593154.6636326     
  -86472680.5975652     
  -86353712.6328412     
  -86236185.4584305     
  -86118963.9831366     
  -86000832.8878812     
  -85880817.6957857     
  -85758264.1644486     
  -85632815.7227512     
  -85504373.3717788     
  -85373052.1088979     
  -85239142.4136861     
  -85103076.5079201     
  -84965386.1314555     
  -84826755.6723409     
  -84687828.0000230     
  -84548075.5005355     
  -84408078.8022878     
  -84268013.2664261     
  -84127888.5658650     
  -83987779.0132695     
  -83847671.4818178     
  -83707524.4589084     
  -83567320.9964509     
  -83427092.4661543     
  -83286926.3461577     
  -83146957.7291358     
  -83007368.7866067     
  -82868242.3451469     
  -82729810.1535011     
  -82592957.7950443     
  -82457698.5439631     
  -82323435.4942398     
  -82190217.7037487     
  -82058142.2085951     
  -81927189.2306085     
  -81797348.6052489     
  -81668624.9489089     
  -81541054.7621581     
  -81414684.6170782     
  -81289468.5548271     
  -81165525.6434484     
  -81042721.6921285     
  -80920965.5671615     
  -80800182.8950765     
  -80680325.5111534     
  -80561378.2541639     
  -80443319.6543029     
  -80325993.9195607     
  -80209435.6002777     
  -80093590.8452790     
  -79978361.3168234     
  -79863664.6670386     
  -79749430.7891709     
  -79635602.2301416     
  -79522133.8872697     
  -79408991.4901169     
  -79296422.4056228     
  -79185017.7540160     
  -79074030.3991435     
  -78963265.8268275     
  -78852724.5877588     
  -78742413.3684497     
  -78632345.8814837     
  -78522544.2267853     
  -78413040.6846110     
  -78303879.8748066     
  -78195121.1692976     
  -78086841.1714254     
  -77979135.9716635     
  -77872122.7500014     
  -77765940.1188814     
  -77660746.3905506     
  -77556714.7231815     
  -77454023.8819319     
  -77352843.1973249     
  -77253310.2885835     
  -77155500.3218876     
  -77059386.0298967     
  -76964788.3585489     
  -76871318.0979586     
  -76778308.8213479     
  -76684740.6630047     
  -76589151.8555574     
  -76489550.1518667     
  -76383440.6327831     
  -76268240.2738370     
  -76142172.7063515     
  -76005077.0269458     
  -75858290.7125441     
  -75703584.0858437     
  -87982524.4528312     
  -87764084.5035263     
  -87579597.5815669     
  -87414187.2977064     
  -87250500.2472870     
  -87095321.3923368     
  -86951637.7769189     
  -86826950.4457128     
  -86715363.7352154     
  -86594735.0826854     
  -86473452.9523178     
  -86353458.2420728     
  -86234592.7345123     
  -86115974.2945827     
  -85996507.1038073     
  -85875284.7768348     
  -85751679.8740147     
  -85625342.9941252     
  -85496172.2096322     
  -85364276.5671004     
  -85229942.4006275     
  -85093601.5205766     
  -84955798.9453776     
  -84817251.6137494     
  -84678513.8619050     
  -84538944.6324031     
  -84399108.4946605     
  -84259253.9037588     
  -84119366.6279086     
  -83979488.2569050     
  -83839603.1989587     
  -83699673.8854652     
  -83559687.5763248     
  -83419680.1036324     
  -83279743.4469630     
  -83140022.4585203     
  -83000704.3151938     
  -82861890.3695759     
  -82723657.9551303     
  -82587278.2880116     
  -82452389.7173413     
  -82318364.7457780     
  -82185416.0679350     
  -82053559.3257494     
  -81922803.7474488     
  -81793142.6952466     
  -81664590.4584216     
  -81537157.3729612     
  -81410926.1584997     
  -81285917.0544677     
  -81162146.0247076     
  -81039476.9860466     
  -80917837.5336996     
  -80797158.0395490     
  -80677396.3254321     
  -80558540.7330285     
  -80440566.1592933     
  -80323317.9979094     
  -80206831.8390792     
  -80091052.7767765     
  -79975882.1170267     
  -79861236.8652286     
  -79747047.2643087     
  -79633256.5504543     
  -79519820.3037165     
  -79406704.8364628     
  -79294180.1874917     
  -79182815.0355699     
  -79071839.7233885     
  -78961082.0526706     
  -78850542.2557738     
  -78740226.3748973     
  -78630147.1095714     
  -78520325.1252121     
  -78410790.7857571     
  -78301586.2495188     
  -78192767.8223075     
  -78084408.3912512     
  -77976599.6614527     
  -77869453.7808104     
  -77763103.7632995     
  -77657701.9104532     
  -77553415.1980403     
  -77450416.3709703     
  -77348869.3297536     
  -77248907.3783628     
  -77150603.1286418     
  -77053929.3860507     
  -76958711.1444573     
  -76864569.6109751     
  -76770859.7067245     
  -76676602.3850994     
  -76580410.8000416     
  -76480422.8072089     
  -76374341.4995196     
  -76259802.1196110     
  -76135109.0987748     
  -75999855.8075615     
  -75854794.0947635     
  -75701017.7464074     
  -87970992.8483887     
  -87752040.2939141     
  -87560765.6656953     
  -87391156.8709242     
  -87232496.3854109     
  -87077872.3872116     
  -86947716.9821174     
  -86831971.1184998     
  -86716925.3391439     
  -86596811.2841843     
  -86474645.7375297     
  -86353576.1227873     
  -86233360.9825693     
  -86113345.0736272     
  -85992536.6635454     
  -85870098.3459311     
  -85745428.4902677     
  -85618185.9305688     
  -85488266.1649171     
  -85355772.7323415     
  -85220987.9474625     
  -85084344.0702818     
  -84946399.4038222     
  -84807887.0262295     
  -84669280.3561559     
  -84529886.9554668     
  -84390232.5311127     
  -84250594.9924317     
  -84110949.3721226     
  -83971309.1883994     
  -83831653.0807542     
  -83691945.6867089     
  -83552177.7930755     
  -83412389.2028768     
  -83272677.5541313     
  -83133195.7570665     
  -82994142.3909192     
  -82855644.8666752     
  -82717895.9300863     
  -82581783.5939506     
  -82447124.4980035     
  -82313375.7948832     
  -82180680.0876552     
  -82049046.9837649     
  -81918488.3197656     
  -81789005.0648996     
  -81660627.8959516     
  -81533322.3608566     
  -81407213.5074396     
  -81282441.4812887     
  -81158839.8524367     
  -81036308.0825968     
  -80914787.0734875     
  -80794211.9958130     
  -80674546.2555232     
  -80555781.8352724     
  -80437891.2289678     
  -80320722.2783102     
  -80204310.7465121     
  -80088599.7019965     
  -79973490.1240094     
  -79858898.4224716     
  -79744755.0825803     
  -79631004.0094628     
  -79517601.5073697     
  -79404514.5310536     
  -79292032.6217082     
  -79180704.6405146     
  -79069742.3283020     
  -78958992.7473276     
  -78848455.8491520     
  -78738137.0704723     
  -78628048.1366542     
  -78518208.3151333     
  -78408646.0839506     
  -78299401.1590801     
  -78190526.7816835     
  -78082092.0986904     
  -77974184.3719427     
  -77866910.6172354     
  -77760398.1016364     
  -77654792.9172267     
  -77550255.6142818     
  -77446952.6477060     
  -77345042.2245588     
  -77244653.1264459     
  -77145855.3262078     
  -77048621.8183225     
  -76952782.0512563     
  -76857968.4849966     
  -76763558.8960430     
  -76668617.8009169     
  -76571839.3376716     
  -76471504.1462826     
  -76365528.1609351     
  -76251761.9797723     
  -76128556.7241577     
  -75995218.5796519     
  -75851904.5012417     
  -75699057.9611256     
  -87962727.7038503     
  -87748641.3134894     
  -87541938.4002716     
  -87368915.5272236     
  -87213404.4287594     
  -87070277.9856181     
  -86947222.9955218     
  -86835689.5027412     
  -86719982.3871453     
  -86599089.1950400     
  -86476263.4277804     
  -86353985.7087564     
  -86232441.9246525     
  -86111022.8979921     
  -85988877.4486402     
  -85865219.2418869     
  -85739477.0207907     
  -85611316.6011069     
  -85480631.8430854     
  -85347520.8836427     
  -85212262.2627584     
  -85075289.5283930     
  -84937172.8927126     
  -84798651.4486666     
  -84660129.9350029     
  -84520903.5300751     
  -84381446.4682461     
  -84242034.3035863     
  -84102635.8466778     
  -83963240.9054301     
  -83823820.1483361     
  -83684338.8058559     
  -83544790.4002761     
  -83405218.5841185     
  -83265726.6097926     
  -83126476.7338740     
  -82987677.5969366     
  -82849508.1758837     
  -82712301.3938877     
  -82576407.0575037     
  -82441923.0823992     
  -82308460.4170928     
  -82176013.1662972     
  -82044604.2657425     
  -81914242.5750253     
  -81784936.8223486     
  -81656730.2373995     
  -81529574.2126964     
  -81403602.8488493     
  -81279044.1953472     
  -81155607.1750797     
  -81033215.2775590     
  -80911814.1471655     
  -80791344.5756936     
  -80671774.9283078     
  -80553101.2788301     
  -80435294.8459232     
  -80318206.7720921     
  -80201872.2585439     
  -80086231.6178640     
  -79971185.3835698     
  -79856649.3801771     
  -79742554.2656807     
  -79628844.6047286     
  -79515477.4707752     
  -79402420.5223420     
  -79289979.6579421     
  -79178686.5267726     
  -79067738.1549648     
  -78956997.8334046     
  -78846465.2696066     
  -78736145.3332031     
  -78626048.8145390     
  -78516193.6207214     
  -78406606.3766136     
  -78297324.3788627     
  -78188397.8111641     
  -78079892.0642962     
  -77971889.9096994     
  -77864493.1449050     
  -77757823.1589361     
  -77652019.6567979     
  -77547236.5456223     
  -77443633.7512253     
  -77341363.5614273     
  -77240550.0759705     
  -77141260.6059753     
  -77043468.5318611     
  -76947008.2630838     
  -76851524.4464454     
  -76756419.2472043     
  -76660803.2398360     
  -76563456.4149216     
  -76462811.6760102     
  -76357008.3962817     
  -76244109.6804244     
  -76122487.6836331     
  -75991130.6182165     
  -75849592.4769261     
  -75697682.6821707     
  -87955067.2219291     
  -87743021.4041617     
  -87533849.8976342     
  -87354322.0501025     
  -87202107.2173899     
  -87067150.4937787     
  -86946836.2602083     
  -86840209.1372543     
  -86723549.4284340     
  -86601812.2637579     
  -86478133.6018503     
  -86354660.9093027     
  -86231767.4697603     
  -86108960.0249723     
  -85985482.8390355     
  -85860608.7765751     
  -85733792.1063620     
  -85604707.1342023     
  -85473245.8829457     
  -85339501.4405199     
  -85203748.7346637     
  -85066423.3185684     
  -84928105.6182342     
  -84789535.4137145     
  -84651062.3717736     
  -84511994.5486568     
  -84372747.0481040     
  -84233569.7770342     
  -84094425.2136821     
  -83955282.7476608     
  -83816103.7015739     
  -83676852.4433530     
  -83537524.4904926     
  -83398167.1253233     
  -83258889.2699566     
  -83119863.2928340     
  -82981308.3269269     
  -82843469.5333538     
  -82706705.6133782     
  -82571076.5679491     
  -82436802.7063788     
  -82303612.9855149     
  -82171417.1405220     
  -82040231.1790086     
  -81910065.3076513     
  -81780940.7462490     
  -81652887.4910466     
  -81525939.5280294     
  -81400174.5026576     
  -81275721.8589064     
  -81152449.7504184     
  -81030198.2262430     
  -80908918.9523173     
  -80788555.5463500     
  -80669082.0329640     
  -80550498.7599515     
  -80432776.8937054     
  -80315771.4100779     
  -80199516.2904382     
  -80083948.5033995     
  -79968967.9320565     
  -79854489.7823970     
  -79740444.8433934     
  -79626778.3443547     
  -79513448.1781361     
  -79400422.7706692     
  -79288021.2521228     
  -79176760.6538213     
  -79065827.1462554     
  -78955097.2347290     
  -78844570.4186445     
  -78734251.0386233     
  -78624148.9894024     
  -78514280.8566085     
  -78404671.4470826     
  -78295355.6652186     
  -78186380.6505437     
  -78077808.0303487     
  -77969716.0500982     
  -77862201.2178118     
  -77755378.9319330     
  -77649382.3553404     
  -77544358.5612576     
  -77440460.7391618     
  -77337835.0699555     
  -77236600.8590413     
  -77136822.7929631     
  -77038474.9124411     
  -76941397.1903919     
  -76845247.4865155     
  -76749453.9138662     
  -76653175.3503459     
  -76555281.1556234     
  -76454362.3837640     
  -76348788.2788312     
  -76236832.8073279     
  -76116872.8978593     
  -75987557.8649048     
  -75847830.4156067     
  -75696872.0033974     
  -87947046.2368378     
  -87737257.8892281     
  -87526271.4480649     
  -87351074.3891477     
  -87199025.1044662     
  -87067879.6713974     
  -86955204.6303317     
  -86845140.6132352     
  -86727621.8106031     
  -86604845.5858315     
  -86480216.8096665     
  -86355525.8251293     
  -86231285.1313716     
  -86107102.4830137     
  -85982307.9142836     
  -85856227.4543598     
  -85728340.6063696     
  -85598329.6538806     
  -85466085.1040732     
  -85331695.0325625     
  -85195430.9852504     
  -85057731.0744151     
  -84919184.5436479     
  -84780529.8793780     
  -84642075.5766539     
  -84503159.4188466     
  -84364131.7854111     
  -84225199.6295277     
  -84086316.7694846     
  -83947434.2909376     
  -83808503.3053550     
  -83669486.0726571     
  -83530379.4319019     
  -83391233.9189373     
  -83252164.5108422     
  -83113353.1291193     
  -82975034.3572795     
  -82837511.3292232     
  -82701129.8570931     
  -82565790.4196049     
  -82431757.2589709     
  -82298835.5079903     
  -82166891.6148266     
  -82035927.6329346     
  -81905957.9277544     
  -81777011.1478918     
  -81649116.3909472     
  -81522360.1685173     
  -81396787.7859543     
  -81272481.0226483     
  -81149365.6924911     
  -81027257.7805235     
  -80906101.2959451     
  -80785844.8480590     
  -80666467.2359563     
  -80547973.9687333     
  -80430337.1630642     
  -80313416.0516271     
  -80197242.7279103     
  -80081750.3231038     
  -79966837.7989712     
  -79852419.6767346     
  -79738426.8540098     
  -79624805.2471925     
  -79511513.6253711     
  -79398521.2483310     
  -79286157.3665862     
  -79174926.9829659     
  -79064009.2472251     
  -78953290.8768547     
  -78842771.1982289     
  -78732454.0606178     
  -78622348.5028500     
  -78512469.8291706     
  -78402841.0661239     
  -78293494.7572175     
  -78184475.0176012     
  -78075839.7129203     
  -77967662.5394380     
  -77860034.6603638     
  -77753065.3908930     
  -77646881.2207281     
  -77541622.2267041     
  -77437434.6876039     
  -77334458.5281224     
  -77232808.1927971     
  -77132545.8376550     
  -77033646.5103837     
  -76935956.4390027     
  -76839147.8046791     
  -76742676.2433564     
  -76645750.9284987     
  -76547332.6871994     
  -76446172.8146875     
  -76340872.6942119     
  -76229917.3785252     
  -76111682.3774306     
  -75984466.6615833     
  -75846592.1345063     
  -75696607.8532056     
  -87937888.5673491     
  -87734957.6996829     
  -87528129.5028744     
  -87345476.1394166     
  -87197079.8546212     
  -87072425.1290605     
  -86963637.3567993     
  -86850856.5219508     
  -86731945.6055690     
  -86608141.9274299     
  -86482433.5293939     
  -86356518.1833697     
  -86230935.3727589     
  -86105398.2694539     
  -85979306.7040391     
  -85852036.0990580     
  -85723089.3543694     
  -85592156.5059486     
  -85459126.5578960     
  -85324082.6013353     
  -85187292.9344455     
  -85049198.7577906     
  -84910397.3072535     
  -84771625.9376217     
  -84633166.0525392     
  -84494396.8945414     
  -84355598.7091318     
  -84216922.3804527     
  -84078309.9751173     
  -83939695.3420584     
  -83801018.7809038     
  -83662239.4447900     
  -83523354.8301692     
  -83384418.3896194     
  -83245551.2515863     
  -83106944.9822524     
  -82968852.6995544     
  -82831624.1509756     
  -82695585.1847207     
  -82560549.7121392     
  -82426782.4451257     
  -82294128.8608086     
  -82162436.5360693     
  -82031694.1317708     
  -81901919.5898994     
  -81773149.2408938     
  -81645414.1869487     
  -81518832.4681558     
  -81393449.7329151     
  -81269316.1451382     
  -81146356.8231546     
  -81024393.5020897     
  -80903361.4501504     
  -80783212.3022490     
  -80663930.2738799     
  -80545526.5475964     
  -80427975.3676189     
  -80311140.4805948     
  -80195051.4262736     
  -80079637.0278176     
  -79964795.0103935     
  -79850439.1153889     
  -79736500.3449828     
  -79622925.3431054     
  -79509673.8202586     
  -79396715.9396849     
  -79284387.9702702     
  -79173185.4776628     
  -79062284.4055212     
  -78951578.6876151     
  -78841067.5114940     
  -78730754.2723290     
  -78620647.1930380     
  -78510760.3378874     
  -78401114.9935339     
  -78291741.3784807     
  -78182680.6101319     
  -78073986.8040415     
  -77965729.0971483     
  -77857993.2694972     
  -77750882.4814659     
  -77644516.4439144     
  -77539028.1044521     
  -77434556.6906899     
  -77331235.7603031     
  -77229174.8749044     
  -77128433.8072048     
  -77028989.0238803     
  -76930693.7786127     
  -76833235.7520125     
  -76736099.6740895     
  -76638546.7426625     
  -76539629.9673783     
  -76438259.1733895     
  -76333265.8914256     
  -76223348.5030441     
  -76106885.4341541     
  -75981823.4477670     
  -75845852.4671513     
  -75696873.7350124     
  -87928720.6718666     
  -87731394.1207473     
  -87532413.9536295     
  -87352487.5706463     
  -87205546.0314885     
  -87084468.9949698     
  -86971895.9574862     
  -86857042.0983549     
  -86736490.3365921     
  -86611581.7688415     
  -86484721.8776652     
  -86357568.0849244     
  -86230659.8129539     
  -86103794.3997338     
  -85976433.4523769     
  -85847995.5477982     
  -85718005.4277630     
  -85586160.3046297     
  -85452347.6448968     
  -85316645.4819024     
  -85179318.8843868     
  -85040812.7358450     
  -84901732.1720078     
  -84762814.6607509     
  -84624329.1326092     
  -84485705.2230739     
  -84347146.2083823     
  -84208736.8366917     
  -84070404.4850608     
  -83932065.9351295     
  -83793650.2042274     
  -83655112.5704171     
  -83516450.5625714     
  -83377720.1915346     
  -83239048.6588151     
  -83100637.7852607     
  -82962759.9491200     
  -82825802.1814861     
  -82690077.2068646     
  -82555356.2135772     
  -82421875.6801250     
  -82289493.2702918     
  -82158052.1745862     
  -82027530.9888441     
  -81897949.9145631     
  -81769355.3042067     
  -81641779.9015109     
  -81515352.4978514     
  -81390163.7851644     
  -81266225.6280652     
  -81143423.0966262     
  -81021605.6008850     
  -80900699.4927055     
  -80780657.8401612     
  -80661470.8701334     
  -80543156.1111732     
  -80425691.1394930     
  -80308944.4119861     
  -80192942.2067538     
  -80077608.5576349     
  -79962839.5916943     
  -79848548.1568313     
  -79734665.3736015     
  -79621138.6733601     
  -79507928.7826250     
  -79395006.8413077     
  -79282713.0389504     
  -79171536.1038820     
  -79060652.5718513     
  -78949960.5977190     
  -78839459.2635070     
  -78729151.5471172     
  -78619044.8958587     
  -78509152.1767727     
  -78399492.9798253     
  -78290095.2391043     
  -78180997.1080731     
  -78072248.9739603     
  -77963915.4180745     
  -77856076.8168391     
  -77748830.1265327     
  -77642288.2002322     
  -77536576.7544281     
  -77431827.8598699     
  -77328168.6348084     
  -77225703.7784647     
  -77124490.8760280     
  -77024508.2818964     
  -76925617.1112895     
  -76827521.7752893     
  -76729737.6363216     
  -76631579.3627028     
  -76532191.6093375     
  -76430637.4247624     
  -76325972.0463313     
  -76217111.0429326     
  -76102450.8637872     
  -75979594.4279091     
  -75845586.8628418     
  -75697654.5072920     
  -87919373.0829538     
  -87727224.5425204     
  -87536049.2728097     
  -87363186.0522143     
  -87218505.3155598     
  -87095668.4033312     
  -86980476.8780376     
  -86863354.0482503     
  -86741210.4993523     
  -86615055.6151785     
  -86487010.9505504     
  -86358606.8318169     
  -86230398.5109538     
  -86102237.9803511     
  -85973642.4041131     
  -85844066.8940641     
  -85713056.2183896     
  -85580314.0555610     
  -85445726.2057240     
  -85309365.4979182     
  -85171493.6095684     
  -85032559.8257494     
  -84893178.0222251     
  -84754087.0259769     
  -84615559.0525328     
  -84477082.3183521     
  -84338772.9409790     
  -84200642.0587019     
  -84062600.1718810     
  -83924546.3317737     
  -83786397.8995880     
  -83648105.7171980     
  -83509666.7715251     
  -83371139.2176571     
  -83232656.1620522     
  -83094430.5233190     
  -82956753.0941762     
  -82820041.1170346     
  -82684608.2200516     
  -82550211.7071752     
  -82417035.6945495     
  -82284928.7210169     
  -82153738.9194196     
  -82023438.4881562     
  -81894048.8919760     
  -81765628.5067570     
  -81638215.2695674     
  -81511914.0869532     
  -81386932.0818829     
  -81263210.1554437     
  -81140563.4385848     
  -81018894.6078143     
  -80898115.4439229     
  -80778181.4540769     
  -80659088.7507708     
  -80540862.2326846     
  -80423484.0304934     
  -80306827.4905784     
  -80190914.8571495     
  -80075664.8440863     
  -79960971.5708845     
  -79846746.8675302     
  -79732922.0078798     
  -79619445.2910562     
  -79506278.5446029     
  -79393393.9621906     
  -79281132.5555146     
  -79169978.8305127     
  -79059113.7004911     
  -78948436.5413927     
  -78837946.3620768     
  -78727645.7595702     
  -78617541.4461854     
  -78507645.1358705     
  -78397974.7679809     
  -78288556.0376639     
  -78179424.1757172     
  -78070625.8734877     
  -77962221.1748360     
  -77854285.0509142     
  -77746908.2280416     
  -77640196.6505923     
  -77534268.7342428     
  -77429249.3228134     
  -77325259.0609315     
  -77222397.8463345     
  -77120721.3158037     
  -77020210.2268348     
  -76920734.4405016     
  -76822016.3627288     
  -76723603.4597262     
  -76624865.0020049     
  -76525035.7041543     
  -76423323.3676850     
  -76318995.8163699     
  -76211190.2979952     
  -76098347.1318244     
  -75977745.2122771     
  -75845770.9798916     
  -75698936.1968661     
  -87909824.1101941     
  -87722636.9309365     
  -87538823.4218552     
  -87372586.7627491     
  -87230483.8090435     
  -87106542.2612024     
  -86989041.4403256     
  -86869752.7397270     
  -86745958.0666534     
  -86618485.2609780     
  -86489216.8180121     
  -86359567.7209258     
  -86230090.0535994     
  -86100676.3134818     
  -85970887.9412809     
  -85840211.6086401     
  -85708209.5511624     
  -85574591.2640448     
  -85439240.6200610     
  -85302225.0556614     
  -85163802.4625745     
  -85024427.3014891     
  -84884724.4146760     
  -84745433.9050760     
  -84606848.8472271     
  -84468526.0059250     
  -84330477.7606878     
  -84192637.3216865     
  -84054897.1501553     
  -83917137.0202763     
  -83779262.4345567     
  -83641219.4067387     
  -83503003.8575227     
  -83364675.6195413     
  -83226373.4268632     
  -83088322.2542109     
  -82950829.8061404     
  -82814337.1719882     
  -82679178.1141523     
  -82545117.9303768     
  -82412262.2096152     
  -82280435.1147078     
  -82149497.3148425     
  -82019416.7311964     
  -81890217.2968160     
  -81761966.0577525     
  -81634725.8586399     
  -81508516.6414859     
  -81383761.2449172     
  -81260270.4759943     
  -81137776.2852701     
  -81016261.3711179     
  -80895609.2091626     
  -80775783.2483528     
  -80656783.6167573     
  -80538644.4490933     
  -80421353.5051131     
  -80304789.2930528     
  -80188969.1312220     
  -80073805.8141534     
  -79959190.9816765     
  -79845035.3240918     
  -79731270.3274730     
  -79617845.2616631     
  -79504723.1509237     
  -79391877.3239727     
  -79279646.5102765     
  -79168513.6298131     
  -79057667.7498281     
  -78947006.4570571     
  -78836528.7186026     
  -78726236.7865608     
  -78616136.6791636     
  -78506239.0028108     
  -78396560.0952803     
  -78287123.4632953     
  -78177961.4640032     
  -78069117.1364176     
  -77960646.0202461     
  -77852617.6993805     
  -77745116.6688241     
  -77638241.9425824     
  -77532104.5992233     
  -77426822.2219586     
  -77322508.9854898     
  -77219260.0848633     
  -77117129.4849133     
  -77016100.8970958     
  -76916053.8412724     
  -76816729.9922727     
  -76717710.2903760     
  -76618419.3805718     
  -76518179.6423180     
  -76416332.6558072     
  -76312342.8613024     
  -76205572.7326914     
  -76094542.5970491     
  -75976240.4343205     
  -75846380.2579487     
  -75700705.8404929     
  -87900103.6779917     
  -87717706.7485040     
  -87540908.2007326     
  -87380985.5983531     
  -87241645.9421408     
  -87117049.1131695     
  -86997490.8815187     
  -86876109.1211451     
  -86750622.0915838     
  -86621775.2742463     
  -86491259.4392101     
  -86360380.6385763     
  -86229673.4890586     
  -86099056.4562715     
  -85968124.8940827     
  -85836391.6105649     
  -85703433.8219614     
  -85568966.0393078     
  -85432869.9113283     
  -85295207.2305495     
  -85156231.5114256     
  -85016402.8472158     
  -84876361.6819763     
  -84736846.1576945     
  -84598189.9828670     
  -84460034.4494655     
  -84322259.5890146     
  -84184722.0966509     
  -84047295.7983057     
  -83909838.7123313     
  -83772244.6171179     
  -83634454.4102363     
  -83496462.4755373     
  -83358329.8195987     
  -83220200.3498582     
  -83082312.1079240     
  -82944988.6058064     
  -82808686.5940943     
  -82673784.5710287     
  -82540076.8734435     
  -82407555.6230561     
  -82276012.4544845     
  -82145327.7344424     
  -82015466.6315284     
  -81886453.8940805     
  -81758371.1395571     
  -81631298.8305160     
  -81505356.9310325     
  -81380728.7973589     
  -81257380.9824814     
  -81135069.6319153     
  -81013703.3626841     
  -80893181.9382855     
  -80773462.9554479     
  -80654555.3183438     
  -80536502.1921666     
  -80419298.9505228     
  -80302829.3129783     
  -80187104.7562337     
  -80072031.3920998     
  -79957497.8681021     
  -79843413.6150318     
  -79729710.4248908     
  -79616338.6635321     
  -79503262.6592821     
  -79390456.9612046     
  -79278254.9013259     
  -79167140.4778916     
  -79056314.6829469     
  -78945670.2880446     
  -78835206.2489618     
  -78724924.5083421     
  -78614830.4315537     
  -78504933.5644174     
  -78395248.6951848     
  -78285797.1978410     
  -78176608.6128794     
  -78067722.3820164     
  -77959189.5897908     
  -77851074.4712974     
  -77743455.3143852     
  -77636424.2114581     
  -77530084.9022221     
  -77424547.7127024     
  -77319920.3888611     
  -77216293.5570611     
  -77113719.8173832     
  -77012186.4096225     
  -76911583.4320053     
  -76811673.0833933     
  -76712071.0184422     
  -76612257.6164761     
  -76511639.9407662     
  -76409680.7421884     
  -76306020.2975787     
  -76200246.7620936     
  -76091005.8132320     
  -75975043.3482906     
  -75847389.4519240     
  -75702951.3508681     
  -87890261.2752951     
  -87712530.9142466     
  -87542491.1381997     
  -87388639.8070219     
  -87252135.0251242     
  -87127160.4782167     
  -87005725.6962723     
  -86882299.6970748     
  -86755089.5587255     
  -86624828.8435221     
  -86493056.6597602     
  -86360974.6636068     
  -86229087.5198304     
  -86097325.7164880     
  -85965308.5461799     
  -85832569.4448182     
  -85698698.1048782     
  -85563413.2076560     
  -85426593.8611311     
  -85288295.8270398     
  -85148767.7422037     
  -85008474.4319517     
  -84868081.0562742     
  -84728314.9668112     
  -84589571.4822337     
  -84451607.0126899     
  -84314117.0608150     
  -84176896.1276506     
  -84039796.7534217     
  -83902652.3451193     
  -83765345.4922493     
  -83627811.7432654     
  -83490043.5360992     
  -83352102.5084319     
  -83214137.1038912     
  -83076399.1866332     
  -82939229.0650832     
  -82803085.4913953     
  -82668422.6741385     
  -82535091.4270712     
  -82402916.7598153     
  -82271660.6704289     
  -82141230.9752392     
  -82011588.3182716     
  -81882760.1050639     
  -81754839.3381621     
  -81627942.8668332     
  -81502234.2306419     
  -81377760.2934335     
  -81254565.4246604     
  -81132435.2249840     
  -81011223.5196505     
  -80890833.0157218     
  -80771220.9754223     
  -80652403.5021099     
  -80534434.8995686     
  -80417319.6362208     
  -80300946.9814602     
  -80185321.4263316     
  -80070341.5084749     
  -79955892.2870194     
  -79841881.8436078     
  -79728242.4064150     
  -79614925.5885960     
  -79501897.1406834     
  -79389132.9216540     
  -79276957.7349074     
  -79165859.3552344     
  -79055054.4682452     
  -78944427.9833475     
  -78833978.8744314     
  -78723708.8096827     
  -78613622.5431125     
  -78503728.6083644     
  -78394040.2992748     
  -78284576.9180555     
  -78175365.2537267     
  -78066441.2175726     
  -77957851.5041510     
  -77849655.0594059     
  -77741924.0146624     
  -77634743.5810226     
  -77528210.1932055     
  -77422426.9612360     
  -77317495.2805253     
  -77213501.3752113     
  -77110496.8114197     
  -77008472.9425036     
  -76907331.3484405     
  -76806855.9536802     
  -76706698.2165807     
  -76606394.1507065     
  -76505432.0879342     
  -76403382.7304997     
  -76300037.0437499     
  -76195203.6073503     
  -76087705.9579978     
  -75974115.4138601     
  -75848772.1059253     
  -75705661.4040506     
  -87880367.6538909     
  -87707229.7879210     
  -87543771.2891301     
  -87395779.4003744     
  -87262073.3804318     
  -87136850.4701389     
  -87013646.3391685     
  -86888202.9436086     
  -86759246.1981715     
  -86627547.3867501     
  -86494524.6748864     
  -86361278.0975190     
  -86228270.7182774     
  -86095431.7626053     
  -85962394.7956503     
  -85828708.4055158     
  -85693972.2899594     
  -85557908.4019072     
  -85420393.1667221     
  -85281475.3634482     
  -85141399.3851352     
  -85000630.0921946     
  -84859874.6757340     
  -84719832.7994810     
  -84580977.9504270     
  -84443246.1625494     
  -84306047.5068964     
  -84169159.8450181     
  -84032400.7683952     
  -83895579.1358848     
  -83758566.3199413     
  -83621292.6628649     
  -83483748.2186918     
  -83345994.6049403     
  -83208184.2775228     
  -83070582.3040219     
  -82933552.0813878     
  -82797530.0562591     
  -82663083.6432543     
  -82530166.8111282     
  -82398346.1728681     
  -82267379.9148609     
  -82137207.7336497     
  -82007782.7148187     
  -81879135.4615059     
  -81751371.9977911     
  -81624649.0387772     
  -81499148.9576962     
  -81374848.4711222     
  -81251822.2743848     
  -81129873.9817612     
  -81008821.6000447     
  -80888563.0296289     
  -80769057.3714353     
  -80650327.9595833     
  -80532441.8877164     
  -80415414.7321677     
  -80299141.6398039     
  -80183618.8164432     
  -80068736.1026037     
  -79954374.3139632     
  -79840440.1295525     
  -79726866.3935083     
  -79613606.1429401     
  -79500626.6798848     
  -79387905.2666180     
  -79275755.0258364     
  -79164670.2472594     
  -79053887.0800831     
  -78943279.4983973     
  -78832846.5226387     
  -78722589.5810318     
  -78612512.8580100     
  -78502623.9248713     
  -78392934.6392334     
  -78283462.2978635     
  -78174231.0118375     
  -78065273.2409963     
  -77956631.3717684     
  -77848359.1424330     
  -77740522.6057568     
  -77633200.1644024     
  -77526481.0186331     
  -77420461.1420402     
  -77315235.6941305     
  -77210886.6929518     
  -77107465.0176530     
  -77004966.7177042     
  -76903305.7199553     
  -76802288.7817761     
  -76701604.0880287     
  -76600842.7065227     
  -76499570.4255110     
  -76397453.1265119     
  -76294404.0018189     
  -76190438.2186242     
  -76084613.4497947     
  -75973415.8806545     
  -75850499.9396220     
  -75708825.3460355     
  -87870517.1966498     
  -87701948.9758168     
  -87544958.5801302     
  -87402613.4159228     
  -87271561.6582872     
  -87146088.6780081     
  -87021151.8639521     
  -86893697.2804740     
  -86762976.4338988     
  -86629830.5277600     
  -86495578.2654673     
  -86361218.6062039     
  -86227161.6969392     
  -86093322.7707332     
  -85959340.3037231     
  -85824772.6826005     
  -85689227.1852061     
  -85552428.2540677     
  -85414249.3164335     
  -85274731.8439377     
  -85134114.0915937     
  -84992863.5152263     
  -84851720.4685009     
  -84711432.9566039     
  -84572502.2085621     
  -84434948.3188426     
  -84298049.7481414     
  -84161513.5085151     
  -84025109.0007989     
  -83888620.4865116     
  -83751908.6120355     
  -83614898.6248389     
  -83477578.0413557     
  -83340007.1134381     
  -83202343.1978345     
  -83064859.5041815     
  -82927960.1145079     
  -82792017.6432668     
  -82657751.8923021     
  -82525313.6187161     
  -82393842.5458151     
  -82263171.0195868     
  -82133258.7635183     
  -82004050.6794692     
  -81875580.2715651     
  -81747968.7330572     
  -81621411.9331976     
  -81496105.5761607     
  -81371991.4836895     
  -81249149.1190742     
  -81127386.6693798     
  -81006497.6934829     
  -80886372.4951155     
  -80766972.3501044     
  -80648328.4612694     
  -80530522.3999844     
  -80413583.2767089     
  -80297412.5468627     
  -80181996.5830166     
  -80067215.1324155     
  -79952944.0469052     
  -79839088.6117583     
  -79725582.5238856     
  -79612380.4475346     
  -79499451.3758034     
  -79386774.0712699     
  -79274646.7979384     
  -79163573.1449109     
  -79052812.4994625     
  -78942224.7958710     
  -78831809.1285402     
  -78721566.7197138     
  -78611501.2262784     
  -78501619.3084326     
  -78391931.4488707     
  -78282453.0106572     
  -78173205.5089384     
  -78064218.0434654     
  -77955528.7914443     
  -77847186.3874012     
  -77739250.9116295     
  -77631794.0647286     
  -77524897.9206342     
  -77418651.4350620     
  -77313143.6821378     
  -77208452.6968412     
  -77104629.0272058     
  -77001673.9841139     
  -76899514.6480644     
  -76797981.5784505     
  -76696800.4234934     
  -76595616.2786970     
  -76494068.0900010     
  -76391905.5016446     
  -76289134.0064992     
  -76185950.2417168     
  -76081700.8292438     
  -75972901.3966386     
  -75852542.1108444     
  -75712433.1168396     
  -87860830.9646319     
  -87696861.8973671     
  -87546274.7018911     
  -87409332.7193454     
  -87280677.2105099     
  -87154834.9333622     
  -87028137.9083031     
  -86898659.6561212     
  -86766163.0729409     
  -86631576.1420547     
  -86496130.9741920     
  -86360723.3895932     
  -86225699.2778718     
  -86090947.5841068     
  -85956102.6524291     
  -85820727.4986742     
  -85684434.6687983     
  -85546950.4448189     
  -85408144.9056488     
  -85268052.1924459     
  -85126901.1881093     
  -84985167.2754873     
  -84843604.4323356     
  -84703117.4039273     
  -84564175.2955789     
  -84426708.7741065     
  -84290122.5946155     
  -84153957.7281405     
  -84017922.8571018     
  -83881778.0394596     
  -83745374.0971479     
  -83608631.3317653     
  -83471534.6955583     
  -83334141.6606439     
  -83196614.3176481     
  -83059232.9803060     
  -82922442.8525966     
  -82786585.6742846     
  -82652512.6705978     
  -82520541.0771958     
  -82389403.9766783     
  -82259035.2907936     
  -82129384.8271313     
  -82000393.2565987     
  -81872095.1192319     
  -81744628.5511052     
  -81618228.0507368     
  -81493105.5883040     
  -81369188.1874798     
  -81246544.1312222     
  -81124973.6940969     
  -81004252.1770497     
  -80884261.9411463     
  -80764966.2297078     
  -80646404.7850261     
  -80528675.5823937     
  -80411824.1583661     
  -80295758.8708427     
  -80180454.3736083     
  -80065778.5829168     
  -79951601.6113994     
  -79837827.4504448     
  -79724390.9527800     
  -79611248.6389117     
  -79498371.3419689     
  -79385739.4250140     
  -79273633.0845188     
  -79162568.0452875     
  -79051830.7147323     
  -78941263.8465195     
  -78830866.6354197     
  -78720640.1311413     
  -78610587.5052807     
  -78500714.5595747     
  -78391030.4661743     
  -78281548.7316322     
  -78172288.3657510     
  -78063275.2121037     
  -77954543.3549667     
  -77846136.4519479     
  -77738108.7457698     
  -77630525.3757238     
  -77523461.4360108     
  -77416999.0225980     
  -77311221.3100878     
  -77206202.5974663     
  -77101993.4596585     
  -76998601.0012736     
  -76895966.1866288     
  -76793944.1672497     
  -76692298.5676033     
  -76590727.1411456     
  -76488937.0364921     
  -76386752.1071790     
  -76284241.4651378     
  -76181744.9688192     
  -76078943.9992181     
  -75972525.6832259     
  -75854864.3058123     
  -75716475.1910055     
  -87851460.6426855     
  -87692173.5318785     
  -87547954.4752351     
  -87416110.0528761     
  -87289471.5204335     
  -87163035.2765565     
  -87034494.6448201     
  -86902964.4065517     
  -86768686.9430506     
  -86632680.3987786     
  -86496095.2664365     
  -86359719.3612968     
  -86223822.6703722     
  -86088255.8832497     
  -85952640.5080341     
  -85816539.2536355     
  -85679567.8358633     
  -85541453.7825268     
  -85402063.8609892     
  -85261423.9891193     
  -85119752.9285839     
  -84977529.4729088     
  -84835531.4738890     
  -84694823.9996287     
  -84555873.8374442     
  -84418523.6992096     
  -84282264.3103486     
  -84146493.6901702     
  -84010843.9310275     
  -83875053.7145108     
  -83738964.6588263     
  -83602492.8638313     
  -83465619.7019641     
  -83328401.3315809     
  -83190995.3938977     
  -83053712.8070928     
  -82916971.1541590     
  -82781314.4146359     
  -82647614.2445715     
  -82515838.1689881     
  -82385034.7694139     
  -82254972.0486332     
  -82125587.5884612     
  -81996811.4248271     
  -81868680.8448079     
  -81741350.3689705     
  -81615094.6107626     
  -81490148.7707333     
  -81366437.5480960     
  -81244006.0084089     
  -81122635.3320452     
  -81002085.5949993     
  -80882231.9842128     
  -80763039.4335702     
  -80644556.7334733     
  -80526900.4631214     
  -80410136.0894442     
  -80294179.6825681     
  -80178991.8384505     
  -80064426.4768070     
  -79950347.1655329     
  -79836656.8293622     
  -79723291.8541550     
  -79610210.8698605     
  -79497386.7069740     
  -79384801.4318541     
  -79272713.9288522     
  -79161654.9522918     
  -79050941.7223194     
  -78940396.6300177     
  -78830018.9959060     
  -78719809.7300489     
  -78609771.5612022     
  -78499909.4866315     
  -78390231.4353869     
  -78280749.1401444     
  -78171479.2045817     
  -78062444.3326917     
  -77953674.6497604     
  -77845208.9866548     
  -77737095.9128453     
  -77629394.1822122     
  -77522172.0950923     
  -77415505.0859181     
  -77309470.6505635     
  -77204139.6201922     
  -77099562.9508702     
  -76995754.0243318     
  -76892668.3231938     
  -76790186.1748366     
  -76688109.3991311     
  -76586186.8555348     
  -76484188.1569746     
  -76382003.5134842     
  -76279741.6131800     
  -76177834.1577787     
  -76076323.9365765     
  -75972239.3516688     
  -75857427.5903639     
  -75720942.5339885     
  -87842593.7327258     
  -87688125.6073496     
  -87550246.9538158     
  -87423097.4934314     
  -87297966.7746773     
  -87170618.8127469     
  -87040104.9622131     
  -86906482.2776961     
  -86770426.5493330     
  -86633037.7913069     
  -86495382.6878936     
  -86358133.3365326     
  -86221471.6591158     
  -86085198.3683076     
  -85948913.7868946     
  -85812175.6905161     
  -85674601.1008101     
  -85535918.4286917     
  -85395991.2232258     
  -85254836.5538090     
  -85112661.6019934     
  -84969943.2388824     
  -84827496.3053633     
  -84686518.7749005     
  -84547548.4489686     
  -84410382.2764896     
  -84274475.1306740     
  -84139122.4373709     
  -84003874.2677486     
  -83868449.5724732     
  -83732682.5164506     
  -83596485.2008812     
  -83459835.7625121     
  -83322786.7182483     
  -83185493.1166961     
  -83048283.2289234     
  -82911594.4489112     
  -82776046.1014214     
  -82642697.8144433     
  -82511224.1414878     
  -82380727.7323630     
  -82250984.8568252     
  -82121867.4413795     
  -81993306.8779187     
  -81865338.3082458     
  -81738133.2966930     
  -81612008.9438472     
  -81487233.7261168     
  -81363738.4211649     
  -81241533.8785402     
  -81120371.8774373     
  -80999998.6119396     
  -80880283.3599330     
  -80761192.5068600     
  -80642784.1480695     
  -80525195.9305581     
  -80408517.5708594     
  -80292673.9494013     
  -80177608.6459842     
  -80063158.8867985     
  -79949180.9046948     
  -79835576.9578637     
  -79722285.4218856     
  -79609267.3101151     
  -79496497.6149276     
  -79383960.2107645     
  -79271889.3846985     
  -79160833.8773190     
  -79050145.5274798     
  -78939623.1358307     
  -78829266.1730044     
  -78719075.4417371     
  -78609053.2705494     
  -78499203.9075336     
  -78389534.1090973     
  -78280053.9220916     
  -78170777.6519284     
  -78061724.9923956     
  -77952922.2615531     
  -77844403.6373797     
  -77736212.2103275     
  -77628400.5605766     
  -77521030.4204784     
  -77414170.8016818     
  -77307893.7768895     
  -77202266.9957395     
  -77097342.1405390     
  -76993139.2907972     
  -76889628.9615209     
  -76786717.0284034     
  -76684243.3334300     
  -76582006.2625191     
  -76479831.4812392     
  -76377668.3895356     
  -76275649.3368137     
  -76174236.5205546     
  -76073829.0015309     
  -75971989.9882754     
  -75860186.9291008     
  -75725826.5745012     
  -87834460.4801305     
  -87685003.4883693     
  -87553415.5309797     
  -87430421.1561888     
  -87306151.7735847     
  -87177495.3654338     
  -87044842.9704672     
  -86909079.5836232     
  -86771257.7755482     
  -86632541.1639040     
  -86493904.0241954     
  -86355892.2295241     
  -86218586.8053277     
  -86081726.9504977     
  -85944883.8359304     
  -85807606.0487492     
  -85669510.3574513     
  -85530325.9643070     
  -85389913.4050896     
  -85248280.6229400     
  -85105620.7683917     
  -84962404.2109136     
  -84819489.4031157     
  -84678187.5170490     
  -84539198.0270185     
  -84402274.6020822     
  -84266754.7880419     
  -84131845.8139626     
  -83997016.0357906     
  -83861967.9771990     
  -83726530.0118062     
  -83590610.7418110     
  -83454185.2171218     
  -83317300.5191180     
  -83180109.3636784     
  -83042944.4525351     
  -82906313.7076468     
  -82770818.0772015     
  -82637808.4161875     
  -82506678.9849364     
  -82376487.4065212     
  -82247073.8354172     
  -82118226.0648494     
  -81989881.1931111     
  -81862068.7424098     
  -81734976.6188062     
  -81608968.2083193     
  -81484358.0894061     
  -81361089.4980124     
  -81239127.2324172     
  -81118183.7317496     
  -80997992.0006841     
  -80878416.9387496     
  -80759426.1432797     
  -80641086.9284618     
  -80523560.7059255     
  -80406966.8461357     
  -80291240.5301581     
  -80176304.5041612     
  -80061975.9493907     
  -79948103.0659009     
  -79834588.0728195     
  -79721371.8709202     
  -79608418.1470098     
  -79495704.2259034     
  -79383215.8960676     
  -79271159.5168338     
  -79160104.8399664     
  -79049442.1450685     
  -78938943.3640924     
  -78828608.1411356     
  -78718437.2033232     
  -78608432.5216578     
  -78498597.6516043     
  -78388938.2503378     
  -78279462.7722977     
  -78170183.3411010     
  -78061116.7825068     
  -77952285.7770556     
  -77843720.0475973     
  -77735457.4301178     
  -77627544.5791648     
  -77520036.9256920     
  -77412997.3382279     
  -77306492.7565850     
  -77200587.9508526     
  -77095335.6594232     
  -76990763.0091148     
  -76886855.9070241     
  -76783545.9540031     
  -76680710.3575894     
  -76578195.4474875     
  -76475876.4071252     
  -76373753.5722724     
  -76271977.5867746     
  -76170977.5636363     
  -76071457.9647796     
  -75971722.7245104     
  -75863089.2399699     
  -75731119.1937742     
  -87827343.2171276     
  -87683145.0737790     
  -87557736.0731906     
  -87438172.7798980     
  -87313977.5486160     
  -87183553.9525869     
  -87048572.8322022     
  -86910617.5023707     
  -86771053.6408836     
  -86631081.7427997     
  -86491569.4667601     
  -86352923.2628748     
  -86215109.6613487     
  -86077794.9566794     
  -85940513.6197729     
  -85802801.2303343     
  -85664273.1251756     
  -85524659.5031721     
  -85383818.3357077     
  -85241748.2886379     
  -85098625.9127813     
  -84954909.0815113     
  -84811502.2287372     
  -84669846.5288857     
  -84530828.8762116     
  -84394189.8311641     
  -84259103.9032487     
  -84124666.0011971     
  -83990271.7160603     
  -83855611.5095878     
  -83720509.6778692     
  -83584872.1473396     
  -83448670.4360099     
  -83311946.4414540     
  -83174844.2577306     
  -83037704.8220338     
  -82901101.7879860     
  -82765938.6974548     
  -82633074.5001252     
  -82502154.4255695     
  -82372328.1441247     
  -82243235.8391453     
  -82114666.5200104     
  -81986535.7635398     
  -81858873.8811712     
  -81731879.8312692     
  -81605969.1862718     
  -81481518.5615670     
  -81358489.3176345     
  -81236785.9020380     
  -81116071.4531734     
  -80996066.6445161     
  -80876633.7357168     
  -80757741.2176926     
  -80639465.0620632     
  -80521993.3081436     
  -80405481.8405797     
  -80289878.1726961     
  -80175079.1895411     
  -80060877.8796286     
  -79947113.9312971     
  -79833690.4404089     
  -79720551.4383888     
  -79607663.5860930     
  -79495006.7163796     
  -79382568.6378013     
  -79270524.4015987     
  -79159467.8687667     
  -79048831.6003252     
  -78938357.3264943     
  -78828044.8871803     
  -78717894.9649941     
  -78607909.2161983     
  -78498090.5613537     
  -78388443.6346811     
  -78278975.3969012     
  -78169695.9148482     
  -78060619.3011949     
  -77951764.7866483     
  -77843157.8607452     
  -77734831.3601691     
  -77626826.2986936     
  -77519192.1137805     
  -77411985.8518446     
  -77305269.6445907     
  -77199105.6992138     
  -77093548.1166138     
  -76988631.3479329     
  -76884356.8590761     
  -76780681.9675684     
  -76677520.1031403     
  -76574763.7003222     
  -76472331.8531475     
  -76370264.5769821     
  -76268735.5549726     
  -76168088.3113592     
  -76069223.8192389     
  -75971381.6568761     
  -75866070.7919201     
  -75736812.7342070     
  -87821589.1253848     
  -87682952.0733631     
  -87563491.5864743     
  -87446397.7623362     
  -87321353.3129652     
  -87188662.1377958     
  -87051147.8669238     
  -86910951.5256827     
  -86769684.1149148     
  -86628549.1782266     
  -86488288.7895854     
  -86349154.1909994     
  -86210983.0005580     
  -86073357.3473679     
  -85935767.9172740     
  -85797733.9746471     
  -85658868.6921245     
  -85518903.8298193     
  -85377695.5285504     
  -85235233.1758715     
  -85091674.3355001     
  -84947456.3825441     
  -84803526.7984003     
  -84661514.5205621     
  -84522445.1320089     
  -84386117.1785812     
  -84251524.4556753     
  -84117585.3791260     
  -83983644.1711033     
  -83849382.9152130     
  -83714624.3223828     
  -83579272.0844635     
  -83443294.5624603     
  -83306726.8933927     
  -83169703.2820178     
  -83032559.5126039     
  -82895968.7733326     
  -82761023.6040733     
  -82628352.5021501     
  -82497692.1546920     
  -82368235.0202771     
  -82239477.5623542     
  -82111188.8488236     
  -81983273.2894831     
  -81855755.5499935     
  -81728842.8952211     
  -81603008.0414732     
  -81478710.8389046     
  -81355936.3149266     
  -81234510.0851757     
  -81114035.7776105     
  -80994223.5450377     
  -80874934.9166227     
  -80756138.8238922     
  -80637918.6693665     
  -80520492.0084159     
  -80404060.0794944     
  -80288585.5173737     
  -80173932.5867620     
  -80059864.9858135     
  -79946213.8304620     
  -79832884.3578801     
  -79719824.3846185     
  -79607003.8516873     
  -79494405.2796680     
  -79382018.6020802     
  -79269984.1274617     
  -79158923.0019490     
  -79048313.9296730     
  -78937865.0471794     
  -78827576.4115254     
  -78717448.6912567     
  -78607483.2706775     
  -78497682.4942657     
  -78388050.0523309     
  -78278591.5157347     
  -78169315.0279728     
  -78060232.1562520     
  -77951358.8870766     
  -77842716.7225815     
  -77734333.7861171     
  -77626245.7726783     
  -77518496.4758819     
  -77411137.4831028     
  -77304226.4764384     
  -77197823.4324269     
  -77091984.0880949     
  -76986750.4234389     
  -76882139.4150392     
  -76778133.8546470     
  -76674681.9406667     
  -76571719.5348825     
  -76469206.1819297     
  -76367206.6214133     
  -76265927.0434854     
  -76165602.2780953     
  -76067158.2842948     
  -75970912.7335913     
  -75869053.6603808     
  -75742900.0329580     
  -87817627.9462416     
  -87684904.0347784     
  -87570961.0343672     
  -87455079.3707952     
  -87328143.7228547     
  -87192666.2247934     
  -87052409.8507530     
  -86909931.0906006     
  -86767015.9836787     
  -86624831.6038933     
  -86483971.5413979     
  -86344513.5399019     
  -86206151.0647738     
  -86068370.9488536     
  -85930613.5297648     
  -85792379.0375090     
  -85653278.2701295     
  -85513045.5186925     
  -85371536.1993243     
  -85228730.4940682     
  -85084765.2961827     
  -84940046.6650760     
  -84795557.2180237     
  -84653145.0961283     
  -84514020.1602510     
  -84378054.6535221     
  -84244017.3567433     
  -84110607.4423079     
  -83977136.3107002     
  -83843285.2520817     
  -83708876.8681036     
  -83573813.5690387     
  -83438060.5210703     
  -83301645.7977424     
  -83164689.1532708     
  -83027514.5585774     
  -82890893.0636091     
  -82756077.9067502     
  -82623631.3948166     
  -82493285.8438536     
  -82364210.9967823     
  -82235799.5841094     
  -82107795.4808048     
  -81980095.9413464     
  -81852716.3838799     
  -81725866.1723450     
  -81600080.1894376     
  -81475929.3960440     
  -81353428.9560339     
  -81232300.3920696     
  -81112077.6222189     
  -80992463.8310378     
  -80873321.7999596     
  -80754620.3163809     
  -80636448.0737299     
  -80519054.7708596     
  -80402698.5760306     
  -80287361.1121490     
  -80172864.7414879     
  -80058937.6821472     
  -79945403.1412955     
  -79832170.1554300     
  -79719190.9939799     
  -79606439.1874008     
  -79493900.1263259     
  -79381565.9714420     
  -79269538.7955924     
  -79158470.2882099     
  -79047889.1815268     
  -78937466.5636384     
  -78827202.7291054     
  -78717098.3621770     
  -78607154.6179258     
  -78497373.3245681     
  -78387757.3101944     
  -78278310.8646890     
  -78169040.3499372     
  -78059954.9678323     
  -77951067.6841355     
  -77842396.2835556     
  -77733964.4929244     
  -77625803.0479111     
  -77517950.4898365     
  -77410453.3532199     
  -77303365.2618179     
  -77196744.3103311     
  -77090648.1085302     
  -76985126.2824757     
  -76880211.0860786     
  -76775910.1517463     
  -76672205.0429876     
  -76569070.8820354     
  -76466506.7604662     
  -76364586.0053449     
  -76263549.8459682     
  -76163549.9506770     
  -76065316.5301657     
  -75970269.1561145     
  -75871940.8076423     
  -75749374.4924654     
  -87815997.0590384     
  -87689575.3132438     
  -87580398.4823354     
  -87464119.4602165     
  -87334168.8227606     
  -87195392.0281575     
  -87052188.4679154     
  -86907399.4233236     
  -86762912.7475530     
  -86619815.7234254     
  -86478527.2558789     
  -86338930.8663566     
  -86200559.8309582     
  -86062794.7014964     
  -85925019.4996897     
  -85786713.3810090     
  -85647485.1450776     
  -85507073.0793862     
  -85365333.3120911     
  -85222237.2917049     
  -85077899.5163610     
  -84932684.5083796     
  -84787586.0001720     
  -84644701.2378061     
  -84505523.4380141     
  -84370000.1863424     
  -84236585.8669870     
  -84103735.7194953     
  -83970751.4442898     
  -83837321.7483926     
  -83703270.4587570     
  -83568499.7328316     
  -83432971.6169593     
  -83296706.8434438     
  -83159806.7362641     
  -83022573.4168130     
  -82885861.2301558     
  -82751103.5041643     
  -82618905.6585530     
  -82488930.3438800     
  -82360258.4898011     
  -82232203.2899135     
  -82104488.6856603     
  -81977006.2679786     
  -81849759.5817827     
  -81722950.7965876     
  -81597180.0089907     
  -81473167.1571992     
  -81350965.9570005     
  -81230157.9172911     
  -81110198.0636040     
  -80990788.7744457     
  -80871795.8497371     
  -80753187.3538183     
  -80635053.9097181     
  -80517679.1739330     
  -80401393.6738185     
  -80286203.4499973     
  -80171875.9300137     
  -80058096.4958533     
  -79944682.2897626     
  -79831548.1983435     
  -79718651.5754458     
  -79605969.8566127     
  -79493491.4845381     
  -79381210.9451726     
  -79269188.5204442     
  -79158109.7875096     
  -79047557.4171058     
  -78937161.9276042     
  -78826923.8704345     
  -78716843.9746097     
  -78606923.2085675     
  -78497162.9449824     
  -78387565.2339295     
  -78278133.1980546     
  -78168871.5674481     
  -78059787.3711779     
  -77950890.7953574     
  -77842196.2011990     
  -77733723.2665745     
  -77625498.1649727     
  -77517554.6190304     
  -77409934.5602499     
  -77302687.9792136     
  -77195871.4500213     
  -77089544.6667476     
  -76983764.8847954     
  -76878579.3095569     
  -76774019.1726875     
  -76670098.3249375     
  -76566825.5650904     
  -76464239.2007940     
  -76362411.2217896     
  -76261597.4426489     
  -76161950.1920018     
  -76063780.8222997     
  -75969421.0864162     
  -75874609.1154618     
  -75756230.2135928     
  -87817377.9072259     
  -87697654.5273724     
  -87591996.4729960     
  -87473317.5492152     
  -87339208.2955237     
  -87196645.5453907     
  -87050301.0142753     
  -86903193.5908441     
  -86757234.5265715     
  -86613386.9376935     
  -86471865.6795677     
  -86332337.0408485     
  -86194157.2995238     
  -86056589.9245177     
  -85918957.3437227     
  -85780716.3653067     
  -85641474.8487612     
  -85500977.0546177     
  -85359081.7625011     
  -85215752.3088087     
  -85071079.8174607     
  -84925377.0368258     
  -84779610.8246119     
  -84636130.3689176     
  -84496916.5390371     
  -84361954.8237846     
  -84229234.7181280     
  -84096974.1518259     
  -83964493.1050436     
  -83831495.8804607     
  -83697808.3978026     
  -83563333.8921686     
  -83428031.3542493     
  -83291913.8820248     
  -83155061.9344149     
  -83017740.1042301     
  -82880863.7154159     
  -82746094.0118506     
  -82614169.7218715     
  -82484623.0757247     
  -82356379.6239098     
  -82228690.5521938     
  -82101270.7908483     
  -81974007.0498244     
  -81846889.0127694     
  -81720099.0764816     
  -81594300.5332081     
  -81470414.9390843     
  -81348546.7131797     
  -81228084.2833174     
  -81108398.2984096     
  -80989199.8171542     
  -80870358.6550343     
  -80751841.9358524     
  -80633737.2942266     
  -80516362.3047266     
  -80400140.8202074     
  -80285111.0486086     
  -80170966.7472716     
  -80057342.0633963     
  -79944051.7498027     
  -79831018.8893029     
  -79718206.4627327     
  -79605596.1429988     
  -79493179.6004427     
  -79380953.7396129     
  -79268933.4303440     
  -79157841.5718745     
  -79047318.7112534     
  -78936951.2059406     
  -78826739.8826288     
  -78716685.5434057     
  -78606789.0124648     
  -78497051.2684453     
  -78387473.6699621     
  -78278058.2908259     
  -78168808.3870043     
  -78059729.0193192     
  -77950827.8526959     
  -77842116.1425020     
  -77733609.8958634     
  -77625331.1587263     
  -77517309.3116427     
  -77409582.1750729     
  -77302196.5715285     
  -77195207.9153726     
  -77088678.1991253     
  -76982672.1012158     
  -76877251.4203705     
  -76772469.1454944     
  -76668370.1899703     
  -76564991.9935732     
  -76462406.7929163     
  -76360692.4586664     
  -76260064.6432813     
  -76160798.8354799     
  -76062660.0777386     
  -75968372.7388574     
  -75876899.3011027     
  -75763462.2455075     
  -87822650.5783959     
  -87709964.2329009     
  -87605824.1158133     
  -87482353.3931946     
  -87343011.2046355     
  -87196212.3831296     
  -87046552.7549588     
  -86897144.6321858     
  -86749837.9777824     
  -86605429.5225495     
  -86463897.0151517     
  -86324664.5609235     
  -86186893.8050220     
  -86049720.6005988     
  -85912401.2971264     
  -85774369.9545253     
  -85635235.3179418     
  -85494750.1713881     
  -85352778.4074696     
  -85209276.2545579     
  -85064310.5736613     
  -84918135.3515281     
  -84771633.8503049     
  -84627408.0169162     
  -84488168.9521048     
  -84353919.2629391     
  -84221971.8359199     
  -84090326.3626532     
  -83958365.3054276     
  -83825811.2822083     
  -83692494.1703758     
  -83558319.5254032     
  -83423243.4355092     
  -83287270.9266506     
  -83150461.3069179     
  -83013021.0497557     
  -82875892.4316392     
  -82741036.1338041     
  -82609417.2449425     
  -82480364.0495979     
  -82352576.6685414     
  -82225263.4781821     
  -82098144.3058732     
  -81971101.2146834     
  -81844109.1863987     
  -81717315.1987239     
  -81591433.0421797     
  -81467660.5255561     
  -81346172.1220269     
  -81226081.5598727     
  -81106679.6077477     
  -80987698.6114522     
  -80869011.8941649     
  -80750586.4132760     
  -80632500.1022203     
  -80515100.6142924     
  -80398934.2293051     
  -80284082.6106042     
  -80170138.2093844     
  -80056675.1086346     
  -79943512.0465536     
  -79830582.6700937     
  -79717856.0140775     
  -79605318.3511389     
  -79492964.7383583     
  -79380794.5884656     
  -79268809.4522702     
  -79157665.7262159     
  -79047173.1532528     
  -78936834.4815227     
  -78826650.8304113     
  -78716623.1025977     
  -78606752.0201370     
  -78497038.2297944     
  -78387482.4874647     
  -78278085.9409681     
  -78168850.5374216     
  -78059779.5857389     
  -77950878.5052149     
  -77842155.7862883     
  -77733624.1742996     
  -77625302.0589081     
  -77517215.0000182     
  -77409397.2383755     
  -77301892.9398286     
  -77194756.7144279     
  -77088053.0659097     
  -76981853.7548289     
  -76876234.5466697     
  -76771268.4648580     
  -76667028.2268168     
  -76563579.5137944     
  -76461011.4537882     
  -76359437.4580680     
  -76258958.2560068     
  -76160057.3049430     
  -76062078.9222847     
  -75967192.1706916     
  -75878600.9901602     
  -75771067.0627220     
  -87832978.6771211     
  -87727473.9136844     
  -87621725.6400558     
  -87490784.7686407     
  -87345310.0262033     
  -87193854.7758985     
  -87040738.7092178     
  -86889077.3910234     
  -86740576.3355956     
  -86595826.8282501     
  -86454532.1887377     
  -86315847.8995264     
  -86178722.3510507     
  -86042153.6815157     
  -85905328.5729341     
  -85767658.9287082     
  -85628757.0647529     
  -85488387.4758923     
  -85346422.1444206     
  -85202811.9085243     
  -85057597.7487147     
  -84910973.7959799     
  -84763667.2438910     
  -84618498.2103573     
  -84479241.7646858     
  -84345901.9668212     
  -84214806.2041301     
  -84083796.0396299     
  -83952372.4747881     
  -83820271.7442952     
  -83687331.4431092     
  -83553460.2420517     
  -83418611.7963445     
  -83282782.0834996     
  -83146011.7363479     
  -83008426.6140427     
  -82870939.7339219     
  -82735909.1466893     
  -82604641.2358664     
  -82476156.1127590     
  -82348852.1472569     
  -82221924.3159241     
  -82095111.9641426     
  -81968291.8329675     
  -81841424.9688564     
  -81714606.4043167     
  -81588566.5758604     
  -81464887.0443285     
  -81343846.2159393     
  -81224151.7973051     
  -81105043.4288376     
  -80986287.0426080     
  -80867757.3033618     
  -80749423.4201392     
  -80631345.4235474     
  -80513889.7152285     
  -80397766.3635802     
  -80283117.3389432     
  -80169391.8507196     
  -80056096.3965813     
  -79943063.7683445     
  -79830240.0205094     
  -79717600.6122339     
  -79605136.8071086     
  -79492847.1809027     
  -79380733.7431025     
  -79268799.9667149     
  -79157582.3491619     
  -79047120.8476375     
  -78936811.8541041     
  -78826656.7970941     
  -78716656.7065561     
  -78606812.2441377     
  -78497123.7874109     
  -78387591.5802857     
  -78278215.9716310     
  -78168997.7722995     
  -78059938.7670038     
  -77951042.4217339     
  -77842314.8256884     
  -77733765.9018459     
  -77625410.8915019     
  -77517272.0987606     
  -77409380.7616486     
  -77301778.9300371     
  -77194520.8126937     
  -77087673.5041105     
  -76981315.6933877     
  -76875535.5120371     
  -76770425.7859545     
  -76666079.5470476     
  -76562597.0288667     
  -76460058.2441011     
  -76358642.2101656     
  -76258310.4985656     
  -76159650.4487697     
  -76062143.2387979     
  -75966062.9376189     
  -75879430.1437358     
  -75779043.4838530     
  -87849947.1227770     
  -87751287.9376895     
  -87639159.8785455     
  -87498084.4448800     
  -87345830.6557750     
  -87189307.1060531     
  -87032647.4388178     
  -86878809.4582875     
  -86729299.8635088     
  -86584461.3759627     
  -86443683.1922578     
  -86305823.8771031     
  -86169598.9765122     
  -86033859.4165500     
  -85897719.6337009     
  -85760571.1108733     
  -85622033.3363135     
  -85481886.5057908     
  -85340013.9144930     
  -85196364.3342428     
  -85050948.8181313     
  -84903909.0242755     
  -84755738.1163872     
  -84609350.0872338     
  -84470083.2183971     
  -84337924.8054786     
  -84207746.2066962     
  -84077386.9997614     
  -83946519.5999680     
  -83814881.0996667     
  -83682324.1207118     
  -83548759.7288269     
  -83414140.6158820     
  -83278451.6337934     
  -83141719.6383796     
  -83003973.0115609     
  -82865998.1727062     
  -82730682.7488046     
  -82599834.9090300     
  -82472005.4957196     
  -82345208.5960481     
  -82218675.5137598     
  -82092176.6510967     
  -81965582.3249363     
  -81838840.7600178     
  -81711984.9258337     
  -81585687.4926724     
  -81462069.9280934     
  -81341579.5198094     
  -81222295.5105841     
  -81103491.8787949     
  -80984967.0727329     
  -80866596.7547849     
  -80748355.5928136     
  -80630278.3509160     
  -80512724.0880050     
  -80396627.1056670     
  -80282215.5562230     
  -80168729.7532267     
  -80055606.6675983     
  -79942707.5932383     
  -79829991.4504631     
  -79717440.6664005     
  -79605051.8584622     
  -79492827.2291622     
  -79380771.4728432     
  -79268890.0228301     
  -79157595.6213202     
  -79047161.9149944     
  -78936883.4411700     
  -78826757.8855368     
  -78716786.4311153     
  -78606969.7203976     
  -78497307.9248148     
  -78387800.8688245     
  -78278448.2333198     
  -78169249.8724091     
  -78060206.2854207     
  -77951319.2933115     
  -77842592.9709409     
  -77734034.8861435     
  -77625657.6814190     
  -77517481.0013800     
  -77409533.7307872     
  -77301856.3205834     
  -77194503.1359858     
  -77087543.6317068     
  -76981063.7081995     
  -76875161.1541776     
  -76769949.1562000     
  -76665533.0928078     
  -76562048.2565125     
  -76459564.0685199     
  -76358280.1934614     
  -76258182.2132705     
  -76159497.1007097     
  -76062856.7158319     
  -75965373.2974373     
  -75878994.3767832     
  -75787394.4170797     
  -87875797.0516282     
  -87782562.1382761     
  -87656959.4867835     
  -87503761.2691975     
  -87344272.7742301     
  -87182279.2170441     
  -87022064.3436230     
  -86866149.4702967     
  -86715856.8830318     
  -86571214.6838888     
  -86431263.6042610     
  -86294532.0144872     
  -86159483.1770784     
  -86024811.6974015     
  -85889558.4792482     
  -85753097.6074585     
  -85615060.2735293     
  -85475247.4541283     
  -85333556.7947906     
  -85189940.6909592     
  -85044373.9780789     
  -84896955.5844492     
  -84747899.2286775     
  -84599890.8765905     
  -84460621.9327681     
  -84330033.8466538     
  -84200794.4281215     
  -84071104.7429554     
  -83940811.8714847     
  -83809643.2356805     
  -83677476.3743444     
  -83544221.7423382     
  -83409834.1488845     
  -83274284.6253417     
  -83137589.0851251     
  -82999685.2466177     
  -82861060.9827464     
  -82725312.7343527     
  -82594993.7949955     
  -82467922.4786343     
  -82341648.0670181     
  -82215519.5820784     
  -82089342.2434563     
  -81962974.1740876     
  -81836366.2512108     
  -81709451.7921070     
  -81582828.6424251     
  -81459327.1688165     
  -81339376.6762553     
  -81220515.5830452     
  -81102026.3861607     
  -80983741.2174397     
  -80865532.2577098     
  -80747384.9450724     
  -80629307.3249574     
  -80511596.6622892     
  -80395502.3724245     
  -80281379.9381778     
  -80168154.3369943     
  -80055206.6023070     
  -79942444.3234311     
  -79829837.4829722     
  -79717376.6184275     
  -79605063.8723772     
  -79492905.2034357     
  -79380908.0650000     
  -79269079.8829994     
  -79157764.8147938     
  -79047296.4927569     
  -78937049.3787696     
  -78826954.2190786     
  -78717012.3746615     
  -78607224.5095121     
  -78497590.6522137     
  -78388110.3018354     
  -78278782.6060060     
  -78169606.6480243     
  -78060581.8916039     
  -77951708.8358666     
  -77842989.9516993     
  -77734430.9453494     
  -77626042.4512898     
  -77517842.0878702     
  -77409857.0844569     
  -77302126.8714513     
  -77194706.4397279     
  -77087667.7383541     
  -76981102.8937599     
  -76875119.6578782     
  -76769843.5706195     
  -76665403.7974139     
  -76561926.4889173     
  -76459560.8155306     
  -76358312.9652281     
  -76258615.1437922     
  -76159627.2287113     
  -76063939.9241989     
  -75965869.2804524     
  -75876739.5314587     
  -75796130.0336347     
  -87913848.1611782     
  -87822234.3718367     
  -87673005.6123796     
  -87507640.8219522     
  -87340198.0057992     
  -87172501.2412317     
  -87008759.3162443     
  -86850900.6598635     
  -86700093.2671487     
  -86555967.4985273     
  -86417189.1071384     
  -86281914.9115053     
  -86148338.3841760     
  -86014988.4142043     
  -85880832.9635554     
  -85745233.0331419     
  -85607837.1490343     
  -85468473.1079918     
  -85327056.7290885     
  -85183548.3682011     
  -85037891.2579583     
  -84890113.6258146     
  -84740250.4448644     
  -84590012.9277866     
  -84450755.4287136     
  -84322320.4791276     
  -84193934.1664149     
  -84064962.4504827     
  -83935252.3382085     
  -83804562.9222529     
  -83672792.2893459     
  -83539850.4625349     
  -83405695.8795422     
  -83270288.8406492     
  -83133617.6618240     
  -82995601.8868041     
  -82856123.7352940     
  -82719733.0219705     
  -82590120.3396778     
  -82463921.9296561     
  -82338170.7234390     
  -82212460.5528246     
  -82086610.7258015     
  -81960474.6086052     
  -81833994.9517272     
  -81707054.5142232     
  -81579915.6177772     
  -81456516.6776403     
  -81337267.0898114     
  -81218805.1334193     
  -81100652.3907610     
  -80982610.5707887     
  -80864567.3090179     
  -80746510.9513422     
  -80628446.7108636     
  -80510498.1377181     
  -80394371.7080346     
  -80280617.9964374     
  -80167667.4836164     
  -80054897.0055130     
  -79942274.8633358     
  -79829778.6457434     
  -79717408.9497170     
  -79605173.2321270     
  -79493081.4448915     
  -79381143.8244282     
  -79269369.8282998     
  -79158030.9288450     
  -79047524.7360269     
  -78937309.8223061     
  -78827245.9424386     
  -78717334.6591684     
  -78607576.6980006     
  -78497972.0079493     
  -78388519.8582540     
  -78279219.0009746     
  -78170067.9415933     
  -78061065.3660669     
  -77952210.7947236     
  -77843505.5152364     
  -77734953.9195285     
  -77626565.2037825     
  -77518355.7643827     
  -77410351.6369046     
  -77302592.4647117     
  -77195133.0600379     
  -77088050.6622379     
  -76981437.2077288     
  -76875420.6966913     
  -76770112.5108252     
  -76665705.9984774     
  -76562234.7220745     
  -76460045.2023142     
  -76358799.5733755     
  -76259427.0258573     
  -76160500.7088497     
  -76064462.6336712     
  -75968914.3126554     
  -75871869.5144878     
  -75805273.0579921     
  -87969301.9385700     
  -87870287.3523097     
  -87683896.6289859     
  -87510408.6383697     
  -87332694.4453243     
  -87159903.9240967     
  -86992404.3521909     
  -86832897.5085757     
  -86681837.1085363     
  -86538606.4490317     
  -86401375.3824360     
  -86267919.7681232     
  -86136132.0545906     
  -86004371.9798966     
  -85871535.1490231     
  -85736975.5503417     
  -85600367.1344992     
  -85461567.5392167     
  -85320526.0587581     
  -85177187.2116962     
  -85031542.9480073     
  -84883337.9324310     
  -84732982.0791633     
  -84579549.5826005     
  -84440329.4507520     
  -84314963.8232840     
  -84187096.4772167     
  -84058999.4515367     
  -83929832.7919465     
  -83799650.0839156     
  -83668273.5815675     
  -83535652.4812920     
  -83401725.4252500     
  -83266480.3229768     
  -83129787.5836058     
  -82991783.0567229     
  -82851188.3540359     
  -82713840.7809421     
  -82585234.0053578     
  -82460022.2545450     
  -82334773.0818657     
  -82209505.8062971     
  -82083980.3615702     
  -81958098.0229833     
  -81831707.0452398     
  -81704860.9295382     
  -81576879.1147252     
  -81453556.0363214     
  -81335295.1350316     
  -81217145.5358306     
  -81099382.5926594     
  -80981571.9175920     
  -80863710.0735874     
  -80745726.1205207     
  -80627721.7257965     
  -80509415.8636421     
  -80393203.9003165     
  -80279947.1920668     
  -80167267.9221704     
  -80054679.7996905     
  -79942199.8700451     
  -79829815.5835261     
  -79717538.1455496     
  -79605380.3477962     
  -79493356.3124686     
  -79381479.0745415     
  -79269760.1584387     
  -79158394.1871058     
  -79047846.8183046     
  -78937664.9473325     
  -78827633.2225741     
  -78717753.4312153     
  -78608026.3994530     
  -78498452.0600060     
  -78389029.5486294     
  -78279757.3633350     
  -78170633.6285899     
  -78061656.5248712     
  -77952824.9395376     
  -77844139.4468249     
  -77735603.6315310     
  -77627226.0186656     
  -77519022.2477483     
  -77411018.5645112     
  -77303254.0259201     
  -77195787.2645506     
  -77088692.7517297     
  -76982080.0589464     
  -76876053.7775857     
  -76770801.1225936     
  -76666370.6578181     
  -76563137.9316660     
  -76460714.8221248     
  -76360320.9997311     
  -76259599.2360955     
  -76163760.5114008     
  -76062132.1223662     
  -75976921.3107216     
  -75863237.0813165     
  -75814866.2412160     
SCALARS elementIsPlast double 
LOOKUP_TABLE default
  0.000000000000000E+000
  0.000000000000000E+000
  0.000000000000000E+000
  0.000000000000000E+000
  0.000000000000000E+000
  0.000000000000000E+000
  0.000000000000000E+000
  0.000000000000000E+000
  0.000000000000000E+000
  0.000000000000000E+000
  0.000000000000000E+000
  0.000000000000000E+000
  0.000000000000000E+000
  0.000000000000000E+000
  0.000000000000000E+000
  0.000000000000000E+000
  0.000000000000000E+000
  0.000000000000000E+000
  0.000000000000000E+000
  0.000000000000000E+000
  0.000000000000000E+000
  0.000000000000000E+000
  0.000000000000000E+000
  0.000000000000000E+000
  0.000000000000000E+000
  0.000000000000000E+000
  0.000000000000000E+000
  0.000000000000000E+000
  0.000000000000000E+000
  0.000000000000000E+000
  0.000000000000000E+000
  0.000000000000000E+000
  0.000000000000000E+000
  0.000000000000000E+000
  0.000000000000000E+000
  0.000000000000000E+000
  0.000000000000000E+000
  0.000000000000000E+000
  0.000000000000000E+000
  0.000000000000000E+000
  0.000000000000000E+000
  0.000000000000000E+000
  0.000000000000000E+000
  0.000000000000000E+000
  0.000000000000000E+000
  0.000000000000000E+000
  0.000000000000000E+000
  0.000000000000000E+000
  0.000000000000000E+000
  0.000000000000000E+000
  0.000000000000000E+000
  0.000000000000000E+000
  0.000000000000000E+000
  0.000000000000000E+000
  0.000000000000000E+000
  0.000000000000000E+000
  0.000000000000000E+000
  0.000000000000000E+000
  0.000000000000000E+000
  0.000000000000000E+000
  0.000000000000000E+000
  0.000000000000000E+000
  0.000000000000000E+000
  0.000000000000000E+000
  0.000000000000000E+000
  0.000000000000000E+000
  0.000000000000000E+000
  0.000000000000000E+000
   1.00000000000000     
   1.00000000000000     
   1.00000000000000     
   1.00000000000000     
   1.00000000000000     
   1.00000000000000     
   1.00000000000000     
   1.00000000000000     
   1.00000000000000     
   1.00000000000000     
   1.00000000000000     
   1.00000000000000     
   1.00000000000000     
   1.00000000000000     
   1.00000000000000     
   1.00000000000000     
   1.00000000000000     
   1.00000000000000     
   1.00000000000000     
   1.00000000000000     
   1.00000000000000     
   1.00000000000000     
   1.00000000000000     
   1.00000000000000     
   1.00000000000000     
   1.00000000000000     
   1.00000000000000     
   1.00000000000000     
   1.00000000000000     
   1.00000000000000     
   1.00000000000000     
   1.00000000000000     
  0.000000000000000E+000
  0.000000000000000E+000
  0.000000000000000E+000
  0.000000000000000E+000
  0.000000000000000E+000
  0.000000000000000E+000
  0.000000000000000E+000
  0.000000000000000E+000
  0.000000000000000E+000
  0.000000000000000E+000
  0.000000000000000E+000
  0.000000000000000E+000
  0.000000000000000E+000
  0.000000000000000E+000
  0.000000000000000E+000
  0.000000000000000E+000
  0.000000000000000E+000
  0.000000000000000E+000
  0.000000000000000E+000
  0.000000000000000E+000
  0.000000000000000E+000
  0.000000000000000E+000
  0.000000000000000E+000
  0.000000000000000E+000
  0.000000000000000E+000
  0.000000000000000E+000
  0.000000000000000E+000
  0.000000000000000E+000
  0.000000000000000E+000
  0.000000000000000E+000
  0.000000000000000E+000
  0.000000000000000E+000
  0.000000000000000E+000
  0.000000000000000E+000
  0.000000000000000E+000
  0.000000000000000E+000
  0.000000000000000E+000
  0.000000000000000E+000
  0.000000000000000E+000
  0.000000000000000E+000
  0.000000000000000E+000
  0.000000000000000E+000
  0.000000000000000E+000
  0.000000000000000E+000
  0.000000000000000E+000
  0.000000000000000E+000
  0.000000000000000E+000
  0.000000000000000E+000
  0.000000000000000E+000
  0.000000000000000E+000
  0.000000000000000E+000
  0.000000000000000E+000
  0.000000000000000E+000
  0.000000000000000E+000
  0.000000000000000E+000
  0.000000000000000E+000
  0.000000000000000E+000
  0.000000000000000E+000
  0.000000000000000E+000
  0.000000000000000E+000
  0.000000000000000E+000
  0.000000000000000E+000
  0.000000000000000E+000
  0.000000000000000E+000
  0.000000000000000E+000
  0.000000000000000E+000
  0.000000000000000E+000
  0.000000000000000E+000
   1.00000000000000     
   1.00000000000000     
   1.00000000000000     
   1.00000000000000     
   1.00000000000000     
   1.00000000000000     
   1.00000000000000     
   1.00000000000000     
   1.00000000000000     
   1.00000000000000     
   1.00000000000000     
   1.00000000000000     
   1.00000000000000     
   1.00000000000000     
   1.00000000000000     
   1.00000000000000     
   1.00000000000000     
   1.00000000000000     
   1.00000000000000     
   1.00000000000000     
   1.00000000000000     
   1.00000000000000     
   1.00000000000000     
   1.00000000000000     
   1.00000000000000     
   1.00000000000000     
   1.00000000000000     
   1.00000000000000     
   1.00000000000000     
   1.00000000000000     
   1.00000000000000     
   1.00000000000000     
  0.000000000000000E+000
  0.000000000000000E+000
  0.000000000000000E+000
  0.000000000000000E+000
  0.000000000000000E+000
  0.000000000000000E+000
  0.000000000000000E+000
  0.000000000000000E+000
  0.000000000000000E+000
  0.000000000000000E+000
  0.000000000000000E+000
  0.000000000000000E+000
  0.000000000000000E+000
  0.000000000000000E+000
  0.000000000000000E+000
  0.000000000000000E+000
  0.000000000000000E+000
  0.000000000000000E+000
  0.000000000000000E+000
  0.000000000000000E+000
  0.000000000000000E+000
  0.000000000000000E+000
  0.000000000000000E+000
  0.000000000000000E+000
  0.000000000000000E+000
  0.000000000000000E+000
  0.000000000000000E+000
  0.000000000000000E+000
  0.000000000000000E+000
  0.000000000000000E+000
  0.000000000000000E+000
  0.000000000000000E+000
  0.000000000000000E+000
  0.000000000000000E+000
  0.000000000000000E+000
  0.000000000000000E+000
  0.000000000000000E+000
  0.000000000000000E+000
  0.000000000000000E+000
  0.000000000000000E+000
  0.000000000000000E+000
  0.000000000000000E+000
  0.000000000000000E+000
  0.000000000000000E+000
  0.000000000000000E+000
  0.000000000000000E+000
  0.000000000000000E+000
  0.000000000000000E+000
  0.000000000000000E+000
  0.000000000000000E+000
  0.000000000000000E+000
  0.000000000000000E+000
  0.000000000000000E+000
  0.000000000000000E+000
  0.000000000000000E+000
  0.000000000000000E+000
  0.000000000000000E+000
  0.000000000000000E+000
  0.000000000000000E+000
  0.000000000000000E+000
  0.000000000000000E+000
  0.000000000000000E+000
  0.000000000000000E+000
  0.000000000000000E+000
  0.000000000000000E+000
  0.000000000000000E+000
  0.000000000000000E+000
  0.000000000000000E+000
   1.00000000000000     
   1.00000000000000     
   1.00000000000000     
   1.00000000000000     
   1.00000000000000     
   1.00000000000000     
   1.00000000000000     
   1.00000000000000     
   1.00000000000000     
   1.00000000000000     
   1.00000000000000     
   1.00000000000000     
   1.00000000000000     
   1.00000000000000     
   1.00000000000000     
   1.00000000000000     
   1.00000000000000     
   1.00000000000000     
   1.00000000000000     
   1.00000000000000     
   1.00000000000000     
   1.00000000000000     
   1.00000000000000     
   1.00000000000000     
   1.00000000000000     
   1.00000000000000     
   1.00000000000000     
   1.00000000000000     
   1.00000000000000     
   1.00000000000000     
   1.00000000000000     
   1.00000000000000     
  0.000000000000000E+000
  0.000000000000000E+000
  0.000000000000000E+000
  0.000000000000000E+000
  0.000000000000000E+000
  0.000000000000000E+000
  0.000000000000000E+000
  0.000000000000000E+000
  0.000000000000000E+000
  0.000000000000000E+000
  0.000000000000000E+000
  0.000000000000000E+000
  0.000000000000000E+000
  0.000000000000000E+000
  0.000000000000000E+000
  0.000000000000000E+000
  0.000000000000000E+000
  0.000000000000000E+000
  0.000000000000000E+000
  0.000000000000000E+000
  0.000000000000000E+000
  0.000000000000000E+000
  0.000000000000000E+000
  0.000000000000000E+000
  0.000000000000000E+000
  0.000000000000000E+000
  0.000000000000000E+000
  0.000000000000000E+000
  0.000000000000000E+000
  0.000000000000000E+000
  0.000000000000000E+000
  0.000000000000000E+000
  0.000000000000000E+000
  0.000000000000000E+000
  0.000000000000000E+000
  0.000000000000000E+000
  0.000000000000000E+000
  0.000000000000000E+000
  0.000000000000000E+000
  0.000000000000000E+000
  0.000000000000000E+000
  0.000000000000000E+000
  0.000000000000000E+000
  0.000000000000000E+000
  0.000000000000000E+000
  0.000000000000000E+000
  0.000000000000000E+000
  0.000000000000000E+000
  0.000000000000000E+000
  0.000000000000000E+000
  0.000000000000000E+000
  0.000000000000000E+000
  0.000000000000000E+000
  0.000000000000000E+000
  0.000000000000000E+000
  0.000000000000000E+000
  0.000000000000000E+000
  0.000000000000000E+000
  0.000000000000000E+000
  0.000000000000000E+000
  0.000000000000000E+000
  0.000000000000000E+000
  0.000000000000000E+000
  0.000000000000000E+000
  0.000000000000000E+000
  0.000000000000000E+000
  0.000000000000000E+000
  0.000000000000000E+000
   1.00000000000000     
   1.00000000000000     
   1.00000000000000     
   1.00000000000000     
   1.00000000000000     
   1.00000000000000     
   1.00000000000000     
   1.00000000000000     
   1.00000000000000     
   1.00000000000000     
   1.00000000000000     
   1.00000000000000     
   1.00000000000000     
   1.00000000000000     
   1.00000000000000     
   1.00000000000000     
   1.00000000000000     
   1.00000000000000     
   1.00000000000000     
   1.00000000000000     
   1.00000000000000     
   1.00000000000000     
   1.00000000000000     
   1.00000000000000     
   1.00000000000000     
   1.00000000000000     
   1.00000000000000     
   1.00000000000000     
   1.00000000000000     
   1.00000000000000     
   1.00000000000000     
   1.00000000000000     
  0.000000000000000E+000
  0.000000000000000E+000
  0.000000000000000E+000
  0.000000000000000E+000
  0.000000000000000E+000
  0.000000000000000E+000
  0.000000000000000E+000
  0.000000000000000E+000
  0.000000000000000E+000
  0.000000000000000E+000
  0.000000000000000E+000
  0.000000000000000E+000
  0.000000000000000E+000
  0.000000000000000E+000
  0.000000000000000E+000
  0.000000000000000E+000
  0.000000000000000E+000
  0.000000000000000E+000
  0.000000000000000E+000
  0.000000000000000E+000
  0.000000000000000E+000
  0.000000000000000E+000
  0.000000000000000E+000
  0.000000000000000E+000
  0.000000000000000E+000
  0.000000000000000E+000
  0.000000000000000E+000
  0.000000000000000E+000
  0.000000000000000E+000
  0.000000000000000E+000
  0.000000000000000E+000
  0.000000000000000E+000
  0.000000000000000E+000
  0.000000000000000E+000
  0.000000000000000E+000
  0.000000000000000E+000
  0.000000000000000E+000
  0.000000000000000E+000
  0.000000000000000E+000
  0.000000000000000E+000
  0.000000000000000E+000
  0.000000000000000E+000
  0.000000000000000E+000
  0.000000000000000E+000
  0.000000000000000E+000
  0.000000000000000E+000
  0.000000000000000E+000
  0.000000000000000E+000
  0.000000000000000E+000
  0.000000000000000E+000
  0.000000000000000E+000
  0.000000000000000E+000
  0.000000000000000E+000
  0.000000000000000E+000
  0.000000000000000E+000
  0.000000000000000E+000
  0.000000000000000E+000
  0.000000000000000E+000
  0.000000000000000E+000
  0.000000000000000E+000
  0.000000000000000E+000
  0.000000000000000E+000
  0.000000000000000E+000
  0.000000000000000E+000
  0.000000000000000E+000
  0.000000000000000E+000
  0.000000000000000E+000
  0.000000000000000E+000
   1.00000000000000     
   1.00000000000000     
   1.00000000000000     
   1.00000000000000     
   1.00000000000000     
   1.00000000000000     
   1.00000000000000     
   1.00000000000000     
   1.00000000000000     
   1.00000000000000     
   1.00000000000000     
   1.00000000000000     
   1.00000000000000     
   1.00000000000000     
   1.00000000000000     
   1.00000000000000     
   1.00000000000000     
   1.00000000000000     
   1.00000000000000     
   1.00000000000000     
   1.00000000000000     
   1.00000000000000     
   1.00000000000000     
   1.00000000000000     
   1.00000000000000     
   1.00000000000000     
   1.00000000000000     
   1.00000000000000     
   1.00000000000000     
   1.00000000000000     
   1.00000000000000     
   1.00000000000000     
  0.000000000000000E+000
  0.000000000000000E+000
  0.000000000000000E+000
  0.000000000000000E+000
  0.000000000000000E+000
  0.000000000000000E+000
  0.000000000000000E+000
  0.000000000000000E+000
  0.000000000000000E+000
  0.000000000000000E+000
  0.000000000000000E+000
  0.000000000000000E+000
  0.000000000000000E+000
  0.000000000000000E+000
  0.000000000000000E+000
  0.000000000000000E+000
  0.000000000000000E+000
  0.000000000000000E+000
  0.000000000000000E+000
  0.000000000000000E+000
  0.000000000000000E+000
  0.000000000000000E+000
  0.000000000000000E+000
  0.000000000000000E+000
  0.000000000000000E+000
  0.000000000000000E+000
  0.000000000000000E+000
  0.000000000000000E+000
  0.000000000000000E+000
  0.000000000000000E+000
  0.000000000000000E+000
  0.000000000000000E+000
  0.000000000000000E+000
  0.000000000000000E+000
  0.000000000000000E+000
  0.000000000000000E+000
  0.000000000000000E+000
  0.000000000000000E+000
  0.000000000000000E+000
  0.000000000000000E+000
  0.000000000000000E+000
  0.000000000000000E+000
  0.000000000000000E+000
  0.000000000000000E+000
  0.000000000000000E+000
  0.000000000000000E+000
  0.000000000000000E+000
  0.000000000000000E+000
  0.000000000000000E+000
  0.000000000000000E+000
  0.000000000000000E+000
  0.000000000000000E+000
  0.000000000000000E+000
  0.000000000000000E+000
  0.000000000000000E+000
  0.000000000000000E+000
  0.000000000000000E+000
  0.000000000000000E+000
  0.000000000000000E+000
  0.000000000000000E+000
  0.000000000000000E+000
  0.000000000000000E+000
  0.000000000000000E+000
  0.000000000000000E+000
  0.000000000000000E+000
  0.000000000000000E+000
  0.000000000000000E+000
   1.00000000000000     
   1.00000000000000     
   1.00000000000000     
   1.00000000000000     
   1.00000000000000     
   1.00000000000000     
   1.00000000000000     
   1.00000000000000     
   1.00000000000000     
   1.00000000000000     
   1.00000000000000     
   1.00000000000000     
   1.00000000000000     
   1.00000000000000     
   1.00000000000000     
   1.00000000000000     
   1.00000000000000     
   1.00000000000000     
   1.00000000000000     
   1.00000000000000     
   1.00000000000000     
   1.00000000000000     
   1.00000000000000     
   1.00000000000000     
   1.00000000000000     
   1.00000000000000     
   1.00000000000000     
   1.00000000000000     
   1.00000000000000     
   1.00000000000000     
   1.00000000000000     
   1.00000000000000     
   1.00000000000000     
  0.000000000000000E+000
  0.000000000000000E+000
  0.000000000000000E+000
  0.000000000000000E+000
  0.000000000000000E+000
  0.000000000000000E+000
  0.000000000000000E+000
  0.000000000000000E+000
  0.000000000000000E+000
  0.000000000000000E+000
  0.000000000000000E+000
  0.000000000000000E+000
  0.000000000000000E+000
  0.000000000000000E+000
  0.000000000000000E+000
  0.000000000000000E+000
  0.000000000000000E+000
  0.000000000000000E+000
  0.000000000000000E+000
  0.000000000000000E+000
  0.000000000000000E+000
  0.000000000000000E+000
  0.000000000000000E+000
  0.000000000000000E+000
  0.000000000000000E+000
  0.000000000000000E+000
  0.000000000000000E+000
  0.000000000000000E+000
  0.000000000000000E+000
  0.000000000000000E+000
  0.000000000000000E+000
  0.000000000000000E+000
  0.000000000000000E+000
  0.000000000000000E+000
  0.000000000000000E+000
  0.000000000000000E+000
  0.000000000000000E+000
  0.000000000000000E+000
  0.000000000000000E+000
  0.000000000000000E+000
  0.000000000000000E+000
  0.000000000000000E+000
  0.000000000000000E+000
  0.000000000000000E+000
  0.000000000000000E+000
  0.000000000000000E+000
  0.000000000000000E+000
  0.000000000000000E+000
  0.000000000000000E+000
  0.000000000000000E+000
  0.000000000000000E+000
  0.000000000000000E+000
  0.000000000000000E+000
  0.000000000000000E+000
  0.000000000000000E+000
  0.000000000000000E+000
  0.000000000000000E+000
  0.000000000000000E+000
  0.000000000000000E+000
  0.000000000000000E+000
  0.000000000000000E+000
  0.000000000000000E+000
  0.000000000000000E+000
  0.000000000000000E+000
  0.000000000000000E+000
  0.000000000000000E+000
  0.000000000000000E+000
   1.00000000000000     
   1.00000000000000     
   1.00000000000000     
   1.00000000000000     
   1.00000000000000     
   1.00000000000000     
   1.00000000000000     
   1.00000000000000     
   1.00000000000000     
   1.00000000000000     
   1.00000000000000     
   1.00000000000000     
   1.00000000000000     
   1.00000000000000     
   1.00000000000000     
   1.00000000000000     
   1.00000000000000     
   1.00000000000000     
   1.00000000000000     
   1.00000000000000     
   1.00000000000000     
   1.00000000000000     
   1.00000000000000     
   1.00000000000000     
   1.00000000000000     
   1.00000000000000     
   1.00000000000000     
   1.00000000000000     
   1.00000000000000     
   1.00000000000000     
   1.00000000000000     
   1.00000000000000     
   1.00000000000000     
  0.000000000000000E+000
  0.000000000000000E+000
  0.000000000000000E+000
  0.000000000000000E+000
  0.000000000000000E+000
  0.000000000000000E+000
  0.000000000000000E+000
  0.000000000000000E+000
  0.000000000000000E+000
  0.000000000000000E+000
  0.000000000000000E+000
  0.000000000000000E+000
  0.000000000000000E+000
  0.000000000000000E+000
  0.000000000000000E+000
  0.000000000000000E+000
  0.000000000000000E+000
  0.000000000000000E+000
  0.000000000000000E+000
  0.000000000000000E+000
  0.000000000000000E+000
  0.000000000000000E+000
  0.000000000000000E+000
  0.000000000000000E+000
  0.000000000000000E+000
  0.000000000000000E+000
  0.000000000000000E+000
  0.000000000000000E+000
  0.000000000000000E+000
  0.000000000000000E+000
  0.000000000000000E+000
  0.000000000000000E+000
  0.000000000000000E+000
  0.000000000000000E+000
  0.000000000000000E+000
  0.000000000000000E+000
  0.000000000000000E+000
  0.000000000000000E+000
  0.000000000000000E+000
  0.000000000000000E+000
  0.000000000000000E+000
  0.000000000000000E+000
  0.000000000000000E+000
  0.000000000000000E+000
  0.000000000000000E+000
  0.000000000000000E+000
  0.000000000000000E+000
  0.000000000000000E+000
  0.000000000000000E+000
  0.000000000000000E+000
  0.000000000000000E+000
  0.000000000000000E+000
  0.000000000000000E+000
  0.000000000000000E+000
  0.000000000000000E+000
  0.000000000000000E+000
  0.000000000000000E+000
  0.000000000000000E+000
  0.000000000000000E+000
  0.000000000000000E+000
  0.000000000000000E+000
  0.000000000000000E+000
  0.000000000000000E+000
  0.000000000000000E+000
  0.000000000000000E+000
  0.000000000000000E+000
  0.000000000000000E+000
   1.00000000000000     
   1.00000000000000     
   1.00000000000000     
   1.00000000000000     
   1.00000000000000     
   1.00000000000000     
   1.00000000000000     
   1.00000000000000     
   1.00000000000000     
   1.00000000000000     
   1.00000000000000     
   1.00000000000000     
   1.00000000000000     
   1.00000000000000     
   1.00000000000000     
   1.00000000000000     
   1.00000000000000     
   1.00000000000000     
   1.00000000000000     
   1.00000000000000     
   1.00000000000000     
   1.00000000000000     
   1.00000000000000     
   1.00000000000000     
   1.00000000000000     
   1.00000000000000     
   1.00000000000000     
   1.00000000000000     
   1.00000000000000     
   1.00000000000000     
   1.00000000000000     
   1.00000000000000     
   1.00000000000000     
  0.000000000000000E+000
  0.000000000000000E+000
  0.000000000000000E+000
  0.000000000000000E+000
  0.000000000000000E+000
  0.000000000000000E+000
  0.000000000000000E+000
  0.000000000000000E+000
  0.000000000000000E+000
  0.000000000000000E+000
  0.000000000000000E+000
  0.000000000000000E+000
  0.000000000000000E+000
  0.000000000000000E+000
  0.000000000000000E+000
  0.000000000000000E+000
  0.000000000000000E+000
  0.000000000000000E+000
  0.000000000000000E+000
  0.000000000000000E+000
  0.000000000000000E+000
  0.000000000000000E+000
  0.000000000000000E+000
  0.000000000000000E+000
  0.000000000000000E+000
  0.000000000000000E+000
  0.000000000000000E+000
  0.000000000000000E+000
  0.000000000000000E+000
  0.000000000000000E+000
  0.000000000000000E+000
  0.000000000000000E+000
  0.000000000000000E+000
  0.000000000000000E+000
  0.000000000000000E+000
  0.000000000000000E+000
  0.000000000000000E+000
  0.000000000000000E+000
  0.000000000000000E+000
  0.000000000000000E+000
  0.000000000000000E+000
  0.000000000000000E+000
  0.000000000000000E+000
  0.000000000000000E+000
  0.000000000000000E+000
  0.000000000000000E+000
  0.000000000000000E+000
  0.000000000000000E+000
  0.000000000000000E+000
  0.000000000000000E+000
  0.000000000000000E+000
  0.000000000000000E+000
  0.000000000000000E+000
  0.000000000000000E+000
  0.000000000000000E+000
  0.000000000000000E+000
  0.000000000000000E+000
  0.000000000000000E+000
  0.000000000000000E+000
  0.000000000000000E+000
  0.000000000000000E+000
  0.000000000000000E+000
  0.000000000000000E+000
  0.000000000000000E+000
  0.000000000000000E+000
  0.000000000000000E+000
  0.000000000000000E+000
   1.00000000000000     
   1.00000000000000     
   1.00000000000000     
   1.00000000000000     
   1.00000000000000     
   1.00000000000000     
   1.00000000000000     
   1.00000000000000     
   1.00000000000000     
   1.00000000000000     
   1.00000000000000     
   1.00000000000000     
   1.00000000000000     
   1.00000000000000     
   1.00000000000000     
   1.00000000000000     
   1.00000000000000     
   1.00000000000000     
   1.00000000000000     
   1.00000000000000     
   1.00000000000000     
   1.00000000000000     
   1.00000000000000     
   1.00000000000000     
   1.00000000000000     
   1.00000000000000     
   1.00000000000000     
   1.00000000000000     
   1.00000000000000     
   1.00000000000000     
   1.00000000000000     
   1.00000000000000     
   1.00000000000000     
  0.000000000000000E+000
  0.000000000000000E+000
  0.000000000000000E+000
  0.000000000000000E+000
  0.000000000000000E+000
  0.000000000000000E+000
  0.000000000000000E+000
  0.000000000000000E+000
  0.000000000000000E+000
  0.000000000000000E+000
  0.000000000000000E+000
  0.000000000000000E+000
  0.000000000000000E+000
  0.000000000000000E+000
  0.000000000000000E+000
  0.000000000000000E+000
  0.000000000000000E+000
  0.000000000000000E+000
  0.000000000000000E+000
  0.000000000000000E+000
  0.000000000000000E+000
  0.000000000000000E+000
  0.000000000000000E+000
  0.000000000000000E+000
  0.000000000000000E+000
  0.000000000000000E+000
  0.000000000000000E+000
  0.000000000000000E+000
  0.000000000000000E+000
  0.000000000000000E+000
  0.000000000000000E+000
  0.000000000000000E+000
  0.000000000000000E+000
  0.000000000000000E+000
  0.000000000000000E+000
  0.000000000000000E+000
  0.000000000000000E+000
  0.000000000000000E+000
  0.000000000000000E+000
  0.000000000000000E+000
  0.000000000000000E+000
  0.000000000000000E+000
  0.000000000000000E+000
  0.000000000000000E+000
  0.000000000000000E+000
  0.000000000000000E+000
  0.000000000000000E+000
  0.000000000000000E+000
  0.000000000000000E+000
  0.000000000000000E+000
  0.000000000000000E+000
  0.000000000000000E+000
  0.000000000000000E+000
  0.000000000000000E+000
  0.000000000000000E+000
  0.000000000000000E+000
  0.000000000000000E+000
  0.000000000000000E+000
  0.000000000000000E+000
  0.000000000000000E+000
  0.000000000000000E+000
  0.000000000000000E+000
  0.000000000000000E+000
  0.000000000000000E+000
  0.000000000000000E+000
  0.000000000000000E+000
  0.000000000000000E+000
   1.00000000000000     
   1.00000000000000     
   1.00000000000000     
   1.00000000000000     
   1.00000000000000     
   1.00000000000000     
   1.00000000000000     
   1.00000000000000     
   1.00000000000000     
   1.00000000000000     
   1.00000000000000     
   1.00000000000000     
   1.00000000000000     
   1.00000000000000     
   1.00000000000000     
   1.00000000000000     
   1.00000000000000     
   1.00000000000000     
   1.00000000000000     
   1.00000000000000     
   1.00000000000000     
   1.00000000000000     
   1.00000000000000     
   1.00000000000000     
   1.00000000000000     
   1.00000000000000     
   1.00000000000000     
   1.00000000000000     
   1.00000000000000     
   1.00000000000000     
   1.00000000000000     
   1.00000000000000     
   1.00000000000000     
  0.000000000000000E+000
  0.000000000000000E+000
  0.000000000000000E+000
  0.000000000000000E+000
  0.000000000000000E+000
  0.000000000000000E+000
  0.000000000000000E+000
  0.000000000000000E+000
  0.000000000000000E+000
  0.000000000000000E+000
  0.000000000000000E+000
  0.000000000000000E+000
  0.000000000000000E+000
  0.000000000000000E+000
  0.000000000000000E+000
  0.000000000000000E+000
  0.000000000000000E+000
  0.000000000000000E+000
  0.000000000000000E+000
  0.000000000000000E+000
  0.000000000000000E+000
  0.000000000000000E+000
  0.000000000000000E+000
  0.000000000000000E+000
  0.000000000000000E+000
  0.000000000000000E+000
  0.000000000000000E+000
  0.000000000000000E+000
  0.000000000000000E+000
  0.000000000000000E+000
  0.000000000000000E+000
  0.000000000000000E+000
  0.000000000000000E+000
  0.000000000000000E+000
  0.000000000000000E+000
  0.000000000000000E+000
  0.000000000000000E+000
  0.000000000000000E+000
  0.000000000000000E+000
  0.000000000000000E+000
  0.000000000000000E+000
  0.000000000000000E+000
  0.000000000000000E+000
  0.000000000000000E+000
  0.000000000000000E+000
  0.000000000000000E+000
  0.000000000000000E+000
  0.000000000000000E+000
  0.000000000000000E+000
  0.000000000000000E+000
  0.000000000000000E+000
  0.000000000000000E+000
  0.000000000000000E+000
  0.000000000000000E+000
  0.000000000000000E+000
  0.000000000000000E+000
  0.000000000000000E+000
  0.000000000000000E+000
  0.000000000000000E+000
  0.000000000000000E+000
  0.000000000000000E+000
  0.000000000000000E+000
  0.000000000000000E+000
  0.000000000000000E+000
  0.000000000000000E+000
  0.000000000000000E+000
  0.000000000000000E+000
   1.00000000000000     
   1.00000000000000     
   1.00000000000000     
   1.00000000000000     
   1.00000000000000     
   1.00000000000000     
   1.00000000000000     
   1.00000000000000     
   1.00000000000000     
   1.00000000000000     
   1.00000000000000     
   1.00000000000000     
   1.00000000000000     
   1.00000000000000     
   1.00000000000000     
   1.00000000000000     
   1.00000000000000     
   1.00000000000000     
   1.00000000000000     
   1.00000000000000     
   1.00000000000000     
   1.00000000000000     
   1.00000000000000     
   1.00000000000000     
   1.00000000000000     
   1.00000000000000     
   1.00000000000000     
   1.00000000000000     
   1.00000000000000     
   1.00000000000000     
   1.00000000000000     
   1.00000000000000     
   1.00000000000000     
  0.000000000000000E+000
  0.000000000000000E+000
  0.000000000000000E+000
  0.000000000000000E+000
  0.000000000000000E+000
  0.000000000000000E+000
  0.000000000000000E+000
  0.000000000000000E+000
  0.000000000000000E+000
  0.000000000000000E+000
  0.000000000000000E+000
  0.000000000000000E+000
  0.000000000000000E+000
  0.000000000000000E+000
  0.000000000000000E+000
  0.000000000000000E+000
  0.000000000000000E+000
  0.000000000000000E+000
  0.000000000000000E+000
  0.000000000000000E+000
  0.000000000000000E+000
  0.000000000000000E+000
  0.000000000000000E+000
  0.000000000000000E+000
  0.000000000000000E+000
  0.000000000000000E+000
  0.000000000000000E+000
  0.000000000000000E+000
  0.000000000000000E+000
  0.000000000000000E+000
  0.000000000000000E+000
  0.000000000000000E+000
  0.000000000000000E+000
  0.000000000000000E+000
  0.000000000000000E+000
  0.000000000000000E+000
  0.000000000000000E+000
  0.000000000000000E+000
  0.000000000000000E+000
  0.000000000000000E+000
  0.000000000000000E+000
  0.000000000000000E+000
  0.000000000000000E+000
  0.000000000000000E+000
  0.000000000000000E+000
  0.000000000000000E+000
  0.000000000000000E+000
  0.000000000000000E+000
  0.000000000000000E+000
  0.000000000000000E+000
  0.000000000000000E+000
  0.000000000000000E+000
  0.000000000000000E+000
  0.000000000000000E+000
  0.000000000000000E+000
  0.000000000000000E+000
  0.000000000000000E+000
  0.000000000000000E+000
  0.000000000000000E+000
  0.000000000000000E+000
  0.000000000000000E+000
  0.000000000000000E+000
  0.000000000000000E+000
  0.000000000000000E+000
  0.000000000000000E+000
  0.000000000000000E+000
  0.000000000000000E+000
   1.00000000000000     
   1.00000000000000     
   1.00000000000000     
   1.00000000000000     
   1.00000000000000     
   1.00000000000000     
   1.00000000000000     
   1.00000000000000     
   1.00000000000000     
   1.00000000000000     
   1.00000000000000     
   1.00000000000000     
   1.00000000000000     
   1.00000000000000     
   1.00000000000000     
   1.00000000000000     
   1.00000000000000     
   1.00000000000000     
   1.00000000000000     
   1.00000000000000     
   1.00000000000000     
   1.00000000000000     
   1.00000000000000     
   1.00000000000000     
   1.00000000000000     
   1.00000000000000     
   1.00000000000000     
   1.00000000000000     
   1.00000000000000     
   1.00000000000000     
   1.00000000000000     
   1.00000000000000     
   1.00000000000000     
  0.000000000000000E+000
  0.000000000000000E+000
  0.000000000000000E+000
  0.000000000000000E+000
  0.000000000000000E+000
  0.000000000000000E+000
  0.000000000000000E+000
  0.000000000000000E+000
  0.000000000000000E+000
  0.000000000000000E+000
  0.000000000000000E+000
  0.000000000000000E+000
  0.000000000000000E+000
  0.000000000000000E+000
  0.000000000000000E+000
  0.000000000000000E+000
  0.000000000000000E+000
  0.000000000000000E+000
  0.000000000000000E+000
  0.000000000000000E+000
  0.000000000000000E+000
  0.000000000000000E+000
  0.000000000000000E+000
  0.000000000000000E+000
  0.000000000000000E+000
  0.000000000000000E+000
  0.000000000000000E+000
  0.000000000000000E+000
  0.000000000000000E+000
  0.000000000000000E+000
  0.000000000000000E+000
  0.000000000000000E+000
  0.000000000000000E+000
  0.000000000000000E+000
  0.000000000000000E+000
  0.000000000000000E+000
  0.000000000000000E+000
  0.000000000000000E+000
  0.000000000000000E+000
  0.000000000000000E+000
  0.000000000000000E+000
  0.000000000000000E+000
  0.000000000000000E+000
  0.000000000000000E+000
  0.000000000000000E+000
  0.000000000000000E+000
  0.000000000000000E+000
  0.000000000000000E+000
  0.000000000000000E+000
  0.000000000000000E+000
  0.000000000000000E+000
  0.000000000000000E+000
  0.000000000000000E+000
  0.000000000000000E+000
  0.000000000000000E+000
  0.000000000000000E+000
  0.000000000000000E+000
  0.000000000000000E+000
  0.000000000000000E+000
  0.000000000000000E+000
  0.000000000000000E+000
  0.000000000000000E+000
  0.000000000000000E+000
  0.000000000000000E+000
  0.000000000000000E+000
  0.000000000000000E+000
  0.000000000000000E+000
   1.00000000000000     
   1.00000000000000     
   1.00000000000000     
   1.00000000000000     
   1.00000000000000     
   1.00000000000000     
   1.00000000000000     
   1.00000000000000     
   1.00000000000000     
   1.00000000000000     
   1.00000000000000     
   1.00000000000000     
   1.00000000000000     
   1.00000000000000     
   1.00000000000000     
   1.00000000000000     
   1.00000000000000     
   1.00000000000000     
   1.00000000000000     
   1.00000000000000     
   1.00000000000000     
   1.00000000000000     
   1.00000000000000     
   1.00000000000000     
   1.00000000000000     
   1.00000000000000     
   1.00000000000000     
   1.00000000000000     
   1.00000000000000     
   1.00000000000000     
   1.00000000000000     
   1.00000000000000     
   1.00000000000000     
  0.000000000000000E+000
  0.000000000000000E+000
  0.000000000000000E+000
  0.000000000000000E+000
  0.000000000000000E+000
  0.000000000000000E+000
  0.000000000000000E+000
  0.000000000000000E+000
  0.000000000000000E+000
  0.000000000000000E+000
  0.000000000000000E+000
  0.000000000000000E+000
  0.000000000000000E+000
  0.000000000000000E+000
  0.000000000000000E+000
  0.000000000000000E+000
  0.000000000000000E+000
  0.000000000000000E+000
  0.000000000000000E+000
  0.000000000000000E+000
  0.000000000000000E+000
  0.000000000000000E+000
  0.000000000000000E+000
  0.000000000000000E+000
  0.000000000000000E+000
  0.000000000000000E+000
  0.000000000000000E+000
  0.000000000000000E+000
  0.000000000000000E+000
  0.000000000000000E+000
  0.000000000000000E+000
  0.000000000000000E+000
  0.000000000000000E+000
  0.000000000000000E+000
  0.000000000000000E+000
  0.000000000000000E+000
  0.000000000000000E+000
  0.000000000000000E+000
  0.000000000000000E+000
  0.000000000000000E+000
  0.000000000000000E+000
  0.000000000000000E+000
  0.000000000000000E+000
  0.000000000000000E+000
  0.000000000000000E+000
  0.000000000000000E+000
  0.000000000000000E+000
  0.000000000000000E+000
  0.000000000000000E+000
  0.000000000000000E+000
  0.000000000000000E+000
  0.000000000000000E+000
  0.000000000000000E+000
  0.000000000000000E+000
  0.000000000000000E+000
  0.000000000000000E+000
  0.000000000000000E+000
  0.000000000000000E+000
  0.000000000000000E+000
  0.000000000000000E+000
  0.000000000000000E+000
  0.000000000000000E+000
  0.000000000000000E+000
  0.000000000000000E+000
  0.000000000000000E+000
  0.000000000000000E+000
  0.000000000000000E+000
   1.00000000000000     
   1.00000000000000     
   1.00000000000000     
   1.00000000000000     
   1.00000000000000     
   1.00000000000000     
   1.00000000000000     
   1.00000000000000     
   1.00000000000000     
   1.00000000000000     
   1.00000000000000     
   1.00000000000000     
   1.00000000000000     
   1.00000000000000     
   1.00000000000000     
   1.00000000000000     
   1.00000000000000     
   1.00000000000000     
   1.00000000000000     
   1.00000000000000     
   1.00000000000000     
   1.00000000000000     
   1.00000000000000     
   1.00000000000000     
   1.00000000000000     
   1.00000000000000     
   1.00000000000000     
   1.00000000000000     
   1.00000000000000     
   1.00000000000000     
   1.00000000000000     
   1.00000000000000     
   1.00000000000000     
  0.000000000000000E+000
  0.000000000000000E+000
  0.000000000000000E+000
  0.000000000000000E+000
  0.000000000000000E+000
  0.000000000000000E+000
  0.000000000000000E+000
  0.000000000000000E+000
  0.000000000000000E+000
  0.000000000000000E+000
  0.000000000000000E+000
  0.000000000000000E+000
  0.000000000000000E+000
  0.000000000000000E+000
  0.000000000000000E+000
  0.000000000000000E+000
  0.000000000000000E+000
  0.000000000000000E+000
  0.000000000000000E+000
  0.000000000000000E+000
  0.000000000000000E+000
  0.000000000000000E+000
  0.000000000000000E+000
  0.000000000000000E+000
  0.000000000000000E+000
  0.000000000000000E+000
  0.000000000000000E+000
  0.000000000000000E+000
  0.000000000000000E+000
  0.000000000000000E+000
  0.000000000000000E+000
  0.000000000000000E+000
  0.000000000000000E+000
  0.000000000000000E+000
  0.000000000000000E+000
  0.000000000000000E+000
  0.000000000000000E+000
  0.000000000000000E+000
  0.000000000000000E+000
  0.000000000000000E+000
  0.000000000000000E+000
  0.000000000000000E+000
  0.000000000000000E+000
  0.000000000000000E+000
  0.000000000000000E+000
  0.000000000000000E+000
  0.000000000000000E+000
  0.000000000000000E+000
  0.000000000000000E+000
  0.000000000000000E+000
  0.000000000000000E+000
  0.000000000000000E+000
  0.000000000000000E+000
  0.000000000000000E+000
  0.000000000000000E+000
  0.000000000000000E+000
  0.000000000000000E+000
  0.000000000000000E+000
  0.000000000000000E+000
  0.000000000000000E+000
  0.000000000000000E+000
  0.000000000000000E+000
  0.000000000000000E+000
  0.000000000000000E+000
  0.000000000000000E+000
  0.000000000000000E+000
   1.00000000000000     
   1.00000000000000     
   1.00000000000000     
   1.00000000000000     
   1.00000000000000     
   1.00000000000000     
   1.00000000000000     
   1.00000000000000     
   1.00000000000000     
   1.00000000000000     
   1.00000000000000     
   1.00000000000000     
   1.00000000000000     
   1.00000000000000     
   1.00000000000000     
   1.00000000000000     
   1.00000000000000     
   1.00000000000000     
   1.00000000000000     
   1.00000000000000     
   1.00000000000000     
   1.00000000000000     
   1.00000000000000     
   1.00000000000000     
   1.00000000000000     
   1.00000000000000     
   1.00000000000000     
   1.00000000000000     
   1.00000000000000     
   1.00000000000000     
   1.00000000000000     
   1.00000000000000     
   1.00000000000000     
   1.00000000000000     
  0.000000000000000E+000
  0.000000000000000E+000
  0.000000000000000E+000
  0.000000000000000E+000
  0.000000000000000E+000
  0.000000000000000E+000
  0.000000000000000E+000
  0.000000000000000E+000
  0.000000000000000E+000
  0.000000000000000E+000
  0.000000000000000E+000
  0.000000000000000E+000
  0.000000000000000E+000
  0.000000000000000E+000
  0.000000000000000E+000
  0.000000000000000E+000
  0.000000000000000E+000
  0.000000000000000E+000
  0.000000000000000E+000
  0.000000000000000E+000
  0.000000000000000E+000
  0.000000000000000E+000
  0.000000000000000E+000
  0.000000000000000E+000
  0.000000000000000E+000
  0.000000000000000E+000
  0.000000000000000E+000
  0.000000000000000E+000
  0.000000000000000E+000
  0.000000000000000E+000
  0.000000000000000E+000
  0.000000000000000E+000
  0.000000000000000E+000
  0.000000000000000E+000
  0.000000000000000E+000
  0.000000000000000E+000
  0.000000000000000E+000
  0.000000000000000E+000
  0.000000000000000E+000
  0.000000000000000E+000
  0.000000000000000E+000
  0.000000000000000E+000
  0.000000000000000E+000
  0.000000000000000E+000
  0.000000000000000E+000
  0.000000000000000E+000
  0.000000000000000E+000
  0.000000000000000E+000
  0.000000000000000E+000
  0.000000000000000E+000
  0.000000000000000E+000
  0.000000000000000E+000
  0.000000000000000E+000
  0.000000000000000E+000
  0.000000000000000E+000
  0.000000000000000E+000
  0.000000000000000E+000
  0.000000000000000E+000
  0.000000000000000E+000
  0.000000000000000E+000
  0.000000000000000E+000
  0.000000000000000E+000
  0.000000000000000E+000
  0.000000000000000E+000
  0.000000000000000E+000
  0.000000000000000E+000
   1.00000000000000     
   1.00000000000000     
   1.00000000000000     
   1.00000000000000     
   1.00000000000000     
   1.00000000000000     
   1.00000000000000     
   1.00000000000000     
   1.00000000000000     
   1.00000000000000     
   1.00000000000000     
   1.00000000000000     
   1.00000000000000     
   1.00000000000000     
   1.00000000000000     
   1.00000000000000     
   1.00000000000000     
   1.00000000000000     
   1.00000000000000     
   1.00000000000000     
   1.00000000000000     
   1.00000000000000     
   1.00000000000000     
   1.00000000000000     
   1.00000000000000     
   1.00000000000000     
   1.00000000000000     
   1.00000000000000     
   1.00000000000000     
   1.00000000000000     
   1.00000000000000     
   1.00000000000000     
   1.00000000000000     
   1.00000000000000     
  0.000000000000000E+000
  0.000000000000000E+000
  0.000000000000000E+000
  0.000000000000000E+000
  0.000000000000000E+000
  0.000000000000000E+000
  0.000000000000000E+000
  0.000000000000000E+000
  0.000000000000000E+000
  0.000000000000000E+000
  0.000000000000000E+000
  0.000000000000000E+000
  0.000000000000000E+000
  0.000000000000000E+000
  0.000000000000000E+000
  0.000000000000000E+000
  0.000000000000000E+000
  0.000000000000000E+000
  0.000000000000000E+000
  0.000000000000000E+000
  0.000000000000000E+000
  0.000000000000000E+000
  0.000000000000000E+000
  0.000000000000000E+000
  0.000000000000000E+000
  0.000000000000000E+000
  0.000000000000000E+000
  0.000000000000000E+000
  0.000000000000000E+000
  0.000000000000000E+000
  0.000000000000000E+000
  0.000000000000000E+000
  0.000000000000000E+000
  0.000000000000000E+000
  0.000000000000000E+000
  0.000000000000000E+000
  0.000000000000000E+000
  0.000000000000000E+000
  0.000000000000000E+000
  0.000000000000000E+000
  0.000000000000000E+000
  0.000000000000000E+000
  0.000000000000000E+000
  0.000000000000000E+000
  0.000000000000000E+000
  0.000000000000000E+000
  0.000000000000000E+000
  0.000000000000000E+000
  0.000000000000000E+000
  0.000000000000000E+000
  0.000000000000000E+000
  0.000000000000000E+000
  0.000000000000000E+000
  0.000000000000000E+000
  0.000000000000000E+000
  0.000000000000000E+000
  0.000000000000000E+000
  0.000000000000000E+000
  0.000000000000000E+000
  0.000000000000000E+000
  0.000000000000000E+000
  0.000000000000000E+000
  0.000000000000000E+000
  0.000000000000000E+000
  0.000000000000000E+000
  0.000000000000000E+000
   1.00000000000000     
   1.00000000000000     
   1.00000000000000     
   1.00000000000000     
   1.00000000000000     
   1.00000000000000     
   1.00000000000000     
   1.00000000000000     
   1.00000000000000     
   1.00000000000000     
   1.00000000000000     
   1.00000000000000     
   1.00000000000000     
   1.00000000000000     
   1.00000000000000     
   1.00000000000000     
   1.00000000000000     
   1.00000000000000     
   1.00000000000000     
   1.00000000000000     
   1.00000000000000     
   1.00000000000000     
   1.00000000000000     
   1.00000000000000     
   1.00000000000000     
   1.00000000000000     
   1.00000000000000     
   1.00000000000000     
   1.00000000000000     
   1.00000000000000     
   1.00000000000000     
   1.00000000000000     
   1.00000000000000     
   1.00000000000000     
  0.000000000000000E+000
  0.000000000000000E+000
  0.000000000000000E+000
  0.000000000000000E+000
  0.000000000000000E+000
  0.000000000000000E+000
  0.000000000000000E+000
  0.000000000000000E+000
  0.000000000000000E+000
  0.000000000000000E+000
  0.000000000000000E+000
  0.000000000000000E+000
  0.000000000000000E+000
  0.000000000000000E+000
  0.000000000000000E+000
  0.000000000000000E+000
  0.000000000000000E+000
  0.000000000000000E+000
  0.000000000000000E+000
  0.000000000000000E+000
  0.000000000000000E+000
  0.000000000000000E+000
  0.000000000000000E+000
  0.000000000000000E+000
  0.000000000000000E+000
  0.000000000000000E+000
  0.000000000000000E+000
  0.000000000000000E+000
  0.000000000000000E+000
  0.000000000000000E+000
  0.000000000000000E+000
  0.000000000000000E+000
  0.000000000000000E+000
  0.000000000000000E+000
  0.000000000000000E+000
  0.000000000000000E+000
  0.000000000000000E+000
  0.000000000000000E+000
  0.000000000000000E+000
  0.000000000000000E+000
  0.000000000000000E+000
  0.000000000000000E+000
  0.000000000000000E+000
  0.000000000000000E+000
  0.000000000000000E+000
  0.000000000000000E+000
  0.000000000000000E+000
  0.000000000000000E+000
  0.000000000000000E+000
  0.000000000000000E+000
  0.000000000000000E+000
  0.000000000000000E+000
  0.000000000000000E+000
  0.000000000000000E+000
  0.000000000000000E+000
  0.000000000000000E+000
  0.000000000000000E+000
  0.000000000000000E+000
  0.000000000000000E+000
  0.000000000000000E+000
  0.000000000000000E+000
  0.000000000000000E+000
  0.000000000000000E+000
  0.000000000000000E+000
  0.000000000000000E+000
  0.000000000000000E+000
   1.00000000000000     
   1.00000000000000     
   1.00000000000000     
   1.00000000000000     
   1.00000000000000     
   1.00000000000000     
   1.00000000000000     
   1.00000000000000     
   1.00000000000000     
   1.00000000000000     
   1.00000000000000     
   1.00000000000000     
   1.00000000000000     
   1.00000000000000     
   1.00000000000000     
   1.00000000000000     
   1.00000000000000     
   1.00000000000000     
   1.00000000000000     
   1.00000000000000     
   1.00000000000000     
   1.00000000000000     
   1.00000000000000     
   1.00000000000000     
   1.00000000000000     
   1.00000000000000     
   1.00000000000000     
   1.00000000000000     
   1.00000000000000     
   1.00000000000000     
   1.00000000000000     
   1.00000000000000     
   1.00000000000000     
   1.00000000000000     
  0.000000000000000E+000
  0.000000000000000E+000
  0.000000000000000E+000
  0.000000000000000E+000
  0.000000000000000E+000
  0.000000000000000E+000
  0.000000000000000E+000
  0.000000000000000E+000
  0.000000000000000E+000
  0.000000000000000E+000
  0.000000000000000E+000
  0.000000000000000E+000
  0.000000000000000E+000
  0.000000000000000E+000
  0.000000000000000E+000
  0.000000000000000E+000
  0.000000000000000E+000
  0.000000000000000E+000
  0.000000000000000E+000
  0.000000000000000E+000
  0.000000000000000E+000
  0.000000000000000E+000
  0.000000000000000E+000
  0.000000000000000E+000
  0.000000000000000E+000
  0.000000000000000E+000
  0.000000000000000E+000
  0.000000000000000E+000
  0.000000000000000E+000
  0.000000000000000E+000
  0.000000000000000E+000
  0.000000000000000E+000
  0.000000000000000E+000
  0.000000000000000E+000
  0.000000000000000E+000
  0.000000000000000E+000
  0.000000000000000E+000
  0.000000000000000E+000
  0.000000000000000E+000
  0.000000000000000E+000
  0.000000000000000E+000
  0.000000000000000E+000
  0.000000000000000E+000
  0.000000000000000E+000
  0.000000000000000E+000
  0.000000000000000E+000
  0.000000000000000E+000
  0.000000000000000E+000
  0.000000000000000E+000
  0.000000000000000E+000
  0.000000000000000E+000
  0.000000000000000E+000
  0.000000000000000E+000
  0.000000000000000E+000
  0.000000000000000E+000
  0.000000000000000E+000
  0.000000000000000E+000
  0.000000000000000E+000
  0.000000000000000E+000
  0.000000000000000E+000
  0.000000000000000E+000
  0.000000000000000E+000
  0.000000000000000E+000
  0.000000000000000E+000
  0.000000000000000E+000
  0.000000000000000E+000
   1.00000000000000     
   1.00000000000000     
   1.00000000000000     
   1.00000000000000     
   1.00000000000000     
   1.00000000000000     
   1.00000000000000     
   1.00000000000000     
   1.00000000000000     
   1.00000000000000     
   1.00000000000000     
   1.00000000000000     
   1.00000000000000     
   1.00000000000000     
   1.00000000000000     
   1.00000000000000     
   1.00000000000000     
   1.00000000000000     
   1.00000000000000     
   1.00000000000000     
   1.00000000000000     
   1.00000000000000     
   1.00000000000000     
   1.00000000000000     
   1.00000000000000     
   1.00000000000000     
   1.00000000000000     
   1.00000000000000     
   1.00000000000000     
   1.00000000000000     
   1.00000000000000     
   1.00000000000000     
   1.00000000000000     
   1.00000000000000     
  0.000000000000000E+000
  0.000000000000000E+000
  0.000000000000000E+000
  0.000000000000000E+000
  0.000000000000000E+000
  0.000000000000000E+000
  0.000000000000000E+000
  0.000000000000000E+000
  0.000000000000000E+000
  0.000000000000000E+000
  0.000000000000000E+000
  0.000000000000000E+000
  0.000000000000000E+000
  0.000000000000000E+000
  0.000000000000000E+000
  0.000000000000000E+000
  0.000000000000000E+000
  0.000000000000000E+000
  0.000000000000000E+000
  0.000000000000000E+000
  0.000000000000000E+000
  0.000000000000000E+000
  0.000000000000000E+000
  0.000000000000000E+000
  0.000000000000000E+000
  0.000000000000000E+000
  0.000000000000000E+000
  0.000000000000000E+000
  0.000000000000000E+000
  0.000000000000000E+000
  0.000000000000000E+000
  0.000000000000000E+000
  0.000000000000000E+000
  0.000000000000000E+000
  0.000000000000000E+000
  0.000000000000000E+000
  0.000000000000000E+000
  0.000000000000000E+000
  0.000000000000000E+000
  0.000000000000000E+000
  0.000000000000000E+000
  0.000000000000000E+000
  0.000000000000000E+000
  0.000000000000000E+000
  0.000000000000000E+000
  0.000000000000000E+000
  0.000000000000000E+000
  0.000000000000000E+000
  0.000000000000000E+000
  0.000000000000000E+000
  0.000000000000000E+000
  0.000000000000000E+000
  0.000000000000000E+000
  0.000000000000000E+000
  0.000000000000000E+000
  0.000000000000000E+000
  0.000000000000000E+000
  0.000000000000000E+000
  0.000000000000000E+000
  0.000000000000000E+000
  0.000000000000000E+000
  0.000000000000000E+000
  0.000000000000000E+000
  0.000000000000000E+000
  0.000000000000000E+000
  0.000000000000000E+000
   1.00000000000000     
   1.00000000000000     
   1.00000000000000     
   1.00000000000000     
   1.00000000000000     
   1.00000000000000     
   1.00000000000000     
   1.00000000000000     
   1.00000000000000     
   1.00000000000000     
   1.00000000000000     
   1.00000000000000     
   1.00000000000000     
   1.00000000000000     
   1.00000000000000     
   1.00000000000000     
   1.00000000000000     
   1.00000000000000     
   1.00000000000000     
   1.00000000000000     
   1.00000000000000     
   1.00000000000000     
   1.00000000000000     
   1.00000000000000     
   1.00000000000000     
   1.00000000000000     
   1.00000000000000     
   1.00000000000000     
   1.00000000000000     
   1.00000000000000     
   1.00000000000000     
   1.00000000000000     
   1.00000000000000     
   1.00000000000000     
  0.000000000000000E+000
  0.000000000000000E+000
  0.000000000000000E+000
  0.000000000000000E+000
  0.000000000000000E+000
  0.000000000000000E+000
  0.000000000000000E+000
  0.000000000000000E+000
  0.000000000000000E+000
  0.000000000000000E+000
  0.000000000000000E+000
  0.000000000000000E+000
  0.000000000000000E+000
  0.000000000000000E+000
  0.000000000000000E+000
  0.000000000000000E+000
  0.000000000000000E+000
  0.000000000000000E+000
  0.000000000000000E+000
  0.000000000000000E+000
  0.000000000000000E+000
  0.000000000000000E+000
  0.000000000000000E+000
  0.000000000000000E+000
  0.000000000000000E+000
  0.000000000000000E+000
  0.000000000000000E+000
  0.000000000000000E+000
  0.000000000000000E+000
  0.000000000000000E+000
  0.000000000000000E+000
  0.000000000000000E+000
  0.000000000000000E+000
  0.000000000000000E+000
  0.000000000000000E+000
  0.000000000000000E+000
  0.000000000000000E+000
  0.000000000000000E+000
  0.000000000000000E+000
  0.000000000000000E+000
  0.000000000000000E+000
  0.000000000000000E+000
  0.000000000000000E+000
  0.000000000000000E+000
  0.000000000000000E+000
  0.000000000000000E+000
  0.000000000000000E+000
  0.000000000000000E+000
  0.000000000000000E+000
  0.000000000000000E+000
  0.000000000000000E+000
  0.000000000000000E+000
  0.000000000000000E+000
  0.000000000000000E+000
  0.000000000000000E+000
  0.000000000000000E+000
  0.000000000000000E+000
  0.000000000000000E+000
  0.000000000000000E+000
  0.000000000000000E+000
  0.000000000000000E+000
  0.000000000000000E+000
  0.000000000000000E+000
  0.000000000000000E+000
  0.000000000000000E+000
  0.000000000000000E+000
   1.00000000000000     
   1.00000000000000     
   1.00000000000000     
   1.00000000000000     
   1.00000000000000     
   1.00000000000000     
   1.00000000000000     
   1.00000000000000     
   1.00000000000000     
   1.00000000000000     
   1.00000000000000     
   1.00000000000000     
   1.00000000000000     
   1.00000000000000     
   1.00000000000000     
   1.00000000000000     
   1.00000000000000     
   1.00000000000000     
   1.00000000000000     
   1.00000000000000     
   1.00000000000000     
   1.00000000000000     
   1.00000000000000     
   1.00000000000000     
   1.00000000000000     
   1.00000000000000     
   1.00000000000000     
   1.00000000000000     
   1.00000000000000     
   1.00000000000000     
   1.00000000000000     
   1.00000000000000     
   1.00000000000000     
   1.00000000000000     
  0.000000000000000E+000
  0.000000000000000E+000
  0.000000000000000E+000
  0.000000000000000E+000
  0.000000000000000E+000
  0.000000000000000E+000
  0.000000000000000E+000
  0.000000000000000E+000
  0.000000000000000E+000
  0.000000000000000E+000
  0.000000000000000E+000
  0.000000000000000E+000
  0.000000000000000E+000
  0.000000000000000E+000
  0.000000000000000E+000
  0.000000000000000E+000
  0.000000000000000E+000
  0.000000000000000E+000
  0.000000000000000E+000
  0.000000000000000E+000
  0.000000000000000E+000
  0.000000000000000E+000
  0.000000000000000E+000
  0.000000000000000E+000
  0.000000000000000E+000
  0.000000000000000E+000
  0.000000000000000E+000
  0.000000000000000E+000
  0.000000000000000E+000
  0.000000000000000E+000
  0.000000000000000E+000
  0.000000000000000E+000
  0.000000000000000E+000
  0.000000000000000E+000
  0.000000000000000E+000
  0.000000000000000E+000
  0.000000000000000E+000
  0.000000000000000E+000
  0.000000000000000E+000
  0.000000000000000E+000
  0.000000000000000E+000
  0.000000000000000E+000
  0.000000000000000E+000
  0.000000000000000E+000
  0.000000000000000E+000
  0.000000000000000E+000
  0.000000000000000E+000
  0.000000000000000E+000
  0.000000000000000E+000
  0.000000000000000E+000
  0.000000000000000E+000
  0.000000000000000E+000
  0.000000000000000E+000
  0.000000000000000E+000
  0.000000000000000E+000
  0.000000000000000E+000
  0.000000000000000E+000
  0.000000000000000E+000
  0.000000000000000E+000
  0.000000000000000E+000
  0.000000000000000E+000
  0.000000000000000E+000
  0.000000000000000E+000
  0.000000000000000E+000
  0.000000000000000E+000
  0.000000000000000E+000
   1.00000000000000     
   1.00000000000000     
   1.00000000000000     
   1.00000000000000     
   1.00000000000000     
   1.00000000000000     
   1.00000000000000     
   1.00000000000000     
   1.00000000000000     
   1.00000000000000     
   1.00000000000000     
   1.00000000000000     
   1.00000000000000     
   1.00000000000000     
   1.00000000000000     
   1.00000000000000     
   1.00000000000000     
   1.00000000000000     
   1.00000000000000     
   1.00000000000000     
   1.00000000000000     
   1.00000000000000     
   1.00000000000000     
   1.00000000000000     
   1.00000000000000     
   1.00000000000000     
   1.00000000000000     
   1.00000000000000     
   1.00000000000000     
   1.00000000000000     
   1.00000000000000     
   1.00000000000000     
   1.00000000000000     
   1.00000000000000     
  0.000000000000000E+000
  0.000000000000000E+000
  0.000000000000000E+000
  0.000000000000000E+000
  0.000000000000000E+000
  0.000000000000000E+000
  0.000000000000000E+000
  0.000000000000000E+000
  0.000000000000000E+000
  0.000000000000000E+000
  0.000000000000000E+000
  0.000000000000000E+000
  0.000000000000000E+000
  0.000000000000000E+000
  0.000000000000000E+000
  0.000000000000000E+000
  0.000000000000000E+000
  0.000000000000000E+000
  0.000000000000000E+000
  0.000000000000000E+000
  0.000000000000000E+000
  0.000000000000000E+000
  0.000000000000000E+000
  0.000000000000000E+000
  0.000000000000000E+000
  0.000000000000000E+000
  0.000000000000000E+000
  0.000000000000000E+000
  0.000000000000000E+000
  0.000000000000000E+000
  0.000000000000000E+000
  0.000000000000000E+000
  0.000000000000000E+000
  0.000000000000000E+000
  0.000000000000000E+000
  0.000000000000000E+000
  0.000000000000000E+000
  0.000000000000000E+000
  0.000000000000000E+000
  0.000000000000000E+000
  0.000000000000000E+000
  0.000000000000000E+000
  0.000000000000000E+000
  0.000000000000000E+000
  0.000000000000000E+000
  0.000000000000000E+000
  0.000000000000000E+000
  0.000000000000000E+000
  0.000000000000000E+000
  0.000000000000000E+000
  0.000000000000000E+000
  0.000000000000000E+000
  0.000000000000000E+000
  0.000000000000000E+000
  0.000000000000000E+000
  0.000000000000000E+000
  0.000000000000000E+000
  0.000000000000000E+000
  0.000000000000000E+000
  0.000000000000000E+000
  0.000000000000000E+000
  0.000000000000000E+000
  0.000000000000000E+000
  0.000000000000000E+000
  0.000000000000000E+000
  0.000000000000000E+000
   1.00000000000000     
   1.00000000000000     
   1.00000000000000     
   1.00000000000000     
   1.00000000000000     
   1.00000000000000     
   1.00000000000000     
   1.00000000000000     
   1.00000000000000     
   1.00000000000000     
   1.00000000000000     
   1.00000000000000     
   1.00000000000000     
   1.00000000000000     
   1.00000000000000     
   1.00000000000000     
   1.00000000000000     
   1.00000000000000     
   1.00000000000000     
   1.00000000000000     
   1.00000000000000     
   1.00000000000000     
   1.00000000000000     
   1.00000000000000     
   1.00000000000000     
   1.00000000000000     
   1.00000000000000     
   1.00000000000000     
   1.00000000000000     
   1.00000000000000     
   1.00000000000000     
   1.00000000000000     
   1.00000000000000     
   1.00000000000000     
  0.000000000000000E+000
  0.000000000000000E+000
  0.000000000000000E+000
  0.000000000000000E+000
  0.000000000000000E+000
  0.000000000000000E+000
  0.000000000000000E+000
  0.000000000000000E+000
  0.000000000000000E+000
  0.000000000000000E+000
  0.000000000000000E+000
  0.000000000000000E+000
  0.000000000000000E+000
  0.000000000000000E+000
  0.000000000000000E+000
  0.000000000000000E+000
  0.000000000000000E+000
  0.000000000000000E+000
  0.000000000000000E+000
  0.000000000000000E+000
  0.000000000000000E+000
  0.000000000000000E+000
  0.000000000000000E+000
  0.000000000000000E+000
  0.000000000000000E+000
  0.000000000000000E+000
  0.000000000000000E+000
  0.000000000000000E+000
  0.000000000000000E+000
  0.000000000000000E+000
  0.000000000000000E+000
  0.000000000000000E+000
  0.000000000000000E+000
  0.000000000000000E+000
  0.000000000000000E+000
  0.000000000000000E+000
  0.000000000000000E+000
  0.000000000000000E+000
  0.000000000000000E+000
  0.000000000000000E+000
  0.000000000000000E+000
  0.000000000000000E+000
  0.000000000000000E+000
  0.000000000000000E+000
  0.000000000000000E+000
  0.000000000000000E+000
  0.000000000000000E+000
  0.000000000000000E+000
  0.000000000000000E+000
  0.000000000000000E+000
  0.000000000000000E+000
  0.000000000000000E+000
  0.000000000000000E+000
  0.000000000000000E+000
  0.000000000000000E+000
  0.000000000000000E+000
  0.000000000000000E+000
  0.000000000000000E+000
  0.000000000000000E+000
  0.000000000000000E+000
  0.000000000000000E+000
  0.000000000000000E+000
  0.000000000000000E+000
  0.000000000000000E+000
  0.000000000000000E+000
  0.000000000000000E+000
   1.00000000000000     
   1.00000000000000     
   1.00000000000000     
   1.00000000000000     
   1.00000000000000     
   1.00000000000000     
   1.00000000000000     
   1.00000000000000     
   1.00000000000000     
   1.00000000000000     
   1.00000000000000     
   1.00000000000000     
   1.00000000000000     
   1.00000000000000     
   1.00000000000000     
   1.00000000000000     
   1.00000000000000     
   1.00000000000000     
   1.00000000000000     
   1.00000000000000     
   1.00000000000000     
   1.00000000000000     
   1.00000000000000     
   1.00000000000000     
   1.00000000000000     
   1.00000000000000     
   1.00000000000000     
   1.00000000000000     
   1.00000000000000     
   1.00000000000000     
   1.00000000000000     
   1.00000000000000     
   1.00000000000000     
   1.00000000000000     
  0.000000000000000E+000
  0.000000000000000E+000
  0.000000000000000E+000
  0.000000000000000E+000
  0.000000000000000E+000
  0.000000000000000E+000
  0.000000000000000E+000
  0.000000000000000E+000
  0.000000000000000E+000
  0.000000000000000E+000
  0.000000000000000E+000
  0.000000000000000E+000
  0.000000000000000E+000
  0.000000000000000E+000
  0.000000000000000E+000
  0.000000000000000E+000
  0.000000000000000E+000
  0.000000000000000E+000
  0.000000000000000E+000
  0.000000000000000E+000
  0.000000000000000E+000
  0.000000000000000E+000
  0.000000000000000E+000
  0.000000000000000E+000
  0.000000000000000E+000
  0.000000000000000E+000
  0.000000000000000E+000
  0.000000000000000E+000
  0.000000000000000E+000
  0.000000000000000E+000
  0.000000000000000E+000
  0.000000000000000E+000
  0.000000000000000E+000
  0.000000000000000E+000
  0.000000000000000E+000
  0.000000000000000E+000
  0.000000000000000E+000
  0.000000000000000E+000
  0.000000000000000E+000
  0.000000000000000E+000
  0.000000000000000E+000
  0.000000000000000E+000
  0.000000000000000E+000
  0.000000000000000E+000
  0.000000000000000E+000
  0.000000000000000E+000
  0.000000000000000E+000
  0.000000000000000E+000
  0.000000000000000E+000
  0.000000000000000E+000
  0.000000000000000E+000
  0.000000000000000E+000
  0.000000000000000E+000
  0.000000000000000E+000
  0.000000000000000E+000
  0.000000000000000E+000
  0.000000000000000E+000
  0.000000000000000E+000
  0.000000000000000E+000
  0.000000000000000E+000
  0.000000000000000E+000
  0.000000000000000E+000
  0.000000000000000E+000
  0.000000000000000E+000
  0.000000000000000E+000
  0.000000000000000E+000
   1.00000000000000     
   1.00000000000000     
   1.00000000000000     
   1.00000000000000     
   1.00000000000000     
   1.00000000000000     
   1.00000000000000     
   1.00000000000000     
   1.00000000000000     
   1.00000000000000     
   1.00000000000000     
   1.00000000000000     
   1.00000000000000     
   1.00000000000000     
   1.00000000000000     
   1.00000000000000     
   1.00000000000000     
   1.00000000000000     
   1.00000000000000     
   1.00000000000000     
   1.00000000000000     
   1.00000000000000     
   1.00000000000000     
   1.00000000000000     
   1.00000000000000     
   1.00000000000000     
   1.00000000000000     
   1.00000000000000     
   1.00000000000000     
   1.00000000000000     
   1.00000000000000     
   1.00000000000000     
   1.00000000000000     
   1.00000000000000     
  0.000000000000000E+000
  0.000000000000000E+000
  0.000000000000000E+000
  0.000000000000000E+000
  0.000000000000000E+000
  0.000000000000000E+000
  0.000000000000000E+000
  0.000000000000000E+000
  0.000000000000000E+000
  0.000000000000000E+000
  0.000000000000000E+000
  0.000000000000000E+000
  0.000000000000000E+000
  0.000000000000000E+000
  0.000000000000000E+000
  0.000000000000000E+000
  0.000000000000000E+000
  0.000000000000000E+000
  0.000000000000000E+000
  0.000000000000000E+000
  0.000000000000000E+000
  0.000000000000000E+000
  0.000000000000000E+000
  0.000000000000000E+000
  0.000000000000000E+000
  0.000000000000000E+000
  0.000000000000000E+000
  0.000000000000000E+000
  0.000000000000000E+000
  0.000000000000000E+000
  0.000000000000000E+000
  0.000000000000000E+000
  0.000000000000000E+000
  0.000000000000000E+000
  0.000000000000000E+000
  0.000000000000000E+000
  0.000000000000000E+000
  0.000000000000000E+000
  0.000000000000000E+000
  0.000000000000000E+000
  0.000000000000000E+000
  0.000000000000000E+000
  0.000000000000000E+000
  0.000000000000000E+000
  0.000000000000000E+000
  0.000000000000000E+000
  0.000000000000000E+000
  0.000000000000000E+000
  0.000000000000000E+000
  0.000000000000000E+000
  0.000000000000000E+000
  0.000000000000000E+000
  0.000000000000000E+000
  0.000000000000000E+000
  0.000000000000000E+000
  0.000000000000000E+000
  0.000000000000000E+000
  0.000000000000000E+000
  0.000000000000000E+000
  0.000000000000000E+000
  0.000000000000000E+000
  0.000000000000000E+000
  0.000000000000000E+000
  0.000000000000000E+000
  0.000000000000000E+000
  0.000000000000000E+000
   1.00000000000000     
   1.00000000000000     
   1.00000000000000     
   1.00000000000000     
   1.00000000000000     
   1.00000000000000     
   1.00000000000000     
   1.00000000000000     
   1.00000000000000     
   1.00000000000000     
   1.00000000000000     
   1.00000000000000     
   1.00000000000000     
   1.00000000000000     
   1.00000000000000     
   1.00000000000000     
   1.00000000000000     
   1.00000000000000     
   1.00000000000000     
   1.00000000000000     
   1.00000000000000     
   1.00000000000000     
   1.00000000000000     
   1.00000000000000     
   1.00000000000000     
   1.00000000000000     
   1.00000000000000     
   1.00000000000000     
   1.00000000000000     
   1.00000000000000     
   1.00000000000000     
   1.00000000000000     
   1.00000000000000     
   1.00000000000000     
  0.000000000000000E+000
  0.000000000000000E+000
  0.000000000000000E+000
  0.000000000000000E+000
  0.000000000000000E+000
  0.000000000000000E+000
  0.000000000000000E+000
  0.000000000000000E+000
  0.000000000000000E+000
  0.000000000000000E+000
  0.000000000000000E+000
  0.000000000000000E+000
  0.000000000000000E+000
  0.000000000000000E+000
  0.000000000000000E+000
  0.000000000000000E+000
  0.000000000000000E+000
  0.000000000000000E+000
  0.000000000000000E+000
  0.000000000000000E+000
  0.000000000000000E+000
  0.000000000000000E+000
  0.000000000000000E+000
  0.000000000000000E+000
  0.000000000000000E+000
  0.000000000000000E+000
  0.000000000000000E+000
  0.000000000000000E+000
  0.000000000000000E+000
  0.000000000000000E+000
  0.000000000000000E+000
  0.000000000000000E+000
  0.000000000000000E+000
  0.000000000000000E+000
  0.000000000000000E+000
  0.000000000000000E+000
  0.000000000000000E+000
  0.000000000000000E+000
  0.000000000000000E+000
  0.000000000000000E+000
  0.000000000000000E+000
  0.000000000000000E+000
  0.000000000000000E+000
  0.000000000000000E+000
  0.000000000000000E+000
  0.000000000000000E+000
  0.000000000000000E+000
  0.000000000000000E+000
  0.000000000000000E+000
  0.000000000000000E+000
  0.000000000000000E+000
  0.000000000000000E+000
  0.000000000000000E+000
  0.000000000000000E+000
  0.000000000000000E+000
  0.000000000000000E+000
  0.000000000000000E+000
  0.000000000000000E+000
  0.000000000000000E+000
  0.000000000000000E+000
  0.000000000000000E+000
  0.000000000000000E+000
  0.000000000000000E+000
  0.000000000000000E+000
  0.000000000000000E+000
  0.000000000000000E+000
   1.00000000000000     
   1.00000000000000     
   1.00000000000000     
   1.00000000000000     
   1.00000000000000     
   1.00000000000000     
   1.00000000000000     
   1.00000000000000     
   1.00000000000000     
   1.00000000000000     
   1.00000000000000     
   1.00000000000000     
   1.00000000000000     
   1.00000000000000     
   1.00000000000000     
   1.00000000000000     
   1.00000000000000     
   1.00000000000000     
   1.00000000000000     
   1.00000000000000     
   1.00000000000000     
   1.00000000000000     
   1.00000000000000     
   1.00000000000000     
   1.00000000000000     
   1.00000000000000     
   1.00000000000000     
   1.00000000000000     
   1.00000000000000     
   1.00000000000000     
   1.00000000000000     
   1.00000000000000     
   1.00000000000000     
   1.00000000000000     
  0.000000000000000E+000
  0.000000000000000E+000
  0.000000000000000E+000
  0.000000000000000E+000
  0.000000000000000E+000
  0.000000000000000E+000
  0.000000000000000E+000
  0.000000000000000E+000
  0.000000000000000E+000
  0.000000000000000E+000
  0.000000000000000E+000
  0.000000000000000E+000
  0.000000000000000E+000
  0.000000000000000E+000
  0.000000000000000E+000
  0.000000000000000E+000
  0.000000000000000E+000
  0.000000000000000E+000
  0.000000000000000E+000
  0.000000000000000E+000
  0.000000000000000E+000
  0.000000000000000E+000
  0.000000000000000E+000
  0.000000000000000E+000
  0.000000000000000E+000
  0.000000000000000E+000
  0.000000000000000E+000
  0.000000000000000E+000
  0.000000000000000E+000
  0.000000000000000E+000
  0.000000000000000E+000
  0.000000000000000E+000
  0.000000000000000E+000
  0.000000000000000E+000
  0.000000000000000E+000
  0.000000000000000E+000
  0.000000000000000E+000
  0.000000000000000E+000
  0.000000000000000E+000
  0.000000000000000E+000
  0.000000000000000E+000
  0.000000000000000E+000
  0.000000000000000E+000
  0.000000000000000E+000
  0.000000000000000E+000
  0.000000000000000E+000
  0.000000000000000E+000
  0.000000000000000E+000
  0.000000000000000E+000
  0.000000000000000E+000
  0.000000000000000E+000
  0.000000000000000E+000
  0.000000000000000E+000
  0.000000000000000E+000
  0.000000000000000E+000
  0.000000000000000E+000
  0.000000000000000E+000
  0.000000000000000E+000
  0.000000000000000E+000
  0.000000000000000E+000
  0.000000000000000E+000
  0.000000000000000E+000
  0.000000000000000E+000
  0.000000000000000E+000
  0.000000000000000E+000
  0.000000000000000E+000
   1.00000000000000     
   1.00000000000000     
   1.00000000000000     
   1.00000000000000     
   1.00000000000000     
   1.00000000000000     
   1.00000000000000     
   1.00000000000000     
   1.00000000000000     
   1.00000000000000     
   1.00000000000000     
   1.00000000000000     
   1.00000000000000     
   1.00000000000000     
   1.00000000000000     
   1.00000000000000     
   1.00000000000000     
   1.00000000000000     
   1.00000000000000     
   1.00000000000000     
   1.00000000000000     
   1.00000000000000     
   1.00000000000000     
   1.00000000000000     
   1.00000000000000     
   1.00000000000000     
   1.00000000000000     
   1.00000000000000     
   1.00000000000000     
   1.00000000000000     
   1.00000000000000     
   1.00000000000000     
   1.00000000000000     
   1.00000000000000     
  0.000000000000000E+000
  0.000000000000000E+000
  0.000000000000000E+000
  0.000000000000000E+000
  0.000000000000000E+000
  0.000000000000000E+000
  0.000000000000000E+000
  0.000000000000000E+000
  0.000000000000000E+000
  0.000000000000000E+000
  0.000000000000000E+000
  0.000000000000000E+000
  0.000000000000000E+000
  0.000000000000000E+000
  0.000000000000000E+000
  0.000000000000000E+000
  0.000000000000000E+000
  0.000000000000000E+000
  0.000000000000000E+000
  0.000000000000000E+000
  0.000000000000000E+000
  0.000000000000000E+000
  0.000000000000000E+000
  0.000000000000000E+000
  0.000000000000000E+000
  0.000000000000000E+000
  0.000000000000000E+000
  0.000000000000000E+000
  0.000000000000000E+000
  0.000000000000000E+000
  0.000000000000000E+000
  0.000000000000000E+000
  0.000000000000000E+000
  0.000000000000000E+000
  0.000000000000000E+000
  0.000000000000000E+000
  0.000000000000000E+000
  0.000000000000000E+000
  0.000000000000000E+000
  0.000000000000000E+000
  0.000000000000000E+000
  0.000000000000000E+000
  0.000000000000000E+000
  0.000000000000000E+000
  0.000000000000000E+000
  0.000000000000000E+000
  0.000000000000000E+000
  0.000000000000000E+000
  0.000000000000000E+000
  0.000000000000000E+000
  0.000000000000000E+000
  0.000000000000000E+000
  0.000000000000000E+000
  0.000000000000000E+000
  0.000000000000000E+000
  0.000000000000000E+000
  0.000000000000000E+000
  0.000000000000000E+000
  0.000000000000000E+000
  0.000000000000000E+000
  0.000000000000000E+000
  0.000000000000000E+000
  0.000000000000000E+000
  0.000000000000000E+000
  0.000000000000000E+000
  0.000000000000000E+000
   1.00000000000000     
   1.00000000000000     
   1.00000000000000     
   1.00000000000000     
   1.00000000000000     
   1.00000000000000     
   1.00000000000000     
   1.00000000000000     
   1.00000000000000     
   1.00000000000000     
   1.00000000000000     
   1.00000000000000     
   1.00000000000000     
   1.00000000000000     
   1.00000000000000     
   1.00000000000000     
   1.00000000000000     
   1.00000000000000     
   1.00000000000000     
   1.00000000000000     
   1.00000000000000     
   1.00000000000000     
   1.00000000000000     
   1.00000000000000     
   1.00000000000000     
   1.00000000000000     
   1.00000000000000     
   1.00000000000000     
   1.00000000000000     
   1.00000000000000     
   1.00000000000000     
   1.00000000000000     
   1.00000000000000     
   1.00000000000000     
  0.000000000000000E+000
  0.000000000000000E+000
  0.000000000000000E+000
  0.000000000000000E+000
  0.000000000000000E+000
  0.000000000000000E+000
  0.000000000000000E+000
  0.000000000000000E+000
  0.000000000000000E+000
  0.000000000000000E+000
  0.000000000000000E+000
  0.000000000000000E+000
  0.000000000000000E+000
  0.000000000000000E+000
  0.000000000000000E+000
  0.000000000000000E+000
  0.000000000000000E+000
  0.000000000000000E+000
  0.000000000000000E+000
  0.000000000000000E+000
  0.000000000000000E+000
  0.000000000000000E+000
  0.000000000000000E+000
  0.000000000000000E+000
  0.000000000000000E+000
  0.000000000000000E+000
  0.000000000000000E+000
  0.000000000000000E+000
  0.000000000000000E+000
  0.000000000000000E+000
  0.000000000000000E+000
  0.000000000000000E+000
  0.000000000000000E+000
  0.000000000000000E+000
  0.000000000000000E+000
  0.000000000000000E+000
  0.000000000000000E+000
  0.000000000000000E+000
  0.000000000000000E+000
  0.000000000000000E+000
  0.000000000000000E+000
  0.000000000000000E+000
  0.000000000000000E+000
  0.000000000000000E+000
  0.000000000000000E+000
  0.000000000000000E+000
  0.000000000000000E+000
  0.000000000000000E+000
  0.000000000000000E+000
  0.000000000000000E+000
  0.000000000000000E+000
  0.000000000000000E+000
  0.000000000000000E+000
  0.000000000000000E+000
  0.000000000000000E+000
  0.000000000000000E+000
  0.000000000000000E+000
  0.000000000000000E+000
  0.000000000000000E+000
  0.000000000000000E+000
  0.000000000000000E+000
  0.000000000000000E+000
  0.000000000000000E+000
  0.000000000000000E+000
  0.000000000000000E+000
  0.000000000000000E+000
   1.00000000000000     
   1.00000000000000     
   1.00000000000000     
   1.00000000000000     
   1.00000000000000     
   1.00000000000000     
   1.00000000000000     
   1.00000000000000     
   1.00000000000000     
   1.00000000000000     
   1.00000000000000     
   1.00000000000000     
   1.00000000000000     
   1.00000000000000     
   1.00000000000000     
   1.00000000000000     
   1.00000000000000     
   1.00000000000000     
   1.00000000000000     
   1.00000000000000     
   1.00000000000000     
   1.00000000000000     
   1.00000000000000     
   1.00000000000000     
   1.00000000000000     
   1.00000000000000     
   1.00000000000000     
   1.00000000000000     
   1.00000000000000     
   1.00000000000000     
   1.00000000000000     
   1.00000000000000     
   1.00000000000000     
   1.00000000000000     
  0.000000000000000E+000
  0.000000000000000E+000
  0.000000000000000E+000
  0.000000000000000E+000
  0.000000000000000E+000
  0.000000000000000E+000
  0.000000000000000E+000
  0.000000000000000E+000
  0.000000000000000E+000
  0.000000000000000E+000
  0.000000000000000E+000
  0.000000000000000E+000
  0.000000000000000E+000
  0.000000000000000E+000
  0.000000000000000E+000
  0.000000000000000E+000
  0.000000000000000E+000
  0.000000000000000E+000
  0.000000000000000E+000
  0.000000000000000E+000
  0.000000000000000E+000
  0.000000000000000E+000
  0.000000000000000E+000
  0.000000000000000E+000
  0.000000000000000E+000
  0.000000000000000E+000
  0.000000000000000E+000
  0.000000000000000E+000
  0.000000000000000E+000
  0.000000000000000E+000
  0.000000000000000E+000
  0.000000000000000E+000
  0.000000000000000E+000
  0.000000000000000E+000
  0.000000000000000E+000
  0.000000000000000E+000
  0.000000000000000E+000
  0.000000000000000E+000
  0.000000000000000E+000
  0.000000000000000E+000
  0.000000000000000E+000
  0.000000000000000E+000
  0.000000000000000E+000
  0.000000000000000E+000
  0.000000000000000E+000
  0.000000000000000E+000
  0.000000000000000E+000
  0.000000000000000E+000
  0.000000000000000E+000
  0.000000000000000E+000
  0.000000000000000E+000
  0.000000000000000E+000
  0.000000000000000E+000
  0.000000000000000E+000
  0.000000000000000E+000
  0.000000000000000E+000
  0.000000000000000E+000
  0.000000000000000E+000
  0.000000000000000E+000
  0.000000000000000E+000
  0.000000000000000E+000
  0.000000000000000E+000
  0.000000000000000E+000
  0.000000000000000E+000
  0.000000000000000E+000
  0.000000000000000E+000
   1.00000000000000     
   1.00000000000000     
   1.00000000000000     
   1.00000000000000     
   1.00000000000000     
   1.00000000000000     
   1.00000000000000     
   1.00000000000000     
   1.00000000000000     
   1.00000000000000     
   1.00000000000000     
   1.00000000000000     
   1.00000000000000     
   1.00000000000000     
   1.00000000000000     
   1.00000000000000     
   1.00000000000000     
   1.00000000000000     
   1.00000000000000     
   1.00000000000000     
   1.00000000000000     
   1.00000000000000     
   1.00000000000000     
   1.00000000000000     
   1.00000000000000     
   1.00000000000000     
   1.00000000000000     
   1.00000000000000     
   1.00000000000000     
   1.00000000000000     
   1.00000000000000     
   1.00000000000000     
   1.00000000000000     
   1.00000000000000     
  0.000000000000000E+000
  0.000000000000000E+000
  0.000000000000000E+000
  0.000000000000000E+000
  0.000000000000000E+000
  0.000000000000000E+000
  0.000000000000000E+000
  0.000000000000000E+000
  0.000000000000000E+000
  0.000000000000000E+000
  0.000000000000000E+000
  0.000000000000000E+000
  0.000000000000000E+000
  0.000000000000000E+000
  0.000000000000000E+000
  0.000000000000000E+000
  0.000000000000000E+000
  0.000000000000000E+000
  0.000000000000000E+000
  0.000000000000000E+000
  0.000000000000000E+000
  0.000000000000000E+000
  0.000000000000000E+000
  0.000000000000000E+000
  0.000000000000000E+000
  0.000000000000000E+000
  0.000000000000000E+000
  0.000000000000000E+000
  0.000000000000000E+000
  0.000000000000000E+000
  0.000000000000000E+000
  0.000000000000000E+000
  0.000000000000000E+000
  0.000000000000000E+000
  0.000000000000000E+000
  0.000000000000000E+000
  0.000000000000000E+000
  0.000000000000000E+000
  0.000000000000000E+000
  0.000000000000000E+000
  0.000000000000000E+000
  0.000000000000000E+000
  0.000000000000000E+000
  0.000000000000000E+000
  0.000000000000000E+000
  0.000000000000000E+000
  0.000000000000000E+000
  0.000000000000000E+000
  0.000000000000000E+000
  0.000000000000000E+000
  0.000000000000000E+000
  0.000000000000000E+000
  0.000000000000000E+000
  0.000000000000000E+000
  0.000000000000000E+000
  0.000000000000000E+000
  0.000000000000000E+000
  0.000000000000000E+000
  0.000000000000000E+000
  0.000000000000000E+000
  0.000000000000000E+000
  0.000000000000000E+000
  0.000000000000000E+000
  0.000000000000000E+000
  0.000000000000000E+000
  0.000000000000000E+000
   1.00000000000000     
   1.00000000000000     
   1.00000000000000     
   1.00000000000000     
   1.00000000000000     
   1.00000000000000     
   1.00000000000000     
   1.00000000000000     
   1.00000000000000     
   1.00000000000000     
   1.00000000000000     
   1.00000000000000     
   1.00000000000000     
   1.00000000000000     
   1.00000000000000     
   1.00000000000000     
   1.00000000000000     
   1.00000000000000     
   1.00000000000000     
   1.00000000000000     
   1.00000000000000     
   1.00000000000000     
   1.00000000000000     
   1.00000000000000     
   1.00000000000000     
   1.00000000000000     
   1.00000000000000     
   1.00000000000000     
   1.00000000000000     
   1.00000000000000     
   1.00000000000000     
   1.00000000000000     
   1.00000000000000     
   1.00000000000000     
  0.000000000000000E+000
  0.000000000000000E+000
  0.000000000000000E+000
  0.000000000000000E+000
  0.000000000000000E+000
  0.000000000000000E+000
  0.000000000000000E+000
  0.000000000000000E+000
  0.000000000000000E+000
  0.000000000000000E+000
  0.000000000000000E+000
  0.000000000000000E+000
  0.000000000000000E+000
  0.000000000000000E+000
  0.000000000000000E+000
  0.000000000000000E+000
  0.000000000000000E+000
  0.000000000000000E+000
  0.000000000000000E+000
  0.000000000000000E+000
  0.000000000000000E+000
  0.000000000000000E+000
  0.000000000000000E+000
  0.000000000000000E+000
  0.000000000000000E+000
  0.000000000000000E+000
  0.000000000000000E+000
  0.000000000000000E+000
  0.000000000000000E+000
  0.000000000000000E+000
  0.000000000000000E+000
  0.000000000000000E+000
  0.000000000000000E+000
  0.000000000000000E+000
  0.000000000000000E+000
  0.000000000000000E+000
  0.000000000000000E+000
  0.000000000000000E+000
  0.000000000000000E+000
  0.000000000000000E+000
  0.000000000000000E+000
  0.000000000000000E+000
  0.000000000000000E+000
  0.000000000000000E+000
  0.000000000000000E+000
  0.000000000000000E+000
  0.000000000000000E+000
  0.000000000000000E+000
  0.000000000000000E+000
  0.000000000000000E+000
  0.000000000000000E+000
  0.000000000000000E+000
  0.000000000000000E+000
  0.000000000000000E+000
  0.000000000000000E+000
  0.000000000000000E+000
  0.000000000000000E+000
  0.000000000000000E+000
  0.000000000000000E+000
  0.000000000000000E+000
  0.000000000000000E+000
  0.000000000000000E+000
  0.000000000000000E+000
  0.000000000000000E+000
  0.000000000000000E+000
  0.000000000000000E+000
   1.00000000000000     
   1.00000000000000     
   1.00000000000000     
   1.00000000000000     
   1.00000000000000     
   1.00000000000000     
   1.00000000000000     
   1.00000000000000     
   1.00000000000000     
   1.00000000000000     
   1.00000000000000     
   1.00000000000000     
   1.00000000000000     
   1.00000000000000     
   1.00000000000000     
   1.00000000000000     
   1.00000000000000     
   1.00000000000000     
   1.00000000000000     
   1.00000000000000     
   1.00000000000000     
   1.00000000000000     
   1.00000000000000     
   1.00000000000000     
   1.00000000000000     
   1.00000000000000     
   1.00000000000000     
   1.00000000000000     
   1.00000000000000     
   1.00000000000000     
   1.00000000000000     
   1.00000000000000     
   1.00000000000000     
   1.00000000000000     
  0.000000000000000E+000
  0.000000000000000E+000
  0.000000000000000E+000
  0.000000000000000E+000
  0.000000000000000E+000
  0.000000000000000E+000
  0.000000000000000E+000
  0.000000000000000E+000
  0.000000000000000E+000
  0.000000000000000E+000
  0.000000000000000E+000
  0.000000000000000E+000
  0.000000000000000E+000
  0.000000000000000E+000
  0.000000000000000E+000
  0.000000000000000E+000
  0.000000000000000E+000
  0.000000000000000E+000
  0.000000000000000E+000
  0.000000000000000E+000
  0.000000000000000E+000
  0.000000000000000E+000
  0.000000000000000E+000
  0.000000000000000E+000
  0.000000000000000E+000
  0.000000000000000E+000
  0.000000000000000E+000
  0.000000000000000E+000
  0.000000000000000E+000
  0.000000000000000E+000
  0.000000000000000E+000
  0.000000000000000E+000
  0.000000000000000E+000
  0.000000000000000E+000
  0.000000000000000E+000
  0.000000000000000E+000
  0.000000000000000E+000
  0.000000000000000E+000
  0.000000000000000E+000
  0.000000000000000E+000
  0.000000000000000E+000
  0.000000000000000E+000
  0.000000000000000E+000
  0.000000000000000E+000
  0.000000000000000E+000
  0.000000000000000E+000
  0.000000000000000E+000
  0.000000000000000E+000
  0.000000000000000E+000
  0.000000000000000E+000
  0.000000000000000E+000
  0.000000000000000E+000
  0.000000000000000E+000
  0.000000000000000E+000
  0.000000000000000E+000
  0.000000000000000E+000
  0.000000000000000E+000
  0.000000000000000E+000
  0.000000000000000E+000
  0.000000000000000E+000
  0.000000000000000E+000
  0.000000000000000E+000
  0.000000000000000E+000
  0.000000000000000E+000
  0.000000000000000E+000
  0.000000000000000E+000
   1.00000000000000     
   1.00000000000000     
   1.00000000000000     
   1.00000000000000     
   1.00000000000000     
   1.00000000000000     
   1.00000000000000     
   1.00000000000000     
   1.00000000000000     
   1.00000000000000     
   1.00000000000000     
   1.00000000000000     
   1.00000000000000     
   1.00000000000000     
   1.00000000000000     
   1.00000000000000     
   1.00000000000000     
   1.00000000000000     
   1.00000000000000     
   1.00000000000000     
   1.00000000000000     
   1.00000000000000     
   1.00000000000000     
   1.00000000000000     
   1.00000000000000     
   1.00000000000000     
   1.00000000000000     
   1.00000000000000     
   1.00000000000000     
   1.00000000000000     
   1.00000000000000     
   1.00000000000000     
   1.00000000000000     
   1.00000000000000     
  0.000000000000000E+000
  0.000000000000000E+000
  0.000000000000000E+000
  0.000000000000000E+000
  0.000000000000000E+000
  0.000000000000000E+000
  0.000000000000000E+000
  0.000000000000000E+000
  0.000000000000000E+000
  0.000000000000000E+000
  0.000000000000000E+000
  0.000000000000000E+000
  0.000000000000000E+000
  0.000000000000000E+000
  0.000000000000000E+000
  0.000000000000000E+000
  0.000000000000000E+000
  0.000000000000000E+000
  0.000000000000000E+000
  0.000000000000000E+000
  0.000000000000000E+000
  0.000000000000000E+000
  0.000000000000000E+000
  0.000000000000000E+000
  0.000000000000000E+000
  0.000000000000000E+000
  0.000000000000000E+000
  0.000000000000000E+000
  0.000000000000000E+000
  0.000000000000000E+000
  0.000000000000000E+000
  0.000000000000000E+000
  0.000000000000000E+000
  0.000000000000000E+000
  0.000000000000000E+000
  0.000000000000000E+000
  0.000000000000000E+000
  0.000000000000000E+000
  0.000000000000000E+000
  0.000000000000000E+000
  0.000000000000000E+000
  0.000000000000000E+000
  0.000000000000000E+000
  0.000000000000000E+000
  0.000000000000000E+000
  0.000000000000000E+000
  0.000000000000000E+000
  0.000000000000000E+000
  0.000000000000000E+000
  0.000000000000000E+000
  0.000000000000000E+000
  0.000000000000000E+000
  0.000000000000000E+000
  0.000000000000000E+000
  0.000000000000000E+000
  0.000000000000000E+000
  0.000000000000000E+000
  0.000000000000000E+000
  0.000000000000000E+000
  0.000000000000000E+000
  0.000000000000000E+000
  0.000000000000000E+000
  0.000000000000000E+000
  0.000000000000000E+000
  0.000000000000000E+000
  0.000000000000000E+000
   1.00000000000000     
   1.00000000000000     
   1.00000000000000     
   1.00000000000000     
   1.00000000000000     
   1.00000000000000     
   1.00000000000000     
   1.00000000000000     
   1.00000000000000     
   1.00000000000000     
   1.00000000000000     
   1.00000000000000     
   1.00000000000000     
   1.00000000000000     
   1.00000000000000     
   1.00000000000000     
   1.00000000000000     
   1.00000000000000     
   1.00000000000000     
   1.00000000000000     
   1.00000000000000     
   1.00000000000000     
   1.00000000000000     
   1.00000000000000     
   1.00000000000000     
   1.00000000000000     
   1.00000000000000     
   1.00000000000000     
   1.00000000000000     
   1.00000000000000     
   1.00000000000000     
   1.00000000000000     
   1.00000000000000     
   1.00000000000000     
  0.000000000000000E+000
  0.000000000000000E+000
  0.000000000000000E+000
  0.000000000000000E+000
  0.000000000000000E+000
  0.000000000000000E+000
  0.000000000000000E+000
  0.000000000000000E+000
  0.000000000000000E+000
  0.000000000000000E+000
  0.000000000000000E+000
  0.000000000000000E+000
  0.000000000000000E+000
  0.000000000000000E+000
  0.000000000000000E+000
  0.000000000000000E+000
  0.000000000000000E+000
  0.000000000000000E+000
  0.000000000000000E+000
  0.000000000000000E+000
  0.000000000000000E+000
  0.000000000000000E+000
  0.000000000000000E+000
  0.000000000000000E+000
  0.000000000000000E+000
  0.000000000000000E+000
  0.000000000000000E+000
  0.000000000000000E+000
  0.000000000000000E+000
  0.000000000000000E+000
  0.000000000000000E+000
  0.000000000000000E+000
  0.000000000000000E+000
  0.000000000000000E+000
  0.000000000000000E+000
  0.000000000000000E+000
  0.000000000000000E+000
  0.000000000000000E+000
  0.000000000000000E+000
  0.000000000000000E+000
  0.000000000000000E+000
  0.000000000000000E+000
  0.000000000000000E+000
  0.000000000000000E+000
  0.000000000000000E+000
  0.000000000000000E+000
  0.000000000000000E+000
  0.000000000000000E+000
  0.000000000000000E+000
  0.000000000000000E+000
  0.000000000000000E+000
  0.000000000000000E+000
  0.000000000000000E+000
  0.000000000000000E+000
  0.000000000000000E+000
  0.000000000000000E+000
  0.000000000000000E+000
  0.000000000000000E+000
  0.000000000000000E+000
  0.000000000000000E+000
  0.000000000000000E+000
  0.000000000000000E+000
  0.000000000000000E+000
  0.000000000000000E+000
  0.000000000000000E+000
  0.000000000000000E+000
   1.00000000000000     
   1.00000000000000     
   1.00000000000000     
   1.00000000000000     
   1.00000000000000     
   1.00000000000000     
   1.00000000000000     
   1.00000000000000     
   1.00000000000000     
   1.00000000000000     
   1.00000000000000     
   1.00000000000000     
   1.00000000000000     
   1.00000000000000     
   1.00000000000000     
   1.00000000000000     
   1.00000000000000     
   1.00000000000000     
   1.00000000000000     
   1.00000000000000     
   1.00000000000000     
   1.00000000000000     
   1.00000000000000     
   1.00000000000000     
   1.00000000000000     
   1.00000000000000     
   1.00000000000000     
   1.00000000000000     
   1.00000000000000     
   1.00000000000000     
   1.00000000000000     
   1.00000000000000     
   1.00000000000000     
   1.00000000000000     
  0.000000000000000E+000
  0.000000000000000E+000
  0.000000000000000E+000
  0.000000000000000E+000
  0.000000000000000E+000
  0.000000000000000E+000
  0.000000000000000E+000
  0.000000000000000E+000
  0.000000000000000E+000
  0.000000000000000E+000
  0.000000000000000E+000
  0.000000000000000E+000
  0.000000000000000E+000
  0.000000000000000E+000
  0.000000000000000E+000
  0.000000000000000E+000
  0.000000000000000E+000
  0.000000000000000E+000
  0.000000000000000E+000
  0.000000000000000E+000
  0.000000000000000E+000
  0.000000000000000E+000
  0.000000000000000E+000
  0.000000000000000E+000
  0.000000000000000E+000
  0.000000000000000E+000
  0.000000000000000E+000
  0.000000000000000E+000
  0.000000000000000E+000
  0.000000000000000E+000
  0.000000000000000E+000
  0.000000000000000E+000
  0.000000000000000E+000
  0.000000000000000E+000
  0.000000000000000E+000
  0.000000000000000E+000
  0.000000000000000E+000
  0.000000000000000E+000
  0.000000000000000E+000
  0.000000000000000E+000
  0.000000000000000E+000
  0.000000000000000E+000
  0.000000000000000E+000
  0.000000000000000E+000
  0.000000000000000E+000
  0.000000000000000E+000
  0.000000000000000E+000
  0.000000000000000E+000
  0.000000000000000E+000
  0.000000000000000E+000
  0.000000000000000E+000
  0.000000000000000E+000
  0.000000000000000E+000
  0.000000000000000E+000
  0.000000000000000E+000
  0.000000000000000E+000
  0.000000000000000E+000
  0.000000000000000E+000
  0.000000000000000E+000
  0.000000000000000E+000
  0.000000000000000E+000
  0.000000000000000E+000
  0.000000000000000E+000
  0.000000000000000E+000
  0.000000000000000E+000
  0.000000000000000E+000
   1.00000000000000     
   1.00000000000000     
   1.00000000000000     
   1.00000000000000     
   1.00000000000000     
   1.00000000000000     
   1.00000000000000     
   1.00000000000000     
   1.00000000000000     
   1.00000000000000     
   1.00000000000000     
   1.00000000000000     
   1.00000000000000     
   1.00000000000000     
   1.00000000000000     
   1.00000000000000     
   1.00000000000000     
   1.00000000000000     
   1.00000000000000     
   1.00000000000000     
   1.00000000000000     
   1.00000000000000     
   1.00000000000000     
   1.00000000000000     
   1.00000000000000     
   1.00000000000000     
   1.00000000000000     
   1.00000000000000     
   1.00000000000000     
   1.00000000000000     
   1.00000000000000     
   1.00000000000000     
   1.00000000000000     
   1.00000000000000     
  0.000000000000000E+000
  0.000000000000000E+000
  0.000000000000000E+000
  0.000000000000000E+000
  0.000000000000000E+000
  0.000000000000000E+000
  0.000000000000000E+000
  0.000000000000000E+000
  0.000000000000000E+000
  0.000000000000000E+000
  0.000000000000000E+000
  0.000000000000000E+000
  0.000000000000000E+000
  0.000000000000000E+000
  0.000000000000000E+000
  0.000000000000000E+000
  0.000000000000000E+000
  0.000000000000000E+000
  0.000000000000000E+000
  0.000000000000000E+000
  0.000000000000000E+000
  0.000000000000000E+000
  0.000000000000000E+000
  0.000000000000000E+000
  0.000000000000000E+000
  0.000000000000000E+000
  0.000000000000000E+000
  0.000000000000000E+000
  0.000000000000000E+000
  0.000000000000000E+000
  0.000000000000000E+000
  0.000000000000000E+000
  0.000000000000000E+000
  0.000000000000000E+000
  0.000000000000000E+000
  0.000000000000000E+000
  0.000000000000000E+000
  0.000000000000000E+000
  0.000000000000000E+000
  0.000000000000000E+000
  0.000000000000000E+000
  0.000000000000000E+000
  0.000000000000000E+000
  0.000000000000000E+000
  0.000000000000000E+000
  0.000000000000000E+000
  0.000000000000000E+000
  0.000000000000000E+000
  0.000000000000000E+000
  0.000000000000000E+000
  0.000000000000000E+000
  0.000000000000000E+000
  0.000000000000000E+000
  0.000000000000000E+000
  0.000000000000000E+000
  0.000000000000000E+000
  0.000000000000000E+000
  0.000000000000000E+000
  0.000000000000000E+000
  0.000000000000000E+000
  0.000000000000000E+000
  0.000000000000000E+000
  0.000000000000000E+000
  0.000000000000000E+000
  0.000000000000000E+000
  0.000000000000000E+000
   1.00000000000000     
   1.00000000000000     
   1.00000000000000     
   1.00000000000000     
   1.00000000000000     
   1.00000000000000     
   1.00000000000000     
   1.00000000000000     
   1.00000000000000     
   1.00000000000000     
   1.00000000000000     
   1.00000000000000     
   1.00000000000000     
   1.00000000000000     
   1.00000000000000     
   1.00000000000000     
   1.00000000000000     
   1.00000000000000     
   1.00000000000000     
   1.00000000000000     
   1.00000000000000     
   1.00000000000000     
   1.00000000000000     
   1.00000000000000     
   1.00000000000000     
   1.00000000000000     
   1.00000000000000     
   1.00000000000000     
   1.00000000000000     
   1.00000000000000     
   1.00000000000000     
   1.00000000000000     
   1.00000000000000     
   1.00000000000000     
  0.000000000000000E+000
  0.000000000000000E+000
  0.000000000000000E+000
  0.000000000000000E+000
  0.000000000000000E+000
  0.000000000000000E+000
  0.000000000000000E+000
  0.000000000000000E+000
  0.000000000000000E+000
  0.000000000000000E+000
  0.000000000000000E+000
  0.000000000000000E+000
  0.000000000000000E+000
  0.000000000000000E+000
  0.000000000000000E+000
  0.000000000000000E+000
  0.000000000000000E+000
  0.000000000000000E+000
  0.000000000000000E+000
  0.000000000000000E+000
  0.000000000000000E+000
  0.000000000000000E+000
  0.000000000000000E+000
  0.000000000000000E+000
  0.000000000000000E+000
  0.000000000000000E+000
  0.000000000000000E+000
  0.000000000000000E+000
  0.000000000000000E+000
  0.000000000000000E+000
  0.000000000000000E+000
  0.000000000000000E+000
  0.000000000000000E+000
  0.000000000000000E+000
  0.000000000000000E+000
  0.000000000000000E+000
  0.000000000000000E+000
  0.000000000000000E+000
  0.000000000000000E+000
  0.000000000000000E+000
  0.000000000000000E+000
  0.000000000000000E+000
  0.000000000000000E+000
  0.000000000000000E+000
  0.000000000000000E+000
  0.000000000000000E+000
  0.000000000000000E+000
  0.000000000000000E+000
  0.000000000000000E+000
  0.000000000000000E+000
  0.000000000000000E+000
  0.000000000000000E+000
  0.000000000000000E+000
  0.000000000000000E+000
  0.000000000000000E+000
  0.000000000000000E+000
  0.000000000000000E+000
  0.000000000000000E+000
  0.000000000000000E+000
  0.000000000000000E+000
  0.000000000000000E+000
  0.000000000000000E+000
  0.000000000000000E+000
  0.000000000000000E+000
  0.000000000000000E+000
  0.000000000000000E+000
   1.00000000000000     
   1.00000000000000     
   1.00000000000000     
   1.00000000000000     
   1.00000000000000     
   1.00000000000000     
   1.00000000000000     
   1.00000000000000     
   1.00000000000000     
   1.00000000000000     
   1.00000000000000     
   1.00000000000000     
   1.00000000000000     
   1.00000000000000     
   1.00000000000000     
   1.00000000000000     
   1.00000000000000     
   1.00000000000000     
   1.00000000000000     
   1.00000000000000     
   1.00000000000000     
   1.00000000000000     
   1.00000000000000     
   1.00000000000000     
   1.00000000000000     
   1.00000000000000     
   1.00000000000000     
   1.00000000000000     
   1.00000000000000     
   1.00000000000000     
   1.00000000000000     
   1.00000000000000     
   1.00000000000000     
   1.00000000000000     
  0.000000000000000E+000
  0.000000000000000E+000
  0.000000000000000E+000
  0.000000000000000E+000
  0.000000000000000E+000
  0.000000000000000E+000
  0.000000000000000E+000
  0.000000000000000E+000
  0.000000000000000E+000
  0.000000000000000E+000
  0.000000000000000E+000
  0.000000000000000E+000
  0.000000000000000E+000
  0.000000000000000E+000
  0.000000000000000E+000
  0.000000000000000E+000
  0.000000000000000E+000
  0.000000000000000E+000
  0.000000000000000E+000
  0.000000000000000E+000
  0.000000000000000E+000
  0.000000000000000E+000
  0.000000000000000E+000
  0.000000000000000E+000
  0.000000000000000E+000
  0.000000000000000E+000
  0.000000000000000E+000
  0.000000000000000E+000
  0.000000000000000E+000
  0.000000000000000E+000
  0.000000000000000E+000
  0.000000000000000E+000
  0.000000000000000E+000
  0.000000000000000E+000
  0.000000000000000E+000
  0.000000000000000E+000
  0.000000000000000E+000
  0.000000000000000E+000
  0.000000000000000E+000
  0.000000000000000E+000
  0.000000000000000E+000
  0.000000000000000E+000
  0.000000000000000E+000
  0.000000000000000E+000
  0.000000000000000E+000
  0.000000000000000E+000
  0.000000000000000E+000
  0.000000000000000E+000
  0.000000000000000E+000
  0.000000000000000E+000
  0.000000000000000E+000
  0.000000000000000E+000
  0.000000000000000E+000
  0.000000000000000E+000
  0.000000000000000E+000
  0.000000000000000E+000
  0.000000000000000E+000
  0.000000000000000E+000
  0.000000000000000E+000
  0.000000000000000E+000
  0.000000000000000E+000
  0.000000000000000E+000
  0.000000000000000E+000
  0.000000000000000E+000
  0.000000000000000E+000
  0.000000000000000E+000
   1.00000000000000     
   1.00000000000000     
   1.00000000000000     
   1.00000000000000     
   1.00000000000000     
   1.00000000000000     
   1.00000000000000     
   1.00000000000000     
   1.00000000000000     
   1.00000000000000     
   1.00000000000000     
   1.00000000000000     
   1.00000000000000     
   1.00000000000000     
   1.00000000000000     
   1.00000000000000     
   1.00000000000000     
   1.00000000000000     
   1.00000000000000     
   1.00000000000000     
   1.00000000000000     
   1.00000000000000     
   1.00000000000000     
   1.00000000000000     
   1.00000000000000     
   1.00000000000000     
   1.00000000000000     
   1.00000000000000     
   1.00000000000000     
   1.00000000000000     
   1.00000000000000     
   1.00000000000000     
   1.00000000000000     
   1.00000000000000     
  0.000000000000000E+000
  0.000000000000000E+000
  0.000000000000000E+000
  0.000000000000000E+000
  0.000000000000000E+000
  0.000000000000000E+000
  0.000000000000000E+000
  0.000000000000000E+000
  0.000000000000000E+000
  0.000000000000000E+000
  0.000000000000000E+000
  0.000000000000000E+000
  0.000000000000000E+000
  0.000000000000000E+000
  0.000000000000000E+000
  0.000000000000000E+000
  0.000000000000000E+000
  0.000000000000000E+000
  0.000000000000000E+000
  0.000000000000000E+000
  0.000000000000000E+000
  0.000000000000000E+000
  0.000000000000000E+000
  0.000000000000000E+000
  0.000000000000000E+000
  0.000000000000000E+000
  0.000000000000000E+000
  0.000000000000000E+000
  0.000000000000000E+000
  0.000000000000000E+000
  0.000000000000000E+000
  0.000000000000000E+000
  0.000000000000000E+000
  0.000000000000000E+000
  0.000000000000000E+000
  0.000000000000000E+000
  0.000000000000000E+000
  0.000000000000000E+000
  0.000000000000000E+000
  0.000000000000000E+000
  0.000000000000000E+000
  0.000000000000000E+000
  0.000000000000000E+000
  0.000000000000000E+000
  0.000000000000000E+000
  0.000000000000000E+000
  0.000000000000000E+000
  0.000000000000000E+000
  0.000000000000000E+000
  0.000000000000000E+000
  0.000000000000000E+000
  0.000000000000000E+000
  0.000000000000000E+000
  0.000000000000000E+000
  0.000000000000000E+000
  0.000000000000000E+000
  0.000000000000000E+000
  0.000000000000000E+000
  0.000000000000000E+000
  0.000000000000000E+000
  0.000000000000000E+000
  0.000000000000000E+000
  0.000000000000000E+000
  0.000000000000000E+000
  0.000000000000000E+000
  0.000000000000000E+000
   1.00000000000000     
   1.00000000000000     
   1.00000000000000     
   1.00000000000000     
   1.00000000000000     
   1.00000000000000     
   1.00000000000000     
   1.00000000000000     
   1.00000000000000     
   1.00000000000000     
   1.00000000000000     
   1.00000000000000     
   1.00000000000000     
   1.00000000000000     
   1.00000000000000     
   1.00000000000000     
   1.00000000000000     
   1.00000000000000     
   1.00000000000000     
   1.00000000000000     
   1.00000000000000     
   1.00000000000000     
   1.00000000000000     
   1.00000000000000     
   1.00000000000000     
   1.00000000000000     
   1.00000000000000     
   1.00000000000000     
   1.00000000000000     
   1.00000000000000     
   1.00000000000000     
   1.00000000000000     
   1.00000000000000     
   1.00000000000000     
  0.000000000000000E+000
  0.000000000000000E+000
  0.000000000000000E+000
  0.000000000000000E+000
  0.000000000000000E+000
  0.000000000000000E+000
  0.000000000000000E+000
  0.000000000000000E+000
  0.000000000000000E+000
  0.000000000000000E+000
  0.000000000000000E+000
  0.000000000000000E+000
  0.000000000000000E+000
  0.000000000000000E+000
  0.000000000000000E+000
  0.000000000000000E+000
  0.000000000000000E+000
  0.000000000000000E+000
  0.000000000000000E+000
  0.000000000000000E+000
  0.000000000000000E+000
  0.000000000000000E+000
  0.000000000000000E+000
  0.000000000000000E+000
  0.000000000000000E+000
  0.000000000000000E+000
  0.000000000000000E+000
  0.000000000000000E+000
  0.000000000000000E+000
  0.000000000000000E+000
  0.000000000000000E+000
  0.000000000000000E+000
  0.000000000000000E+000
  0.000000000000000E+000
  0.000000000000000E+000
  0.000000000000000E+000
  0.000000000000000E+000
  0.000000000000000E+000
  0.000000000000000E+000
  0.000000000000000E+000
  0.000000000000000E+000
  0.000000000000000E+000
  0.000000000000000E+000
  0.000000000000000E+000
  0.000000000000000E+000
  0.000000000000000E+000
  0.000000000000000E+000
  0.000000000000000E+000
  0.000000000000000E+000
  0.000000000000000E+000
  0.000000000000000E+000
  0.000000000000000E+000
  0.000000000000000E+000
  0.000000000000000E+000
  0.000000000000000E+000
  0.000000000000000E+000
  0.000000000000000E+000
  0.000000000000000E+000
  0.000000000000000E+000
  0.000000000000000E+000
  0.000000000000000E+000
  0.000000000000000E+000
  0.000000000000000E+000
  0.000000000000000E+000
  0.000000000000000E+000
  0.000000000000000E+000
   1.00000000000000     
   1.00000000000000     
   1.00000000000000     
   1.00000000000000     
   1.00000000000000     
   1.00000000000000     
   1.00000000000000     
   1.00000000000000     
   1.00000000000000     
   1.00000000000000     
   1.00000000000000     
   1.00000000000000     
   1.00000000000000     
   1.00000000000000     
   1.00000000000000     
   1.00000000000000     
   1.00000000000000     
   1.00000000000000     
   1.00000000000000     
   1.00000000000000     
   1.00000000000000     
   1.00000000000000     
   1.00000000000000     
   1.00000000000000     
   1.00000000000000     
   1.00000000000000     
   1.00000000000000     
   1.00000000000000     
   1.00000000000000     
   1.00000000000000     
   1.00000000000000     
   1.00000000000000     
   1.00000000000000     
   1.00000000000000     
  0.000000000000000E+000
  0.000000000000000E+000
  0.000000000000000E+000
  0.000000000000000E+000
  0.000000000000000E+000
  0.000000000000000E+000
  0.000000000000000E+000
  0.000000000000000E+000
  0.000000000000000E+000
  0.000000000000000E+000
  0.000000000000000E+000
  0.000000000000000E+000
  0.000000000000000E+000
  0.000000000000000E+000
  0.000000000000000E+000
  0.000000000000000E+000
  0.000000000000000E+000
  0.000000000000000E+000
  0.000000000000000E+000
  0.000000000000000E+000
  0.000000000000000E+000
  0.000000000000000E+000
  0.000000000000000E+000
  0.000000000000000E+000
  0.000000000000000E+000
  0.000000000000000E+000
  0.000000000000000E+000
  0.000000000000000E+000
  0.000000000000000E+000
  0.000000000000000E+000
  0.000000000000000E+000
  0.000000000000000E+000
  0.000000000000000E+000
  0.000000000000000E+000
  0.000000000000000E+000
  0.000000000000000E+000
  0.000000000000000E+000
  0.000000000000000E+000
  0.000000000000000E+000
  0.000000000000000E+000
  0.000000000000000E+000
  0.000000000000000E+000
  0.000000000000000E+000
  0.000000000000000E+000
  0.000000000000000E+000
  0.000000000000000E+000
  0.000000000000000E+000
  0.000000000000000E+000
  0.000000000000000E+000
  0.000000000000000E+000
  0.000000000000000E+000
  0.000000000000000E+000
  0.000000000000000E+000
  0.000000000000000E+000
  0.000000000000000E+000
  0.000000000000000E+000
  0.000000000000000E+000
  0.000000000000000E+000
  0.000000000000000E+000
  0.000000000000000E+000
  0.000000000000000E+000
  0.000000000000000E+000
  0.000000000000000E+000
  0.000000000000000E+000
  0.000000000000000E+000
  0.000000000000000E+000
   1.00000000000000     
   1.00000000000000     
   1.00000000000000     
   1.00000000000000     
   1.00000000000000     
   1.00000000000000     
   1.00000000000000     
   1.00000000000000     
   1.00000000000000     
   1.00000000000000     
   1.00000000000000     
   1.00000000000000     
   1.00000000000000     
   1.00000000000000     
   1.00000000000000     
   1.00000000000000     
   1.00000000000000     
   1.00000000000000     
   1.00000000000000     
   1.00000000000000     
   1.00000000000000     
   1.00000000000000     
   1.00000000000000     
   1.00000000000000     
   1.00000000000000     
   1.00000000000000     
   1.00000000000000     
   1.00000000000000     
   1.00000000000000     
   1.00000000000000     
   1.00000000000000     
   1.00000000000000     
   1.00000000000000     
   1.00000000000000     
  0.000000000000000E+000
  0.000000000000000E+000
  0.000000000000000E+000
  0.000000000000000E+000
  0.000000000000000E+000
  0.000000000000000E+000
  0.000000000000000E+000
  0.000000000000000E+000
  0.000000000000000E+000
  0.000000000000000E+000
  0.000000000000000E+000
  0.000000000000000E+000
  0.000000000000000E+000
  0.000000000000000E+000
  0.000000000000000E+000
  0.000000000000000E+000
  0.000000000000000E+000
  0.000000000000000E+000
  0.000000000000000E+000
  0.000000000000000E+000
  0.000000000000000E+000
  0.000000000000000E+000
  0.000000000000000E+000
  0.000000000000000E+000
  0.000000000000000E+000
  0.000000000000000E+000
  0.000000000000000E+000
  0.000000000000000E+000
  0.000000000000000E+000
  0.000000000000000E+000
  0.000000000000000E+000
  0.000000000000000E+000
  0.000000000000000E+000
  0.000000000000000E+000
  0.000000000000000E+000
  0.000000000000000E+000
  0.000000000000000E+000
  0.000000000000000E+000
  0.000000000000000E+000
  0.000000000000000E+000
  0.000000000000000E+000
  0.000000000000000E+000
  0.000000000000000E+000
  0.000000000000000E+000
  0.000000000000000E+000
  0.000000000000000E+000
  0.000000000000000E+000
  0.000000000000000E+000
  0.000000000000000E+000
  0.000000000000000E+000
  0.000000000000000E+000
  0.000000000000000E+000
  0.000000000000000E+000
  0.000000000000000E+000
  0.000000000000000E+000
  0.000000000000000E+000
  0.000000000000000E+000
  0.000000000000000E+000
  0.000000000000000E+000
  0.000000000000000E+000
  0.000000000000000E+000
  0.000000000000000E+000
  0.000000000000000E+000
  0.000000000000000E+000
  0.000000000000000E+000
  0.000000000000000E+000
   1.00000000000000     
   1.00000000000000     
   1.00000000000000     
   1.00000000000000     
   1.00000000000000     
   1.00000000000000     
   1.00000000000000     
   1.00000000000000     
   1.00000000000000     
   1.00000000000000     
   1.00000000000000     
   1.00000000000000     
   1.00000000000000     
   1.00000000000000     
   1.00000000000000     
   1.00000000000000     
   1.00000000000000     
   1.00000000000000     
   1.00000000000000     
   1.00000000000000     
   1.00000000000000     
   1.00000000000000     
   1.00000000000000     
   1.00000000000000     
   1.00000000000000     
   1.00000000000000     
   1.00000000000000     
   1.00000000000000     
   1.00000000000000     
   1.00000000000000     
   1.00000000000000     
   1.00000000000000     
   1.00000000000000     
   1.00000000000000     
  0.000000000000000E+000
  0.000000000000000E+000
  0.000000000000000E+000
  0.000000000000000E+000
  0.000000000000000E+000
  0.000000000000000E+000
  0.000000000000000E+000
  0.000000000000000E+000
  0.000000000000000E+000
  0.000000000000000E+000
  0.000000000000000E+000
  0.000000000000000E+000
  0.000000000000000E+000
  0.000000000000000E+000
  0.000000000000000E+000
  0.000000000000000E+000
  0.000000000000000E+000
  0.000000000000000E+000
  0.000000000000000E+000
  0.000000000000000E+000
  0.000000000000000E+000
  0.000000000000000E+000
  0.000000000000000E+000
  0.000000000000000E+000
  0.000000000000000E+000
  0.000000000000000E+000
  0.000000000000000E+000
  0.000000000000000E+000
  0.000000000000000E+000
  0.000000000000000E+000
  0.000000000000000E+000
  0.000000000000000E+000
  0.000000000000000E+000
  0.000000000000000E+000
  0.000000000000000E+000
  0.000000000000000E+000
  0.000000000000000E+000
  0.000000000000000E+000
  0.000000000000000E+000
  0.000000000000000E+000
  0.000000000000000E+000
  0.000000000000000E+000
  0.000000000000000E+000
  0.000000000000000E+000
  0.000000000000000E+000
  0.000000000000000E+000
  0.000000000000000E+000
  0.000000000000000E+000
  0.000000000000000E+000
  0.000000000000000E+000
  0.000000000000000E+000
  0.000000000000000E+000
  0.000000000000000E+000
  0.000000000000000E+000
  0.000000000000000E+000
  0.000000000000000E+000
  0.000000000000000E+000
  0.000000000000000E+000
  0.000000000000000E+000
  0.000000000000000E+000
  0.000000000000000E+000
  0.000000000000000E+000
  0.000000000000000E+000
  0.000000000000000E+000
  0.000000000000000E+000
  0.000000000000000E+000
  0.000000000000000E+000
   1.00000000000000     
   1.00000000000000     
   1.00000000000000     
   1.00000000000000     
   1.00000000000000     
   1.00000000000000     
   1.00000000000000     
   1.00000000000000     
   1.00000000000000     
   1.00000000000000     
   1.00000000000000     
   1.00000000000000     
   1.00000000000000     
   1.00000000000000     
   1.00000000000000     
   1.00000000000000     
   1.00000000000000     
   1.00000000000000     
   1.00000000000000     
   1.00000000000000     
   1.00000000000000     
   1.00000000000000     
   1.00000000000000     
   1.00000000000000     
   1.00000000000000     
   1.00000000000000     
   1.00000000000000     
   1.00000000000000     
   1.00000000000000     
   1.00000000000000     
   1.00000000000000     
   1.00000000000000     
   1.00000000000000     
  0.000000000000000E+000
  0.000000000000000E+000
  0.000000000000000E+000
  0.000000000000000E+000
  0.000000000000000E+000
  0.000000000000000E+000
  0.000000000000000E+000
  0.000000000000000E+000
  0.000000000000000E+000
  0.000000000000000E+000
  0.000000000000000E+000
  0.000000000000000E+000
  0.000000000000000E+000
  0.000000000000000E+000
  0.000000000000000E+000
  0.000000000000000E+000
  0.000000000000000E+000
  0.000000000000000E+000
  0.000000000000000E+000
  0.000000000000000E+000
  0.000000000000000E+000
  0.000000000000000E+000
  0.000000000000000E+000
  0.000000000000000E+000
  0.000000000000000E+000
  0.000000000000000E+000
  0.000000000000000E+000
  0.000000000000000E+000
  0.000000000000000E+000
  0.000000000000000E+000
  0.000000000000000E+000
  0.000000000000000E+000
  0.000000000000000E+000
  0.000000000000000E+000
  0.000000000000000E+000
  0.000000000000000E+000
  0.000000000000000E+000
  0.000000000000000E+000
  0.000000000000000E+000
  0.000000000000000E+000
  0.000000000000000E+000
  0.000000000000000E+000
  0.000000000000000E+000
  0.000000000000000E+000
  0.000000000000000E+000
  0.000000000000000E+000
  0.000000000000000E+000
  0.000000000000000E+000
  0.000000000000000E+000
  0.000000000000000E+000
  0.000000000000000E+000
  0.000000000000000E+000
  0.000000000000000E+000
  0.000000000000000E+000
  0.000000000000000E+000
  0.000000000000000E+000
  0.000000000000000E+000
  0.000000000000000E+000
  0.000000000000000E+000
  0.000000000000000E+000
  0.000000000000000E+000
  0.000000000000000E+000
  0.000000000000000E+000
  0.000000000000000E+000
  0.000000000000000E+000
  0.000000000000000E+000
  0.000000000000000E+000
   1.00000000000000     
   1.00000000000000     
   1.00000000000000     
   1.00000000000000     
   1.00000000000000     
   1.00000000000000     
   1.00000000000000     
   1.00000000000000     
   1.00000000000000     
   1.00000000000000     
   1.00000000000000     
   1.00000000000000     
   1.00000000000000     
   1.00000000000000     
   1.00000000000000     
   1.00000000000000     
   1.00000000000000     
   1.00000000000000     
   1.00000000000000     
   1.00000000000000     
   1.00000000000000     
   1.00000000000000     
   1.00000000000000     
   1.00000000000000     
   1.00000000000000     
   1.00000000000000     
   1.00000000000000     
   1.00000000000000     
   1.00000000000000     
   1.00000000000000     
   1.00000000000000     
   1.00000000000000     
   1.00000000000000     
  0.000000000000000E+000
  0.000000000000000E+000
  0.000000000000000E+000
  0.000000000000000E+000
  0.000000000000000E+000
  0.000000000000000E+000
  0.000000000000000E+000
  0.000000000000000E+000
  0.000000000000000E+000
  0.000000000000000E+000
  0.000000000000000E+000
  0.000000000000000E+000
  0.000000000000000E+000
  0.000000000000000E+000
  0.000000000000000E+000
  0.000000000000000E+000
  0.000000000000000E+000
  0.000000000000000E+000
  0.000000000000000E+000
  0.000000000000000E+000
  0.000000000000000E+000
  0.000000000000000E+000
  0.000000000000000E+000
  0.000000000000000E+000
  0.000000000000000E+000
  0.000000000000000E+000
  0.000000000000000E+000
  0.000000000000000E+000
  0.000000000000000E+000
  0.000000000000000E+000
  0.000000000000000E+000
  0.000000000000000E+000
  0.000000000000000E+000
  0.000000000000000E+000
  0.000000000000000E+000
  0.000000000000000E+000
  0.000000000000000E+000
  0.000000000000000E+000
  0.000000000000000E+000
  0.000000000000000E+000
  0.000000000000000E+000
  0.000000000000000E+000
  0.000000000000000E+000
  0.000000000000000E+000
  0.000000000000000E+000
  0.000000000000000E+000
  0.000000000000000E+000
  0.000000000000000E+000
  0.000000000000000E+000
  0.000000000000000E+000
  0.000000000000000E+000
  0.000000000000000E+000
  0.000000000000000E+000
  0.000000000000000E+000
  0.000000000000000E+000
  0.000000000000000E+000
  0.000000000000000E+000
  0.000000000000000E+000
  0.000000000000000E+000
  0.000000000000000E+000
  0.000000000000000E+000
  0.000000000000000E+000
  0.000000000000000E+000
  0.000000000000000E+000
  0.000000000000000E+000
  0.000000000000000E+000
  0.000000000000000E+000
   1.00000000000000     
   1.00000000000000     
   1.00000000000000     
   1.00000000000000     
   1.00000000000000     
   1.00000000000000     
   1.00000000000000     
   1.00000000000000     
   1.00000000000000     
   1.00000000000000     
   1.00000000000000     
   1.00000000000000     
   1.00000000000000     
   1.00000000000000     
   1.00000000000000     
   1.00000000000000     
   1.00000000000000     
   1.00000000000000     
   1.00000000000000     
   1.00000000000000     
   1.00000000000000     
   1.00000000000000     
   1.00000000000000     
   1.00000000000000     
   1.00000000000000     
   1.00000000000000     
   1.00000000000000     
   1.00000000000000     
   1.00000000000000     
   1.00000000000000     
   1.00000000000000     
   1.00000000000000     
   1.00000000000000     
  0.000000000000000E+000
  0.000000000000000E+000
  0.000000000000000E+000
  0.000000000000000E+000
  0.000000000000000E+000
  0.000000000000000E+000
  0.000000000000000E+000
  0.000000000000000E+000
  0.000000000000000E+000
  0.000000000000000E+000
  0.000000000000000E+000
  0.000000000000000E+000
  0.000000000000000E+000
  0.000000000000000E+000
  0.000000000000000E+000
  0.000000000000000E+000
  0.000000000000000E+000
  0.000000000000000E+000
  0.000000000000000E+000
  0.000000000000000E+000
  0.000000000000000E+000
  0.000000000000000E+000
  0.000000000000000E+000
  0.000000000000000E+000
  0.000000000000000E+000
  0.000000000000000E+000
  0.000000000000000E+000
  0.000000000000000E+000
  0.000000000000000E+000
  0.000000000000000E+000
  0.000000000000000E+000
  0.000000000000000E+000
  0.000000000000000E+000
  0.000000000000000E+000
  0.000000000000000E+000
  0.000000000000000E+000
  0.000000000000000E+000
  0.000000000000000E+000
  0.000000000000000E+000
  0.000000000000000E+000
  0.000000000000000E+000
  0.000000000000000E+000
  0.000000000000000E+000
  0.000000000000000E+000
  0.000000000000000E+000
  0.000000000000000E+000
  0.000000000000000E+000
  0.000000000000000E+000
  0.000000000000000E+000
  0.000000000000000E+000
  0.000000000000000E+000
  0.000000000000000E+000
  0.000000000000000E+000
  0.000000000000000E+000
  0.000000000000000E+000
  0.000000000000000E+000
  0.000000000000000E+000
  0.000000000000000E+000
  0.000000000000000E+000
  0.000000000000000E+000
  0.000000000000000E+000
  0.000000000000000E+000
  0.000000000000000E+000
  0.000000000000000E+000
  0.000000000000000E+000
  0.000000000000000E+000
  0.000000000000000E+000
   1.00000000000000     
   1.00000000000000     
   1.00000000000000     
   1.00000000000000     
   1.00000000000000     
   1.00000000000000     
   1.00000000000000     
   1.00000000000000     
   1.00000000000000     
   1.00000000000000     
   1.00000000000000     
   1.00000000000000     
   1.00000000000000     
   1.00000000000000     
   1.00000000000000     
   1.00000000000000     
   1.00000000000000     
   1.00000000000000     
   1.00000000000000     
   1.00000000000000     
   1.00000000000000     
   1.00000000000000     
   1.00000000000000     
   1.00000000000000     
   1.00000000000000     
   1.00000000000000     
   1.00000000000000     
   1.00000000000000     
   1.00000000000000     
   1.00000000000000     
   1.00000000000000     
   1.00000000000000     
   1.00000000000000     
  0.000000000000000E+000
  0.000000000000000E+000
  0.000000000000000E+000
  0.000000000000000E+000
  0.000000000000000E+000
  0.000000000000000E+000
  0.000000000000000E+000
  0.000000000000000E+000
  0.000000000000000E+000
  0.000000000000000E+000
  0.000000000000000E+000
  0.000000000000000E+000
  0.000000000000000E+000
  0.000000000000000E+000
  0.000000000000000E+000
  0.000000000000000E+000
  0.000000000000000E+000
  0.000000000000000E+000
  0.000000000000000E+000
  0.000000000000000E+000
  0.000000000000000E+000
  0.000000000000000E+000
  0.000000000000000E+000
  0.000000000000000E+000
  0.000000000000000E+000
  0.000000000000000E+000
  0.000000000000000E+000
  0.000000000000000E+000
  0.000000000000000E+000
  0.000000000000000E+000
  0.000000000000000E+000
  0.000000000000000E+000
  0.000000000000000E+000
  0.000000000000000E+000
  0.000000000000000E+000
  0.000000000000000E+000
  0.000000000000000E+000
  0.000000000000000E+000
  0.000000000000000E+000
  0.000000000000000E+000
  0.000000000000000E+000
  0.000000000000000E+000
  0.000000000000000E+000
  0.000000000000000E+000
  0.000000000000000E+000
  0.000000000000000E+000
  0.000000000000000E+000
  0.000000000000000E+000
  0.000000000000000E+000
  0.000000000000000E+000
  0.000000000000000E+000
  0.000000000000000E+000
  0.000000000000000E+000
  0.000000000000000E+000
  0.000000000000000E+000
  0.000000000000000E+000
  0.000000000000000E+000
  0.000000000000000E+000
  0.000000000000000E+000
  0.000000000000000E+000
  0.000000000000000E+000
  0.000000000000000E+000
  0.000000000000000E+000
  0.000000000000000E+000
  0.000000000000000E+000
  0.000000000000000E+000
  0.000000000000000E+000
   1.00000000000000     
   1.00000000000000     
   1.00000000000000     
   1.00000000000000     
   1.00000000000000     
   1.00000000000000     
   1.00000000000000     
   1.00000000000000     
   1.00000000000000     
   1.00000000000000     
   1.00000000000000     
   1.00000000000000     
   1.00000000000000     
   1.00000000000000     
   1.00000000000000     
   1.00000000000000     
   1.00000000000000     
   1.00000000000000     
   1.00000000000000     
   1.00000000000000     
   1.00000000000000     
   1.00000000000000     
   1.00000000000000     
   1.00000000000000     
   1.00000000000000     
   1.00000000000000     
   1.00000000000000     
   1.00000000000000     
   1.00000000000000     
   1.00000000000000     
   1.00000000000000     
   1.00000000000000     
   1.00000000000000     
  0.000000000000000E+000
  0.000000000000000E+000
  0.000000000000000E+000
  0.000000000000000E+000
  0.000000000000000E+000
  0.000000000000000E+000
  0.000000000000000E+000
  0.000000000000000E+000
  0.000000000000000E+000
  0.000000000000000E+000
  0.000000000000000E+000
  0.000000000000000E+000
  0.000000000000000E+000
  0.000000000000000E+000
  0.000000000000000E+000
  0.000000000000000E+000
  0.000000000000000E+000
  0.000000000000000E+000
  0.000000000000000E+000
  0.000000000000000E+000
  0.000000000000000E+000
  0.000000000000000E+000
  0.000000000000000E+000
  0.000000000000000E+000
  0.000000000000000E+000
  0.000000000000000E+000
  0.000000000000000E+000
  0.000000000000000E+000
  0.000000000000000E+000
  0.000000000000000E+000
  0.000000000000000E+000
  0.000000000000000E+000
  0.000000000000000E+000
  0.000000000000000E+000
  0.000000000000000E+000
  0.000000000000000E+000
  0.000000000000000E+000
  0.000000000000000E+000
  0.000000000000000E+000
  0.000000000000000E+000
  0.000000000000000E+000
  0.000000000000000E+000
  0.000000000000000E+000
  0.000000000000000E+000
  0.000000000000000E+000
  0.000000000000000E+000
  0.000000000000000E+000
  0.000000000000000E+000
  0.000000000000000E+000
  0.000000000000000E+000
  0.000000000000000E+000
  0.000000000000000E+000
  0.000000000000000E+000
  0.000000000000000E+000
  0.000000000000000E+000
  0.000000000000000E+000
  0.000000000000000E+000
  0.000000000000000E+000
  0.000000000000000E+000
  0.000000000000000E+000
  0.000000000000000E+000
  0.000000000000000E+000
  0.000000000000000E+000
  0.000000000000000E+000
  0.000000000000000E+000
  0.000000000000000E+000
  0.000000000000000E+000
   1.00000000000000     
   1.00000000000000     
   1.00000000000000     
   1.00000000000000     
   1.00000000000000     
   1.00000000000000     
   1.00000000000000     
   1.00000000000000     
   1.00000000000000     
   1.00000000000000     
   1.00000000000000     
   1.00000000000000     
   1.00000000000000     
   1.00000000000000     
   1.00000000000000     
   1.00000000000000     
   1.00000000000000     
   1.00000000000000     
   1.00000000000000     
   1.00000000000000     
   1.00000000000000     
   1.00000000000000     
   1.00000000000000     
   1.00000000000000     
   1.00000000000000     
   1.00000000000000     
   1.00000000000000     
   1.00000000000000     
   1.00000000000000     
   1.00000000000000     
   1.00000000000000     
   1.00000000000000     
   1.00000000000000     
