# vtk DataFile Version 3.0
vtk output
ASCII
DATASET UNSTRUCTURED_GRID
POINTS      5151 double 
  0.00000000E+00  0.00000000E+00  0.00000000E+00
  1.00000000E+01  0.00000000E+00  0.00000000E+00
  2.00000000E+01  0.00000000E+00  0.00000000E+00
  3.00000000E+01  0.00000000E+00  0.00000000E+00
  4.00000000E+01  0.00000000E+00  0.00000000E+00
  5.00000000E+01  0.00000000E+00  0.00000000E+00
  6.00000000E+01  0.00000000E+00  0.00000000E+00
  7.00000000E+01  0.00000000E+00  0.00000000E+00
  8.00000000E+01  0.00000000E+00  0.00000000E+00
  9.00000000E+01  0.00000000E+00  0.00000000E+00
  1.00000000E+02  0.00000000E+00  0.00000000E+00
  1.10000000E+02  0.00000000E+00  0.00000000E+00
  1.20000000E+02  0.00000000E+00  0.00000000E+00
  1.30000000E+02  0.00000000E+00  0.00000000E+00
  1.40000000E+02  0.00000000E+00  0.00000000E+00
  1.50000000E+02  0.00000000E+00  0.00000000E+00
  1.60000000E+02  0.00000000E+00  0.00000000E+00
  1.70000000E+02  0.00000000E+00  0.00000000E+00
  1.80000000E+02  0.00000000E+00  0.00000000E+00
  1.90000000E+02  0.00000000E+00  0.00000000E+00
  2.00000000E+02  0.00000000E+00  0.00000000E+00
  2.10000000E+02  0.00000000E+00  0.00000000E+00
  2.20000000E+02  0.00000000E+00  0.00000000E+00
  2.30000000E+02  0.00000000E+00  0.00000000E+00
  2.40000000E+02  0.00000000E+00  0.00000000E+00
  2.50000000E+02  0.00000000E+00  0.00000000E+00
  2.60000000E+02  0.00000000E+00  0.00000000E+00
  2.70000000E+02  0.00000000E+00  0.00000000E+00
  2.80000000E+02  0.00000000E+00  0.00000000E+00
  2.90000000E+02  0.00000000E+00  0.00000000E+00
  3.00000000E+02  0.00000000E+00  0.00000000E+00
  3.10000000E+02  0.00000000E+00  0.00000000E+00
  3.20000000E+02  0.00000000E+00  0.00000000E+00
  3.30000000E+02  0.00000000E+00  0.00000000E+00
  3.40000000E+02  0.00000000E+00  0.00000000E+00
  3.50000000E+02  0.00000000E+00  0.00000000E+00
  3.60000000E+02  0.00000000E+00  0.00000000E+00
  3.70000000E+02  0.00000000E+00  0.00000000E+00
  3.80000000E+02  0.00000000E+00  0.00000000E+00
  3.90000000E+02  0.00000000E+00  0.00000000E+00
  4.00000000E+02  0.00000000E+00  0.00000000E+00
  4.10000000E+02  0.00000000E+00  0.00000000E+00
  4.20000000E+02  0.00000000E+00  0.00000000E+00
  4.30000000E+02  0.00000000E+00  0.00000000E+00
  4.40000000E+02  0.00000000E+00  0.00000000E+00
  4.50000000E+02  0.00000000E+00  0.00000000E+00
  4.60000000E+02  0.00000000E+00  0.00000000E+00
  4.70000000E+02  0.00000000E+00  0.00000000E+00
  4.80000000E+02  0.00000000E+00  0.00000000E+00
  4.90000000E+02  0.00000000E+00  0.00000000E+00
  5.00000000E+02  0.00000000E+00  0.00000000E+00
  5.10000000E+02  0.00000000E+00  0.00000000E+00
  5.20000000E+02  0.00000000E+00  0.00000000E+00
  5.30000000E+02  0.00000000E+00  0.00000000E+00
  5.40000000E+02  0.00000000E+00  0.00000000E+00
  5.50000000E+02  0.00000000E+00  0.00000000E+00
  5.60000000E+02  0.00000000E+00  0.00000000E+00
  5.70000000E+02  0.00000000E+00  0.00000000E+00
  5.80000000E+02  0.00000000E+00  0.00000000E+00
  5.90000000E+02  0.00000000E+00  0.00000000E+00
  6.00000000E+02  0.00000000E+00  0.00000000E+00
  6.10000000E+02  0.00000000E+00  0.00000000E+00
  6.20000000E+02  0.00000000E+00  0.00000000E+00
  6.30000000E+02  0.00000000E+00  0.00000000E+00
  6.40000000E+02  0.00000000E+00  0.00000000E+00
  6.50000000E+02  0.00000000E+00  0.00000000E+00
  6.60000000E+02  0.00000000E+00  0.00000000E+00
  6.70000000E+02  0.00000000E+00  0.00000000E+00
  6.80000000E+02  0.00000000E+00  0.00000000E+00
  6.90000000E+02  0.00000000E+00  0.00000000E+00
  7.00000000E+02  0.00000000E+00  0.00000000E+00
  7.10000000E+02  0.00000000E+00  0.00000000E+00
  7.20000000E+02  0.00000000E+00  0.00000000E+00
  7.30000000E+02  0.00000000E+00  0.00000000E+00
  7.40000000E+02  0.00000000E+00  0.00000000E+00
  7.50000000E+02  0.00000000E+00  0.00000000E+00
  7.60000000E+02  0.00000000E+00  0.00000000E+00
  7.70000000E+02  0.00000000E+00  0.00000000E+00
  7.80000000E+02  0.00000000E+00  0.00000000E+00
  7.90000000E+02  0.00000000E+00  0.00000000E+00
  8.00000000E+02  0.00000000E+00  0.00000000E+00
  8.10000000E+02  0.00000000E+00  0.00000000E+00
  8.20000000E+02  0.00000000E+00  0.00000000E+00
  8.30000000E+02  0.00000000E+00  0.00000000E+00
  8.40000000E+02  0.00000000E+00  0.00000000E+00
  8.50000000E+02  0.00000000E+00  0.00000000E+00
  8.60000000E+02  0.00000000E+00  0.00000000E+00
  8.70000000E+02  0.00000000E+00  0.00000000E+00
  8.80000000E+02  0.00000000E+00  0.00000000E+00
  8.90000000E+02  0.00000000E+00  0.00000000E+00
  9.00000000E+02  0.00000000E+00  0.00000000E+00
  9.10000000E+02  0.00000000E+00  0.00000000E+00
  9.20000000E+02  0.00000000E+00  0.00000000E+00
  9.30000000E+02  0.00000000E+00  0.00000000E+00
  9.40000000E+02  0.00000000E+00  0.00000000E+00
  9.50000000E+02  0.00000000E+00  0.00000000E+00
  9.60000000E+02  0.00000000E+00  0.00000000E+00
  9.70000000E+02  0.00000000E+00  0.00000000E+00
  9.80000000E+02  0.00000000E+00  0.00000000E+00
  9.90000000E+02  0.00000000E+00  0.00000000E+00
  1.00000000E+03  0.00000000E+00  0.00000000E+00
  0.00000000E+00  2.00000000E+00  0.00000000E+00
  1.00000000E+01  2.00000000E+00  0.00000000E+00
  2.00000000E+01  2.00000000E+00  0.00000000E+00
  3.00000000E+01  2.00000000E+00  0.00000000E+00
  4.00000000E+01  2.00000000E+00  0.00000000E+00
  5.00000000E+01  2.00000000E+00  0.00000000E+00
  6.00000000E+01  2.00000000E+00  0.00000000E+00
  7.00000000E+01  2.00000000E+00  0.00000000E+00
  8.00000000E+01  2.00000000E+00  0.00000000E+00
  9.00000000E+01  2.00000000E+00  0.00000000E+00
  1.00000000E+02  2.00000000E+00  0.00000000E+00
  1.10000000E+02  2.00000000E+00  0.00000000E+00
  1.20000000E+02  2.00000000E+00  0.00000000E+00
  1.30000000E+02  2.00000000E+00  0.00000000E+00
  1.40000000E+02  2.00000000E+00  0.00000000E+00
  1.50000000E+02  2.00000000E+00  0.00000000E+00
  1.60000000E+02  2.00000000E+00  0.00000000E+00
  1.70000000E+02  2.00000000E+00  0.00000000E+00
  1.80000000E+02  2.00000000E+00  0.00000000E+00
  1.90000000E+02  2.00000000E+00  0.00000000E+00
  2.00000000E+02  2.00000000E+00  0.00000000E+00
  2.10000000E+02  2.00000000E+00  0.00000000E+00
  2.20000000E+02  2.00000000E+00  0.00000000E+00
  2.30000000E+02  2.00000000E+00  0.00000000E+00
  2.40000000E+02  2.00000000E+00  0.00000000E+00
  2.50000000E+02  2.00000000E+00  0.00000000E+00
  2.60000000E+02  2.00000000E+00  0.00000000E+00
  2.70000000E+02  2.00000000E+00  0.00000000E+00
  2.80000000E+02  2.00000000E+00  0.00000000E+00
  2.90000000E+02  2.00000000E+00  0.00000000E+00
  3.00000000E+02  2.00000000E+00  0.00000000E+00
  3.10000000E+02  2.00000000E+00  0.00000000E+00
  3.20000000E+02  2.00000000E+00  0.00000000E+00
  3.30000000E+02  2.00000000E+00  0.00000000E+00
  3.40000000E+02  2.00000000E+00  0.00000000E+00
  3.50000000E+02  2.00000000E+00  0.00000000E+00
  3.60000000E+02  2.00000000E+00  0.00000000E+00
  3.70000000E+02  2.00000000E+00  0.00000000E+00
  3.80000000E+02  2.00000000E+00  0.00000000E+00
  3.90000000E+02  2.00000000E+00  0.00000000E+00
  4.00000000E+02  2.00000000E+00  0.00000000E+00
  4.10000000E+02  2.00000000E+00  0.00000000E+00
  4.20000000E+02  2.00000000E+00  0.00000000E+00
  4.30000000E+02  2.00000000E+00  0.00000000E+00
  4.40000000E+02  2.00000000E+00  0.00000000E+00
  4.50000000E+02  2.00000000E+00  0.00000000E+00
  4.60000000E+02  2.00000000E+00  0.00000000E+00
  4.70000000E+02  2.00000000E+00  0.00000000E+00
  4.80000000E+02  2.00000000E+00  0.00000000E+00
  4.90000000E+02  2.00000000E+00  0.00000000E+00
  5.00000000E+02  2.00000000E+00  0.00000000E+00
  5.10000000E+02  2.00000000E+00  0.00000000E+00
  5.20000000E+02  2.00000000E+00  0.00000000E+00
  5.30000000E+02  2.00000000E+00  0.00000000E+00
  5.40000000E+02  2.00000000E+00  0.00000000E+00
  5.50000000E+02  2.00000000E+00  0.00000000E+00
  5.60000000E+02  2.00000000E+00  0.00000000E+00
  5.70000000E+02  2.00000000E+00  0.00000000E+00
  5.80000000E+02  2.00000000E+00  0.00000000E+00
  5.90000000E+02  2.00000000E+00  0.00000000E+00
  6.00000000E+02  2.00000000E+00  0.00000000E+00
  6.10000000E+02  2.00000000E+00  0.00000000E+00
  6.20000000E+02  2.00000000E+00  0.00000000E+00
  6.30000000E+02  2.00000000E+00  0.00000000E+00
  6.40000000E+02  2.00000000E+00  0.00000000E+00
  6.50000000E+02  2.00000000E+00  0.00000000E+00
  6.60000000E+02  2.00000000E+00  0.00000000E+00
  6.70000000E+02  2.00000000E+00  0.00000000E+00
  6.80000000E+02  2.00000000E+00  0.00000000E+00
  6.90000000E+02  2.00000000E+00  0.00000000E+00
  7.00000000E+02  2.00000000E+00  0.00000000E+00
  7.10000000E+02  2.00000000E+00  0.00000000E+00
  7.20000000E+02  2.00000000E+00  0.00000000E+00
  7.30000000E+02  2.00000000E+00  0.00000000E+00
  7.40000000E+02  2.00000000E+00  0.00000000E+00
  7.50000000E+02  2.00000000E+00  0.00000000E+00
  7.60000000E+02  2.00000000E+00  0.00000000E+00
  7.70000000E+02  2.00000000E+00  0.00000000E+00
  7.80000000E+02  2.00000000E+00  0.00000000E+00
  7.90000000E+02  2.00000000E+00  0.00000000E+00
  8.00000000E+02  2.00000000E+00  0.00000000E+00
  8.10000000E+02  2.00000000E+00  0.00000000E+00
  8.20000000E+02  2.00000000E+00  0.00000000E+00
  8.30000000E+02  2.00000000E+00  0.00000000E+00
  8.40000000E+02  2.00000000E+00  0.00000000E+00
  8.50000000E+02  2.00000000E+00  0.00000000E+00
  8.60000000E+02  2.00000000E+00  0.00000000E+00
  8.70000000E+02  2.00000000E+00  0.00000000E+00
  8.80000000E+02  2.00000000E+00  0.00000000E+00
  8.90000000E+02  2.00000000E+00  0.00000000E+00
  9.00000000E+02  2.00000000E+00  0.00000000E+00
  9.10000000E+02  2.00000000E+00  0.00000000E+00
  9.20000000E+02  2.00000000E+00  0.00000000E+00
  9.30000000E+02  2.00000000E+00  0.00000000E+00
  9.40000000E+02  2.00000000E+00  0.00000000E+00
  9.50000000E+02  2.00000000E+00  0.00000000E+00
  9.60000000E+02  2.00000000E+00  0.00000000E+00
  9.70000000E+02  2.00000000E+00  0.00000000E+00
  9.80000000E+02  2.00000000E+00  0.00000000E+00
  9.90000000E+02  2.00000000E+00  0.00000000E+00
  1.00000000E+03  2.00000000E+00  0.00000000E+00
  0.00000000E+00  4.00000000E+00  0.00000000E+00
  1.00000000E+01  4.00000000E+00  0.00000000E+00
  2.00000000E+01  4.00000000E+00  0.00000000E+00
  3.00000000E+01  4.00000000E+00  0.00000000E+00
  4.00000000E+01  4.00000000E+00  0.00000000E+00
  5.00000000E+01  4.00000000E+00  0.00000000E+00
  6.00000000E+01  4.00000000E+00  0.00000000E+00
  7.00000000E+01  4.00000000E+00  0.00000000E+00
  8.00000000E+01  4.00000000E+00  0.00000000E+00
  9.00000000E+01  4.00000000E+00  0.00000000E+00
  1.00000000E+02  4.00000000E+00  0.00000000E+00
  1.10000000E+02  4.00000000E+00  0.00000000E+00
  1.20000000E+02  4.00000000E+00  0.00000000E+00
  1.30000000E+02  4.00000000E+00  0.00000000E+00
  1.40000000E+02  4.00000000E+00  0.00000000E+00
  1.50000000E+02  4.00000000E+00  0.00000000E+00
  1.60000000E+02  4.00000000E+00  0.00000000E+00
  1.70000000E+02  4.00000000E+00  0.00000000E+00
  1.80000000E+02  4.00000000E+00  0.00000000E+00
  1.90000000E+02  4.00000000E+00  0.00000000E+00
  2.00000000E+02  4.00000000E+00  0.00000000E+00
  2.10000000E+02  4.00000000E+00  0.00000000E+00
  2.20000000E+02  4.00000000E+00  0.00000000E+00
  2.30000000E+02  4.00000000E+00  0.00000000E+00
  2.40000000E+02  4.00000000E+00  0.00000000E+00
  2.50000000E+02  4.00000000E+00  0.00000000E+00
  2.60000000E+02  4.00000000E+00  0.00000000E+00
  2.70000000E+02  4.00000000E+00  0.00000000E+00
  2.80000000E+02  4.00000000E+00  0.00000000E+00
  2.90000000E+02  4.00000000E+00  0.00000000E+00
  3.00000000E+02  4.00000000E+00  0.00000000E+00
  3.10000000E+02  4.00000000E+00  0.00000000E+00
  3.20000000E+02  4.00000000E+00  0.00000000E+00
  3.30000000E+02  4.00000000E+00  0.00000000E+00
  3.40000000E+02  4.00000000E+00  0.00000000E+00
  3.50000000E+02  4.00000000E+00  0.00000000E+00
  3.60000000E+02  4.00000000E+00  0.00000000E+00
  3.70000000E+02  4.00000000E+00  0.00000000E+00
  3.80000000E+02  4.00000000E+00  0.00000000E+00
  3.90000000E+02  4.00000000E+00  0.00000000E+00
  4.00000000E+02  4.00000000E+00  0.00000000E+00
  4.10000000E+02  4.00000000E+00  0.00000000E+00
  4.20000000E+02  4.00000000E+00  0.00000000E+00
  4.30000000E+02  4.00000000E+00  0.00000000E+00
  4.40000000E+02  4.00000000E+00  0.00000000E+00
  4.50000000E+02  4.00000000E+00  0.00000000E+00
  4.60000000E+02  4.00000000E+00  0.00000000E+00
  4.70000000E+02  4.00000000E+00  0.00000000E+00
  4.80000000E+02  4.00000000E+00  0.00000000E+00
  4.90000000E+02  4.00000000E+00  0.00000000E+00
  5.00000000E+02  4.00000000E+00  0.00000000E+00
  5.10000000E+02  4.00000000E+00  0.00000000E+00
  5.20000000E+02  4.00000000E+00  0.00000000E+00
  5.30000000E+02  4.00000000E+00  0.00000000E+00
  5.40000000E+02  4.00000000E+00  0.00000000E+00
  5.50000000E+02  4.00000000E+00  0.00000000E+00
  5.60000000E+02  4.00000000E+00  0.00000000E+00
  5.70000000E+02  4.00000000E+00  0.00000000E+00
  5.80000000E+02  4.00000000E+00  0.00000000E+00
  5.90000000E+02  4.00000000E+00  0.00000000E+00
  6.00000000E+02  4.00000000E+00  0.00000000E+00
  6.10000000E+02  4.00000000E+00  0.00000000E+00
  6.20000000E+02  4.00000000E+00  0.00000000E+00
  6.30000000E+02  4.00000000E+00  0.00000000E+00
  6.40000000E+02  4.00000000E+00  0.00000000E+00
  6.50000000E+02  4.00000000E+00  0.00000000E+00
  6.60000000E+02  4.00000000E+00  0.00000000E+00
  6.70000000E+02  4.00000000E+00  0.00000000E+00
  6.80000000E+02  4.00000000E+00  0.00000000E+00
  6.90000000E+02  4.00000000E+00  0.00000000E+00
  7.00000000E+02  4.00000000E+00  0.00000000E+00
  7.10000000E+02  4.00000000E+00  0.00000000E+00
  7.20000000E+02  4.00000000E+00  0.00000000E+00
  7.30000000E+02  4.00000000E+00  0.00000000E+00
  7.40000000E+02  4.00000000E+00  0.00000000E+00
  7.50000000E+02  4.00000000E+00  0.00000000E+00
  7.60000000E+02  4.00000000E+00  0.00000000E+00
  7.70000000E+02  4.00000000E+00  0.00000000E+00
  7.80000000E+02  4.00000000E+00  0.00000000E+00
  7.90000000E+02  4.00000000E+00  0.00000000E+00
  8.00000000E+02  4.00000000E+00  0.00000000E+00
  8.10000000E+02  4.00000000E+00  0.00000000E+00
  8.20000000E+02  4.00000000E+00  0.00000000E+00
  8.30000000E+02  4.00000000E+00  0.00000000E+00
  8.40000000E+02  4.00000000E+00  0.00000000E+00
  8.50000000E+02  4.00000000E+00  0.00000000E+00
  8.60000000E+02  4.00000000E+00  0.00000000E+00
  8.70000000E+02  4.00000000E+00  0.00000000E+00
  8.80000000E+02  4.00000000E+00  0.00000000E+00
  8.90000000E+02  4.00000000E+00  0.00000000E+00
  9.00000000E+02  4.00000000E+00  0.00000000E+00
  9.10000000E+02  4.00000000E+00  0.00000000E+00
  9.20000000E+02  4.00000000E+00  0.00000000E+00
  9.30000000E+02  4.00000000E+00  0.00000000E+00
  9.40000000E+02  4.00000000E+00  0.00000000E+00
  9.50000000E+02  4.00000000E+00  0.00000000E+00
  9.60000000E+02  4.00000000E+00  0.00000000E+00
  9.70000000E+02  4.00000000E+00  0.00000000E+00
  9.80000000E+02  4.00000000E+00  0.00000000E+00
  9.90000000E+02  4.00000000E+00  0.00000000E+00
  1.00000000E+03  4.00000000E+00  0.00000000E+00
  0.00000000E+00  6.00000000E+00  0.00000000E+00
  1.00000000E+01  6.00000000E+00  0.00000000E+00
  2.00000000E+01  6.00000000E+00  0.00000000E+00
  3.00000000E+01  6.00000000E+00  0.00000000E+00
  4.00000000E+01  6.00000000E+00  0.00000000E+00
  5.00000000E+01  6.00000000E+00  0.00000000E+00
  6.00000000E+01  6.00000000E+00  0.00000000E+00
  7.00000000E+01  6.00000000E+00  0.00000000E+00
  8.00000000E+01  6.00000000E+00  0.00000000E+00
  9.00000000E+01  6.00000000E+00  0.00000000E+00
  1.00000000E+02  6.00000000E+00  0.00000000E+00
  1.10000000E+02  6.00000000E+00  0.00000000E+00
  1.20000000E+02  6.00000000E+00  0.00000000E+00
  1.30000000E+02  6.00000000E+00  0.00000000E+00
  1.40000000E+02  6.00000000E+00  0.00000000E+00
  1.50000000E+02  6.00000000E+00  0.00000000E+00
  1.60000000E+02  6.00000000E+00  0.00000000E+00
  1.70000000E+02  6.00000000E+00  0.00000000E+00
  1.80000000E+02  6.00000000E+00  0.00000000E+00
  1.90000000E+02  6.00000000E+00  0.00000000E+00
  2.00000000E+02  6.00000000E+00  0.00000000E+00
  2.10000000E+02  6.00000000E+00  0.00000000E+00
  2.20000000E+02  6.00000000E+00  0.00000000E+00
  2.30000000E+02  6.00000000E+00  0.00000000E+00
  2.40000000E+02  6.00000000E+00  0.00000000E+00
  2.50000000E+02  6.00000000E+00  0.00000000E+00
  2.60000000E+02  6.00000000E+00  0.00000000E+00
  2.70000000E+02  6.00000000E+00  0.00000000E+00
  2.80000000E+02  6.00000000E+00  0.00000000E+00
  2.90000000E+02  6.00000000E+00  0.00000000E+00
  3.00000000E+02  6.00000000E+00  0.00000000E+00
  3.10000000E+02  6.00000000E+00  0.00000000E+00
  3.20000000E+02  6.00000000E+00  0.00000000E+00
  3.30000000E+02  6.00000000E+00  0.00000000E+00
  3.40000000E+02  6.00000000E+00  0.00000000E+00
  3.50000000E+02  6.00000000E+00  0.00000000E+00
  3.60000000E+02  6.00000000E+00  0.00000000E+00
  3.70000000E+02  6.00000000E+00  0.00000000E+00
  3.80000000E+02  6.00000000E+00  0.00000000E+00
  3.90000000E+02  6.00000000E+00  0.00000000E+00
  4.00000000E+02  6.00000000E+00  0.00000000E+00
  4.10000000E+02  6.00000000E+00  0.00000000E+00
  4.20000000E+02  6.00000000E+00  0.00000000E+00
  4.30000000E+02  6.00000000E+00  0.00000000E+00
  4.40000000E+02  6.00000000E+00  0.00000000E+00
  4.50000000E+02  6.00000000E+00  0.00000000E+00
  4.60000000E+02  6.00000000E+00  0.00000000E+00
  4.70000000E+02  6.00000000E+00  0.00000000E+00
  4.80000000E+02  6.00000000E+00  0.00000000E+00
  4.90000000E+02  6.00000000E+00  0.00000000E+00
  5.00000000E+02  6.00000000E+00  0.00000000E+00
  5.10000000E+02  6.00000000E+00  0.00000000E+00
  5.20000000E+02  6.00000000E+00  0.00000000E+00
  5.30000000E+02  6.00000000E+00  0.00000000E+00
  5.40000000E+02  6.00000000E+00  0.00000000E+00
  5.50000000E+02  6.00000000E+00  0.00000000E+00
  5.60000000E+02  6.00000000E+00  0.00000000E+00
  5.70000000E+02  6.00000000E+00  0.00000000E+00
  5.80000000E+02  6.00000000E+00  0.00000000E+00
  5.90000000E+02  6.00000000E+00  0.00000000E+00
  6.00000000E+02  6.00000000E+00  0.00000000E+00
  6.10000000E+02  6.00000000E+00  0.00000000E+00
  6.20000000E+02  6.00000000E+00  0.00000000E+00
  6.30000000E+02  6.00000000E+00  0.00000000E+00
  6.40000000E+02  6.00000000E+00  0.00000000E+00
  6.50000000E+02  6.00000000E+00  0.00000000E+00
  6.60000000E+02  6.00000000E+00  0.00000000E+00
  6.70000000E+02  6.00000000E+00  0.00000000E+00
  6.80000000E+02  6.00000000E+00  0.00000000E+00
  6.90000000E+02  6.00000000E+00  0.00000000E+00
  7.00000000E+02  6.00000000E+00  0.00000000E+00
  7.10000000E+02  6.00000000E+00  0.00000000E+00
  7.20000000E+02  6.00000000E+00  0.00000000E+00
  7.30000000E+02  6.00000000E+00  0.00000000E+00
  7.40000000E+02  6.00000000E+00  0.00000000E+00
  7.50000000E+02  6.00000000E+00  0.00000000E+00
  7.60000000E+02  6.00000000E+00  0.00000000E+00
  7.70000000E+02  6.00000000E+00  0.00000000E+00
  7.80000000E+02  6.00000000E+00  0.00000000E+00
  7.90000000E+02  6.00000000E+00  0.00000000E+00
  8.00000000E+02  6.00000000E+00  0.00000000E+00
  8.10000000E+02  6.00000000E+00  0.00000000E+00
  8.20000000E+02  6.00000000E+00  0.00000000E+00
  8.30000000E+02  6.00000000E+00  0.00000000E+00
  8.40000000E+02  6.00000000E+00  0.00000000E+00
  8.50000000E+02  6.00000000E+00  0.00000000E+00
  8.60000000E+02  6.00000000E+00  0.00000000E+00
  8.70000000E+02  6.00000000E+00  0.00000000E+00
  8.80000000E+02  6.00000000E+00  0.00000000E+00
  8.90000000E+02  6.00000000E+00  0.00000000E+00
  9.00000000E+02  6.00000000E+00  0.00000000E+00
  9.10000000E+02  6.00000000E+00  0.00000000E+00
  9.20000000E+02  6.00000000E+00  0.00000000E+00
  9.30000000E+02  6.00000000E+00  0.00000000E+00
  9.40000000E+02  6.00000000E+00  0.00000000E+00
  9.50000000E+02  6.00000000E+00  0.00000000E+00
  9.60000000E+02  6.00000000E+00  0.00000000E+00
  9.70000000E+02  6.00000000E+00  0.00000000E+00
  9.80000000E+02  6.00000000E+00  0.00000000E+00
  9.90000000E+02  6.00000000E+00  0.00000000E+00
  1.00000000E+03  6.00000000E+00  0.00000000E+00
  0.00000000E+00  8.00000000E+00  0.00000000E+00
  1.00000000E+01  8.00000000E+00  0.00000000E+00
  2.00000000E+01  8.00000000E+00  0.00000000E+00
  3.00000000E+01  8.00000000E+00  0.00000000E+00
  4.00000000E+01  8.00000000E+00  0.00000000E+00
  5.00000000E+01  8.00000000E+00  0.00000000E+00
  6.00000000E+01  8.00000000E+00  0.00000000E+00
  7.00000000E+01  8.00000000E+00  0.00000000E+00
  8.00000000E+01  8.00000000E+00  0.00000000E+00
  9.00000000E+01  8.00000000E+00  0.00000000E+00
  1.00000000E+02  8.00000000E+00  0.00000000E+00
  1.10000000E+02  8.00000000E+00  0.00000000E+00
  1.20000000E+02  8.00000000E+00  0.00000000E+00
  1.30000000E+02  8.00000000E+00  0.00000000E+00
  1.40000000E+02  8.00000000E+00  0.00000000E+00
  1.50000000E+02  8.00000000E+00  0.00000000E+00
  1.60000000E+02  8.00000000E+00  0.00000000E+00
  1.70000000E+02  8.00000000E+00  0.00000000E+00
  1.80000000E+02  8.00000000E+00  0.00000000E+00
  1.90000000E+02  8.00000000E+00  0.00000000E+00
  2.00000000E+02  8.00000000E+00  0.00000000E+00
  2.10000000E+02  8.00000000E+00  0.00000000E+00
  2.20000000E+02  8.00000000E+00  0.00000000E+00
  2.30000000E+02  8.00000000E+00  0.00000000E+00
  2.40000000E+02  8.00000000E+00  0.00000000E+00
  2.50000000E+02  8.00000000E+00  0.00000000E+00
  2.60000000E+02  8.00000000E+00  0.00000000E+00
  2.70000000E+02  8.00000000E+00  0.00000000E+00
  2.80000000E+02  8.00000000E+00  0.00000000E+00
  2.90000000E+02  8.00000000E+00  0.00000000E+00
  3.00000000E+02  8.00000000E+00  0.00000000E+00
  3.10000000E+02  8.00000000E+00  0.00000000E+00
  3.20000000E+02  8.00000000E+00  0.00000000E+00
  3.30000000E+02  8.00000000E+00  0.00000000E+00
  3.40000000E+02  8.00000000E+00  0.00000000E+00
  3.50000000E+02  8.00000000E+00  0.00000000E+00
  3.60000000E+02  8.00000000E+00  0.00000000E+00
  3.70000000E+02  8.00000000E+00  0.00000000E+00
  3.80000000E+02  8.00000000E+00  0.00000000E+00
  3.90000000E+02  8.00000000E+00  0.00000000E+00
  4.00000000E+02  8.00000000E+00  0.00000000E+00
  4.10000000E+02  8.00000000E+00  0.00000000E+00
  4.20000000E+02  8.00000000E+00  0.00000000E+00
  4.30000000E+02  8.00000000E+00  0.00000000E+00
  4.40000000E+02  8.00000000E+00  0.00000000E+00
  4.50000000E+02  8.00000000E+00  0.00000000E+00
  4.60000000E+02  8.00000000E+00  0.00000000E+00
  4.70000000E+02  8.00000000E+00  0.00000000E+00
  4.80000000E+02  8.00000000E+00  0.00000000E+00
  4.90000000E+02  8.00000000E+00  0.00000000E+00
  5.00000000E+02  8.00000000E+00  0.00000000E+00
  5.10000000E+02  8.00000000E+00  0.00000000E+00
  5.20000000E+02  8.00000000E+00  0.00000000E+00
  5.30000000E+02  8.00000000E+00  0.00000000E+00
  5.40000000E+02  8.00000000E+00  0.00000000E+00
  5.50000000E+02  8.00000000E+00  0.00000000E+00
  5.60000000E+02  8.00000000E+00  0.00000000E+00
  5.70000000E+02  8.00000000E+00  0.00000000E+00
  5.80000000E+02  8.00000000E+00  0.00000000E+00
  5.90000000E+02  8.00000000E+00  0.00000000E+00
  6.00000000E+02  8.00000000E+00  0.00000000E+00
  6.10000000E+02  8.00000000E+00  0.00000000E+00
  6.20000000E+02  8.00000000E+00  0.00000000E+00
  6.30000000E+02  8.00000000E+00  0.00000000E+00
  6.40000000E+02  8.00000000E+00  0.00000000E+00
  6.50000000E+02  8.00000000E+00  0.00000000E+00
  6.60000000E+02  8.00000000E+00  0.00000000E+00
  6.70000000E+02  8.00000000E+00  0.00000000E+00
  6.80000000E+02  8.00000000E+00  0.00000000E+00
  6.90000000E+02  8.00000000E+00  0.00000000E+00
  7.00000000E+02  8.00000000E+00  0.00000000E+00
  7.10000000E+02  8.00000000E+00  0.00000000E+00
  7.20000000E+02  8.00000000E+00  0.00000000E+00
  7.30000000E+02  8.00000000E+00  0.00000000E+00
  7.40000000E+02  8.00000000E+00  0.00000000E+00
  7.50000000E+02  8.00000000E+00  0.00000000E+00
  7.60000000E+02  8.00000000E+00  0.00000000E+00
  7.70000000E+02  8.00000000E+00  0.00000000E+00
  7.80000000E+02  8.00000000E+00  0.00000000E+00
  7.90000000E+02  8.00000000E+00  0.00000000E+00
  8.00000000E+02  8.00000000E+00  0.00000000E+00
  8.10000000E+02  8.00000000E+00  0.00000000E+00
  8.20000000E+02  8.00000000E+00  0.00000000E+00
  8.30000000E+02  8.00000000E+00  0.00000000E+00
  8.40000000E+02  8.00000000E+00  0.00000000E+00
  8.50000000E+02  8.00000000E+00  0.00000000E+00
  8.60000000E+02  8.00000000E+00  0.00000000E+00
  8.70000000E+02  8.00000000E+00  0.00000000E+00
  8.80000000E+02  8.00000000E+00  0.00000000E+00
  8.90000000E+02  8.00000000E+00  0.00000000E+00
  9.00000000E+02  8.00000000E+00  0.00000000E+00
  9.10000000E+02  8.00000000E+00  0.00000000E+00
  9.20000000E+02  8.00000000E+00  0.00000000E+00
  9.30000000E+02  8.00000000E+00  0.00000000E+00
  9.40000000E+02  8.00000000E+00  0.00000000E+00
  9.50000000E+02  8.00000000E+00  0.00000000E+00
  9.60000000E+02  8.00000000E+00  0.00000000E+00
  9.70000000E+02  8.00000000E+00  0.00000000E+00
  9.80000000E+02  8.00000000E+00  0.00000000E+00
  9.90000000E+02  8.00000000E+00  0.00000000E+00
  1.00000000E+03  8.00000000E+00  0.00000000E+00
  0.00000000E+00  1.00000000E+01  0.00000000E+00
  1.00000000E+01  1.00000000E+01  0.00000000E+00
  2.00000000E+01  1.00000000E+01  0.00000000E+00
  3.00000000E+01  1.00000000E+01  0.00000000E+00
  4.00000000E+01  1.00000000E+01  0.00000000E+00
  5.00000000E+01  1.00000000E+01  0.00000000E+00
  6.00000000E+01  1.00000000E+01  0.00000000E+00
  7.00000000E+01  1.00000000E+01  0.00000000E+00
  8.00000000E+01  1.00000000E+01  0.00000000E+00
  9.00000000E+01  1.00000000E+01  0.00000000E+00
  1.00000000E+02  1.00000000E+01  0.00000000E+00
  1.10000000E+02  1.00000000E+01  0.00000000E+00
  1.20000000E+02  1.00000000E+01  0.00000000E+00
  1.30000000E+02  1.00000000E+01  0.00000000E+00
  1.40000000E+02  1.00000000E+01  0.00000000E+00
  1.50000000E+02  1.00000000E+01  0.00000000E+00
  1.60000000E+02  1.00000000E+01  0.00000000E+00
  1.70000000E+02  1.00000000E+01  0.00000000E+00
  1.80000000E+02  1.00000000E+01  0.00000000E+00
  1.90000000E+02  1.00000000E+01  0.00000000E+00
  2.00000000E+02  1.00000000E+01  0.00000000E+00
  2.10000000E+02  1.00000000E+01  0.00000000E+00
  2.20000000E+02  1.00000000E+01  0.00000000E+00
  2.30000000E+02  1.00000000E+01  0.00000000E+00
  2.40000000E+02  1.00000000E+01  0.00000000E+00
  2.50000000E+02  1.00000000E+01  0.00000000E+00
  2.60000000E+02  1.00000000E+01  0.00000000E+00
  2.70000000E+02  1.00000000E+01  0.00000000E+00
  2.80000000E+02  1.00000000E+01  0.00000000E+00
  2.90000000E+02  1.00000000E+01  0.00000000E+00
  3.00000000E+02  1.00000000E+01  0.00000000E+00
  3.10000000E+02  1.00000000E+01  0.00000000E+00
  3.20000000E+02  1.00000000E+01  0.00000000E+00
  3.30000000E+02  1.00000000E+01  0.00000000E+00
  3.40000000E+02  1.00000000E+01  0.00000000E+00
  3.50000000E+02  1.00000000E+01  0.00000000E+00
  3.60000000E+02  1.00000000E+01  0.00000000E+00
  3.70000000E+02  1.00000000E+01  0.00000000E+00
  3.80000000E+02  1.00000000E+01  0.00000000E+00
  3.90000000E+02  1.00000000E+01  0.00000000E+00
  4.00000000E+02  1.00000000E+01  0.00000000E+00
  4.10000000E+02  1.00000000E+01  0.00000000E+00
  4.20000000E+02  1.00000000E+01  0.00000000E+00
  4.30000000E+02  1.00000000E+01  0.00000000E+00
  4.40000000E+02  1.00000000E+01  0.00000000E+00
  4.50000000E+02  1.00000000E+01  0.00000000E+00
  4.60000000E+02  1.00000000E+01  0.00000000E+00
  4.70000000E+02  1.00000000E+01  0.00000000E+00
  4.80000000E+02  1.00000000E+01  0.00000000E+00
  4.90000000E+02  1.00000000E+01  0.00000000E+00
  5.00000000E+02  1.00000000E+01  0.00000000E+00
  5.10000000E+02  1.00000000E+01  0.00000000E+00
  5.20000000E+02  1.00000000E+01  0.00000000E+00
  5.30000000E+02  1.00000000E+01  0.00000000E+00
  5.40000000E+02  1.00000000E+01  0.00000000E+00
  5.50000000E+02  1.00000000E+01  0.00000000E+00
  5.60000000E+02  1.00000000E+01  0.00000000E+00
  5.70000000E+02  1.00000000E+01  0.00000000E+00
  5.80000000E+02  1.00000000E+01  0.00000000E+00
  5.90000000E+02  1.00000000E+01  0.00000000E+00
  6.00000000E+02  1.00000000E+01  0.00000000E+00
  6.10000000E+02  1.00000000E+01  0.00000000E+00
  6.20000000E+02  1.00000000E+01  0.00000000E+00
  6.30000000E+02  1.00000000E+01  0.00000000E+00
  6.40000000E+02  1.00000000E+01  0.00000000E+00
  6.50000000E+02  1.00000000E+01  0.00000000E+00
  6.60000000E+02  1.00000000E+01  0.00000000E+00
  6.70000000E+02  1.00000000E+01  0.00000000E+00
  6.80000000E+02  1.00000000E+01  0.00000000E+00
  6.90000000E+02  1.00000000E+01  0.00000000E+00
  7.00000000E+02  1.00000000E+01  0.00000000E+00
  7.10000000E+02  1.00000000E+01  0.00000000E+00
  7.20000000E+02  1.00000000E+01  0.00000000E+00
  7.30000000E+02  1.00000000E+01  0.00000000E+00
  7.40000000E+02  1.00000000E+01  0.00000000E+00
  7.50000000E+02  1.00000000E+01  0.00000000E+00
  7.60000000E+02  1.00000000E+01  0.00000000E+00
  7.70000000E+02  1.00000000E+01  0.00000000E+00
  7.80000000E+02  1.00000000E+01  0.00000000E+00
  7.90000000E+02  1.00000000E+01  0.00000000E+00
  8.00000000E+02  1.00000000E+01  0.00000000E+00
  8.10000000E+02  1.00000000E+01  0.00000000E+00
  8.20000000E+02  1.00000000E+01  0.00000000E+00
  8.30000000E+02  1.00000000E+01  0.00000000E+00
  8.40000000E+02  1.00000000E+01  0.00000000E+00
  8.50000000E+02  1.00000000E+01  0.00000000E+00
  8.60000000E+02  1.00000000E+01  0.00000000E+00
  8.70000000E+02  1.00000000E+01  0.00000000E+00
  8.80000000E+02  1.00000000E+01  0.00000000E+00
  8.90000000E+02  1.00000000E+01  0.00000000E+00
  9.00000000E+02  1.00000000E+01  0.00000000E+00
  9.10000000E+02  1.00000000E+01  0.00000000E+00
  9.20000000E+02  1.00000000E+01  0.00000000E+00
  9.30000000E+02  1.00000000E+01  0.00000000E+00
  9.40000000E+02  1.00000000E+01  0.00000000E+00
  9.50000000E+02  1.00000000E+01  0.00000000E+00
  9.60000000E+02  1.00000000E+01  0.00000000E+00
  9.70000000E+02  1.00000000E+01  0.00000000E+00
  9.80000000E+02  1.00000000E+01  0.00000000E+00
  9.90000000E+02  1.00000000E+01  0.00000000E+00
  1.00000000E+03  1.00000000E+01  0.00000000E+00
  0.00000000E+00  1.20000000E+01  0.00000000E+00
  1.00000000E+01  1.20000000E+01  0.00000000E+00
  2.00000000E+01  1.20000000E+01  0.00000000E+00
  3.00000000E+01  1.20000000E+01  0.00000000E+00
  4.00000000E+01  1.20000000E+01  0.00000000E+00
  5.00000000E+01  1.20000000E+01  0.00000000E+00
  6.00000000E+01  1.20000000E+01  0.00000000E+00
  7.00000000E+01  1.20000000E+01  0.00000000E+00
  8.00000000E+01  1.20000000E+01  0.00000000E+00
  9.00000000E+01  1.20000000E+01  0.00000000E+00
  1.00000000E+02  1.20000000E+01  0.00000000E+00
  1.10000000E+02  1.20000000E+01  0.00000000E+00
  1.20000000E+02  1.20000000E+01  0.00000000E+00
  1.30000000E+02  1.20000000E+01  0.00000000E+00
  1.40000000E+02  1.20000000E+01  0.00000000E+00
  1.50000000E+02  1.20000000E+01  0.00000000E+00
  1.60000000E+02  1.20000000E+01  0.00000000E+00
  1.70000000E+02  1.20000000E+01  0.00000000E+00
  1.80000000E+02  1.20000000E+01  0.00000000E+00
  1.90000000E+02  1.20000000E+01  0.00000000E+00
  2.00000000E+02  1.20000000E+01  0.00000000E+00
  2.10000000E+02  1.20000000E+01  0.00000000E+00
  2.20000000E+02  1.20000000E+01  0.00000000E+00
  2.30000000E+02  1.20000000E+01  0.00000000E+00
  2.40000000E+02  1.20000000E+01  0.00000000E+00
  2.50000000E+02  1.20000000E+01  0.00000000E+00
  2.60000000E+02  1.20000000E+01  0.00000000E+00
  2.70000000E+02  1.20000000E+01  0.00000000E+00
  2.80000000E+02  1.20000000E+01  0.00000000E+00
  2.90000000E+02  1.20000000E+01  0.00000000E+00
  3.00000000E+02  1.20000000E+01  0.00000000E+00
  3.10000000E+02  1.20000000E+01  0.00000000E+00
  3.20000000E+02  1.20000000E+01  0.00000000E+00
  3.30000000E+02  1.20000000E+01  0.00000000E+00
  3.40000000E+02  1.20000000E+01  0.00000000E+00
  3.50000000E+02  1.20000000E+01  0.00000000E+00
  3.60000000E+02  1.20000000E+01  0.00000000E+00
  3.70000000E+02  1.20000000E+01  0.00000000E+00
  3.80000000E+02  1.20000000E+01  0.00000000E+00
  3.90000000E+02  1.20000000E+01  0.00000000E+00
  4.00000000E+02  1.20000000E+01  0.00000000E+00
  4.10000000E+02  1.20000000E+01  0.00000000E+00
  4.20000000E+02  1.20000000E+01  0.00000000E+00
  4.30000000E+02  1.20000000E+01  0.00000000E+00
  4.40000000E+02  1.20000000E+01  0.00000000E+00
  4.50000000E+02  1.20000000E+01  0.00000000E+00
  4.60000000E+02  1.20000000E+01  0.00000000E+00
  4.70000000E+02  1.20000000E+01  0.00000000E+00
  4.80000000E+02  1.20000000E+01  0.00000000E+00
  4.90000000E+02  1.20000000E+01  0.00000000E+00
  5.00000000E+02  1.20000000E+01  0.00000000E+00
  5.10000000E+02  1.20000000E+01  0.00000000E+00
  5.20000000E+02  1.20000000E+01  0.00000000E+00
  5.30000000E+02  1.20000000E+01  0.00000000E+00
  5.40000000E+02  1.20000000E+01  0.00000000E+00
  5.50000000E+02  1.20000000E+01  0.00000000E+00
  5.60000000E+02  1.20000000E+01  0.00000000E+00
  5.70000000E+02  1.20000000E+01  0.00000000E+00
  5.80000000E+02  1.20000000E+01  0.00000000E+00
  5.90000000E+02  1.20000000E+01  0.00000000E+00
  6.00000000E+02  1.20000000E+01  0.00000000E+00
  6.10000000E+02  1.20000000E+01  0.00000000E+00
  6.20000000E+02  1.20000000E+01  0.00000000E+00
  6.30000000E+02  1.20000000E+01  0.00000000E+00
  6.40000000E+02  1.20000000E+01  0.00000000E+00
  6.50000000E+02  1.20000000E+01  0.00000000E+00
  6.60000000E+02  1.20000000E+01  0.00000000E+00
  6.70000000E+02  1.20000000E+01  0.00000000E+00
  6.80000000E+02  1.20000000E+01  0.00000000E+00
  6.90000000E+02  1.20000000E+01  0.00000000E+00
  7.00000000E+02  1.20000000E+01  0.00000000E+00
  7.10000000E+02  1.20000000E+01  0.00000000E+00
  7.20000000E+02  1.20000000E+01  0.00000000E+00
  7.30000000E+02  1.20000000E+01  0.00000000E+00
  7.40000000E+02  1.20000000E+01  0.00000000E+00
  7.50000000E+02  1.20000000E+01  0.00000000E+00
  7.60000000E+02  1.20000000E+01  0.00000000E+00
  7.70000000E+02  1.20000000E+01  0.00000000E+00
  7.80000000E+02  1.20000000E+01  0.00000000E+00
  7.90000000E+02  1.20000000E+01  0.00000000E+00
  8.00000000E+02  1.20000000E+01  0.00000000E+00
  8.10000000E+02  1.20000000E+01  0.00000000E+00
  8.20000000E+02  1.20000000E+01  0.00000000E+00
  8.30000000E+02  1.20000000E+01  0.00000000E+00
  8.40000000E+02  1.20000000E+01  0.00000000E+00
  8.50000000E+02  1.20000000E+01  0.00000000E+00
  8.60000000E+02  1.20000000E+01  0.00000000E+00
  8.70000000E+02  1.20000000E+01  0.00000000E+00
  8.80000000E+02  1.20000000E+01  0.00000000E+00
  8.90000000E+02  1.20000000E+01  0.00000000E+00
  9.00000000E+02  1.20000000E+01  0.00000000E+00
  9.10000000E+02  1.20000000E+01  0.00000000E+00
  9.20000000E+02  1.20000000E+01  0.00000000E+00
  9.30000000E+02  1.20000000E+01  0.00000000E+00
  9.40000000E+02  1.20000000E+01  0.00000000E+00
  9.50000000E+02  1.20000000E+01  0.00000000E+00
  9.60000000E+02  1.20000000E+01  0.00000000E+00
  9.70000000E+02  1.20000000E+01  0.00000000E+00
  9.80000000E+02  1.20000000E+01  0.00000000E+00
  9.90000000E+02  1.20000000E+01  0.00000000E+00
  1.00000000E+03  1.20000000E+01  0.00000000E+00
  0.00000000E+00  1.40000000E+01  0.00000000E+00
  1.00000000E+01  1.40000000E+01  0.00000000E+00
  2.00000000E+01  1.40000000E+01  0.00000000E+00
  3.00000000E+01  1.40000000E+01  0.00000000E+00
  4.00000000E+01  1.40000000E+01  0.00000000E+00
  5.00000000E+01  1.40000000E+01  0.00000000E+00
  6.00000000E+01  1.40000000E+01  0.00000000E+00
  7.00000000E+01  1.40000000E+01  0.00000000E+00
  8.00000000E+01  1.40000000E+01  0.00000000E+00
  9.00000000E+01  1.40000000E+01  0.00000000E+00
  1.00000000E+02  1.40000000E+01  0.00000000E+00
  1.10000000E+02  1.40000000E+01  0.00000000E+00
  1.20000000E+02  1.40000000E+01  0.00000000E+00
  1.30000000E+02  1.40000000E+01  0.00000000E+00
  1.40000000E+02  1.40000000E+01  0.00000000E+00
  1.50000000E+02  1.40000000E+01  0.00000000E+00
  1.60000000E+02  1.40000000E+01  0.00000000E+00
  1.70000000E+02  1.40000000E+01  0.00000000E+00
  1.80000000E+02  1.40000000E+01  0.00000000E+00
  1.90000000E+02  1.40000000E+01  0.00000000E+00
  2.00000000E+02  1.40000000E+01  0.00000000E+00
  2.10000000E+02  1.40000000E+01  0.00000000E+00
  2.20000000E+02  1.40000000E+01  0.00000000E+00
  2.30000000E+02  1.40000000E+01  0.00000000E+00
  2.40000000E+02  1.40000000E+01  0.00000000E+00
  2.50000000E+02  1.40000000E+01  0.00000000E+00
  2.60000000E+02  1.40000000E+01  0.00000000E+00
  2.70000000E+02  1.40000000E+01  0.00000000E+00
  2.80000000E+02  1.40000000E+01  0.00000000E+00
  2.90000000E+02  1.40000000E+01  0.00000000E+00
  3.00000000E+02  1.40000000E+01  0.00000000E+00
  3.10000000E+02  1.40000000E+01  0.00000000E+00
  3.20000000E+02  1.40000000E+01  0.00000000E+00
  3.30000000E+02  1.40000000E+01  0.00000000E+00
  3.40000000E+02  1.40000000E+01  0.00000000E+00
  3.50000000E+02  1.40000000E+01  0.00000000E+00
  3.60000000E+02  1.40000000E+01  0.00000000E+00
  3.70000000E+02  1.40000000E+01  0.00000000E+00
  3.80000000E+02  1.40000000E+01  0.00000000E+00
  3.90000000E+02  1.40000000E+01  0.00000000E+00
  4.00000000E+02  1.40000000E+01  0.00000000E+00
  4.10000000E+02  1.40000000E+01  0.00000000E+00
  4.20000000E+02  1.40000000E+01  0.00000000E+00
  4.30000000E+02  1.40000000E+01  0.00000000E+00
  4.40000000E+02  1.40000000E+01  0.00000000E+00
  4.50000000E+02  1.40000000E+01  0.00000000E+00
  4.60000000E+02  1.40000000E+01  0.00000000E+00
  4.70000000E+02  1.40000000E+01  0.00000000E+00
  4.80000000E+02  1.40000000E+01  0.00000000E+00
  4.90000000E+02  1.40000000E+01  0.00000000E+00
  5.00000000E+02  1.40000000E+01  0.00000000E+00
  5.10000000E+02  1.40000000E+01  0.00000000E+00
  5.20000000E+02  1.40000000E+01  0.00000000E+00
  5.30000000E+02  1.40000000E+01  0.00000000E+00
  5.40000000E+02  1.40000000E+01  0.00000000E+00
  5.50000000E+02  1.40000000E+01  0.00000000E+00
  5.60000000E+02  1.40000000E+01  0.00000000E+00
  5.70000000E+02  1.40000000E+01  0.00000000E+00
  5.80000000E+02  1.40000000E+01  0.00000000E+00
  5.90000000E+02  1.40000000E+01  0.00000000E+00
  6.00000000E+02  1.40000000E+01  0.00000000E+00
  6.10000000E+02  1.40000000E+01  0.00000000E+00
  6.20000000E+02  1.40000000E+01  0.00000000E+00
  6.30000000E+02  1.40000000E+01  0.00000000E+00
  6.40000000E+02  1.40000000E+01  0.00000000E+00
  6.50000000E+02  1.40000000E+01  0.00000000E+00
  6.60000000E+02  1.40000000E+01  0.00000000E+00
  6.70000000E+02  1.40000000E+01  0.00000000E+00
  6.80000000E+02  1.40000000E+01  0.00000000E+00
  6.90000000E+02  1.40000000E+01  0.00000000E+00
  7.00000000E+02  1.40000000E+01  0.00000000E+00
  7.10000000E+02  1.40000000E+01  0.00000000E+00
  7.20000000E+02  1.40000000E+01  0.00000000E+00
  7.30000000E+02  1.40000000E+01  0.00000000E+00
  7.40000000E+02  1.40000000E+01  0.00000000E+00
  7.50000000E+02  1.40000000E+01  0.00000000E+00
  7.60000000E+02  1.40000000E+01  0.00000000E+00
  7.70000000E+02  1.40000000E+01  0.00000000E+00
  7.80000000E+02  1.40000000E+01  0.00000000E+00
  7.90000000E+02  1.40000000E+01  0.00000000E+00
  8.00000000E+02  1.40000000E+01  0.00000000E+00
  8.10000000E+02  1.40000000E+01  0.00000000E+00
  8.20000000E+02  1.40000000E+01  0.00000000E+00
  8.30000000E+02  1.40000000E+01  0.00000000E+00
  8.40000000E+02  1.40000000E+01  0.00000000E+00
  8.50000000E+02  1.40000000E+01  0.00000000E+00
  8.60000000E+02  1.40000000E+01  0.00000000E+00
  8.70000000E+02  1.40000000E+01  0.00000000E+00
  8.80000000E+02  1.40000000E+01  0.00000000E+00
  8.90000000E+02  1.40000000E+01  0.00000000E+00
  9.00000000E+02  1.40000000E+01  0.00000000E+00
  9.10000000E+02  1.40000000E+01  0.00000000E+00
  9.20000000E+02  1.40000000E+01  0.00000000E+00
  9.30000000E+02  1.40000000E+01  0.00000000E+00
  9.40000000E+02  1.40000000E+01  0.00000000E+00
  9.50000000E+02  1.40000000E+01  0.00000000E+00
  9.60000000E+02  1.40000000E+01  0.00000000E+00
  9.70000000E+02  1.40000000E+01  0.00000000E+00
  9.80000000E+02  1.40000000E+01  0.00000000E+00
  9.90000000E+02  1.40000000E+01  0.00000000E+00
  1.00000000E+03  1.40000000E+01  0.00000000E+00
  0.00000000E+00  1.60000000E+01  0.00000000E+00
  1.00000000E+01  1.60000000E+01  0.00000000E+00
  2.00000000E+01  1.60000000E+01  0.00000000E+00
  3.00000000E+01  1.60000000E+01  0.00000000E+00
  4.00000000E+01  1.60000000E+01  0.00000000E+00
  5.00000000E+01  1.60000000E+01  0.00000000E+00
  6.00000000E+01  1.60000000E+01  0.00000000E+00
  7.00000000E+01  1.60000000E+01  0.00000000E+00
  8.00000000E+01  1.60000000E+01  0.00000000E+00
  9.00000000E+01  1.60000000E+01  0.00000000E+00
  1.00000000E+02  1.60000000E+01  0.00000000E+00
  1.10000000E+02  1.60000000E+01  0.00000000E+00
  1.20000000E+02  1.60000000E+01  0.00000000E+00
  1.30000000E+02  1.60000000E+01  0.00000000E+00
  1.40000000E+02  1.60000000E+01  0.00000000E+00
  1.50000000E+02  1.60000000E+01  0.00000000E+00
  1.60000000E+02  1.60000000E+01  0.00000000E+00
  1.70000000E+02  1.60000000E+01  0.00000000E+00
  1.80000000E+02  1.60000000E+01  0.00000000E+00
  1.90000000E+02  1.60000000E+01  0.00000000E+00
  2.00000000E+02  1.60000000E+01  0.00000000E+00
  2.10000000E+02  1.60000000E+01  0.00000000E+00
  2.20000000E+02  1.60000000E+01  0.00000000E+00
  2.30000000E+02  1.60000000E+01  0.00000000E+00
  2.40000000E+02  1.60000000E+01  0.00000000E+00
  2.50000000E+02  1.60000000E+01  0.00000000E+00
  2.60000000E+02  1.60000000E+01  0.00000000E+00
  2.70000000E+02  1.60000000E+01  0.00000000E+00
  2.80000000E+02  1.60000000E+01  0.00000000E+00
  2.90000000E+02  1.60000000E+01  0.00000000E+00
  3.00000000E+02  1.60000000E+01  0.00000000E+00
  3.10000000E+02  1.60000000E+01  0.00000000E+00
  3.20000000E+02  1.60000000E+01  0.00000000E+00
  3.30000000E+02  1.60000000E+01  0.00000000E+00
  3.40000000E+02  1.60000000E+01  0.00000000E+00
  3.50000000E+02  1.60000000E+01  0.00000000E+00
  3.60000000E+02  1.60000000E+01  0.00000000E+00
  3.70000000E+02  1.60000000E+01  0.00000000E+00
  3.80000000E+02  1.60000000E+01  0.00000000E+00
  3.90000000E+02  1.60000000E+01  0.00000000E+00
  4.00000000E+02  1.60000000E+01  0.00000000E+00
  4.10000000E+02  1.60000000E+01  0.00000000E+00
  4.20000000E+02  1.60000000E+01  0.00000000E+00
  4.30000000E+02  1.60000000E+01  0.00000000E+00
  4.40000000E+02  1.60000000E+01  0.00000000E+00
  4.50000000E+02  1.60000000E+01  0.00000000E+00
  4.60000000E+02  1.60000000E+01  0.00000000E+00
  4.70000000E+02  1.60000000E+01  0.00000000E+00
  4.80000000E+02  1.60000000E+01  0.00000000E+00
  4.90000000E+02  1.60000000E+01  0.00000000E+00
  5.00000000E+02  1.60000000E+01  0.00000000E+00
  5.10000000E+02  1.60000000E+01  0.00000000E+00
  5.20000000E+02  1.60000000E+01  0.00000000E+00
  5.30000000E+02  1.60000000E+01  0.00000000E+00
  5.40000000E+02  1.60000000E+01  0.00000000E+00
  5.50000000E+02  1.60000000E+01  0.00000000E+00
  5.60000000E+02  1.60000000E+01  0.00000000E+00
  5.70000000E+02  1.60000000E+01  0.00000000E+00
  5.80000000E+02  1.60000000E+01  0.00000000E+00
  5.90000000E+02  1.60000000E+01  0.00000000E+00
  6.00000000E+02  1.60000000E+01  0.00000000E+00
  6.10000000E+02  1.60000000E+01  0.00000000E+00
  6.20000000E+02  1.60000000E+01  0.00000000E+00
  6.30000000E+02  1.60000000E+01  0.00000000E+00
  6.40000000E+02  1.60000000E+01  0.00000000E+00
  6.50000000E+02  1.60000000E+01  0.00000000E+00
  6.60000000E+02  1.60000000E+01  0.00000000E+00
  6.70000000E+02  1.60000000E+01  0.00000000E+00
  6.80000000E+02  1.60000000E+01  0.00000000E+00
  6.90000000E+02  1.60000000E+01  0.00000000E+00
  7.00000000E+02  1.60000000E+01  0.00000000E+00
  7.10000000E+02  1.60000000E+01  0.00000000E+00
  7.20000000E+02  1.60000000E+01  0.00000000E+00
  7.30000000E+02  1.60000000E+01  0.00000000E+00
  7.40000000E+02  1.60000000E+01  0.00000000E+00
  7.50000000E+02  1.60000000E+01  0.00000000E+00
  7.60000000E+02  1.60000000E+01  0.00000000E+00
  7.70000000E+02  1.60000000E+01  0.00000000E+00
  7.80000000E+02  1.60000000E+01  0.00000000E+00
  7.90000000E+02  1.60000000E+01  0.00000000E+00
  8.00000000E+02  1.60000000E+01  0.00000000E+00
  8.10000000E+02  1.60000000E+01  0.00000000E+00
  8.20000000E+02  1.60000000E+01  0.00000000E+00
  8.30000000E+02  1.60000000E+01  0.00000000E+00
  8.40000000E+02  1.60000000E+01  0.00000000E+00
  8.50000000E+02  1.60000000E+01  0.00000000E+00
  8.60000000E+02  1.60000000E+01  0.00000000E+00
  8.70000000E+02  1.60000000E+01  0.00000000E+00
  8.80000000E+02  1.60000000E+01  0.00000000E+00
  8.90000000E+02  1.60000000E+01  0.00000000E+00
  9.00000000E+02  1.60000000E+01  0.00000000E+00
  9.10000000E+02  1.60000000E+01  0.00000000E+00
  9.20000000E+02  1.60000000E+01  0.00000000E+00
  9.30000000E+02  1.60000000E+01  0.00000000E+00
  9.40000000E+02  1.60000000E+01  0.00000000E+00
  9.50000000E+02  1.60000000E+01  0.00000000E+00
  9.60000000E+02  1.60000000E+01  0.00000000E+00
  9.70000000E+02  1.60000000E+01  0.00000000E+00
  9.80000000E+02  1.60000000E+01  0.00000000E+00
  9.90000000E+02  1.60000000E+01  0.00000000E+00
  1.00000000E+03  1.60000000E+01  0.00000000E+00
  0.00000000E+00  1.80000000E+01  0.00000000E+00
  1.00000000E+01  1.80000000E+01  0.00000000E+00
  2.00000000E+01  1.80000000E+01  0.00000000E+00
  3.00000000E+01  1.80000000E+01  0.00000000E+00
  4.00000000E+01  1.80000000E+01  0.00000000E+00
  5.00000000E+01  1.80000000E+01  0.00000000E+00
  6.00000000E+01  1.80000000E+01  0.00000000E+00
  7.00000000E+01  1.80000000E+01  0.00000000E+00
  8.00000000E+01  1.80000000E+01  0.00000000E+00
  9.00000000E+01  1.80000000E+01  0.00000000E+00
  1.00000000E+02  1.80000000E+01  0.00000000E+00
  1.10000000E+02  1.80000000E+01  0.00000000E+00
  1.20000000E+02  1.80000000E+01  0.00000000E+00
  1.30000000E+02  1.80000000E+01  0.00000000E+00
  1.40000000E+02  1.80000000E+01  0.00000000E+00
  1.50000000E+02  1.80000000E+01  0.00000000E+00
  1.60000000E+02  1.80000000E+01  0.00000000E+00
  1.70000000E+02  1.80000000E+01  0.00000000E+00
  1.80000000E+02  1.80000000E+01  0.00000000E+00
  1.90000000E+02  1.80000000E+01  0.00000000E+00
  2.00000000E+02  1.80000000E+01  0.00000000E+00
  2.10000000E+02  1.80000000E+01  0.00000000E+00
  2.20000000E+02  1.80000000E+01  0.00000000E+00
  2.30000000E+02  1.80000000E+01  0.00000000E+00
  2.40000000E+02  1.80000000E+01  0.00000000E+00
  2.50000000E+02  1.80000000E+01  0.00000000E+00
  2.60000000E+02  1.80000000E+01  0.00000000E+00
  2.70000000E+02  1.80000000E+01  0.00000000E+00
  2.80000000E+02  1.80000000E+01  0.00000000E+00
  2.90000000E+02  1.80000000E+01  0.00000000E+00
  3.00000000E+02  1.80000000E+01  0.00000000E+00
  3.10000000E+02  1.80000000E+01  0.00000000E+00
  3.20000000E+02  1.80000000E+01  0.00000000E+00
  3.30000000E+02  1.80000000E+01  0.00000000E+00
  3.40000000E+02  1.80000000E+01  0.00000000E+00
  3.50000000E+02  1.80000000E+01  0.00000000E+00
  3.60000000E+02  1.80000000E+01  0.00000000E+00
  3.70000000E+02  1.80000000E+01  0.00000000E+00
  3.80000000E+02  1.80000000E+01  0.00000000E+00
  3.90000000E+02  1.80000000E+01  0.00000000E+00
  4.00000000E+02  1.80000000E+01  0.00000000E+00
  4.10000000E+02  1.80000000E+01  0.00000000E+00
  4.20000000E+02  1.80000000E+01  0.00000000E+00
  4.30000000E+02  1.80000000E+01  0.00000000E+00
  4.40000000E+02  1.80000000E+01  0.00000000E+00
  4.50000000E+02  1.80000000E+01  0.00000000E+00
  4.60000000E+02  1.80000000E+01  0.00000000E+00
  4.70000000E+02  1.80000000E+01  0.00000000E+00
  4.80000000E+02  1.80000000E+01  0.00000000E+00
  4.90000000E+02  1.80000000E+01  0.00000000E+00
  5.00000000E+02  1.80000000E+01  0.00000000E+00
  5.10000000E+02  1.80000000E+01  0.00000000E+00
  5.20000000E+02  1.80000000E+01  0.00000000E+00
  5.30000000E+02  1.80000000E+01  0.00000000E+00
  5.40000000E+02  1.80000000E+01  0.00000000E+00
  5.50000000E+02  1.80000000E+01  0.00000000E+00
  5.60000000E+02  1.80000000E+01  0.00000000E+00
  5.70000000E+02  1.80000000E+01  0.00000000E+00
  5.80000000E+02  1.80000000E+01  0.00000000E+00
  5.90000000E+02  1.80000000E+01  0.00000000E+00
  6.00000000E+02  1.80000000E+01  0.00000000E+00
  6.10000000E+02  1.80000000E+01  0.00000000E+00
  6.20000000E+02  1.80000000E+01  0.00000000E+00
  6.30000000E+02  1.80000000E+01  0.00000000E+00
  6.40000000E+02  1.80000000E+01  0.00000000E+00
  6.50000000E+02  1.80000000E+01  0.00000000E+00
  6.60000000E+02  1.80000000E+01  0.00000000E+00
  6.70000000E+02  1.80000000E+01  0.00000000E+00
  6.80000000E+02  1.80000000E+01  0.00000000E+00
  6.90000000E+02  1.80000000E+01  0.00000000E+00
  7.00000000E+02  1.80000000E+01  0.00000000E+00
  7.10000000E+02  1.80000000E+01  0.00000000E+00
  7.20000000E+02  1.80000000E+01  0.00000000E+00
  7.30000000E+02  1.80000000E+01  0.00000000E+00
  7.40000000E+02  1.80000000E+01  0.00000000E+00
  7.50000000E+02  1.80000000E+01  0.00000000E+00
  7.60000000E+02  1.80000000E+01  0.00000000E+00
  7.70000000E+02  1.80000000E+01  0.00000000E+00
  7.80000000E+02  1.80000000E+01  0.00000000E+00
  7.90000000E+02  1.80000000E+01  0.00000000E+00
  8.00000000E+02  1.80000000E+01  0.00000000E+00
  8.10000000E+02  1.80000000E+01  0.00000000E+00
  8.20000000E+02  1.80000000E+01  0.00000000E+00
  8.30000000E+02  1.80000000E+01  0.00000000E+00
  8.40000000E+02  1.80000000E+01  0.00000000E+00
  8.50000000E+02  1.80000000E+01  0.00000000E+00
  8.60000000E+02  1.80000000E+01  0.00000000E+00
  8.70000000E+02  1.80000000E+01  0.00000000E+00
  8.80000000E+02  1.80000000E+01  0.00000000E+00
  8.90000000E+02  1.80000000E+01  0.00000000E+00
  9.00000000E+02  1.80000000E+01  0.00000000E+00
  9.10000000E+02  1.80000000E+01  0.00000000E+00
  9.20000000E+02  1.80000000E+01  0.00000000E+00
  9.30000000E+02  1.80000000E+01  0.00000000E+00
  9.40000000E+02  1.80000000E+01  0.00000000E+00
  9.50000000E+02  1.80000000E+01  0.00000000E+00
  9.60000000E+02  1.80000000E+01  0.00000000E+00
  9.70000000E+02  1.80000000E+01  0.00000000E+00
  9.80000000E+02  1.80000000E+01  0.00000000E+00
  9.90000000E+02  1.80000000E+01  0.00000000E+00
  1.00000000E+03  1.80000000E+01  0.00000000E+00
  0.00000000E+00  2.00000000E+01  0.00000000E+00
  1.00000000E+01  2.00000000E+01  0.00000000E+00
  2.00000000E+01  2.00000000E+01  0.00000000E+00
  3.00000000E+01  2.00000000E+01  0.00000000E+00
  4.00000000E+01  2.00000000E+01  0.00000000E+00
  5.00000000E+01  2.00000000E+01  0.00000000E+00
  6.00000000E+01  2.00000000E+01  0.00000000E+00
  7.00000000E+01  2.00000000E+01  0.00000000E+00
  8.00000000E+01  2.00000000E+01  0.00000000E+00
  9.00000000E+01  2.00000000E+01  0.00000000E+00
  1.00000000E+02  2.00000000E+01  0.00000000E+00
  1.10000000E+02  2.00000000E+01  0.00000000E+00
  1.20000000E+02  2.00000000E+01  0.00000000E+00
  1.30000000E+02  2.00000000E+01  0.00000000E+00
  1.40000000E+02  2.00000000E+01  0.00000000E+00
  1.50000000E+02  2.00000000E+01  0.00000000E+00
  1.60000000E+02  2.00000000E+01  0.00000000E+00
  1.70000000E+02  2.00000000E+01  0.00000000E+00
  1.80000000E+02  2.00000000E+01  0.00000000E+00
  1.90000000E+02  2.00000000E+01  0.00000000E+00
  2.00000000E+02  2.00000000E+01  0.00000000E+00
  2.10000000E+02  2.00000000E+01  0.00000000E+00
  2.20000000E+02  2.00000000E+01  0.00000000E+00
  2.30000000E+02  2.00000000E+01  0.00000000E+00
  2.40000000E+02  2.00000000E+01  0.00000000E+00
  2.50000000E+02  2.00000000E+01  0.00000000E+00
  2.60000000E+02  2.00000000E+01  0.00000000E+00
  2.70000000E+02  2.00000000E+01  0.00000000E+00
  2.80000000E+02  2.00000000E+01  0.00000000E+00
  2.90000000E+02  2.00000000E+01  0.00000000E+00
  3.00000000E+02  2.00000000E+01  0.00000000E+00
  3.10000000E+02  2.00000000E+01  0.00000000E+00
  3.20000000E+02  2.00000000E+01  0.00000000E+00
  3.30000000E+02  2.00000000E+01  0.00000000E+00
  3.40000000E+02  2.00000000E+01  0.00000000E+00
  3.50000000E+02  2.00000000E+01  0.00000000E+00
  3.60000000E+02  2.00000000E+01  0.00000000E+00
  3.70000000E+02  2.00000000E+01  0.00000000E+00
  3.80000000E+02  2.00000000E+01  0.00000000E+00
  3.90000000E+02  2.00000000E+01  0.00000000E+00
  4.00000000E+02  2.00000000E+01  0.00000000E+00
  4.10000000E+02  2.00000000E+01  0.00000000E+00
  4.20000000E+02  2.00000000E+01  0.00000000E+00
  4.30000000E+02  2.00000000E+01  0.00000000E+00
  4.40000000E+02  2.00000000E+01  0.00000000E+00
  4.50000000E+02  2.00000000E+01  0.00000000E+00
  4.60000000E+02  2.00000000E+01  0.00000000E+00
  4.70000000E+02  2.00000000E+01  0.00000000E+00
  4.80000000E+02  2.00000000E+01  0.00000000E+00
  4.90000000E+02  2.00000000E+01  0.00000000E+00
  5.00000000E+02  2.00000000E+01  0.00000000E+00
  5.10000000E+02  2.00000000E+01  0.00000000E+00
  5.20000000E+02  2.00000000E+01  0.00000000E+00
  5.30000000E+02  2.00000000E+01  0.00000000E+00
  5.40000000E+02  2.00000000E+01  0.00000000E+00
  5.50000000E+02  2.00000000E+01  0.00000000E+00
  5.60000000E+02  2.00000000E+01  0.00000000E+00
  5.70000000E+02  2.00000000E+01  0.00000000E+00
  5.80000000E+02  2.00000000E+01  0.00000000E+00
  5.90000000E+02  2.00000000E+01  0.00000000E+00
  6.00000000E+02  2.00000000E+01  0.00000000E+00
  6.10000000E+02  2.00000000E+01  0.00000000E+00
  6.20000000E+02  2.00000000E+01  0.00000000E+00
  6.30000000E+02  2.00000000E+01  0.00000000E+00
  6.40000000E+02  2.00000000E+01  0.00000000E+00
  6.50000000E+02  2.00000000E+01  0.00000000E+00
  6.60000000E+02  2.00000000E+01  0.00000000E+00
  6.70000000E+02  2.00000000E+01  0.00000000E+00
  6.80000000E+02  2.00000000E+01  0.00000000E+00
  6.90000000E+02  2.00000000E+01  0.00000000E+00
  7.00000000E+02  2.00000000E+01  0.00000000E+00
  7.10000000E+02  2.00000000E+01  0.00000000E+00
  7.20000000E+02  2.00000000E+01  0.00000000E+00
  7.30000000E+02  2.00000000E+01  0.00000000E+00
  7.40000000E+02  2.00000000E+01  0.00000000E+00
  7.50000000E+02  2.00000000E+01  0.00000000E+00
  7.60000000E+02  2.00000000E+01  0.00000000E+00
  7.70000000E+02  2.00000000E+01  0.00000000E+00
  7.80000000E+02  2.00000000E+01  0.00000000E+00
  7.90000000E+02  2.00000000E+01  0.00000000E+00
  8.00000000E+02  2.00000000E+01  0.00000000E+00
  8.10000000E+02  2.00000000E+01  0.00000000E+00
  8.20000000E+02  2.00000000E+01  0.00000000E+00
  8.30000000E+02  2.00000000E+01  0.00000000E+00
  8.40000000E+02  2.00000000E+01  0.00000000E+00
  8.50000000E+02  2.00000000E+01  0.00000000E+00
  8.60000000E+02  2.00000000E+01  0.00000000E+00
  8.70000000E+02  2.00000000E+01  0.00000000E+00
  8.80000000E+02  2.00000000E+01  0.00000000E+00
  8.90000000E+02  2.00000000E+01  0.00000000E+00
  9.00000000E+02  2.00000000E+01  0.00000000E+00
  9.10000000E+02  2.00000000E+01  0.00000000E+00
  9.20000000E+02  2.00000000E+01  0.00000000E+00
  9.30000000E+02  2.00000000E+01  0.00000000E+00
  9.40000000E+02  2.00000000E+01  0.00000000E+00
  9.50000000E+02  2.00000000E+01  0.00000000E+00
  9.60000000E+02  2.00000000E+01  0.00000000E+00
  9.70000000E+02  2.00000000E+01  0.00000000E+00
  9.80000000E+02  2.00000000E+01  0.00000000E+00
  9.90000000E+02  2.00000000E+01  0.00000000E+00
  1.00000000E+03  2.00000000E+01  0.00000000E+00
  0.00000000E+00  2.20000000E+01  0.00000000E+00
  1.00000000E+01  2.20000000E+01  0.00000000E+00
  2.00000000E+01  2.20000000E+01  0.00000000E+00
  3.00000000E+01  2.20000000E+01  0.00000000E+00
  4.00000000E+01  2.20000000E+01  0.00000000E+00
  5.00000000E+01  2.20000000E+01  0.00000000E+00
  6.00000000E+01  2.20000000E+01  0.00000000E+00
  7.00000000E+01  2.20000000E+01  0.00000000E+00
  8.00000000E+01  2.20000000E+01  0.00000000E+00
  9.00000000E+01  2.20000000E+01  0.00000000E+00
  1.00000000E+02  2.20000000E+01  0.00000000E+00
  1.10000000E+02  2.20000000E+01  0.00000000E+00
  1.20000000E+02  2.20000000E+01  0.00000000E+00
  1.30000000E+02  2.20000000E+01  0.00000000E+00
  1.40000000E+02  2.20000000E+01  0.00000000E+00
  1.50000000E+02  2.20000000E+01  0.00000000E+00
  1.60000000E+02  2.20000000E+01  0.00000000E+00
  1.70000000E+02  2.20000000E+01  0.00000000E+00
  1.80000000E+02  2.20000000E+01  0.00000000E+00
  1.90000000E+02  2.20000000E+01  0.00000000E+00
  2.00000000E+02  2.20000000E+01  0.00000000E+00
  2.10000000E+02  2.20000000E+01  0.00000000E+00
  2.20000000E+02  2.20000000E+01  0.00000000E+00
  2.30000000E+02  2.20000000E+01  0.00000000E+00
  2.40000000E+02  2.20000000E+01  0.00000000E+00
  2.50000000E+02  2.20000000E+01  0.00000000E+00
  2.60000000E+02  2.20000000E+01  0.00000000E+00
  2.70000000E+02  2.20000000E+01  0.00000000E+00
  2.80000000E+02  2.20000000E+01  0.00000000E+00
  2.90000000E+02  2.20000000E+01  0.00000000E+00
  3.00000000E+02  2.20000000E+01  0.00000000E+00
  3.10000000E+02  2.20000000E+01  0.00000000E+00
  3.20000000E+02  2.20000000E+01  0.00000000E+00
  3.30000000E+02  2.20000000E+01  0.00000000E+00
  3.40000000E+02  2.20000000E+01  0.00000000E+00
  3.50000000E+02  2.20000000E+01  0.00000000E+00
  3.60000000E+02  2.20000000E+01  0.00000000E+00
  3.70000000E+02  2.20000000E+01  0.00000000E+00
  3.80000000E+02  2.20000000E+01  0.00000000E+00
  3.90000000E+02  2.20000000E+01  0.00000000E+00
  4.00000000E+02  2.20000000E+01  0.00000000E+00
  4.10000000E+02  2.20000000E+01  0.00000000E+00
  4.20000000E+02  2.20000000E+01  0.00000000E+00
  4.30000000E+02  2.20000000E+01  0.00000000E+00
  4.40000000E+02  2.20000000E+01  0.00000000E+00
  4.50000000E+02  2.20000000E+01  0.00000000E+00
  4.60000000E+02  2.20000000E+01  0.00000000E+00
  4.70000000E+02  2.20000000E+01  0.00000000E+00
  4.80000000E+02  2.20000000E+01  0.00000000E+00
  4.90000000E+02  2.20000000E+01  0.00000000E+00
  5.00000000E+02  2.20000000E+01  0.00000000E+00
  5.10000000E+02  2.20000000E+01  0.00000000E+00
  5.20000000E+02  2.20000000E+01  0.00000000E+00
  5.30000000E+02  2.20000000E+01  0.00000000E+00
  5.40000000E+02  2.20000000E+01  0.00000000E+00
  5.50000000E+02  2.20000000E+01  0.00000000E+00
  5.60000000E+02  2.20000000E+01  0.00000000E+00
  5.70000000E+02  2.20000000E+01  0.00000000E+00
  5.80000000E+02  2.20000000E+01  0.00000000E+00
  5.90000000E+02  2.20000000E+01  0.00000000E+00
  6.00000000E+02  2.20000000E+01  0.00000000E+00
  6.10000000E+02  2.20000000E+01  0.00000000E+00
  6.20000000E+02  2.20000000E+01  0.00000000E+00
  6.30000000E+02  2.20000000E+01  0.00000000E+00
  6.40000000E+02  2.20000000E+01  0.00000000E+00
  6.50000000E+02  2.20000000E+01  0.00000000E+00
  6.60000000E+02  2.20000000E+01  0.00000000E+00
  6.70000000E+02  2.20000000E+01  0.00000000E+00
  6.80000000E+02  2.20000000E+01  0.00000000E+00
  6.90000000E+02  2.20000000E+01  0.00000000E+00
  7.00000000E+02  2.20000000E+01  0.00000000E+00
  7.10000000E+02  2.20000000E+01  0.00000000E+00
  7.20000000E+02  2.20000000E+01  0.00000000E+00
  7.30000000E+02  2.20000000E+01  0.00000000E+00
  7.40000000E+02  2.20000000E+01  0.00000000E+00
  7.50000000E+02  2.20000000E+01  0.00000000E+00
  7.60000000E+02  2.20000000E+01  0.00000000E+00
  7.70000000E+02  2.20000000E+01  0.00000000E+00
  7.80000000E+02  2.20000000E+01  0.00000000E+00
  7.90000000E+02  2.20000000E+01  0.00000000E+00
  8.00000000E+02  2.20000000E+01  0.00000000E+00
  8.10000000E+02  2.20000000E+01  0.00000000E+00
  8.20000000E+02  2.20000000E+01  0.00000000E+00
  8.30000000E+02  2.20000000E+01  0.00000000E+00
  8.40000000E+02  2.20000000E+01  0.00000000E+00
  8.50000000E+02  2.20000000E+01  0.00000000E+00
  8.60000000E+02  2.20000000E+01  0.00000000E+00
  8.70000000E+02  2.20000000E+01  0.00000000E+00
  8.80000000E+02  2.20000000E+01  0.00000000E+00
  8.90000000E+02  2.20000000E+01  0.00000000E+00
  9.00000000E+02  2.20000000E+01  0.00000000E+00
  9.10000000E+02  2.20000000E+01  0.00000000E+00
  9.20000000E+02  2.20000000E+01  0.00000000E+00
  9.30000000E+02  2.20000000E+01  0.00000000E+00
  9.40000000E+02  2.20000000E+01  0.00000000E+00
  9.50000000E+02  2.20000000E+01  0.00000000E+00
  9.60000000E+02  2.20000000E+01  0.00000000E+00
  9.70000000E+02  2.20000000E+01  0.00000000E+00
  9.80000000E+02  2.20000000E+01  0.00000000E+00
  9.90000000E+02  2.20000000E+01  0.00000000E+00
  1.00000000E+03  2.20000000E+01  0.00000000E+00
  0.00000000E+00  2.40000000E+01  0.00000000E+00
  1.00000000E+01  2.40000000E+01  0.00000000E+00
  2.00000000E+01  2.40000000E+01  0.00000000E+00
  3.00000000E+01  2.40000000E+01  0.00000000E+00
  4.00000000E+01  2.40000000E+01  0.00000000E+00
  5.00000000E+01  2.40000000E+01  0.00000000E+00
  6.00000000E+01  2.40000000E+01  0.00000000E+00
  7.00000000E+01  2.40000000E+01  0.00000000E+00
  8.00000000E+01  2.40000000E+01  0.00000000E+00
  9.00000000E+01  2.40000000E+01  0.00000000E+00
  1.00000000E+02  2.40000000E+01  0.00000000E+00
  1.10000000E+02  2.40000000E+01  0.00000000E+00
  1.20000000E+02  2.40000000E+01  0.00000000E+00
  1.30000000E+02  2.40000000E+01  0.00000000E+00
  1.40000000E+02  2.40000000E+01  0.00000000E+00
  1.50000000E+02  2.40000000E+01  0.00000000E+00
  1.60000000E+02  2.40000000E+01  0.00000000E+00
  1.70000000E+02  2.40000000E+01  0.00000000E+00
  1.80000000E+02  2.40000000E+01  0.00000000E+00
  1.90000000E+02  2.40000000E+01  0.00000000E+00
  2.00000000E+02  2.40000000E+01  0.00000000E+00
  2.10000000E+02  2.40000000E+01  0.00000000E+00
  2.20000000E+02  2.40000000E+01  0.00000000E+00
  2.30000000E+02  2.40000000E+01  0.00000000E+00
  2.40000000E+02  2.40000000E+01  0.00000000E+00
  2.50000000E+02  2.40000000E+01  0.00000000E+00
  2.60000000E+02  2.40000000E+01  0.00000000E+00
  2.70000000E+02  2.40000000E+01  0.00000000E+00
  2.80000000E+02  2.40000000E+01  0.00000000E+00
  2.90000000E+02  2.40000000E+01  0.00000000E+00
  3.00000000E+02  2.40000000E+01  0.00000000E+00
  3.10000000E+02  2.40000000E+01  0.00000000E+00
  3.20000000E+02  2.40000000E+01  0.00000000E+00
  3.30000000E+02  2.40000000E+01  0.00000000E+00
  3.40000000E+02  2.40000000E+01  0.00000000E+00
  3.50000000E+02  2.40000000E+01  0.00000000E+00
  3.60000000E+02  2.40000000E+01  0.00000000E+00
  3.70000000E+02  2.40000000E+01  0.00000000E+00
  3.80000000E+02  2.40000000E+01  0.00000000E+00
  3.90000000E+02  2.40000000E+01  0.00000000E+00
  4.00000000E+02  2.40000000E+01  0.00000000E+00
  4.10000000E+02  2.40000000E+01  0.00000000E+00
  4.20000000E+02  2.40000000E+01  0.00000000E+00
  4.30000000E+02  2.40000000E+01  0.00000000E+00
  4.40000000E+02  2.40000000E+01  0.00000000E+00
  4.50000000E+02  2.40000000E+01  0.00000000E+00
  4.60000000E+02  2.40000000E+01  0.00000000E+00
  4.70000000E+02  2.40000000E+01  0.00000000E+00
  4.80000000E+02  2.40000000E+01  0.00000000E+00
  4.90000000E+02  2.40000000E+01  0.00000000E+00
  5.00000000E+02  2.40000000E+01  0.00000000E+00
  5.10000000E+02  2.40000000E+01  0.00000000E+00
  5.20000000E+02  2.40000000E+01  0.00000000E+00
  5.30000000E+02  2.40000000E+01  0.00000000E+00
  5.40000000E+02  2.40000000E+01  0.00000000E+00
  5.50000000E+02  2.40000000E+01  0.00000000E+00
  5.60000000E+02  2.40000000E+01  0.00000000E+00
  5.70000000E+02  2.40000000E+01  0.00000000E+00
  5.80000000E+02  2.40000000E+01  0.00000000E+00
  5.90000000E+02  2.40000000E+01  0.00000000E+00
  6.00000000E+02  2.40000000E+01  0.00000000E+00
  6.10000000E+02  2.40000000E+01  0.00000000E+00
  6.20000000E+02  2.40000000E+01  0.00000000E+00
  6.30000000E+02  2.40000000E+01  0.00000000E+00
  6.40000000E+02  2.40000000E+01  0.00000000E+00
  6.50000000E+02  2.40000000E+01  0.00000000E+00
  6.60000000E+02  2.40000000E+01  0.00000000E+00
  6.70000000E+02  2.40000000E+01  0.00000000E+00
  6.80000000E+02  2.40000000E+01  0.00000000E+00
  6.90000000E+02  2.40000000E+01  0.00000000E+00
  7.00000000E+02  2.40000000E+01  0.00000000E+00
  7.10000000E+02  2.40000000E+01  0.00000000E+00
  7.20000000E+02  2.40000000E+01  0.00000000E+00
  7.30000000E+02  2.40000000E+01  0.00000000E+00
  7.40000000E+02  2.40000000E+01  0.00000000E+00
  7.50000000E+02  2.40000000E+01  0.00000000E+00
  7.60000000E+02  2.40000000E+01  0.00000000E+00
  7.70000000E+02  2.40000000E+01  0.00000000E+00
  7.80000000E+02  2.40000000E+01  0.00000000E+00
  7.90000000E+02  2.40000000E+01  0.00000000E+00
  8.00000000E+02  2.40000000E+01  0.00000000E+00
  8.10000000E+02  2.40000000E+01  0.00000000E+00
  8.20000000E+02  2.40000000E+01  0.00000000E+00
  8.30000000E+02  2.40000000E+01  0.00000000E+00
  8.40000000E+02  2.40000000E+01  0.00000000E+00
  8.50000000E+02  2.40000000E+01  0.00000000E+00
  8.60000000E+02  2.40000000E+01  0.00000000E+00
  8.70000000E+02  2.40000000E+01  0.00000000E+00
  8.80000000E+02  2.40000000E+01  0.00000000E+00
  8.90000000E+02  2.40000000E+01  0.00000000E+00
  9.00000000E+02  2.40000000E+01  0.00000000E+00
  9.10000000E+02  2.40000000E+01  0.00000000E+00
  9.20000000E+02  2.40000000E+01  0.00000000E+00
  9.30000000E+02  2.40000000E+01  0.00000000E+00
  9.40000000E+02  2.40000000E+01  0.00000000E+00
  9.50000000E+02  2.40000000E+01  0.00000000E+00
  9.60000000E+02  2.40000000E+01  0.00000000E+00
  9.70000000E+02  2.40000000E+01  0.00000000E+00
  9.80000000E+02  2.40000000E+01  0.00000000E+00
  9.90000000E+02  2.40000000E+01  0.00000000E+00
  1.00000000E+03  2.40000000E+01  0.00000000E+00
  0.00000000E+00  2.60000000E+01  0.00000000E+00
  1.00000000E+01  2.60000000E+01  0.00000000E+00
  2.00000000E+01  2.60000000E+01  0.00000000E+00
  3.00000000E+01  2.60000000E+01  0.00000000E+00
  4.00000000E+01  2.60000000E+01  0.00000000E+00
  5.00000000E+01  2.60000000E+01  0.00000000E+00
  6.00000000E+01  2.60000000E+01  0.00000000E+00
  7.00000000E+01  2.60000000E+01  0.00000000E+00
  8.00000000E+01  2.60000000E+01  0.00000000E+00
  9.00000000E+01  2.60000000E+01  0.00000000E+00
  1.00000000E+02  2.60000000E+01  0.00000000E+00
  1.10000000E+02  2.60000000E+01  0.00000000E+00
  1.20000000E+02  2.60000000E+01  0.00000000E+00
  1.30000000E+02  2.60000000E+01  0.00000000E+00
  1.40000000E+02  2.60000000E+01  0.00000000E+00
  1.50000000E+02  2.60000000E+01  0.00000000E+00
  1.60000000E+02  2.60000000E+01  0.00000000E+00
  1.70000000E+02  2.60000000E+01  0.00000000E+00
  1.80000000E+02  2.60000000E+01  0.00000000E+00
  1.90000000E+02  2.60000000E+01  0.00000000E+00
  2.00000000E+02  2.60000000E+01  0.00000000E+00
  2.10000000E+02  2.60000000E+01  0.00000000E+00
  2.20000000E+02  2.60000000E+01  0.00000000E+00
  2.30000000E+02  2.60000000E+01  0.00000000E+00
  2.40000000E+02  2.60000000E+01  0.00000000E+00
  2.50000000E+02  2.60000000E+01  0.00000000E+00
  2.60000000E+02  2.60000000E+01  0.00000000E+00
  2.70000000E+02  2.60000000E+01  0.00000000E+00
  2.80000000E+02  2.60000000E+01  0.00000000E+00
  2.90000000E+02  2.60000000E+01  0.00000000E+00
  3.00000000E+02  2.60000000E+01  0.00000000E+00
  3.10000000E+02  2.60000000E+01  0.00000000E+00
  3.20000000E+02  2.60000000E+01  0.00000000E+00
  3.30000000E+02  2.60000000E+01  0.00000000E+00
  3.40000000E+02  2.60000000E+01  0.00000000E+00
  3.50000000E+02  2.60000000E+01  0.00000000E+00
  3.60000000E+02  2.60000000E+01  0.00000000E+00
  3.70000000E+02  2.60000000E+01  0.00000000E+00
  3.80000000E+02  2.60000000E+01  0.00000000E+00
  3.90000000E+02  2.60000000E+01  0.00000000E+00
  4.00000000E+02  2.60000000E+01  0.00000000E+00
  4.10000000E+02  2.60000000E+01  0.00000000E+00
  4.20000000E+02  2.60000000E+01  0.00000000E+00
  4.30000000E+02  2.60000000E+01  0.00000000E+00
  4.40000000E+02  2.60000000E+01  0.00000000E+00
  4.50000000E+02  2.60000000E+01  0.00000000E+00
  4.60000000E+02  2.60000000E+01  0.00000000E+00
  4.70000000E+02  2.60000000E+01  0.00000000E+00
  4.80000000E+02  2.60000000E+01  0.00000000E+00
  4.90000000E+02  2.60000000E+01  0.00000000E+00
  5.00000000E+02  2.60000000E+01  0.00000000E+00
  5.10000000E+02  2.60000000E+01  0.00000000E+00
  5.20000000E+02  2.60000000E+01  0.00000000E+00
  5.30000000E+02  2.60000000E+01  0.00000000E+00
  5.40000000E+02  2.60000000E+01  0.00000000E+00
  5.50000000E+02  2.60000000E+01  0.00000000E+00
  5.60000000E+02  2.60000000E+01  0.00000000E+00
  5.70000000E+02  2.60000000E+01  0.00000000E+00
  5.80000000E+02  2.60000000E+01  0.00000000E+00
  5.90000000E+02  2.60000000E+01  0.00000000E+00
  6.00000000E+02  2.60000000E+01  0.00000000E+00
  6.10000000E+02  2.60000000E+01  0.00000000E+00
  6.20000000E+02  2.60000000E+01  0.00000000E+00
  6.30000000E+02  2.60000000E+01  0.00000000E+00
  6.40000000E+02  2.60000000E+01  0.00000000E+00
  6.50000000E+02  2.60000000E+01  0.00000000E+00
  6.60000000E+02  2.60000000E+01  0.00000000E+00
  6.70000000E+02  2.60000000E+01  0.00000000E+00
  6.80000000E+02  2.60000000E+01  0.00000000E+00
  6.90000000E+02  2.60000000E+01  0.00000000E+00
  7.00000000E+02  2.60000000E+01  0.00000000E+00
  7.10000000E+02  2.60000000E+01  0.00000000E+00
  7.20000000E+02  2.60000000E+01  0.00000000E+00
  7.30000000E+02  2.60000000E+01  0.00000000E+00
  7.40000000E+02  2.60000000E+01  0.00000000E+00
  7.50000000E+02  2.60000000E+01  0.00000000E+00
  7.60000000E+02  2.60000000E+01  0.00000000E+00
  7.70000000E+02  2.60000000E+01  0.00000000E+00
  7.80000000E+02  2.60000000E+01  0.00000000E+00
  7.90000000E+02  2.60000000E+01  0.00000000E+00
  8.00000000E+02  2.60000000E+01  0.00000000E+00
  8.10000000E+02  2.60000000E+01  0.00000000E+00
  8.20000000E+02  2.60000000E+01  0.00000000E+00
  8.30000000E+02  2.60000000E+01  0.00000000E+00
  8.40000000E+02  2.60000000E+01  0.00000000E+00
  8.50000000E+02  2.60000000E+01  0.00000000E+00
  8.60000000E+02  2.60000000E+01  0.00000000E+00
  8.70000000E+02  2.60000000E+01  0.00000000E+00
  8.80000000E+02  2.60000000E+01  0.00000000E+00
  8.90000000E+02  2.60000000E+01  0.00000000E+00
  9.00000000E+02  2.60000000E+01  0.00000000E+00
  9.10000000E+02  2.60000000E+01  0.00000000E+00
  9.20000000E+02  2.60000000E+01  0.00000000E+00
  9.30000000E+02  2.60000000E+01  0.00000000E+00
  9.40000000E+02  2.60000000E+01  0.00000000E+00
  9.50000000E+02  2.60000000E+01  0.00000000E+00
  9.60000000E+02  2.60000000E+01  0.00000000E+00
  9.70000000E+02  2.60000000E+01  0.00000000E+00
  9.80000000E+02  2.60000000E+01  0.00000000E+00
  9.90000000E+02  2.60000000E+01  0.00000000E+00
  1.00000000E+03  2.60000000E+01  0.00000000E+00
  0.00000000E+00  2.80000000E+01  0.00000000E+00
  1.00000000E+01  2.80000000E+01  0.00000000E+00
  2.00000000E+01  2.80000000E+01  0.00000000E+00
  3.00000000E+01  2.80000000E+01  0.00000000E+00
  4.00000000E+01  2.80000000E+01  0.00000000E+00
  5.00000000E+01  2.80000000E+01  0.00000000E+00
  6.00000000E+01  2.80000000E+01  0.00000000E+00
  7.00000000E+01  2.80000000E+01  0.00000000E+00
  8.00000000E+01  2.80000000E+01  0.00000000E+00
  9.00000000E+01  2.80000000E+01  0.00000000E+00
  1.00000000E+02  2.80000000E+01  0.00000000E+00
  1.10000000E+02  2.80000000E+01  0.00000000E+00
  1.20000000E+02  2.80000000E+01  0.00000000E+00
  1.30000000E+02  2.80000000E+01  0.00000000E+00
  1.40000000E+02  2.80000000E+01  0.00000000E+00
  1.50000000E+02  2.80000000E+01  0.00000000E+00
  1.60000000E+02  2.80000000E+01  0.00000000E+00
  1.70000000E+02  2.80000000E+01  0.00000000E+00
  1.80000000E+02  2.80000000E+01  0.00000000E+00
  1.90000000E+02  2.80000000E+01  0.00000000E+00
  2.00000000E+02  2.80000000E+01  0.00000000E+00
  2.10000000E+02  2.80000000E+01  0.00000000E+00
  2.20000000E+02  2.80000000E+01  0.00000000E+00
  2.30000000E+02  2.80000000E+01  0.00000000E+00
  2.40000000E+02  2.80000000E+01  0.00000000E+00
  2.50000000E+02  2.80000000E+01  0.00000000E+00
  2.60000000E+02  2.80000000E+01  0.00000000E+00
  2.70000000E+02  2.80000000E+01  0.00000000E+00
  2.80000000E+02  2.80000000E+01  0.00000000E+00
  2.90000000E+02  2.80000000E+01  0.00000000E+00
  3.00000000E+02  2.80000000E+01  0.00000000E+00
  3.10000000E+02  2.80000000E+01  0.00000000E+00
  3.20000000E+02  2.80000000E+01  0.00000000E+00
  3.30000000E+02  2.80000000E+01  0.00000000E+00
  3.40000000E+02  2.80000000E+01  0.00000000E+00
  3.50000000E+02  2.80000000E+01  0.00000000E+00
  3.60000000E+02  2.80000000E+01  0.00000000E+00
  3.70000000E+02  2.80000000E+01  0.00000000E+00
  3.80000000E+02  2.80000000E+01  0.00000000E+00
  3.90000000E+02  2.80000000E+01  0.00000000E+00
  4.00000000E+02  2.80000000E+01  0.00000000E+00
  4.10000000E+02  2.80000000E+01  0.00000000E+00
  4.20000000E+02  2.80000000E+01  0.00000000E+00
  4.30000000E+02  2.80000000E+01  0.00000000E+00
  4.40000000E+02  2.80000000E+01  0.00000000E+00
  4.50000000E+02  2.80000000E+01  0.00000000E+00
  4.60000000E+02  2.80000000E+01  0.00000000E+00
  4.70000000E+02  2.80000000E+01  0.00000000E+00
  4.80000000E+02  2.80000000E+01  0.00000000E+00
  4.90000000E+02  2.80000000E+01  0.00000000E+00
  5.00000000E+02  2.80000000E+01  0.00000000E+00
  5.10000000E+02  2.80000000E+01  0.00000000E+00
  5.20000000E+02  2.80000000E+01  0.00000000E+00
  5.30000000E+02  2.80000000E+01  0.00000000E+00
  5.40000000E+02  2.80000000E+01  0.00000000E+00
  5.50000000E+02  2.80000000E+01  0.00000000E+00
  5.60000000E+02  2.80000000E+01  0.00000000E+00
  5.70000000E+02  2.80000000E+01  0.00000000E+00
  5.80000000E+02  2.80000000E+01  0.00000000E+00
  5.90000000E+02  2.80000000E+01  0.00000000E+00
  6.00000000E+02  2.80000000E+01  0.00000000E+00
  6.10000000E+02  2.80000000E+01  0.00000000E+00
  6.20000000E+02  2.80000000E+01  0.00000000E+00
  6.30000000E+02  2.80000000E+01  0.00000000E+00
  6.40000000E+02  2.80000000E+01  0.00000000E+00
  6.50000000E+02  2.80000000E+01  0.00000000E+00
  6.60000000E+02  2.80000000E+01  0.00000000E+00
  6.70000000E+02  2.80000000E+01  0.00000000E+00
  6.80000000E+02  2.80000000E+01  0.00000000E+00
  6.90000000E+02  2.80000000E+01  0.00000000E+00
  7.00000000E+02  2.80000000E+01  0.00000000E+00
  7.10000000E+02  2.80000000E+01  0.00000000E+00
  7.20000000E+02  2.80000000E+01  0.00000000E+00
  7.30000000E+02  2.80000000E+01  0.00000000E+00
  7.40000000E+02  2.80000000E+01  0.00000000E+00
  7.50000000E+02  2.80000000E+01  0.00000000E+00
  7.60000000E+02  2.80000000E+01  0.00000000E+00
  7.70000000E+02  2.80000000E+01  0.00000000E+00
  7.80000000E+02  2.80000000E+01  0.00000000E+00
  7.90000000E+02  2.80000000E+01  0.00000000E+00
  8.00000000E+02  2.80000000E+01  0.00000000E+00
  8.10000000E+02  2.80000000E+01  0.00000000E+00
  8.20000000E+02  2.80000000E+01  0.00000000E+00
  8.30000000E+02  2.80000000E+01  0.00000000E+00
  8.40000000E+02  2.80000000E+01  0.00000000E+00
  8.50000000E+02  2.80000000E+01  0.00000000E+00
  8.60000000E+02  2.80000000E+01  0.00000000E+00
  8.70000000E+02  2.80000000E+01  0.00000000E+00
  8.80000000E+02  2.80000000E+01  0.00000000E+00
  8.90000000E+02  2.80000000E+01  0.00000000E+00
  9.00000000E+02  2.80000000E+01  0.00000000E+00
  9.10000000E+02  2.80000000E+01  0.00000000E+00
  9.20000000E+02  2.80000000E+01  0.00000000E+00
  9.30000000E+02  2.80000000E+01  0.00000000E+00
  9.40000000E+02  2.80000000E+01  0.00000000E+00
  9.50000000E+02  2.80000000E+01  0.00000000E+00
  9.60000000E+02  2.80000000E+01  0.00000000E+00
  9.70000000E+02  2.80000000E+01  0.00000000E+00
  9.80000000E+02  2.80000000E+01  0.00000000E+00
  9.90000000E+02  2.80000000E+01  0.00000000E+00
  1.00000000E+03  2.80000000E+01  0.00000000E+00
  0.00000000E+00  3.00000000E+01  0.00000000E+00
  1.00000000E+01  3.00000000E+01  0.00000000E+00
  2.00000000E+01  3.00000000E+01  0.00000000E+00
  3.00000000E+01  3.00000000E+01  0.00000000E+00
  4.00000000E+01  3.00000000E+01  0.00000000E+00
  5.00000000E+01  3.00000000E+01  0.00000000E+00
  6.00000000E+01  3.00000000E+01  0.00000000E+00
  7.00000000E+01  3.00000000E+01  0.00000000E+00
  8.00000000E+01  3.00000000E+01  0.00000000E+00
  9.00000000E+01  3.00000000E+01  0.00000000E+00
  1.00000000E+02  3.00000000E+01  0.00000000E+00
  1.10000000E+02  3.00000000E+01  0.00000000E+00
  1.20000000E+02  3.00000000E+01  0.00000000E+00
  1.30000000E+02  3.00000000E+01  0.00000000E+00
  1.40000000E+02  3.00000000E+01  0.00000000E+00
  1.50000000E+02  3.00000000E+01  0.00000000E+00
  1.60000000E+02  3.00000000E+01  0.00000000E+00
  1.70000000E+02  3.00000000E+01  0.00000000E+00
  1.80000000E+02  3.00000000E+01  0.00000000E+00
  1.90000000E+02  3.00000000E+01  0.00000000E+00
  2.00000000E+02  3.00000000E+01  0.00000000E+00
  2.10000000E+02  3.00000000E+01  0.00000000E+00
  2.20000000E+02  3.00000000E+01  0.00000000E+00
  2.30000000E+02  3.00000000E+01  0.00000000E+00
  2.40000000E+02  3.00000000E+01  0.00000000E+00
  2.50000000E+02  3.00000000E+01  0.00000000E+00
  2.60000000E+02  3.00000000E+01  0.00000000E+00
  2.70000000E+02  3.00000000E+01  0.00000000E+00
  2.80000000E+02  3.00000000E+01  0.00000000E+00
  2.90000000E+02  3.00000000E+01  0.00000000E+00
  3.00000000E+02  3.00000000E+01  0.00000000E+00
  3.10000000E+02  3.00000000E+01  0.00000000E+00
  3.20000000E+02  3.00000000E+01  0.00000000E+00
  3.30000000E+02  3.00000000E+01  0.00000000E+00
  3.40000000E+02  3.00000000E+01  0.00000000E+00
  3.50000000E+02  3.00000000E+01  0.00000000E+00
  3.60000000E+02  3.00000000E+01  0.00000000E+00
  3.70000000E+02  3.00000000E+01  0.00000000E+00
  3.80000000E+02  3.00000000E+01  0.00000000E+00
  3.90000000E+02  3.00000000E+01  0.00000000E+00
  4.00000000E+02  3.00000000E+01  0.00000000E+00
  4.10000000E+02  3.00000000E+01  0.00000000E+00
  4.20000000E+02  3.00000000E+01  0.00000000E+00
  4.30000000E+02  3.00000000E+01  0.00000000E+00
  4.40000000E+02  3.00000000E+01  0.00000000E+00
  4.50000000E+02  3.00000000E+01  0.00000000E+00
  4.60000000E+02  3.00000000E+01  0.00000000E+00
  4.70000000E+02  3.00000000E+01  0.00000000E+00
  4.80000000E+02  3.00000000E+01  0.00000000E+00
  4.90000000E+02  3.00000000E+01  0.00000000E+00
  5.00000000E+02  3.00000000E+01  0.00000000E+00
  5.10000000E+02  3.00000000E+01  0.00000000E+00
  5.20000000E+02  3.00000000E+01  0.00000000E+00
  5.30000000E+02  3.00000000E+01  0.00000000E+00
  5.40000000E+02  3.00000000E+01  0.00000000E+00
  5.50000000E+02  3.00000000E+01  0.00000000E+00
  5.60000000E+02  3.00000000E+01  0.00000000E+00
  5.70000000E+02  3.00000000E+01  0.00000000E+00
  5.80000000E+02  3.00000000E+01  0.00000000E+00
  5.90000000E+02  3.00000000E+01  0.00000000E+00
  6.00000000E+02  3.00000000E+01  0.00000000E+00
  6.10000000E+02  3.00000000E+01  0.00000000E+00
  6.20000000E+02  3.00000000E+01  0.00000000E+00
  6.30000000E+02  3.00000000E+01  0.00000000E+00
  6.40000000E+02  3.00000000E+01  0.00000000E+00
  6.50000000E+02  3.00000000E+01  0.00000000E+00
  6.60000000E+02  3.00000000E+01  0.00000000E+00
  6.70000000E+02  3.00000000E+01  0.00000000E+00
  6.80000000E+02  3.00000000E+01  0.00000000E+00
  6.90000000E+02  3.00000000E+01  0.00000000E+00
  7.00000000E+02  3.00000000E+01  0.00000000E+00
  7.10000000E+02  3.00000000E+01  0.00000000E+00
  7.20000000E+02  3.00000000E+01  0.00000000E+00
  7.30000000E+02  3.00000000E+01  0.00000000E+00
  7.40000000E+02  3.00000000E+01  0.00000000E+00
  7.50000000E+02  3.00000000E+01  0.00000000E+00
  7.60000000E+02  3.00000000E+01  0.00000000E+00
  7.70000000E+02  3.00000000E+01  0.00000000E+00
  7.80000000E+02  3.00000000E+01  0.00000000E+00
  7.90000000E+02  3.00000000E+01  0.00000000E+00
  8.00000000E+02  3.00000000E+01  0.00000000E+00
  8.10000000E+02  3.00000000E+01  0.00000000E+00
  8.20000000E+02  3.00000000E+01  0.00000000E+00
  8.30000000E+02  3.00000000E+01  0.00000000E+00
  8.40000000E+02  3.00000000E+01  0.00000000E+00
  8.50000000E+02  3.00000000E+01  0.00000000E+00
  8.60000000E+02  3.00000000E+01  0.00000000E+00
  8.70000000E+02  3.00000000E+01  0.00000000E+00
  8.80000000E+02  3.00000000E+01  0.00000000E+00
  8.90000000E+02  3.00000000E+01  0.00000000E+00
  9.00000000E+02  3.00000000E+01  0.00000000E+00
  9.10000000E+02  3.00000000E+01  0.00000000E+00
  9.20000000E+02  3.00000000E+01  0.00000000E+00
  9.30000000E+02  3.00000000E+01  0.00000000E+00
  9.40000000E+02  3.00000000E+01  0.00000000E+00
  9.50000000E+02  3.00000000E+01  0.00000000E+00
  9.60000000E+02  3.00000000E+01  0.00000000E+00
  9.70000000E+02  3.00000000E+01  0.00000000E+00
  9.80000000E+02  3.00000000E+01  0.00000000E+00
  9.90000000E+02  3.00000000E+01  0.00000000E+00
  1.00000000E+03  3.00000000E+01  0.00000000E+00
  0.00000000E+00  3.20000000E+01  0.00000000E+00
  1.00000000E+01  3.20000000E+01  0.00000000E+00
  2.00000000E+01  3.20000000E+01  0.00000000E+00
  3.00000000E+01  3.20000000E+01  0.00000000E+00
  4.00000000E+01  3.20000000E+01  0.00000000E+00
  5.00000000E+01  3.20000000E+01  0.00000000E+00
  6.00000000E+01  3.20000000E+01  0.00000000E+00
  7.00000000E+01  3.20000000E+01  0.00000000E+00
  8.00000000E+01  3.20000000E+01  0.00000000E+00
  9.00000000E+01  3.20000000E+01  0.00000000E+00
  1.00000000E+02  3.20000000E+01  0.00000000E+00
  1.10000000E+02  3.20000000E+01  0.00000000E+00
  1.20000000E+02  3.20000000E+01  0.00000000E+00
  1.30000000E+02  3.20000000E+01  0.00000000E+00
  1.40000000E+02  3.20000000E+01  0.00000000E+00
  1.50000000E+02  3.20000000E+01  0.00000000E+00
  1.60000000E+02  3.20000000E+01  0.00000000E+00
  1.70000000E+02  3.20000000E+01  0.00000000E+00
  1.80000000E+02  3.20000000E+01  0.00000000E+00
  1.90000000E+02  3.20000000E+01  0.00000000E+00
  2.00000000E+02  3.20000000E+01  0.00000000E+00
  2.10000000E+02  3.20000000E+01  0.00000000E+00
  2.20000000E+02  3.20000000E+01  0.00000000E+00
  2.30000000E+02  3.20000000E+01  0.00000000E+00
  2.40000000E+02  3.20000000E+01  0.00000000E+00
  2.50000000E+02  3.20000000E+01  0.00000000E+00
  2.60000000E+02  3.20000000E+01  0.00000000E+00
  2.70000000E+02  3.20000000E+01  0.00000000E+00
  2.80000000E+02  3.20000000E+01  0.00000000E+00
  2.90000000E+02  3.20000000E+01  0.00000000E+00
  3.00000000E+02  3.20000000E+01  0.00000000E+00
  3.10000000E+02  3.20000000E+01  0.00000000E+00
  3.20000000E+02  3.20000000E+01  0.00000000E+00
  3.30000000E+02  3.20000000E+01  0.00000000E+00
  3.40000000E+02  3.20000000E+01  0.00000000E+00
  3.50000000E+02  3.20000000E+01  0.00000000E+00
  3.60000000E+02  3.20000000E+01  0.00000000E+00
  3.70000000E+02  3.20000000E+01  0.00000000E+00
  3.80000000E+02  3.20000000E+01  0.00000000E+00
  3.90000000E+02  3.20000000E+01  0.00000000E+00
  4.00000000E+02  3.20000000E+01  0.00000000E+00
  4.10000000E+02  3.20000000E+01  0.00000000E+00
  4.20000000E+02  3.20000000E+01  0.00000000E+00
  4.30000000E+02  3.20000000E+01  0.00000000E+00
  4.40000000E+02  3.20000000E+01  0.00000000E+00
  4.50000000E+02  3.20000000E+01  0.00000000E+00
  4.60000000E+02  3.20000000E+01  0.00000000E+00
  4.70000000E+02  3.20000000E+01  0.00000000E+00
  4.80000000E+02  3.20000000E+01  0.00000000E+00
  4.90000000E+02  3.20000000E+01  0.00000000E+00
  5.00000000E+02  3.20000000E+01  0.00000000E+00
  5.10000000E+02  3.20000000E+01  0.00000000E+00
  5.20000000E+02  3.20000000E+01  0.00000000E+00
  5.30000000E+02  3.20000000E+01  0.00000000E+00
  5.40000000E+02  3.20000000E+01  0.00000000E+00
  5.50000000E+02  3.20000000E+01  0.00000000E+00
  5.60000000E+02  3.20000000E+01  0.00000000E+00
  5.70000000E+02  3.20000000E+01  0.00000000E+00
  5.80000000E+02  3.20000000E+01  0.00000000E+00
  5.90000000E+02  3.20000000E+01  0.00000000E+00
  6.00000000E+02  3.20000000E+01  0.00000000E+00
  6.10000000E+02  3.20000000E+01  0.00000000E+00
  6.20000000E+02  3.20000000E+01  0.00000000E+00
  6.30000000E+02  3.20000000E+01  0.00000000E+00
  6.40000000E+02  3.20000000E+01  0.00000000E+00
  6.50000000E+02  3.20000000E+01  0.00000000E+00
  6.60000000E+02  3.20000000E+01  0.00000000E+00
  6.70000000E+02  3.20000000E+01  0.00000000E+00
  6.80000000E+02  3.20000000E+01  0.00000000E+00
  6.90000000E+02  3.20000000E+01  0.00000000E+00
  7.00000000E+02  3.20000000E+01  0.00000000E+00
  7.10000000E+02  3.20000000E+01  0.00000000E+00
  7.20000000E+02  3.20000000E+01  0.00000000E+00
  7.30000000E+02  3.20000000E+01  0.00000000E+00
  7.40000000E+02  3.20000000E+01  0.00000000E+00
  7.50000000E+02  3.20000000E+01  0.00000000E+00
  7.60000000E+02  3.20000000E+01  0.00000000E+00
  7.70000000E+02  3.20000000E+01  0.00000000E+00
  7.80000000E+02  3.20000000E+01  0.00000000E+00
  7.90000000E+02  3.20000000E+01  0.00000000E+00
  8.00000000E+02  3.20000000E+01  0.00000000E+00
  8.10000000E+02  3.20000000E+01  0.00000000E+00
  8.20000000E+02  3.20000000E+01  0.00000000E+00
  8.30000000E+02  3.20000000E+01  0.00000000E+00
  8.40000000E+02  3.20000000E+01  0.00000000E+00
  8.50000000E+02  3.20000000E+01  0.00000000E+00
  8.60000000E+02  3.20000000E+01  0.00000000E+00
  8.70000000E+02  3.20000000E+01  0.00000000E+00
  8.80000000E+02  3.20000000E+01  0.00000000E+00
  8.90000000E+02  3.20000000E+01  0.00000000E+00
  9.00000000E+02  3.20000000E+01  0.00000000E+00
  9.10000000E+02  3.20000000E+01  0.00000000E+00
  9.20000000E+02  3.20000000E+01  0.00000000E+00
  9.30000000E+02  3.20000000E+01  0.00000000E+00
  9.40000000E+02  3.20000000E+01  0.00000000E+00
  9.50000000E+02  3.20000000E+01  0.00000000E+00
  9.60000000E+02  3.20000000E+01  0.00000000E+00
  9.70000000E+02  3.20000000E+01  0.00000000E+00
  9.80000000E+02  3.20000000E+01  0.00000000E+00
  9.90000000E+02  3.20000000E+01  0.00000000E+00
  1.00000000E+03  3.20000000E+01  0.00000000E+00
  0.00000000E+00  3.40000000E+01  0.00000000E+00
  1.00000000E+01  3.40000000E+01  0.00000000E+00
  2.00000000E+01  3.40000000E+01  0.00000000E+00
  3.00000000E+01  3.40000000E+01  0.00000000E+00
  4.00000000E+01  3.40000000E+01  0.00000000E+00
  5.00000000E+01  3.40000000E+01  0.00000000E+00
  6.00000000E+01  3.40000000E+01  0.00000000E+00
  7.00000000E+01  3.40000000E+01  0.00000000E+00
  8.00000000E+01  3.40000000E+01  0.00000000E+00
  9.00000000E+01  3.40000000E+01  0.00000000E+00
  1.00000000E+02  3.40000000E+01  0.00000000E+00
  1.10000000E+02  3.40000000E+01  0.00000000E+00
  1.20000000E+02  3.40000000E+01  0.00000000E+00
  1.30000000E+02  3.40000000E+01  0.00000000E+00
  1.40000000E+02  3.40000000E+01  0.00000000E+00
  1.50000000E+02  3.40000000E+01  0.00000000E+00
  1.60000000E+02  3.40000000E+01  0.00000000E+00
  1.70000000E+02  3.40000000E+01  0.00000000E+00
  1.80000000E+02  3.40000000E+01  0.00000000E+00
  1.90000000E+02  3.40000000E+01  0.00000000E+00
  2.00000000E+02  3.40000000E+01  0.00000000E+00
  2.10000000E+02  3.40000000E+01  0.00000000E+00
  2.20000000E+02  3.40000000E+01  0.00000000E+00
  2.30000000E+02  3.40000000E+01  0.00000000E+00
  2.40000000E+02  3.40000000E+01  0.00000000E+00
  2.50000000E+02  3.40000000E+01  0.00000000E+00
  2.60000000E+02  3.40000000E+01  0.00000000E+00
  2.70000000E+02  3.40000000E+01  0.00000000E+00
  2.80000000E+02  3.40000000E+01  0.00000000E+00
  2.90000000E+02  3.40000000E+01  0.00000000E+00
  3.00000000E+02  3.40000000E+01  0.00000000E+00
  3.10000000E+02  3.40000000E+01  0.00000000E+00
  3.20000000E+02  3.40000000E+01  0.00000000E+00
  3.30000000E+02  3.40000000E+01  0.00000000E+00
  3.40000000E+02  3.40000000E+01  0.00000000E+00
  3.50000000E+02  3.40000000E+01  0.00000000E+00
  3.60000000E+02  3.40000000E+01  0.00000000E+00
  3.70000000E+02  3.40000000E+01  0.00000000E+00
  3.80000000E+02  3.40000000E+01  0.00000000E+00
  3.90000000E+02  3.40000000E+01  0.00000000E+00
  4.00000000E+02  3.40000000E+01  0.00000000E+00
  4.10000000E+02  3.40000000E+01  0.00000000E+00
  4.20000000E+02  3.40000000E+01  0.00000000E+00
  4.30000000E+02  3.40000000E+01  0.00000000E+00
  4.40000000E+02  3.40000000E+01  0.00000000E+00
  4.50000000E+02  3.40000000E+01  0.00000000E+00
  4.60000000E+02  3.40000000E+01  0.00000000E+00
  4.70000000E+02  3.40000000E+01  0.00000000E+00
  4.80000000E+02  3.40000000E+01  0.00000000E+00
  4.90000000E+02  3.40000000E+01  0.00000000E+00
  5.00000000E+02  3.40000000E+01  0.00000000E+00
  5.10000000E+02  3.40000000E+01  0.00000000E+00
  5.20000000E+02  3.40000000E+01  0.00000000E+00
  5.30000000E+02  3.40000000E+01  0.00000000E+00
  5.40000000E+02  3.40000000E+01  0.00000000E+00
  5.50000000E+02  3.40000000E+01  0.00000000E+00
  5.60000000E+02  3.40000000E+01  0.00000000E+00
  5.70000000E+02  3.40000000E+01  0.00000000E+00
  5.80000000E+02  3.40000000E+01  0.00000000E+00
  5.90000000E+02  3.40000000E+01  0.00000000E+00
  6.00000000E+02  3.40000000E+01  0.00000000E+00
  6.10000000E+02  3.40000000E+01  0.00000000E+00
  6.20000000E+02  3.40000000E+01  0.00000000E+00
  6.30000000E+02  3.40000000E+01  0.00000000E+00
  6.40000000E+02  3.40000000E+01  0.00000000E+00
  6.50000000E+02  3.40000000E+01  0.00000000E+00
  6.60000000E+02  3.40000000E+01  0.00000000E+00
  6.70000000E+02  3.40000000E+01  0.00000000E+00
  6.80000000E+02  3.40000000E+01  0.00000000E+00
  6.90000000E+02  3.40000000E+01  0.00000000E+00
  7.00000000E+02  3.40000000E+01  0.00000000E+00
  7.10000000E+02  3.40000000E+01  0.00000000E+00
  7.20000000E+02  3.40000000E+01  0.00000000E+00
  7.30000000E+02  3.40000000E+01  0.00000000E+00
  7.40000000E+02  3.40000000E+01  0.00000000E+00
  7.50000000E+02  3.40000000E+01  0.00000000E+00
  7.60000000E+02  3.40000000E+01  0.00000000E+00
  7.70000000E+02  3.40000000E+01  0.00000000E+00
  7.80000000E+02  3.40000000E+01  0.00000000E+00
  7.90000000E+02  3.40000000E+01  0.00000000E+00
  8.00000000E+02  3.40000000E+01  0.00000000E+00
  8.10000000E+02  3.40000000E+01  0.00000000E+00
  8.20000000E+02  3.40000000E+01  0.00000000E+00
  8.30000000E+02  3.40000000E+01  0.00000000E+00
  8.40000000E+02  3.40000000E+01  0.00000000E+00
  8.50000000E+02  3.40000000E+01  0.00000000E+00
  8.60000000E+02  3.40000000E+01  0.00000000E+00
  8.70000000E+02  3.40000000E+01  0.00000000E+00
  8.80000000E+02  3.40000000E+01  0.00000000E+00
  8.90000000E+02  3.40000000E+01  0.00000000E+00
  9.00000000E+02  3.40000000E+01  0.00000000E+00
  9.10000000E+02  3.40000000E+01  0.00000000E+00
  9.20000000E+02  3.40000000E+01  0.00000000E+00
  9.30000000E+02  3.40000000E+01  0.00000000E+00
  9.40000000E+02  3.40000000E+01  0.00000000E+00
  9.50000000E+02  3.40000000E+01  0.00000000E+00
  9.60000000E+02  3.40000000E+01  0.00000000E+00
  9.70000000E+02  3.40000000E+01  0.00000000E+00
  9.80000000E+02  3.40000000E+01  0.00000000E+00
  9.90000000E+02  3.40000000E+01  0.00000000E+00
  1.00000000E+03  3.40000000E+01  0.00000000E+00
  0.00000000E+00  3.60000000E+01  0.00000000E+00
  1.00000000E+01  3.60000000E+01  0.00000000E+00
  2.00000000E+01  3.60000000E+01  0.00000000E+00
  3.00000000E+01  3.60000000E+01  0.00000000E+00
  4.00000000E+01  3.60000000E+01  0.00000000E+00
  5.00000000E+01  3.60000000E+01  0.00000000E+00
  6.00000000E+01  3.60000000E+01  0.00000000E+00
  7.00000000E+01  3.60000000E+01  0.00000000E+00
  8.00000000E+01  3.60000000E+01  0.00000000E+00
  9.00000000E+01  3.60000000E+01  0.00000000E+00
  1.00000000E+02  3.60000000E+01  0.00000000E+00
  1.10000000E+02  3.60000000E+01  0.00000000E+00
  1.20000000E+02  3.60000000E+01  0.00000000E+00
  1.30000000E+02  3.60000000E+01  0.00000000E+00
  1.40000000E+02  3.60000000E+01  0.00000000E+00
  1.50000000E+02  3.60000000E+01  0.00000000E+00
  1.60000000E+02  3.60000000E+01  0.00000000E+00
  1.70000000E+02  3.60000000E+01  0.00000000E+00
  1.80000000E+02  3.60000000E+01  0.00000000E+00
  1.90000000E+02  3.60000000E+01  0.00000000E+00
  2.00000000E+02  3.60000000E+01  0.00000000E+00
  2.10000000E+02  3.60000000E+01  0.00000000E+00
  2.20000000E+02  3.60000000E+01  0.00000000E+00
  2.30000000E+02  3.60000000E+01  0.00000000E+00
  2.40000000E+02  3.60000000E+01  0.00000000E+00
  2.50000000E+02  3.60000000E+01  0.00000000E+00
  2.60000000E+02  3.60000000E+01  0.00000000E+00
  2.70000000E+02  3.60000000E+01  0.00000000E+00
  2.80000000E+02  3.60000000E+01  0.00000000E+00
  2.90000000E+02  3.60000000E+01  0.00000000E+00
  3.00000000E+02  3.60000000E+01  0.00000000E+00
  3.10000000E+02  3.60000000E+01  0.00000000E+00
  3.20000000E+02  3.60000000E+01  0.00000000E+00
  3.30000000E+02  3.60000000E+01  0.00000000E+00
  3.40000000E+02  3.60000000E+01  0.00000000E+00
  3.50000000E+02  3.60000000E+01  0.00000000E+00
  3.60000000E+02  3.60000000E+01  0.00000000E+00
  3.70000000E+02  3.60000000E+01  0.00000000E+00
  3.80000000E+02  3.60000000E+01  0.00000000E+00
  3.90000000E+02  3.60000000E+01  0.00000000E+00
  4.00000000E+02  3.60000000E+01  0.00000000E+00
  4.10000000E+02  3.60000000E+01  0.00000000E+00
  4.20000000E+02  3.60000000E+01  0.00000000E+00
  4.30000000E+02  3.60000000E+01  0.00000000E+00
  4.40000000E+02  3.60000000E+01  0.00000000E+00
  4.50000000E+02  3.60000000E+01  0.00000000E+00
  4.60000000E+02  3.60000000E+01  0.00000000E+00
  4.70000000E+02  3.60000000E+01  0.00000000E+00
  4.80000000E+02  3.60000000E+01  0.00000000E+00
  4.90000000E+02  3.60000000E+01  0.00000000E+00
  5.00000000E+02  3.60000000E+01  0.00000000E+00
  5.10000000E+02  3.60000000E+01  0.00000000E+00
  5.20000000E+02  3.60000000E+01  0.00000000E+00
  5.30000000E+02  3.60000000E+01  0.00000000E+00
  5.40000000E+02  3.60000000E+01  0.00000000E+00
  5.50000000E+02  3.60000000E+01  0.00000000E+00
  5.60000000E+02  3.60000000E+01  0.00000000E+00
  5.70000000E+02  3.60000000E+01  0.00000000E+00
  5.80000000E+02  3.60000000E+01  0.00000000E+00
  5.90000000E+02  3.60000000E+01  0.00000000E+00
  6.00000000E+02  3.60000000E+01  0.00000000E+00
  6.10000000E+02  3.60000000E+01  0.00000000E+00
  6.20000000E+02  3.60000000E+01  0.00000000E+00
  6.30000000E+02  3.60000000E+01  0.00000000E+00
  6.40000000E+02  3.60000000E+01  0.00000000E+00
  6.50000000E+02  3.60000000E+01  0.00000000E+00
  6.60000000E+02  3.60000000E+01  0.00000000E+00
  6.70000000E+02  3.60000000E+01  0.00000000E+00
  6.80000000E+02  3.60000000E+01  0.00000000E+00
  6.90000000E+02  3.60000000E+01  0.00000000E+00
  7.00000000E+02  3.60000000E+01  0.00000000E+00
  7.10000000E+02  3.60000000E+01  0.00000000E+00
  7.20000000E+02  3.60000000E+01  0.00000000E+00
  7.30000000E+02  3.60000000E+01  0.00000000E+00
  7.40000000E+02  3.60000000E+01  0.00000000E+00
  7.50000000E+02  3.60000000E+01  0.00000000E+00
  7.60000000E+02  3.60000000E+01  0.00000000E+00
  7.70000000E+02  3.60000000E+01  0.00000000E+00
  7.80000000E+02  3.60000000E+01  0.00000000E+00
  7.90000000E+02  3.60000000E+01  0.00000000E+00
  8.00000000E+02  3.60000000E+01  0.00000000E+00
  8.10000000E+02  3.60000000E+01  0.00000000E+00
  8.20000000E+02  3.60000000E+01  0.00000000E+00
  8.30000000E+02  3.60000000E+01  0.00000000E+00
  8.40000000E+02  3.60000000E+01  0.00000000E+00
  8.50000000E+02  3.60000000E+01  0.00000000E+00
  8.60000000E+02  3.60000000E+01  0.00000000E+00
  8.70000000E+02  3.60000000E+01  0.00000000E+00
  8.80000000E+02  3.60000000E+01  0.00000000E+00
  8.90000000E+02  3.60000000E+01  0.00000000E+00
  9.00000000E+02  3.60000000E+01  0.00000000E+00
  9.10000000E+02  3.60000000E+01  0.00000000E+00
  9.20000000E+02  3.60000000E+01  0.00000000E+00
  9.30000000E+02  3.60000000E+01  0.00000000E+00
  9.40000000E+02  3.60000000E+01  0.00000000E+00
  9.50000000E+02  3.60000000E+01  0.00000000E+00
  9.60000000E+02  3.60000000E+01  0.00000000E+00
  9.70000000E+02  3.60000000E+01  0.00000000E+00
  9.80000000E+02  3.60000000E+01  0.00000000E+00
  9.90000000E+02  3.60000000E+01  0.00000000E+00
  1.00000000E+03  3.60000000E+01  0.00000000E+00
  0.00000000E+00  3.80000000E+01  0.00000000E+00
  1.00000000E+01  3.80000000E+01  0.00000000E+00
  2.00000000E+01  3.80000000E+01  0.00000000E+00
  3.00000000E+01  3.80000000E+01  0.00000000E+00
  4.00000000E+01  3.80000000E+01  0.00000000E+00
  5.00000000E+01  3.80000000E+01  0.00000000E+00
  6.00000000E+01  3.80000000E+01  0.00000000E+00
  7.00000000E+01  3.80000000E+01  0.00000000E+00
  8.00000000E+01  3.80000000E+01  0.00000000E+00
  9.00000000E+01  3.80000000E+01  0.00000000E+00
  1.00000000E+02  3.80000000E+01  0.00000000E+00
  1.10000000E+02  3.80000000E+01  0.00000000E+00
  1.20000000E+02  3.80000000E+01  0.00000000E+00
  1.30000000E+02  3.80000000E+01  0.00000000E+00
  1.40000000E+02  3.80000000E+01  0.00000000E+00
  1.50000000E+02  3.80000000E+01  0.00000000E+00
  1.60000000E+02  3.80000000E+01  0.00000000E+00
  1.70000000E+02  3.80000000E+01  0.00000000E+00
  1.80000000E+02  3.80000000E+01  0.00000000E+00
  1.90000000E+02  3.80000000E+01  0.00000000E+00
  2.00000000E+02  3.80000000E+01  0.00000000E+00
  2.10000000E+02  3.80000000E+01  0.00000000E+00
  2.20000000E+02  3.80000000E+01  0.00000000E+00
  2.30000000E+02  3.80000000E+01  0.00000000E+00
  2.40000000E+02  3.80000000E+01  0.00000000E+00
  2.50000000E+02  3.80000000E+01  0.00000000E+00
  2.60000000E+02  3.80000000E+01  0.00000000E+00
  2.70000000E+02  3.80000000E+01  0.00000000E+00
  2.80000000E+02  3.80000000E+01  0.00000000E+00
  2.90000000E+02  3.80000000E+01  0.00000000E+00
  3.00000000E+02  3.80000000E+01  0.00000000E+00
  3.10000000E+02  3.80000000E+01  0.00000000E+00
  3.20000000E+02  3.80000000E+01  0.00000000E+00
  3.30000000E+02  3.80000000E+01  0.00000000E+00
  3.40000000E+02  3.80000000E+01  0.00000000E+00
  3.50000000E+02  3.80000000E+01  0.00000000E+00
  3.60000000E+02  3.80000000E+01  0.00000000E+00
  3.70000000E+02  3.80000000E+01  0.00000000E+00
  3.80000000E+02  3.80000000E+01  0.00000000E+00
  3.90000000E+02  3.80000000E+01  0.00000000E+00
  4.00000000E+02  3.80000000E+01  0.00000000E+00
  4.10000000E+02  3.80000000E+01  0.00000000E+00
  4.20000000E+02  3.80000000E+01  0.00000000E+00
  4.30000000E+02  3.80000000E+01  0.00000000E+00
  4.40000000E+02  3.80000000E+01  0.00000000E+00
  4.50000000E+02  3.80000000E+01  0.00000000E+00
  4.60000000E+02  3.80000000E+01  0.00000000E+00
  4.70000000E+02  3.80000000E+01  0.00000000E+00
  4.80000000E+02  3.80000000E+01  0.00000000E+00
  4.90000000E+02  3.80000000E+01  0.00000000E+00
  5.00000000E+02  3.80000000E+01  0.00000000E+00
  5.10000000E+02  3.80000000E+01  0.00000000E+00
  5.20000000E+02  3.80000000E+01  0.00000000E+00
  5.30000000E+02  3.80000000E+01  0.00000000E+00
  5.40000000E+02  3.80000000E+01  0.00000000E+00
  5.50000000E+02  3.80000000E+01  0.00000000E+00
  5.60000000E+02  3.80000000E+01  0.00000000E+00
  5.70000000E+02  3.80000000E+01  0.00000000E+00
  5.80000000E+02  3.80000000E+01  0.00000000E+00
  5.90000000E+02  3.80000000E+01  0.00000000E+00
  6.00000000E+02  3.80000000E+01  0.00000000E+00
  6.10000000E+02  3.80000000E+01  0.00000000E+00
  6.20000000E+02  3.80000000E+01  0.00000000E+00
  6.30000000E+02  3.80000000E+01  0.00000000E+00
  6.40000000E+02  3.80000000E+01  0.00000000E+00
  6.50000000E+02  3.80000000E+01  0.00000000E+00
  6.60000000E+02  3.80000000E+01  0.00000000E+00
  6.70000000E+02  3.80000000E+01  0.00000000E+00
  6.80000000E+02  3.80000000E+01  0.00000000E+00
  6.90000000E+02  3.80000000E+01  0.00000000E+00
  7.00000000E+02  3.80000000E+01  0.00000000E+00
  7.10000000E+02  3.80000000E+01  0.00000000E+00
  7.20000000E+02  3.80000000E+01  0.00000000E+00
  7.30000000E+02  3.80000000E+01  0.00000000E+00
  7.40000000E+02  3.80000000E+01  0.00000000E+00
  7.50000000E+02  3.80000000E+01  0.00000000E+00
  7.60000000E+02  3.80000000E+01  0.00000000E+00
  7.70000000E+02  3.80000000E+01  0.00000000E+00
  7.80000000E+02  3.80000000E+01  0.00000000E+00
  7.90000000E+02  3.80000000E+01  0.00000000E+00
  8.00000000E+02  3.80000000E+01  0.00000000E+00
  8.10000000E+02  3.80000000E+01  0.00000000E+00
  8.20000000E+02  3.80000000E+01  0.00000000E+00
  8.30000000E+02  3.80000000E+01  0.00000000E+00
  8.40000000E+02  3.80000000E+01  0.00000000E+00
  8.50000000E+02  3.80000000E+01  0.00000000E+00
  8.60000000E+02  3.80000000E+01  0.00000000E+00
  8.70000000E+02  3.80000000E+01  0.00000000E+00
  8.80000000E+02  3.80000000E+01  0.00000000E+00
  8.90000000E+02  3.80000000E+01  0.00000000E+00
  9.00000000E+02  3.80000000E+01  0.00000000E+00
  9.10000000E+02  3.80000000E+01  0.00000000E+00
  9.20000000E+02  3.80000000E+01  0.00000000E+00
  9.30000000E+02  3.80000000E+01  0.00000000E+00
  9.40000000E+02  3.80000000E+01  0.00000000E+00
  9.50000000E+02  3.80000000E+01  0.00000000E+00
  9.60000000E+02  3.80000000E+01  0.00000000E+00
  9.70000000E+02  3.80000000E+01  0.00000000E+00
  9.80000000E+02  3.80000000E+01  0.00000000E+00
  9.90000000E+02  3.80000000E+01  0.00000000E+00
  1.00000000E+03  3.80000000E+01  0.00000000E+00
  0.00000000E+00  4.00000000E+01  0.00000000E+00
  1.00000000E+01  4.00000000E+01  0.00000000E+00
  2.00000000E+01  4.00000000E+01  0.00000000E+00
  3.00000000E+01  4.00000000E+01  0.00000000E+00
  4.00000000E+01  4.00000000E+01  0.00000000E+00
  5.00000000E+01  4.00000000E+01  0.00000000E+00
  6.00000000E+01  4.00000000E+01  0.00000000E+00
  7.00000000E+01  4.00000000E+01  0.00000000E+00
  8.00000000E+01  4.00000000E+01  0.00000000E+00
  9.00000000E+01  4.00000000E+01  0.00000000E+00
  1.00000000E+02  4.00000000E+01  0.00000000E+00
  1.10000000E+02  4.00000000E+01  0.00000000E+00
  1.20000000E+02  4.00000000E+01  0.00000000E+00
  1.30000000E+02  4.00000000E+01  0.00000000E+00
  1.40000000E+02  4.00000000E+01  0.00000000E+00
  1.50000000E+02  4.00000000E+01  0.00000000E+00
  1.60000000E+02  4.00000000E+01  0.00000000E+00
  1.70000000E+02  4.00000000E+01  0.00000000E+00
  1.80000000E+02  4.00000000E+01  0.00000000E+00
  1.90000000E+02  4.00000000E+01  0.00000000E+00
  2.00000000E+02  4.00000000E+01  0.00000000E+00
  2.10000000E+02  4.00000000E+01  0.00000000E+00
  2.20000000E+02  4.00000000E+01  0.00000000E+00
  2.30000000E+02  4.00000000E+01  0.00000000E+00
  2.40000000E+02  4.00000000E+01  0.00000000E+00
  2.50000000E+02  4.00000000E+01  0.00000000E+00
  2.60000000E+02  4.00000000E+01  0.00000000E+00
  2.70000000E+02  4.00000000E+01  0.00000000E+00
  2.80000000E+02  4.00000000E+01  0.00000000E+00
  2.90000000E+02  4.00000000E+01  0.00000000E+00
  3.00000000E+02  4.00000000E+01  0.00000000E+00
  3.10000000E+02  4.00000000E+01  0.00000000E+00
  3.20000000E+02  4.00000000E+01  0.00000000E+00
  3.30000000E+02  4.00000000E+01  0.00000000E+00
  3.40000000E+02  4.00000000E+01  0.00000000E+00
  3.50000000E+02  4.00000000E+01  0.00000000E+00
  3.60000000E+02  4.00000000E+01  0.00000000E+00
  3.70000000E+02  4.00000000E+01  0.00000000E+00
  3.80000000E+02  4.00000000E+01  0.00000000E+00
  3.90000000E+02  4.00000000E+01  0.00000000E+00
  4.00000000E+02  4.00000000E+01  0.00000000E+00
  4.10000000E+02  4.00000000E+01  0.00000000E+00
  4.20000000E+02  4.00000000E+01  0.00000000E+00
  4.30000000E+02  4.00000000E+01  0.00000000E+00
  4.40000000E+02  4.00000000E+01  0.00000000E+00
  4.50000000E+02  4.00000000E+01  0.00000000E+00
  4.60000000E+02  4.00000000E+01  0.00000000E+00
  4.70000000E+02  4.00000000E+01  0.00000000E+00
  4.80000000E+02  4.00000000E+01  0.00000000E+00
  4.90000000E+02  4.00000000E+01  0.00000000E+00
  5.00000000E+02  4.00000000E+01  0.00000000E+00
  5.10000000E+02  4.00000000E+01  0.00000000E+00
  5.20000000E+02  4.00000000E+01  0.00000000E+00
  5.30000000E+02  4.00000000E+01  0.00000000E+00
  5.40000000E+02  4.00000000E+01  0.00000000E+00
  5.50000000E+02  4.00000000E+01  0.00000000E+00
  5.60000000E+02  4.00000000E+01  0.00000000E+00
  5.70000000E+02  4.00000000E+01  0.00000000E+00
  5.80000000E+02  4.00000000E+01  0.00000000E+00
  5.90000000E+02  4.00000000E+01  0.00000000E+00
  6.00000000E+02  4.00000000E+01  0.00000000E+00
  6.10000000E+02  4.00000000E+01  0.00000000E+00
  6.20000000E+02  4.00000000E+01  0.00000000E+00
  6.30000000E+02  4.00000000E+01  0.00000000E+00
  6.40000000E+02  4.00000000E+01  0.00000000E+00
  6.50000000E+02  4.00000000E+01  0.00000000E+00
  6.60000000E+02  4.00000000E+01  0.00000000E+00
  6.70000000E+02  4.00000000E+01  0.00000000E+00
  6.80000000E+02  4.00000000E+01  0.00000000E+00
  6.90000000E+02  4.00000000E+01  0.00000000E+00
  7.00000000E+02  4.00000000E+01  0.00000000E+00
  7.10000000E+02  4.00000000E+01  0.00000000E+00
  7.20000000E+02  4.00000000E+01  0.00000000E+00
  7.30000000E+02  4.00000000E+01  0.00000000E+00
  7.40000000E+02  4.00000000E+01  0.00000000E+00
  7.50000000E+02  4.00000000E+01  0.00000000E+00
  7.60000000E+02  4.00000000E+01  0.00000000E+00
  7.70000000E+02  4.00000000E+01  0.00000000E+00
  7.80000000E+02  4.00000000E+01  0.00000000E+00
  7.90000000E+02  4.00000000E+01  0.00000000E+00
  8.00000000E+02  4.00000000E+01  0.00000000E+00
  8.10000000E+02  4.00000000E+01  0.00000000E+00
  8.20000000E+02  4.00000000E+01  0.00000000E+00
  8.30000000E+02  4.00000000E+01  0.00000000E+00
  8.40000000E+02  4.00000000E+01  0.00000000E+00
  8.50000000E+02  4.00000000E+01  0.00000000E+00
  8.60000000E+02  4.00000000E+01  0.00000000E+00
  8.70000000E+02  4.00000000E+01  0.00000000E+00
  8.80000000E+02  4.00000000E+01  0.00000000E+00
  8.90000000E+02  4.00000000E+01  0.00000000E+00
  9.00000000E+02  4.00000000E+01  0.00000000E+00
  9.10000000E+02  4.00000000E+01  0.00000000E+00
  9.20000000E+02  4.00000000E+01  0.00000000E+00
  9.30000000E+02  4.00000000E+01  0.00000000E+00
  9.40000000E+02  4.00000000E+01  0.00000000E+00
  9.50000000E+02  4.00000000E+01  0.00000000E+00
  9.60000000E+02  4.00000000E+01  0.00000000E+00
  9.70000000E+02  4.00000000E+01  0.00000000E+00
  9.80000000E+02  4.00000000E+01  0.00000000E+00
  9.90000000E+02  4.00000000E+01  0.00000000E+00
  1.00000000E+03  4.00000000E+01  0.00000000E+00
  0.00000000E+00  4.20000000E+01  0.00000000E+00
  1.00000000E+01  4.20000000E+01  0.00000000E+00
  2.00000000E+01  4.20000000E+01  0.00000000E+00
  3.00000000E+01  4.20000000E+01  0.00000000E+00
  4.00000000E+01  4.20000000E+01  0.00000000E+00
  5.00000000E+01  4.20000000E+01  0.00000000E+00
  6.00000000E+01  4.20000000E+01  0.00000000E+00
  7.00000000E+01  4.20000000E+01  0.00000000E+00
  8.00000000E+01  4.20000000E+01  0.00000000E+00
  9.00000000E+01  4.20000000E+01  0.00000000E+00
  1.00000000E+02  4.20000000E+01  0.00000000E+00
  1.10000000E+02  4.20000000E+01  0.00000000E+00
  1.20000000E+02  4.20000000E+01  0.00000000E+00
  1.30000000E+02  4.20000000E+01  0.00000000E+00
  1.40000000E+02  4.20000000E+01  0.00000000E+00
  1.50000000E+02  4.20000000E+01  0.00000000E+00
  1.60000000E+02  4.20000000E+01  0.00000000E+00
  1.70000000E+02  4.20000000E+01  0.00000000E+00
  1.80000000E+02  4.20000000E+01  0.00000000E+00
  1.90000000E+02  4.20000000E+01  0.00000000E+00
  2.00000000E+02  4.20000000E+01  0.00000000E+00
  2.10000000E+02  4.20000000E+01  0.00000000E+00
  2.20000000E+02  4.20000000E+01  0.00000000E+00
  2.30000000E+02  4.20000000E+01  0.00000000E+00
  2.40000000E+02  4.20000000E+01  0.00000000E+00
  2.50000000E+02  4.20000000E+01  0.00000000E+00
  2.60000000E+02  4.20000000E+01  0.00000000E+00
  2.70000000E+02  4.20000000E+01  0.00000000E+00
  2.80000000E+02  4.20000000E+01  0.00000000E+00
  2.90000000E+02  4.20000000E+01  0.00000000E+00
  3.00000000E+02  4.20000000E+01  0.00000000E+00
  3.10000000E+02  4.20000000E+01  0.00000000E+00
  3.20000000E+02  4.20000000E+01  0.00000000E+00
  3.30000000E+02  4.20000000E+01  0.00000000E+00
  3.40000000E+02  4.20000000E+01  0.00000000E+00
  3.50000000E+02  4.20000000E+01  0.00000000E+00
  3.60000000E+02  4.20000000E+01  0.00000000E+00
  3.70000000E+02  4.20000000E+01  0.00000000E+00
  3.80000000E+02  4.20000000E+01  0.00000000E+00
  3.90000000E+02  4.20000000E+01  0.00000000E+00
  4.00000000E+02  4.20000000E+01  0.00000000E+00
  4.10000000E+02  4.20000000E+01  0.00000000E+00
  4.20000000E+02  4.20000000E+01  0.00000000E+00
  4.30000000E+02  4.20000000E+01  0.00000000E+00
  4.40000000E+02  4.20000000E+01  0.00000000E+00
  4.50000000E+02  4.20000000E+01  0.00000000E+00
  4.60000000E+02  4.20000000E+01  0.00000000E+00
  4.70000000E+02  4.20000000E+01  0.00000000E+00
  4.80000000E+02  4.20000000E+01  0.00000000E+00
  4.90000000E+02  4.20000000E+01  0.00000000E+00
  5.00000000E+02  4.20000000E+01  0.00000000E+00
  5.10000000E+02  4.20000000E+01  0.00000000E+00
  5.20000000E+02  4.20000000E+01  0.00000000E+00
  5.30000000E+02  4.20000000E+01  0.00000000E+00
  5.40000000E+02  4.20000000E+01  0.00000000E+00
  5.50000000E+02  4.20000000E+01  0.00000000E+00
  5.60000000E+02  4.20000000E+01  0.00000000E+00
  5.70000000E+02  4.20000000E+01  0.00000000E+00
  5.80000000E+02  4.20000000E+01  0.00000000E+00
  5.90000000E+02  4.20000000E+01  0.00000000E+00
  6.00000000E+02  4.20000000E+01  0.00000000E+00
  6.10000000E+02  4.20000000E+01  0.00000000E+00
  6.20000000E+02  4.20000000E+01  0.00000000E+00
  6.30000000E+02  4.20000000E+01  0.00000000E+00
  6.40000000E+02  4.20000000E+01  0.00000000E+00
  6.50000000E+02  4.20000000E+01  0.00000000E+00
  6.60000000E+02  4.20000000E+01  0.00000000E+00
  6.70000000E+02  4.20000000E+01  0.00000000E+00
  6.80000000E+02  4.20000000E+01  0.00000000E+00
  6.90000000E+02  4.20000000E+01  0.00000000E+00
  7.00000000E+02  4.20000000E+01  0.00000000E+00
  7.10000000E+02  4.20000000E+01  0.00000000E+00
  7.20000000E+02  4.20000000E+01  0.00000000E+00
  7.30000000E+02  4.20000000E+01  0.00000000E+00
  7.40000000E+02  4.20000000E+01  0.00000000E+00
  7.50000000E+02  4.20000000E+01  0.00000000E+00
  7.60000000E+02  4.20000000E+01  0.00000000E+00
  7.70000000E+02  4.20000000E+01  0.00000000E+00
  7.80000000E+02  4.20000000E+01  0.00000000E+00
  7.90000000E+02  4.20000000E+01  0.00000000E+00
  8.00000000E+02  4.20000000E+01  0.00000000E+00
  8.10000000E+02  4.20000000E+01  0.00000000E+00
  8.20000000E+02  4.20000000E+01  0.00000000E+00
  8.30000000E+02  4.20000000E+01  0.00000000E+00
  8.40000000E+02  4.20000000E+01  0.00000000E+00
  8.50000000E+02  4.20000000E+01  0.00000000E+00
  8.60000000E+02  4.20000000E+01  0.00000000E+00
  8.70000000E+02  4.20000000E+01  0.00000000E+00
  8.80000000E+02  4.20000000E+01  0.00000000E+00
  8.90000000E+02  4.20000000E+01  0.00000000E+00
  9.00000000E+02  4.20000000E+01  0.00000000E+00
  9.10000000E+02  4.20000000E+01  0.00000000E+00
  9.20000000E+02  4.20000000E+01  0.00000000E+00
  9.30000000E+02  4.20000000E+01  0.00000000E+00
  9.40000000E+02  4.20000000E+01  0.00000000E+00
  9.50000000E+02  4.20000000E+01  0.00000000E+00
  9.60000000E+02  4.20000000E+01  0.00000000E+00
  9.70000000E+02  4.20000000E+01  0.00000000E+00
  9.80000000E+02  4.20000000E+01  0.00000000E+00
  9.90000000E+02  4.20000000E+01  0.00000000E+00
  1.00000000E+03  4.20000000E+01  0.00000000E+00
  0.00000000E+00  4.40000000E+01  0.00000000E+00
  1.00000000E+01  4.40000000E+01  0.00000000E+00
  2.00000000E+01  4.40000000E+01  0.00000000E+00
  3.00000000E+01  4.40000000E+01  0.00000000E+00
  4.00000000E+01  4.40000000E+01  0.00000000E+00
  5.00000000E+01  4.40000000E+01  0.00000000E+00
  6.00000000E+01  4.40000000E+01  0.00000000E+00
  7.00000000E+01  4.40000000E+01  0.00000000E+00
  8.00000000E+01  4.40000000E+01  0.00000000E+00
  9.00000000E+01  4.40000000E+01  0.00000000E+00
  1.00000000E+02  4.40000000E+01  0.00000000E+00
  1.10000000E+02  4.40000000E+01  0.00000000E+00
  1.20000000E+02  4.40000000E+01  0.00000000E+00
  1.30000000E+02  4.40000000E+01  0.00000000E+00
  1.40000000E+02  4.40000000E+01  0.00000000E+00
  1.50000000E+02  4.40000000E+01  0.00000000E+00
  1.60000000E+02  4.40000000E+01  0.00000000E+00
  1.70000000E+02  4.40000000E+01  0.00000000E+00
  1.80000000E+02  4.40000000E+01  0.00000000E+00
  1.90000000E+02  4.40000000E+01  0.00000000E+00
  2.00000000E+02  4.40000000E+01  0.00000000E+00
  2.10000000E+02  4.40000000E+01  0.00000000E+00
  2.20000000E+02  4.40000000E+01  0.00000000E+00
  2.30000000E+02  4.40000000E+01  0.00000000E+00
  2.40000000E+02  4.40000000E+01  0.00000000E+00
  2.50000000E+02  4.40000000E+01  0.00000000E+00
  2.60000000E+02  4.40000000E+01  0.00000000E+00
  2.70000000E+02  4.40000000E+01  0.00000000E+00
  2.80000000E+02  4.40000000E+01  0.00000000E+00
  2.90000000E+02  4.40000000E+01  0.00000000E+00
  3.00000000E+02  4.40000000E+01  0.00000000E+00
  3.10000000E+02  4.40000000E+01  0.00000000E+00
  3.20000000E+02  4.40000000E+01  0.00000000E+00
  3.30000000E+02  4.40000000E+01  0.00000000E+00
  3.40000000E+02  4.40000000E+01  0.00000000E+00
  3.50000000E+02  4.40000000E+01  0.00000000E+00
  3.60000000E+02  4.40000000E+01  0.00000000E+00
  3.70000000E+02  4.40000000E+01  0.00000000E+00
  3.80000000E+02  4.40000000E+01  0.00000000E+00
  3.90000000E+02  4.40000000E+01  0.00000000E+00
  4.00000000E+02  4.40000000E+01  0.00000000E+00
  4.10000000E+02  4.40000000E+01  0.00000000E+00
  4.20000000E+02  4.40000000E+01  0.00000000E+00
  4.30000000E+02  4.40000000E+01  0.00000000E+00
  4.40000000E+02  4.40000000E+01  0.00000000E+00
  4.50000000E+02  4.40000000E+01  0.00000000E+00
  4.60000000E+02  4.40000000E+01  0.00000000E+00
  4.70000000E+02  4.40000000E+01  0.00000000E+00
  4.80000000E+02  4.40000000E+01  0.00000000E+00
  4.90000000E+02  4.40000000E+01  0.00000000E+00
  5.00000000E+02  4.40000000E+01  0.00000000E+00
  5.10000000E+02  4.40000000E+01  0.00000000E+00
  5.20000000E+02  4.40000000E+01  0.00000000E+00
  5.30000000E+02  4.40000000E+01  0.00000000E+00
  5.40000000E+02  4.40000000E+01  0.00000000E+00
  5.50000000E+02  4.40000000E+01  0.00000000E+00
  5.60000000E+02  4.40000000E+01  0.00000000E+00
  5.70000000E+02  4.40000000E+01  0.00000000E+00
  5.80000000E+02  4.40000000E+01  0.00000000E+00
  5.90000000E+02  4.40000000E+01  0.00000000E+00
  6.00000000E+02  4.40000000E+01  0.00000000E+00
  6.10000000E+02  4.40000000E+01  0.00000000E+00
  6.20000000E+02  4.40000000E+01  0.00000000E+00
  6.30000000E+02  4.40000000E+01  0.00000000E+00
  6.40000000E+02  4.40000000E+01  0.00000000E+00
  6.50000000E+02  4.40000000E+01  0.00000000E+00
  6.60000000E+02  4.40000000E+01  0.00000000E+00
  6.70000000E+02  4.40000000E+01  0.00000000E+00
  6.80000000E+02  4.40000000E+01  0.00000000E+00
  6.90000000E+02  4.40000000E+01  0.00000000E+00
  7.00000000E+02  4.40000000E+01  0.00000000E+00
  7.10000000E+02  4.40000000E+01  0.00000000E+00
  7.20000000E+02  4.40000000E+01  0.00000000E+00
  7.30000000E+02  4.40000000E+01  0.00000000E+00
  7.40000000E+02  4.40000000E+01  0.00000000E+00
  7.50000000E+02  4.40000000E+01  0.00000000E+00
  7.60000000E+02  4.40000000E+01  0.00000000E+00
  7.70000000E+02  4.40000000E+01  0.00000000E+00
  7.80000000E+02  4.40000000E+01  0.00000000E+00
  7.90000000E+02  4.40000000E+01  0.00000000E+00
  8.00000000E+02  4.40000000E+01  0.00000000E+00
  8.10000000E+02  4.40000000E+01  0.00000000E+00
  8.20000000E+02  4.40000000E+01  0.00000000E+00
  8.30000000E+02  4.40000000E+01  0.00000000E+00
  8.40000000E+02  4.40000000E+01  0.00000000E+00
  8.50000000E+02  4.40000000E+01  0.00000000E+00
  8.60000000E+02  4.40000000E+01  0.00000000E+00
  8.70000000E+02  4.40000000E+01  0.00000000E+00
  8.80000000E+02  4.40000000E+01  0.00000000E+00
  8.90000000E+02  4.40000000E+01  0.00000000E+00
  9.00000000E+02  4.40000000E+01  0.00000000E+00
  9.10000000E+02  4.40000000E+01  0.00000000E+00
  9.20000000E+02  4.40000000E+01  0.00000000E+00
  9.30000000E+02  4.40000000E+01  0.00000000E+00
  9.40000000E+02  4.40000000E+01  0.00000000E+00
  9.50000000E+02  4.40000000E+01  0.00000000E+00
  9.60000000E+02  4.40000000E+01  0.00000000E+00
  9.70000000E+02  4.40000000E+01  0.00000000E+00
  9.80000000E+02  4.40000000E+01  0.00000000E+00
  9.90000000E+02  4.40000000E+01  0.00000000E+00
  1.00000000E+03  4.40000000E+01  0.00000000E+00
  0.00000000E+00  4.60000000E+01  0.00000000E+00
  1.00000000E+01  4.60000000E+01  0.00000000E+00
  2.00000000E+01  4.60000000E+01  0.00000000E+00
  3.00000000E+01  4.60000000E+01  0.00000000E+00
  4.00000000E+01  4.60000000E+01  0.00000000E+00
  5.00000000E+01  4.60000000E+01  0.00000000E+00
  6.00000000E+01  4.60000000E+01  0.00000000E+00
  7.00000000E+01  4.60000000E+01  0.00000000E+00
  8.00000000E+01  4.60000000E+01  0.00000000E+00
  9.00000000E+01  4.60000000E+01  0.00000000E+00
  1.00000000E+02  4.60000000E+01  0.00000000E+00
  1.10000000E+02  4.60000000E+01  0.00000000E+00
  1.20000000E+02  4.60000000E+01  0.00000000E+00
  1.30000000E+02  4.60000000E+01  0.00000000E+00
  1.40000000E+02  4.60000000E+01  0.00000000E+00
  1.50000000E+02  4.60000000E+01  0.00000000E+00
  1.60000000E+02  4.60000000E+01  0.00000000E+00
  1.70000000E+02  4.60000000E+01  0.00000000E+00
  1.80000000E+02  4.60000000E+01  0.00000000E+00
  1.90000000E+02  4.60000000E+01  0.00000000E+00
  2.00000000E+02  4.60000000E+01  0.00000000E+00
  2.10000000E+02  4.60000000E+01  0.00000000E+00
  2.20000000E+02  4.60000000E+01  0.00000000E+00
  2.30000000E+02  4.60000000E+01  0.00000000E+00
  2.40000000E+02  4.60000000E+01  0.00000000E+00
  2.50000000E+02  4.60000000E+01  0.00000000E+00
  2.60000000E+02  4.60000000E+01  0.00000000E+00
  2.70000000E+02  4.60000000E+01  0.00000000E+00
  2.80000000E+02  4.60000000E+01  0.00000000E+00
  2.90000000E+02  4.60000000E+01  0.00000000E+00
  3.00000000E+02  4.60000000E+01  0.00000000E+00
  3.10000000E+02  4.60000000E+01  0.00000000E+00
  3.20000000E+02  4.60000000E+01  0.00000000E+00
  3.30000000E+02  4.60000000E+01  0.00000000E+00
  3.40000000E+02  4.60000000E+01  0.00000000E+00
  3.50000000E+02  4.60000000E+01  0.00000000E+00
  3.60000000E+02  4.60000000E+01  0.00000000E+00
  3.70000000E+02  4.60000000E+01  0.00000000E+00
  3.80000000E+02  4.60000000E+01  0.00000000E+00
  3.90000000E+02  4.60000000E+01  0.00000000E+00
  4.00000000E+02  4.60000000E+01  0.00000000E+00
  4.10000000E+02  4.60000000E+01  0.00000000E+00
  4.20000000E+02  4.60000000E+01  0.00000000E+00
  4.30000000E+02  4.60000000E+01  0.00000000E+00
  4.40000000E+02  4.60000000E+01  0.00000000E+00
  4.50000000E+02  4.60000000E+01  0.00000000E+00
  4.60000000E+02  4.60000000E+01  0.00000000E+00
  4.70000000E+02  4.60000000E+01  0.00000000E+00
  4.80000000E+02  4.60000000E+01  0.00000000E+00
  4.90000000E+02  4.60000000E+01  0.00000000E+00
  5.00000000E+02  4.60000000E+01  0.00000000E+00
  5.10000000E+02  4.60000000E+01  0.00000000E+00
  5.20000000E+02  4.60000000E+01  0.00000000E+00
  5.30000000E+02  4.60000000E+01  0.00000000E+00
  5.40000000E+02  4.60000000E+01  0.00000000E+00
  5.50000000E+02  4.60000000E+01  0.00000000E+00
  5.60000000E+02  4.60000000E+01  0.00000000E+00
  5.70000000E+02  4.60000000E+01  0.00000000E+00
  5.80000000E+02  4.60000000E+01  0.00000000E+00
  5.90000000E+02  4.60000000E+01  0.00000000E+00
  6.00000000E+02  4.60000000E+01  0.00000000E+00
  6.10000000E+02  4.60000000E+01  0.00000000E+00
  6.20000000E+02  4.60000000E+01  0.00000000E+00
  6.30000000E+02  4.60000000E+01  0.00000000E+00
  6.40000000E+02  4.60000000E+01  0.00000000E+00
  6.50000000E+02  4.60000000E+01  0.00000000E+00
  6.60000000E+02  4.60000000E+01  0.00000000E+00
  6.70000000E+02  4.60000000E+01  0.00000000E+00
  6.80000000E+02  4.60000000E+01  0.00000000E+00
  6.90000000E+02  4.60000000E+01  0.00000000E+00
  7.00000000E+02  4.60000000E+01  0.00000000E+00
  7.10000000E+02  4.60000000E+01  0.00000000E+00
  7.20000000E+02  4.60000000E+01  0.00000000E+00
  7.30000000E+02  4.60000000E+01  0.00000000E+00
  7.40000000E+02  4.60000000E+01  0.00000000E+00
  7.50000000E+02  4.60000000E+01  0.00000000E+00
  7.60000000E+02  4.60000000E+01  0.00000000E+00
  7.70000000E+02  4.60000000E+01  0.00000000E+00
  7.80000000E+02  4.60000000E+01  0.00000000E+00
  7.90000000E+02  4.60000000E+01  0.00000000E+00
  8.00000000E+02  4.60000000E+01  0.00000000E+00
  8.10000000E+02  4.60000000E+01  0.00000000E+00
  8.20000000E+02  4.60000000E+01  0.00000000E+00
  8.30000000E+02  4.60000000E+01  0.00000000E+00
  8.40000000E+02  4.60000000E+01  0.00000000E+00
  8.50000000E+02  4.60000000E+01  0.00000000E+00
  8.60000000E+02  4.60000000E+01  0.00000000E+00
  8.70000000E+02  4.60000000E+01  0.00000000E+00
  8.80000000E+02  4.60000000E+01  0.00000000E+00
  8.90000000E+02  4.60000000E+01  0.00000000E+00
  9.00000000E+02  4.60000000E+01  0.00000000E+00
  9.10000000E+02  4.60000000E+01  0.00000000E+00
  9.20000000E+02  4.60000000E+01  0.00000000E+00
  9.30000000E+02  4.60000000E+01  0.00000000E+00
  9.40000000E+02  4.60000000E+01  0.00000000E+00
  9.50000000E+02  4.60000000E+01  0.00000000E+00
  9.60000000E+02  4.60000000E+01  0.00000000E+00
  9.70000000E+02  4.60000000E+01  0.00000000E+00
  9.80000000E+02  4.60000000E+01  0.00000000E+00
  9.90000000E+02  4.60000000E+01  0.00000000E+00
  1.00000000E+03  4.60000000E+01  0.00000000E+00
  0.00000000E+00  4.80000000E+01  0.00000000E+00
  1.00000000E+01  4.80000000E+01  0.00000000E+00
  2.00000000E+01  4.80000000E+01  0.00000000E+00
  3.00000000E+01  4.80000000E+01  0.00000000E+00
  4.00000000E+01  4.80000000E+01  0.00000000E+00
  5.00000000E+01  4.80000000E+01  0.00000000E+00
  6.00000000E+01  4.80000000E+01  0.00000000E+00
  7.00000000E+01  4.80000000E+01  0.00000000E+00
  8.00000000E+01  4.80000000E+01  0.00000000E+00
  9.00000000E+01  4.80000000E+01  0.00000000E+00
  1.00000000E+02  4.80000000E+01  0.00000000E+00
  1.10000000E+02  4.80000000E+01  0.00000000E+00
  1.20000000E+02  4.80000000E+01  0.00000000E+00
  1.30000000E+02  4.80000000E+01  0.00000000E+00
  1.40000000E+02  4.80000000E+01  0.00000000E+00
  1.50000000E+02  4.80000000E+01  0.00000000E+00
  1.60000000E+02  4.80000000E+01  0.00000000E+00
  1.70000000E+02  4.80000000E+01  0.00000000E+00
  1.80000000E+02  4.80000000E+01  0.00000000E+00
  1.90000000E+02  4.80000000E+01  0.00000000E+00
  2.00000000E+02  4.80000000E+01  0.00000000E+00
  2.10000000E+02  4.80000000E+01  0.00000000E+00
  2.20000000E+02  4.80000000E+01  0.00000000E+00
  2.30000000E+02  4.80000000E+01  0.00000000E+00
  2.40000000E+02  4.80000000E+01  0.00000000E+00
  2.50000000E+02  4.80000000E+01  0.00000000E+00
  2.60000000E+02  4.80000000E+01  0.00000000E+00
  2.70000000E+02  4.80000000E+01  0.00000000E+00
  2.80000000E+02  4.80000000E+01  0.00000000E+00
  2.90000000E+02  4.80000000E+01  0.00000000E+00
  3.00000000E+02  4.80000000E+01  0.00000000E+00
  3.10000000E+02  4.80000000E+01  0.00000000E+00
  3.20000000E+02  4.80000000E+01  0.00000000E+00
  3.30000000E+02  4.80000000E+01  0.00000000E+00
  3.40000000E+02  4.80000000E+01  0.00000000E+00
  3.50000000E+02  4.80000000E+01  0.00000000E+00
  3.60000000E+02  4.80000000E+01  0.00000000E+00
  3.70000000E+02  4.80000000E+01  0.00000000E+00
  3.80000000E+02  4.80000000E+01  0.00000000E+00
  3.90000000E+02  4.80000000E+01  0.00000000E+00
  4.00000000E+02  4.80000000E+01  0.00000000E+00
  4.10000000E+02  4.80000000E+01  0.00000000E+00
  4.20000000E+02  4.80000000E+01  0.00000000E+00
  4.30000000E+02  4.80000000E+01  0.00000000E+00
  4.40000000E+02  4.80000000E+01  0.00000000E+00
  4.50000000E+02  4.80000000E+01  0.00000000E+00
  4.60000000E+02  4.80000000E+01  0.00000000E+00
  4.70000000E+02  4.80000000E+01  0.00000000E+00
  4.80000000E+02  4.80000000E+01  0.00000000E+00
  4.90000000E+02  4.80000000E+01  0.00000000E+00
  5.00000000E+02  4.80000000E+01  0.00000000E+00
  5.10000000E+02  4.80000000E+01  0.00000000E+00
  5.20000000E+02  4.80000000E+01  0.00000000E+00
  5.30000000E+02  4.80000000E+01  0.00000000E+00
  5.40000000E+02  4.80000000E+01  0.00000000E+00
  5.50000000E+02  4.80000000E+01  0.00000000E+00
  5.60000000E+02  4.80000000E+01  0.00000000E+00
  5.70000000E+02  4.80000000E+01  0.00000000E+00
  5.80000000E+02  4.80000000E+01  0.00000000E+00
  5.90000000E+02  4.80000000E+01  0.00000000E+00
  6.00000000E+02  4.80000000E+01  0.00000000E+00
  6.10000000E+02  4.80000000E+01  0.00000000E+00
  6.20000000E+02  4.80000000E+01  0.00000000E+00
  6.30000000E+02  4.80000000E+01  0.00000000E+00
  6.40000000E+02  4.80000000E+01  0.00000000E+00
  6.50000000E+02  4.80000000E+01  0.00000000E+00
  6.60000000E+02  4.80000000E+01  0.00000000E+00
  6.70000000E+02  4.80000000E+01  0.00000000E+00
  6.80000000E+02  4.80000000E+01  0.00000000E+00
  6.90000000E+02  4.80000000E+01  0.00000000E+00
  7.00000000E+02  4.80000000E+01  0.00000000E+00
  7.10000000E+02  4.80000000E+01  0.00000000E+00
  7.20000000E+02  4.80000000E+01  0.00000000E+00
  7.30000000E+02  4.80000000E+01  0.00000000E+00
  7.40000000E+02  4.80000000E+01  0.00000000E+00
  7.50000000E+02  4.80000000E+01  0.00000000E+00
  7.60000000E+02  4.80000000E+01  0.00000000E+00
  7.70000000E+02  4.80000000E+01  0.00000000E+00
  7.80000000E+02  4.80000000E+01  0.00000000E+00
  7.90000000E+02  4.80000000E+01  0.00000000E+00
  8.00000000E+02  4.80000000E+01  0.00000000E+00
  8.10000000E+02  4.80000000E+01  0.00000000E+00
  8.20000000E+02  4.80000000E+01  0.00000000E+00
  8.30000000E+02  4.80000000E+01  0.00000000E+00
  8.40000000E+02  4.80000000E+01  0.00000000E+00
  8.50000000E+02  4.80000000E+01  0.00000000E+00
  8.60000000E+02  4.80000000E+01  0.00000000E+00
  8.70000000E+02  4.80000000E+01  0.00000000E+00
  8.80000000E+02  4.80000000E+01  0.00000000E+00
  8.90000000E+02  4.80000000E+01  0.00000000E+00
  9.00000000E+02  4.80000000E+01  0.00000000E+00
  9.10000000E+02  4.80000000E+01  0.00000000E+00
  9.20000000E+02  4.80000000E+01  0.00000000E+00
  9.30000000E+02  4.80000000E+01  0.00000000E+00
  9.40000000E+02  4.80000000E+01  0.00000000E+00
  9.50000000E+02  4.80000000E+01  0.00000000E+00
  9.60000000E+02  4.80000000E+01  0.00000000E+00
  9.70000000E+02  4.80000000E+01  0.00000000E+00
  9.80000000E+02  4.80000000E+01  0.00000000E+00
  9.90000000E+02  4.80000000E+01  0.00000000E+00
  1.00000000E+03  4.80000000E+01  0.00000000E+00
  0.00000000E+00  5.00000000E+01  0.00000000E+00
  1.00000000E+01  5.00000000E+01  0.00000000E+00
  2.00000000E+01  5.00000000E+01  0.00000000E+00
  3.00000000E+01  5.00000000E+01  0.00000000E+00
  4.00000000E+01  5.00000000E+01  0.00000000E+00
  5.00000000E+01  5.00000000E+01  0.00000000E+00
  6.00000000E+01  5.00000000E+01  0.00000000E+00
  7.00000000E+01  5.00000000E+01  0.00000000E+00
  8.00000000E+01  5.00000000E+01  0.00000000E+00
  9.00000000E+01  5.00000000E+01  0.00000000E+00
  1.00000000E+02  5.00000000E+01  0.00000000E+00
  1.10000000E+02  5.00000000E+01  0.00000000E+00
  1.20000000E+02  5.00000000E+01  0.00000000E+00
  1.30000000E+02  5.00000000E+01  0.00000000E+00
  1.40000000E+02  5.00000000E+01  0.00000000E+00
  1.50000000E+02  5.00000000E+01  0.00000000E+00
  1.60000000E+02  5.00000000E+01  0.00000000E+00
  1.70000000E+02  5.00000000E+01  0.00000000E+00
  1.80000000E+02  5.00000000E+01  0.00000000E+00
  1.90000000E+02  5.00000000E+01  0.00000000E+00
  2.00000000E+02  5.00000000E+01  0.00000000E+00
  2.10000000E+02  5.00000000E+01  0.00000000E+00
  2.20000000E+02  5.00000000E+01  0.00000000E+00
  2.30000000E+02  5.00000000E+01  0.00000000E+00
  2.40000000E+02  5.00000000E+01  0.00000000E+00
  2.50000000E+02  5.00000000E+01  0.00000000E+00
  2.60000000E+02  5.00000000E+01  0.00000000E+00
  2.70000000E+02  5.00000000E+01  0.00000000E+00
  2.80000000E+02  5.00000000E+01  0.00000000E+00
  2.90000000E+02  5.00000000E+01  0.00000000E+00
  3.00000000E+02  5.00000000E+01  0.00000000E+00
  3.10000000E+02  5.00000000E+01  0.00000000E+00
  3.20000000E+02  5.00000000E+01  0.00000000E+00
  3.30000000E+02  5.00000000E+01  0.00000000E+00
  3.40000000E+02  5.00000000E+01  0.00000000E+00
  3.50000000E+02  5.00000000E+01  0.00000000E+00
  3.60000000E+02  5.00000000E+01  0.00000000E+00
  3.70000000E+02  5.00000000E+01  0.00000000E+00
  3.80000000E+02  5.00000000E+01  0.00000000E+00
  3.90000000E+02  5.00000000E+01  0.00000000E+00
  4.00000000E+02  5.00000000E+01  0.00000000E+00
  4.10000000E+02  5.00000000E+01  0.00000000E+00
  4.20000000E+02  5.00000000E+01  0.00000000E+00
  4.30000000E+02  5.00000000E+01  0.00000000E+00
  4.40000000E+02  5.00000000E+01  0.00000000E+00
  4.50000000E+02  5.00000000E+01  0.00000000E+00
  4.60000000E+02  5.00000000E+01  0.00000000E+00
  4.70000000E+02  5.00000000E+01  0.00000000E+00
  4.80000000E+02  5.00000000E+01  0.00000000E+00
  4.90000000E+02  5.00000000E+01  0.00000000E+00
  5.00000000E+02  5.00000000E+01  0.00000000E+00
  5.10000000E+02  5.00000000E+01  0.00000000E+00
  5.20000000E+02  5.00000000E+01  0.00000000E+00
  5.30000000E+02  5.00000000E+01  0.00000000E+00
  5.40000000E+02  5.00000000E+01  0.00000000E+00
  5.50000000E+02  5.00000000E+01  0.00000000E+00
  5.60000000E+02  5.00000000E+01  0.00000000E+00
  5.70000000E+02  5.00000000E+01  0.00000000E+00
  5.80000000E+02  5.00000000E+01  0.00000000E+00
  5.90000000E+02  5.00000000E+01  0.00000000E+00
  6.00000000E+02  5.00000000E+01  0.00000000E+00
  6.10000000E+02  5.00000000E+01  0.00000000E+00
  6.20000000E+02  5.00000000E+01  0.00000000E+00
  6.30000000E+02  5.00000000E+01  0.00000000E+00
  6.40000000E+02  5.00000000E+01  0.00000000E+00
  6.50000000E+02  5.00000000E+01  0.00000000E+00
  6.60000000E+02  5.00000000E+01  0.00000000E+00
  6.70000000E+02  5.00000000E+01  0.00000000E+00
  6.80000000E+02  5.00000000E+01  0.00000000E+00
  6.90000000E+02  5.00000000E+01  0.00000000E+00
  7.00000000E+02  5.00000000E+01  0.00000000E+00
  7.10000000E+02  5.00000000E+01  0.00000000E+00
  7.20000000E+02  5.00000000E+01  0.00000000E+00
  7.30000000E+02  5.00000000E+01  0.00000000E+00
  7.40000000E+02  5.00000000E+01  0.00000000E+00
  7.50000000E+02  5.00000000E+01  0.00000000E+00
  7.60000000E+02  5.00000000E+01  0.00000000E+00
  7.70000000E+02  5.00000000E+01  0.00000000E+00
  7.80000000E+02  5.00000000E+01  0.00000000E+00
  7.90000000E+02  5.00000000E+01  0.00000000E+00
  8.00000000E+02  5.00000000E+01  0.00000000E+00
  8.10000000E+02  5.00000000E+01  0.00000000E+00
  8.20000000E+02  5.00000000E+01  0.00000000E+00
  8.30000000E+02  5.00000000E+01  0.00000000E+00
  8.40000000E+02  5.00000000E+01  0.00000000E+00
  8.50000000E+02  5.00000000E+01  0.00000000E+00
  8.60000000E+02  5.00000000E+01  0.00000000E+00
  8.70000000E+02  5.00000000E+01  0.00000000E+00
  8.80000000E+02  5.00000000E+01  0.00000000E+00
  8.90000000E+02  5.00000000E+01  0.00000000E+00
  9.00000000E+02  5.00000000E+01  0.00000000E+00
  9.10000000E+02  5.00000000E+01  0.00000000E+00
  9.20000000E+02  5.00000000E+01  0.00000000E+00
  9.30000000E+02  5.00000000E+01  0.00000000E+00
  9.40000000E+02  5.00000000E+01  0.00000000E+00
  9.50000000E+02  5.00000000E+01  0.00000000E+00
  9.60000000E+02  5.00000000E+01  0.00000000E+00
  9.70000000E+02  5.00000000E+01  0.00000000E+00
  9.80000000E+02  5.00000000E+01  0.00000000E+00
  9.90000000E+02  5.00000000E+01  0.00000000E+00
  1.00000000E+03  5.00000000E+01  0.00000000E+00
  0.00000000E+00  5.20000000E+01  0.00000000E+00
  1.00000000E+01  5.20000000E+01  0.00000000E+00
  2.00000000E+01  5.20000000E+01  0.00000000E+00
  3.00000000E+01  5.20000000E+01  0.00000000E+00
  4.00000000E+01  5.20000000E+01  0.00000000E+00
  5.00000000E+01  5.20000000E+01  0.00000000E+00
  6.00000000E+01  5.20000000E+01  0.00000000E+00
  7.00000000E+01  5.20000000E+01  0.00000000E+00
  8.00000000E+01  5.20000000E+01  0.00000000E+00
  9.00000000E+01  5.20000000E+01  0.00000000E+00
  1.00000000E+02  5.20000000E+01  0.00000000E+00
  1.10000000E+02  5.20000000E+01  0.00000000E+00
  1.20000000E+02  5.20000000E+01  0.00000000E+00
  1.30000000E+02  5.20000000E+01  0.00000000E+00
  1.40000000E+02  5.20000000E+01  0.00000000E+00
  1.50000000E+02  5.20000000E+01  0.00000000E+00
  1.60000000E+02  5.20000000E+01  0.00000000E+00
  1.70000000E+02  5.20000000E+01  0.00000000E+00
  1.80000000E+02  5.20000000E+01  0.00000000E+00
  1.90000000E+02  5.20000000E+01  0.00000000E+00
  2.00000000E+02  5.20000000E+01  0.00000000E+00
  2.10000000E+02  5.20000000E+01  0.00000000E+00
  2.20000000E+02  5.20000000E+01  0.00000000E+00
  2.30000000E+02  5.20000000E+01  0.00000000E+00
  2.40000000E+02  5.20000000E+01  0.00000000E+00
  2.50000000E+02  5.20000000E+01  0.00000000E+00
  2.60000000E+02  5.20000000E+01  0.00000000E+00
  2.70000000E+02  5.20000000E+01  0.00000000E+00
  2.80000000E+02  5.20000000E+01  0.00000000E+00
  2.90000000E+02  5.20000000E+01  0.00000000E+00
  3.00000000E+02  5.20000000E+01  0.00000000E+00
  3.10000000E+02  5.20000000E+01  0.00000000E+00
  3.20000000E+02  5.20000000E+01  0.00000000E+00
  3.30000000E+02  5.20000000E+01  0.00000000E+00
  3.40000000E+02  5.20000000E+01  0.00000000E+00
  3.50000000E+02  5.20000000E+01  0.00000000E+00
  3.60000000E+02  5.20000000E+01  0.00000000E+00
  3.70000000E+02  5.20000000E+01  0.00000000E+00
  3.80000000E+02  5.20000000E+01  0.00000000E+00
  3.90000000E+02  5.20000000E+01  0.00000000E+00
  4.00000000E+02  5.20000000E+01  0.00000000E+00
  4.10000000E+02  5.20000000E+01  0.00000000E+00
  4.20000000E+02  5.20000000E+01  0.00000000E+00
  4.30000000E+02  5.20000000E+01  0.00000000E+00
  4.40000000E+02  5.20000000E+01  0.00000000E+00
  4.50000000E+02  5.20000000E+01  0.00000000E+00
  4.60000000E+02  5.20000000E+01  0.00000000E+00
  4.70000000E+02  5.20000000E+01  0.00000000E+00
  4.80000000E+02  5.20000000E+01  0.00000000E+00
  4.90000000E+02  5.20000000E+01  0.00000000E+00
  5.00000000E+02  5.20000000E+01  0.00000000E+00
  5.10000000E+02  5.20000000E+01  0.00000000E+00
  5.20000000E+02  5.20000000E+01  0.00000000E+00
  5.30000000E+02  5.20000000E+01  0.00000000E+00
  5.40000000E+02  5.20000000E+01  0.00000000E+00
  5.50000000E+02  5.20000000E+01  0.00000000E+00
  5.60000000E+02  5.20000000E+01  0.00000000E+00
  5.70000000E+02  5.20000000E+01  0.00000000E+00
  5.80000000E+02  5.20000000E+01  0.00000000E+00
  5.90000000E+02  5.20000000E+01  0.00000000E+00
  6.00000000E+02  5.20000000E+01  0.00000000E+00
  6.10000000E+02  5.20000000E+01  0.00000000E+00
  6.20000000E+02  5.20000000E+01  0.00000000E+00
  6.30000000E+02  5.20000000E+01  0.00000000E+00
  6.40000000E+02  5.20000000E+01  0.00000000E+00
  6.50000000E+02  5.20000000E+01  0.00000000E+00
  6.60000000E+02  5.20000000E+01  0.00000000E+00
  6.70000000E+02  5.20000000E+01  0.00000000E+00
  6.80000000E+02  5.20000000E+01  0.00000000E+00
  6.90000000E+02  5.20000000E+01  0.00000000E+00
  7.00000000E+02  5.20000000E+01  0.00000000E+00
  7.10000000E+02  5.20000000E+01  0.00000000E+00
  7.20000000E+02  5.20000000E+01  0.00000000E+00
  7.30000000E+02  5.20000000E+01  0.00000000E+00
  7.40000000E+02  5.20000000E+01  0.00000000E+00
  7.50000000E+02  5.20000000E+01  0.00000000E+00
  7.60000000E+02  5.20000000E+01  0.00000000E+00
  7.70000000E+02  5.20000000E+01  0.00000000E+00
  7.80000000E+02  5.20000000E+01  0.00000000E+00
  7.90000000E+02  5.20000000E+01  0.00000000E+00
  8.00000000E+02  5.20000000E+01  0.00000000E+00
  8.10000000E+02  5.20000000E+01  0.00000000E+00
  8.20000000E+02  5.20000000E+01  0.00000000E+00
  8.30000000E+02  5.20000000E+01  0.00000000E+00
  8.40000000E+02  5.20000000E+01  0.00000000E+00
  8.50000000E+02  5.20000000E+01  0.00000000E+00
  8.60000000E+02  5.20000000E+01  0.00000000E+00
  8.70000000E+02  5.20000000E+01  0.00000000E+00
  8.80000000E+02  5.20000000E+01  0.00000000E+00
  8.90000000E+02  5.20000000E+01  0.00000000E+00
  9.00000000E+02  5.20000000E+01  0.00000000E+00
  9.10000000E+02  5.20000000E+01  0.00000000E+00
  9.20000000E+02  5.20000000E+01  0.00000000E+00
  9.30000000E+02  5.20000000E+01  0.00000000E+00
  9.40000000E+02  5.20000000E+01  0.00000000E+00
  9.50000000E+02  5.20000000E+01  0.00000000E+00
  9.60000000E+02  5.20000000E+01  0.00000000E+00
  9.70000000E+02  5.20000000E+01  0.00000000E+00
  9.80000000E+02  5.20000000E+01  0.00000000E+00
  9.90000000E+02  5.20000000E+01  0.00000000E+00
  1.00000000E+03  5.20000000E+01  0.00000000E+00
  0.00000000E+00  5.40000000E+01  0.00000000E+00
  1.00000000E+01  5.40000000E+01  0.00000000E+00
  2.00000000E+01  5.40000000E+01  0.00000000E+00
  3.00000000E+01  5.40000000E+01  0.00000000E+00
  4.00000000E+01  5.40000000E+01  0.00000000E+00
  5.00000000E+01  5.40000000E+01  0.00000000E+00
  6.00000000E+01  5.40000000E+01  0.00000000E+00
  7.00000000E+01  5.40000000E+01  0.00000000E+00
  8.00000000E+01  5.40000000E+01  0.00000000E+00
  9.00000000E+01  5.40000000E+01  0.00000000E+00
  1.00000000E+02  5.40000000E+01  0.00000000E+00
  1.10000000E+02  5.40000000E+01  0.00000000E+00
  1.20000000E+02  5.40000000E+01  0.00000000E+00
  1.30000000E+02  5.40000000E+01  0.00000000E+00
  1.40000000E+02  5.40000000E+01  0.00000000E+00
  1.50000000E+02  5.40000000E+01  0.00000000E+00
  1.60000000E+02  5.40000000E+01  0.00000000E+00
  1.70000000E+02  5.40000000E+01  0.00000000E+00
  1.80000000E+02  5.40000000E+01  0.00000000E+00
  1.90000000E+02  5.40000000E+01  0.00000000E+00
  2.00000000E+02  5.40000000E+01  0.00000000E+00
  2.10000000E+02  5.40000000E+01  0.00000000E+00
  2.20000000E+02  5.40000000E+01  0.00000000E+00
  2.30000000E+02  5.40000000E+01  0.00000000E+00
  2.40000000E+02  5.40000000E+01  0.00000000E+00
  2.50000000E+02  5.40000000E+01  0.00000000E+00
  2.60000000E+02  5.40000000E+01  0.00000000E+00
  2.70000000E+02  5.40000000E+01  0.00000000E+00
  2.80000000E+02  5.40000000E+01  0.00000000E+00
  2.90000000E+02  5.40000000E+01  0.00000000E+00
  3.00000000E+02  5.40000000E+01  0.00000000E+00
  3.10000000E+02  5.40000000E+01  0.00000000E+00
  3.20000000E+02  5.40000000E+01  0.00000000E+00
  3.30000000E+02  5.40000000E+01  0.00000000E+00
  3.40000000E+02  5.40000000E+01  0.00000000E+00
  3.50000000E+02  5.40000000E+01  0.00000000E+00
  3.60000000E+02  5.40000000E+01  0.00000000E+00
  3.70000000E+02  5.40000000E+01  0.00000000E+00
  3.80000000E+02  5.40000000E+01  0.00000000E+00
  3.90000000E+02  5.40000000E+01  0.00000000E+00
  4.00000000E+02  5.40000000E+01  0.00000000E+00
  4.10000000E+02  5.40000000E+01  0.00000000E+00
  4.20000000E+02  5.40000000E+01  0.00000000E+00
  4.30000000E+02  5.40000000E+01  0.00000000E+00
  4.40000000E+02  5.40000000E+01  0.00000000E+00
  4.50000000E+02  5.40000000E+01  0.00000000E+00
  4.60000000E+02  5.40000000E+01  0.00000000E+00
  4.70000000E+02  5.40000000E+01  0.00000000E+00
  4.80000000E+02  5.40000000E+01  0.00000000E+00
  4.90000000E+02  5.40000000E+01  0.00000000E+00
  5.00000000E+02  5.40000000E+01  0.00000000E+00
  5.10000000E+02  5.40000000E+01  0.00000000E+00
  5.20000000E+02  5.40000000E+01  0.00000000E+00
  5.30000000E+02  5.40000000E+01  0.00000000E+00
  5.40000000E+02  5.40000000E+01  0.00000000E+00
  5.50000000E+02  5.40000000E+01  0.00000000E+00
  5.60000000E+02  5.40000000E+01  0.00000000E+00
  5.70000000E+02  5.40000000E+01  0.00000000E+00
  5.80000000E+02  5.40000000E+01  0.00000000E+00
  5.90000000E+02  5.40000000E+01  0.00000000E+00
  6.00000000E+02  5.40000000E+01  0.00000000E+00
  6.10000000E+02  5.40000000E+01  0.00000000E+00
  6.20000000E+02  5.40000000E+01  0.00000000E+00
  6.30000000E+02  5.40000000E+01  0.00000000E+00
  6.40000000E+02  5.40000000E+01  0.00000000E+00
  6.50000000E+02  5.40000000E+01  0.00000000E+00
  6.60000000E+02  5.40000000E+01  0.00000000E+00
  6.70000000E+02  5.40000000E+01  0.00000000E+00
  6.80000000E+02  5.40000000E+01  0.00000000E+00
  6.90000000E+02  5.40000000E+01  0.00000000E+00
  7.00000000E+02  5.40000000E+01  0.00000000E+00
  7.10000000E+02  5.40000000E+01  0.00000000E+00
  7.20000000E+02  5.40000000E+01  0.00000000E+00
  7.30000000E+02  5.40000000E+01  0.00000000E+00
  7.40000000E+02  5.40000000E+01  0.00000000E+00
  7.50000000E+02  5.40000000E+01  0.00000000E+00
  7.60000000E+02  5.40000000E+01  0.00000000E+00
  7.70000000E+02  5.40000000E+01  0.00000000E+00
  7.80000000E+02  5.40000000E+01  0.00000000E+00
  7.90000000E+02  5.40000000E+01  0.00000000E+00
  8.00000000E+02  5.40000000E+01  0.00000000E+00
  8.10000000E+02  5.40000000E+01  0.00000000E+00
  8.20000000E+02  5.40000000E+01  0.00000000E+00
  8.30000000E+02  5.40000000E+01  0.00000000E+00
  8.40000000E+02  5.40000000E+01  0.00000000E+00
  8.50000000E+02  5.40000000E+01  0.00000000E+00
  8.60000000E+02  5.40000000E+01  0.00000000E+00
  8.70000000E+02  5.40000000E+01  0.00000000E+00
  8.80000000E+02  5.40000000E+01  0.00000000E+00
  8.90000000E+02  5.40000000E+01  0.00000000E+00
  9.00000000E+02  5.40000000E+01  0.00000000E+00
  9.10000000E+02  5.40000000E+01  0.00000000E+00
  9.20000000E+02  5.40000000E+01  0.00000000E+00
  9.30000000E+02  5.40000000E+01  0.00000000E+00
  9.40000000E+02  5.40000000E+01  0.00000000E+00
  9.50000000E+02  5.40000000E+01  0.00000000E+00
  9.60000000E+02  5.40000000E+01  0.00000000E+00
  9.70000000E+02  5.40000000E+01  0.00000000E+00
  9.80000000E+02  5.40000000E+01  0.00000000E+00
  9.90000000E+02  5.40000000E+01  0.00000000E+00
  1.00000000E+03  5.40000000E+01  0.00000000E+00
  0.00000000E+00  5.60000000E+01  0.00000000E+00
  1.00000000E+01  5.60000000E+01  0.00000000E+00
  2.00000000E+01  5.60000000E+01  0.00000000E+00
  3.00000000E+01  5.60000000E+01  0.00000000E+00
  4.00000000E+01  5.60000000E+01  0.00000000E+00
  5.00000000E+01  5.60000000E+01  0.00000000E+00
  6.00000000E+01  5.60000000E+01  0.00000000E+00
  7.00000000E+01  5.60000000E+01  0.00000000E+00
  8.00000000E+01  5.60000000E+01  0.00000000E+00
  9.00000000E+01  5.60000000E+01  0.00000000E+00
  1.00000000E+02  5.60000000E+01  0.00000000E+00
  1.10000000E+02  5.60000000E+01  0.00000000E+00
  1.20000000E+02  5.60000000E+01  0.00000000E+00
  1.30000000E+02  5.60000000E+01  0.00000000E+00
  1.40000000E+02  5.60000000E+01  0.00000000E+00
  1.50000000E+02  5.60000000E+01  0.00000000E+00
  1.60000000E+02  5.60000000E+01  0.00000000E+00
  1.70000000E+02  5.60000000E+01  0.00000000E+00
  1.80000000E+02  5.60000000E+01  0.00000000E+00
  1.90000000E+02  5.60000000E+01  0.00000000E+00
  2.00000000E+02  5.60000000E+01  0.00000000E+00
  2.10000000E+02  5.60000000E+01  0.00000000E+00
  2.20000000E+02  5.60000000E+01  0.00000000E+00
  2.30000000E+02  5.60000000E+01  0.00000000E+00
  2.40000000E+02  5.60000000E+01  0.00000000E+00
  2.50000000E+02  5.60000000E+01  0.00000000E+00
  2.60000000E+02  5.60000000E+01  0.00000000E+00
  2.70000000E+02  5.60000000E+01  0.00000000E+00
  2.80000000E+02  5.60000000E+01  0.00000000E+00
  2.90000000E+02  5.60000000E+01  0.00000000E+00
  3.00000000E+02  5.60000000E+01  0.00000000E+00
  3.10000000E+02  5.60000000E+01  0.00000000E+00
  3.20000000E+02  5.60000000E+01  0.00000000E+00
  3.30000000E+02  5.60000000E+01  0.00000000E+00
  3.40000000E+02  5.60000000E+01  0.00000000E+00
  3.50000000E+02  5.60000000E+01  0.00000000E+00
  3.60000000E+02  5.60000000E+01  0.00000000E+00
  3.70000000E+02  5.60000000E+01  0.00000000E+00
  3.80000000E+02  5.60000000E+01  0.00000000E+00
  3.90000000E+02  5.60000000E+01  0.00000000E+00
  4.00000000E+02  5.60000000E+01  0.00000000E+00
  4.10000000E+02  5.60000000E+01  0.00000000E+00
  4.20000000E+02  5.60000000E+01  0.00000000E+00
  4.30000000E+02  5.60000000E+01  0.00000000E+00
  4.40000000E+02  5.60000000E+01  0.00000000E+00
  4.50000000E+02  5.60000000E+01  0.00000000E+00
  4.60000000E+02  5.60000000E+01  0.00000000E+00
  4.70000000E+02  5.60000000E+01  0.00000000E+00
  4.80000000E+02  5.60000000E+01  0.00000000E+00
  4.90000000E+02  5.60000000E+01  0.00000000E+00
  5.00000000E+02  5.60000000E+01  0.00000000E+00
  5.10000000E+02  5.60000000E+01  0.00000000E+00
  5.20000000E+02  5.60000000E+01  0.00000000E+00
  5.30000000E+02  5.60000000E+01  0.00000000E+00
  5.40000000E+02  5.60000000E+01  0.00000000E+00
  5.50000000E+02  5.60000000E+01  0.00000000E+00
  5.60000000E+02  5.60000000E+01  0.00000000E+00
  5.70000000E+02  5.60000000E+01  0.00000000E+00
  5.80000000E+02  5.60000000E+01  0.00000000E+00
  5.90000000E+02  5.60000000E+01  0.00000000E+00
  6.00000000E+02  5.60000000E+01  0.00000000E+00
  6.10000000E+02  5.60000000E+01  0.00000000E+00
  6.20000000E+02  5.60000000E+01  0.00000000E+00
  6.30000000E+02  5.60000000E+01  0.00000000E+00
  6.40000000E+02  5.60000000E+01  0.00000000E+00
  6.50000000E+02  5.60000000E+01  0.00000000E+00
  6.60000000E+02  5.60000000E+01  0.00000000E+00
  6.70000000E+02  5.60000000E+01  0.00000000E+00
  6.80000000E+02  5.60000000E+01  0.00000000E+00
  6.90000000E+02  5.60000000E+01  0.00000000E+00
  7.00000000E+02  5.60000000E+01  0.00000000E+00
  7.10000000E+02  5.60000000E+01  0.00000000E+00
  7.20000000E+02  5.60000000E+01  0.00000000E+00
  7.30000000E+02  5.60000000E+01  0.00000000E+00
  7.40000000E+02  5.60000000E+01  0.00000000E+00
  7.50000000E+02  5.60000000E+01  0.00000000E+00
  7.60000000E+02  5.60000000E+01  0.00000000E+00
  7.70000000E+02  5.60000000E+01  0.00000000E+00
  7.80000000E+02  5.60000000E+01  0.00000000E+00
  7.90000000E+02  5.60000000E+01  0.00000000E+00
  8.00000000E+02  5.60000000E+01  0.00000000E+00
  8.10000000E+02  5.60000000E+01  0.00000000E+00
  8.20000000E+02  5.60000000E+01  0.00000000E+00
  8.30000000E+02  5.60000000E+01  0.00000000E+00
  8.40000000E+02  5.60000000E+01  0.00000000E+00
  8.50000000E+02  5.60000000E+01  0.00000000E+00
  8.60000000E+02  5.60000000E+01  0.00000000E+00
  8.70000000E+02  5.60000000E+01  0.00000000E+00
  8.80000000E+02  5.60000000E+01  0.00000000E+00
  8.90000000E+02  5.60000000E+01  0.00000000E+00
  9.00000000E+02  5.60000000E+01  0.00000000E+00
  9.10000000E+02  5.60000000E+01  0.00000000E+00
  9.20000000E+02  5.60000000E+01  0.00000000E+00
  9.30000000E+02  5.60000000E+01  0.00000000E+00
  9.40000000E+02  5.60000000E+01  0.00000000E+00
  9.50000000E+02  5.60000000E+01  0.00000000E+00
  9.60000000E+02  5.60000000E+01  0.00000000E+00
  9.70000000E+02  5.60000000E+01  0.00000000E+00
  9.80000000E+02  5.60000000E+01  0.00000000E+00
  9.90000000E+02  5.60000000E+01  0.00000000E+00
  1.00000000E+03  5.60000000E+01  0.00000000E+00
  0.00000000E+00  5.80000000E+01  0.00000000E+00
  1.00000000E+01  5.80000000E+01  0.00000000E+00
  2.00000000E+01  5.80000000E+01  0.00000000E+00
  3.00000000E+01  5.80000000E+01  0.00000000E+00
  4.00000000E+01  5.80000000E+01  0.00000000E+00
  5.00000000E+01  5.80000000E+01  0.00000000E+00
  6.00000000E+01  5.80000000E+01  0.00000000E+00
  7.00000000E+01  5.80000000E+01  0.00000000E+00
  8.00000000E+01  5.80000000E+01  0.00000000E+00
  9.00000000E+01  5.80000000E+01  0.00000000E+00
  1.00000000E+02  5.80000000E+01  0.00000000E+00
  1.10000000E+02  5.80000000E+01  0.00000000E+00
  1.20000000E+02  5.80000000E+01  0.00000000E+00
  1.30000000E+02  5.80000000E+01  0.00000000E+00
  1.40000000E+02  5.80000000E+01  0.00000000E+00
  1.50000000E+02  5.80000000E+01  0.00000000E+00
  1.60000000E+02  5.80000000E+01  0.00000000E+00
  1.70000000E+02  5.80000000E+01  0.00000000E+00
  1.80000000E+02  5.80000000E+01  0.00000000E+00
  1.90000000E+02  5.80000000E+01  0.00000000E+00
  2.00000000E+02  5.80000000E+01  0.00000000E+00
  2.10000000E+02  5.80000000E+01  0.00000000E+00
  2.20000000E+02  5.80000000E+01  0.00000000E+00
  2.30000000E+02  5.80000000E+01  0.00000000E+00
  2.40000000E+02  5.80000000E+01  0.00000000E+00
  2.50000000E+02  5.80000000E+01  0.00000000E+00
  2.60000000E+02  5.80000000E+01  0.00000000E+00
  2.70000000E+02  5.80000000E+01  0.00000000E+00
  2.80000000E+02  5.80000000E+01  0.00000000E+00
  2.90000000E+02  5.80000000E+01  0.00000000E+00
  3.00000000E+02  5.80000000E+01  0.00000000E+00
  3.10000000E+02  5.80000000E+01  0.00000000E+00
  3.20000000E+02  5.80000000E+01  0.00000000E+00
  3.30000000E+02  5.80000000E+01  0.00000000E+00
  3.40000000E+02  5.80000000E+01  0.00000000E+00
  3.50000000E+02  5.80000000E+01  0.00000000E+00
  3.60000000E+02  5.80000000E+01  0.00000000E+00
  3.70000000E+02  5.80000000E+01  0.00000000E+00
  3.80000000E+02  5.80000000E+01  0.00000000E+00
  3.90000000E+02  5.80000000E+01  0.00000000E+00
  4.00000000E+02  5.80000000E+01  0.00000000E+00
  4.10000000E+02  5.80000000E+01  0.00000000E+00
  4.20000000E+02  5.80000000E+01  0.00000000E+00
  4.30000000E+02  5.80000000E+01  0.00000000E+00
  4.40000000E+02  5.80000000E+01  0.00000000E+00
  4.50000000E+02  5.80000000E+01  0.00000000E+00
  4.60000000E+02  5.80000000E+01  0.00000000E+00
  4.70000000E+02  5.80000000E+01  0.00000000E+00
  4.80000000E+02  5.80000000E+01  0.00000000E+00
  4.90000000E+02  5.80000000E+01  0.00000000E+00
  5.00000000E+02  5.80000000E+01  0.00000000E+00
  5.10000000E+02  5.80000000E+01  0.00000000E+00
  5.20000000E+02  5.80000000E+01  0.00000000E+00
  5.30000000E+02  5.80000000E+01  0.00000000E+00
  5.40000000E+02  5.80000000E+01  0.00000000E+00
  5.50000000E+02  5.80000000E+01  0.00000000E+00
  5.60000000E+02  5.80000000E+01  0.00000000E+00
  5.70000000E+02  5.80000000E+01  0.00000000E+00
  5.80000000E+02  5.80000000E+01  0.00000000E+00
  5.90000000E+02  5.80000000E+01  0.00000000E+00
  6.00000000E+02  5.80000000E+01  0.00000000E+00
  6.10000000E+02  5.80000000E+01  0.00000000E+00
  6.20000000E+02  5.80000000E+01  0.00000000E+00
  6.30000000E+02  5.80000000E+01  0.00000000E+00
  6.40000000E+02  5.80000000E+01  0.00000000E+00
  6.50000000E+02  5.80000000E+01  0.00000000E+00
  6.60000000E+02  5.80000000E+01  0.00000000E+00
  6.70000000E+02  5.80000000E+01  0.00000000E+00
  6.80000000E+02  5.80000000E+01  0.00000000E+00
  6.90000000E+02  5.80000000E+01  0.00000000E+00
  7.00000000E+02  5.80000000E+01  0.00000000E+00
  7.10000000E+02  5.80000000E+01  0.00000000E+00
  7.20000000E+02  5.80000000E+01  0.00000000E+00
  7.30000000E+02  5.80000000E+01  0.00000000E+00
  7.40000000E+02  5.80000000E+01  0.00000000E+00
  7.50000000E+02  5.80000000E+01  0.00000000E+00
  7.60000000E+02  5.80000000E+01  0.00000000E+00
  7.70000000E+02  5.80000000E+01  0.00000000E+00
  7.80000000E+02  5.80000000E+01  0.00000000E+00
  7.90000000E+02  5.80000000E+01  0.00000000E+00
  8.00000000E+02  5.80000000E+01  0.00000000E+00
  8.10000000E+02  5.80000000E+01  0.00000000E+00
  8.20000000E+02  5.80000000E+01  0.00000000E+00
  8.30000000E+02  5.80000000E+01  0.00000000E+00
  8.40000000E+02  5.80000000E+01  0.00000000E+00
  8.50000000E+02  5.80000000E+01  0.00000000E+00
  8.60000000E+02  5.80000000E+01  0.00000000E+00
  8.70000000E+02  5.80000000E+01  0.00000000E+00
  8.80000000E+02  5.80000000E+01  0.00000000E+00
  8.90000000E+02  5.80000000E+01  0.00000000E+00
  9.00000000E+02  5.80000000E+01  0.00000000E+00
  9.10000000E+02  5.80000000E+01  0.00000000E+00
  9.20000000E+02  5.80000000E+01  0.00000000E+00
  9.30000000E+02  5.80000000E+01  0.00000000E+00
  9.40000000E+02  5.80000000E+01  0.00000000E+00
  9.50000000E+02  5.80000000E+01  0.00000000E+00
  9.60000000E+02  5.80000000E+01  0.00000000E+00
  9.70000000E+02  5.80000000E+01  0.00000000E+00
  9.80000000E+02  5.80000000E+01  0.00000000E+00
  9.90000000E+02  5.80000000E+01  0.00000000E+00
  1.00000000E+03  5.80000000E+01  0.00000000E+00
  0.00000000E+00  6.00000000E+01  0.00000000E+00
  1.00000000E+01  6.00000000E+01  0.00000000E+00
  2.00000000E+01  6.00000000E+01  0.00000000E+00
  3.00000000E+01  6.00000000E+01  0.00000000E+00
  4.00000000E+01  6.00000000E+01  0.00000000E+00
  5.00000000E+01  6.00000000E+01  0.00000000E+00
  6.00000000E+01  6.00000000E+01  0.00000000E+00
  7.00000000E+01  6.00000000E+01  0.00000000E+00
  8.00000000E+01  6.00000000E+01  0.00000000E+00
  9.00000000E+01  6.00000000E+01  0.00000000E+00
  1.00000000E+02  6.00000000E+01  0.00000000E+00
  1.10000000E+02  6.00000000E+01  0.00000000E+00
  1.20000000E+02  6.00000000E+01  0.00000000E+00
  1.30000000E+02  6.00000000E+01  0.00000000E+00
  1.40000000E+02  6.00000000E+01  0.00000000E+00
  1.50000000E+02  6.00000000E+01  0.00000000E+00
  1.60000000E+02  6.00000000E+01  0.00000000E+00
  1.70000000E+02  6.00000000E+01  0.00000000E+00
  1.80000000E+02  6.00000000E+01  0.00000000E+00
  1.90000000E+02  6.00000000E+01  0.00000000E+00
  2.00000000E+02  6.00000000E+01  0.00000000E+00
  2.10000000E+02  6.00000000E+01  0.00000000E+00
  2.20000000E+02  6.00000000E+01  0.00000000E+00
  2.30000000E+02  6.00000000E+01  0.00000000E+00
  2.40000000E+02  6.00000000E+01  0.00000000E+00
  2.50000000E+02  6.00000000E+01  0.00000000E+00
  2.60000000E+02  6.00000000E+01  0.00000000E+00
  2.70000000E+02  6.00000000E+01  0.00000000E+00
  2.80000000E+02  6.00000000E+01  0.00000000E+00
  2.90000000E+02  6.00000000E+01  0.00000000E+00
  3.00000000E+02  6.00000000E+01  0.00000000E+00
  3.10000000E+02  6.00000000E+01  0.00000000E+00
  3.20000000E+02  6.00000000E+01  0.00000000E+00
  3.30000000E+02  6.00000000E+01  0.00000000E+00
  3.40000000E+02  6.00000000E+01  0.00000000E+00
  3.50000000E+02  6.00000000E+01  0.00000000E+00
  3.60000000E+02  6.00000000E+01  0.00000000E+00
  3.70000000E+02  6.00000000E+01  0.00000000E+00
  3.80000000E+02  6.00000000E+01  0.00000000E+00
  3.90000000E+02  6.00000000E+01  0.00000000E+00
  4.00000000E+02  6.00000000E+01  0.00000000E+00
  4.10000000E+02  6.00000000E+01  0.00000000E+00
  4.20000000E+02  6.00000000E+01  0.00000000E+00
  4.30000000E+02  6.00000000E+01  0.00000000E+00
  4.40000000E+02  6.00000000E+01  0.00000000E+00
  4.50000000E+02  6.00000000E+01  0.00000000E+00
  4.60000000E+02  6.00000000E+01  0.00000000E+00
  4.70000000E+02  6.00000000E+01  0.00000000E+00
  4.80000000E+02  6.00000000E+01  0.00000000E+00
  4.90000000E+02  6.00000000E+01  0.00000000E+00
  5.00000000E+02  6.00000000E+01  0.00000000E+00
  5.10000000E+02  6.00000000E+01  0.00000000E+00
  5.20000000E+02  6.00000000E+01  0.00000000E+00
  5.30000000E+02  6.00000000E+01  0.00000000E+00
  5.40000000E+02  6.00000000E+01  0.00000000E+00
  5.50000000E+02  6.00000000E+01  0.00000000E+00
  5.60000000E+02  6.00000000E+01  0.00000000E+00
  5.70000000E+02  6.00000000E+01  0.00000000E+00
  5.80000000E+02  6.00000000E+01  0.00000000E+00
  5.90000000E+02  6.00000000E+01  0.00000000E+00
  6.00000000E+02  6.00000000E+01  0.00000000E+00
  6.10000000E+02  6.00000000E+01  0.00000000E+00
  6.20000000E+02  6.00000000E+01  0.00000000E+00
  6.30000000E+02  6.00000000E+01  0.00000000E+00
  6.40000000E+02  6.00000000E+01  0.00000000E+00
  6.50000000E+02  6.00000000E+01  0.00000000E+00
  6.60000000E+02  6.00000000E+01  0.00000000E+00
  6.70000000E+02  6.00000000E+01  0.00000000E+00
  6.80000000E+02  6.00000000E+01  0.00000000E+00
  6.90000000E+02  6.00000000E+01  0.00000000E+00
  7.00000000E+02  6.00000000E+01  0.00000000E+00
  7.10000000E+02  6.00000000E+01  0.00000000E+00
  7.20000000E+02  6.00000000E+01  0.00000000E+00
  7.30000000E+02  6.00000000E+01  0.00000000E+00
  7.40000000E+02  6.00000000E+01  0.00000000E+00
  7.50000000E+02  6.00000000E+01  0.00000000E+00
  7.60000000E+02  6.00000000E+01  0.00000000E+00
  7.70000000E+02  6.00000000E+01  0.00000000E+00
  7.80000000E+02  6.00000000E+01  0.00000000E+00
  7.90000000E+02  6.00000000E+01  0.00000000E+00
  8.00000000E+02  6.00000000E+01  0.00000000E+00
  8.10000000E+02  6.00000000E+01  0.00000000E+00
  8.20000000E+02  6.00000000E+01  0.00000000E+00
  8.30000000E+02  6.00000000E+01  0.00000000E+00
  8.40000000E+02  6.00000000E+01  0.00000000E+00
  8.50000000E+02  6.00000000E+01  0.00000000E+00
  8.60000000E+02  6.00000000E+01  0.00000000E+00
  8.70000000E+02  6.00000000E+01  0.00000000E+00
  8.80000000E+02  6.00000000E+01  0.00000000E+00
  8.90000000E+02  6.00000000E+01  0.00000000E+00
  9.00000000E+02  6.00000000E+01  0.00000000E+00
  9.10000000E+02  6.00000000E+01  0.00000000E+00
  9.20000000E+02  6.00000000E+01  0.00000000E+00
  9.30000000E+02  6.00000000E+01  0.00000000E+00
  9.40000000E+02  6.00000000E+01  0.00000000E+00
  9.50000000E+02  6.00000000E+01  0.00000000E+00
  9.60000000E+02  6.00000000E+01  0.00000000E+00
  9.70000000E+02  6.00000000E+01  0.00000000E+00
  9.80000000E+02  6.00000000E+01  0.00000000E+00
  9.90000000E+02  6.00000000E+01  0.00000000E+00
  1.00000000E+03  6.00000000E+01  0.00000000E+00
  0.00000000E+00  6.20000000E+01  0.00000000E+00
  1.00000000E+01  6.20000000E+01  0.00000000E+00
  2.00000000E+01  6.20000000E+01  0.00000000E+00
  3.00000000E+01  6.20000000E+01  0.00000000E+00
  4.00000000E+01  6.20000000E+01  0.00000000E+00
  5.00000000E+01  6.20000000E+01  0.00000000E+00
  6.00000000E+01  6.20000000E+01  0.00000000E+00
  7.00000000E+01  6.20000000E+01  0.00000000E+00
  8.00000000E+01  6.20000000E+01  0.00000000E+00
  9.00000000E+01  6.20000000E+01  0.00000000E+00
  1.00000000E+02  6.20000000E+01  0.00000000E+00
  1.10000000E+02  6.20000000E+01  0.00000000E+00
  1.20000000E+02  6.20000000E+01  0.00000000E+00
  1.30000000E+02  6.20000000E+01  0.00000000E+00
  1.40000000E+02  6.20000000E+01  0.00000000E+00
  1.50000000E+02  6.20000000E+01  0.00000000E+00
  1.60000000E+02  6.20000000E+01  0.00000000E+00
  1.70000000E+02  6.20000000E+01  0.00000000E+00
  1.80000000E+02  6.20000000E+01  0.00000000E+00
  1.90000000E+02  6.20000000E+01  0.00000000E+00
  2.00000000E+02  6.20000000E+01  0.00000000E+00
  2.10000000E+02  6.20000000E+01  0.00000000E+00
  2.20000000E+02  6.20000000E+01  0.00000000E+00
  2.30000000E+02  6.20000000E+01  0.00000000E+00
  2.40000000E+02  6.20000000E+01  0.00000000E+00
  2.50000000E+02  6.20000000E+01  0.00000000E+00
  2.60000000E+02  6.20000000E+01  0.00000000E+00
  2.70000000E+02  6.20000000E+01  0.00000000E+00
  2.80000000E+02  6.20000000E+01  0.00000000E+00
  2.90000000E+02  6.20000000E+01  0.00000000E+00
  3.00000000E+02  6.20000000E+01  0.00000000E+00
  3.10000000E+02  6.20000000E+01  0.00000000E+00
  3.20000000E+02  6.20000000E+01  0.00000000E+00
  3.30000000E+02  6.20000000E+01  0.00000000E+00
  3.40000000E+02  6.20000000E+01  0.00000000E+00
  3.50000000E+02  6.20000000E+01  0.00000000E+00
  3.60000000E+02  6.20000000E+01  0.00000000E+00
  3.70000000E+02  6.20000000E+01  0.00000000E+00
  3.80000000E+02  6.20000000E+01  0.00000000E+00
  3.90000000E+02  6.20000000E+01  0.00000000E+00
  4.00000000E+02  6.20000000E+01  0.00000000E+00
  4.10000000E+02  6.20000000E+01  0.00000000E+00
  4.20000000E+02  6.20000000E+01  0.00000000E+00
  4.30000000E+02  6.20000000E+01  0.00000000E+00
  4.40000000E+02  6.20000000E+01  0.00000000E+00
  4.50000000E+02  6.20000000E+01  0.00000000E+00
  4.60000000E+02  6.20000000E+01  0.00000000E+00
  4.70000000E+02  6.20000000E+01  0.00000000E+00
  4.80000000E+02  6.20000000E+01  0.00000000E+00
  4.90000000E+02  6.20000000E+01  0.00000000E+00
  5.00000000E+02  6.20000000E+01  0.00000000E+00
  5.10000000E+02  6.20000000E+01  0.00000000E+00
  5.20000000E+02  6.20000000E+01  0.00000000E+00
  5.30000000E+02  6.20000000E+01  0.00000000E+00
  5.40000000E+02  6.20000000E+01  0.00000000E+00
  5.50000000E+02  6.20000000E+01  0.00000000E+00
  5.60000000E+02  6.20000000E+01  0.00000000E+00
  5.70000000E+02  6.20000000E+01  0.00000000E+00
  5.80000000E+02  6.20000000E+01  0.00000000E+00
  5.90000000E+02  6.20000000E+01  0.00000000E+00
  6.00000000E+02  6.20000000E+01  0.00000000E+00
  6.10000000E+02  6.20000000E+01  0.00000000E+00
  6.20000000E+02  6.20000000E+01  0.00000000E+00
  6.30000000E+02  6.20000000E+01  0.00000000E+00
  6.40000000E+02  6.20000000E+01  0.00000000E+00
  6.50000000E+02  6.20000000E+01  0.00000000E+00
  6.60000000E+02  6.20000000E+01  0.00000000E+00
  6.70000000E+02  6.20000000E+01  0.00000000E+00
  6.80000000E+02  6.20000000E+01  0.00000000E+00
  6.90000000E+02  6.20000000E+01  0.00000000E+00
  7.00000000E+02  6.20000000E+01  0.00000000E+00
  7.10000000E+02  6.20000000E+01  0.00000000E+00
  7.20000000E+02  6.20000000E+01  0.00000000E+00
  7.30000000E+02  6.20000000E+01  0.00000000E+00
  7.40000000E+02  6.20000000E+01  0.00000000E+00
  7.50000000E+02  6.20000000E+01  0.00000000E+00
  7.60000000E+02  6.20000000E+01  0.00000000E+00
  7.70000000E+02  6.20000000E+01  0.00000000E+00
  7.80000000E+02  6.20000000E+01  0.00000000E+00
  7.90000000E+02  6.20000000E+01  0.00000000E+00
  8.00000000E+02  6.20000000E+01  0.00000000E+00
  8.10000000E+02  6.20000000E+01  0.00000000E+00
  8.20000000E+02  6.20000000E+01  0.00000000E+00
  8.30000000E+02  6.20000000E+01  0.00000000E+00
  8.40000000E+02  6.20000000E+01  0.00000000E+00
  8.50000000E+02  6.20000000E+01  0.00000000E+00
  8.60000000E+02  6.20000000E+01  0.00000000E+00
  8.70000000E+02  6.20000000E+01  0.00000000E+00
  8.80000000E+02  6.20000000E+01  0.00000000E+00
  8.90000000E+02  6.20000000E+01  0.00000000E+00
  9.00000000E+02  6.20000000E+01  0.00000000E+00
  9.10000000E+02  6.20000000E+01  0.00000000E+00
  9.20000000E+02  6.20000000E+01  0.00000000E+00
  9.30000000E+02  6.20000000E+01  0.00000000E+00
  9.40000000E+02  6.20000000E+01  0.00000000E+00
  9.50000000E+02  6.20000000E+01  0.00000000E+00
  9.60000000E+02  6.20000000E+01  0.00000000E+00
  9.70000000E+02  6.20000000E+01  0.00000000E+00
  9.80000000E+02  6.20000000E+01  0.00000000E+00
  9.90000000E+02  6.20000000E+01  0.00000000E+00
  1.00000000E+03  6.20000000E+01  0.00000000E+00
  0.00000000E+00  6.40000000E+01  0.00000000E+00
  1.00000000E+01  6.40000000E+01  0.00000000E+00
  2.00000000E+01  6.40000000E+01  0.00000000E+00
  3.00000000E+01  6.40000000E+01  0.00000000E+00
  4.00000000E+01  6.40000000E+01  0.00000000E+00
  5.00000000E+01  6.40000000E+01  0.00000000E+00
  6.00000000E+01  6.40000000E+01  0.00000000E+00
  7.00000000E+01  6.40000000E+01  0.00000000E+00
  8.00000000E+01  6.40000000E+01  0.00000000E+00
  9.00000000E+01  6.40000000E+01  0.00000000E+00
  1.00000000E+02  6.40000000E+01  0.00000000E+00
  1.10000000E+02  6.40000000E+01  0.00000000E+00
  1.20000000E+02  6.40000000E+01  0.00000000E+00
  1.30000000E+02  6.40000000E+01  0.00000000E+00
  1.40000000E+02  6.40000000E+01  0.00000000E+00
  1.50000000E+02  6.40000000E+01  0.00000000E+00
  1.60000000E+02  6.40000000E+01  0.00000000E+00
  1.70000000E+02  6.40000000E+01  0.00000000E+00
  1.80000000E+02  6.40000000E+01  0.00000000E+00
  1.90000000E+02  6.40000000E+01  0.00000000E+00
  2.00000000E+02  6.40000000E+01  0.00000000E+00
  2.10000000E+02  6.40000000E+01  0.00000000E+00
  2.20000000E+02  6.40000000E+01  0.00000000E+00
  2.30000000E+02  6.40000000E+01  0.00000000E+00
  2.40000000E+02  6.40000000E+01  0.00000000E+00
  2.50000000E+02  6.40000000E+01  0.00000000E+00
  2.60000000E+02  6.40000000E+01  0.00000000E+00
  2.70000000E+02  6.40000000E+01  0.00000000E+00
  2.80000000E+02  6.40000000E+01  0.00000000E+00
  2.90000000E+02  6.40000000E+01  0.00000000E+00
  3.00000000E+02  6.40000000E+01  0.00000000E+00
  3.10000000E+02  6.40000000E+01  0.00000000E+00
  3.20000000E+02  6.40000000E+01  0.00000000E+00
  3.30000000E+02  6.40000000E+01  0.00000000E+00
  3.40000000E+02  6.40000000E+01  0.00000000E+00
  3.50000000E+02  6.40000000E+01  0.00000000E+00
  3.60000000E+02  6.40000000E+01  0.00000000E+00
  3.70000000E+02  6.40000000E+01  0.00000000E+00
  3.80000000E+02  6.40000000E+01  0.00000000E+00
  3.90000000E+02  6.40000000E+01  0.00000000E+00
  4.00000000E+02  6.40000000E+01  0.00000000E+00
  4.10000000E+02  6.40000000E+01  0.00000000E+00
  4.20000000E+02  6.40000000E+01  0.00000000E+00
  4.30000000E+02  6.40000000E+01  0.00000000E+00
  4.40000000E+02  6.40000000E+01  0.00000000E+00
  4.50000000E+02  6.40000000E+01  0.00000000E+00
  4.60000000E+02  6.40000000E+01  0.00000000E+00
  4.70000000E+02  6.40000000E+01  0.00000000E+00
  4.80000000E+02  6.40000000E+01  0.00000000E+00
  4.90000000E+02  6.40000000E+01  0.00000000E+00
  5.00000000E+02  6.40000000E+01  0.00000000E+00
  5.10000000E+02  6.40000000E+01  0.00000000E+00
  5.20000000E+02  6.40000000E+01  0.00000000E+00
  5.30000000E+02  6.40000000E+01  0.00000000E+00
  5.40000000E+02  6.40000000E+01  0.00000000E+00
  5.50000000E+02  6.40000000E+01  0.00000000E+00
  5.60000000E+02  6.40000000E+01  0.00000000E+00
  5.70000000E+02  6.40000000E+01  0.00000000E+00
  5.80000000E+02  6.40000000E+01  0.00000000E+00
  5.90000000E+02  6.40000000E+01  0.00000000E+00
  6.00000000E+02  6.40000000E+01  0.00000000E+00
  6.10000000E+02  6.40000000E+01  0.00000000E+00
  6.20000000E+02  6.40000000E+01  0.00000000E+00
  6.30000000E+02  6.40000000E+01  0.00000000E+00
  6.40000000E+02  6.40000000E+01  0.00000000E+00
  6.50000000E+02  6.40000000E+01  0.00000000E+00
  6.60000000E+02  6.40000000E+01  0.00000000E+00
  6.70000000E+02  6.40000000E+01  0.00000000E+00
  6.80000000E+02  6.40000000E+01  0.00000000E+00
  6.90000000E+02  6.40000000E+01  0.00000000E+00
  7.00000000E+02  6.40000000E+01  0.00000000E+00
  7.10000000E+02  6.40000000E+01  0.00000000E+00
  7.20000000E+02  6.40000000E+01  0.00000000E+00
  7.30000000E+02  6.40000000E+01  0.00000000E+00
  7.40000000E+02  6.40000000E+01  0.00000000E+00
  7.50000000E+02  6.40000000E+01  0.00000000E+00
  7.60000000E+02  6.40000000E+01  0.00000000E+00
  7.70000000E+02  6.40000000E+01  0.00000000E+00
  7.80000000E+02  6.40000000E+01  0.00000000E+00
  7.90000000E+02  6.40000000E+01  0.00000000E+00
  8.00000000E+02  6.40000000E+01  0.00000000E+00
  8.10000000E+02  6.40000000E+01  0.00000000E+00
  8.20000000E+02  6.40000000E+01  0.00000000E+00
  8.30000000E+02  6.40000000E+01  0.00000000E+00
  8.40000000E+02  6.40000000E+01  0.00000000E+00
  8.50000000E+02  6.40000000E+01  0.00000000E+00
  8.60000000E+02  6.40000000E+01  0.00000000E+00
  8.70000000E+02  6.40000000E+01  0.00000000E+00
  8.80000000E+02  6.40000000E+01  0.00000000E+00
  8.90000000E+02  6.40000000E+01  0.00000000E+00
  9.00000000E+02  6.40000000E+01  0.00000000E+00
  9.10000000E+02  6.40000000E+01  0.00000000E+00
  9.20000000E+02  6.40000000E+01  0.00000000E+00
  9.30000000E+02  6.40000000E+01  0.00000000E+00
  9.40000000E+02  6.40000000E+01  0.00000000E+00
  9.50000000E+02  6.40000000E+01  0.00000000E+00
  9.60000000E+02  6.40000000E+01  0.00000000E+00
  9.70000000E+02  6.40000000E+01  0.00000000E+00
  9.80000000E+02  6.40000000E+01  0.00000000E+00
  9.90000000E+02  6.40000000E+01  0.00000000E+00
  1.00000000E+03  6.40000000E+01  0.00000000E+00
  0.00000000E+00  6.60000000E+01  0.00000000E+00
  1.00000000E+01  6.60000000E+01  0.00000000E+00
  2.00000000E+01  6.60000000E+01  0.00000000E+00
  3.00000000E+01  6.60000000E+01  0.00000000E+00
  4.00000000E+01  6.60000000E+01  0.00000000E+00
  5.00000000E+01  6.60000000E+01  0.00000000E+00
  6.00000000E+01  6.60000000E+01  0.00000000E+00
  7.00000000E+01  6.60000000E+01  0.00000000E+00
  8.00000000E+01  6.60000000E+01  0.00000000E+00
  9.00000000E+01  6.60000000E+01  0.00000000E+00
  1.00000000E+02  6.60000000E+01  0.00000000E+00
  1.10000000E+02  6.60000000E+01  0.00000000E+00
  1.20000000E+02  6.60000000E+01  0.00000000E+00
  1.30000000E+02  6.60000000E+01  0.00000000E+00
  1.40000000E+02  6.60000000E+01  0.00000000E+00
  1.50000000E+02  6.60000000E+01  0.00000000E+00
  1.60000000E+02  6.60000000E+01  0.00000000E+00
  1.70000000E+02  6.60000000E+01  0.00000000E+00
  1.80000000E+02  6.60000000E+01  0.00000000E+00
  1.90000000E+02  6.60000000E+01  0.00000000E+00
  2.00000000E+02  6.60000000E+01  0.00000000E+00
  2.10000000E+02  6.60000000E+01  0.00000000E+00
  2.20000000E+02  6.60000000E+01  0.00000000E+00
  2.30000000E+02  6.60000000E+01  0.00000000E+00
  2.40000000E+02  6.60000000E+01  0.00000000E+00
  2.50000000E+02  6.60000000E+01  0.00000000E+00
  2.60000000E+02  6.60000000E+01  0.00000000E+00
  2.70000000E+02  6.60000000E+01  0.00000000E+00
  2.80000000E+02  6.60000000E+01  0.00000000E+00
  2.90000000E+02  6.60000000E+01  0.00000000E+00
  3.00000000E+02  6.60000000E+01  0.00000000E+00
  3.10000000E+02  6.60000000E+01  0.00000000E+00
  3.20000000E+02  6.60000000E+01  0.00000000E+00
  3.30000000E+02  6.60000000E+01  0.00000000E+00
  3.40000000E+02  6.60000000E+01  0.00000000E+00
  3.50000000E+02  6.60000000E+01  0.00000000E+00
  3.60000000E+02  6.60000000E+01  0.00000000E+00
  3.70000000E+02  6.60000000E+01  0.00000000E+00
  3.80000000E+02  6.60000000E+01  0.00000000E+00
  3.90000000E+02  6.60000000E+01  0.00000000E+00
  4.00000000E+02  6.60000000E+01  0.00000000E+00
  4.10000000E+02  6.60000000E+01  0.00000000E+00
  4.20000000E+02  6.60000000E+01  0.00000000E+00
  4.30000000E+02  6.60000000E+01  0.00000000E+00
  4.40000000E+02  6.60000000E+01  0.00000000E+00
  4.50000000E+02  6.60000000E+01  0.00000000E+00
  4.60000000E+02  6.60000000E+01  0.00000000E+00
  4.70000000E+02  6.60000000E+01  0.00000000E+00
  4.80000000E+02  6.60000000E+01  0.00000000E+00
  4.90000000E+02  6.60000000E+01  0.00000000E+00
  5.00000000E+02  6.60000000E+01  0.00000000E+00
  5.10000000E+02  6.60000000E+01  0.00000000E+00
  5.20000000E+02  6.60000000E+01  0.00000000E+00
  5.30000000E+02  6.60000000E+01  0.00000000E+00
  5.40000000E+02  6.60000000E+01  0.00000000E+00
  5.50000000E+02  6.60000000E+01  0.00000000E+00
  5.60000000E+02  6.60000000E+01  0.00000000E+00
  5.70000000E+02  6.60000000E+01  0.00000000E+00
  5.80000000E+02  6.60000000E+01  0.00000000E+00
  5.90000000E+02  6.60000000E+01  0.00000000E+00
  6.00000000E+02  6.60000000E+01  0.00000000E+00
  6.10000000E+02  6.60000000E+01  0.00000000E+00
  6.20000000E+02  6.60000000E+01  0.00000000E+00
  6.30000000E+02  6.60000000E+01  0.00000000E+00
  6.40000000E+02  6.60000000E+01  0.00000000E+00
  6.50000000E+02  6.60000000E+01  0.00000000E+00
  6.60000000E+02  6.60000000E+01  0.00000000E+00
  6.70000000E+02  6.60000000E+01  0.00000000E+00
  6.80000000E+02  6.60000000E+01  0.00000000E+00
  6.90000000E+02  6.60000000E+01  0.00000000E+00
  7.00000000E+02  6.60000000E+01  0.00000000E+00
  7.10000000E+02  6.60000000E+01  0.00000000E+00
  7.20000000E+02  6.60000000E+01  0.00000000E+00
  7.30000000E+02  6.60000000E+01  0.00000000E+00
  7.40000000E+02  6.60000000E+01  0.00000000E+00
  7.50000000E+02  6.60000000E+01  0.00000000E+00
  7.60000000E+02  6.60000000E+01  0.00000000E+00
  7.70000000E+02  6.60000000E+01  0.00000000E+00
  7.80000000E+02  6.60000000E+01  0.00000000E+00
  7.90000000E+02  6.60000000E+01  0.00000000E+00
  8.00000000E+02  6.60000000E+01  0.00000000E+00
  8.10000000E+02  6.60000000E+01  0.00000000E+00
  8.20000000E+02  6.60000000E+01  0.00000000E+00
  8.30000000E+02  6.60000000E+01  0.00000000E+00
  8.40000000E+02  6.60000000E+01  0.00000000E+00
  8.50000000E+02  6.60000000E+01  0.00000000E+00
  8.60000000E+02  6.60000000E+01  0.00000000E+00
  8.70000000E+02  6.60000000E+01  0.00000000E+00
  8.80000000E+02  6.60000000E+01  0.00000000E+00
  8.90000000E+02  6.60000000E+01  0.00000000E+00
  9.00000000E+02  6.60000000E+01  0.00000000E+00
  9.10000000E+02  6.60000000E+01  0.00000000E+00
  9.20000000E+02  6.60000000E+01  0.00000000E+00
  9.30000000E+02  6.60000000E+01  0.00000000E+00
  9.40000000E+02  6.60000000E+01  0.00000000E+00
  9.50000000E+02  6.60000000E+01  0.00000000E+00
  9.60000000E+02  6.60000000E+01  0.00000000E+00
  9.70000000E+02  6.60000000E+01  0.00000000E+00
  9.80000000E+02  6.60000000E+01  0.00000000E+00
  9.90000000E+02  6.60000000E+01  0.00000000E+00
  1.00000000E+03  6.60000000E+01  0.00000000E+00
  0.00000000E+00  6.80000000E+01  0.00000000E+00
  1.00000000E+01  6.80000000E+01  0.00000000E+00
  2.00000000E+01  6.80000000E+01  0.00000000E+00
  3.00000000E+01  6.80000000E+01  0.00000000E+00
  4.00000000E+01  6.80000000E+01  0.00000000E+00
  5.00000000E+01  6.80000000E+01  0.00000000E+00
  6.00000000E+01  6.80000000E+01  0.00000000E+00
  7.00000000E+01  6.80000000E+01  0.00000000E+00
  8.00000000E+01  6.80000000E+01  0.00000000E+00
  9.00000000E+01  6.80000000E+01  0.00000000E+00
  1.00000000E+02  6.80000000E+01  0.00000000E+00
  1.10000000E+02  6.80000000E+01  0.00000000E+00
  1.20000000E+02  6.80000000E+01  0.00000000E+00
  1.30000000E+02  6.80000000E+01  0.00000000E+00
  1.40000000E+02  6.80000000E+01  0.00000000E+00
  1.50000000E+02  6.80000000E+01  0.00000000E+00
  1.60000000E+02  6.80000000E+01  0.00000000E+00
  1.70000000E+02  6.80000000E+01  0.00000000E+00
  1.80000000E+02  6.80000000E+01  0.00000000E+00
  1.90000000E+02  6.80000000E+01  0.00000000E+00
  2.00000000E+02  6.80000000E+01  0.00000000E+00
  2.10000000E+02  6.80000000E+01  0.00000000E+00
  2.20000000E+02  6.80000000E+01  0.00000000E+00
  2.30000000E+02  6.80000000E+01  0.00000000E+00
  2.40000000E+02  6.80000000E+01  0.00000000E+00
  2.50000000E+02  6.80000000E+01  0.00000000E+00
  2.60000000E+02  6.80000000E+01  0.00000000E+00
  2.70000000E+02  6.80000000E+01  0.00000000E+00
  2.80000000E+02  6.80000000E+01  0.00000000E+00
  2.90000000E+02  6.80000000E+01  0.00000000E+00
  3.00000000E+02  6.80000000E+01  0.00000000E+00
  3.10000000E+02  6.80000000E+01  0.00000000E+00
  3.20000000E+02  6.80000000E+01  0.00000000E+00
  3.30000000E+02  6.80000000E+01  0.00000000E+00
  3.40000000E+02  6.80000000E+01  0.00000000E+00
  3.50000000E+02  6.80000000E+01  0.00000000E+00
  3.60000000E+02  6.80000000E+01  0.00000000E+00
  3.70000000E+02  6.80000000E+01  0.00000000E+00
  3.80000000E+02  6.80000000E+01  0.00000000E+00
  3.90000000E+02  6.80000000E+01  0.00000000E+00
  4.00000000E+02  6.80000000E+01  0.00000000E+00
  4.10000000E+02  6.80000000E+01  0.00000000E+00
  4.20000000E+02  6.80000000E+01  0.00000000E+00
  4.30000000E+02  6.80000000E+01  0.00000000E+00
  4.40000000E+02  6.80000000E+01  0.00000000E+00
  4.50000000E+02  6.80000000E+01  0.00000000E+00
  4.60000000E+02  6.80000000E+01  0.00000000E+00
  4.70000000E+02  6.80000000E+01  0.00000000E+00
  4.80000000E+02  6.80000000E+01  0.00000000E+00
  4.90000000E+02  6.80000000E+01  0.00000000E+00
  5.00000000E+02  6.80000000E+01  0.00000000E+00
  5.10000000E+02  6.80000000E+01  0.00000000E+00
  5.20000000E+02  6.80000000E+01  0.00000000E+00
  5.30000000E+02  6.80000000E+01  0.00000000E+00
  5.40000000E+02  6.80000000E+01  0.00000000E+00
  5.50000000E+02  6.80000000E+01  0.00000000E+00
  5.60000000E+02  6.80000000E+01  0.00000000E+00
  5.70000000E+02  6.80000000E+01  0.00000000E+00
  5.80000000E+02  6.80000000E+01  0.00000000E+00
  5.90000000E+02  6.80000000E+01  0.00000000E+00
  6.00000000E+02  6.80000000E+01  0.00000000E+00
  6.10000000E+02  6.80000000E+01  0.00000000E+00
  6.20000000E+02  6.80000000E+01  0.00000000E+00
  6.30000000E+02  6.80000000E+01  0.00000000E+00
  6.40000000E+02  6.80000000E+01  0.00000000E+00
  6.50000000E+02  6.80000000E+01  0.00000000E+00
  6.60000000E+02  6.80000000E+01  0.00000000E+00
  6.70000000E+02  6.80000000E+01  0.00000000E+00
  6.80000000E+02  6.80000000E+01  0.00000000E+00
  6.90000000E+02  6.80000000E+01  0.00000000E+00
  7.00000000E+02  6.80000000E+01  0.00000000E+00
  7.10000000E+02  6.80000000E+01  0.00000000E+00
  7.20000000E+02  6.80000000E+01  0.00000000E+00
  7.30000000E+02  6.80000000E+01  0.00000000E+00
  7.40000000E+02  6.80000000E+01  0.00000000E+00
  7.50000000E+02  6.80000000E+01  0.00000000E+00
  7.60000000E+02  6.80000000E+01  0.00000000E+00
  7.70000000E+02  6.80000000E+01  0.00000000E+00
  7.80000000E+02  6.80000000E+01  0.00000000E+00
  7.90000000E+02  6.80000000E+01  0.00000000E+00
  8.00000000E+02  6.80000000E+01  0.00000000E+00
  8.10000000E+02  6.80000000E+01  0.00000000E+00
  8.20000000E+02  6.80000000E+01  0.00000000E+00
  8.30000000E+02  6.80000000E+01  0.00000000E+00
  8.40000000E+02  6.80000000E+01  0.00000000E+00
  8.50000000E+02  6.80000000E+01  0.00000000E+00
  8.60000000E+02  6.80000000E+01  0.00000000E+00
  8.70000000E+02  6.80000000E+01  0.00000000E+00
  8.80000000E+02  6.80000000E+01  0.00000000E+00
  8.90000000E+02  6.80000000E+01  0.00000000E+00
  9.00000000E+02  6.80000000E+01  0.00000000E+00
  9.10000000E+02  6.80000000E+01  0.00000000E+00
  9.20000000E+02  6.80000000E+01  0.00000000E+00
  9.30000000E+02  6.80000000E+01  0.00000000E+00
  9.40000000E+02  6.80000000E+01  0.00000000E+00
  9.50000000E+02  6.80000000E+01  0.00000000E+00
  9.60000000E+02  6.80000000E+01  0.00000000E+00
  9.70000000E+02  6.80000000E+01  0.00000000E+00
  9.80000000E+02  6.80000000E+01  0.00000000E+00
  9.90000000E+02  6.80000000E+01  0.00000000E+00
  1.00000000E+03  6.80000000E+01  0.00000000E+00
  0.00000000E+00  7.00000000E+01  0.00000000E+00
  1.00000000E+01  7.00000000E+01  0.00000000E+00
  2.00000000E+01  7.00000000E+01  0.00000000E+00
  3.00000000E+01  7.00000000E+01  0.00000000E+00
  4.00000000E+01  7.00000000E+01  0.00000000E+00
  5.00000000E+01  7.00000000E+01  0.00000000E+00
  6.00000000E+01  7.00000000E+01  0.00000000E+00
  7.00000000E+01  7.00000000E+01  0.00000000E+00
  8.00000000E+01  7.00000000E+01  0.00000000E+00
  9.00000000E+01  7.00000000E+01  0.00000000E+00
  1.00000000E+02  7.00000000E+01  0.00000000E+00
  1.10000000E+02  7.00000000E+01  0.00000000E+00
  1.20000000E+02  7.00000000E+01  0.00000000E+00
  1.30000000E+02  7.00000000E+01  0.00000000E+00
  1.40000000E+02  7.00000000E+01  0.00000000E+00
  1.50000000E+02  7.00000000E+01  0.00000000E+00
  1.60000000E+02  7.00000000E+01  0.00000000E+00
  1.70000000E+02  7.00000000E+01  0.00000000E+00
  1.80000000E+02  7.00000000E+01  0.00000000E+00
  1.90000000E+02  7.00000000E+01  0.00000000E+00
  2.00000000E+02  7.00000000E+01  0.00000000E+00
  2.10000000E+02  7.00000000E+01  0.00000000E+00
  2.20000000E+02  7.00000000E+01  0.00000000E+00
  2.30000000E+02  7.00000000E+01  0.00000000E+00
  2.40000000E+02  7.00000000E+01  0.00000000E+00
  2.50000000E+02  7.00000000E+01  0.00000000E+00
  2.60000000E+02  7.00000000E+01  0.00000000E+00
  2.70000000E+02  7.00000000E+01  0.00000000E+00
  2.80000000E+02  7.00000000E+01  0.00000000E+00
  2.90000000E+02  7.00000000E+01  0.00000000E+00
  3.00000000E+02  7.00000000E+01  0.00000000E+00
  3.10000000E+02  7.00000000E+01  0.00000000E+00
  3.20000000E+02  7.00000000E+01  0.00000000E+00
  3.30000000E+02  7.00000000E+01  0.00000000E+00
  3.40000000E+02  7.00000000E+01  0.00000000E+00
  3.50000000E+02  7.00000000E+01  0.00000000E+00
  3.60000000E+02  7.00000000E+01  0.00000000E+00
  3.70000000E+02  7.00000000E+01  0.00000000E+00
  3.80000000E+02  7.00000000E+01  0.00000000E+00
  3.90000000E+02  7.00000000E+01  0.00000000E+00
  4.00000000E+02  7.00000000E+01  0.00000000E+00
  4.10000000E+02  7.00000000E+01  0.00000000E+00
  4.20000000E+02  7.00000000E+01  0.00000000E+00
  4.30000000E+02  7.00000000E+01  0.00000000E+00
  4.40000000E+02  7.00000000E+01  0.00000000E+00
  4.50000000E+02  7.00000000E+01  0.00000000E+00
  4.60000000E+02  7.00000000E+01  0.00000000E+00
  4.70000000E+02  7.00000000E+01  0.00000000E+00
  4.80000000E+02  7.00000000E+01  0.00000000E+00
  4.90000000E+02  7.00000000E+01  0.00000000E+00
  5.00000000E+02  7.00000000E+01  0.00000000E+00
  5.10000000E+02  7.00000000E+01  0.00000000E+00
  5.20000000E+02  7.00000000E+01  0.00000000E+00
  5.30000000E+02  7.00000000E+01  0.00000000E+00
  5.40000000E+02  7.00000000E+01  0.00000000E+00
  5.50000000E+02  7.00000000E+01  0.00000000E+00
  5.60000000E+02  7.00000000E+01  0.00000000E+00
  5.70000000E+02  7.00000000E+01  0.00000000E+00
  5.80000000E+02  7.00000000E+01  0.00000000E+00
  5.90000000E+02  7.00000000E+01  0.00000000E+00
  6.00000000E+02  7.00000000E+01  0.00000000E+00
  6.10000000E+02  7.00000000E+01  0.00000000E+00
  6.20000000E+02  7.00000000E+01  0.00000000E+00
  6.30000000E+02  7.00000000E+01  0.00000000E+00
  6.40000000E+02  7.00000000E+01  0.00000000E+00
  6.50000000E+02  7.00000000E+01  0.00000000E+00
  6.60000000E+02  7.00000000E+01  0.00000000E+00
  6.70000000E+02  7.00000000E+01  0.00000000E+00
  6.80000000E+02  7.00000000E+01  0.00000000E+00
  6.90000000E+02  7.00000000E+01  0.00000000E+00
  7.00000000E+02  7.00000000E+01  0.00000000E+00
  7.10000000E+02  7.00000000E+01  0.00000000E+00
  7.20000000E+02  7.00000000E+01  0.00000000E+00
  7.30000000E+02  7.00000000E+01  0.00000000E+00
  7.40000000E+02  7.00000000E+01  0.00000000E+00
  7.50000000E+02  7.00000000E+01  0.00000000E+00
  7.60000000E+02  7.00000000E+01  0.00000000E+00
  7.70000000E+02  7.00000000E+01  0.00000000E+00
  7.80000000E+02  7.00000000E+01  0.00000000E+00
  7.90000000E+02  7.00000000E+01  0.00000000E+00
  8.00000000E+02  7.00000000E+01  0.00000000E+00
  8.10000000E+02  7.00000000E+01  0.00000000E+00
  8.20000000E+02  7.00000000E+01  0.00000000E+00
  8.30000000E+02  7.00000000E+01  0.00000000E+00
  8.40000000E+02  7.00000000E+01  0.00000000E+00
  8.50000000E+02  7.00000000E+01  0.00000000E+00
  8.60000000E+02  7.00000000E+01  0.00000000E+00
  8.70000000E+02  7.00000000E+01  0.00000000E+00
  8.80000000E+02  7.00000000E+01  0.00000000E+00
  8.90000000E+02  7.00000000E+01  0.00000000E+00
  9.00000000E+02  7.00000000E+01  0.00000000E+00
  9.10000000E+02  7.00000000E+01  0.00000000E+00
  9.20000000E+02  7.00000000E+01  0.00000000E+00
  9.30000000E+02  7.00000000E+01  0.00000000E+00
  9.40000000E+02  7.00000000E+01  0.00000000E+00
  9.50000000E+02  7.00000000E+01  0.00000000E+00
  9.60000000E+02  7.00000000E+01  0.00000000E+00
  9.70000000E+02  7.00000000E+01  0.00000000E+00
  9.80000000E+02  7.00000000E+01  0.00000000E+00
  9.90000000E+02  7.00000000E+01  0.00000000E+00
  1.00000000E+03  7.00000000E+01  0.00000000E+00
  0.00000000E+00  7.20000000E+01  0.00000000E+00
  1.00000000E+01  7.20000000E+01  0.00000000E+00
  2.00000000E+01  7.20000000E+01  0.00000000E+00
  3.00000000E+01  7.20000000E+01  0.00000000E+00
  4.00000000E+01  7.20000000E+01  0.00000000E+00
  5.00000000E+01  7.20000000E+01  0.00000000E+00
  6.00000000E+01  7.20000000E+01  0.00000000E+00
  7.00000000E+01  7.20000000E+01  0.00000000E+00
  8.00000000E+01  7.20000000E+01  0.00000000E+00
  9.00000000E+01  7.20000000E+01  0.00000000E+00
  1.00000000E+02  7.20000000E+01  0.00000000E+00
  1.10000000E+02  7.20000000E+01  0.00000000E+00
  1.20000000E+02  7.20000000E+01  0.00000000E+00
  1.30000000E+02  7.20000000E+01  0.00000000E+00
  1.40000000E+02  7.20000000E+01  0.00000000E+00
  1.50000000E+02  7.20000000E+01  0.00000000E+00
  1.60000000E+02  7.20000000E+01  0.00000000E+00
  1.70000000E+02  7.20000000E+01  0.00000000E+00
  1.80000000E+02  7.20000000E+01  0.00000000E+00
  1.90000000E+02  7.20000000E+01  0.00000000E+00
  2.00000000E+02  7.20000000E+01  0.00000000E+00
  2.10000000E+02  7.20000000E+01  0.00000000E+00
  2.20000000E+02  7.20000000E+01  0.00000000E+00
  2.30000000E+02  7.20000000E+01  0.00000000E+00
  2.40000000E+02  7.20000000E+01  0.00000000E+00
  2.50000000E+02  7.20000000E+01  0.00000000E+00
  2.60000000E+02  7.20000000E+01  0.00000000E+00
  2.70000000E+02  7.20000000E+01  0.00000000E+00
  2.80000000E+02  7.20000000E+01  0.00000000E+00
  2.90000000E+02  7.20000000E+01  0.00000000E+00
  3.00000000E+02  7.20000000E+01  0.00000000E+00
  3.10000000E+02  7.20000000E+01  0.00000000E+00
  3.20000000E+02  7.20000000E+01  0.00000000E+00
  3.30000000E+02  7.20000000E+01  0.00000000E+00
  3.40000000E+02  7.20000000E+01  0.00000000E+00
  3.50000000E+02  7.20000000E+01  0.00000000E+00
  3.60000000E+02  7.20000000E+01  0.00000000E+00
  3.70000000E+02  7.20000000E+01  0.00000000E+00
  3.80000000E+02  7.20000000E+01  0.00000000E+00
  3.90000000E+02  7.20000000E+01  0.00000000E+00
  4.00000000E+02  7.20000000E+01  0.00000000E+00
  4.10000000E+02  7.20000000E+01  0.00000000E+00
  4.20000000E+02  7.20000000E+01  0.00000000E+00
  4.30000000E+02  7.20000000E+01  0.00000000E+00
  4.40000000E+02  7.20000000E+01  0.00000000E+00
  4.50000000E+02  7.20000000E+01  0.00000000E+00
  4.60000000E+02  7.20000000E+01  0.00000000E+00
  4.70000000E+02  7.20000000E+01  0.00000000E+00
  4.80000000E+02  7.20000000E+01  0.00000000E+00
  4.90000000E+02  7.20000000E+01  0.00000000E+00
  5.00000000E+02  7.20000000E+01  0.00000000E+00
  5.10000000E+02  7.20000000E+01  0.00000000E+00
  5.20000000E+02  7.20000000E+01  0.00000000E+00
  5.30000000E+02  7.20000000E+01  0.00000000E+00
  5.40000000E+02  7.20000000E+01  0.00000000E+00
  5.50000000E+02  7.20000000E+01  0.00000000E+00
  5.60000000E+02  7.20000000E+01  0.00000000E+00
  5.70000000E+02  7.20000000E+01  0.00000000E+00
  5.80000000E+02  7.20000000E+01  0.00000000E+00
  5.90000000E+02  7.20000000E+01  0.00000000E+00
  6.00000000E+02  7.20000000E+01  0.00000000E+00
  6.10000000E+02  7.20000000E+01  0.00000000E+00
  6.20000000E+02  7.20000000E+01  0.00000000E+00
  6.30000000E+02  7.20000000E+01  0.00000000E+00
  6.40000000E+02  7.20000000E+01  0.00000000E+00
  6.50000000E+02  7.20000000E+01  0.00000000E+00
  6.60000000E+02  7.20000000E+01  0.00000000E+00
  6.70000000E+02  7.20000000E+01  0.00000000E+00
  6.80000000E+02  7.20000000E+01  0.00000000E+00
  6.90000000E+02  7.20000000E+01  0.00000000E+00
  7.00000000E+02  7.20000000E+01  0.00000000E+00
  7.10000000E+02  7.20000000E+01  0.00000000E+00
  7.20000000E+02  7.20000000E+01  0.00000000E+00
  7.30000000E+02  7.20000000E+01  0.00000000E+00
  7.40000000E+02  7.20000000E+01  0.00000000E+00
  7.50000000E+02  7.20000000E+01  0.00000000E+00
  7.60000000E+02  7.20000000E+01  0.00000000E+00
  7.70000000E+02  7.20000000E+01  0.00000000E+00
  7.80000000E+02  7.20000000E+01  0.00000000E+00
  7.90000000E+02  7.20000000E+01  0.00000000E+00
  8.00000000E+02  7.20000000E+01  0.00000000E+00
  8.10000000E+02  7.20000000E+01  0.00000000E+00
  8.20000000E+02  7.20000000E+01  0.00000000E+00
  8.30000000E+02  7.20000000E+01  0.00000000E+00
  8.40000000E+02  7.20000000E+01  0.00000000E+00
  8.50000000E+02  7.20000000E+01  0.00000000E+00
  8.60000000E+02  7.20000000E+01  0.00000000E+00
  8.70000000E+02  7.20000000E+01  0.00000000E+00
  8.80000000E+02  7.20000000E+01  0.00000000E+00
  8.90000000E+02  7.20000000E+01  0.00000000E+00
  9.00000000E+02  7.20000000E+01  0.00000000E+00
  9.10000000E+02  7.20000000E+01  0.00000000E+00
  9.20000000E+02  7.20000000E+01  0.00000000E+00
  9.30000000E+02  7.20000000E+01  0.00000000E+00
  9.40000000E+02  7.20000000E+01  0.00000000E+00
  9.50000000E+02  7.20000000E+01  0.00000000E+00
  9.60000000E+02  7.20000000E+01  0.00000000E+00
  9.70000000E+02  7.20000000E+01  0.00000000E+00
  9.80000000E+02  7.20000000E+01  0.00000000E+00
  9.90000000E+02  7.20000000E+01  0.00000000E+00
  1.00000000E+03  7.20000000E+01  0.00000000E+00
  0.00000000E+00  7.40000000E+01  0.00000000E+00
  1.00000000E+01  7.40000000E+01  0.00000000E+00
  2.00000000E+01  7.40000000E+01  0.00000000E+00
  3.00000000E+01  7.40000000E+01  0.00000000E+00
  4.00000000E+01  7.40000000E+01  0.00000000E+00
  5.00000000E+01  7.40000000E+01  0.00000000E+00
  6.00000000E+01  7.40000000E+01  0.00000000E+00
  7.00000000E+01  7.40000000E+01  0.00000000E+00
  8.00000000E+01  7.40000000E+01  0.00000000E+00
  9.00000000E+01  7.40000000E+01  0.00000000E+00
  1.00000000E+02  7.40000000E+01  0.00000000E+00
  1.10000000E+02  7.40000000E+01  0.00000000E+00
  1.20000000E+02  7.40000000E+01  0.00000000E+00
  1.30000000E+02  7.40000000E+01  0.00000000E+00
  1.40000000E+02  7.40000000E+01  0.00000000E+00
  1.50000000E+02  7.40000000E+01  0.00000000E+00
  1.60000000E+02  7.40000000E+01  0.00000000E+00
  1.70000000E+02  7.40000000E+01  0.00000000E+00
  1.80000000E+02  7.40000000E+01  0.00000000E+00
  1.90000000E+02  7.40000000E+01  0.00000000E+00
  2.00000000E+02  7.40000000E+01  0.00000000E+00
  2.10000000E+02  7.40000000E+01  0.00000000E+00
  2.20000000E+02  7.40000000E+01  0.00000000E+00
  2.30000000E+02  7.40000000E+01  0.00000000E+00
  2.40000000E+02  7.40000000E+01  0.00000000E+00
  2.50000000E+02  7.40000000E+01  0.00000000E+00
  2.60000000E+02  7.40000000E+01  0.00000000E+00
  2.70000000E+02  7.40000000E+01  0.00000000E+00
  2.80000000E+02  7.40000000E+01  0.00000000E+00
  2.90000000E+02  7.40000000E+01  0.00000000E+00
  3.00000000E+02  7.40000000E+01  0.00000000E+00
  3.10000000E+02  7.40000000E+01  0.00000000E+00
  3.20000000E+02  7.40000000E+01  0.00000000E+00
  3.30000000E+02  7.40000000E+01  0.00000000E+00
  3.40000000E+02  7.40000000E+01  0.00000000E+00
  3.50000000E+02  7.40000000E+01  0.00000000E+00
  3.60000000E+02  7.40000000E+01  0.00000000E+00
  3.70000000E+02  7.40000000E+01  0.00000000E+00
  3.80000000E+02  7.40000000E+01  0.00000000E+00
  3.90000000E+02  7.40000000E+01  0.00000000E+00
  4.00000000E+02  7.40000000E+01  0.00000000E+00
  4.10000000E+02  7.40000000E+01  0.00000000E+00
  4.20000000E+02  7.40000000E+01  0.00000000E+00
  4.30000000E+02  7.40000000E+01  0.00000000E+00
  4.40000000E+02  7.40000000E+01  0.00000000E+00
  4.50000000E+02  7.40000000E+01  0.00000000E+00
  4.60000000E+02  7.40000000E+01  0.00000000E+00
  4.70000000E+02  7.40000000E+01  0.00000000E+00
  4.80000000E+02  7.40000000E+01  0.00000000E+00
  4.90000000E+02  7.40000000E+01  0.00000000E+00
  5.00000000E+02  7.40000000E+01  0.00000000E+00
  5.10000000E+02  7.40000000E+01  0.00000000E+00
  5.20000000E+02  7.40000000E+01  0.00000000E+00
  5.30000000E+02  7.40000000E+01  0.00000000E+00
  5.40000000E+02  7.40000000E+01  0.00000000E+00
  5.50000000E+02  7.40000000E+01  0.00000000E+00
  5.60000000E+02  7.40000000E+01  0.00000000E+00
  5.70000000E+02  7.40000000E+01  0.00000000E+00
  5.80000000E+02  7.40000000E+01  0.00000000E+00
  5.90000000E+02  7.40000000E+01  0.00000000E+00
  6.00000000E+02  7.40000000E+01  0.00000000E+00
  6.10000000E+02  7.40000000E+01  0.00000000E+00
  6.20000000E+02  7.40000000E+01  0.00000000E+00
  6.30000000E+02  7.40000000E+01  0.00000000E+00
  6.40000000E+02  7.40000000E+01  0.00000000E+00
  6.50000000E+02  7.40000000E+01  0.00000000E+00
  6.60000000E+02  7.40000000E+01  0.00000000E+00
  6.70000000E+02  7.40000000E+01  0.00000000E+00
  6.80000000E+02  7.40000000E+01  0.00000000E+00
  6.90000000E+02  7.40000000E+01  0.00000000E+00
  7.00000000E+02  7.40000000E+01  0.00000000E+00
  7.10000000E+02  7.40000000E+01  0.00000000E+00
  7.20000000E+02  7.40000000E+01  0.00000000E+00
  7.30000000E+02  7.40000000E+01  0.00000000E+00
  7.40000000E+02  7.40000000E+01  0.00000000E+00
  7.50000000E+02  7.40000000E+01  0.00000000E+00
  7.60000000E+02  7.40000000E+01  0.00000000E+00
  7.70000000E+02  7.40000000E+01  0.00000000E+00
  7.80000000E+02  7.40000000E+01  0.00000000E+00
  7.90000000E+02  7.40000000E+01  0.00000000E+00
  8.00000000E+02  7.40000000E+01  0.00000000E+00
  8.10000000E+02  7.40000000E+01  0.00000000E+00
  8.20000000E+02  7.40000000E+01  0.00000000E+00
  8.30000000E+02  7.40000000E+01  0.00000000E+00
  8.40000000E+02  7.40000000E+01  0.00000000E+00
  8.50000000E+02  7.40000000E+01  0.00000000E+00
  8.60000000E+02  7.40000000E+01  0.00000000E+00
  8.70000000E+02  7.40000000E+01  0.00000000E+00
  8.80000000E+02  7.40000000E+01  0.00000000E+00
  8.90000000E+02  7.40000000E+01  0.00000000E+00
  9.00000000E+02  7.40000000E+01  0.00000000E+00
  9.10000000E+02  7.40000000E+01  0.00000000E+00
  9.20000000E+02  7.40000000E+01  0.00000000E+00
  9.30000000E+02  7.40000000E+01  0.00000000E+00
  9.40000000E+02  7.40000000E+01  0.00000000E+00
  9.50000000E+02  7.40000000E+01  0.00000000E+00
  9.60000000E+02  7.40000000E+01  0.00000000E+00
  9.70000000E+02  7.40000000E+01  0.00000000E+00
  9.80000000E+02  7.40000000E+01  0.00000000E+00
  9.90000000E+02  7.40000000E+01  0.00000000E+00
  1.00000000E+03  7.40000000E+01  0.00000000E+00
  0.00000000E+00  7.60000000E+01  0.00000000E+00
  1.00000000E+01  7.60000000E+01  0.00000000E+00
  2.00000000E+01  7.60000000E+01  0.00000000E+00
  3.00000000E+01  7.60000000E+01  0.00000000E+00
  4.00000000E+01  7.60000000E+01  0.00000000E+00
  5.00000000E+01  7.60000000E+01  0.00000000E+00
  6.00000000E+01  7.60000000E+01  0.00000000E+00
  7.00000000E+01  7.60000000E+01  0.00000000E+00
  8.00000000E+01  7.60000000E+01  0.00000000E+00
  9.00000000E+01  7.60000000E+01  0.00000000E+00
  1.00000000E+02  7.60000000E+01  0.00000000E+00
  1.10000000E+02  7.60000000E+01  0.00000000E+00
  1.20000000E+02  7.60000000E+01  0.00000000E+00
  1.30000000E+02  7.60000000E+01  0.00000000E+00
  1.40000000E+02  7.60000000E+01  0.00000000E+00
  1.50000000E+02  7.60000000E+01  0.00000000E+00
  1.60000000E+02  7.60000000E+01  0.00000000E+00
  1.70000000E+02  7.60000000E+01  0.00000000E+00
  1.80000000E+02  7.60000000E+01  0.00000000E+00
  1.90000000E+02  7.60000000E+01  0.00000000E+00
  2.00000000E+02  7.60000000E+01  0.00000000E+00
  2.10000000E+02  7.60000000E+01  0.00000000E+00
  2.20000000E+02  7.60000000E+01  0.00000000E+00
  2.30000000E+02  7.60000000E+01  0.00000000E+00
  2.40000000E+02  7.60000000E+01  0.00000000E+00
  2.50000000E+02  7.60000000E+01  0.00000000E+00
  2.60000000E+02  7.60000000E+01  0.00000000E+00
  2.70000000E+02  7.60000000E+01  0.00000000E+00
  2.80000000E+02  7.60000000E+01  0.00000000E+00
  2.90000000E+02  7.60000000E+01  0.00000000E+00
  3.00000000E+02  7.60000000E+01  0.00000000E+00
  3.10000000E+02  7.60000000E+01  0.00000000E+00
  3.20000000E+02  7.60000000E+01  0.00000000E+00
  3.30000000E+02  7.60000000E+01  0.00000000E+00
  3.40000000E+02  7.60000000E+01  0.00000000E+00
  3.50000000E+02  7.60000000E+01  0.00000000E+00
  3.60000000E+02  7.60000000E+01  0.00000000E+00
  3.70000000E+02  7.60000000E+01  0.00000000E+00
  3.80000000E+02  7.60000000E+01  0.00000000E+00
  3.90000000E+02  7.60000000E+01  0.00000000E+00
  4.00000000E+02  7.60000000E+01  0.00000000E+00
  4.10000000E+02  7.60000000E+01  0.00000000E+00
  4.20000000E+02  7.60000000E+01  0.00000000E+00
  4.30000000E+02  7.60000000E+01  0.00000000E+00
  4.40000000E+02  7.60000000E+01  0.00000000E+00
  4.50000000E+02  7.60000000E+01  0.00000000E+00
  4.60000000E+02  7.60000000E+01  0.00000000E+00
  4.70000000E+02  7.60000000E+01  0.00000000E+00
  4.80000000E+02  7.60000000E+01  0.00000000E+00
  4.90000000E+02  7.60000000E+01  0.00000000E+00
  5.00000000E+02  7.60000000E+01  0.00000000E+00
  5.10000000E+02  7.60000000E+01  0.00000000E+00
  5.20000000E+02  7.60000000E+01  0.00000000E+00
  5.30000000E+02  7.60000000E+01  0.00000000E+00
  5.40000000E+02  7.60000000E+01  0.00000000E+00
  5.50000000E+02  7.60000000E+01  0.00000000E+00
  5.60000000E+02  7.60000000E+01  0.00000000E+00
  5.70000000E+02  7.60000000E+01  0.00000000E+00
  5.80000000E+02  7.60000000E+01  0.00000000E+00
  5.90000000E+02  7.60000000E+01  0.00000000E+00
  6.00000000E+02  7.60000000E+01  0.00000000E+00
  6.10000000E+02  7.60000000E+01  0.00000000E+00
  6.20000000E+02  7.60000000E+01  0.00000000E+00
  6.30000000E+02  7.60000000E+01  0.00000000E+00
  6.40000000E+02  7.60000000E+01  0.00000000E+00
  6.50000000E+02  7.60000000E+01  0.00000000E+00
  6.60000000E+02  7.60000000E+01  0.00000000E+00
  6.70000000E+02  7.60000000E+01  0.00000000E+00
  6.80000000E+02  7.60000000E+01  0.00000000E+00
  6.90000000E+02  7.60000000E+01  0.00000000E+00
  7.00000000E+02  7.60000000E+01  0.00000000E+00
  7.10000000E+02  7.60000000E+01  0.00000000E+00
  7.20000000E+02  7.60000000E+01  0.00000000E+00
  7.30000000E+02  7.60000000E+01  0.00000000E+00
  7.40000000E+02  7.60000000E+01  0.00000000E+00
  7.50000000E+02  7.60000000E+01  0.00000000E+00
  7.60000000E+02  7.60000000E+01  0.00000000E+00
  7.70000000E+02  7.60000000E+01  0.00000000E+00
  7.80000000E+02  7.60000000E+01  0.00000000E+00
  7.90000000E+02  7.60000000E+01  0.00000000E+00
  8.00000000E+02  7.60000000E+01  0.00000000E+00
  8.10000000E+02  7.60000000E+01  0.00000000E+00
  8.20000000E+02  7.60000000E+01  0.00000000E+00
  8.30000000E+02  7.60000000E+01  0.00000000E+00
  8.40000000E+02  7.60000000E+01  0.00000000E+00
  8.50000000E+02  7.60000000E+01  0.00000000E+00
  8.60000000E+02  7.60000000E+01  0.00000000E+00
  8.70000000E+02  7.60000000E+01  0.00000000E+00
  8.80000000E+02  7.60000000E+01  0.00000000E+00
  8.90000000E+02  7.60000000E+01  0.00000000E+00
  9.00000000E+02  7.60000000E+01  0.00000000E+00
  9.10000000E+02  7.60000000E+01  0.00000000E+00
  9.20000000E+02  7.60000000E+01  0.00000000E+00
  9.30000000E+02  7.60000000E+01  0.00000000E+00
  9.40000000E+02  7.60000000E+01  0.00000000E+00
  9.50000000E+02  7.60000000E+01  0.00000000E+00
  9.60000000E+02  7.60000000E+01  0.00000000E+00
  9.70000000E+02  7.60000000E+01  0.00000000E+00
  9.80000000E+02  7.60000000E+01  0.00000000E+00
  9.90000000E+02  7.60000000E+01  0.00000000E+00
  1.00000000E+03  7.60000000E+01  0.00000000E+00
  0.00000000E+00  7.80000000E+01  0.00000000E+00
  1.00000000E+01  7.80000000E+01  0.00000000E+00
  2.00000000E+01  7.80000000E+01  0.00000000E+00
  3.00000000E+01  7.80000000E+01  0.00000000E+00
  4.00000000E+01  7.80000000E+01  0.00000000E+00
  5.00000000E+01  7.80000000E+01  0.00000000E+00
  6.00000000E+01  7.80000000E+01  0.00000000E+00
  7.00000000E+01  7.80000000E+01  0.00000000E+00
  8.00000000E+01  7.80000000E+01  0.00000000E+00
  9.00000000E+01  7.80000000E+01  0.00000000E+00
  1.00000000E+02  7.80000000E+01  0.00000000E+00
  1.10000000E+02  7.80000000E+01  0.00000000E+00
  1.20000000E+02  7.80000000E+01  0.00000000E+00
  1.30000000E+02  7.80000000E+01  0.00000000E+00
  1.40000000E+02  7.80000000E+01  0.00000000E+00
  1.50000000E+02  7.80000000E+01  0.00000000E+00
  1.60000000E+02  7.80000000E+01  0.00000000E+00
  1.70000000E+02  7.80000000E+01  0.00000000E+00
  1.80000000E+02  7.80000000E+01  0.00000000E+00
  1.90000000E+02  7.80000000E+01  0.00000000E+00
  2.00000000E+02  7.80000000E+01  0.00000000E+00
  2.10000000E+02  7.80000000E+01  0.00000000E+00
  2.20000000E+02  7.80000000E+01  0.00000000E+00
  2.30000000E+02  7.80000000E+01  0.00000000E+00
  2.40000000E+02  7.80000000E+01  0.00000000E+00
  2.50000000E+02  7.80000000E+01  0.00000000E+00
  2.60000000E+02  7.80000000E+01  0.00000000E+00
  2.70000000E+02  7.80000000E+01  0.00000000E+00
  2.80000000E+02  7.80000000E+01  0.00000000E+00
  2.90000000E+02  7.80000000E+01  0.00000000E+00
  3.00000000E+02  7.80000000E+01  0.00000000E+00
  3.10000000E+02  7.80000000E+01  0.00000000E+00
  3.20000000E+02  7.80000000E+01  0.00000000E+00
  3.30000000E+02  7.80000000E+01  0.00000000E+00
  3.40000000E+02  7.80000000E+01  0.00000000E+00
  3.50000000E+02  7.80000000E+01  0.00000000E+00
  3.60000000E+02  7.80000000E+01  0.00000000E+00
  3.70000000E+02  7.80000000E+01  0.00000000E+00
  3.80000000E+02  7.80000000E+01  0.00000000E+00
  3.90000000E+02  7.80000000E+01  0.00000000E+00
  4.00000000E+02  7.80000000E+01  0.00000000E+00
  4.10000000E+02  7.80000000E+01  0.00000000E+00
  4.20000000E+02  7.80000000E+01  0.00000000E+00
  4.30000000E+02  7.80000000E+01  0.00000000E+00
  4.40000000E+02  7.80000000E+01  0.00000000E+00
  4.50000000E+02  7.80000000E+01  0.00000000E+00
  4.60000000E+02  7.80000000E+01  0.00000000E+00
  4.70000000E+02  7.80000000E+01  0.00000000E+00
  4.80000000E+02  7.80000000E+01  0.00000000E+00
  4.90000000E+02  7.80000000E+01  0.00000000E+00
  5.00000000E+02  7.80000000E+01  0.00000000E+00
  5.10000000E+02  7.80000000E+01  0.00000000E+00
  5.20000000E+02  7.80000000E+01  0.00000000E+00
  5.30000000E+02  7.80000000E+01  0.00000000E+00
  5.40000000E+02  7.80000000E+01  0.00000000E+00
  5.50000000E+02  7.80000000E+01  0.00000000E+00
  5.60000000E+02  7.80000000E+01  0.00000000E+00
  5.70000000E+02  7.80000000E+01  0.00000000E+00
  5.80000000E+02  7.80000000E+01  0.00000000E+00
  5.90000000E+02  7.80000000E+01  0.00000000E+00
  6.00000000E+02  7.80000000E+01  0.00000000E+00
  6.10000000E+02  7.80000000E+01  0.00000000E+00
  6.20000000E+02  7.80000000E+01  0.00000000E+00
  6.30000000E+02  7.80000000E+01  0.00000000E+00
  6.40000000E+02  7.80000000E+01  0.00000000E+00
  6.50000000E+02  7.80000000E+01  0.00000000E+00
  6.60000000E+02  7.80000000E+01  0.00000000E+00
  6.70000000E+02  7.80000000E+01  0.00000000E+00
  6.80000000E+02  7.80000000E+01  0.00000000E+00
  6.90000000E+02  7.80000000E+01  0.00000000E+00
  7.00000000E+02  7.80000000E+01  0.00000000E+00
  7.10000000E+02  7.80000000E+01  0.00000000E+00
  7.20000000E+02  7.80000000E+01  0.00000000E+00
  7.30000000E+02  7.80000000E+01  0.00000000E+00
  7.40000000E+02  7.80000000E+01  0.00000000E+00
  7.50000000E+02  7.80000000E+01  0.00000000E+00
  7.60000000E+02  7.80000000E+01  0.00000000E+00
  7.70000000E+02  7.80000000E+01  0.00000000E+00
  7.80000000E+02  7.80000000E+01  0.00000000E+00
  7.90000000E+02  7.80000000E+01  0.00000000E+00
  8.00000000E+02  7.80000000E+01  0.00000000E+00
  8.10000000E+02  7.80000000E+01  0.00000000E+00
  8.20000000E+02  7.80000000E+01  0.00000000E+00
  8.30000000E+02  7.80000000E+01  0.00000000E+00
  8.40000000E+02  7.80000000E+01  0.00000000E+00
  8.50000000E+02  7.80000000E+01  0.00000000E+00
  8.60000000E+02  7.80000000E+01  0.00000000E+00
  8.70000000E+02  7.80000000E+01  0.00000000E+00
  8.80000000E+02  7.80000000E+01  0.00000000E+00
  8.90000000E+02  7.80000000E+01  0.00000000E+00
  9.00000000E+02  7.80000000E+01  0.00000000E+00
  9.10000000E+02  7.80000000E+01  0.00000000E+00
  9.20000000E+02  7.80000000E+01  0.00000000E+00
  9.30000000E+02  7.80000000E+01  0.00000000E+00
  9.40000000E+02  7.80000000E+01  0.00000000E+00
  9.50000000E+02  7.80000000E+01  0.00000000E+00
  9.60000000E+02  7.80000000E+01  0.00000000E+00
  9.70000000E+02  7.80000000E+01  0.00000000E+00
  9.80000000E+02  7.80000000E+01  0.00000000E+00
  9.90000000E+02  7.80000000E+01  0.00000000E+00
  1.00000000E+03  7.80000000E+01  0.00000000E+00
  0.00000000E+00  8.00000000E+01  0.00000000E+00
  1.00000000E+01  8.00000000E+01  0.00000000E+00
  2.00000000E+01  8.00000000E+01  0.00000000E+00
  3.00000000E+01  8.00000000E+01  0.00000000E+00
  4.00000000E+01  8.00000000E+01  0.00000000E+00
  5.00000000E+01  8.00000000E+01  0.00000000E+00
  6.00000000E+01  8.00000000E+01  0.00000000E+00
  7.00000000E+01  8.00000000E+01  0.00000000E+00
  8.00000000E+01  8.00000000E+01  0.00000000E+00
  9.00000000E+01  8.00000000E+01  0.00000000E+00
  1.00000000E+02  8.00000000E+01  0.00000000E+00
  1.10000000E+02  8.00000000E+01  0.00000000E+00
  1.20000000E+02  8.00000000E+01  0.00000000E+00
  1.30000000E+02  8.00000000E+01  0.00000000E+00
  1.40000000E+02  8.00000000E+01  0.00000000E+00
  1.50000000E+02  8.00000000E+01  0.00000000E+00
  1.60000000E+02  8.00000000E+01  0.00000000E+00
  1.70000000E+02  8.00000000E+01  0.00000000E+00
  1.80000000E+02  8.00000000E+01  0.00000000E+00
  1.90000000E+02  8.00000000E+01  0.00000000E+00
  2.00000000E+02  8.00000000E+01  0.00000000E+00
  2.10000000E+02  8.00000000E+01  0.00000000E+00
  2.20000000E+02  8.00000000E+01  0.00000000E+00
  2.30000000E+02  8.00000000E+01  0.00000000E+00
  2.40000000E+02  8.00000000E+01  0.00000000E+00
  2.50000000E+02  8.00000000E+01  0.00000000E+00
  2.60000000E+02  8.00000000E+01  0.00000000E+00
  2.70000000E+02  8.00000000E+01  0.00000000E+00
  2.80000000E+02  8.00000000E+01  0.00000000E+00
  2.90000000E+02  8.00000000E+01  0.00000000E+00
  3.00000000E+02  8.00000000E+01  0.00000000E+00
  3.10000000E+02  8.00000000E+01  0.00000000E+00
  3.20000000E+02  8.00000000E+01  0.00000000E+00
  3.30000000E+02  8.00000000E+01  0.00000000E+00
  3.40000000E+02  8.00000000E+01  0.00000000E+00
  3.50000000E+02  8.00000000E+01  0.00000000E+00
  3.60000000E+02  8.00000000E+01  0.00000000E+00
  3.70000000E+02  8.00000000E+01  0.00000000E+00
  3.80000000E+02  8.00000000E+01  0.00000000E+00
  3.90000000E+02  8.00000000E+01  0.00000000E+00
  4.00000000E+02  8.00000000E+01  0.00000000E+00
  4.10000000E+02  8.00000000E+01  0.00000000E+00
  4.20000000E+02  8.00000000E+01  0.00000000E+00
  4.30000000E+02  8.00000000E+01  0.00000000E+00
  4.40000000E+02  8.00000000E+01  0.00000000E+00
  4.50000000E+02  8.00000000E+01  0.00000000E+00
  4.60000000E+02  8.00000000E+01  0.00000000E+00
  4.70000000E+02  8.00000000E+01  0.00000000E+00
  4.80000000E+02  8.00000000E+01  0.00000000E+00
  4.90000000E+02  8.00000000E+01  0.00000000E+00
  5.00000000E+02  8.00000000E+01  0.00000000E+00
  5.10000000E+02  8.00000000E+01  0.00000000E+00
  5.20000000E+02  8.00000000E+01  0.00000000E+00
  5.30000000E+02  8.00000000E+01  0.00000000E+00
  5.40000000E+02  8.00000000E+01  0.00000000E+00
  5.50000000E+02  8.00000000E+01  0.00000000E+00
  5.60000000E+02  8.00000000E+01  0.00000000E+00
  5.70000000E+02  8.00000000E+01  0.00000000E+00
  5.80000000E+02  8.00000000E+01  0.00000000E+00
  5.90000000E+02  8.00000000E+01  0.00000000E+00
  6.00000000E+02  8.00000000E+01  0.00000000E+00
  6.10000000E+02  8.00000000E+01  0.00000000E+00
  6.20000000E+02  8.00000000E+01  0.00000000E+00
  6.30000000E+02  8.00000000E+01  0.00000000E+00
  6.40000000E+02  8.00000000E+01  0.00000000E+00
  6.50000000E+02  8.00000000E+01  0.00000000E+00
  6.60000000E+02  8.00000000E+01  0.00000000E+00
  6.70000000E+02  8.00000000E+01  0.00000000E+00
  6.80000000E+02  8.00000000E+01  0.00000000E+00
  6.90000000E+02  8.00000000E+01  0.00000000E+00
  7.00000000E+02  8.00000000E+01  0.00000000E+00
  7.10000000E+02  8.00000000E+01  0.00000000E+00
  7.20000000E+02  8.00000000E+01  0.00000000E+00
  7.30000000E+02  8.00000000E+01  0.00000000E+00
  7.40000000E+02  8.00000000E+01  0.00000000E+00
  7.50000000E+02  8.00000000E+01  0.00000000E+00
  7.60000000E+02  8.00000000E+01  0.00000000E+00
  7.70000000E+02  8.00000000E+01  0.00000000E+00
  7.80000000E+02  8.00000000E+01  0.00000000E+00
  7.90000000E+02  8.00000000E+01  0.00000000E+00
  8.00000000E+02  8.00000000E+01  0.00000000E+00
  8.10000000E+02  8.00000000E+01  0.00000000E+00
  8.20000000E+02  8.00000000E+01  0.00000000E+00
  8.30000000E+02  8.00000000E+01  0.00000000E+00
  8.40000000E+02  8.00000000E+01  0.00000000E+00
  8.50000000E+02  8.00000000E+01  0.00000000E+00
  8.60000000E+02  8.00000000E+01  0.00000000E+00
  8.70000000E+02  8.00000000E+01  0.00000000E+00
  8.80000000E+02  8.00000000E+01  0.00000000E+00
  8.90000000E+02  8.00000000E+01  0.00000000E+00
  9.00000000E+02  8.00000000E+01  0.00000000E+00
  9.10000000E+02  8.00000000E+01  0.00000000E+00
  9.20000000E+02  8.00000000E+01  0.00000000E+00
  9.30000000E+02  8.00000000E+01  0.00000000E+00
  9.40000000E+02  8.00000000E+01  0.00000000E+00
  9.50000000E+02  8.00000000E+01  0.00000000E+00
  9.60000000E+02  8.00000000E+01  0.00000000E+00
  9.70000000E+02  8.00000000E+01  0.00000000E+00
  9.80000000E+02  8.00000000E+01  0.00000000E+00
  9.90000000E+02  8.00000000E+01  0.00000000E+00
  1.00000000E+03  8.00000000E+01  0.00000000E+00
  0.00000000E+00  8.20000000E+01  0.00000000E+00
  1.00000000E+01  8.20000000E+01  0.00000000E+00
  2.00000000E+01  8.20000000E+01  0.00000000E+00
  3.00000000E+01  8.20000000E+01  0.00000000E+00
  4.00000000E+01  8.20000000E+01  0.00000000E+00
  5.00000000E+01  8.20000000E+01  0.00000000E+00
  6.00000000E+01  8.20000000E+01  0.00000000E+00
  7.00000000E+01  8.20000000E+01  0.00000000E+00
  8.00000000E+01  8.20000000E+01  0.00000000E+00
  9.00000000E+01  8.20000000E+01  0.00000000E+00
  1.00000000E+02  8.20000000E+01  0.00000000E+00
  1.10000000E+02  8.20000000E+01  0.00000000E+00
  1.20000000E+02  8.20000000E+01  0.00000000E+00
  1.30000000E+02  8.20000000E+01  0.00000000E+00
  1.40000000E+02  8.20000000E+01  0.00000000E+00
  1.50000000E+02  8.20000000E+01  0.00000000E+00
  1.60000000E+02  8.20000000E+01  0.00000000E+00
  1.70000000E+02  8.20000000E+01  0.00000000E+00
  1.80000000E+02  8.20000000E+01  0.00000000E+00
  1.90000000E+02  8.20000000E+01  0.00000000E+00
  2.00000000E+02  8.20000000E+01  0.00000000E+00
  2.10000000E+02  8.20000000E+01  0.00000000E+00
  2.20000000E+02  8.20000000E+01  0.00000000E+00
  2.30000000E+02  8.20000000E+01  0.00000000E+00
  2.40000000E+02  8.20000000E+01  0.00000000E+00
  2.50000000E+02  8.20000000E+01  0.00000000E+00
  2.60000000E+02  8.20000000E+01  0.00000000E+00
  2.70000000E+02  8.20000000E+01  0.00000000E+00
  2.80000000E+02  8.20000000E+01  0.00000000E+00
  2.90000000E+02  8.20000000E+01  0.00000000E+00
  3.00000000E+02  8.20000000E+01  0.00000000E+00
  3.10000000E+02  8.20000000E+01  0.00000000E+00
  3.20000000E+02  8.20000000E+01  0.00000000E+00
  3.30000000E+02  8.20000000E+01  0.00000000E+00
  3.40000000E+02  8.20000000E+01  0.00000000E+00
  3.50000000E+02  8.20000000E+01  0.00000000E+00
  3.60000000E+02  8.20000000E+01  0.00000000E+00
  3.70000000E+02  8.20000000E+01  0.00000000E+00
  3.80000000E+02  8.20000000E+01  0.00000000E+00
  3.90000000E+02  8.20000000E+01  0.00000000E+00
  4.00000000E+02  8.20000000E+01  0.00000000E+00
  4.10000000E+02  8.20000000E+01  0.00000000E+00
  4.20000000E+02  8.20000000E+01  0.00000000E+00
  4.30000000E+02  8.20000000E+01  0.00000000E+00
  4.40000000E+02  8.20000000E+01  0.00000000E+00
  4.50000000E+02  8.20000000E+01  0.00000000E+00
  4.60000000E+02  8.20000000E+01  0.00000000E+00
  4.70000000E+02  8.20000000E+01  0.00000000E+00
  4.80000000E+02  8.20000000E+01  0.00000000E+00
  4.90000000E+02  8.20000000E+01  0.00000000E+00
  5.00000000E+02  8.20000000E+01  0.00000000E+00
  5.10000000E+02  8.20000000E+01  0.00000000E+00
  5.20000000E+02  8.20000000E+01  0.00000000E+00
  5.30000000E+02  8.20000000E+01  0.00000000E+00
  5.40000000E+02  8.20000000E+01  0.00000000E+00
  5.50000000E+02  8.20000000E+01  0.00000000E+00
  5.60000000E+02  8.20000000E+01  0.00000000E+00
  5.70000000E+02  8.20000000E+01  0.00000000E+00
  5.80000000E+02  8.20000000E+01  0.00000000E+00
  5.90000000E+02  8.20000000E+01  0.00000000E+00
  6.00000000E+02  8.20000000E+01  0.00000000E+00
  6.10000000E+02  8.20000000E+01  0.00000000E+00
  6.20000000E+02  8.20000000E+01  0.00000000E+00
  6.30000000E+02  8.20000000E+01  0.00000000E+00
  6.40000000E+02  8.20000000E+01  0.00000000E+00
  6.50000000E+02  8.20000000E+01  0.00000000E+00
  6.60000000E+02  8.20000000E+01  0.00000000E+00
  6.70000000E+02  8.20000000E+01  0.00000000E+00
  6.80000000E+02  8.20000000E+01  0.00000000E+00
  6.90000000E+02  8.20000000E+01  0.00000000E+00
  7.00000000E+02  8.20000000E+01  0.00000000E+00
  7.10000000E+02  8.20000000E+01  0.00000000E+00
  7.20000000E+02  8.20000000E+01  0.00000000E+00
  7.30000000E+02  8.20000000E+01  0.00000000E+00
  7.40000000E+02  8.20000000E+01  0.00000000E+00
  7.50000000E+02  8.20000000E+01  0.00000000E+00
  7.60000000E+02  8.20000000E+01  0.00000000E+00
  7.70000000E+02  8.20000000E+01  0.00000000E+00
  7.80000000E+02  8.20000000E+01  0.00000000E+00
  7.90000000E+02  8.20000000E+01  0.00000000E+00
  8.00000000E+02  8.20000000E+01  0.00000000E+00
  8.10000000E+02  8.20000000E+01  0.00000000E+00
  8.20000000E+02  8.20000000E+01  0.00000000E+00
  8.30000000E+02  8.20000000E+01  0.00000000E+00
  8.40000000E+02  8.20000000E+01  0.00000000E+00
  8.50000000E+02  8.20000000E+01  0.00000000E+00
  8.60000000E+02  8.20000000E+01  0.00000000E+00
  8.70000000E+02  8.20000000E+01  0.00000000E+00
  8.80000000E+02  8.20000000E+01  0.00000000E+00
  8.90000000E+02  8.20000000E+01  0.00000000E+00
  9.00000000E+02  8.20000000E+01  0.00000000E+00
  9.10000000E+02  8.20000000E+01  0.00000000E+00
  9.20000000E+02  8.20000000E+01  0.00000000E+00
  9.30000000E+02  8.20000000E+01  0.00000000E+00
  9.40000000E+02  8.20000000E+01  0.00000000E+00
  9.50000000E+02  8.20000000E+01  0.00000000E+00
  9.60000000E+02  8.20000000E+01  0.00000000E+00
  9.70000000E+02  8.20000000E+01  0.00000000E+00
  9.80000000E+02  8.20000000E+01  0.00000000E+00
  9.90000000E+02  8.20000000E+01  0.00000000E+00
  1.00000000E+03  8.20000000E+01  0.00000000E+00
  0.00000000E+00  8.40000000E+01  0.00000000E+00
  1.00000000E+01  8.40000000E+01  0.00000000E+00
  2.00000000E+01  8.40000000E+01  0.00000000E+00
  3.00000000E+01  8.40000000E+01  0.00000000E+00
  4.00000000E+01  8.40000000E+01  0.00000000E+00
  5.00000000E+01  8.40000000E+01  0.00000000E+00
  6.00000000E+01  8.40000000E+01  0.00000000E+00
  7.00000000E+01  8.40000000E+01  0.00000000E+00
  8.00000000E+01  8.40000000E+01  0.00000000E+00
  9.00000000E+01  8.40000000E+01  0.00000000E+00
  1.00000000E+02  8.40000000E+01  0.00000000E+00
  1.10000000E+02  8.40000000E+01  0.00000000E+00
  1.20000000E+02  8.40000000E+01  0.00000000E+00
  1.30000000E+02  8.40000000E+01  0.00000000E+00
  1.40000000E+02  8.40000000E+01  0.00000000E+00
  1.50000000E+02  8.40000000E+01  0.00000000E+00
  1.60000000E+02  8.40000000E+01  0.00000000E+00
  1.70000000E+02  8.40000000E+01  0.00000000E+00
  1.80000000E+02  8.40000000E+01  0.00000000E+00
  1.90000000E+02  8.40000000E+01  0.00000000E+00
  2.00000000E+02  8.40000000E+01  0.00000000E+00
  2.10000000E+02  8.40000000E+01  0.00000000E+00
  2.20000000E+02  8.40000000E+01  0.00000000E+00
  2.30000000E+02  8.40000000E+01  0.00000000E+00
  2.40000000E+02  8.40000000E+01  0.00000000E+00
  2.50000000E+02  8.40000000E+01  0.00000000E+00
  2.60000000E+02  8.40000000E+01  0.00000000E+00
  2.70000000E+02  8.40000000E+01  0.00000000E+00
  2.80000000E+02  8.40000000E+01  0.00000000E+00
  2.90000000E+02  8.40000000E+01  0.00000000E+00
  3.00000000E+02  8.40000000E+01  0.00000000E+00
  3.10000000E+02  8.40000000E+01  0.00000000E+00
  3.20000000E+02  8.40000000E+01  0.00000000E+00
  3.30000000E+02  8.40000000E+01  0.00000000E+00
  3.40000000E+02  8.40000000E+01  0.00000000E+00
  3.50000000E+02  8.40000000E+01  0.00000000E+00
  3.60000000E+02  8.40000000E+01  0.00000000E+00
  3.70000000E+02  8.40000000E+01  0.00000000E+00
  3.80000000E+02  8.40000000E+01  0.00000000E+00
  3.90000000E+02  8.40000000E+01  0.00000000E+00
  4.00000000E+02  8.40000000E+01  0.00000000E+00
  4.10000000E+02  8.40000000E+01  0.00000000E+00
  4.20000000E+02  8.40000000E+01  0.00000000E+00
  4.30000000E+02  8.40000000E+01  0.00000000E+00
  4.40000000E+02  8.40000000E+01  0.00000000E+00
  4.50000000E+02  8.40000000E+01  0.00000000E+00
  4.60000000E+02  8.40000000E+01  0.00000000E+00
  4.70000000E+02  8.40000000E+01  0.00000000E+00
  4.80000000E+02  8.40000000E+01  0.00000000E+00
  4.90000000E+02  8.40000000E+01  0.00000000E+00
  5.00000000E+02  8.40000000E+01  0.00000000E+00
  5.10000000E+02  8.40000000E+01  0.00000000E+00
  5.20000000E+02  8.40000000E+01  0.00000000E+00
  5.30000000E+02  8.40000000E+01  0.00000000E+00
  5.40000000E+02  8.40000000E+01  0.00000000E+00
  5.50000000E+02  8.40000000E+01  0.00000000E+00
  5.60000000E+02  8.40000000E+01  0.00000000E+00
  5.70000000E+02  8.40000000E+01  0.00000000E+00
  5.80000000E+02  8.40000000E+01  0.00000000E+00
  5.90000000E+02  8.40000000E+01  0.00000000E+00
  6.00000000E+02  8.40000000E+01  0.00000000E+00
  6.10000000E+02  8.40000000E+01  0.00000000E+00
  6.20000000E+02  8.40000000E+01  0.00000000E+00
  6.30000000E+02  8.40000000E+01  0.00000000E+00
  6.40000000E+02  8.40000000E+01  0.00000000E+00
  6.50000000E+02  8.40000000E+01  0.00000000E+00
  6.60000000E+02  8.40000000E+01  0.00000000E+00
  6.70000000E+02  8.40000000E+01  0.00000000E+00
  6.80000000E+02  8.40000000E+01  0.00000000E+00
  6.90000000E+02  8.40000000E+01  0.00000000E+00
  7.00000000E+02  8.40000000E+01  0.00000000E+00
  7.10000000E+02  8.40000000E+01  0.00000000E+00
  7.20000000E+02  8.40000000E+01  0.00000000E+00
  7.30000000E+02  8.40000000E+01  0.00000000E+00
  7.40000000E+02  8.40000000E+01  0.00000000E+00
  7.50000000E+02  8.40000000E+01  0.00000000E+00
  7.60000000E+02  8.40000000E+01  0.00000000E+00
  7.70000000E+02  8.40000000E+01  0.00000000E+00
  7.80000000E+02  8.40000000E+01  0.00000000E+00
  7.90000000E+02  8.40000000E+01  0.00000000E+00
  8.00000000E+02  8.40000000E+01  0.00000000E+00
  8.10000000E+02  8.40000000E+01  0.00000000E+00
  8.20000000E+02  8.40000000E+01  0.00000000E+00
  8.30000000E+02  8.40000000E+01  0.00000000E+00
  8.40000000E+02  8.40000000E+01  0.00000000E+00
  8.50000000E+02  8.40000000E+01  0.00000000E+00
  8.60000000E+02  8.40000000E+01  0.00000000E+00
  8.70000000E+02  8.40000000E+01  0.00000000E+00
  8.80000000E+02  8.40000000E+01  0.00000000E+00
  8.90000000E+02  8.40000000E+01  0.00000000E+00
  9.00000000E+02  8.40000000E+01  0.00000000E+00
  9.10000000E+02  8.40000000E+01  0.00000000E+00
  9.20000000E+02  8.40000000E+01  0.00000000E+00
  9.30000000E+02  8.40000000E+01  0.00000000E+00
  9.40000000E+02  8.40000000E+01  0.00000000E+00
  9.50000000E+02  8.40000000E+01  0.00000000E+00
  9.60000000E+02  8.40000000E+01  0.00000000E+00
  9.70000000E+02  8.40000000E+01  0.00000000E+00
  9.80000000E+02  8.40000000E+01  0.00000000E+00
  9.90000000E+02  8.40000000E+01  0.00000000E+00
  1.00000000E+03  8.40000000E+01  0.00000000E+00
  0.00000000E+00  8.60000000E+01  0.00000000E+00
  1.00000000E+01  8.60000000E+01  0.00000000E+00
  2.00000000E+01  8.60000000E+01  0.00000000E+00
  3.00000000E+01  8.60000000E+01  0.00000000E+00
  4.00000000E+01  8.60000000E+01  0.00000000E+00
  5.00000000E+01  8.60000000E+01  0.00000000E+00
  6.00000000E+01  8.60000000E+01  0.00000000E+00
  7.00000000E+01  8.60000000E+01  0.00000000E+00
  8.00000000E+01  8.60000000E+01  0.00000000E+00
  9.00000000E+01  8.60000000E+01  0.00000000E+00
  1.00000000E+02  8.60000000E+01  0.00000000E+00
  1.10000000E+02  8.60000000E+01  0.00000000E+00
  1.20000000E+02  8.60000000E+01  0.00000000E+00
  1.30000000E+02  8.60000000E+01  0.00000000E+00
  1.40000000E+02  8.60000000E+01  0.00000000E+00
  1.50000000E+02  8.60000000E+01  0.00000000E+00
  1.60000000E+02  8.60000000E+01  0.00000000E+00
  1.70000000E+02  8.60000000E+01  0.00000000E+00
  1.80000000E+02  8.60000000E+01  0.00000000E+00
  1.90000000E+02  8.60000000E+01  0.00000000E+00
  2.00000000E+02  8.60000000E+01  0.00000000E+00
  2.10000000E+02  8.60000000E+01  0.00000000E+00
  2.20000000E+02  8.60000000E+01  0.00000000E+00
  2.30000000E+02  8.60000000E+01  0.00000000E+00
  2.40000000E+02  8.60000000E+01  0.00000000E+00
  2.50000000E+02  8.60000000E+01  0.00000000E+00
  2.60000000E+02  8.60000000E+01  0.00000000E+00
  2.70000000E+02  8.60000000E+01  0.00000000E+00
  2.80000000E+02  8.60000000E+01  0.00000000E+00
  2.90000000E+02  8.60000000E+01  0.00000000E+00
  3.00000000E+02  8.60000000E+01  0.00000000E+00
  3.10000000E+02  8.60000000E+01  0.00000000E+00
  3.20000000E+02  8.60000000E+01  0.00000000E+00
  3.30000000E+02  8.60000000E+01  0.00000000E+00
  3.40000000E+02  8.60000000E+01  0.00000000E+00
  3.50000000E+02  8.60000000E+01  0.00000000E+00
  3.60000000E+02  8.60000000E+01  0.00000000E+00
  3.70000000E+02  8.60000000E+01  0.00000000E+00
  3.80000000E+02  8.60000000E+01  0.00000000E+00
  3.90000000E+02  8.60000000E+01  0.00000000E+00
  4.00000000E+02  8.60000000E+01  0.00000000E+00
  4.10000000E+02  8.60000000E+01  0.00000000E+00
  4.20000000E+02  8.60000000E+01  0.00000000E+00
  4.30000000E+02  8.60000000E+01  0.00000000E+00
  4.40000000E+02  8.60000000E+01  0.00000000E+00
  4.50000000E+02  8.60000000E+01  0.00000000E+00
  4.60000000E+02  8.60000000E+01  0.00000000E+00
  4.70000000E+02  8.60000000E+01  0.00000000E+00
  4.80000000E+02  8.60000000E+01  0.00000000E+00
  4.90000000E+02  8.60000000E+01  0.00000000E+00
  5.00000000E+02  8.60000000E+01  0.00000000E+00
  5.10000000E+02  8.60000000E+01  0.00000000E+00
  5.20000000E+02  8.60000000E+01  0.00000000E+00
  5.30000000E+02  8.60000000E+01  0.00000000E+00
  5.40000000E+02  8.60000000E+01  0.00000000E+00
  5.50000000E+02  8.60000000E+01  0.00000000E+00
  5.60000000E+02  8.60000000E+01  0.00000000E+00
  5.70000000E+02  8.60000000E+01  0.00000000E+00
  5.80000000E+02  8.60000000E+01  0.00000000E+00
  5.90000000E+02  8.60000000E+01  0.00000000E+00
  6.00000000E+02  8.60000000E+01  0.00000000E+00
  6.10000000E+02  8.60000000E+01  0.00000000E+00
  6.20000000E+02  8.60000000E+01  0.00000000E+00
  6.30000000E+02  8.60000000E+01  0.00000000E+00
  6.40000000E+02  8.60000000E+01  0.00000000E+00
  6.50000000E+02  8.60000000E+01  0.00000000E+00
  6.60000000E+02  8.60000000E+01  0.00000000E+00
  6.70000000E+02  8.60000000E+01  0.00000000E+00
  6.80000000E+02  8.60000000E+01  0.00000000E+00
  6.90000000E+02  8.60000000E+01  0.00000000E+00
  7.00000000E+02  8.60000000E+01  0.00000000E+00
  7.10000000E+02  8.60000000E+01  0.00000000E+00
  7.20000000E+02  8.60000000E+01  0.00000000E+00
  7.30000000E+02  8.60000000E+01  0.00000000E+00
  7.40000000E+02  8.60000000E+01  0.00000000E+00
  7.50000000E+02  8.60000000E+01  0.00000000E+00
  7.60000000E+02  8.60000000E+01  0.00000000E+00
  7.70000000E+02  8.60000000E+01  0.00000000E+00
  7.80000000E+02  8.60000000E+01  0.00000000E+00
  7.90000000E+02  8.60000000E+01  0.00000000E+00
  8.00000000E+02  8.60000000E+01  0.00000000E+00
  8.10000000E+02  8.60000000E+01  0.00000000E+00
  8.20000000E+02  8.60000000E+01  0.00000000E+00
  8.30000000E+02  8.60000000E+01  0.00000000E+00
  8.40000000E+02  8.60000000E+01  0.00000000E+00
  8.50000000E+02  8.60000000E+01  0.00000000E+00
  8.60000000E+02  8.60000000E+01  0.00000000E+00
  8.70000000E+02  8.60000000E+01  0.00000000E+00
  8.80000000E+02  8.60000000E+01  0.00000000E+00
  8.90000000E+02  8.60000000E+01  0.00000000E+00
  9.00000000E+02  8.60000000E+01  0.00000000E+00
  9.10000000E+02  8.60000000E+01  0.00000000E+00
  9.20000000E+02  8.60000000E+01  0.00000000E+00
  9.30000000E+02  8.60000000E+01  0.00000000E+00
  9.40000000E+02  8.60000000E+01  0.00000000E+00
  9.50000000E+02  8.60000000E+01  0.00000000E+00
  9.60000000E+02  8.60000000E+01  0.00000000E+00
  9.70000000E+02  8.60000000E+01  0.00000000E+00
  9.80000000E+02  8.60000000E+01  0.00000000E+00
  9.90000000E+02  8.60000000E+01  0.00000000E+00
  1.00000000E+03  8.60000000E+01  0.00000000E+00
  0.00000000E+00  8.80000000E+01  0.00000000E+00
  1.00000000E+01  8.80000000E+01  0.00000000E+00
  2.00000000E+01  8.80000000E+01  0.00000000E+00
  3.00000000E+01  8.80000000E+01  0.00000000E+00
  4.00000000E+01  8.80000000E+01  0.00000000E+00
  5.00000000E+01  8.80000000E+01  0.00000000E+00
  6.00000000E+01  8.80000000E+01  0.00000000E+00
  7.00000000E+01  8.80000000E+01  0.00000000E+00
  8.00000000E+01  8.80000000E+01  0.00000000E+00
  9.00000000E+01  8.80000000E+01  0.00000000E+00
  1.00000000E+02  8.80000000E+01  0.00000000E+00
  1.10000000E+02  8.80000000E+01  0.00000000E+00
  1.20000000E+02  8.80000000E+01  0.00000000E+00
  1.30000000E+02  8.80000000E+01  0.00000000E+00
  1.40000000E+02  8.80000000E+01  0.00000000E+00
  1.50000000E+02  8.80000000E+01  0.00000000E+00
  1.60000000E+02  8.80000000E+01  0.00000000E+00
  1.70000000E+02  8.80000000E+01  0.00000000E+00
  1.80000000E+02  8.80000000E+01  0.00000000E+00
  1.90000000E+02  8.80000000E+01  0.00000000E+00
  2.00000000E+02  8.80000000E+01  0.00000000E+00
  2.10000000E+02  8.80000000E+01  0.00000000E+00
  2.20000000E+02  8.80000000E+01  0.00000000E+00
  2.30000000E+02  8.80000000E+01  0.00000000E+00
  2.40000000E+02  8.80000000E+01  0.00000000E+00
  2.50000000E+02  8.80000000E+01  0.00000000E+00
  2.60000000E+02  8.80000000E+01  0.00000000E+00
  2.70000000E+02  8.80000000E+01  0.00000000E+00
  2.80000000E+02  8.80000000E+01  0.00000000E+00
  2.90000000E+02  8.80000000E+01  0.00000000E+00
  3.00000000E+02  8.80000000E+01  0.00000000E+00
  3.10000000E+02  8.80000000E+01  0.00000000E+00
  3.20000000E+02  8.80000000E+01  0.00000000E+00
  3.30000000E+02  8.80000000E+01  0.00000000E+00
  3.40000000E+02  8.80000000E+01  0.00000000E+00
  3.50000000E+02  8.80000000E+01  0.00000000E+00
  3.60000000E+02  8.80000000E+01  0.00000000E+00
  3.70000000E+02  8.80000000E+01  0.00000000E+00
  3.80000000E+02  8.80000000E+01  0.00000000E+00
  3.90000000E+02  8.80000000E+01  0.00000000E+00
  4.00000000E+02  8.80000000E+01  0.00000000E+00
  4.10000000E+02  8.80000000E+01  0.00000000E+00
  4.20000000E+02  8.80000000E+01  0.00000000E+00
  4.30000000E+02  8.80000000E+01  0.00000000E+00
  4.40000000E+02  8.80000000E+01  0.00000000E+00
  4.50000000E+02  8.80000000E+01  0.00000000E+00
  4.60000000E+02  8.80000000E+01  0.00000000E+00
  4.70000000E+02  8.80000000E+01  0.00000000E+00
  4.80000000E+02  8.80000000E+01  0.00000000E+00
  4.90000000E+02  8.80000000E+01  0.00000000E+00
  5.00000000E+02  8.80000000E+01  0.00000000E+00
  5.10000000E+02  8.80000000E+01  0.00000000E+00
  5.20000000E+02  8.80000000E+01  0.00000000E+00
  5.30000000E+02  8.80000000E+01  0.00000000E+00
  5.40000000E+02  8.80000000E+01  0.00000000E+00
  5.50000000E+02  8.80000000E+01  0.00000000E+00
  5.60000000E+02  8.80000000E+01  0.00000000E+00
  5.70000000E+02  8.80000000E+01  0.00000000E+00
  5.80000000E+02  8.80000000E+01  0.00000000E+00
  5.90000000E+02  8.80000000E+01  0.00000000E+00
  6.00000000E+02  8.80000000E+01  0.00000000E+00
  6.10000000E+02  8.80000000E+01  0.00000000E+00
  6.20000000E+02  8.80000000E+01  0.00000000E+00
  6.30000000E+02  8.80000000E+01  0.00000000E+00
  6.40000000E+02  8.80000000E+01  0.00000000E+00
  6.50000000E+02  8.80000000E+01  0.00000000E+00
  6.60000000E+02  8.80000000E+01  0.00000000E+00
  6.70000000E+02  8.80000000E+01  0.00000000E+00
  6.80000000E+02  8.80000000E+01  0.00000000E+00
  6.90000000E+02  8.80000000E+01  0.00000000E+00
  7.00000000E+02  8.80000000E+01  0.00000000E+00
  7.10000000E+02  8.80000000E+01  0.00000000E+00
  7.20000000E+02  8.80000000E+01  0.00000000E+00
  7.30000000E+02  8.80000000E+01  0.00000000E+00
  7.40000000E+02  8.80000000E+01  0.00000000E+00
  7.50000000E+02  8.80000000E+01  0.00000000E+00
  7.60000000E+02  8.80000000E+01  0.00000000E+00
  7.70000000E+02  8.80000000E+01  0.00000000E+00
  7.80000000E+02  8.80000000E+01  0.00000000E+00
  7.90000000E+02  8.80000000E+01  0.00000000E+00
  8.00000000E+02  8.80000000E+01  0.00000000E+00
  8.10000000E+02  8.80000000E+01  0.00000000E+00
  8.20000000E+02  8.80000000E+01  0.00000000E+00
  8.30000000E+02  8.80000000E+01  0.00000000E+00
  8.40000000E+02  8.80000000E+01  0.00000000E+00
  8.50000000E+02  8.80000000E+01  0.00000000E+00
  8.60000000E+02  8.80000000E+01  0.00000000E+00
  8.70000000E+02  8.80000000E+01  0.00000000E+00
  8.80000000E+02  8.80000000E+01  0.00000000E+00
  8.90000000E+02  8.80000000E+01  0.00000000E+00
  9.00000000E+02  8.80000000E+01  0.00000000E+00
  9.10000000E+02  8.80000000E+01  0.00000000E+00
  9.20000000E+02  8.80000000E+01  0.00000000E+00
  9.30000000E+02  8.80000000E+01  0.00000000E+00
  9.40000000E+02  8.80000000E+01  0.00000000E+00
  9.50000000E+02  8.80000000E+01  0.00000000E+00
  9.60000000E+02  8.80000000E+01  0.00000000E+00
  9.70000000E+02  8.80000000E+01  0.00000000E+00
  9.80000000E+02  8.80000000E+01  0.00000000E+00
  9.90000000E+02  8.80000000E+01  0.00000000E+00
  1.00000000E+03  8.80000000E+01  0.00000000E+00
  0.00000000E+00  9.00000000E+01  0.00000000E+00
  1.00000000E+01  9.00000000E+01  0.00000000E+00
  2.00000000E+01  9.00000000E+01  0.00000000E+00
  3.00000000E+01  9.00000000E+01  0.00000000E+00
  4.00000000E+01  9.00000000E+01  0.00000000E+00
  5.00000000E+01  9.00000000E+01  0.00000000E+00
  6.00000000E+01  9.00000000E+01  0.00000000E+00
  7.00000000E+01  9.00000000E+01  0.00000000E+00
  8.00000000E+01  9.00000000E+01  0.00000000E+00
  9.00000000E+01  9.00000000E+01  0.00000000E+00
  1.00000000E+02  9.00000000E+01  0.00000000E+00
  1.10000000E+02  9.00000000E+01  0.00000000E+00
  1.20000000E+02  9.00000000E+01  0.00000000E+00
  1.30000000E+02  9.00000000E+01  0.00000000E+00
  1.40000000E+02  9.00000000E+01  0.00000000E+00
  1.50000000E+02  9.00000000E+01  0.00000000E+00
  1.60000000E+02  9.00000000E+01  0.00000000E+00
  1.70000000E+02  9.00000000E+01  0.00000000E+00
  1.80000000E+02  9.00000000E+01  0.00000000E+00
  1.90000000E+02  9.00000000E+01  0.00000000E+00
  2.00000000E+02  9.00000000E+01  0.00000000E+00
  2.10000000E+02  9.00000000E+01  0.00000000E+00
  2.20000000E+02  9.00000000E+01  0.00000000E+00
  2.30000000E+02  9.00000000E+01  0.00000000E+00
  2.40000000E+02  9.00000000E+01  0.00000000E+00
  2.50000000E+02  9.00000000E+01  0.00000000E+00
  2.60000000E+02  9.00000000E+01  0.00000000E+00
  2.70000000E+02  9.00000000E+01  0.00000000E+00
  2.80000000E+02  9.00000000E+01  0.00000000E+00
  2.90000000E+02  9.00000000E+01  0.00000000E+00
  3.00000000E+02  9.00000000E+01  0.00000000E+00
  3.10000000E+02  9.00000000E+01  0.00000000E+00
  3.20000000E+02  9.00000000E+01  0.00000000E+00
  3.30000000E+02  9.00000000E+01  0.00000000E+00
  3.40000000E+02  9.00000000E+01  0.00000000E+00
  3.50000000E+02  9.00000000E+01  0.00000000E+00
  3.60000000E+02  9.00000000E+01  0.00000000E+00
  3.70000000E+02  9.00000000E+01  0.00000000E+00
  3.80000000E+02  9.00000000E+01  0.00000000E+00
  3.90000000E+02  9.00000000E+01  0.00000000E+00
  4.00000000E+02  9.00000000E+01  0.00000000E+00
  4.10000000E+02  9.00000000E+01  0.00000000E+00
  4.20000000E+02  9.00000000E+01  0.00000000E+00
  4.30000000E+02  9.00000000E+01  0.00000000E+00
  4.40000000E+02  9.00000000E+01  0.00000000E+00
  4.50000000E+02  9.00000000E+01  0.00000000E+00
  4.60000000E+02  9.00000000E+01  0.00000000E+00
  4.70000000E+02  9.00000000E+01  0.00000000E+00
  4.80000000E+02  9.00000000E+01  0.00000000E+00
  4.90000000E+02  9.00000000E+01  0.00000000E+00
  5.00000000E+02  9.00000000E+01  0.00000000E+00
  5.10000000E+02  9.00000000E+01  0.00000000E+00
  5.20000000E+02  9.00000000E+01  0.00000000E+00
  5.30000000E+02  9.00000000E+01  0.00000000E+00
  5.40000000E+02  9.00000000E+01  0.00000000E+00
  5.50000000E+02  9.00000000E+01  0.00000000E+00
  5.60000000E+02  9.00000000E+01  0.00000000E+00
  5.70000000E+02  9.00000000E+01  0.00000000E+00
  5.80000000E+02  9.00000000E+01  0.00000000E+00
  5.90000000E+02  9.00000000E+01  0.00000000E+00
  6.00000000E+02  9.00000000E+01  0.00000000E+00
  6.10000000E+02  9.00000000E+01  0.00000000E+00
  6.20000000E+02  9.00000000E+01  0.00000000E+00
  6.30000000E+02  9.00000000E+01  0.00000000E+00
  6.40000000E+02  9.00000000E+01  0.00000000E+00
  6.50000000E+02  9.00000000E+01  0.00000000E+00
  6.60000000E+02  9.00000000E+01  0.00000000E+00
  6.70000000E+02  9.00000000E+01  0.00000000E+00
  6.80000000E+02  9.00000000E+01  0.00000000E+00
  6.90000000E+02  9.00000000E+01  0.00000000E+00
  7.00000000E+02  9.00000000E+01  0.00000000E+00
  7.10000000E+02  9.00000000E+01  0.00000000E+00
  7.20000000E+02  9.00000000E+01  0.00000000E+00
  7.30000000E+02  9.00000000E+01  0.00000000E+00
  7.40000000E+02  9.00000000E+01  0.00000000E+00
  7.50000000E+02  9.00000000E+01  0.00000000E+00
  7.60000000E+02  9.00000000E+01  0.00000000E+00
  7.70000000E+02  9.00000000E+01  0.00000000E+00
  7.80000000E+02  9.00000000E+01  0.00000000E+00
  7.90000000E+02  9.00000000E+01  0.00000000E+00
  8.00000000E+02  9.00000000E+01  0.00000000E+00
  8.10000000E+02  9.00000000E+01  0.00000000E+00
  8.20000000E+02  9.00000000E+01  0.00000000E+00
  8.30000000E+02  9.00000000E+01  0.00000000E+00
  8.40000000E+02  9.00000000E+01  0.00000000E+00
  8.50000000E+02  9.00000000E+01  0.00000000E+00
  8.60000000E+02  9.00000000E+01  0.00000000E+00
  8.70000000E+02  9.00000000E+01  0.00000000E+00
  8.80000000E+02  9.00000000E+01  0.00000000E+00
  8.90000000E+02  9.00000000E+01  0.00000000E+00
  9.00000000E+02  9.00000000E+01  0.00000000E+00
  9.10000000E+02  9.00000000E+01  0.00000000E+00
  9.20000000E+02  9.00000000E+01  0.00000000E+00
  9.30000000E+02  9.00000000E+01  0.00000000E+00
  9.40000000E+02  9.00000000E+01  0.00000000E+00
  9.50000000E+02  9.00000000E+01  0.00000000E+00
  9.60000000E+02  9.00000000E+01  0.00000000E+00
  9.70000000E+02  9.00000000E+01  0.00000000E+00
  9.80000000E+02  9.00000000E+01  0.00000000E+00
  9.90000000E+02  9.00000000E+01  0.00000000E+00
  1.00000000E+03  9.00000000E+01  0.00000000E+00
  0.00000000E+00  9.20000000E+01  0.00000000E+00
  1.00000000E+01  9.20000000E+01  0.00000000E+00
  2.00000000E+01  9.20000000E+01  0.00000000E+00
  3.00000000E+01  9.20000000E+01  0.00000000E+00
  4.00000000E+01  9.20000000E+01  0.00000000E+00
  5.00000000E+01  9.20000000E+01  0.00000000E+00
  6.00000000E+01  9.20000000E+01  0.00000000E+00
  7.00000000E+01  9.20000000E+01  0.00000000E+00
  8.00000000E+01  9.20000000E+01  0.00000000E+00
  9.00000000E+01  9.20000000E+01  0.00000000E+00
  1.00000000E+02  9.20000000E+01  0.00000000E+00
  1.10000000E+02  9.20000000E+01  0.00000000E+00
  1.20000000E+02  9.20000000E+01  0.00000000E+00
  1.30000000E+02  9.20000000E+01  0.00000000E+00
  1.40000000E+02  9.20000000E+01  0.00000000E+00
  1.50000000E+02  9.20000000E+01  0.00000000E+00
  1.60000000E+02  9.20000000E+01  0.00000000E+00
  1.70000000E+02  9.20000000E+01  0.00000000E+00
  1.80000000E+02  9.20000000E+01  0.00000000E+00
  1.90000000E+02  9.20000000E+01  0.00000000E+00
  2.00000000E+02  9.20000000E+01  0.00000000E+00
  2.10000000E+02  9.20000000E+01  0.00000000E+00
  2.20000000E+02  9.20000000E+01  0.00000000E+00
  2.30000000E+02  9.20000000E+01  0.00000000E+00
  2.40000000E+02  9.20000000E+01  0.00000000E+00
  2.50000000E+02  9.20000000E+01  0.00000000E+00
  2.60000000E+02  9.20000000E+01  0.00000000E+00
  2.70000000E+02  9.20000000E+01  0.00000000E+00
  2.80000000E+02  9.20000000E+01  0.00000000E+00
  2.90000000E+02  9.20000000E+01  0.00000000E+00
  3.00000000E+02  9.20000000E+01  0.00000000E+00
  3.10000000E+02  9.20000000E+01  0.00000000E+00
  3.20000000E+02  9.20000000E+01  0.00000000E+00
  3.30000000E+02  9.20000000E+01  0.00000000E+00
  3.40000000E+02  9.20000000E+01  0.00000000E+00
  3.50000000E+02  9.20000000E+01  0.00000000E+00
  3.60000000E+02  9.20000000E+01  0.00000000E+00
  3.70000000E+02  9.20000000E+01  0.00000000E+00
  3.80000000E+02  9.20000000E+01  0.00000000E+00
  3.90000000E+02  9.20000000E+01  0.00000000E+00
  4.00000000E+02  9.20000000E+01  0.00000000E+00
  4.10000000E+02  9.20000000E+01  0.00000000E+00
  4.20000000E+02  9.20000000E+01  0.00000000E+00
  4.30000000E+02  9.20000000E+01  0.00000000E+00
  4.40000000E+02  9.20000000E+01  0.00000000E+00
  4.50000000E+02  9.20000000E+01  0.00000000E+00
  4.60000000E+02  9.20000000E+01  0.00000000E+00
  4.70000000E+02  9.20000000E+01  0.00000000E+00
  4.80000000E+02  9.20000000E+01  0.00000000E+00
  4.90000000E+02  9.20000000E+01  0.00000000E+00
  5.00000000E+02  9.20000000E+01  0.00000000E+00
  5.10000000E+02  9.20000000E+01  0.00000000E+00
  5.20000000E+02  9.20000000E+01  0.00000000E+00
  5.30000000E+02  9.20000000E+01  0.00000000E+00
  5.40000000E+02  9.20000000E+01  0.00000000E+00
  5.50000000E+02  9.20000000E+01  0.00000000E+00
  5.60000000E+02  9.20000000E+01  0.00000000E+00
  5.70000000E+02  9.20000000E+01  0.00000000E+00
  5.80000000E+02  9.20000000E+01  0.00000000E+00
  5.90000000E+02  9.20000000E+01  0.00000000E+00
  6.00000000E+02  9.20000000E+01  0.00000000E+00
  6.10000000E+02  9.20000000E+01  0.00000000E+00
  6.20000000E+02  9.20000000E+01  0.00000000E+00
  6.30000000E+02  9.20000000E+01  0.00000000E+00
  6.40000000E+02  9.20000000E+01  0.00000000E+00
  6.50000000E+02  9.20000000E+01  0.00000000E+00
  6.60000000E+02  9.20000000E+01  0.00000000E+00
  6.70000000E+02  9.20000000E+01  0.00000000E+00
  6.80000000E+02  9.20000000E+01  0.00000000E+00
  6.90000000E+02  9.20000000E+01  0.00000000E+00
  7.00000000E+02  9.20000000E+01  0.00000000E+00
  7.10000000E+02  9.20000000E+01  0.00000000E+00
  7.20000000E+02  9.20000000E+01  0.00000000E+00
  7.30000000E+02  9.20000000E+01  0.00000000E+00
  7.40000000E+02  9.20000000E+01  0.00000000E+00
  7.50000000E+02  9.20000000E+01  0.00000000E+00
  7.60000000E+02  9.20000000E+01  0.00000000E+00
  7.70000000E+02  9.20000000E+01  0.00000000E+00
  7.80000000E+02  9.20000000E+01  0.00000000E+00
  7.90000000E+02  9.20000000E+01  0.00000000E+00
  8.00000000E+02  9.20000000E+01  0.00000000E+00
  8.10000000E+02  9.20000000E+01  0.00000000E+00
  8.20000000E+02  9.20000000E+01  0.00000000E+00
  8.30000000E+02  9.20000000E+01  0.00000000E+00
  8.40000000E+02  9.20000000E+01  0.00000000E+00
  8.50000000E+02  9.20000000E+01  0.00000000E+00
  8.60000000E+02  9.20000000E+01  0.00000000E+00
  8.70000000E+02  9.20000000E+01  0.00000000E+00
  8.80000000E+02  9.20000000E+01  0.00000000E+00
  8.90000000E+02  9.20000000E+01  0.00000000E+00
  9.00000000E+02  9.20000000E+01  0.00000000E+00
  9.10000000E+02  9.20000000E+01  0.00000000E+00
  9.20000000E+02  9.20000000E+01  0.00000000E+00
  9.30000000E+02  9.20000000E+01  0.00000000E+00
  9.40000000E+02  9.20000000E+01  0.00000000E+00
  9.50000000E+02  9.20000000E+01  0.00000000E+00
  9.60000000E+02  9.20000000E+01  0.00000000E+00
  9.70000000E+02  9.20000000E+01  0.00000000E+00
  9.80000000E+02  9.20000000E+01  0.00000000E+00
  9.90000000E+02  9.20000000E+01  0.00000000E+00
  1.00000000E+03  9.20000000E+01  0.00000000E+00
  0.00000000E+00  9.40000000E+01  0.00000000E+00
  1.00000000E+01  9.40000000E+01  0.00000000E+00
  2.00000000E+01  9.40000000E+01  0.00000000E+00
  3.00000000E+01  9.40000000E+01  0.00000000E+00
  4.00000000E+01  9.40000000E+01  0.00000000E+00
  5.00000000E+01  9.40000000E+01  0.00000000E+00
  6.00000000E+01  9.40000000E+01  0.00000000E+00
  7.00000000E+01  9.40000000E+01  0.00000000E+00
  8.00000000E+01  9.40000000E+01  0.00000000E+00
  9.00000000E+01  9.40000000E+01  0.00000000E+00
  1.00000000E+02  9.40000000E+01  0.00000000E+00
  1.10000000E+02  9.40000000E+01  0.00000000E+00
  1.20000000E+02  9.40000000E+01  0.00000000E+00
  1.30000000E+02  9.40000000E+01  0.00000000E+00
  1.40000000E+02  9.40000000E+01  0.00000000E+00
  1.50000000E+02  9.40000000E+01  0.00000000E+00
  1.60000000E+02  9.40000000E+01  0.00000000E+00
  1.70000000E+02  9.40000000E+01  0.00000000E+00
  1.80000000E+02  9.40000000E+01  0.00000000E+00
  1.90000000E+02  9.40000000E+01  0.00000000E+00
  2.00000000E+02  9.40000000E+01  0.00000000E+00
  2.10000000E+02  9.40000000E+01  0.00000000E+00
  2.20000000E+02  9.40000000E+01  0.00000000E+00
  2.30000000E+02  9.40000000E+01  0.00000000E+00
  2.40000000E+02  9.40000000E+01  0.00000000E+00
  2.50000000E+02  9.40000000E+01  0.00000000E+00
  2.60000000E+02  9.40000000E+01  0.00000000E+00
  2.70000000E+02  9.40000000E+01  0.00000000E+00
  2.80000000E+02  9.40000000E+01  0.00000000E+00
  2.90000000E+02  9.40000000E+01  0.00000000E+00
  3.00000000E+02  9.40000000E+01  0.00000000E+00
  3.10000000E+02  9.40000000E+01  0.00000000E+00
  3.20000000E+02  9.40000000E+01  0.00000000E+00
  3.30000000E+02  9.40000000E+01  0.00000000E+00
  3.40000000E+02  9.40000000E+01  0.00000000E+00
  3.50000000E+02  9.40000000E+01  0.00000000E+00
  3.60000000E+02  9.40000000E+01  0.00000000E+00
  3.70000000E+02  9.40000000E+01  0.00000000E+00
  3.80000000E+02  9.40000000E+01  0.00000000E+00
  3.90000000E+02  9.40000000E+01  0.00000000E+00
  4.00000000E+02  9.40000000E+01  0.00000000E+00
  4.10000000E+02  9.40000000E+01  0.00000000E+00
  4.20000000E+02  9.40000000E+01  0.00000000E+00
  4.30000000E+02  9.40000000E+01  0.00000000E+00
  4.40000000E+02  9.40000000E+01  0.00000000E+00
  4.50000000E+02  9.40000000E+01  0.00000000E+00
  4.60000000E+02  9.40000000E+01  0.00000000E+00
  4.70000000E+02  9.40000000E+01  0.00000000E+00
  4.80000000E+02  9.40000000E+01  0.00000000E+00
  4.90000000E+02  9.40000000E+01  0.00000000E+00
  5.00000000E+02  9.40000000E+01  0.00000000E+00
  5.10000000E+02  9.40000000E+01  0.00000000E+00
  5.20000000E+02  9.40000000E+01  0.00000000E+00
  5.30000000E+02  9.40000000E+01  0.00000000E+00
  5.40000000E+02  9.40000000E+01  0.00000000E+00
  5.50000000E+02  9.40000000E+01  0.00000000E+00
  5.60000000E+02  9.40000000E+01  0.00000000E+00
  5.70000000E+02  9.40000000E+01  0.00000000E+00
  5.80000000E+02  9.40000000E+01  0.00000000E+00
  5.90000000E+02  9.40000000E+01  0.00000000E+00
  6.00000000E+02  9.40000000E+01  0.00000000E+00
  6.10000000E+02  9.40000000E+01  0.00000000E+00
  6.20000000E+02  9.40000000E+01  0.00000000E+00
  6.30000000E+02  9.40000000E+01  0.00000000E+00
  6.40000000E+02  9.40000000E+01  0.00000000E+00
  6.50000000E+02  9.40000000E+01  0.00000000E+00
  6.60000000E+02  9.40000000E+01  0.00000000E+00
  6.70000000E+02  9.40000000E+01  0.00000000E+00
  6.80000000E+02  9.40000000E+01  0.00000000E+00
  6.90000000E+02  9.40000000E+01  0.00000000E+00
  7.00000000E+02  9.40000000E+01  0.00000000E+00
  7.10000000E+02  9.40000000E+01  0.00000000E+00
  7.20000000E+02  9.40000000E+01  0.00000000E+00
  7.30000000E+02  9.40000000E+01  0.00000000E+00
  7.40000000E+02  9.40000000E+01  0.00000000E+00
  7.50000000E+02  9.40000000E+01  0.00000000E+00
  7.60000000E+02  9.40000000E+01  0.00000000E+00
  7.70000000E+02  9.40000000E+01  0.00000000E+00
  7.80000000E+02  9.40000000E+01  0.00000000E+00
  7.90000000E+02  9.40000000E+01  0.00000000E+00
  8.00000000E+02  9.40000000E+01  0.00000000E+00
  8.10000000E+02  9.40000000E+01  0.00000000E+00
  8.20000000E+02  9.40000000E+01  0.00000000E+00
  8.30000000E+02  9.40000000E+01  0.00000000E+00
  8.40000000E+02  9.40000000E+01  0.00000000E+00
  8.50000000E+02  9.40000000E+01  0.00000000E+00
  8.60000000E+02  9.40000000E+01  0.00000000E+00
  8.70000000E+02  9.40000000E+01  0.00000000E+00
  8.80000000E+02  9.40000000E+01  0.00000000E+00
  8.90000000E+02  9.40000000E+01  0.00000000E+00
  9.00000000E+02  9.40000000E+01  0.00000000E+00
  9.10000000E+02  9.40000000E+01  0.00000000E+00
  9.20000000E+02  9.40000000E+01  0.00000000E+00
  9.30000000E+02  9.40000000E+01  0.00000000E+00
  9.40000000E+02  9.40000000E+01  0.00000000E+00
  9.50000000E+02  9.40000000E+01  0.00000000E+00
  9.60000000E+02  9.40000000E+01  0.00000000E+00
  9.70000000E+02  9.40000000E+01  0.00000000E+00
  9.80000000E+02  9.40000000E+01  0.00000000E+00
  9.90000000E+02  9.40000000E+01  0.00000000E+00
  1.00000000E+03  9.40000000E+01  0.00000000E+00
  0.00000000E+00  9.60000000E+01  0.00000000E+00
  1.00000000E+01  9.60000000E+01  0.00000000E+00
  2.00000000E+01  9.60000000E+01  0.00000000E+00
  3.00000000E+01  9.60000000E+01  0.00000000E+00
  4.00000000E+01  9.60000000E+01  0.00000000E+00
  5.00000000E+01  9.60000000E+01  0.00000000E+00
  6.00000000E+01  9.60000000E+01  0.00000000E+00
  7.00000000E+01  9.60000000E+01  0.00000000E+00
  8.00000000E+01  9.60000000E+01  0.00000000E+00
  9.00000000E+01  9.60000000E+01  0.00000000E+00
  1.00000000E+02  9.60000000E+01  0.00000000E+00
  1.10000000E+02  9.60000000E+01  0.00000000E+00
  1.20000000E+02  9.60000000E+01  0.00000000E+00
  1.30000000E+02  9.60000000E+01  0.00000000E+00
  1.40000000E+02  9.60000000E+01  0.00000000E+00
  1.50000000E+02  9.60000000E+01  0.00000000E+00
  1.60000000E+02  9.60000000E+01  0.00000000E+00
  1.70000000E+02  9.60000000E+01  0.00000000E+00
  1.80000000E+02  9.60000000E+01  0.00000000E+00
  1.90000000E+02  9.60000000E+01  0.00000000E+00
  2.00000000E+02  9.60000000E+01  0.00000000E+00
  2.10000000E+02  9.60000000E+01  0.00000000E+00
  2.20000000E+02  9.60000000E+01  0.00000000E+00
  2.30000000E+02  9.60000000E+01  0.00000000E+00
  2.40000000E+02  9.60000000E+01  0.00000000E+00
  2.50000000E+02  9.60000000E+01  0.00000000E+00
  2.60000000E+02  9.60000000E+01  0.00000000E+00
  2.70000000E+02  9.60000000E+01  0.00000000E+00
  2.80000000E+02  9.60000000E+01  0.00000000E+00
  2.90000000E+02  9.60000000E+01  0.00000000E+00
  3.00000000E+02  9.60000000E+01  0.00000000E+00
  3.10000000E+02  9.60000000E+01  0.00000000E+00
  3.20000000E+02  9.60000000E+01  0.00000000E+00
  3.30000000E+02  9.60000000E+01  0.00000000E+00
  3.40000000E+02  9.60000000E+01  0.00000000E+00
  3.50000000E+02  9.60000000E+01  0.00000000E+00
  3.60000000E+02  9.60000000E+01  0.00000000E+00
  3.70000000E+02  9.60000000E+01  0.00000000E+00
  3.80000000E+02  9.60000000E+01  0.00000000E+00
  3.90000000E+02  9.60000000E+01  0.00000000E+00
  4.00000000E+02  9.60000000E+01  0.00000000E+00
  4.10000000E+02  9.60000000E+01  0.00000000E+00
  4.20000000E+02  9.60000000E+01  0.00000000E+00
  4.30000000E+02  9.60000000E+01  0.00000000E+00
  4.40000000E+02  9.60000000E+01  0.00000000E+00
  4.50000000E+02  9.60000000E+01  0.00000000E+00
  4.60000000E+02  9.60000000E+01  0.00000000E+00
  4.70000000E+02  9.60000000E+01  0.00000000E+00
  4.80000000E+02  9.60000000E+01  0.00000000E+00
  4.90000000E+02  9.60000000E+01  0.00000000E+00
  5.00000000E+02  9.60000000E+01  0.00000000E+00
  5.10000000E+02  9.60000000E+01  0.00000000E+00
  5.20000000E+02  9.60000000E+01  0.00000000E+00
  5.30000000E+02  9.60000000E+01  0.00000000E+00
  5.40000000E+02  9.60000000E+01  0.00000000E+00
  5.50000000E+02  9.60000000E+01  0.00000000E+00
  5.60000000E+02  9.60000000E+01  0.00000000E+00
  5.70000000E+02  9.60000000E+01  0.00000000E+00
  5.80000000E+02  9.60000000E+01  0.00000000E+00
  5.90000000E+02  9.60000000E+01  0.00000000E+00
  6.00000000E+02  9.60000000E+01  0.00000000E+00
  6.10000000E+02  9.60000000E+01  0.00000000E+00
  6.20000000E+02  9.60000000E+01  0.00000000E+00
  6.30000000E+02  9.60000000E+01  0.00000000E+00
  6.40000000E+02  9.60000000E+01  0.00000000E+00
  6.50000000E+02  9.60000000E+01  0.00000000E+00
  6.60000000E+02  9.60000000E+01  0.00000000E+00
  6.70000000E+02  9.60000000E+01  0.00000000E+00
  6.80000000E+02  9.60000000E+01  0.00000000E+00
  6.90000000E+02  9.60000000E+01  0.00000000E+00
  7.00000000E+02  9.60000000E+01  0.00000000E+00
  7.10000000E+02  9.60000000E+01  0.00000000E+00
  7.20000000E+02  9.60000000E+01  0.00000000E+00
  7.30000000E+02  9.60000000E+01  0.00000000E+00
  7.40000000E+02  9.60000000E+01  0.00000000E+00
  7.50000000E+02  9.60000000E+01  0.00000000E+00
  7.60000000E+02  9.60000000E+01  0.00000000E+00
  7.70000000E+02  9.60000000E+01  0.00000000E+00
  7.80000000E+02  9.60000000E+01  0.00000000E+00
  7.90000000E+02  9.60000000E+01  0.00000000E+00
  8.00000000E+02  9.60000000E+01  0.00000000E+00
  8.10000000E+02  9.60000000E+01  0.00000000E+00
  8.20000000E+02  9.60000000E+01  0.00000000E+00
  8.30000000E+02  9.60000000E+01  0.00000000E+00
  8.40000000E+02  9.60000000E+01  0.00000000E+00
  8.50000000E+02  9.60000000E+01  0.00000000E+00
  8.60000000E+02  9.60000000E+01  0.00000000E+00
  8.70000000E+02  9.60000000E+01  0.00000000E+00
  8.80000000E+02  9.60000000E+01  0.00000000E+00
  8.90000000E+02  9.60000000E+01  0.00000000E+00
  9.00000000E+02  9.60000000E+01  0.00000000E+00
  9.10000000E+02  9.60000000E+01  0.00000000E+00
  9.20000000E+02  9.60000000E+01  0.00000000E+00
  9.30000000E+02  9.60000000E+01  0.00000000E+00
  9.40000000E+02  9.60000000E+01  0.00000000E+00
  9.50000000E+02  9.60000000E+01  0.00000000E+00
  9.60000000E+02  9.60000000E+01  0.00000000E+00
  9.70000000E+02  9.60000000E+01  0.00000000E+00
  9.80000000E+02  9.60000000E+01  0.00000000E+00
  9.90000000E+02  9.60000000E+01  0.00000000E+00
  1.00000000E+03  9.60000000E+01  0.00000000E+00
  0.00000000E+00  9.80000000E+01  0.00000000E+00
  1.00000000E+01  9.80000000E+01  0.00000000E+00
  2.00000000E+01  9.80000000E+01  0.00000000E+00
  3.00000000E+01  9.80000000E+01  0.00000000E+00
  4.00000000E+01  9.80000000E+01  0.00000000E+00
  5.00000000E+01  9.80000000E+01  0.00000000E+00
  6.00000000E+01  9.80000000E+01  0.00000000E+00
  7.00000000E+01  9.80000000E+01  0.00000000E+00
  8.00000000E+01  9.80000000E+01  0.00000000E+00
  9.00000000E+01  9.80000000E+01  0.00000000E+00
  1.00000000E+02  9.80000000E+01  0.00000000E+00
  1.10000000E+02  9.80000000E+01  0.00000000E+00
  1.20000000E+02  9.80000000E+01  0.00000000E+00
  1.30000000E+02  9.80000000E+01  0.00000000E+00
  1.40000000E+02  9.80000000E+01  0.00000000E+00
  1.50000000E+02  9.80000000E+01  0.00000000E+00
  1.60000000E+02  9.80000000E+01  0.00000000E+00
  1.70000000E+02  9.80000000E+01  0.00000000E+00
  1.80000000E+02  9.80000000E+01  0.00000000E+00
  1.90000000E+02  9.80000000E+01  0.00000000E+00
  2.00000000E+02  9.80000000E+01  0.00000000E+00
  2.10000000E+02  9.80000000E+01  0.00000000E+00
  2.20000000E+02  9.80000000E+01  0.00000000E+00
  2.30000000E+02  9.80000000E+01  0.00000000E+00
  2.40000000E+02  9.80000000E+01  0.00000000E+00
  2.50000000E+02  9.80000000E+01  0.00000000E+00
  2.60000000E+02  9.80000000E+01  0.00000000E+00
  2.70000000E+02  9.80000000E+01  0.00000000E+00
  2.80000000E+02  9.80000000E+01  0.00000000E+00
  2.90000000E+02  9.80000000E+01  0.00000000E+00
  3.00000000E+02  9.80000000E+01  0.00000000E+00
  3.10000000E+02  9.80000000E+01  0.00000000E+00
  3.20000000E+02  9.80000000E+01  0.00000000E+00
  3.30000000E+02  9.80000000E+01  0.00000000E+00
  3.40000000E+02  9.80000000E+01  0.00000000E+00
  3.50000000E+02  9.80000000E+01  0.00000000E+00
  3.60000000E+02  9.80000000E+01  0.00000000E+00
  3.70000000E+02  9.80000000E+01  0.00000000E+00
  3.80000000E+02  9.80000000E+01  0.00000000E+00
  3.90000000E+02  9.80000000E+01  0.00000000E+00
  4.00000000E+02  9.80000000E+01  0.00000000E+00
  4.10000000E+02  9.80000000E+01  0.00000000E+00
  4.20000000E+02  9.80000000E+01  0.00000000E+00
  4.30000000E+02  9.80000000E+01  0.00000000E+00
  4.40000000E+02  9.80000000E+01  0.00000000E+00
  4.50000000E+02  9.80000000E+01  0.00000000E+00
  4.60000000E+02  9.80000000E+01  0.00000000E+00
  4.70000000E+02  9.80000000E+01  0.00000000E+00
  4.80000000E+02  9.80000000E+01  0.00000000E+00
  4.90000000E+02  9.80000000E+01  0.00000000E+00
  5.00000000E+02  9.80000000E+01  0.00000000E+00
  5.10000000E+02  9.80000000E+01  0.00000000E+00
  5.20000000E+02  9.80000000E+01  0.00000000E+00
  5.30000000E+02  9.80000000E+01  0.00000000E+00
  5.40000000E+02  9.80000000E+01  0.00000000E+00
  5.50000000E+02  9.80000000E+01  0.00000000E+00
  5.60000000E+02  9.80000000E+01  0.00000000E+00
  5.70000000E+02  9.80000000E+01  0.00000000E+00
  5.80000000E+02  9.80000000E+01  0.00000000E+00
  5.90000000E+02  9.80000000E+01  0.00000000E+00
  6.00000000E+02  9.80000000E+01  0.00000000E+00
  6.10000000E+02  9.80000000E+01  0.00000000E+00
  6.20000000E+02  9.80000000E+01  0.00000000E+00
  6.30000000E+02  9.80000000E+01  0.00000000E+00
  6.40000000E+02  9.80000000E+01  0.00000000E+00
  6.50000000E+02  9.80000000E+01  0.00000000E+00
  6.60000000E+02  9.80000000E+01  0.00000000E+00
  6.70000000E+02  9.80000000E+01  0.00000000E+00
  6.80000000E+02  9.80000000E+01  0.00000000E+00
  6.90000000E+02  9.80000000E+01  0.00000000E+00
  7.00000000E+02  9.80000000E+01  0.00000000E+00
  7.10000000E+02  9.80000000E+01  0.00000000E+00
  7.20000000E+02  9.80000000E+01  0.00000000E+00
  7.30000000E+02  9.80000000E+01  0.00000000E+00
  7.40000000E+02  9.80000000E+01  0.00000000E+00
  7.50000000E+02  9.80000000E+01  0.00000000E+00
  7.60000000E+02  9.80000000E+01  0.00000000E+00
  7.70000000E+02  9.80000000E+01  0.00000000E+00
  7.80000000E+02  9.80000000E+01  0.00000000E+00
  7.90000000E+02  9.80000000E+01  0.00000000E+00
  8.00000000E+02  9.80000000E+01  0.00000000E+00
  8.10000000E+02  9.80000000E+01  0.00000000E+00
  8.20000000E+02  9.80000000E+01  0.00000000E+00
  8.30000000E+02  9.80000000E+01  0.00000000E+00
  8.40000000E+02  9.80000000E+01  0.00000000E+00
  8.50000000E+02  9.80000000E+01  0.00000000E+00
  8.60000000E+02  9.80000000E+01  0.00000000E+00
  8.70000000E+02  9.80000000E+01  0.00000000E+00
  8.80000000E+02  9.80000000E+01  0.00000000E+00
  8.90000000E+02  9.80000000E+01  0.00000000E+00
  9.00000000E+02  9.80000000E+01  0.00000000E+00
  9.10000000E+02  9.80000000E+01  0.00000000E+00
  9.20000000E+02  9.80000000E+01  0.00000000E+00
  9.30000000E+02  9.80000000E+01  0.00000000E+00
  9.40000000E+02  9.80000000E+01  0.00000000E+00
  9.50000000E+02  9.80000000E+01  0.00000000E+00
  9.60000000E+02  9.80000000E+01  0.00000000E+00
  9.70000000E+02  9.80000000E+01  0.00000000E+00
  9.80000000E+02  9.80000000E+01  0.00000000E+00
  9.90000000E+02  9.80000000E+01  0.00000000E+00
  1.00000000E+03  9.80000000E+01  0.00000000E+00
  0.00000000E+00  1.00000000E+02  0.00000000E+00
  1.00000000E+01  1.00000000E+02  0.00000000E+00
  2.00000000E+01  1.00000000E+02  0.00000000E+00
  3.00000000E+01  1.00000000E+02  0.00000000E+00
  4.00000000E+01  1.00000000E+02  0.00000000E+00
  5.00000000E+01  1.00000000E+02  0.00000000E+00
  6.00000000E+01  1.00000000E+02  0.00000000E+00
  7.00000000E+01  1.00000000E+02  0.00000000E+00
  8.00000000E+01  1.00000000E+02  0.00000000E+00
  9.00000000E+01  1.00000000E+02  0.00000000E+00
  1.00000000E+02  1.00000000E+02  0.00000000E+00
  1.10000000E+02  1.00000000E+02  0.00000000E+00
  1.20000000E+02  1.00000000E+02  0.00000000E+00
  1.30000000E+02  1.00000000E+02  0.00000000E+00
  1.40000000E+02  1.00000000E+02  0.00000000E+00
  1.50000000E+02  1.00000000E+02  0.00000000E+00
  1.60000000E+02  1.00000000E+02  0.00000000E+00
  1.70000000E+02  1.00000000E+02  0.00000000E+00
  1.80000000E+02  1.00000000E+02  0.00000000E+00
  1.90000000E+02  1.00000000E+02  0.00000000E+00
  2.00000000E+02  1.00000000E+02  0.00000000E+00
  2.10000000E+02  1.00000000E+02  0.00000000E+00
  2.20000000E+02  1.00000000E+02  0.00000000E+00
  2.30000000E+02  1.00000000E+02  0.00000000E+00
  2.40000000E+02  1.00000000E+02  0.00000000E+00
  2.50000000E+02  1.00000000E+02  0.00000000E+00
  2.60000000E+02  1.00000000E+02  0.00000000E+00
  2.70000000E+02  1.00000000E+02  0.00000000E+00
  2.80000000E+02  1.00000000E+02  0.00000000E+00
  2.90000000E+02  1.00000000E+02  0.00000000E+00
  3.00000000E+02  1.00000000E+02  0.00000000E+00
  3.10000000E+02  1.00000000E+02  0.00000000E+00
  3.20000000E+02  1.00000000E+02  0.00000000E+00
  3.30000000E+02  1.00000000E+02  0.00000000E+00
  3.40000000E+02  1.00000000E+02  0.00000000E+00
  3.50000000E+02  1.00000000E+02  0.00000000E+00
  3.60000000E+02  1.00000000E+02  0.00000000E+00
  3.70000000E+02  1.00000000E+02  0.00000000E+00
  3.80000000E+02  1.00000000E+02  0.00000000E+00
  3.90000000E+02  1.00000000E+02  0.00000000E+00
  4.00000000E+02  1.00000000E+02  0.00000000E+00
  4.10000000E+02  1.00000000E+02  0.00000000E+00
  4.20000000E+02  1.00000000E+02  0.00000000E+00
  4.30000000E+02  1.00000000E+02  0.00000000E+00
  4.40000000E+02  1.00000000E+02  0.00000000E+00
  4.50000000E+02  1.00000000E+02  0.00000000E+00
  4.60000000E+02  1.00000000E+02  0.00000000E+00
  4.70000000E+02  1.00000000E+02  0.00000000E+00
  4.80000000E+02  1.00000000E+02  0.00000000E+00
  4.90000000E+02  1.00000000E+02  0.00000000E+00
  5.00000000E+02  1.00000000E+02  0.00000000E+00
  5.10000000E+02  1.00000000E+02  0.00000000E+00
  5.20000000E+02  1.00000000E+02  0.00000000E+00
  5.30000000E+02  1.00000000E+02  0.00000000E+00
  5.40000000E+02  1.00000000E+02  0.00000000E+00
  5.50000000E+02  1.00000000E+02  0.00000000E+00
  5.60000000E+02  1.00000000E+02  0.00000000E+00
  5.70000000E+02  1.00000000E+02  0.00000000E+00
  5.80000000E+02  1.00000000E+02  0.00000000E+00
  5.90000000E+02  1.00000000E+02  0.00000000E+00
  6.00000000E+02  1.00000000E+02  0.00000000E+00
  6.10000000E+02  1.00000000E+02  0.00000000E+00
  6.20000000E+02  1.00000000E+02  0.00000000E+00
  6.30000000E+02  1.00000000E+02  0.00000000E+00
  6.40000000E+02  1.00000000E+02  0.00000000E+00
  6.50000000E+02  1.00000000E+02  0.00000000E+00
  6.60000000E+02  1.00000000E+02  0.00000000E+00
  6.70000000E+02  1.00000000E+02  0.00000000E+00
  6.80000000E+02  1.00000000E+02  0.00000000E+00
  6.90000000E+02  1.00000000E+02  0.00000000E+00
  7.00000000E+02  1.00000000E+02  0.00000000E+00
  7.10000000E+02  1.00000000E+02  0.00000000E+00
  7.20000000E+02  1.00000000E+02  0.00000000E+00
  7.30000000E+02  1.00000000E+02  0.00000000E+00
  7.40000000E+02  1.00000000E+02  0.00000000E+00
  7.50000000E+02  1.00000000E+02  0.00000000E+00
  7.60000000E+02  1.00000000E+02  0.00000000E+00
  7.70000000E+02  1.00000000E+02  0.00000000E+00
  7.80000000E+02  1.00000000E+02  0.00000000E+00
  7.90000000E+02  1.00000000E+02  0.00000000E+00
  8.00000000E+02  1.00000000E+02  0.00000000E+00
  8.10000000E+02  1.00000000E+02  0.00000000E+00
  8.20000000E+02  1.00000000E+02  0.00000000E+00
  8.30000000E+02  1.00000000E+02  0.00000000E+00
  8.40000000E+02  1.00000000E+02  0.00000000E+00
  8.50000000E+02  1.00000000E+02  0.00000000E+00
  8.60000000E+02  1.00000000E+02  0.00000000E+00
  8.70000000E+02  1.00000000E+02  0.00000000E+00
  8.80000000E+02  1.00000000E+02  0.00000000E+00
  8.90000000E+02  1.00000000E+02  0.00000000E+00
  9.00000000E+02  1.00000000E+02  0.00000000E+00
  9.10000000E+02  1.00000000E+02  0.00000000E+00
  9.20000000E+02  1.00000000E+02  0.00000000E+00
  9.30000000E+02  1.00000000E+02  0.00000000E+00
  9.40000000E+02  1.00000000E+02  0.00000000E+00
  9.50000000E+02  1.00000000E+02  0.00000000E+00
  9.60000000E+02  1.00000000E+02  0.00000000E+00
  9.70000000E+02  1.00000000E+02  0.00000000E+00
  9.80000000E+02  1.00000000E+02  0.00000000E+00
  9.90000000E+02  1.00000000E+02  0.00000000E+00
  1.00000000E+03  1.00000000E+02  0.00000000E+00
CELLS      5000     25000
         4           0           1         102         101
         4           1           2         103         102
         4           2           3         104         103
         4           3           4         105         104
         4           4           5         106         105
         4           5           6         107         106
         4           6           7         108         107
         4           7           8         109         108
         4           8           9         110         109
         4           9          10         111         110
         4          10          11         112         111
         4          11          12         113         112
         4          12          13         114         113
         4          13          14         115         114
         4          14          15         116         115
         4          15          16         117         116
         4          16          17         118         117
         4          17          18         119         118
         4          18          19         120         119
         4          19          20         121         120
         4          20          21         122         121
         4          21          22         123         122
         4          22          23         124         123
         4          23          24         125         124
         4          24          25         126         125
         4          25          26         127         126
         4          26          27         128         127
         4          27          28         129         128
         4          28          29         130         129
         4          29          30         131         130
         4          30          31         132         131
         4          31          32         133         132
         4          32          33         134         133
         4          33          34         135         134
         4          34          35         136         135
         4          35          36         137         136
         4          36          37         138         137
         4          37          38         139         138
         4          38          39         140         139
         4          39          40         141         140
         4          40          41         142         141
         4          41          42         143         142
         4          42          43         144         143
         4          43          44         145         144
         4          44          45         146         145
         4          45          46         147         146
         4          46          47         148         147
         4          47          48         149         148
         4          48          49         150         149
         4          49          50         151         150
         4          50          51         152         151
         4          51          52         153         152
         4          52          53         154         153
         4          53          54         155         154
         4          54          55         156         155
         4          55          56         157         156
         4          56          57         158         157
         4          57          58         159         158
         4          58          59         160         159
         4          59          60         161         160
         4          60          61         162         161
         4          61          62         163         162
         4          62          63         164         163
         4          63          64         165         164
         4          64          65         166         165
         4          65          66         167         166
         4          66          67         168         167
         4          67          68         169         168
         4          68          69         170         169
         4          69          70         171         170
         4          70          71         172         171
         4          71          72         173         172
         4          72          73         174         173
         4          73          74         175         174
         4          74          75         176         175
         4          75          76         177         176
         4          76          77         178         177
         4          77          78         179         178
         4          78          79         180         179
         4          79          80         181         180
         4          80          81         182         181
         4          81          82         183         182
         4          82          83         184         183
         4          83          84         185         184
         4          84          85         186         185
         4          85          86         187         186
         4          86          87         188         187
         4          87          88         189         188
         4          88          89         190         189
         4          89          90         191         190
         4          90          91         192         191
         4          91          92         193         192
         4          92          93         194         193
         4          93          94         195         194
         4          94          95         196         195
         4          95          96         197         196
         4          96          97         198         197
         4          97          98         199         198
         4          98          99         200         199
         4          99         100         201         200
         4         101         102         203         202
         4         102         103         204         203
         4         103         104         205         204
         4         104         105         206         205
         4         105         106         207         206
         4         106         107         208         207
         4         107         108         209         208
         4         108         109         210         209
         4         109         110         211         210
         4         110         111         212         211
         4         111         112         213         212
         4         112         113         214         213
         4         113         114         215         214
         4         114         115         216         215
         4         115         116         217         216
         4         116         117         218         217
         4         117         118         219         218
         4         118         119         220         219
         4         119         120         221         220
         4         120         121         222         221
         4         121         122         223         222
         4         122         123         224         223
         4         123         124         225         224
         4         124         125         226         225
         4         125         126         227         226
         4         126         127         228         227
         4         127         128         229         228
         4         128         129         230         229
         4         129         130         231         230
         4         130         131         232         231
         4         131         132         233         232
         4         132         133         234         233
         4         133         134         235         234
         4         134         135         236         235
         4         135         136         237         236
         4         136         137         238         237
         4         137         138         239         238
         4         138         139         240         239
         4         139         140         241         240
         4         140         141         242         241
         4         141         142         243         242
         4         142         143         244         243
         4         143         144         245         244
         4         144         145         246         245
         4         145         146         247         246
         4         146         147         248         247
         4         147         148         249         248
         4         148         149         250         249
         4         149         150         251         250
         4         150         151         252         251
         4         151         152         253         252
         4         152         153         254         253
         4         153         154         255         254
         4         154         155         256         255
         4         155         156         257         256
         4         156         157         258         257
         4         157         158         259         258
         4         158         159         260         259
         4         159         160         261         260
         4         160         161         262         261
         4         161         162         263         262
         4         162         163         264         263
         4         163         164         265         264
         4         164         165         266         265
         4         165         166         267         266
         4         166         167         268         267
         4         167         168         269         268
         4         168         169         270         269
         4         169         170         271         270
         4         170         171         272         271
         4         171         172         273         272
         4         172         173         274         273
         4         173         174         275         274
         4         174         175         276         275
         4         175         176         277         276
         4         176         177         278         277
         4         177         178         279         278
         4         178         179         280         279
         4         179         180         281         280
         4         180         181         282         281
         4         181         182         283         282
         4         182         183         284         283
         4         183         184         285         284
         4         184         185         286         285
         4         185         186         287         286
         4         186         187         288         287
         4         187         188         289         288
         4         188         189         290         289
         4         189         190         291         290
         4         190         191         292         291
         4         191         192         293         292
         4         192         193         294         293
         4         193         194         295         294
         4         194         195         296         295
         4         195         196         297         296
         4         196         197         298         297
         4         197         198         299         298
         4         198         199         300         299
         4         199         200         301         300
         4         200         201         302         301
         4         202         203         304         303
         4         203         204         305         304
         4         204         205         306         305
         4         205         206         307         306
         4         206         207         308         307
         4         207         208         309         308
         4         208         209         310         309
         4         209         210         311         310
         4         210         211         312         311
         4         211         212         313         312
         4         212         213         314         313
         4         213         214         315         314
         4         214         215         316         315
         4         215         216         317         316
         4         216         217         318         317
         4         217         218         319         318
         4         218         219         320         319
         4         219         220         321         320
         4         220         221         322         321
         4         221         222         323         322
         4         222         223         324         323
         4         223         224         325         324
         4         224         225         326         325
         4         225         226         327         326
         4         226         227         328         327
         4         227         228         329         328
         4         228         229         330         329
         4         229         230         331         330
         4         230         231         332         331
         4         231         232         333         332
         4         232         233         334         333
         4         233         234         335         334
         4         234         235         336         335
         4         235         236         337         336
         4         236         237         338         337
         4         237         238         339         338
         4         238         239         340         339
         4         239         240         341         340
         4         240         241         342         341
         4         241         242         343         342
         4         242         243         344         343
         4         243         244         345         344
         4         244         245         346         345
         4         245         246         347         346
         4         246         247         348         347
         4         247         248         349         348
         4         248         249         350         349
         4         249         250         351         350
         4         250         251         352         351
         4         251         252         353         352
         4         252         253         354         353
         4         253         254         355         354
         4         254         255         356         355
         4         255         256         357         356
         4         256         257         358         357
         4         257         258         359         358
         4         258         259         360         359
         4         259         260         361         360
         4         260         261         362         361
         4         261         262         363         362
         4         262         263         364         363
         4         263         264         365         364
         4         264         265         366         365
         4         265         266         367         366
         4         266         267         368         367
         4         267         268         369         368
         4         268         269         370         369
         4         269         270         371         370
         4         270         271         372         371
         4         271         272         373         372
         4         272         273         374         373
         4         273         274         375         374
         4         274         275         376         375
         4         275         276         377         376
         4         276         277         378         377
         4         277         278         379         378
         4         278         279         380         379
         4         279         280         381         380
         4         280         281         382         381
         4         281         282         383         382
         4         282         283         384         383
         4         283         284         385         384
         4         284         285         386         385
         4         285         286         387         386
         4         286         287         388         387
         4         287         288         389         388
         4         288         289         390         389
         4         289         290         391         390
         4         290         291         392         391
         4         291         292         393         392
         4         292         293         394         393
         4         293         294         395         394
         4         294         295         396         395
         4         295         296         397         396
         4         296         297         398         397
         4         297         298         399         398
         4         298         299         400         399
         4         299         300         401         400
         4         300         301         402         401
         4         301         302         403         402
         4         303         304         405         404
         4         304         305         406         405
         4         305         306         407         406
         4         306         307         408         407
         4         307         308         409         408
         4         308         309         410         409
         4         309         310         411         410
         4         310         311         412         411
         4         311         312         413         412
         4         312         313         414         413
         4         313         314         415         414
         4         314         315         416         415
         4         315         316         417         416
         4         316         317         418         417
         4         317         318         419         418
         4         318         319         420         419
         4         319         320         421         420
         4         320         321         422         421
         4         321         322         423         422
         4         322         323         424         423
         4         323         324         425         424
         4         324         325         426         425
         4         325         326         427         426
         4         326         327         428         427
         4         327         328         429         428
         4         328         329         430         429
         4         329         330         431         430
         4         330         331         432         431
         4         331         332         433         432
         4         332         333         434         433
         4         333         334         435         434
         4         334         335         436         435
         4         335         336         437         436
         4         336         337         438         437
         4         337         338         439         438
         4         338         339         440         439
         4         339         340         441         440
         4         340         341         442         441
         4         341         342         443         442
         4         342         343         444         443
         4         343         344         445         444
         4         344         345         446         445
         4         345         346         447         446
         4         346         347         448         447
         4         347         348         449         448
         4         348         349         450         449
         4         349         350         451         450
         4         350         351         452         451
         4         351         352         453         452
         4         352         353         454         453
         4         353         354         455         454
         4         354         355         456         455
         4         355         356         457         456
         4         356         357         458         457
         4         357         358         459         458
         4         358         359         460         459
         4         359         360         461         460
         4         360         361         462         461
         4         361         362         463         462
         4         362         363         464         463
         4         363         364         465         464
         4         364         365         466         465
         4         365         366         467         466
         4         366         367         468         467
         4         367         368         469         468
         4         368         369         470         469
         4         369         370         471         470
         4         370         371         472         471
         4         371         372         473         472
         4         372         373         474         473
         4         373         374         475         474
         4         374         375         476         475
         4         375         376         477         476
         4         376         377         478         477
         4         377         378         479         478
         4         378         379         480         479
         4         379         380         481         480
         4         380         381         482         481
         4         381         382         483         482
         4         382         383         484         483
         4         383         384         485         484
         4         384         385         486         485
         4         385         386         487         486
         4         386         387         488         487
         4         387         388         489         488
         4         388         389         490         489
         4         389         390         491         490
         4         390         391         492         491
         4         391         392         493         492
         4         392         393         494         493
         4         393         394         495         494
         4         394         395         496         495
         4         395         396         497         496
         4         396         397         498         497
         4         397         398         499         498
         4         398         399         500         499
         4         399         400         501         500
         4         400         401         502         501
         4         401         402         503         502
         4         402         403         504         503
         4         404         405         506         505
         4         405         406         507         506
         4         406         407         508         507
         4         407         408         509         508
         4         408         409         510         509
         4         409         410         511         510
         4         410         411         512         511
         4         411         412         513         512
         4         412         413         514         513
         4         413         414         515         514
         4         414         415         516         515
         4         415         416         517         516
         4         416         417         518         517
         4         417         418         519         518
         4         418         419         520         519
         4         419         420         521         520
         4         420         421         522         521
         4         421         422         523         522
         4         422         423         524         523
         4         423         424         525         524
         4         424         425         526         525
         4         425         426         527         526
         4         426         427         528         527
         4         427         428         529         528
         4         428         429         530         529
         4         429         430         531         530
         4         430         431         532         531
         4         431         432         533         532
         4         432         433         534         533
         4         433         434         535         534
         4         434         435         536         535
         4         435         436         537         536
         4         436         437         538         537
         4         437         438         539         538
         4         438         439         540         539
         4         439         440         541         540
         4         440         441         542         541
         4         441         442         543         542
         4         442         443         544         543
         4         443         444         545         544
         4         444         445         546         545
         4         445         446         547         546
         4         446         447         548         547
         4         447         448         549         548
         4         448         449         550         549
         4         449         450         551         550
         4         450         451         552         551
         4         451         452         553         552
         4         452         453         554         553
         4         453         454         555         554
         4         454         455         556         555
         4         455         456         557         556
         4         456         457         558         557
         4         457         458         559         558
         4         458         459         560         559
         4         459         460         561         560
         4         460         461         562         561
         4         461         462         563         562
         4         462         463         564         563
         4         463         464         565         564
         4         464         465         566         565
         4         465         466         567         566
         4         466         467         568         567
         4         467         468         569         568
         4         468         469         570         569
         4         469         470         571         570
         4         470         471         572         571
         4         471         472         573         572
         4         472         473         574         573
         4         473         474         575         574
         4         474         475         576         575
         4         475         476         577         576
         4         476         477         578         577
         4         477         478         579         578
         4         478         479         580         579
         4         479         480         581         580
         4         480         481         582         581
         4         481         482         583         582
         4         482         483         584         583
         4         483         484         585         584
         4         484         485         586         585
         4         485         486         587         586
         4         486         487         588         587
         4         487         488         589         588
         4         488         489         590         589
         4         489         490         591         590
         4         490         491         592         591
         4         491         492         593         592
         4         492         493         594         593
         4         493         494         595         594
         4         494         495         596         595
         4         495         496         597         596
         4         496         497         598         597
         4         497         498         599         598
         4         498         499         600         599
         4         499         500         601         600
         4         500         501         602         601
         4         501         502         603         602
         4         502         503         604         603
         4         503         504         605         604
         4         505         506         607         606
         4         506         507         608         607
         4         507         508         609         608
         4         508         509         610         609
         4         509         510         611         610
         4         510         511         612         611
         4         511         512         613         612
         4         512         513         614         613
         4         513         514         615         614
         4         514         515         616         615
         4         515         516         617         616
         4         516         517         618         617
         4         517         518         619         618
         4         518         519         620         619
         4         519         520         621         620
         4         520         521         622         621
         4         521         522         623         622
         4         522         523         624         623
         4         523         524         625         624
         4         524         525         626         625
         4         525         526         627         626
         4         526         527         628         627
         4         527         528         629         628
         4         528         529         630         629
         4         529         530         631         630
         4         530         531         632         631
         4         531         532         633         632
         4         532         533         634         633
         4         533         534         635         634
         4         534         535         636         635
         4         535         536         637         636
         4         536         537         638         637
         4         537         538         639         638
         4         538         539         640         639
         4         539         540         641         640
         4         540         541         642         641
         4         541         542         643         642
         4         542         543         644         643
         4         543         544         645         644
         4         544         545         646         645
         4         545         546         647         646
         4         546         547         648         647
         4         547         548         649         648
         4         548         549         650         649
         4         549         550         651         650
         4         550         551         652         651
         4         551         552         653         652
         4         552         553         654         653
         4         553         554         655         654
         4         554         555         656         655
         4         555         556         657         656
         4         556         557         658         657
         4         557         558         659         658
         4         558         559         660         659
         4         559         560         661         660
         4         560         561         662         661
         4         561         562         663         662
         4         562         563         664         663
         4         563         564         665         664
         4         564         565         666         665
         4         565         566         667         666
         4         566         567         668         667
         4         567         568         669         668
         4         568         569         670         669
         4         569         570         671         670
         4         570         571         672         671
         4         571         572         673         672
         4         572         573         674         673
         4         573         574         675         674
         4         574         575         676         675
         4         575         576         677         676
         4         576         577         678         677
         4         577         578         679         678
         4         578         579         680         679
         4         579         580         681         680
         4         580         581         682         681
         4         581         582         683         682
         4         582         583         684         683
         4         583         584         685         684
         4         584         585         686         685
         4         585         586         687         686
         4         586         587         688         687
         4         587         588         689         688
         4         588         589         690         689
         4         589         590         691         690
         4         590         591         692         691
         4         591         592         693         692
         4         592         593         694         693
         4         593         594         695         694
         4         594         595         696         695
         4         595         596         697         696
         4         596         597         698         697
         4         597         598         699         698
         4         598         599         700         699
         4         599         600         701         700
         4         600         601         702         701
         4         601         602         703         702
         4         602         603         704         703
         4         603         604         705         704
         4         604         605         706         705
         4         606         607         708         707
         4         607         608         709         708
         4         608         609         710         709
         4         609         610         711         710
         4         610         611         712         711
         4         611         612         713         712
         4         612         613         714         713
         4         613         614         715         714
         4         614         615         716         715
         4         615         616         717         716
         4         616         617         718         717
         4         617         618         719         718
         4         618         619         720         719
         4         619         620         721         720
         4         620         621         722         721
         4         621         622         723         722
         4         622         623         724         723
         4         623         624         725         724
         4         624         625         726         725
         4         625         626         727         726
         4         626         627         728         727
         4         627         628         729         728
         4         628         629         730         729
         4         629         630         731         730
         4         630         631         732         731
         4         631         632         733         732
         4         632         633         734         733
         4         633         634         735         734
         4         634         635         736         735
         4         635         636         737         736
         4         636         637         738         737
         4         637         638         739         738
         4         638         639         740         739
         4         639         640         741         740
         4         640         641         742         741
         4         641         642         743         742
         4         642         643         744         743
         4         643         644         745         744
         4         644         645         746         745
         4         645         646         747         746
         4         646         647         748         747
         4         647         648         749         748
         4         648         649         750         749
         4         649         650         751         750
         4         650         651         752         751
         4         651         652         753         752
         4         652         653         754         753
         4         653         654         755         754
         4         654         655         756         755
         4         655         656         757         756
         4         656         657         758         757
         4         657         658         759         758
         4         658         659         760         759
         4         659         660         761         760
         4         660         661         762         761
         4         661         662         763         762
         4         662         663         764         763
         4         663         664         765         764
         4         664         665         766         765
         4         665         666         767         766
         4         666         667         768         767
         4         667         668         769         768
         4         668         669         770         769
         4         669         670         771         770
         4         670         671         772         771
         4         671         672         773         772
         4         672         673         774         773
         4         673         674         775         774
         4         674         675         776         775
         4         675         676         777         776
         4         676         677         778         777
         4         677         678         779         778
         4         678         679         780         779
         4         679         680         781         780
         4         680         681         782         781
         4         681         682         783         782
         4         682         683         784         783
         4         683         684         785         784
         4         684         685         786         785
         4         685         686         787         786
         4         686         687         788         787
         4         687         688         789         788
         4         688         689         790         789
         4         689         690         791         790
         4         690         691         792         791
         4         691         692         793         792
         4         692         693         794         793
         4         693         694         795         794
         4         694         695         796         795
         4         695         696         797         796
         4         696         697         798         797
         4         697         698         799         798
         4         698         699         800         799
         4         699         700         801         800
         4         700         701         802         801
         4         701         702         803         802
         4         702         703         804         803
         4         703         704         805         804
         4         704         705         806         805
         4         705         706         807         806
         4         707         708         809         808
         4         708         709         810         809
         4         709         710         811         810
         4         710         711         812         811
         4         711         712         813         812
         4         712         713         814         813
         4         713         714         815         814
         4         714         715         816         815
         4         715         716         817         816
         4         716         717         818         817
         4         717         718         819         818
         4         718         719         820         819
         4         719         720         821         820
         4         720         721         822         821
         4         721         722         823         822
         4         722         723         824         823
         4         723         724         825         824
         4         724         725         826         825
         4         725         726         827         826
         4         726         727         828         827
         4         727         728         829         828
         4         728         729         830         829
         4         729         730         831         830
         4         730         731         832         831
         4         731         732         833         832
         4         732         733         834         833
         4         733         734         835         834
         4         734         735         836         835
         4         735         736         837         836
         4         736         737         838         837
         4         737         738         839         838
         4         738         739         840         839
         4         739         740         841         840
         4         740         741         842         841
         4         741         742         843         842
         4         742         743         844         843
         4         743         744         845         844
         4         744         745         846         845
         4         745         746         847         846
         4         746         747         848         847
         4         747         748         849         848
         4         748         749         850         849
         4         749         750         851         850
         4         750         751         852         851
         4         751         752         853         852
         4         752         753         854         853
         4         753         754         855         854
         4         754         755         856         855
         4         755         756         857         856
         4         756         757         858         857
         4         757         758         859         858
         4         758         759         860         859
         4         759         760         861         860
         4         760         761         862         861
         4         761         762         863         862
         4         762         763         864         863
         4         763         764         865         864
         4         764         765         866         865
         4         765         766         867         866
         4         766         767         868         867
         4         767         768         869         868
         4         768         769         870         869
         4         769         770         871         870
         4         770         771         872         871
         4         771         772         873         872
         4         772         773         874         873
         4         773         774         875         874
         4         774         775         876         875
         4         775         776         877         876
         4         776         777         878         877
         4         777         778         879         878
         4         778         779         880         879
         4         779         780         881         880
         4         780         781         882         881
         4         781         782         883         882
         4         782         783         884         883
         4         783         784         885         884
         4         784         785         886         885
         4         785         786         887         886
         4         786         787         888         887
         4         787         788         889         888
         4         788         789         890         889
         4         789         790         891         890
         4         790         791         892         891
         4         791         792         893         892
         4         792         793         894         893
         4         793         794         895         894
         4         794         795         896         895
         4         795         796         897         896
         4         796         797         898         897
         4         797         798         899         898
         4         798         799         900         899
         4         799         800         901         900
         4         800         801         902         901
         4         801         802         903         902
         4         802         803         904         903
         4         803         804         905         904
         4         804         805         906         905
         4         805         806         907         906
         4         806         807         908         907
         4         808         809         910         909
         4         809         810         911         910
         4         810         811         912         911
         4         811         812         913         912
         4         812         813         914         913
         4         813         814         915         914
         4         814         815         916         915
         4         815         816         917         916
         4         816         817         918         917
         4         817         818         919         918
         4         818         819         920         919
         4         819         820         921         920
         4         820         821         922         921
         4         821         822         923         922
         4         822         823         924         923
         4         823         824         925         924
         4         824         825         926         925
         4         825         826         927         926
         4         826         827         928         927
         4         827         828         929         928
         4         828         829         930         929
         4         829         830         931         930
         4         830         831         932         931
         4         831         832         933         932
         4         832         833         934         933
         4         833         834         935         934
         4         834         835         936         935
         4         835         836         937         936
         4         836         837         938         937
         4         837         838         939         938
         4         838         839         940         939
         4         839         840         941         940
         4         840         841         942         941
         4         841         842         943         942
         4         842         843         944         943
         4         843         844         945         944
         4         844         845         946         945
         4         845         846         947         946
         4         846         847         948         947
         4         847         848         949         948
         4         848         849         950         949
         4         849         850         951         950
         4         850         851         952         951
         4         851         852         953         952
         4         852         853         954         953
         4         853         854         955         954
         4         854         855         956         955
         4         855         856         957         956
         4         856         857         958         957
         4         857         858         959         958
         4         858         859         960         959
         4         859         860         961         960
         4         860         861         962         961
         4         861         862         963         962
         4         862         863         964         963
         4         863         864         965         964
         4         864         865         966         965
         4         865         866         967         966
         4         866         867         968         967
         4         867         868         969         968
         4         868         869         970         969
         4         869         870         971         970
         4         870         871         972         971
         4         871         872         973         972
         4         872         873         974         973
         4         873         874         975         974
         4         874         875         976         975
         4         875         876         977         976
         4         876         877         978         977
         4         877         878         979         978
         4         878         879         980         979
         4         879         880         981         980
         4         880         881         982         981
         4         881         882         983         982
         4         882         883         984         983
         4         883         884         985         984
         4         884         885         986         985
         4         885         886         987         986
         4         886         887         988         987
         4         887         888         989         988
         4         888         889         990         989
         4         889         890         991         990
         4         890         891         992         991
         4         891         892         993         992
         4         892         893         994         993
         4         893         894         995         994
         4         894         895         996         995
         4         895         896         997         996
         4         896         897         998         997
         4         897         898         999         998
         4         898         899        1000         999
         4         899         900        1001        1000
         4         900         901        1002        1001
         4         901         902        1003        1002
         4         902         903        1004        1003
         4         903         904        1005        1004
         4         904         905        1006        1005
         4         905         906        1007        1006
         4         906         907        1008        1007
         4         907         908        1009        1008
         4         909         910        1011        1010
         4         910         911        1012        1011
         4         911         912        1013        1012
         4         912         913        1014        1013
         4         913         914        1015        1014
         4         914         915        1016        1015
         4         915         916        1017        1016
         4         916         917        1018        1017
         4         917         918        1019        1018
         4         918         919        1020        1019
         4         919         920        1021        1020
         4         920         921        1022        1021
         4         921         922        1023        1022
         4         922         923        1024        1023
         4         923         924        1025        1024
         4         924         925        1026        1025
         4         925         926        1027        1026
         4         926         927        1028        1027
         4         927         928        1029        1028
         4         928         929        1030        1029
         4         929         930        1031        1030
         4         930         931        1032        1031
         4         931         932        1033        1032
         4         932         933        1034        1033
         4         933         934        1035        1034
         4         934         935        1036        1035
         4         935         936        1037        1036
         4         936         937        1038        1037
         4         937         938        1039        1038
         4         938         939        1040        1039
         4         939         940        1041        1040
         4         940         941        1042        1041
         4         941         942        1043        1042
         4         942         943        1044        1043
         4         943         944        1045        1044
         4         944         945        1046        1045
         4         945         946        1047        1046
         4         946         947        1048        1047
         4         947         948        1049        1048
         4         948         949        1050        1049
         4         949         950        1051        1050
         4         950         951        1052        1051
         4         951         952        1053        1052
         4         952         953        1054        1053
         4         953         954        1055        1054
         4         954         955        1056        1055
         4         955         956        1057        1056
         4         956         957        1058        1057
         4         957         958        1059        1058
         4         958         959        1060        1059
         4         959         960        1061        1060
         4         960         961        1062        1061
         4         961         962        1063        1062
         4         962         963        1064        1063
         4         963         964        1065        1064
         4         964         965        1066        1065
         4         965         966        1067        1066
         4         966         967        1068        1067
         4         967         968        1069        1068
         4         968         969        1070        1069
         4         969         970        1071        1070
         4         970         971        1072        1071
         4         971         972        1073        1072
         4         972         973        1074        1073
         4         973         974        1075        1074
         4         974         975        1076        1075
         4         975         976        1077        1076
         4         976         977        1078        1077
         4         977         978        1079        1078
         4         978         979        1080        1079
         4         979         980        1081        1080
         4         980         981        1082        1081
         4         981         982        1083        1082
         4         982         983        1084        1083
         4         983         984        1085        1084
         4         984         985        1086        1085
         4         985         986        1087        1086
         4         986         987        1088        1087
         4         987         988        1089        1088
         4         988         989        1090        1089
         4         989         990        1091        1090
         4         990         991        1092        1091
         4         991         992        1093        1092
         4         992         993        1094        1093
         4         993         994        1095        1094
         4         994         995        1096        1095
         4         995         996        1097        1096
         4         996         997        1098        1097
         4         997         998        1099        1098
         4         998         999        1100        1099
         4         999        1000        1101        1100
         4        1000        1001        1102        1101
         4        1001        1002        1103        1102
         4        1002        1003        1104        1103
         4        1003        1004        1105        1104
         4        1004        1005        1106        1105
         4        1005        1006        1107        1106
         4        1006        1007        1108        1107
         4        1007        1008        1109        1108
         4        1008        1009        1110        1109
         4        1010        1011        1112        1111
         4        1011        1012        1113        1112
         4        1012        1013        1114        1113
         4        1013        1014        1115        1114
         4        1014        1015        1116        1115
         4        1015        1016        1117        1116
         4        1016        1017        1118        1117
         4        1017        1018        1119        1118
         4        1018        1019        1120        1119
         4        1019        1020        1121        1120
         4        1020        1021        1122        1121
         4        1021        1022        1123        1122
         4        1022        1023        1124        1123
         4        1023        1024        1125        1124
         4        1024        1025        1126        1125
         4        1025        1026        1127        1126
         4        1026        1027        1128        1127
         4        1027        1028        1129        1128
         4        1028        1029        1130        1129
         4        1029        1030        1131        1130
         4        1030        1031        1132        1131
         4        1031        1032        1133        1132
         4        1032        1033        1134        1133
         4        1033        1034        1135        1134
         4        1034        1035        1136        1135
         4        1035        1036        1137        1136
         4        1036        1037        1138        1137
         4        1037        1038        1139        1138
         4        1038        1039        1140        1139
         4        1039        1040        1141        1140
         4        1040        1041        1142        1141
         4        1041        1042        1143        1142
         4        1042        1043        1144        1143
         4        1043        1044        1145        1144
         4        1044        1045        1146        1145
         4        1045        1046        1147        1146
         4        1046        1047        1148        1147
         4        1047        1048        1149        1148
         4        1048        1049        1150        1149
         4        1049        1050        1151        1150
         4        1050        1051        1152        1151
         4        1051        1052        1153        1152
         4        1052        1053        1154        1153
         4        1053        1054        1155        1154
         4        1054        1055        1156        1155
         4        1055        1056        1157        1156
         4        1056        1057        1158        1157
         4        1057        1058        1159        1158
         4        1058        1059        1160        1159
         4        1059        1060        1161        1160
         4        1060        1061        1162        1161
         4        1061        1062        1163        1162
         4        1062        1063        1164        1163
         4        1063        1064        1165        1164
         4        1064        1065        1166        1165
         4        1065        1066        1167        1166
         4        1066        1067        1168        1167
         4        1067        1068        1169        1168
         4        1068        1069        1170        1169
         4        1069        1070        1171        1170
         4        1070        1071        1172        1171
         4        1071        1072        1173        1172
         4        1072        1073        1174        1173
         4        1073        1074        1175        1174
         4        1074        1075        1176        1175
         4        1075        1076        1177        1176
         4        1076        1077        1178        1177
         4        1077        1078        1179        1178
         4        1078        1079        1180        1179
         4        1079        1080        1181        1180
         4        1080        1081        1182        1181
         4        1081        1082        1183        1182
         4        1082        1083        1184        1183
         4        1083        1084        1185        1184
         4        1084        1085        1186        1185
         4        1085        1086        1187        1186
         4        1086        1087        1188        1187
         4        1087        1088        1189        1188
         4        1088        1089        1190        1189
         4        1089        1090        1191        1190
         4        1090        1091        1192        1191
         4        1091        1092        1193        1192
         4        1092        1093        1194        1193
         4        1093        1094        1195        1194
         4        1094        1095        1196        1195
         4        1095        1096        1197        1196
         4        1096        1097        1198        1197
         4        1097        1098        1199        1198
         4        1098        1099        1200        1199
         4        1099        1100        1201        1200
         4        1100        1101        1202        1201
         4        1101        1102        1203        1202
         4        1102        1103        1204        1203
         4        1103        1104        1205        1204
         4        1104        1105        1206        1205
         4        1105        1106        1207        1206
         4        1106        1107        1208        1207
         4        1107        1108        1209        1208
         4        1108        1109        1210        1209
         4        1109        1110        1211        1210
         4        1111        1112        1213        1212
         4        1112        1113        1214        1213
         4        1113        1114        1215        1214
         4        1114        1115        1216        1215
         4        1115        1116        1217        1216
         4        1116        1117        1218        1217
         4        1117        1118        1219        1218
         4        1118        1119        1220        1219
         4        1119        1120        1221        1220
         4        1120        1121        1222        1221
         4        1121        1122        1223        1222
         4        1122        1123        1224        1223
         4        1123        1124        1225        1224
         4        1124        1125        1226        1225
         4        1125        1126        1227        1226
         4        1126        1127        1228        1227
         4        1127        1128        1229        1228
         4        1128        1129        1230        1229
         4        1129        1130        1231        1230
         4        1130        1131        1232        1231
         4        1131        1132        1233        1232
         4        1132        1133        1234        1233
         4        1133        1134        1235        1234
         4        1134        1135        1236        1235
         4        1135        1136        1237        1236
         4        1136        1137        1238        1237
         4        1137        1138        1239        1238
         4        1138        1139        1240        1239
         4        1139        1140        1241        1240
         4        1140        1141        1242        1241
         4        1141        1142        1243        1242
         4        1142        1143        1244        1243
         4        1143        1144        1245        1244
         4        1144        1145        1246        1245
         4        1145        1146        1247        1246
         4        1146        1147        1248        1247
         4        1147        1148        1249        1248
         4        1148        1149        1250        1249
         4        1149        1150        1251        1250
         4        1150        1151        1252        1251
         4        1151        1152        1253        1252
         4        1152        1153        1254        1253
         4        1153        1154        1255        1254
         4        1154        1155        1256        1255
         4        1155        1156        1257        1256
         4        1156        1157        1258        1257
         4        1157        1158        1259        1258
         4        1158        1159        1260        1259
         4        1159        1160        1261        1260
         4        1160        1161        1262        1261
         4        1161        1162        1263        1262
         4        1162        1163        1264        1263
         4        1163        1164        1265        1264
         4        1164        1165        1266        1265
         4        1165        1166        1267        1266
         4        1166        1167        1268        1267
         4        1167        1168        1269        1268
         4        1168        1169        1270        1269
         4        1169        1170        1271        1270
         4        1170        1171        1272        1271
         4        1171        1172        1273        1272
         4        1172        1173        1274        1273
         4        1173        1174        1275        1274
         4        1174        1175        1276        1275
         4        1175        1176        1277        1276
         4        1176        1177        1278        1277
         4        1177        1178        1279        1278
         4        1178        1179        1280        1279
         4        1179        1180        1281        1280
         4        1180        1181        1282        1281
         4        1181        1182        1283        1282
         4        1182        1183        1284        1283
         4        1183        1184        1285        1284
         4        1184        1185        1286        1285
         4        1185        1186        1287        1286
         4        1186        1187        1288        1287
         4        1187        1188        1289        1288
         4        1188        1189        1290        1289
         4        1189        1190        1291        1290
         4        1190        1191        1292        1291
         4        1191        1192        1293        1292
         4        1192        1193        1294        1293
         4        1193        1194        1295        1294
         4        1194        1195        1296        1295
         4        1195        1196        1297        1296
         4        1196        1197        1298        1297
         4        1197        1198        1299        1298
         4        1198        1199        1300        1299
         4        1199        1200        1301        1300
         4        1200        1201        1302        1301
         4        1201        1202        1303        1302
         4        1202        1203        1304        1303
         4        1203        1204        1305        1304
         4        1204        1205        1306        1305
         4        1205        1206        1307        1306
         4        1206        1207        1308        1307
         4        1207        1208        1309        1308
         4        1208        1209        1310        1309
         4        1209        1210        1311        1310
         4        1210        1211        1312        1311
         4        1212        1213        1314        1313
         4        1213        1214        1315        1314
         4        1214        1215        1316        1315
         4        1215        1216        1317        1316
         4        1216        1217        1318        1317
         4        1217        1218        1319        1318
         4        1218        1219        1320        1319
         4        1219        1220        1321        1320
         4        1220        1221        1322        1321
         4        1221        1222        1323        1322
         4        1222        1223        1324        1323
         4        1223        1224        1325        1324
         4        1224        1225        1326        1325
         4        1225        1226        1327        1326
         4        1226        1227        1328        1327
         4        1227        1228        1329        1328
         4        1228        1229        1330        1329
         4        1229        1230        1331        1330
         4        1230        1231        1332        1331
         4        1231        1232        1333        1332
         4        1232        1233        1334        1333
         4        1233        1234        1335        1334
         4        1234        1235        1336        1335
         4        1235        1236        1337        1336
         4        1236        1237        1338        1337
         4        1237        1238        1339        1338
         4        1238        1239        1340        1339
         4        1239        1240        1341        1340
         4        1240        1241        1342        1341
         4        1241        1242        1343        1342
         4        1242        1243        1344        1343
         4        1243        1244        1345        1344
         4        1244        1245        1346        1345
         4        1245        1246        1347        1346
         4        1246        1247        1348        1347
         4        1247        1248        1349        1348
         4        1248        1249        1350        1349
         4        1249        1250        1351        1350
         4        1250        1251        1352        1351
         4        1251        1252        1353        1352
         4        1252        1253        1354        1353
         4        1253        1254        1355        1354
         4        1254        1255        1356        1355
         4        1255        1256        1357        1356
         4        1256        1257        1358        1357
         4        1257        1258        1359        1358
         4        1258        1259        1360        1359
         4        1259        1260        1361        1360
         4        1260        1261        1362        1361
         4        1261        1262        1363        1362
         4        1262        1263        1364        1363
         4        1263        1264        1365        1364
         4        1264        1265        1366        1365
         4        1265        1266        1367        1366
         4        1266        1267        1368        1367
         4        1267        1268        1369        1368
         4        1268        1269        1370        1369
         4        1269        1270        1371        1370
         4        1270        1271        1372        1371
         4        1271        1272        1373        1372
         4        1272        1273        1374        1373
         4        1273        1274        1375        1374
         4        1274        1275        1376        1375
         4        1275        1276        1377        1376
         4        1276        1277        1378        1377
         4        1277        1278        1379        1378
         4        1278        1279        1380        1379
         4        1279        1280        1381        1380
         4        1280        1281        1382        1381
         4        1281        1282        1383        1382
         4        1282        1283        1384        1383
         4        1283        1284        1385        1384
         4        1284        1285        1386        1385
         4        1285        1286        1387        1386
         4        1286        1287        1388        1387
         4        1287        1288        1389        1388
         4        1288        1289        1390        1389
         4        1289        1290        1391        1390
         4        1290        1291        1392        1391
         4        1291        1292        1393        1392
         4        1292        1293        1394        1393
         4        1293        1294        1395        1394
         4        1294        1295        1396        1395
         4        1295        1296        1397        1396
         4        1296        1297        1398        1397
         4        1297        1298        1399        1398
         4        1298        1299        1400        1399
         4        1299        1300        1401        1400
         4        1300        1301        1402        1401
         4        1301        1302        1403        1402
         4        1302        1303        1404        1403
         4        1303        1304        1405        1404
         4        1304        1305        1406        1405
         4        1305        1306        1407        1406
         4        1306        1307        1408        1407
         4        1307        1308        1409        1408
         4        1308        1309        1410        1409
         4        1309        1310        1411        1410
         4        1310        1311        1412        1411
         4        1311        1312        1413        1412
         4        1313        1314        1415        1414
         4        1314        1315        1416        1415
         4        1315        1316        1417        1416
         4        1316        1317        1418        1417
         4        1317        1318        1419        1418
         4        1318        1319        1420        1419
         4        1319        1320        1421        1420
         4        1320        1321        1422        1421
         4        1321        1322        1423        1422
         4        1322        1323        1424        1423
         4        1323        1324        1425        1424
         4        1324        1325        1426        1425
         4        1325        1326        1427        1426
         4        1326        1327        1428        1427
         4        1327        1328        1429        1428
         4        1328        1329        1430        1429
         4        1329        1330        1431        1430
         4        1330        1331        1432        1431
         4        1331        1332        1433        1432
         4        1332        1333        1434        1433
         4        1333        1334        1435        1434
         4        1334        1335        1436        1435
         4        1335        1336        1437        1436
         4        1336        1337        1438        1437
         4        1337        1338        1439        1438
         4        1338        1339        1440        1439
         4        1339        1340        1441        1440
         4        1340        1341        1442        1441
         4        1341        1342        1443        1442
         4        1342        1343        1444        1443
         4        1343        1344        1445        1444
         4        1344        1345        1446        1445
         4        1345        1346        1447        1446
         4        1346        1347        1448        1447
         4        1347        1348        1449        1448
         4        1348        1349        1450        1449
         4        1349        1350        1451        1450
         4        1350        1351        1452        1451
         4        1351        1352        1453        1452
         4        1352        1353        1454        1453
         4        1353        1354        1455        1454
         4        1354        1355        1456        1455
         4        1355        1356        1457        1456
         4        1356        1357        1458        1457
         4        1357        1358        1459        1458
         4        1358        1359        1460        1459
         4        1359        1360        1461        1460
         4        1360        1361        1462        1461
         4        1361        1362        1463        1462
         4        1362        1363        1464        1463
         4        1363        1364        1465        1464
         4        1364        1365        1466        1465
         4        1365        1366        1467        1466
         4        1366        1367        1468        1467
         4        1367        1368        1469        1468
         4        1368        1369        1470        1469
         4        1369        1370        1471        1470
         4        1370        1371        1472        1471
         4        1371        1372        1473        1472
         4        1372        1373        1474        1473
         4        1373        1374        1475        1474
         4        1374        1375        1476        1475
         4        1375        1376        1477        1476
         4        1376        1377        1478        1477
         4        1377        1378        1479        1478
         4        1378        1379        1480        1479
         4        1379        1380        1481        1480
         4        1380        1381        1482        1481
         4        1381        1382        1483        1482
         4        1382        1383        1484        1483
         4        1383        1384        1485        1484
         4        1384        1385        1486        1485
         4        1385        1386        1487        1486
         4        1386        1387        1488        1487
         4        1387        1388        1489        1488
         4        1388        1389        1490        1489
         4        1389        1390        1491        1490
         4        1390        1391        1492        1491
         4        1391        1392        1493        1492
         4        1392        1393        1494        1493
         4        1393        1394        1495        1494
         4        1394        1395        1496        1495
         4        1395        1396        1497        1496
         4        1396        1397        1498        1497
         4        1397        1398        1499        1498
         4        1398        1399        1500        1499
         4        1399        1400        1501        1500
         4        1400        1401        1502        1501
         4        1401        1402        1503        1502
         4        1402        1403        1504        1503
         4        1403        1404        1505        1504
         4        1404        1405        1506        1505
         4        1405        1406        1507        1506
         4        1406        1407        1508        1507
         4        1407        1408        1509        1508
         4        1408        1409        1510        1509
         4        1409        1410        1511        1510
         4        1410        1411        1512        1511
         4        1411        1412        1513        1512
         4        1412        1413        1514        1513
         4        1414        1415        1516        1515
         4        1415        1416        1517        1516
         4        1416        1417        1518        1517
         4        1417        1418        1519        1518
         4        1418        1419        1520        1519
         4        1419        1420        1521        1520
         4        1420        1421        1522        1521
         4        1421        1422        1523        1522
         4        1422        1423        1524        1523
         4        1423        1424        1525        1524
         4        1424        1425        1526        1525
         4        1425        1426        1527        1526
         4        1426        1427        1528        1527
         4        1427        1428        1529        1528
         4        1428        1429        1530        1529
         4        1429        1430        1531        1530
         4        1430        1431        1532        1531
         4        1431        1432        1533        1532
         4        1432        1433        1534        1533
         4        1433        1434        1535        1534
         4        1434        1435        1536        1535
         4        1435        1436        1537        1536
         4        1436        1437        1538        1537
         4        1437        1438        1539        1538
         4        1438        1439        1540        1539
         4        1439        1440        1541        1540
         4        1440        1441        1542        1541
         4        1441        1442        1543        1542
         4        1442        1443        1544        1543
         4        1443        1444        1545        1544
         4        1444        1445        1546        1545
         4        1445        1446        1547        1546
         4        1446        1447        1548        1547
         4        1447        1448        1549        1548
         4        1448        1449        1550        1549
         4        1449        1450        1551        1550
         4        1450        1451        1552        1551
         4        1451        1452        1553        1552
         4        1452        1453        1554        1553
         4        1453        1454        1555        1554
         4        1454        1455        1556        1555
         4        1455        1456        1557        1556
         4        1456        1457        1558        1557
         4        1457        1458        1559        1558
         4        1458        1459        1560        1559
         4        1459        1460        1561        1560
         4        1460        1461        1562        1561
         4        1461        1462        1563        1562
         4        1462        1463        1564        1563
         4        1463        1464        1565        1564
         4        1464        1465        1566        1565
         4        1465        1466        1567        1566
         4        1466        1467        1568        1567
         4        1467        1468        1569        1568
         4        1468        1469        1570        1569
         4        1469        1470        1571        1570
         4        1470        1471        1572        1571
         4        1471        1472        1573        1572
         4        1472        1473        1574        1573
         4        1473        1474        1575        1574
         4        1474        1475        1576        1575
         4        1475        1476        1577        1576
         4        1476        1477        1578        1577
         4        1477        1478        1579        1578
         4        1478        1479        1580        1579
         4        1479        1480        1581        1580
         4        1480        1481        1582        1581
         4        1481        1482        1583        1582
         4        1482        1483        1584        1583
         4        1483        1484        1585        1584
         4        1484        1485        1586        1585
         4        1485        1486        1587        1586
         4        1486        1487        1588        1587
         4        1487        1488        1589        1588
         4        1488        1489        1590        1589
         4        1489        1490        1591        1590
         4        1490        1491        1592        1591
         4        1491        1492        1593        1592
         4        1492        1493        1594        1593
         4        1493        1494        1595        1594
         4        1494        1495        1596        1595
         4        1495        1496        1597        1596
         4        1496        1497        1598        1597
         4        1497        1498        1599        1598
         4        1498        1499        1600        1599
         4        1499        1500        1601        1600
         4        1500        1501        1602        1601
         4        1501        1502        1603        1602
         4        1502        1503        1604        1603
         4        1503        1504        1605        1604
         4        1504        1505        1606        1605
         4        1505        1506        1607        1606
         4        1506        1507        1608        1607
         4        1507        1508        1609        1608
         4        1508        1509        1610        1609
         4        1509        1510        1611        1610
         4        1510        1511        1612        1611
         4        1511        1512        1613        1612
         4        1512        1513        1614        1613
         4        1513        1514        1615        1614
         4        1515        1516        1617        1616
         4        1516        1517        1618        1617
         4        1517        1518        1619        1618
         4        1518        1519        1620        1619
         4        1519        1520        1621        1620
         4        1520        1521        1622        1621
         4        1521        1522        1623        1622
         4        1522        1523        1624        1623
         4        1523        1524        1625        1624
         4        1524        1525        1626        1625
         4        1525        1526        1627        1626
         4        1526        1527        1628        1627
         4        1527        1528        1629        1628
         4        1528        1529        1630        1629
         4        1529        1530        1631        1630
         4        1530        1531        1632        1631
         4        1531        1532        1633        1632
         4        1532        1533        1634        1633
         4        1533        1534        1635        1634
         4        1534        1535        1636        1635
         4        1535        1536        1637        1636
         4        1536        1537        1638        1637
         4        1537        1538        1639        1638
         4        1538        1539        1640        1639
         4        1539        1540        1641        1640
         4        1540        1541        1642        1641
         4        1541        1542        1643        1642
         4        1542        1543        1644        1643
         4        1543        1544        1645        1644
         4        1544        1545        1646        1645
         4        1545        1546        1647        1646
         4        1546        1547        1648        1647
         4        1547        1548        1649        1648
         4        1548        1549        1650        1649
         4        1549        1550        1651        1650
         4        1550        1551        1652        1651
         4        1551        1552        1653        1652
         4        1552        1553        1654        1653
         4        1553        1554        1655        1654
         4        1554        1555        1656        1655
         4        1555        1556        1657        1656
         4        1556        1557        1658        1657
         4        1557        1558        1659        1658
         4        1558        1559        1660        1659
         4        1559        1560        1661        1660
         4        1560        1561        1662        1661
         4        1561        1562        1663        1662
         4        1562        1563        1664        1663
         4        1563        1564        1665        1664
         4        1564        1565        1666        1665
         4        1565        1566        1667        1666
         4        1566        1567        1668        1667
         4        1567        1568        1669        1668
         4        1568        1569        1670        1669
         4        1569        1570        1671        1670
         4        1570        1571        1672        1671
         4        1571        1572        1673        1672
         4        1572        1573        1674        1673
         4        1573        1574        1675        1674
         4        1574        1575        1676        1675
         4        1575        1576        1677        1676
         4        1576        1577        1678        1677
         4        1577        1578        1679        1678
         4        1578        1579        1680        1679
         4        1579        1580        1681        1680
         4        1580        1581        1682        1681
         4        1581        1582        1683        1682
         4        1582        1583        1684        1683
         4        1583        1584        1685        1684
         4        1584        1585        1686        1685
         4        1585        1586        1687        1686
         4        1586        1587        1688        1687
         4        1587        1588        1689        1688
         4        1588        1589        1690        1689
         4        1589        1590        1691        1690
         4        1590        1591        1692        1691
         4        1591        1592        1693        1692
         4        1592        1593        1694        1693
         4        1593        1594        1695        1694
         4        1594        1595        1696        1695
         4        1595        1596        1697        1696
         4        1596        1597        1698        1697
         4        1597        1598        1699        1698
         4        1598        1599        1700        1699
         4        1599        1600        1701        1700
         4        1600        1601        1702        1701
         4        1601        1602        1703        1702
         4        1602        1603        1704        1703
         4        1603        1604        1705        1704
         4        1604        1605        1706        1705
         4        1605        1606        1707        1706
         4        1606        1607        1708        1707
         4        1607        1608        1709        1708
         4        1608        1609        1710        1709
         4        1609        1610        1711        1710
         4        1610        1611        1712        1711
         4        1611        1612        1713        1712
         4        1612        1613        1714        1713
         4        1613        1614        1715        1714
         4        1614        1615        1716        1715
         4        1616        1617        1718        1717
         4        1617        1618        1719        1718
         4        1618        1619        1720        1719
         4        1619        1620        1721        1720
         4        1620        1621        1722        1721
         4        1621        1622        1723        1722
         4        1622        1623        1724        1723
         4        1623        1624        1725        1724
         4        1624        1625        1726        1725
         4        1625        1626        1727        1726
         4        1626        1627        1728        1727
         4        1627        1628        1729        1728
         4        1628        1629        1730        1729
         4        1629        1630        1731        1730
         4        1630        1631        1732        1731
         4        1631        1632        1733        1732
         4        1632        1633        1734        1733
         4        1633        1634        1735        1734
         4        1634        1635        1736        1735
         4        1635        1636        1737        1736
         4        1636        1637        1738        1737
         4        1637        1638        1739        1738
         4        1638        1639        1740        1739
         4        1639        1640        1741        1740
         4        1640        1641        1742        1741
         4        1641        1642        1743        1742
         4        1642        1643        1744        1743
         4        1643        1644        1745        1744
         4        1644        1645        1746        1745
         4        1645        1646        1747        1746
         4        1646        1647        1748        1747
         4        1647        1648        1749        1748
         4        1648        1649        1750        1749
         4        1649        1650        1751        1750
         4        1650        1651        1752        1751
         4        1651        1652        1753        1752
         4        1652        1653        1754        1753
         4        1653        1654        1755        1754
         4        1654        1655        1756        1755
         4        1655        1656        1757        1756
         4        1656        1657        1758        1757
         4        1657        1658        1759        1758
         4        1658        1659        1760        1759
         4        1659        1660        1761        1760
         4        1660        1661        1762        1761
         4        1661        1662        1763        1762
         4        1662        1663        1764        1763
         4        1663        1664        1765        1764
         4        1664        1665        1766        1765
         4        1665        1666        1767        1766
         4        1666        1667        1768        1767
         4        1667        1668        1769        1768
         4        1668        1669        1770        1769
         4        1669        1670        1771        1770
         4        1670        1671        1772        1771
         4        1671        1672        1773        1772
         4        1672        1673        1774        1773
         4        1673        1674        1775        1774
         4        1674        1675        1776        1775
         4        1675        1676        1777        1776
         4        1676        1677        1778        1777
         4        1677        1678        1779        1778
         4        1678        1679        1780        1779
         4        1679        1680        1781        1780
         4        1680        1681        1782        1781
         4        1681        1682        1783        1782
         4        1682        1683        1784        1783
         4        1683        1684        1785        1784
         4        1684        1685        1786        1785
         4        1685        1686        1787        1786
         4        1686        1687        1788        1787
         4        1687        1688        1789        1788
         4        1688        1689        1790        1789
         4        1689        1690        1791        1790
         4        1690        1691        1792        1791
         4        1691        1692        1793        1792
         4        1692        1693        1794        1793
         4        1693        1694        1795        1794
         4        1694        1695        1796        1795
         4        1695        1696        1797        1796
         4        1696        1697        1798        1797
         4        1697        1698        1799        1798
         4        1698        1699        1800        1799
         4        1699        1700        1801        1800
         4        1700        1701        1802        1801
         4        1701        1702        1803        1802
         4        1702        1703        1804        1803
         4        1703        1704        1805        1804
         4        1704        1705        1806        1805
         4        1705        1706        1807        1806
         4        1706        1707        1808        1807
         4        1707        1708        1809        1808
         4        1708        1709        1810        1809
         4        1709        1710        1811        1810
         4        1710        1711        1812        1811
         4        1711        1712        1813        1812
         4        1712        1713        1814        1813
         4        1713        1714        1815        1814
         4        1714        1715        1816        1815
         4        1715        1716        1817        1816
         4        1717        1718        1819        1818
         4        1718        1719        1820        1819
         4        1719        1720        1821        1820
         4        1720        1721        1822        1821
         4        1721        1722        1823        1822
         4        1722        1723        1824        1823
         4        1723        1724        1825        1824
         4        1724        1725        1826        1825
         4        1725        1726        1827        1826
         4        1726        1727        1828        1827
         4        1727        1728        1829        1828
         4        1728        1729        1830        1829
         4        1729        1730        1831        1830
         4        1730        1731        1832        1831
         4        1731        1732        1833        1832
         4        1732        1733        1834        1833
         4        1733        1734        1835        1834
         4        1734        1735        1836        1835
         4        1735        1736        1837        1836
         4        1736        1737        1838        1837
         4        1737        1738        1839        1838
         4        1738        1739        1840        1839
         4        1739        1740        1841        1840
         4        1740        1741        1842        1841
         4        1741        1742        1843        1842
         4        1742        1743        1844        1843
         4        1743        1744        1845        1844
         4        1744        1745        1846        1845
         4        1745        1746        1847        1846
         4        1746        1747        1848        1847
         4        1747        1748        1849        1848
         4        1748        1749        1850        1849
         4        1749        1750        1851        1850
         4        1750        1751        1852        1851
         4        1751        1752        1853        1852
         4        1752        1753        1854        1853
         4        1753        1754        1855        1854
         4        1754        1755        1856        1855
         4        1755        1756        1857        1856
         4        1756        1757        1858        1857
         4        1757        1758        1859        1858
         4        1758        1759        1860        1859
         4        1759        1760        1861        1860
         4        1760        1761        1862        1861
         4        1761        1762        1863        1862
         4        1762        1763        1864        1863
         4        1763        1764        1865        1864
         4        1764        1765        1866        1865
         4        1765        1766        1867        1866
         4        1766        1767        1868        1867
         4        1767        1768        1869        1868
         4        1768        1769        1870        1869
         4        1769        1770        1871        1870
         4        1770        1771        1872        1871
         4        1771        1772        1873        1872
         4        1772        1773        1874        1873
         4        1773        1774        1875        1874
         4        1774        1775        1876        1875
         4        1775        1776        1877        1876
         4        1776        1777        1878        1877
         4        1777        1778        1879        1878
         4        1778        1779        1880        1879
         4        1779        1780        1881        1880
         4        1780        1781        1882        1881
         4        1781        1782        1883        1882
         4        1782        1783        1884        1883
         4        1783        1784        1885        1884
         4        1784        1785        1886        1885
         4        1785        1786        1887        1886
         4        1786        1787        1888        1887
         4        1787        1788        1889        1888
         4        1788        1789        1890        1889
         4        1789        1790        1891        1890
         4        1790        1791        1892        1891
         4        1791        1792        1893        1892
         4        1792        1793        1894        1893
         4        1793        1794        1895        1894
         4        1794        1795        1896        1895
         4        1795        1796        1897        1896
         4        1796        1797        1898        1897
         4        1797        1798        1899        1898
         4        1798        1799        1900        1899
         4        1799        1800        1901        1900
         4        1800        1801        1902        1901
         4        1801        1802        1903        1902
         4        1802        1803        1904        1903
         4        1803        1804        1905        1904
         4        1804        1805        1906        1905
         4        1805        1806        1907        1906
         4        1806        1807        1908        1907
         4        1807        1808        1909        1908
         4        1808        1809        1910        1909
         4        1809        1810        1911        1910
         4        1810        1811        1912        1911
         4        1811        1812        1913        1912
         4        1812        1813        1914        1913
         4        1813        1814        1915        1914
         4        1814        1815        1916        1915
         4        1815        1816        1917        1916
         4        1816        1817        1918        1917
         4        1818        1819        1920        1919
         4        1819        1820        1921        1920
         4        1820        1821        1922        1921
         4        1821        1822        1923        1922
         4        1822        1823        1924        1923
         4        1823        1824        1925        1924
         4        1824        1825        1926        1925
         4        1825        1826        1927        1926
         4        1826        1827        1928        1927
         4        1827        1828        1929        1928
         4        1828        1829        1930        1929
         4        1829        1830        1931        1930
         4        1830        1831        1932        1931
         4        1831        1832        1933        1932
         4        1832        1833        1934        1933
         4        1833        1834        1935        1934
         4        1834        1835        1936        1935
         4        1835        1836        1937        1936
         4        1836        1837        1938        1937
         4        1837        1838        1939        1938
         4        1838        1839        1940        1939
         4        1839        1840        1941        1940
         4        1840        1841        1942        1941
         4        1841        1842        1943        1942
         4        1842        1843        1944        1943
         4        1843        1844        1945        1944
         4        1844        1845        1946        1945
         4        1845        1846        1947        1946
         4        1846        1847        1948        1947
         4        1847        1848        1949        1948
         4        1848        1849        1950        1949
         4        1849        1850        1951        1950
         4        1850        1851        1952        1951
         4        1851        1852        1953        1952
         4        1852        1853        1954        1953
         4        1853        1854        1955        1954
         4        1854        1855        1956        1955
         4        1855        1856        1957        1956
         4        1856        1857        1958        1957
         4        1857        1858        1959        1958
         4        1858        1859        1960        1959
         4        1859        1860        1961        1960
         4        1860        1861        1962        1961
         4        1861        1862        1963        1962
         4        1862        1863        1964        1963
         4        1863        1864        1965        1964
         4        1864        1865        1966        1965
         4        1865        1866        1967        1966
         4        1866        1867        1968        1967
         4        1867        1868        1969        1968
         4        1868        1869        1970        1969
         4        1869        1870        1971        1970
         4        1870        1871        1972        1971
         4        1871        1872        1973        1972
         4        1872        1873        1974        1973
         4        1873        1874        1975        1974
         4        1874        1875        1976        1975
         4        1875        1876        1977        1976
         4        1876        1877        1978        1977
         4        1877        1878        1979        1978
         4        1878        1879        1980        1979
         4        1879        1880        1981        1980
         4        1880        1881        1982        1981
         4        1881        1882        1983        1982
         4        1882        1883        1984        1983
         4        1883        1884        1985        1984
         4        1884        1885        1986        1985
         4        1885        1886        1987        1986
         4        1886        1887        1988        1987
         4        1887        1888        1989        1988
         4        1888        1889        1990        1989
         4        1889        1890        1991        1990
         4        1890        1891        1992        1991
         4        1891        1892        1993        1992
         4        1892        1893        1994        1993
         4        1893        1894        1995        1994
         4        1894        1895        1996        1995
         4        1895        1896        1997        1996
         4        1896        1897        1998        1997
         4        1897        1898        1999        1998
         4        1898        1899        2000        1999
         4        1899        1900        2001        2000
         4        1900        1901        2002        2001
         4        1901        1902        2003        2002
         4        1902        1903        2004        2003
         4        1903        1904        2005        2004
         4        1904        1905        2006        2005
         4        1905        1906        2007        2006
         4        1906        1907        2008        2007
         4        1907        1908        2009        2008
         4        1908        1909        2010        2009
         4        1909        1910        2011        2010
         4        1910        1911        2012        2011
         4        1911        1912        2013        2012
         4        1912        1913        2014        2013
         4        1913        1914        2015        2014
         4        1914        1915        2016        2015
         4        1915        1916        2017        2016
         4        1916        1917        2018        2017
         4        1917        1918        2019        2018
         4        1919        1920        2021        2020
         4        1920        1921        2022        2021
         4        1921        1922        2023        2022
         4        1922        1923        2024        2023
         4        1923        1924        2025        2024
         4        1924        1925        2026        2025
         4        1925        1926        2027        2026
         4        1926        1927        2028        2027
         4        1927        1928        2029        2028
         4        1928        1929        2030        2029
         4        1929        1930        2031        2030
         4        1930        1931        2032        2031
         4        1931        1932        2033        2032
         4        1932        1933        2034        2033
         4        1933        1934        2035        2034
         4        1934        1935        2036        2035
         4        1935        1936        2037        2036
         4        1936        1937        2038        2037
         4        1937        1938        2039        2038
         4        1938        1939        2040        2039
         4        1939        1940        2041        2040
         4        1940        1941        2042        2041
         4        1941        1942        2043        2042
         4        1942        1943        2044        2043
         4        1943        1944        2045        2044
         4        1944        1945        2046        2045
         4        1945        1946        2047        2046
         4        1946        1947        2048        2047
         4        1947        1948        2049        2048
         4        1948        1949        2050        2049
         4        1949        1950        2051        2050
         4        1950        1951        2052        2051
         4        1951        1952        2053        2052
         4        1952        1953        2054        2053
         4        1953        1954        2055        2054
         4        1954        1955        2056        2055
         4        1955        1956        2057        2056
         4        1956        1957        2058        2057
         4        1957        1958        2059        2058
         4        1958        1959        2060        2059
         4        1959        1960        2061        2060
         4        1960        1961        2062        2061
         4        1961        1962        2063        2062
         4        1962        1963        2064        2063
         4        1963        1964        2065        2064
         4        1964        1965        2066        2065
         4        1965        1966        2067        2066
         4        1966        1967        2068        2067
         4        1967        1968        2069        2068
         4        1968        1969        2070        2069
         4        1969        1970        2071        2070
         4        1970        1971        2072        2071
         4        1971        1972        2073        2072
         4        1972        1973        2074        2073
         4        1973        1974        2075        2074
         4        1974        1975        2076        2075
         4        1975        1976        2077        2076
         4        1976        1977        2078        2077
         4        1977        1978        2079        2078
         4        1978        1979        2080        2079
         4        1979        1980        2081        2080
         4        1980        1981        2082        2081
         4        1981        1982        2083        2082
         4        1982        1983        2084        2083
         4        1983        1984        2085        2084
         4        1984        1985        2086        2085
         4        1985        1986        2087        2086
         4        1986        1987        2088        2087
         4        1987        1988        2089        2088
         4        1988        1989        2090        2089
         4        1989        1990        2091        2090
         4        1990        1991        2092        2091
         4        1991        1992        2093        2092
         4        1992        1993        2094        2093
         4        1993        1994        2095        2094
         4        1994        1995        2096        2095
         4        1995        1996        2097        2096
         4        1996        1997        2098        2097
         4        1997        1998        2099        2098
         4        1998        1999        2100        2099
         4        1999        2000        2101        2100
         4        2000        2001        2102        2101
         4        2001        2002        2103        2102
         4        2002        2003        2104        2103
         4        2003        2004        2105        2104
         4        2004        2005        2106        2105
         4        2005        2006        2107        2106
         4        2006        2007        2108        2107
         4        2007        2008        2109        2108
         4        2008        2009        2110        2109
         4        2009        2010        2111        2110
         4        2010        2011        2112        2111
         4        2011        2012        2113        2112
         4        2012        2013        2114        2113
         4        2013        2014        2115        2114
         4        2014        2015        2116        2115
         4        2015        2016        2117        2116
         4        2016        2017        2118        2117
         4        2017        2018        2119        2118
         4        2018        2019        2120        2119
         4        2020        2021        2122        2121
         4        2021        2022        2123        2122
         4        2022        2023        2124        2123
         4        2023        2024        2125        2124
         4        2024        2025        2126        2125
         4        2025        2026        2127        2126
         4        2026        2027        2128        2127
         4        2027        2028        2129        2128
         4        2028        2029        2130        2129
         4        2029        2030        2131        2130
         4        2030        2031        2132        2131
         4        2031        2032        2133        2132
         4        2032        2033        2134        2133
         4        2033        2034        2135        2134
         4        2034        2035        2136        2135
         4        2035        2036        2137        2136
         4        2036        2037        2138        2137
         4        2037        2038        2139        2138
         4        2038        2039        2140        2139
         4        2039        2040        2141        2140
         4        2040        2041        2142        2141
         4        2041        2042        2143        2142
         4        2042        2043        2144        2143
         4        2043        2044        2145        2144
         4        2044        2045        2146        2145
         4        2045        2046        2147        2146
         4        2046        2047        2148        2147
         4        2047        2048        2149        2148
         4        2048        2049        2150        2149
         4        2049        2050        2151        2150
         4        2050        2051        2152        2151
         4        2051        2052        2153        2152
         4        2052        2053        2154        2153
         4        2053        2054        2155        2154
         4        2054        2055        2156        2155
         4        2055        2056        2157        2156
         4        2056        2057        2158        2157
         4        2057        2058        2159        2158
         4        2058        2059        2160        2159
         4        2059        2060        2161        2160
         4        2060        2061        2162        2161
         4        2061        2062        2163        2162
         4        2062        2063        2164        2163
         4        2063        2064        2165        2164
         4        2064        2065        2166        2165
         4        2065        2066        2167        2166
         4        2066        2067        2168        2167
         4        2067        2068        2169        2168
         4        2068        2069        2170        2169
         4        2069        2070        2171        2170
         4        2070        2071        2172        2171
         4        2071        2072        2173        2172
         4        2072        2073        2174        2173
         4        2073        2074        2175        2174
         4        2074        2075        2176        2175
         4        2075        2076        2177        2176
         4        2076        2077        2178        2177
         4        2077        2078        2179        2178
         4        2078        2079        2180        2179
         4        2079        2080        2181        2180
         4        2080        2081        2182        2181
         4        2081        2082        2183        2182
         4        2082        2083        2184        2183
         4        2083        2084        2185        2184
         4        2084        2085        2186        2185
         4        2085        2086        2187        2186
         4        2086        2087        2188        2187
         4        2087        2088        2189        2188
         4        2088        2089        2190        2189
         4        2089        2090        2191        2190
         4        2090        2091        2192        2191
         4        2091        2092        2193        2192
         4        2092        2093        2194        2193
         4        2093        2094        2195        2194
         4        2094        2095        2196        2195
         4        2095        2096        2197        2196
         4        2096        2097        2198        2197
         4        2097        2098        2199        2198
         4        2098        2099        2200        2199
         4        2099        2100        2201        2200
         4        2100        2101        2202        2201
         4        2101        2102        2203        2202
         4        2102        2103        2204        2203
         4        2103        2104        2205        2204
         4        2104        2105        2206        2205
         4        2105        2106        2207        2206
         4        2106        2107        2208        2207
         4        2107        2108        2209        2208
         4        2108        2109        2210        2209
         4        2109        2110        2211        2210
         4        2110        2111        2212        2211
         4        2111        2112        2213        2212
         4        2112        2113        2214        2213
         4        2113        2114        2215        2214
         4        2114        2115        2216        2215
         4        2115        2116        2217        2216
         4        2116        2117        2218        2217
         4        2117        2118        2219        2218
         4        2118        2119        2220        2219
         4        2119        2120        2221        2220
         4        2121        2122        2223        2222
         4        2122        2123        2224        2223
         4        2123        2124        2225        2224
         4        2124        2125        2226        2225
         4        2125        2126        2227        2226
         4        2126        2127        2228        2227
         4        2127        2128        2229        2228
         4        2128        2129        2230        2229
         4        2129        2130        2231        2230
         4        2130        2131        2232        2231
         4        2131        2132        2233        2232
         4        2132        2133        2234        2233
         4        2133        2134        2235        2234
         4        2134        2135        2236        2235
         4        2135        2136        2237        2236
         4        2136        2137        2238        2237
         4        2137        2138        2239        2238
         4        2138        2139        2240        2239
         4        2139        2140        2241        2240
         4        2140        2141        2242        2241
         4        2141        2142        2243        2242
         4        2142        2143        2244        2243
         4        2143        2144        2245        2244
         4        2144        2145        2246        2245
         4        2145        2146        2247        2246
         4        2146        2147        2248        2247
         4        2147        2148        2249        2248
         4        2148        2149        2250        2249
         4        2149        2150        2251        2250
         4        2150        2151        2252        2251
         4        2151        2152        2253        2252
         4        2152        2153        2254        2253
         4        2153        2154        2255        2254
         4        2154        2155        2256        2255
         4        2155        2156        2257        2256
         4        2156        2157        2258        2257
         4        2157        2158        2259        2258
         4        2158        2159        2260        2259
         4        2159        2160        2261        2260
         4        2160        2161        2262        2261
         4        2161        2162        2263        2262
         4        2162        2163        2264        2263
         4        2163        2164        2265        2264
         4        2164        2165        2266        2265
         4        2165        2166        2267        2266
         4        2166        2167        2268        2267
         4        2167        2168        2269        2268
         4        2168        2169        2270        2269
         4        2169        2170        2271        2270
         4        2170        2171        2272        2271
         4        2171        2172        2273        2272
         4        2172        2173        2274        2273
         4        2173        2174        2275        2274
         4        2174        2175        2276        2275
         4        2175        2176        2277        2276
         4        2176        2177        2278        2277
         4        2177        2178        2279        2278
         4        2178        2179        2280        2279
         4        2179        2180        2281        2280
         4        2180        2181        2282        2281
         4        2181        2182        2283        2282
         4        2182        2183        2284        2283
         4        2183        2184        2285        2284
         4        2184        2185        2286        2285
         4        2185        2186        2287        2286
         4        2186        2187        2288        2287
         4        2187        2188        2289        2288
         4        2188        2189        2290        2289
         4        2189        2190        2291        2290
         4        2190        2191        2292        2291
         4        2191        2192        2293        2292
         4        2192        2193        2294        2293
         4        2193        2194        2295        2294
         4        2194        2195        2296        2295
         4        2195        2196        2297        2296
         4        2196        2197        2298        2297
         4        2197        2198        2299        2298
         4        2198        2199        2300        2299
         4        2199        2200        2301        2300
         4        2200        2201        2302        2301
         4        2201        2202        2303        2302
         4        2202        2203        2304        2303
         4        2203        2204        2305        2304
         4        2204        2205        2306        2305
         4        2205        2206        2307        2306
         4        2206        2207        2308        2307
         4        2207        2208        2309        2308
         4        2208        2209        2310        2309
         4        2209        2210        2311        2310
         4        2210        2211        2312        2311
         4        2211        2212        2313        2312
         4        2212        2213        2314        2313
         4        2213        2214        2315        2314
         4        2214        2215        2316        2315
         4        2215        2216        2317        2316
         4        2216        2217        2318        2317
         4        2217        2218        2319        2318
         4        2218        2219        2320        2319
         4        2219        2220        2321        2320
         4        2220        2221        2322        2321
         4        2222        2223        2324        2323
         4        2223        2224        2325        2324
         4        2224        2225        2326        2325
         4        2225        2226        2327        2326
         4        2226        2227        2328        2327
         4        2227        2228        2329        2328
         4        2228        2229        2330        2329
         4        2229        2230        2331        2330
         4        2230        2231        2332        2331
         4        2231        2232        2333        2332
         4        2232        2233        2334        2333
         4        2233        2234        2335        2334
         4        2234        2235        2336        2335
         4        2235        2236        2337        2336
         4        2236        2237        2338        2337
         4        2237        2238        2339        2338
         4        2238        2239        2340        2339
         4        2239        2240        2341        2340
         4        2240        2241        2342        2341
         4        2241        2242        2343        2342
         4        2242        2243        2344        2343
         4        2243        2244        2345        2344
         4        2244        2245        2346        2345
         4        2245        2246        2347        2346
         4        2246        2247        2348        2347
         4        2247        2248        2349        2348
         4        2248        2249        2350        2349
         4        2249        2250        2351        2350
         4        2250        2251        2352        2351
         4        2251        2252        2353        2352
         4        2252        2253        2354        2353
         4        2253        2254        2355        2354
         4        2254        2255        2356        2355
         4        2255        2256        2357        2356
         4        2256        2257        2358        2357
         4        2257        2258        2359        2358
         4        2258        2259        2360        2359
         4        2259        2260        2361        2360
         4        2260        2261        2362        2361
         4        2261        2262        2363        2362
         4        2262        2263        2364        2363
         4        2263        2264        2365        2364
         4        2264        2265        2366        2365
         4        2265        2266        2367        2366
         4        2266        2267        2368        2367
         4        2267        2268        2369        2368
         4        2268        2269        2370        2369
         4        2269        2270        2371        2370
         4        2270        2271        2372        2371
         4        2271        2272        2373        2372
         4        2272        2273        2374        2373
         4        2273        2274        2375        2374
         4        2274        2275        2376        2375
         4        2275        2276        2377        2376
         4        2276        2277        2378        2377
         4        2277        2278        2379        2378
         4        2278        2279        2380        2379
         4        2279        2280        2381        2380
         4        2280        2281        2382        2381
         4        2281        2282        2383        2382
         4        2282        2283        2384        2383
         4        2283        2284        2385        2384
         4        2284        2285        2386        2385
         4        2285        2286        2387        2386
         4        2286        2287        2388        2387
         4        2287        2288        2389        2388
         4        2288        2289        2390        2389
         4        2289        2290        2391        2390
         4        2290        2291        2392        2391
         4        2291        2292        2393        2392
         4        2292        2293        2394        2393
         4        2293        2294        2395        2394
         4        2294        2295        2396        2395
         4        2295        2296        2397        2396
         4        2296        2297        2398        2397
         4        2297        2298        2399        2398
         4        2298        2299        2400        2399
         4        2299        2300        2401        2400
         4        2300        2301        2402        2401
         4        2301        2302        2403        2402
         4        2302        2303        2404        2403
         4        2303        2304        2405        2404
         4        2304        2305        2406        2405
         4        2305        2306        2407        2406
         4        2306        2307        2408        2407
         4        2307        2308        2409        2408
         4        2308        2309        2410        2409
         4        2309        2310        2411        2410
         4        2310        2311        2412        2411
         4        2311        2312        2413        2412
         4        2312        2313        2414        2413
         4        2313        2314        2415        2414
         4        2314        2315        2416        2415
         4        2315        2316        2417        2416
         4        2316        2317        2418        2417
         4        2317        2318        2419        2418
         4        2318        2319        2420        2419
         4        2319        2320        2421        2420
         4        2320        2321        2422        2421
         4        2321        2322        2423        2422
         4        2323        2324        2425        2424
         4        2324        2325        2426        2425
         4        2325        2326        2427        2426
         4        2326        2327        2428        2427
         4        2327        2328        2429        2428
         4        2328        2329        2430        2429
         4        2329        2330        2431        2430
         4        2330        2331        2432        2431
         4        2331        2332        2433        2432
         4        2332        2333        2434        2433
         4        2333        2334        2435        2434
         4        2334        2335        2436        2435
         4        2335        2336        2437        2436
         4        2336        2337        2438        2437
         4        2337        2338        2439        2438
         4        2338        2339        2440        2439
         4        2339        2340        2441        2440
         4        2340        2341        2442        2441
         4        2341        2342        2443        2442
         4        2342        2343        2444        2443
         4        2343        2344        2445        2444
         4        2344        2345        2446        2445
         4        2345        2346        2447        2446
         4        2346        2347        2448        2447
         4        2347        2348        2449        2448
         4        2348        2349        2450        2449
         4        2349        2350        2451        2450
         4        2350        2351        2452        2451
         4        2351        2352        2453        2452
         4        2352        2353        2454        2453
         4        2353        2354        2455        2454
         4        2354        2355        2456        2455
         4        2355        2356        2457        2456
         4        2356        2357        2458        2457
         4        2357        2358        2459        2458
         4        2358        2359        2460        2459
         4        2359        2360        2461        2460
         4        2360        2361        2462        2461
         4        2361        2362        2463        2462
         4        2362        2363        2464        2463
         4        2363        2364        2465        2464
         4        2364        2365        2466        2465
         4        2365        2366        2467        2466
         4        2366        2367        2468        2467
         4        2367        2368        2469        2468
         4        2368        2369        2470        2469
         4        2369        2370        2471        2470
         4        2370        2371        2472        2471
         4        2371        2372        2473        2472
         4        2372        2373        2474        2473
         4        2373        2374        2475        2474
         4        2374        2375        2476        2475
         4        2375        2376        2477        2476
         4        2376        2377        2478        2477
         4        2377        2378        2479        2478
         4        2378        2379        2480        2479
         4        2379        2380        2481        2480
         4        2380        2381        2482        2481
         4        2381        2382        2483        2482
         4        2382        2383        2484        2483
         4        2383        2384        2485        2484
         4        2384        2385        2486        2485
         4        2385        2386        2487        2486
         4        2386        2387        2488        2487
         4        2387        2388        2489        2488
         4        2388        2389        2490        2489
         4        2389        2390        2491        2490
         4        2390        2391        2492        2491
         4        2391        2392        2493        2492
         4        2392        2393        2494        2493
         4        2393        2394        2495        2494
         4        2394        2395        2496        2495
         4        2395        2396        2497        2496
         4        2396        2397        2498        2497
         4        2397        2398        2499        2498
         4        2398        2399        2500        2499
         4        2399        2400        2501        2500
         4        2400        2401        2502        2501
         4        2401        2402        2503        2502
         4        2402        2403        2504        2503
         4        2403        2404        2505        2504
         4        2404        2405        2506        2505
         4        2405        2406        2507        2506
         4        2406        2407        2508        2507
         4        2407        2408        2509        2508
         4        2408        2409        2510        2509
         4        2409        2410        2511        2510
         4        2410        2411        2512        2511
         4        2411        2412        2513        2512
         4        2412        2413        2514        2513
         4        2413        2414        2515        2514
         4        2414        2415        2516        2515
         4        2415        2416        2517        2516
         4        2416        2417        2518        2517
         4        2417        2418        2519        2518
         4        2418        2419        2520        2519
         4        2419        2420        2521        2520
         4        2420        2421        2522        2521
         4        2421        2422        2523        2522
         4        2422        2423        2524        2523
         4        2424        2425        2526        2525
         4        2425        2426        2527        2526
         4        2426        2427        2528        2527
         4        2427        2428        2529        2528
         4        2428        2429        2530        2529
         4        2429        2430        2531        2530
         4        2430        2431        2532        2531
         4        2431        2432        2533        2532
         4        2432        2433        2534        2533
         4        2433        2434        2535        2534
         4        2434        2435        2536        2535
         4        2435        2436        2537        2536
         4        2436        2437        2538        2537
         4        2437        2438        2539        2538
         4        2438        2439        2540        2539
         4        2439        2440        2541        2540
         4        2440        2441        2542        2541
         4        2441        2442        2543        2542
         4        2442        2443        2544        2543
         4        2443        2444        2545        2544
         4        2444        2445        2546        2545
         4        2445        2446        2547        2546
         4        2446        2447        2548        2547
         4        2447        2448        2549        2548
         4        2448        2449        2550        2549
         4        2449        2450        2551        2550
         4        2450        2451        2552        2551
         4        2451        2452        2553        2552
         4        2452        2453        2554        2553
         4        2453        2454        2555        2554
         4        2454        2455        2556        2555
         4        2455        2456        2557        2556
         4        2456        2457        2558        2557
         4        2457        2458        2559        2558
         4        2458        2459        2560        2559
         4        2459        2460        2561        2560
         4        2460        2461        2562        2561
         4        2461        2462        2563        2562
         4        2462        2463        2564        2563
         4        2463        2464        2565        2564
         4        2464        2465        2566        2565
         4        2465        2466        2567        2566
         4        2466        2467        2568        2567
         4        2467        2468        2569        2568
         4        2468        2469        2570        2569
         4        2469        2470        2571        2570
         4        2470        2471        2572        2571
         4        2471        2472        2573        2572
         4        2472        2473        2574        2573
         4        2473        2474        2575        2574
         4        2474        2475        2576        2575
         4        2475        2476        2577        2576
         4        2476        2477        2578        2577
         4        2477        2478        2579        2578
         4        2478        2479        2580        2579
         4        2479        2480        2581        2580
         4        2480        2481        2582        2581
         4        2481        2482        2583        2582
         4        2482        2483        2584        2583
         4        2483        2484        2585        2584
         4        2484        2485        2586        2585
         4        2485        2486        2587        2586
         4        2486        2487        2588        2587
         4        2487        2488        2589        2588
         4        2488        2489        2590        2589
         4        2489        2490        2591        2590
         4        2490        2491        2592        2591
         4        2491        2492        2593        2592
         4        2492        2493        2594        2593
         4        2493        2494        2595        2594
         4        2494        2495        2596        2595
         4        2495        2496        2597        2596
         4        2496        2497        2598        2597
         4        2497        2498        2599        2598
         4        2498        2499        2600        2599
         4        2499        2500        2601        2600
         4        2500        2501        2602        2601
         4        2501        2502        2603        2602
         4        2502        2503        2604        2603
         4        2503        2504        2605        2604
         4        2504        2505        2606        2605
         4        2505        2506        2607        2606
         4        2506        2507        2608        2607
         4        2507        2508        2609        2608
         4        2508        2509        2610        2609
         4        2509        2510        2611        2610
         4        2510        2511        2612        2611
         4        2511        2512        2613        2612
         4        2512        2513        2614        2613
         4        2513        2514        2615        2614
         4        2514        2515        2616        2615
         4        2515        2516        2617        2616
         4        2516        2517        2618        2617
         4        2517        2518        2619        2618
         4        2518        2519        2620        2619
         4        2519        2520        2621        2620
         4        2520        2521        2622        2621
         4        2521        2522        2623        2622
         4        2522        2523        2624        2623
         4        2523        2524        2625        2624
         4        2525        2526        2627        2626
         4        2526        2527        2628        2627
         4        2527        2528        2629        2628
         4        2528        2529        2630        2629
         4        2529        2530        2631        2630
         4        2530        2531        2632        2631
         4        2531        2532        2633        2632
         4        2532        2533        2634        2633
         4        2533        2534        2635        2634
         4        2534        2535        2636        2635
         4        2535        2536        2637        2636
         4        2536        2537        2638        2637
         4        2537        2538        2639        2638
         4        2538        2539        2640        2639
         4        2539        2540        2641        2640
         4        2540        2541        2642        2641
         4        2541        2542        2643        2642
         4        2542        2543        2644        2643
         4        2543        2544        2645        2644
         4        2544        2545        2646        2645
         4        2545        2546        2647        2646
         4        2546        2547        2648        2647
         4        2547        2548        2649        2648
         4        2548        2549        2650        2649
         4        2549        2550        2651        2650
         4        2550        2551        2652        2651
         4        2551        2552        2653        2652
         4        2552        2553        2654        2653
         4        2553        2554        2655        2654
         4        2554        2555        2656        2655
         4        2555        2556        2657        2656
         4        2556        2557        2658        2657
         4        2557        2558        2659        2658
         4        2558        2559        2660        2659
         4        2559        2560        2661        2660
         4        2560        2561        2662        2661
         4        2561        2562        2663        2662
         4        2562        2563        2664        2663
         4        2563        2564        2665        2664
         4        2564        2565        2666        2665
         4        2565        2566        2667        2666
         4        2566        2567        2668        2667
         4        2567        2568        2669        2668
         4        2568        2569        2670        2669
         4        2569        2570        2671        2670
         4        2570        2571        2672        2671
         4        2571        2572        2673        2672
         4        2572        2573        2674        2673
         4        2573        2574        2675        2674
         4        2574        2575        2676        2675
         4        2575        2576        2677        2676
         4        2576        2577        2678        2677
         4        2577        2578        2679        2678
         4        2578        2579        2680        2679
         4        2579        2580        2681        2680
         4        2580        2581        2682        2681
         4        2581        2582        2683        2682
         4        2582        2583        2684        2683
         4        2583        2584        2685        2684
         4        2584        2585        2686        2685
         4        2585        2586        2687        2686
         4        2586        2587        2688        2687
         4        2587        2588        2689        2688
         4        2588        2589        2690        2689
         4        2589        2590        2691        2690
         4        2590        2591        2692        2691
         4        2591        2592        2693        2692
         4        2592        2593        2694        2693
         4        2593        2594        2695        2694
         4        2594        2595        2696        2695
         4        2595        2596        2697        2696
         4        2596        2597        2698        2697
         4        2597        2598        2699        2698
         4        2598        2599        2700        2699
         4        2599        2600        2701        2700
         4        2600        2601        2702        2701
         4        2601        2602        2703        2702
         4        2602        2603        2704        2703
         4        2603        2604        2705        2704
         4        2604        2605        2706        2705
         4        2605        2606        2707        2706
         4        2606        2607        2708        2707
         4        2607        2608        2709        2708
         4        2608        2609        2710        2709
         4        2609        2610        2711        2710
         4        2610        2611        2712        2711
         4        2611        2612        2713        2712
         4        2612        2613        2714        2713
         4        2613        2614        2715        2714
         4        2614        2615        2716        2715
         4        2615        2616        2717        2716
         4        2616        2617        2718        2717
         4        2617        2618        2719        2718
         4        2618        2619        2720        2719
         4        2619        2620        2721        2720
         4        2620        2621        2722        2721
         4        2621        2622        2723        2722
         4        2622        2623        2724        2723
         4        2623        2624        2725        2724
         4        2624        2625        2726        2725
         4        2626        2627        2728        2727
         4        2627        2628        2729        2728
         4        2628        2629        2730        2729
         4        2629        2630        2731        2730
         4        2630        2631        2732        2731
         4        2631        2632        2733        2732
         4        2632        2633        2734        2733
         4        2633        2634        2735        2734
         4        2634        2635        2736        2735
         4        2635        2636        2737        2736
         4        2636        2637        2738        2737
         4        2637        2638        2739        2738
         4        2638        2639        2740        2739
         4        2639        2640        2741        2740
         4        2640        2641        2742        2741
         4        2641        2642        2743        2742
         4        2642        2643        2744        2743
         4        2643        2644        2745        2744
         4        2644        2645        2746        2745
         4        2645        2646        2747        2746
         4        2646        2647        2748        2747
         4        2647        2648        2749        2748
         4        2648        2649        2750        2749
         4        2649        2650        2751        2750
         4        2650        2651        2752        2751
         4        2651        2652        2753        2752
         4        2652        2653        2754        2753
         4        2653        2654        2755        2754
         4        2654        2655        2756        2755
         4        2655        2656        2757        2756
         4        2656        2657        2758        2757
         4        2657        2658        2759        2758
         4        2658        2659        2760        2759
         4        2659        2660        2761        2760
         4        2660        2661        2762        2761
         4        2661        2662        2763        2762
         4        2662        2663        2764        2763
         4        2663        2664        2765        2764
         4        2664        2665        2766        2765
         4        2665        2666        2767        2766
         4        2666        2667        2768        2767
         4        2667        2668        2769        2768
         4        2668        2669        2770        2769
         4        2669        2670        2771        2770
         4        2670        2671        2772        2771
         4        2671        2672        2773        2772
         4        2672        2673        2774        2773
         4        2673        2674        2775        2774
         4        2674        2675        2776        2775
         4        2675        2676        2777        2776
         4        2676        2677        2778        2777
         4        2677        2678        2779        2778
         4        2678        2679        2780        2779
         4        2679        2680        2781        2780
         4        2680        2681        2782        2781
         4        2681        2682        2783        2782
         4        2682        2683        2784        2783
         4        2683        2684        2785        2784
         4        2684        2685        2786        2785
         4        2685        2686        2787        2786
         4        2686        2687        2788        2787
         4        2687        2688        2789        2788
         4        2688        2689        2790        2789
         4        2689        2690        2791        2790
         4        2690        2691        2792        2791
         4        2691        2692        2793        2792
         4        2692        2693        2794        2793
         4        2693        2694        2795        2794
         4        2694        2695        2796        2795
         4        2695        2696        2797        2796
         4        2696        2697        2798        2797
         4        2697        2698        2799        2798
         4        2698        2699        2800        2799
         4        2699        2700        2801        2800
         4        2700        2701        2802        2801
         4        2701        2702        2803        2802
         4        2702        2703        2804        2803
         4        2703        2704        2805        2804
         4        2704        2705        2806        2805
         4        2705        2706        2807        2806
         4        2706        2707        2808        2807
         4        2707        2708        2809        2808
         4        2708        2709        2810        2809
         4        2709        2710        2811        2810
         4        2710        2711        2812        2811
         4        2711        2712        2813        2812
         4        2712        2713        2814        2813
         4        2713        2714        2815        2814
         4        2714        2715        2816        2815
         4        2715        2716        2817        2816
         4        2716        2717        2818        2817
         4        2717        2718        2819        2818
         4        2718        2719        2820        2819
         4        2719        2720        2821        2820
         4        2720        2721        2822        2821
         4        2721        2722        2823        2822
         4        2722        2723        2824        2823
         4        2723        2724        2825        2824
         4        2724        2725        2826        2825
         4        2725        2726        2827        2826
         4        2727        2728        2829        2828
         4        2728        2729        2830        2829
         4        2729        2730        2831        2830
         4        2730        2731        2832        2831
         4        2731        2732        2833        2832
         4        2732        2733        2834        2833
         4        2733        2734        2835        2834
         4        2734        2735        2836        2835
         4        2735        2736        2837        2836
         4        2736        2737        2838        2837
         4        2737        2738        2839        2838
         4        2738        2739        2840        2839
         4        2739        2740        2841        2840
         4        2740        2741        2842        2841
         4        2741        2742        2843        2842
         4        2742        2743        2844        2843
         4        2743        2744        2845        2844
         4        2744        2745        2846        2845
         4        2745        2746        2847        2846
         4        2746        2747        2848        2847
         4        2747        2748        2849        2848
         4        2748        2749        2850        2849
         4        2749        2750        2851        2850
         4        2750        2751        2852        2851
         4        2751        2752        2853        2852
         4        2752        2753        2854        2853
         4        2753        2754        2855        2854
         4        2754        2755        2856        2855
         4        2755        2756        2857        2856
         4        2756        2757        2858        2857
         4        2757        2758        2859        2858
         4        2758        2759        2860        2859
         4        2759        2760        2861        2860
         4        2760        2761        2862        2861
         4        2761        2762        2863        2862
         4        2762        2763        2864        2863
         4        2763        2764        2865        2864
         4        2764        2765        2866        2865
         4        2765        2766        2867        2866
         4        2766        2767        2868        2867
         4        2767        2768        2869        2868
         4        2768        2769        2870        2869
         4        2769        2770        2871        2870
         4        2770        2771        2872        2871
         4        2771        2772        2873        2872
         4        2772        2773        2874        2873
         4        2773        2774        2875        2874
         4        2774        2775        2876        2875
         4        2775        2776        2877        2876
         4        2776        2777        2878        2877
         4        2777        2778        2879        2878
         4        2778        2779        2880        2879
         4        2779        2780        2881        2880
         4        2780        2781        2882        2881
         4        2781        2782        2883        2882
         4        2782        2783        2884        2883
         4        2783        2784        2885        2884
         4        2784        2785        2886        2885
         4        2785        2786        2887        2886
         4        2786        2787        2888        2887
         4        2787        2788        2889        2888
         4        2788        2789        2890        2889
         4        2789        2790        2891        2890
         4        2790        2791        2892        2891
         4        2791        2792        2893        2892
         4        2792        2793        2894        2893
         4        2793        2794        2895        2894
         4        2794        2795        2896        2895
         4        2795        2796        2897        2896
         4        2796        2797        2898        2897
         4        2797        2798        2899        2898
         4        2798        2799        2900        2899
         4        2799        2800        2901        2900
         4        2800        2801        2902        2901
         4        2801        2802        2903        2902
         4        2802        2803        2904        2903
         4        2803        2804        2905        2904
         4        2804        2805        2906        2905
         4        2805        2806        2907        2906
         4        2806        2807        2908        2907
         4        2807        2808        2909        2908
         4        2808        2809        2910        2909
         4        2809        2810        2911        2910
         4        2810        2811        2912        2911
         4        2811        2812        2913        2912
         4        2812        2813        2914        2913
         4        2813        2814        2915        2914
         4        2814        2815        2916        2915
         4        2815        2816        2917        2916
         4        2816        2817        2918        2917
         4        2817        2818        2919        2918
         4        2818        2819        2920        2919
         4        2819        2820        2921        2920
         4        2820        2821        2922        2921
         4        2821        2822        2923        2922
         4        2822        2823        2924        2923
         4        2823        2824        2925        2924
         4        2824        2825        2926        2925
         4        2825        2826        2927        2926
         4        2826        2827        2928        2927
         4        2828        2829        2930        2929
         4        2829        2830        2931        2930
         4        2830        2831        2932        2931
         4        2831        2832        2933        2932
         4        2832        2833        2934        2933
         4        2833        2834        2935        2934
         4        2834        2835        2936        2935
         4        2835        2836        2937        2936
         4        2836        2837        2938        2937
         4        2837        2838        2939        2938
         4        2838        2839        2940        2939
         4        2839        2840        2941        2940
         4        2840        2841        2942        2941
         4        2841        2842        2943        2942
         4        2842        2843        2944        2943
         4        2843        2844        2945        2944
         4        2844        2845        2946        2945
         4        2845        2846        2947        2946
         4        2846        2847        2948        2947
         4        2847        2848        2949        2948
         4        2848        2849        2950        2949
         4        2849        2850        2951        2950
         4        2850        2851        2952        2951
         4        2851        2852        2953        2952
         4        2852        2853        2954        2953
         4        2853        2854        2955        2954
         4        2854        2855        2956        2955
         4        2855        2856        2957        2956
         4        2856        2857        2958        2957
         4        2857        2858        2959        2958
         4        2858        2859        2960        2959
         4        2859        2860        2961        2960
         4        2860        2861        2962        2961
         4        2861        2862        2963        2962
         4        2862        2863        2964        2963
         4        2863        2864        2965        2964
         4        2864        2865        2966        2965
         4        2865        2866        2967        2966
         4        2866        2867        2968        2967
         4        2867        2868        2969        2968
         4        2868        2869        2970        2969
         4        2869        2870        2971        2970
         4        2870        2871        2972        2971
         4        2871        2872        2973        2972
         4        2872        2873        2974        2973
         4        2873        2874        2975        2974
         4        2874        2875        2976        2975
         4        2875        2876        2977        2976
         4        2876        2877        2978        2977
         4        2877        2878        2979        2978
         4        2878        2879        2980        2979
         4        2879        2880        2981        2980
         4        2880        2881        2982        2981
         4        2881        2882        2983        2982
         4        2882        2883        2984        2983
         4        2883        2884        2985        2984
         4        2884        2885        2986        2985
         4        2885        2886        2987        2986
         4        2886        2887        2988        2987
         4        2887        2888        2989        2988
         4        2888        2889        2990        2989
         4        2889        2890        2991        2990
         4        2890        2891        2992        2991
         4        2891        2892        2993        2992
         4        2892        2893        2994        2993
         4        2893        2894        2995        2994
         4        2894        2895        2996        2995
         4        2895        2896        2997        2996
         4        2896        2897        2998        2997
         4        2897        2898        2999        2998
         4        2898        2899        3000        2999
         4        2899        2900        3001        3000
         4        2900        2901        3002        3001
         4        2901        2902        3003        3002
         4        2902        2903        3004        3003
         4        2903        2904        3005        3004
         4        2904        2905        3006        3005
         4        2905        2906        3007        3006
         4        2906        2907        3008        3007
         4        2907        2908        3009        3008
         4        2908        2909        3010        3009
         4        2909        2910        3011        3010
         4        2910        2911        3012        3011
         4        2911        2912        3013        3012
         4        2912        2913        3014        3013
         4        2913        2914        3015        3014
         4        2914        2915        3016        3015
         4        2915        2916        3017        3016
         4        2916        2917        3018        3017
         4        2917        2918        3019        3018
         4        2918        2919        3020        3019
         4        2919        2920        3021        3020
         4        2920        2921        3022        3021
         4        2921        2922        3023        3022
         4        2922        2923        3024        3023
         4        2923        2924        3025        3024
         4        2924        2925        3026        3025
         4        2925        2926        3027        3026
         4        2926        2927        3028        3027
         4        2927        2928        3029        3028
         4        2929        2930        3031        3030
         4        2930        2931        3032        3031
         4        2931        2932        3033        3032
         4        2932        2933        3034        3033
         4        2933        2934        3035        3034
         4        2934        2935        3036        3035
         4        2935        2936        3037        3036
         4        2936        2937        3038        3037
         4        2937        2938        3039        3038
         4        2938        2939        3040        3039
         4        2939        2940        3041        3040
         4        2940        2941        3042        3041
         4        2941        2942        3043        3042
         4        2942        2943        3044        3043
         4        2943        2944        3045        3044
         4        2944        2945        3046        3045
         4        2945        2946        3047        3046
         4        2946        2947        3048        3047
         4        2947        2948        3049        3048
         4        2948        2949        3050        3049
         4        2949        2950        3051        3050
         4        2950        2951        3052        3051
         4        2951        2952        3053        3052
         4        2952        2953        3054        3053
         4        2953        2954        3055        3054
         4        2954        2955        3056        3055
         4        2955        2956        3057        3056
         4        2956        2957        3058        3057
         4        2957        2958        3059        3058
         4        2958        2959        3060        3059
         4        2959        2960        3061        3060
         4        2960        2961        3062        3061
         4        2961        2962        3063        3062
         4        2962        2963        3064        3063
         4        2963        2964        3065        3064
         4        2964        2965        3066        3065
         4        2965        2966        3067        3066
         4        2966        2967        3068        3067
         4        2967        2968        3069        3068
         4        2968        2969        3070        3069
         4        2969        2970        3071        3070
         4        2970        2971        3072        3071
         4        2971        2972        3073        3072
         4        2972        2973        3074        3073
         4        2973        2974        3075        3074
         4        2974        2975        3076        3075
         4        2975        2976        3077        3076
         4        2976        2977        3078        3077
         4        2977        2978        3079        3078
         4        2978        2979        3080        3079
         4        2979        2980        3081        3080
         4        2980        2981        3082        3081
         4        2981        2982        3083        3082
         4        2982        2983        3084        3083
         4        2983        2984        3085        3084
         4        2984        2985        3086        3085
         4        2985        2986        3087        3086
         4        2986        2987        3088        3087
         4        2987        2988        3089        3088
         4        2988        2989        3090        3089
         4        2989        2990        3091        3090
         4        2990        2991        3092        3091
         4        2991        2992        3093        3092
         4        2992        2993        3094        3093
         4        2993        2994        3095        3094
         4        2994        2995        3096        3095
         4        2995        2996        3097        3096
         4        2996        2997        3098        3097
         4        2997        2998        3099        3098
         4        2998        2999        3100        3099
         4        2999        3000        3101        3100
         4        3000        3001        3102        3101
         4        3001        3002        3103        3102
         4        3002        3003        3104        3103
         4        3003        3004        3105        3104
         4        3004        3005        3106        3105
         4        3005        3006        3107        3106
         4        3006        3007        3108        3107
         4        3007        3008        3109        3108
         4        3008        3009        3110        3109
         4        3009        3010        3111        3110
         4        3010        3011        3112        3111
         4        3011        3012        3113        3112
         4        3012        3013        3114        3113
         4        3013        3014        3115        3114
         4        3014        3015        3116        3115
         4        3015        3016        3117        3116
         4        3016        3017        3118        3117
         4        3017        3018        3119        3118
         4        3018        3019        3120        3119
         4        3019        3020        3121        3120
         4        3020        3021        3122        3121
         4        3021        3022        3123        3122
         4        3022        3023        3124        3123
         4        3023        3024        3125        3124
         4        3024        3025        3126        3125
         4        3025        3026        3127        3126
         4        3026        3027        3128        3127
         4        3027        3028        3129        3128
         4        3028        3029        3130        3129
         4        3030        3031        3132        3131
         4        3031        3032        3133        3132
         4        3032        3033        3134        3133
         4        3033        3034        3135        3134
         4        3034        3035        3136        3135
         4        3035        3036        3137        3136
         4        3036        3037        3138        3137
         4        3037        3038        3139        3138
         4        3038        3039        3140        3139
         4        3039        3040        3141        3140
         4        3040        3041        3142        3141
         4        3041        3042        3143        3142
         4        3042        3043        3144        3143
         4        3043        3044        3145        3144
         4        3044        3045        3146        3145
         4        3045        3046        3147        3146
         4        3046        3047        3148        3147
         4        3047        3048        3149        3148
         4        3048        3049        3150        3149
         4        3049        3050        3151        3150
         4        3050        3051        3152        3151
         4        3051        3052        3153        3152
         4        3052        3053        3154        3153
         4        3053        3054        3155        3154
         4        3054        3055        3156        3155
         4        3055        3056        3157        3156
         4        3056        3057        3158        3157
         4        3057        3058        3159        3158
         4        3058        3059        3160        3159
         4        3059        3060        3161        3160
         4        3060        3061        3162        3161
         4        3061        3062        3163        3162
         4        3062        3063        3164        3163
         4        3063        3064        3165        3164
         4        3064        3065        3166        3165
         4        3065        3066        3167        3166
         4        3066        3067        3168        3167
         4        3067        3068        3169        3168
         4        3068        3069        3170        3169
         4        3069        3070        3171        3170
         4        3070        3071        3172        3171
         4        3071        3072        3173        3172
         4        3072        3073        3174        3173
         4        3073        3074        3175        3174
         4        3074        3075        3176        3175
         4        3075        3076        3177        3176
         4        3076        3077        3178        3177
         4        3077        3078        3179        3178
         4        3078        3079        3180        3179
         4        3079        3080        3181        3180
         4        3080        3081        3182        3181
         4        3081        3082        3183        3182
         4        3082        3083        3184        3183
         4        3083        3084        3185        3184
         4        3084        3085        3186        3185
         4        3085        3086        3187        3186
         4        3086        3087        3188        3187
         4        3087        3088        3189        3188
         4        3088        3089        3190        3189
         4        3089        3090        3191        3190
         4        3090        3091        3192        3191
         4        3091        3092        3193        3192
         4        3092        3093        3194        3193
         4        3093        3094        3195        3194
         4        3094        3095        3196        3195
         4        3095        3096        3197        3196
         4        3096        3097        3198        3197
         4        3097        3098        3199        3198
         4        3098        3099        3200        3199
         4        3099        3100        3201        3200
         4        3100        3101        3202        3201
         4        3101        3102        3203        3202
         4        3102        3103        3204        3203
         4        3103        3104        3205        3204
         4        3104        3105        3206        3205
         4        3105        3106        3207        3206
         4        3106        3107        3208        3207
         4        3107        3108        3209        3208
         4        3108        3109        3210        3209
         4        3109        3110        3211        3210
         4        3110        3111        3212        3211
         4        3111        3112        3213        3212
         4        3112        3113        3214        3213
         4        3113        3114        3215        3214
         4        3114        3115        3216        3215
         4        3115        3116        3217        3216
         4        3116        3117        3218        3217
         4        3117        3118        3219        3218
         4        3118        3119        3220        3219
         4        3119        3120        3221        3220
         4        3120        3121        3222        3221
         4        3121        3122        3223        3222
         4        3122        3123        3224        3223
         4        3123        3124        3225        3224
         4        3124        3125        3226        3225
         4        3125        3126        3227        3226
         4        3126        3127        3228        3227
         4        3127        3128        3229        3228
         4        3128        3129        3230        3229
         4        3129        3130        3231        3230
         4        3131        3132        3233        3232
         4        3132        3133        3234        3233
         4        3133        3134        3235        3234
         4        3134        3135        3236        3235
         4        3135        3136        3237        3236
         4        3136        3137        3238        3237
         4        3137        3138        3239        3238
         4        3138        3139        3240        3239
         4        3139        3140        3241        3240
         4        3140        3141        3242        3241
         4        3141        3142        3243        3242
         4        3142        3143        3244        3243
         4        3143        3144        3245        3244
         4        3144        3145        3246        3245
         4        3145        3146        3247        3246
         4        3146        3147        3248        3247
         4        3147        3148        3249        3248
         4        3148        3149        3250        3249
         4        3149        3150        3251        3250
         4        3150        3151        3252        3251
         4        3151        3152        3253        3252
         4        3152        3153        3254        3253
         4        3153        3154        3255        3254
         4        3154        3155        3256        3255
         4        3155        3156        3257        3256
         4        3156        3157        3258        3257
         4        3157        3158        3259        3258
         4        3158        3159        3260        3259
         4        3159        3160        3261        3260
         4        3160        3161        3262        3261
         4        3161        3162        3263        3262
         4        3162        3163        3264        3263
         4        3163        3164        3265        3264
         4        3164        3165        3266        3265
         4        3165        3166        3267        3266
         4        3166        3167        3268        3267
         4        3167        3168        3269        3268
         4        3168        3169        3270        3269
         4        3169        3170        3271        3270
         4        3170        3171        3272        3271
         4        3171        3172        3273        3272
         4        3172        3173        3274        3273
         4        3173        3174        3275        3274
         4        3174        3175        3276        3275
         4        3175        3176        3277        3276
         4        3176        3177        3278        3277
         4        3177        3178        3279        3278
         4        3178        3179        3280        3279
         4        3179        3180        3281        3280
         4        3180        3181        3282        3281
         4        3181        3182        3283        3282
         4        3182        3183        3284        3283
         4        3183        3184        3285        3284
         4        3184        3185        3286        3285
         4        3185        3186        3287        3286
         4        3186        3187        3288        3287
         4        3187        3188        3289        3288
         4        3188        3189        3290        3289
         4        3189        3190        3291        3290
         4        3190        3191        3292        3291
         4        3191        3192        3293        3292
         4        3192        3193        3294        3293
         4        3193        3194        3295        3294
         4        3194        3195        3296        3295
         4        3195        3196        3297        3296
         4        3196        3197        3298        3297
         4        3197        3198        3299        3298
         4        3198        3199        3300        3299
         4        3199        3200        3301        3300
         4        3200        3201        3302        3301
         4        3201        3202        3303        3302
         4        3202        3203        3304        3303
         4        3203        3204        3305        3304
         4        3204        3205        3306        3305
         4        3205        3206        3307        3306
         4        3206        3207        3308        3307
         4        3207        3208        3309        3308
         4        3208        3209        3310        3309
         4        3209        3210        3311        3310
         4        3210        3211        3312        3311
         4        3211        3212        3313        3312
         4        3212        3213        3314        3313
         4        3213        3214        3315        3314
         4        3214        3215        3316        3315
         4        3215        3216        3317        3316
         4        3216        3217        3318        3317
         4        3217        3218        3319        3318
         4        3218        3219        3320        3319
         4        3219        3220        3321        3320
         4        3220        3221        3322        3321
         4        3221        3222        3323        3322
         4        3222        3223        3324        3323
         4        3223        3224        3325        3324
         4        3224        3225        3326        3325
         4        3225        3226        3327        3326
         4        3226        3227        3328        3327
         4        3227        3228        3329        3328
         4        3228        3229        3330        3329
         4        3229        3230        3331        3330
         4        3230        3231        3332        3331
         4        3232        3233        3334        3333
         4        3233        3234        3335        3334
         4        3234        3235        3336        3335
         4        3235        3236        3337        3336
         4        3236        3237        3338        3337
         4        3237        3238        3339        3338
         4        3238        3239        3340        3339
         4        3239        3240        3341        3340
         4        3240        3241        3342        3341
         4        3241        3242        3343        3342
         4        3242        3243        3344        3343
         4        3243        3244        3345        3344
         4        3244        3245        3346        3345
         4        3245        3246        3347        3346
         4        3246        3247        3348        3347
         4        3247        3248        3349        3348
         4        3248        3249        3350        3349
         4        3249        3250        3351        3350
         4        3250        3251        3352        3351
         4        3251        3252        3353        3352
         4        3252        3253        3354        3353
         4        3253        3254        3355        3354
         4        3254        3255        3356        3355
         4        3255        3256        3357        3356
         4        3256        3257        3358        3357
         4        3257        3258        3359        3358
         4        3258        3259        3360        3359
         4        3259        3260        3361        3360
         4        3260        3261        3362        3361
         4        3261        3262        3363        3362
         4        3262        3263        3364        3363
         4        3263        3264        3365        3364
         4        3264        3265        3366        3365
         4        3265        3266        3367        3366
         4        3266        3267        3368        3367
         4        3267        3268        3369        3368
         4        3268        3269        3370        3369
         4        3269        3270        3371        3370
         4        3270        3271        3372        3371
         4        3271        3272        3373        3372
         4        3272        3273        3374        3373
         4        3273        3274        3375        3374
         4        3274        3275        3376        3375
         4        3275        3276        3377        3376
         4        3276        3277        3378        3377
         4        3277        3278        3379        3378
         4        3278        3279        3380        3379
         4        3279        3280        3381        3380
         4        3280        3281        3382        3381
         4        3281        3282        3383        3382
         4        3282        3283        3384        3383
         4        3283        3284        3385        3384
         4        3284        3285        3386        3385
         4        3285        3286        3387        3386
         4        3286        3287        3388        3387
         4        3287        3288        3389        3388
         4        3288        3289        3390        3389
         4        3289        3290        3391        3390
         4        3290        3291        3392        3391
         4        3291        3292        3393        3392
         4        3292        3293        3394        3393
         4        3293        3294        3395        3394
         4        3294        3295        3396        3395
         4        3295        3296        3397        3396
         4        3296        3297        3398        3397
         4        3297        3298        3399        3398
         4        3298        3299        3400        3399
         4        3299        3300        3401        3400
         4        3300        3301        3402        3401
         4        3301        3302        3403        3402
         4        3302        3303        3404        3403
         4        3303        3304        3405        3404
         4        3304        3305        3406        3405
         4        3305        3306        3407        3406
         4        3306        3307        3408        3407
         4        3307        3308        3409        3408
         4        3308        3309        3410        3409
         4        3309        3310        3411        3410
         4        3310        3311        3412        3411
         4        3311        3312        3413        3412
         4        3312        3313        3414        3413
         4        3313        3314        3415        3414
         4        3314        3315        3416        3415
         4        3315        3316        3417        3416
         4        3316        3317        3418        3417
         4        3317        3318        3419        3418
         4        3318        3319        3420        3419
         4        3319        3320        3421        3420
         4        3320        3321        3422        3421
         4        3321        3322        3423        3422
         4        3322        3323        3424        3423
         4        3323        3324        3425        3424
         4        3324        3325        3426        3425
         4        3325        3326        3427        3426
         4        3326        3327        3428        3427
         4        3327        3328        3429        3428
         4        3328        3329        3430        3429
         4        3329        3330        3431        3430
         4        3330        3331        3432        3431
         4        3331        3332        3433        3432
         4        3333        3334        3435        3434
         4        3334        3335        3436        3435
         4        3335        3336        3437        3436
         4        3336        3337        3438        3437
         4        3337        3338        3439        3438
         4        3338        3339        3440        3439
         4        3339        3340        3441        3440
         4        3340        3341        3442        3441
         4        3341        3342        3443        3442
         4        3342        3343        3444        3443
         4        3343        3344        3445        3444
         4        3344        3345        3446        3445
         4        3345        3346        3447        3446
         4        3346        3347        3448        3447
         4        3347        3348        3449        3448
         4        3348        3349        3450        3449
         4        3349        3350        3451        3450
         4        3350        3351        3452        3451
         4        3351        3352        3453        3452
         4        3352        3353        3454        3453
         4        3353        3354        3455        3454
         4        3354        3355        3456        3455
         4        3355        3356        3457        3456
         4        3356        3357        3458        3457
         4        3357        3358        3459        3458
         4        3358        3359        3460        3459
         4        3359        3360        3461        3460
         4        3360        3361        3462        3461
         4        3361        3362        3463        3462
         4        3362        3363        3464        3463
         4        3363        3364        3465        3464
         4        3364        3365        3466        3465
         4        3365        3366        3467        3466
         4        3366        3367        3468        3467
         4        3367        3368        3469        3468
         4        3368        3369        3470        3469
         4        3369        3370        3471        3470
         4        3370        3371        3472        3471
         4        3371        3372        3473        3472
         4        3372        3373        3474        3473
         4        3373        3374        3475        3474
         4        3374        3375        3476        3475
         4        3375        3376        3477        3476
         4        3376        3377        3478        3477
         4        3377        3378        3479        3478
         4        3378        3379        3480        3479
         4        3379        3380        3481        3480
         4        3380        3381        3482        3481
         4        3381        3382        3483        3482
         4        3382        3383        3484        3483
         4        3383        3384        3485        3484
         4        3384        3385        3486        3485
         4        3385        3386        3487        3486
         4        3386        3387        3488        3487
         4        3387        3388        3489        3488
         4        3388        3389        3490        3489
         4        3389        3390        3491        3490
         4        3390        3391        3492        3491
         4        3391        3392        3493        3492
         4        3392        3393        3494        3493
         4        3393        3394        3495        3494
         4        3394        3395        3496        3495
         4        3395        3396        3497        3496
         4        3396        3397        3498        3497
         4        3397        3398        3499        3498
         4        3398        3399        3500        3499
         4        3399        3400        3501        3500
         4        3400        3401        3502        3501
         4        3401        3402        3503        3502
         4        3402        3403        3504        3503
         4        3403        3404        3505        3504
         4        3404        3405        3506        3505
         4        3405        3406        3507        3506
         4        3406        3407        3508        3507
         4        3407        3408        3509        3508
         4        3408        3409        3510        3509
         4        3409        3410        3511        3510
         4        3410        3411        3512        3511
         4        3411        3412        3513        3512
         4        3412        3413        3514        3513
         4        3413        3414        3515        3514
         4        3414        3415        3516        3515
         4        3415        3416        3517        3516
         4        3416        3417        3518        3517
         4        3417        3418        3519        3518
         4        3418        3419        3520        3519
         4        3419        3420        3521        3520
         4        3420        3421        3522        3521
         4        3421        3422        3523        3522
         4        3422        3423        3524        3523
         4        3423        3424        3525        3524
         4        3424        3425        3526        3525
         4        3425        3426        3527        3526
         4        3426        3427        3528        3527
         4        3427        3428        3529        3528
         4        3428        3429        3530        3529
         4        3429        3430        3531        3530
         4        3430        3431        3532        3531
         4        3431        3432        3533        3532
         4        3432        3433        3534        3533
         4        3434        3435        3536        3535
         4        3435        3436        3537        3536
         4        3436        3437        3538        3537
         4        3437        3438        3539        3538
         4        3438        3439        3540        3539
         4        3439        3440        3541        3540
         4        3440        3441        3542        3541
         4        3441        3442        3543        3542
         4        3442        3443        3544        3543
         4        3443        3444        3545        3544
         4        3444        3445        3546        3545
         4        3445        3446        3547        3546
         4        3446        3447        3548        3547
         4        3447        3448        3549        3548
         4        3448        3449        3550        3549
         4        3449        3450        3551        3550
         4        3450        3451        3552        3551
         4        3451        3452        3553        3552
         4        3452        3453        3554        3553
         4        3453        3454        3555        3554
         4        3454        3455        3556        3555
         4        3455        3456        3557        3556
         4        3456        3457        3558        3557
         4        3457        3458        3559        3558
         4        3458        3459        3560        3559
         4        3459        3460        3561        3560
         4        3460        3461        3562        3561
         4        3461        3462        3563        3562
         4        3462        3463        3564        3563
         4        3463        3464        3565        3564
         4        3464        3465        3566        3565
         4        3465        3466        3567        3566
         4        3466        3467        3568        3567
         4        3467        3468        3569        3568
         4        3468        3469        3570        3569
         4        3469        3470        3571        3570
         4        3470        3471        3572        3571
         4        3471        3472        3573        3572
         4        3472        3473        3574        3573
         4        3473        3474        3575        3574
         4        3474        3475        3576        3575
         4        3475        3476        3577        3576
         4        3476        3477        3578        3577
         4        3477        3478        3579        3578
         4        3478        3479        3580        3579
         4        3479        3480        3581        3580
         4        3480        3481        3582        3581
         4        3481        3482        3583        3582
         4        3482        3483        3584        3583
         4        3483        3484        3585        3584
         4        3484        3485        3586        3585
         4        3485        3486        3587        3586
         4        3486        3487        3588        3587
         4        3487        3488        3589        3588
         4        3488        3489        3590        3589
         4        3489        3490        3591        3590
         4        3490        3491        3592        3591
         4        3491        3492        3593        3592
         4        3492        3493        3594        3593
         4        3493        3494        3595        3594
         4        3494        3495        3596        3595
         4        3495        3496        3597        3596
         4        3496        3497        3598        3597
         4        3497        3498        3599        3598
         4        3498        3499        3600        3599
         4        3499        3500        3601        3600
         4        3500        3501        3602        3601
         4        3501        3502        3603        3602
         4        3502        3503        3604        3603
         4        3503        3504        3605        3604
         4        3504        3505        3606        3605
         4        3505        3506        3607        3606
         4        3506        3507        3608        3607
         4        3507        3508        3609        3608
         4        3508        3509        3610        3609
         4        3509        3510        3611        3610
         4        3510        3511        3612        3611
         4        3511        3512        3613        3612
         4        3512        3513        3614        3613
         4        3513        3514        3615        3614
         4        3514        3515        3616        3615
         4        3515        3516        3617        3616
         4        3516        3517        3618        3617
         4        3517        3518        3619        3618
         4        3518        3519        3620        3619
         4        3519        3520        3621        3620
         4        3520        3521        3622        3621
         4        3521        3522        3623        3622
         4        3522        3523        3624        3623
         4        3523        3524        3625        3624
         4        3524        3525        3626        3625
         4        3525        3526        3627        3626
         4        3526        3527        3628        3627
         4        3527        3528        3629        3628
         4        3528        3529        3630        3629
         4        3529        3530        3631        3630
         4        3530        3531        3632        3631
         4        3531        3532        3633        3632
         4        3532        3533        3634        3633
         4        3533        3534        3635        3634
         4        3535        3536        3637        3636
         4        3536        3537        3638        3637
         4        3537        3538        3639        3638
         4        3538        3539        3640        3639
         4        3539        3540        3641        3640
         4        3540        3541        3642        3641
         4        3541        3542        3643        3642
         4        3542        3543        3644        3643
         4        3543        3544        3645        3644
         4        3544        3545        3646        3645
         4        3545        3546        3647        3646
         4        3546        3547        3648        3647
         4        3547        3548        3649        3648
         4        3548        3549        3650        3649
         4        3549        3550        3651        3650
         4        3550        3551        3652        3651
         4        3551        3552        3653        3652
         4        3552        3553        3654        3653
         4        3553        3554        3655        3654
         4        3554        3555        3656        3655
         4        3555        3556        3657        3656
         4        3556        3557        3658        3657
         4        3557        3558        3659        3658
         4        3558        3559        3660        3659
         4        3559        3560        3661        3660
         4        3560        3561        3662        3661
         4        3561        3562        3663        3662
         4        3562        3563        3664        3663
         4        3563        3564        3665        3664
         4        3564        3565        3666        3665
         4        3565        3566        3667        3666
         4        3566        3567        3668        3667
         4        3567        3568        3669        3668
         4        3568        3569        3670        3669
         4        3569        3570        3671        3670
         4        3570        3571        3672        3671
         4        3571        3572        3673        3672
         4        3572        3573        3674        3673
         4        3573        3574        3675        3674
         4        3574        3575        3676        3675
         4        3575        3576        3677        3676
         4        3576        3577        3678        3677
         4        3577        3578        3679        3678
         4        3578        3579        3680        3679
         4        3579        3580        3681        3680
         4        3580        3581        3682        3681
         4        3581        3582        3683        3682
         4        3582        3583        3684        3683
         4        3583        3584        3685        3684
         4        3584        3585        3686        3685
         4        3585        3586        3687        3686
         4        3586        3587        3688        3687
         4        3587        3588        3689        3688
         4        3588        3589        3690        3689
         4        3589        3590        3691        3690
         4        3590        3591        3692        3691
         4        3591        3592        3693        3692
         4        3592        3593        3694        3693
         4        3593        3594        3695        3694
         4        3594        3595        3696        3695
         4        3595        3596        3697        3696
         4        3596        3597        3698        3697
         4        3597        3598        3699        3698
         4        3598        3599        3700        3699
         4        3599        3600        3701        3700
         4        3600        3601        3702        3701
         4        3601        3602        3703        3702
         4        3602        3603        3704        3703
         4        3603        3604        3705        3704
         4        3604        3605        3706        3705
         4        3605        3606        3707        3706
         4        3606        3607        3708        3707
         4        3607        3608        3709        3708
         4        3608        3609        3710        3709
         4        3609        3610        3711        3710
         4        3610        3611        3712        3711
         4        3611        3612        3713        3712
         4        3612        3613        3714        3713
         4        3613        3614        3715        3714
         4        3614        3615        3716        3715
         4        3615        3616        3717        3716
         4        3616        3617        3718        3717
         4        3617        3618        3719        3718
         4        3618        3619        3720        3719
         4        3619        3620        3721        3720
         4        3620        3621        3722        3721
         4        3621        3622        3723        3722
         4        3622        3623        3724        3723
         4        3623        3624        3725        3724
         4        3624        3625        3726        3725
         4        3625        3626        3727        3726
         4        3626        3627        3728        3727
         4        3627        3628        3729        3728
         4        3628        3629        3730        3729
         4        3629        3630        3731        3730
         4        3630        3631        3732        3731
         4        3631        3632        3733        3732
         4        3632        3633        3734        3733
         4        3633        3634        3735        3734
         4        3634        3635        3736        3735
         4        3636        3637        3738        3737
         4        3637        3638        3739        3738
         4        3638        3639        3740        3739
         4        3639        3640        3741        3740
         4        3640        3641        3742        3741
         4        3641        3642        3743        3742
         4        3642        3643        3744        3743
         4        3643        3644        3745        3744
         4        3644        3645        3746        3745
         4        3645        3646        3747        3746
         4        3646        3647        3748        3747
         4        3647        3648        3749        3748
         4        3648        3649        3750        3749
         4        3649        3650        3751        3750
         4        3650        3651        3752        3751
         4        3651        3652        3753        3752
         4        3652        3653        3754        3753
         4        3653        3654        3755        3754
         4        3654        3655        3756        3755
         4        3655        3656        3757        3756
         4        3656        3657        3758        3757
         4        3657        3658        3759        3758
         4        3658        3659        3760        3759
         4        3659        3660        3761        3760
         4        3660        3661        3762        3761
         4        3661        3662        3763        3762
         4        3662        3663        3764        3763
         4        3663        3664        3765        3764
         4        3664        3665        3766        3765
         4        3665        3666        3767        3766
         4        3666        3667        3768        3767
         4        3667        3668        3769        3768
         4        3668        3669        3770        3769
         4        3669        3670        3771        3770
         4        3670        3671        3772        3771
         4        3671        3672        3773        3772
         4        3672        3673        3774        3773
         4        3673        3674        3775        3774
         4        3674        3675        3776        3775
         4        3675        3676        3777        3776
         4        3676        3677        3778        3777
         4        3677        3678        3779        3778
         4        3678        3679        3780        3779
         4        3679        3680        3781        3780
         4        3680        3681        3782        3781
         4        3681        3682        3783        3782
         4        3682        3683        3784        3783
         4        3683        3684        3785        3784
         4        3684        3685        3786        3785
         4        3685        3686        3787        3786
         4        3686        3687        3788        3787
         4        3687        3688        3789        3788
         4        3688        3689        3790        3789
         4        3689        3690        3791        3790
         4        3690        3691        3792        3791
         4        3691        3692        3793        3792
         4        3692        3693        3794        3793
         4        3693        3694        3795        3794
         4        3694        3695        3796        3795
         4        3695        3696        3797        3796
         4        3696        3697        3798        3797
         4        3697        3698        3799        3798
         4        3698        3699        3800        3799
         4        3699        3700        3801        3800
         4        3700        3701        3802        3801
         4        3701        3702        3803        3802
         4        3702        3703        3804        3803
         4        3703        3704        3805        3804
         4        3704        3705        3806        3805
         4        3705        3706        3807        3806
         4        3706        3707        3808        3807
         4        3707        3708        3809        3808
         4        3708        3709        3810        3809
         4        3709        3710        3811        3810
         4        3710        3711        3812        3811
         4        3711        3712        3813        3812
         4        3712        3713        3814        3813
         4        3713        3714        3815        3814
         4        3714        3715        3816        3815
         4        3715        3716        3817        3816
         4        3716        3717        3818        3817
         4        3717        3718        3819        3818
         4        3718        3719        3820        3819
         4        3719        3720        3821        3820
         4        3720        3721        3822        3821
         4        3721        3722        3823        3822
         4        3722        3723        3824        3823
         4        3723        3724        3825        3824
         4        3724        3725        3826        3825
         4        3725        3726        3827        3826
         4        3726        3727        3828        3827
         4        3727        3728        3829        3828
         4        3728        3729        3830        3829
         4        3729        3730        3831        3830
         4        3730        3731        3832        3831
         4        3731        3732        3833        3832
         4        3732        3733        3834        3833
         4        3733        3734        3835        3834
         4        3734        3735        3836        3835
         4        3735        3736        3837        3836
         4        3737        3738        3839        3838
         4        3738        3739        3840        3839
         4        3739        3740        3841        3840
         4        3740        3741        3842        3841
         4        3741        3742        3843        3842
         4        3742        3743        3844        3843
         4        3743        3744        3845        3844
         4        3744        3745        3846        3845
         4        3745        3746        3847        3846
         4        3746        3747        3848        3847
         4        3747        3748        3849        3848
         4        3748        3749        3850        3849
         4        3749        3750        3851        3850
         4        3750        3751        3852        3851
         4        3751        3752        3853        3852
         4        3752        3753        3854        3853
         4        3753        3754        3855        3854
         4        3754        3755        3856        3855
         4        3755        3756        3857        3856
         4        3756        3757        3858        3857
         4        3757        3758        3859        3858
         4        3758        3759        3860        3859
         4        3759        3760        3861        3860
         4        3760        3761        3862        3861
         4        3761        3762        3863        3862
         4        3762        3763        3864        3863
         4        3763        3764        3865        3864
         4        3764        3765        3866        3865
         4        3765        3766        3867        3866
         4        3766        3767        3868        3867
         4        3767        3768        3869        3868
         4        3768        3769        3870        3869
         4        3769        3770        3871        3870
         4        3770        3771        3872        3871
         4        3771        3772        3873        3872
         4        3772        3773        3874        3873
         4        3773        3774        3875        3874
         4        3774        3775        3876        3875
         4        3775        3776        3877        3876
         4        3776        3777        3878        3877
         4        3777        3778        3879        3878
         4        3778        3779        3880        3879
         4        3779        3780        3881        3880
         4        3780        3781        3882        3881
         4        3781        3782        3883        3882
         4        3782        3783        3884        3883
         4        3783        3784        3885        3884
         4        3784        3785        3886        3885
         4        3785        3786        3887        3886
         4        3786        3787        3888        3887
         4        3787        3788        3889        3888
         4        3788        3789        3890        3889
         4        3789        3790        3891        3890
         4        3790        3791        3892        3891
         4        3791        3792        3893        3892
         4        3792        3793        3894        3893
         4        3793        3794        3895        3894
         4        3794        3795        3896        3895
         4        3795        3796        3897        3896
         4        3796        3797        3898        3897
         4        3797        3798        3899        3898
         4        3798        3799        3900        3899
         4        3799        3800        3901        3900
         4        3800        3801        3902        3901
         4        3801        3802        3903        3902
         4        3802        3803        3904        3903
         4        3803        3804        3905        3904
         4        3804        3805        3906        3905
         4        3805        3806        3907        3906
         4        3806        3807        3908        3907
         4        3807        3808        3909        3908
         4        3808        3809        3910        3909
         4        3809        3810        3911        3910
         4        3810        3811        3912        3911
         4        3811        3812        3913        3912
         4        3812        3813        3914        3913
         4        3813        3814        3915        3914
         4        3814        3815        3916        3915
         4        3815        3816        3917        3916
         4        3816        3817        3918        3917
         4        3817        3818        3919        3918
         4        3818        3819        3920        3919
         4        3819        3820        3921        3920
         4        3820        3821        3922        3921
         4        3821        3822        3923        3922
         4        3822        3823        3924        3923
         4        3823        3824        3925        3924
         4        3824        3825        3926        3925
         4        3825        3826        3927        3926
         4        3826        3827        3928        3927
         4        3827        3828        3929        3928
         4        3828        3829        3930        3929
         4        3829        3830        3931        3930
         4        3830        3831        3932        3931
         4        3831        3832        3933        3932
         4        3832        3833        3934        3933
         4        3833        3834        3935        3934
         4        3834        3835        3936        3935
         4        3835        3836        3937        3936
         4        3836        3837        3938        3937
         4        3838        3839        3940        3939
         4        3839        3840        3941        3940
         4        3840        3841        3942        3941
         4        3841        3842        3943        3942
         4        3842        3843        3944        3943
         4        3843        3844        3945        3944
         4        3844        3845        3946        3945
         4        3845        3846        3947        3946
         4        3846        3847        3948        3947
         4        3847        3848        3949        3948
         4        3848        3849        3950        3949
         4        3849        3850        3951        3950
         4        3850        3851        3952        3951
         4        3851        3852        3953        3952
         4        3852        3853        3954        3953
         4        3853        3854        3955        3954
         4        3854        3855        3956        3955
         4        3855        3856        3957        3956
         4        3856        3857        3958        3957
         4        3857        3858        3959        3958
         4        3858        3859        3960        3959
         4        3859        3860        3961        3960
         4        3860        3861        3962        3961
         4        3861        3862        3963        3962
         4        3862        3863        3964        3963
         4        3863        3864        3965        3964
         4        3864        3865        3966        3965
         4        3865        3866        3967        3966
         4        3866        3867        3968        3967
         4        3867        3868        3969        3968
         4        3868        3869        3970        3969
         4        3869        3870        3971        3970
         4        3870        3871        3972        3971
         4        3871        3872        3973        3972
         4        3872        3873        3974        3973
         4        3873        3874        3975        3974
         4        3874        3875        3976        3975
         4        3875        3876        3977        3976
         4        3876        3877        3978        3977
         4        3877        3878        3979        3978
         4        3878        3879        3980        3979
         4        3879        3880        3981        3980
         4        3880        3881        3982        3981
         4        3881        3882        3983        3982
         4        3882        3883        3984        3983
         4        3883        3884        3985        3984
         4        3884        3885        3986        3985
         4        3885        3886        3987        3986
         4        3886        3887        3988        3987
         4        3887        3888        3989        3988
         4        3888        3889        3990        3989
         4        3889        3890        3991        3990
         4        3890        3891        3992        3991
         4        3891        3892        3993        3992
         4        3892        3893        3994        3993
         4        3893        3894        3995        3994
         4        3894        3895        3996        3995
         4        3895        3896        3997        3996
         4        3896        3897        3998        3997
         4        3897        3898        3999        3998
         4        3898        3899        4000        3999
         4        3899        3900        4001        4000
         4        3900        3901        4002        4001
         4        3901        3902        4003        4002
         4        3902        3903        4004        4003
         4        3903        3904        4005        4004
         4        3904        3905        4006        4005
         4        3905        3906        4007        4006
         4        3906        3907        4008        4007
         4        3907        3908        4009        4008
         4        3908        3909        4010        4009
         4        3909        3910        4011        4010
         4        3910        3911        4012        4011
         4        3911        3912        4013        4012
         4        3912        3913        4014        4013
         4        3913        3914        4015        4014
         4        3914        3915        4016        4015
         4        3915        3916        4017        4016
         4        3916        3917        4018        4017
         4        3917        3918        4019        4018
         4        3918        3919        4020        4019
         4        3919        3920        4021        4020
         4        3920        3921        4022        4021
         4        3921        3922        4023        4022
         4        3922        3923        4024        4023
         4        3923        3924        4025        4024
         4        3924        3925        4026        4025
         4        3925        3926        4027        4026
         4        3926        3927        4028        4027
         4        3927        3928        4029        4028
         4        3928        3929        4030        4029
         4        3929        3930        4031        4030
         4        3930        3931        4032        4031
         4        3931        3932        4033        4032
         4        3932        3933        4034        4033
         4        3933        3934        4035        4034
         4        3934        3935        4036        4035
         4        3935        3936        4037        4036
         4        3936        3937        4038        4037
         4        3937        3938        4039        4038
         4        3939        3940        4041        4040
         4        3940        3941        4042        4041
         4        3941        3942        4043        4042
         4        3942        3943        4044        4043
         4        3943        3944        4045        4044
         4        3944        3945        4046        4045
         4        3945        3946        4047        4046
         4        3946        3947        4048        4047
         4        3947        3948        4049        4048
         4        3948        3949        4050        4049
         4        3949        3950        4051        4050
         4        3950        3951        4052        4051
         4        3951        3952        4053        4052
         4        3952        3953        4054        4053
         4        3953        3954        4055        4054
         4        3954        3955        4056        4055
         4        3955        3956        4057        4056
         4        3956        3957        4058        4057
         4        3957        3958        4059        4058
         4        3958        3959        4060        4059
         4        3959        3960        4061        4060
         4        3960        3961        4062        4061
         4        3961        3962        4063        4062
         4        3962        3963        4064        4063
         4        3963        3964        4065        4064
         4        3964        3965        4066        4065
         4        3965        3966        4067        4066
         4        3966        3967        4068        4067
         4        3967        3968        4069        4068
         4        3968        3969        4070        4069
         4        3969        3970        4071        4070
         4        3970        3971        4072        4071
         4        3971        3972        4073        4072
         4        3972        3973        4074        4073
         4        3973        3974        4075        4074
         4        3974        3975        4076        4075
         4        3975        3976        4077        4076
         4        3976        3977        4078        4077
         4        3977        3978        4079        4078
         4        3978        3979        4080        4079
         4        3979        3980        4081        4080
         4        3980        3981        4082        4081
         4        3981        3982        4083        4082
         4        3982        3983        4084        4083
         4        3983        3984        4085        4084
         4        3984        3985        4086        4085
         4        3985        3986        4087        4086
         4        3986        3987        4088        4087
         4        3987        3988        4089        4088
         4        3988        3989        4090        4089
         4        3989        3990        4091        4090
         4        3990        3991        4092        4091
         4        3991        3992        4093        4092
         4        3992        3993        4094        4093
         4        3993        3994        4095        4094
         4        3994        3995        4096        4095
         4        3995        3996        4097        4096
         4        3996        3997        4098        4097
         4        3997        3998        4099        4098
         4        3998        3999        4100        4099
         4        3999        4000        4101        4100
         4        4000        4001        4102        4101
         4        4001        4002        4103        4102
         4        4002        4003        4104        4103
         4        4003        4004        4105        4104
         4        4004        4005        4106        4105
         4        4005        4006        4107        4106
         4        4006        4007        4108        4107
         4        4007        4008        4109        4108
         4        4008        4009        4110        4109
         4        4009        4010        4111        4110
         4        4010        4011        4112        4111
         4        4011        4012        4113        4112
         4        4012        4013        4114        4113
         4        4013        4014        4115        4114
         4        4014        4015        4116        4115
         4        4015        4016        4117        4116
         4        4016        4017        4118        4117
         4        4017        4018        4119        4118
         4        4018        4019        4120        4119
         4        4019        4020        4121        4120
         4        4020        4021        4122        4121
         4        4021        4022        4123        4122
         4        4022        4023        4124        4123
         4        4023        4024        4125        4124
         4        4024        4025        4126        4125
         4        4025        4026        4127        4126
         4        4026        4027        4128        4127
         4        4027        4028        4129        4128
         4        4028        4029        4130        4129
         4        4029        4030        4131        4130
         4        4030        4031        4132        4131
         4        4031        4032        4133        4132
         4        4032        4033        4134        4133
         4        4033        4034        4135        4134
         4        4034        4035        4136        4135
         4        4035        4036        4137        4136
         4        4036        4037        4138        4137
         4        4037        4038        4139        4138
         4        4038        4039        4140        4139
         4        4040        4041        4142        4141
         4        4041        4042        4143        4142
         4        4042        4043        4144        4143
         4        4043        4044        4145        4144
         4        4044        4045        4146        4145
         4        4045        4046        4147        4146
         4        4046        4047        4148        4147
         4        4047        4048        4149        4148
         4        4048        4049        4150        4149
         4        4049        4050        4151        4150
         4        4050        4051        4152        4151
         4        4051        4052        4153        4152
         4        4052        4053        4154        4153
         4        4053        4054        4155        4154
         4        4054        4055        4156        4155
         4        4055        4056        4157        4156
         4        4056        4057        4158        4157
         4        4057        4058        4159        4158
         4        4058        4059        4160        4159
         4        4059        4060        4161        4160
         4        4060        4061        4162        4161
         4        4061        4062        4163        4162
         4        4062        4063        4164        4163
         4        4063        4064        4165        4164
         4        4064        4065        4166        4165
         4        4065        4066        4167        4166
         4        4066        4067        4168        4167
         4        4067        4068        4169        4168
         4        4068        4069        4170        4169
         4        4069        4070        4171        4170
         4        4070        4071        4172        4171
         4        4071        4072        4173        4172
         4        4072        4073        4174        4173
         4        4073        4074        4175        4174
         4        4074        4075        4176        4175
         4        4075        4076        4177        4176
         4        4076        4077        4178        4177
         4        4077        4078        4179        4178
         4        4078        4079        4180        4179
         4        4079        4080        4181        4180
         4        4080        4081        4182        4181
         4        4081        4082        4183        4182
         4        4082        4083        4184        4183
         4        4083        4084        4185        4184
         4        4084        4085        4186        4185
         4        4085        4086        4187        4186
         4        4086        4087        4188        4187
         4        4087        4088        4189        4188
         4        4088        4089        4190        4189
         4        4089        4090        4191        4190
         4        4090        4091        4192        4191
         4        4091        4092        4193        4192
         4        4092        4093        4194        4193
         4        4093        4094        4195        4194
         4        4094        4095        4196        4195
         4        4095        4096        4197        4196
         4        4096        4097        4198        4197
         4        4097        4098        4199        4198
         4        4098        4099        4200        4199
         4        4099        4100        4201        4200
         4        4100        4101        4202        4201
         4        4101        4102        4203        4202
         4        4102        4103        4204        4203
         4        4103        4104        4205        4204
         4        4104        4105        4206        4205
         4        4105        4106        4207        4206
         4        4106        4107        4208        4207
         4        4107        4108        4209        4208
         4        4108        4109        4210        4209
         4        4109        4110        4211        4210
         4        4110        4111        4212        4211
         4        4111        4112        4213        4212
         4        4112        4113        4214        4213
         4        4113        4114        4215        4214
         4        4114        4115        4216        4215
         4        4115        4116        4217        4216
         4        4116        4117        4218        4217
         4        4117        4118        4219        4218
         4        4118        4119        4220        4219
         4        4119        4120        4221        4220
         4        4120        4121        4222        4221
         4        4121        4122        4223        4222
         4        4122        4123        4224        4223
         4        4123        4124        4225        4224
         4        4124        4125        4226        4225
         4        4125        4126        4227        4226
         4        4126        4127        4228        4227
         4        4127        4128        4229        4228
         4        4128        4129        4230        4229
         4        4129        4130        4231        4230
         4        4130        4131        4232        4231
         4        4131        4132        4233        4232
         4        4132        4133        4234        4233
         4        4133        4134        4235        4234
         4        4134        4135        4236        4235
         4        4135        4136        4237        4236
         4        4136        4137        4238        4237
         4        4137        4138        4239        4238
         4        4138        4139        4240        4239
         4        4139        4140        4241        4240
         4        4141        4142        4243        4242
         4        4142        4143        4244        4243
         4        4143        4144        4245        4244
         4        4144        4145        4246        4245
         4        4145        4146        4247        4246
         4        4146        4147        4248        4247
         4        4147        4148        4249        4248
         4        4148        4149        4250        4249
         4        4149        4150        4251        4250
         4        4150        4151        4252        4251
         4        4151        4152        4253        4252
         4        4152        4153        4254        4253
         4        4153        4154        4255        4254
         4        4154        4155        4256        4255
         4        4155        4156        4257        4256
         4        4156        4157        4258        4257
         4        4157        4158        4259        4258
         4        4158        4159        4260        4259
         4        4159        4160        4261        4260
         4        4160        4161        4262        4261
         4        4161        4162        4263        4262
         4        4162        4163        4264        4263
         4        4163        4164        4265        4264
         4        4164        4165        4266        4265
         4        4165        4166        4267        4266
         4        4166        4167        4268        4267
         4        4167        4168        4269        4268
         4        4168        4169        4270        4269
         4        4169        4170        4271        4270
         4        4170        4171        4272        4271
         4        4171        4172        4273        4272
         4        4172        4173        4274        4273
         4        4173        4174        4275        4274
         4        4174        4175        4276        4275
         4        4175        4176        4277        4276
         4        4176        4177        4278        4277
         4        4177        4178        4279        4278
         4        4178        4179        4280        4279
         4        4179        4180        4281        4280
         4        4180        4181        4282        4281
         4        4181        4182        4283        4282
         4        4182        4183        4284        4283
         4        4183        4184        4285        4284
         4        4184        4185        4286        4285
         4        4185        4186        4287        4286
         4        4186        4187        4288        4287
         4        4187        4188        4289        4288
         4        4188        4189        4290        4289
         4        4189        4190        4291        4290
         4        4190        4191        4292        4291
         4        4191        4192        4293        4292
         4        4192        4193        4294        4293
         4        4193        4194        4295        4294
         4        4194        4195        4296        4295
         4        4195        4196        4297        4296
         4        4196        4197        4298        4297
         4        4197        4198        4299        4298
         4        4198        4199        4300        4299
         4        4199        4200        4301        4300
         4        4200        4201        4302        4301
         4        4201        4202        4303        4302
         4        4202        4203        4304        4303
         4        4203        4204        4305        4304
         4        4204        4205        4306        4305
         4        4205        4206        4307        4306
         4        4206        4207        4308        4307
         4        4207        4208        4309        4308
         4        4208        4209        4310        4309
         4        4209        4210        4311        4310
         4        4210        4211        4312        4311
         4        4211        4212        4313        4312
         4        4212        4213        4314        4313
         4        4213        4214        4315        4314
         4        4214        4215        4316        4315
         4        4215        4216        4317        4316
         4        4216        4217        4318        4317
         4        4217        4218        4319        4318
         4        4218        4219        4320        4319
         4        4219        4220        4321        4320
         4        4220        4221        4322        4321
         4        4221        4222        4323        4322
         4        4222        4223        4324        4323
         4        4223        4224        4325        4324
         4        4224        4225        4326        4325
         4        4225        4226        4327        4326
         4        4226        4227        4328        4327
         4        4227        4228        4329        4328
         4        4228        4229        4330        4329
         4        4229        4230        4331        4330
         4        4230        4231        4332        4331
         4        4231        4232        4333        4332
         4        4232        4233        4334        4333
         4        4233        4234        4335        4334
         4        4234        4235        4336        4335
         4        4235        4236        4337        4336
         4        4236        4237        4338        4337
         4        4237        4238        4339        4338
         4        4238        4239        4340        4339
         4        4239        4240        4341        4340
         4        4240        4241        4342        4341
         4        4242        4243        4344        4343
         4        4243        4244        4345        4344
         4        4244        4245        4346        4345
         4        4245        4246        4347        4346
         4        4246        4247        4348        4347
         4        4247        4248        4349        4348
         4        4248        4249        4350        4349
         4        4249        4250        4351        4350
         4        4250        4251        4352        4351
         4        4251        4252        4353        4352
         4        4252        4253        4354        4353
         4        4253        4254        4355        4354
         4        4254        4255        4356        4355
         4        4255        4256        4357        4356
         4        4256        4257        4358        4357
         4        4257        4258        4359        4358
         4        4258        4259        4360        4359
         4        4259        4260        4361        4360
         4        4260        4261        4362        4361
         4        4261        4262        4363        4362
         4        4262        4263        4364        4363
         4        4263        4264        4365        4364
         4        4264        4265        4366        4365
         4        4265        4266        4367        4366
         4        4266        4267        4368        4367
         4        4267        4268        4369        4368
         4        4268        4269        4370        4369
         4        4269        4270        4371        4370
         4        4270        4271        4372        4371
         4        4271        4272        4373        4372
         4        4272        4273        4374        4373
         4        4273        4274        4375        4374
         4        4274        4275        4376        4375
         4        4275        4276        4377        4376
         4        4276        4277        4378        4377
         4        4277        4278        4379        4378
         4        4278        4279        4380        4379
         4        4279        4280        4381        4380
         4        4280        4281        4382        4381
         4        4281        4282        4383        4382
         4        4282        4283        4384        4383
         4        4283        4284        4385        4384
         4        4284        4285        4386        4385
         4        4285        4286        4387        4386
         4        4286        4287        4388        4387
         4        4287        4288        4389        4388
         4        4288        4289        4390        4389
         4        4289        4290        4391        4390
         4        4290        4291        4392        4391
         4        4291        4292        4393        4392
         4        4292        4293        4394        4393
         4        4293        4294        4395        4394
         4        4294        4295        4396        4395
         4        4295        4296        4397        4396
         4        4296        4297        4398        4397
         4        4297        4298        4399        4398
         4        4298        4299        4400        4399
         4        4299        4300        4401        4400
         4        4300        4301        4402        4401
         4        4301        4302        4403        4402
         4        4302        4303        4404        4403
         4        4303        4304        4405        4404
         4        4304        4305        4406        4405
         4        4305        4306        4407        4406
         4        4306        4307        4408        4407
         4        4307        4308        4409        4408
         4        4308        4309        4410        4409
         4        4309        4310        4411        4410
         4        4310        4311        4412        4411
         4        4311        4312        4413        4412
         4        4312        4313        4414        4413
         4        4313        4314        4415        4414
         4        4314        4315        4416        4415
         4        4315        4316        4417        4416
         4        4316        4317        4418        4417
         4        4317        4318        4419        4418
         4        4318        4319        4420        4419
         4        4319        4320        4421        4420
         4        4320        4321        4422        4421
         4        4321        4322        4423        4422
         4        4322        4323        4424        4423
         4        4323        4324        4425        4424
         4        4324        4325        4426        4425
         4        4325        4326        4427        4426
         4        4326        4327        4428        4427
         4        4327        4328        4429        4428
         4        4328        4329        4430        4429
         4        4329        4330        4431        4430
         4        4330        4331        4432        4431
         4        4331        4332        4433        4432
         4        4332        4333        4434        4433
         4        4333        4334        4435        4434
         4        4334        4335        4436        4435
         4        4335        4336        4437        4436
         4        4336        4337        4438        4437
         4        4337        4338        4439        4438
         4        4338        4339        4440        4439
         4        4339        4340        4441        4440
         4        4340        4341        4442        4441
         4        4341        4342        4443        4442
         4        4343        4344        4445        4444
         4        4344        4345        4446        4445
         4        4345        4346        4447        4446
         4        4346        4347        4448        4447
         4        4347        4348        4449        4448
         4        4348        4349        4450        4449
         4        4349        4350        4451        4450
         4        4350        4351        4452        4451
         4        4351        4352        4453        4452
         4        4352        4353        4454        4453
         4        4353        4354        4455        4454
         4        4354        4355        4456        4455
         4        4355        4356        4457        4456
         4        4356        4357        4458        4457
         4        4357        4358        4459        4458
         4        4358        4359        4460        4459
         4        4359        4360        4461        4460
         4        4360        4361        4462        4461
         4        4361        4362        4463        4462
         4        4362        4363        4464        4463
         4        4363        4364        4465        4464
         4        4364        4365        4466        4465
         4        4365        4366        4467        4466
         4        4366        4367        4468        4467
         4        4367        4368        4469        4468
         4        4368        4369        4470        4469
         4        4369        4370        4471        4470
         4        4370        4371        4472        4471
         4        4371        4372        4473        4472
         4        4372        4373        4474        4473
         4        4373        4374        4475        4474
         4        4374        4375        4476        4475
         4        4375        4376        4477        4476
         4        4376        4377        4478        4477
         4        4377        4378        4479        4478
         4        4378        4379        4480        4479
         4        4379        4380        4481        4480
         4        4380        4381        4482        4481
         4        4381        4382        4483        4482
         4        4382        4383        4484        4483
         4        4383        4384        4485        4484
         4        4384        4385        4486        4485
         4        4385        4386        4487        4486
         4        4386        4387        4488        4487
         4        4387        4388        4489        4488
         4        4388        4389        4490        4489
         4        4389        4390        4491        4490
         4        4390        4391        4492        4491
         4        4391        4392        4493        4492
         4        4392        4393        4494        4493
         4        4393        4394        4495        4494
         4        4394        4395        4496        4495
         4        4395        4396        4497        4496
         4        4396        4397        4498        4497
         4        4397        4398        4499        4498
         4        4398        4399        4500        4499
         4        4399        4400        4501        4500
         4        4400        4401        4502        4501
         4        4401        4402        4503        4502
         4        4402        4403        4504        4503
         4        4403        4404        4505        4504
         4        4404        4405        4506        4505
         4        4405        4406        4507        4506
         4        4406        4407        4508        4507
         4        4407        4408        4509        4508
         4        4408        4409        4510        4509
         4        4409        4410        4511        4510
         4        4410        4411        4512        4511
         4        4411        4412        4513        4512
         4        4412        4413        4514        4513
         4        4413        4414        4515        4514
         4        4414        4415        4516        4515
         4        4415        4416        4517        4516
         4        4416        4417        4518        4517
         4        4417        4418        4519        4518
         4        4418        4419        4520        4519
         4        4419        4420        4521        4520
         4        4420        4421        4522        4521
         4        4421        4422        4523        4522
         4        4422        4423        4524        4523
         4        4423        4424        4525        4524
         4        4424        4425        4526        4525
         4        4425        4426        4527        4526
         4        4426        4427        4528        4527
         4        4427        4428        4529        4528
         4        4428        4429        4530        4529
         4        4429        4430        4531        4530
         4        4430        4431        4532        4531
         4        4431        4432        4533        4532
         4        4432        4433        4534        4533
         4        4433        4434        4535        4534
         4        4434        4435        4536        4535
         4        4435        4436        4537        4536
         4        4436        4437        4538        4537
         4        4437        4438        4539        4538
         4        4438        4439        4540        4539
         4        4439        4440        4541        4540
         4        4440        4441        4542        4541
         4        4441        4442        4543        4542
         4        4442        4443        4544        4543
         4        4444        4445        4546        4545
         4        4445        4446        4547        4546
         4        4446        4447        4548        4547
         4        4447        4448        4549        4548
         4        4448        4449        4550        4549
         4        4449        4450        4551        4550
         4        4450        4451        4552        4551
         4        4451        4452        4553        4552
         4        4452        4453        4554        4553
         4        4453        4454        4555        4554
         4        4454        4455        4556        4555
         4        4455        4456        4557        4556
         4        4456        4457        4558        4557
         4        4457        4458        4559        4558
         4        4458        4459        4560        4559
         4        4459        4460        4561        4560
         4        4460        4461        4562        4561
         4        4461        4462        4563        4562
         4        4462        4463        4564        4563
         4        4463        4464        4565        4564
         4        4464        4465        4566        4565
         4        4465        4466        4567        4566
         4        4466        4467        4568        4567
         4        4467        4468        4569        4568
         4        4468        4469        4570        4569
         4        4469        4470        4571        4570
         4        4470        4471        4572        4571
         4        4471        4472        4573        4572
         4        4472        4473        4574        4573
         4        4473        4474        4575        4574
         4        4474        4475        4576        4575
         4        4475        4476        4577        4576
         4        4476        4477        4578        4577
         4        4477        4478        4579        4578
         4        4478        4479        4580        4579
         4        4479        4480        4581        4580
         4        4480        4481        4582        4581
         4        4481        4482        4583        4582
         4        4482        4483        4584        4583
         4        4483        4484        4585        4584
         4        4484        4485        4586        4585
         4        4485        4486        4587        4586
         4        4486        4487        4588        4587
         4        4487        4488        4589        4588
         4        4488        4489        4590        4589
         4        4489        4490        4591        4590
         4        4490        4491        4592        4591
         4        4491        4492        4593        4592
         4        4492        4493        4594        4593
         4        4493        4494        4595        4594
         4        4494        4495        4596        4595
         4        4495        4496        4597        4596
         4        4496        4497        4598        4597
         4        4497        4498        4599        4598
         4        4498        4499        4600        4599
         4        4499        4500        4601        4600
         4        4500        4501        4602        4601
         4        4501        4502        4603        4602
         4        4502        4503        4604        4603
         4        4503        4504        4605        4604
         4        4504        4505        4606        4605
         4        4505        4506        4607        4606
         4        4506        4507        4608        4607
         4        4507        4508        4609        4608
         4        4508        4509        4610        4609
         4        4509        4510        4611        4610
         4        4510        4511        4612        4611
         4        4511        4512        4613        4612
         4        4512        4513        4614        4613
         4        4513        4514        4615        4614
         4        4514        4515        4616        4615
         4        4515        4516        4617        4616
         4        4516        4517        4618        4617
         4        4517        4518        4619        4618
         4        4518        4519        4620        4619
         4        4519        4520        4621        4620
         4        4520        4521        4622        4621
         4        4521        4522        4623        4622
         4        4522        4523        4624        4623
         4        4523        4524        4625        4624
         4        4524        4525        4626        4625
         4        4525        4526        4627        4626
         4        4526        4527        4628        4627
         4        4527        4528        4629        4628
         4        4528        4529        4630        4629
         4        4529        4530        4631        4630
         4        4530        4531        4632        4631
         4        4531        4532        4633        4632
         4        4532        4533        4634        4633
         4        4533        4534        4635        4634
         4        4534        4535        4636        4635
         4        4535        4536        4637        4636
         4        4536        4537        4638        4637
         4        4537        4538        4639        4638
         4        4538        4539        4640        4639
         4        4539        4540        4641        4640
         4        4540        4541        4642        4641
         4        4541        4542        4643        4642
         4        4542        4543        4644        4643
         4        4543        4544        4645        4644
         4        4545        4546        4647        4646
         4        4546        4547        4648        4647
         4        4547        4548        4649        4648
         4        4548        4549        4650        4649
         4        4549        4550        4651        4650
         4        4550        4551        4652        4651
         4        4551        4552        4653        4652
         4        4552        4553        4654        4653
         4        4553        4554        4655        4654
         4        4554        4555        4656        4655
         4        4555        4556        4657        4656
         4        4556        4557        4658        4657
         4        4557        4558        4659        4658
         4        4558        4559        4660        4659
         4        4559        4560        4661        4660
         4        4560        4561        4662        4661
         4        4561        4562        4663        4662
         4        4562        4563        4664        4663
         4        4563        4564        4665        4664
         4        4564        4565        4666        4665
         4        4565        4566        4667        4666
         4        4566        4567        4668        4667
         4        4567        4568        4669        4668
         4        4568        4569        4670        4669
         4        4569        4570        4671        4670
         4        4570        4571        4672        4671
         4        4571        4572        4673        4672
         4        4572        4573        4674        4673
         4        4573        4574        4675        4674
         4        4574        4575        4676        4675
         4        4575        4576        4677        4676
         4        4576        4577        4678        4677
         4        4577        4578        4679        4678
         4        4578        4579        4680        4679
         4        4579        4580        4681        4680
         4        4580        4581        4682        4681
         4        4581        4582        4683        4682
         4        4582        4583        4684        4683
         4        4583        4584        4685        4684
         4        4584        4585        4686        4685
         4        4585        4586        4687        4686
         4        4586        4587        4688        4687
         4        4587        4588        4689        4688
         4        4588        4589        4690        4689
         4        4589        4590        4691        4690
         4        4590        4591        4692        4691
         4        4591        4592        4693        4692
         4        4592        4593        4694        4693
         4        4593        4594        4695        4694
         4        4594        4595        4696        4695
         4        4595        4596        4697        4696
         4        4596        4597        4698        4697
         4        4597        4598        4699        4698
         4        4598        4599        4700        4699
         4        4599        4600        4701        4700
         4        4600        4601        4702        4701
         4        4601        4602        4703        4702
         4        4602        4603        4704        4703
         4        4603        4604        4705        4704
         4        4604        4605        4706        4705
         4        4605        4606        4707        4706
         4        4606        4607        4708        4707
         4        4607        4608        4709        4708
         4        4608        4609        4710        4709
         4        4609        4610        4711        4710
         4        4610        4611        4712        4711
         4        4611        4612        4713        4712
         4        4612        4613        4714        4713
         4        4613        4614        4715        4714
         4        4614        4615        4716        4715
         4        4615        4616        4717        4716
         4        4616        4617        4718        4717
         4        4617        4618        4719        4718
         4        4618        4619        4720        4719
         4        4619        4620        4721        4720
         4        4620        4621        4722        4721
         4        4621        4622        4723        4722
         4        4622        4623        4724        4723
         4        4623        4624        4725        4724
         4        4624        4625        4726        4725
         4        4625        4626        4727        4726
         4        4626        4627        4728        4727
         4        4627        4628        4729        4728
         4        4628        4629        4730        4729
         4        4629        4630        4731        4730
         4        4630        4631        4732        4731
         4        4631        4632        4733        4732
         4        4632        4633        4734        4733
         4        4633        4634        4735        4734
         4        4634        4635        4736        4735
         4        4635        4636        4737        4736
         4        4636        4637        4738        4737
         4        4637        4638        4739        4738
         4        4638        4639        4740        4739
         4        4639        4640        4741        4740
         4        4640        4641        4742        4741
         4        4641        4642        4743        4742
         4        4642        4643        4744        4743
         4        4643        4644        4745        4744
         4        4644        4645        4746        4745
         4        4646        4647        4748        4747
         4        4647        4648        4749        4748
         4        4648        4649        4750        4749
         4        4649        4650        4751        4750
         4        4650        4651        4752        4751
         4        4651        4652        4753        4752
         4        4652        4653        4754        4753
         4        4653        4654        4755        4754
         4        4654        4655        4756        4755
         4        4655        4656        4757        4756
         4        4656        4657        4758        4757
         4        4657        4658        4759        4758
         4        4658        4659        4760        4759
         4        4659        4660        4761        4760
         4        4660        4661        4762        4761
         4        4661        4662        4763        4762
         4        4662        4663        4764        4763
         4        4663        4664        4765        4764
         4        4664        4665        4766        4765
         4        4665        4666        4767        4766
         4        4666        4667        4768        4767
         4        4667        4668        4769        4768
         4        4668        4669        4770        4769
         4        4669        4670        4771        4770
         4        4670        4671        4772        4771
         4        4671        4672        4773        4772
         4        4672        4673        4774        4773
         4        4673        4674        4775        4774
         4        4674        4675        4776        4775
         4        4675        4676        4777        4776
         4        4676        4677        4778        4777
         4        4677        4678        4779        4778
         4        4678        4679        4780        4779
         4        4679        4680        4781        4780
         4        4680        4681        4782        4781
         4        4681        4682        4783        4782
         4        4682        4683        4784        4783
         4        4683        4684        4785        4784
         4        4684        4685        4786        4785
         4        4685        4686        4787        4786
         4        4686        4687        4788        4787
         4        4687        4688        4789        4788
         4        4688        4689        4790        4789
         4        4689        4690        4791        4790
         4        4690        4691        4792        4791
         4        4691        4692        4793        4792
         4        4692        4693        4794        4793
         4        4693        4694        4795        4794
         4        4694        4695        4796        4795
         4        4695        4696        4797        4796
         4        4696        4697        4798        4797
         4        4697        4698        4799        4798
         4        4698        4699        4800        4799
         4        4699        4700        4801        4800
         4        4700        4701        4802        4801
         4        4701        4702        4803        4802
         4        4702        4703        4804        4803
         4        4703        4704        4805        4804
         4        4704        4705        4806        4805
         4        4705        4706        4807        4806
         4        4706        4707        4808        4807
         4        4707        4708        4809        4808
         4        4708        4709        4810        4809
         4        4709        4710        4811        4810
         4        4710        4711        4812        4811
         4        4711        4712        4813        4812
         4        4712        4713        4814        4813
         4        4713        4714        4815        4814
         4        4714        4715        4816        4815
         4        4715        4716        4817        4816
         4        4716        4717        4818        4817
         4        4717        4718        4819        4818
         4        4718        4719        4820        4819
         4        4719        4720        4821        4820
         4        4720        4721        4822        4821
         4        4721        4722        4823        4822
         4        4722        4723        4824        4823
         4        4723        4724        4825        4824
         4        4724        4725        4826        4825
         4        4725        4726        4827        4826
         4        4726        4727        4828        4827
         4        4727        4728        4829        4828
         4        4728        4729        4830        4829
         4        4729        4730        4831        4830
         4        4730        4731        4832        4831
         4        4731        4732        4833        4832
         4        4732        4733        4834        4833
         4        4733        4734        4835        4834
         4        4734        4735        4836        4835
         4        4735        4736        4837        4836
         4        4736        4737        4838        4837
         4        4737        4738        4839        4838
         4        4738        4739        4840        4839
         4        4739        4740        4841        4840
         4        4740        4741        4842        4841
         4        4741        4742        4843        4842
         4        4742        4743        4844        4843
         4        4743        4744        4845        4844
         4        4744        4745        4846        4845
         4        4745        4746        4847        4846
         4        4747        4748        4849        4848
         4        4748        4749        4850        4849
         4        4749        4750        4851        4850
         4        4750        4751        4852        4851
         4        4751        4752        4853        4852
         4        4752        4753        4854        4853
         4        4753        4754        4855        4854
         4        4754        4755        4856        4855
         4        4755        4756        4857        4856
         4        4756        4757        4858        4857
         4        4757        4758        4859        4858
         4        4758        4759        4860        4859
         4        4759        4760        4861        4860
         4        4760        4761        4862        4861
         4        4761        4762        4863        4862
         4        4762        4763        4864        4863
         4        4763        4764        4865        4864
         4        4764        4765        4866        4865
         4        4765        4766        4867        4866
         4        4766        4767        4868        4867
         4        4767        4768        4869        4868
         4        4768        4769        4870        4869
         4        4769        4770        4871        4870
         4        4770        4771        4872        4871
         4        4771        4772        4873        4872
         4        4772        4773        4874        4873
         4        4773        4774        4875        4874
         4        4774        4775        4876        4875
         4        4775        4776        4877        4876
         4        4776        4777        4878        4877
         4        4777        4778        4879        4878
         4        4778        4779        4880        4879
         4        4779        4780        4881        4880
         4        4780        4781        4882        4881
         4        4781        4782        4883        4882
         4        4782        4783        4884        4883
         4        4783        4784        4885        4884
         4        4784        4785        4886        4885
         4        4785        4786        4887        4886
         4        4786        4787        4888        4887
         4        4787        4788        4889        4888
         4        4788        4789        4890        4889
         4        4789        4790        4891        4890
         4        4790        4791        4892        4891
         4        4791        4792        4893        4892
         4        4792        4793        4894        4893
         4        4793        4794        4895        4894
         4        4794        4795        4896        4895
         4        4795        4796        4897        4896
         4        4796        4797        4898        4897
         4        4797        4798        4899        4898
         4        4798        4799        4900        4899
         4        4799        4800        4901        4900
         4        4800        4801        4902        4901
         4        4801        4802        4903        4902
         4        4802        4803        4904        4903
         4        4803        4804        4905        4904
         4        4804        4805        4906        4905
         4        4805        4806        4907        4906
         4        4806        4807        4908        4907
         4        4807        4808        4909        4908
         4        4808        4809        4910        4909
         4        4809        4810        4911        4910
         4        4810        4811        4912        4911
         4        4811        4812        4913        4912
         4        4812        4813        4914        4913
         4        4813        4814        4915        4914
         4        4814        4815        4916        4915
         4        4815        4816        4917        4916
         4        4816        4817        4918        4917
         4        4817        4818        4919        4918
         4        4818        4819        4920        4919
         4        4819        4820        4921        4920
         4        4820        4821        4922        4921
         4        4821        4822        4923        4922
         4        4822        4823        4924        4923
         4        4823        4824        4925        4924
         4        4824        4825        4926        4925
         4        4825        4826        4927        4926
         4        4826        4827        4928        4927
         4        4827        4828        4929        4928
         4        4828        4829        4930        4929
         4        4829        4830        4931        4930
         4        4830        4831        4932        4931
         4        4831        4832        4933        4932
         4        4832        4833        4934        4933
         4        4833        4834        4935        4934
         4        4834        4835        4936        4935
         4        4835        4836        4937        4936
         4        4836        4837        4938        4937
         4        4837        4838        4939        4938
         4        4838        4839        4940        4939
         4        4839        4840        4941        4940
         4        4840        4841        4942        4941
         4        4841        4842        4943        4942
         4        4842        4843        4944        4943
         4        4843        4844        4945        4944
         4        4844        4845        4946        4945
         4        4845        4846        4947        4946
         4        4846        4847        4948        4947
         4        4848        4849        4950        4949
         4        4849        4850        4951        4950
         4        4850        4851        4952        4951
         4        4851        4852        4953        4952
         4        4852        4853        4954        4953
         4        4853        4854        4955        4954
         4        4854        4855        4956        4955
         4        4855        4856        4957        4956
         4        4856        4857        4958        4957
         4        4857        4858        4959        4958
         4        4858        4859        4960        4959
         4        4859        4860        4961        4960
         4        4860        4861        4962        4961
         4        4861        4862        4963        4962
         4        4862        4863        4964        4963
         4        4863        4864        4965        4964
         4        4864        4865        4966        4965
         4        4865        4866        4967        4966
         4        4866        4867        4968        4967
         4        4867        4868        4969        4968
         4        4868        4869        4970        4969
         4        4869        4870        4971        4970
         4        4870        4871        4972        4971
         4        4871        4872        4973        4972
         4        4872        4873        4974        4973
         4        4873        4874        4975        4974
         4        4874        4875        4976        4975
         4        4875        4876        4977        4976
         4        4876        4877        4978        4977
         4        4877        4878        4979        4978
         4        4878        4879        4980        4979
         4        4879        4880        4981        4980
         4        4880        4881        4982        4981
         4        4881        4882        4983        4982
         4        4882        4883        4984        4983
         4        4883        4884        4985        4984
         4        4884        4885        4986        4985
         4        4885        4886        4987        4986
         4        4886        4887        4988        4987
         4        4887        4888        4989        4988
         4        4888        4889        4990        4989
         4        4889        4890        4991        4990
         4        4890        4891        4992        4991
         4        4891        4892        4993        4992
         4        4892        4893        4994        4993
         4        4893        4894        4995        4994
         4        4894        4895        4996        4995
         4        4895        4896        4997        4996
         4        4896        4897        4998        4997
         4        4897        4898        4999        4998
         4        4898        4899        5000        4999
         4        4899        4900        5001        5000
         4        4900        4901        5002        5001
         4        4901        4902        5003        5002
         4        4902        4903        5004        5003
         4        4903        4904        5005        5004
         4        4904        4905        5006        5005
         4        4905        4906        5007        5006
         4        4906        4907        5008        5007
         4        4907        4908        5009        5008
         4        4908        4909        5010        5009
         4        4909        4910        5011        5010
         4        4910        4911        5012        5011
         4        4911        4912        5013        5012
         4        4912        4913        5014        5013
         4        4913        4914        5015        5014
         4        4914        4915        5016        5015
         4        4915        4916        5017        5016
         4        4916        4917        5018        5017
         4        4917        4918        5019        5018
         4        4918        4919        5020        5019
         4        4919        4920        5021        5020
         4        4920        4921        5022        5021
         4        4921        4922        5023        5022
         4        4922        4923        5024        5023
         4        4923        4924        5025        5024
         4        4924        4925        5026        5025
         4        4925        4926        5027        5026
         4        4926        4927        5028        5027
         4        4927        4928        5029        5028
         4        4928        4929        5030        5029
         4        4929        4930        5031        5030
         4        4930        4931        5032        5031
         4        4931        4932        5033        5032
         4        4932        4933        5034        5033
         4        4933        4934        5035        5034
         4        4934        4935        5036        5035
         4        4935        4936        5037        5036
         4        4936        4937        5038        5037
         4        4937        4938        5039        5038
         4        4938        4939        5040        5039
         4        4939        4940        5041        5040
         4        4940        4941        5042        5041
         4        4941        4942        5043        5042
         4        4942        4943        5044        5043
         4        4943        4944        5045        5044
         4        4944        4945        5046        5045
         4        4945        4946        5047        5046
         4        4946        4947        5048        5047
         4        4947        4948        5049        5048
         4        4949        4950        5051        5050
         4        4950        4951        5052        5051
         4        4951        4952        5053        5052
         4        4952        4953        5054        5053
         4        4953        4954        5055        5054
         4        4954        4955        5056        5055
         4        4955        4956        5057        5056
         4        4956        4957        5058        5057
         4        4957        4958        5059        5058
         4        4958        4959        5060        5059
         4        4959        4960        5061        5060
         4        4960        4961        5062        5061
         4        4961        4962        5063        5062
         4        4962        4963        5064        5063
         4        4963        4964        5065        5064
         4        4964        4965        5066        5065
         4        4965        4966        5067        5066
         4        4966        4967        5068        5067
         4        4967        4968        5069        5068
         4        4968        4969        5070        5069
         4        4969        4970        5071        5070
         4        4970        4971        5072        5071
         4        4971        4972        5073        5072
         4        4972        4973        5074        5073
         4        4973        4974        5075        5074
         4        4974        4975        5076        5075
         4        4975        4976        5077        5076
         4        4976        4977        5078        5077
         4        4977        4978        5079        5078
         4        4978        4979        5080        5079
         4        4979        4980        5081        5080
         4        4980        4981        5082        5081
         4        4981        4982        5083        5082
         4        4982        4983        5084        5083
         4        4983        4984        5085        5084
         4        4984        4985        5086        5085
         4        4985        4986        5087        5086
         4        4986        4987        5088        5087
         4        4987        4988        5089        5088
         4        4988        4989        5090        5089
         4        4989        4990        5091        5090
         4        4990        4991        5092        5091
         4        4991        4992        5093        5092
         4        4992        4993        5094        5093
         4        4993        4994        5095        5094
         4        4994        4995        5096        5095
         4        4995        4996        5097        5096
         4        4996        4997        5098        5097
         4        4997        4998        5099        5098
         4        4998        4999        5100        5099
         4        4999        5000        5101        5100
         4        5000        5001        5102        5101
         4        5001        5002        5103        5102
         4        5002        5003        5104        5103
         4        5003        5004        5105        5104
         4        5004        5005        5106        5105
         4        5005        5006        5107        5106
         4        5006        5007        5108        5107
         4        5007        5008        5109        5108
         4        5008        5009        5110        5109
         4        5009        5010        5111        5110
         4        5010        5011        5112        5111
         4        5011        5012        5113        5112
         4        5012        5013        5114        5113
         4        5013        5014        5115        5114
         4        5014        5015        5116        5115
         4        5015        5016        5117        5116
         4        5016        5017        5118        5117
         4        5017        5018        5119        5118
         4        5018        5019        5120        5119
         4        5019        5020        5121        5120
         4        5020        5021        5122        5121
         4        5021        5022        5123        5122
         4        5022        5023        5124        5123
         4        5023        5024        5125        5124
         4        5024        5025        5126        5125
         4        5025        5026        5127        5126
         4        5026        5027        5128        5127
         4        5027        5028        5129        5128
         4        5028        5029        5130        5129
         4        5029        5030        5131        5130
         4        5030        5031        5132        5131
         4        5031        5032        5133        5132
         4        5032        5033        5134        5133
         4        5033        5034        5135        5134
         4        5034        5035        5136        5135
         4        5035        5036        5137        5136
         4        5036        5037        5138        5137
         4        5037        5038        5139        5138
         4        5038        5039        5140        5139
         4        5039        5040        5141        5140
         4        5040        5041        5142        5141
         4        5041        5042        5143        5142
         4        5042        5043        5144        5143
         4        5043        5044        5145        5144
         4        5044        5045        5146        5145
         4        5045        5046        5147        5146
         4        5046        5047        5148        5147
         4        5047        5048        5149        5148
         4        5048        5049        5150        5149
CELL_TYPES       5000
9
9
9
9
9
9
9
9
9
9
9
9
9
9
9
9
9
9
9
9
9
9
9
9
9
9
9
9
9
9
9
9
9
9
9
9
9
9
9
9
9
9
9
9
9
9
9
9
9
9
9
9
9
9
9
9
9
9
9
9
9
9
9
9
9
9
9
9
9
9
9
9
9
9
9
9
9
9
9
9
9
9
9
9
9
9
9
9
9
9
9
9
9
9
9
9
9
9
9
9
9
9
9
9
9
9
9
9
9
9
9
9
9
9
9
9
9
9
9
9
9
9
9
9
9
9
9
9
9
9
9
9
9
9
9
9
9
9
9
9
9
9
9
9
9
9
9
9
9
9
9
9
9
9
9
9
9
9
9
9
9
9
9
9
9
9
9
9
9
9
9
9
9
9
9
9
9
9
9
9
9
9
9
9
9
9
9
9
9
9
9
9
9
9
9
9
9
9
9
9
9
9
9
9
9
9
9
9
9
9
9
9
9
9
9
9
9
9
9
9
9
9
9
9
9
9
9
9
9
9
9
9
9
9
9
9
9
9
9
9
9
9
9
9
9
9
9
9
9
9
9
9
9
9
9
9
9
9
9
9
9
9
9
9
9
9
9
9
9
9
9
9
9
9
9
9
9
9
9
9
9
9
9
9
9
9
9
9
9
9
9
9
9
9
9
9
9
9
9
9
9
9
9
9
9
9
9
9
9
9
9
9
9
9
9
9
9
9
9
9
9
9
9
9
9
9
9
9
9
9
9
9
9
9
9
9
9
9
9
9
9
9
9
9
9
9
9
9
9
9
9
9
9
9
9
9
9
9
9
9
9
9
9
9
9
9
9
9
9
9
9
9
9
9
9
9
9
9
9
9
9
9
9
9
9
9
9
9
9
9
9
9
9
9
9
9
9
9
9
9
9
9
9
9
9
9
9
9
9
9
9
9
9
9
9
9
9
9
9
9
9
9
9
9
9
9
9
9
9
9
9
9
9
9
9
9
9
9
9
9
9
9
9
9
9
9
9
9
9
9
9
9
9
9
9
9
9
9
9
9
9
9
9
9
9
9
9
9
9
9
9
9
9
9
9
9
9
9
9
9
9
9
9
9
9
9
9
9
9
9
9
9
9
9
9
9
9
9
9
9
9
9
9
9
9
9
9
9
9
9
9
9
9
9
9
9
9
9
9
9
9
9
9
9
9
9
9
9
9
9
9
9
9
9
9
9
9
9
9
9
9
9
9
9
9
9
9
9
9
9
9
9
9
9
9
9
9
9
9
9
9
9
9
9
9
9
9
9
9
9
9
9
9
9
9
9
9
9
9
9
9
9
9
9
9
9
9
9
9
9
9
9
9
9
9
9
9
9
9
9
9
9
9
9
9
9
9
9
9
9
9
9
9
9
9
9
9
9
9
9
9
9
9
9
9
9
9
9
9
9
9
9
9
9
9
9
9
9
9
9
9
9
9
9
9
9
9
9
9
9
9
9
9
9
9
9
9
9
9
9
9
9
9
9
9
9
9
9
9
9
9
9
9
9
9
9
9
9
9
9
9
9
9
9
9
9
9
9
9
9
9
9
9
9
9
9
9
9
9
9
9
9
9
9
9
9
9
9
9
9
9
9
9
9
9
9
9
9
9
9
9
9
9
9
9
9
9
9
9
9
9
9
9
9
9
9
9
9
9
9
9
9
9
9
9
9
9
9
9
9
9
9
9
9
9
9
9
9
9
9
9
9
9
9
9
9
9
9
9
9
9
9
9
9
9
9
9
9
9
9
9
9
9
9
9
9
9
9
9
9
9
9
9
9
9
9
9
9
9
9
9
9
9
9
9
9
9
9
9
9
9
9
9
9
9
9
9
9
9
9
9
9
9
9
9
9
9
9
9
9
9
9
9
9
9
9
9
9
9
9
9
9
9
9
9
9
9
9
9
9
9
9
9
9
9
9
9
9
9
9
9
9
9
9
9
9
9
9
9
9
9
9
9
9
9
9
9
9
9
9
9
9
9
9
9
9
9
9
9
9
9
9
9
9
9
9
9
9
9
9
9
9
9
9
9
9
9
9
9
9
9
9
9
9
9
9
9
9
9
9
9
9
9
9
9
9
9
9
9
9
9
9
9
9
9
9
9
9
9
9
9
9
9
9
9
9
9
9
9
9
9
9
9
9
9
9
9
9
9
9
9
9
9
9
9
9
9
9
9
9
9
9
9
9
9
9
9
9
9
9
9
9
9
9
9
9
9
9
9
9
9
9
9
9
9
9
9
9
9
9
9
9
9
9
9
9
9
9
9
9
9
9
9
9
9
9
9
9
9
9
9
9
9
9
9
9
9
9
9
9
9
9
9
9
9
9
9
9
9
9
9
9
9
9
9
9
9
9
9
9
9
9
9
9
9
9
9
9
9
9
9
9
9
9
9
9
9
9
9
9
9
9
9
9
9
9
9
9
9
9
9
9
9
9
9
9
9
9
9
9
9
9
9
9
9
9
9
9
9
9
9
9
9
9
9
9
9
9
9
9
9
9
9
9
9
9
9
9
9
9
9
9
9
9
9
9
9
9
9
9
9
9
9
9
9
9
9
9
9
9
9
9
9
9
9
9
9
9
9
9
9
9
9
9
9
9
9
9
9
9
9
9
9
9
9
9
9
9
9
9
9
9
9
9
9
9
9
9
9
9
9
9
9
9
9
9
9
9
9
9
9
9
9
9
9
9
9
9
9
9
9
9
9
9
9
9
9
9
9
9
9
9
9
9
9
9
9
9
9
9
9
9
9
9
9
9
9
9
9
9
9
9
9
9
9
9
9
9
9
9
9
9
9
9
9
9
9
9
9
9
9
9
9
9
9
9
9
9
9
9
9
9
9
9
9
9
9
9
9
9
9
9
9
9
9
9
9
9
9
9
9
9
9
9
9
9
9
9
9
9
9
9
9
9
9
9
9
9
9
9
9
9
9
9
9
9
9
9
9
9
9
9
9
9
9
9
9
9
9
9
9
9
9
9
9
9
9
9
9
9
9
9
9
9
9
9
9
9
9
9
9
9
9
9
9
9
9
9
9
9
9
9
9
9
9
9
9
9
9
9
9
9
9
9
9
9
9
9
9
9
9
9
9
9
9
9
9
9
9
9
9
9
9
9
9
9
9
9
9
9
9
9
9
9
9
9
9
9
9
9
9
9
9
9
9
9
9
9
9
9
9
9
9
9
9
9
9
9
9
9
9
9
9
9
9
9
9
9
9
9
9
9
9
9
9
9
9
9
9
9
9
9
9
9
9
9
9
9
9
9
9
9
9
9
9
9
9
9
9
9
9
9
9
9
9
9
9
9
9
9
9
9
9
9
9
9
9
9
9
9
9
9
9
9
9
9
9
9
9
9
9
9
9
9
9
9
9
9
9
9
9
9
9
9
9
9
9
9
9
9
9
9
9
9
9
9
9
9
9
9
9
9
9
9
9
9
9
9
9
9
9
9
9
9
9
9
9
9
9
9
9
9
9
9
9
9
9
9
9
9
9
9
9
9
9
9
9
9
9
9
9
9
9
9
9
9
9
9
9
9
9
9
9
9
9
9
9
9
9
9
9
9
9
9
9
9
9
9
9
9
9
9
9
9
9
9
9
9
9
9
9
9
9
9
9
9
9
9
9
9
9
9
9
9
9
9
9
9
9
9
9
9
9
9
9
9
9
9
9
9
9
9
9
9
9
9
9
9
9
9
9
9
9
9
9
9
9
9
9
9
9
9
9
9
9
9
9
9
9
9
9
9
9
9
9
9
9
9
9
9
9
9
9
9
9
9
9
9
9
9
9
9
9
9
9
9
9
9
9
9
9
9
9
9
9
9
9
9
9
9
9
9
9
9
9
9
9
9
9
9
9
9
9
9
9
9
9
9
9
9
9
9
9
9
9
9
9
9
9
9
9
9
9
9
9
9
9
9
9
9
9
9
9
9
9
9
9
9
9
9
9
9
9
9
9
9
9
9
9
9
9
9
9
9
9
9
9
9
9
9
9
9
9
9
9
9
9
9
9
9
9
9
9
9
9
9
9
9
9
9
9
9
9
9
9
9
9
9
9
9
9
9
9
9
9
9
9
9
9
9
9
9
9
9
9
9
9
9
9
9
9
9
9
9
9
9
9
9
9
9
9
9
9
9
9
9
9
9
9
9
9
9
9
9
9
9
9
9
9
9
9
9
9
9
9
9
9
9
9
9
9
9
9
9
9
9
9
9
9
9
9
9
9
9
9
9
9
9
9
9
9
9
9
9
9
9
9
9
9
9
9
9
9
9
9
9
9
9
9
9
9
9
9
9
9
9
9
9
9
9
9
9
9
9
9
9
9
9
9
9
9
9
9
9
9
9
9
9
9
9
9
9
9
9
9
9
9
9
9
9
9
9
9
9
9
9
9
9
9
9
9
9
9
9
9
9
9
9
9
9
9
9
9
9
9
9
9
9
9
9
9
9
9
9
9
9
9
9
9
9
9
9
9
9
9
9
9
9
9
9
9
9
9
9
9
9
9
9
9
9
9
9
9
9
9
9
9
9
9
9
9
9
9
9
9
9
9
9
9
9
9
9
9
9
9
9
9
9
9
9
9
9
9
9
9
9
9
9
9
9
9
9
9
9
9
9
9
9
9
9
9
9
9
9
9
9
9
9
9
9
9
9
9
9
9
9
9
9
9
9
9
9
9
9
9
9
9
9
9
9
9
9
9
9
9
9
9
9
9
9
9
9
9
9
9
9
9
9
9
9
9
9
9
9
9
9
9
9
9
9
9
9
9
9
9
9
9
9
9
9
9
9
9
9
9
9
9
9
9
9
9
9
9
9
9
9
9
9
9
9
9
9
9
9
9
9
9
9
9
9
9
9
9
9
9
9
9
9
9
9
9
9
9
9
9
9
9
9
9
9
9
9
9
9
9
9
9
9
9
9
9
9
9
9
9
9
9
9
9
9
9
9
9
9
9
9
9
9
9
9
9
9
9
9
9
9
9
9
9
9
9
9
9
9
9
9
9
9
9
9
9
9
9
9
9
9
9
9
9
9
9
9
9
9
9
9
9
9
9
9
9
9
9
9
9
9
9
9
9
9
9
9
9
9
9
9
9
9
9
9
9
9
9
9
9
9
9
9
9
9
9
9
9
9
9
9
9
9
9
9
9
9
9
9
9
9
9
9
9
9
9
9
9
9
9
9
9
9
9
9
9
9
9
9
9
9
9
9
9
9
9
9
9
9
9
9
9
9
9
9
9
9
9
9
9
9
9
9
9
9
9
9
9
9
9
9
9
9
9
9
9
9
9
9
9
9
9
9
9
9
9
9
9
9
9
9
9
9
9
9
9
9
9
9
9
9
9
9
9
9
9
9
9
9
9
9
9
9
9
9
9
9
9
9
9
9
9
9
9
9
9
9
9
9
9
9
9
9
9
9
9
9
9
9
9
9
9
9
9
9
9
9
9
9
9
9
9
9
9
9
9
9
9
9
9
9
9
9
9
9
9
9
9
9
9
9
9
9
9
9
9
9
9
9
9
9
9
9
9
9
9
9
9
9
9
9
9
9
9
9
9
9
9
9
9
9
9
9
9
9
9
9
9
9
9
9
9
9
9
9
9
9
9
9
9
9
9
9
9
9
9
9
9
9
9
9
9
9
9
9
9
9
9
9
9
9
9
9
9
9
9
9
9
9
9
9
9
9
9
9
9
9
9
9
9
9
9
9
9
9
9
9
9
9
9
9
9
9
9
9
9
9
9
9
9
9
9
9
9
9
9
9
9
9
9
9
9
9
9
9
9
9
9
9
9
9
9
9
9
9
9
9
9
9
9
9
9
9
9
9
9
9
9
9
9
9
9
9
9
9
9
9
9
9
9
9
9
9
9
9
9
9
9
9
9
9
9
9
9
9
9
9
9
9
9
9
9
9
9
9
9
9
9
9
9
9
9
9
9
9
9
9
9
9
9
9
9
9
9
9
9
9
9
9
9
9
9
9
9
9
9
9
9
9
9
9
9
9
9
9
9
9
9
9
9
9
9
9
9
9
9
9
9
9
9
9
9
9
9
9
9
9
9
9
9
9
9
9
9
9
9
9
9
9
9
9
9
9
9
9
9
9
9
9
9
9
9
9
9
9
9
9
9
9
9
9
9
9
9
9
9
9
9
9
9
9
9
9
9
9
9
9
9
9
9
9
9
9
9
9
9
9
9
9
9
9
9
9
9
9
9
9
9
9
9
9
9
9
9
9
9
9
9
9
9
9
9
9
9
9
9
9
9
9
9
9
9
9
9
9
9
9
9
9
9
9
9
9
9
9
9
9
9
9
9
9
9
9
9
9
9
9
9
9
9
9
9
9
9
9
9
9
9
9
9
9
9
9
9
9
9
9
9
9
9
9
9
9
9
9
9
9
9
9
9
9
9
9
9
9
9
9
9
9
9
9
9
9
9
9
9
9
9
9
9
9
9
9
9
9
9
9
9
9
9
9
9
9
9
9
9
9
9
9
9
9
9
9
9
9
9
9
9
9
9
9
9
9
9
9
9
9
9
9
9
9
9
9
9
9
9
9
9
9
9
9
9
9
9
9
9
9
9
9
9
9
9
9
9
9
9
9
9
9
9
9
9
9
9
9
9
9
9
9
9
9
9
9
9
9
9
9
9
9
9
9
9
9
9
9
9
9
9
9
9
9
9
9
9
9
9
9
9
9
9
9
9
9
9
9
9
9
9
9
9
9
9
9
9
9
9
9
9
9
9
9
9
9
9
9
9
9
9
9
9
9
9
9
9
9
9
9
9
9
9
9
9
9
9
9
9
9
9
9
9
9
9
9
9
9
9
9
9
9
9
9
9
9
9
9
9
9
9
9
9
9
9
9
9
9
9
9
9
9
9
9
9
9
9
9
9
9
9
9
9
9
9
9
9
9
9
9
9
9
9
9
9
9
9
9
9
9
9
9
9
9
9
9
9
9
9
9
9
9
9
9
9
9
9
9
9
9
9
9
9
9
9
9
9
9
9
9
9
9
9
9
9
9
9
9
9
9
9
9
9
9
9
9
9
9
9
9
9
9
9
9
9
9
9
9
9
9
9
9
9
9
9
9
9
9
9
9
9
9
9
9
9
9
9
9
9
9
9
9
9
9
9
9
9
9
9
9
9
9
9
9
9
9
9
9
9
9
9
9
9
9
9
9
9
9
9
9
9
9
9
9
9
9
9
9
9
9
9
9
9
9
9
9
9
9
9
9
9
9
9
9
9
9
9
9
9
9
9
9
9
9
9
9
9
9
9
9
9
9
9
9
9
9
9
9
9
9
9
9
9
9
9
9
9
9
9
9
9
9
9
9
9
9
9
9
9
9
9
9
9
9
9
9
9
9
9
9
9
9
9
9
9
9
9
9
9
9
9
9
9
9
9
9
9
9
9
9
9
9
9
9
9
9
9
9
9
9
9
9
9
9
9
9
9
9
9
9
9
9
9
9
9
9
9
9
9
9
9
9
9
9
9
9
9
9
9
9
9
9
9
9
9
9
9
9
9
9
9
9
9
9
9
9
9
9
9
9
9
9
9
9
9
9
9
9
9
9
9
9
9
9
9
9
9
9
9
9
9
9
9
9
9
9
9
9
9
9
9
9
9
9
9
9
9
9
9
9
9
9
9
9
9
9
9
9
9
9
9
9
9
9
9
9
9
9
9
9
9
9
9
9
9
9
9
9
9
9
9
9
9
9
9
9
9
9
9
9
9
9
9
9
9
9
9
9
9
9
9
9
9
9
9
9
9
9
9
9
9
9
9
9
9
9
9
9
9
9
9
9
9
9
9
9
9
9
9
9
9
9
9
9
9
9
9
9
9
9
9
9
9
9
9
9
9
9
9
9
9
9
9
9
9
9
9
9
9
9
9
9
9
9
9
9
9
9
9
9
9
9
9
9
9
9
9
9
9
9
9
9
9
9
9
9
9
9
9
9
9
9
9
9
9
9
9
9
9
9
9
9
9
9
9
9
9
9
9
9
9
9
9
9
9
9
9
9
9
9
9
9
9
9
9
9
9
9
9
9
9
9
9
9
9
9
9
9
9
9
9
9
9
9
9
9
9
9
9
9
9
9
9
9
9
9
9
9
9
9
9
9
9
9
9
9
9
9
9
9
9
9
9
9
9
9
9
9
9
9
9
9
9
9
9
9
9
9
9
9
9
9
9
9
9
9
9
9
9
9
9
9
9
9
9
9
9
9
9
9
9
9
9
9
9
9
9
9
9
9
9
9
9
9
9
9
9
9
9
9
9
9
9
9
9
9
9
9
9
9
9
9
9
9
9
9
9
9
9
9
9
9
9
9
9
9
9
9
9
9
9
9
9
9
9
9
9
9
9
9
9
9
9
9
9
9
9
9
9
9
9
9
9
9
9
9
9
9
9
9
9
9
9
9
9
9
9
9
9
9
9
9
9
9
9
9
9
9
9
9
9
9
9
9
9
9
9
9
9
9
9
9
9
9
9
9
9
9
9
9
9
9
9
9
9
9
9
9
9
9
9
9
9
9
9
9
9
9
9
9
9
9
9
9
9
9
9
9
9
9
9
9
9
9
9
9
9
9
9
9
9
9
9
9
9
9
9
9
9
9
9
9
9
9
9
9
9
9
9
9
9
9
9
9
9
9
9
9
9
9
9
9
9
9
9
9
9
9
9
9
9
9
9
9
9
9
9
9
9
9
9
9
9
9
9
9
9
9
9
9
9
9
9
9
9
9
9
9
9
9
9
9
9
9
9
9
9
9
9
9
9
9
9
9
9
9
9
9
9
9
9
9
9
9
9
9
9
9
9
9
9
9
9
9
9
9
9
9
9
9
9
9
9
9
9
9
9
9
9
9
9
9
9
9
9
9
9
9
9
9
9
9
9
9
9
9
9
9
9
9
9
9
9
9
9
9
9
9
9
9
9
9
9
9
9
9
9
9
9
9
9
9
9
9
9
9
9
9
9
9
9
9
9
9
9
9
9
9
9
9
9
9
9
9
9
9
9
9
9
9
9
9
9
9
9
9
9
9
9
9
9
9
9
9
9
9
9
9
9
9
9
9
9
9
9
9
9
9
9
9
9
9
9
9
9
9
9
9
9
9
9
9
9
9
9
9
9
9
9
9
9
9
9
9
9
9
9
9
9
9
9
9
9
9
9
9
9
9
9
9
9
9
9
9
9
9
9
9
9
9
9
9
9
9
9
9
9
9
9
9
9
9
9
9
9
9
9
9
9
9
9
9
9
9
9
9
9
9
9
9
9
9
9
9
9
9
9
9
9
9
9
9
9
9
9
9
9
9
9
9
9
9
9
9
9
9
9
9
9
9
9
9
9
9
9
9
9
9
9
9
9
9
9
9
9
9
9
9
9
9
9
9
9
9
9
9
9
9
9
9
9
9
9
9
9
9
9
9
9
9
9
9
9
9
9
9
9
9
9
9
9
9
9
9
9
9
9
9
9
9
9
9
9
9
9
9
9
9
9
9
9
9
9
9
9
9
9
9
9
9
9
9
9
9
9
9
9
9
9
9
9
9
9
9
9
9
9
9
9
9
9
9
9
9
9
9
9
9
9
9
9
9
9
9
9
9
9
9
9
9
9
9
9
9
9
9
9
9
9
9
9
9
9
9
9
9
9
9
9
9
9
9
9
9
9
9
9
9
9
9
9
9
9
9
9
9
9
9
9
9
9
9
9
9
9
9
9
9
9
9
9
9
9
9
9
9
9
9
9
9
9
9
9
9
9
9
9
9
9
9
9
9
9
9
9
9
9
9
9
9
9
9
9
9
9
9
9
9
9
9
9
9
9
9
9
9
9
9
9
9
9
9
9
9
9
9
9
9
9
9
9
9
9
9
9
9
9
9
9
9
9
9
9
9
9
9
9
9
9
9
9
9
9
9
9
9
9
9
9
9
9
9
9
9
9
9
9
9
9
9
9
9
9
9
9
9
9
9
9
9
9
9
9
9
9
9
9
9
9
9
9
9
9
9
9
9
9
9
9
9
9
9
9
9
9
9
9
9
9
9
9
9
9
9
9
9
9
9
9
9
9
9
9
9
9
9
9
9
9
9
9
9
9
9
9
9
9
9
9
9
9
9
9
9
9
9
9
9
9
9
9
9
9
9
9
9
9
9
9
9
9
9
9
9
9
9
9
9
9
9
9
9
9
9
9
9
9
9
9
9
9
9
9
9
9
9
9
9
9
9
9
9
9
9
9
9
9
9
9
9
9
9
9
9
9
9
9
9
9
9
9
9
9
9
9
9
9
9
9
9
9
9
9
9
9
9
9
9
9
9
9
9
9
9
9
9
9
9
9
9
9
9
9
9
9
9
9
9
9
9
9
9
9
9
9
9
9
9
9
9
9
9
9
9
9
9
9
9
9
9
9
9
9
9
9
9
9
9
9
9
9
9
9
9
9
9
9
9
9
9
9
9
9
9
9
9
9
9
9
9
9
9
9
9
9
9
9
9
9
9
9
9
9
9
9
9
9
9
9
9
9
9
9
9
9
9
9
9
9
9
9
9
9
9
9
9
9
9
9
9
9
9
9
9
9
9
9
9
9
9
9
9
9
9
9
9
9
9
9
9
9
9
9
9
9
9
9
9
9
9
9
9
9
9
9
9
9
9
9
9
9
9
9
9
9
9
9
9
9
9
9
9
9
9
9
9
9
9
9
9
9
9
9
9
9
9
9
9
9
9
9
9
9
9
9
9
9
9
9
9
9
9
9
9
9
9
9
9
9
9
9
9
9
9
9
9
9
9
9
9
9
9
9
9
9
9
9
9
9
9
9
9
9
9
9
9
9
9
9
9
9
9
9
9
9
9
9
9
9
9
9
9
9
9
9
9
9
9
9
9
9
9
9
9
9
9
9
9
9
9
9
9
9
9
9
9
9
9
9
9
9
9
9
9
9
9
9
9
9
9
9
9
9
9
9
9
9
9
9
9
9
9
9
9
9
9
9
9
9
9
9
9
9
9
9
9
9
9
9
9
9
9
9
9
9
9
9
9
9
9
9
9
9
9
9
9
9
9
9
9
9
9
9
9
9
9
9
9
9
9
9
9
9
9
9
9
9
9
9
9
9
9
9
9
9
9
9
9
9
9
9
9
9
9
9
9
9
9
9
9
9
9
9
9
9
9
9
9
9
9
9
9
9
9
9
9
9
9
9
9
9
9
9
9
9
9
9
9
9
9
9
9
9
9
9
9
9
9
9
9
9
9
9
9
9
9
9
9
9
9
9
9
9
9
9
9
9
9
9
9
9
9
9
9
9
9
9
9
POINT_DATA      5151
SCALARS p double 
LOOKUP_TABLE default
   70000000.0000000     
   69498940.4166538     
   68998753.7477573     
   68500242.9746297     
   68004131.6641256     
   67511069.3292069     
   67021636.4624294     
   66536349.2608734     
   66055664.0600432     
   65579981.4933154     
   65109650.3926107     
   64644971.4451202     
   64186200.6201066     
   63733552.3790393     
   63287202.6816027     
   62847291.7994338     
   62413926.9487991     
   61987184.7528126     
   61567113.5432168     
   61153735.5112043     
   60747048.7162424     
   60347028.9613776     
   59953631.5430316     
   59566792.8828721     
   59186432.0489259     
   58812452.1727231     
   58444741.7688849     
   58083175.9632351     
   57727617.6351838     
   57377918.4798302     
   57033919.9949433     
   56695454.3977104     
   56362345.4758892     
   56034409.3777608     
   55711455.3450619     
   55393286.3928593     
   55079699.9401403     
   54770488.3947100     
   54465439.6958123     
   54164337.8177408     
   53866963.2375522     
   53573093.3698673     
   53282502.9716127     
   52994964.5194466     
   52710248.5625080     
   52428124.0530283     
   52148358.6572657     
   51870719.0491415     
   51594971.1888898     
   51320880.5889746     
   51048212.5694748     
   50776732.5050966     
   50506206.0659374     
   50236399.4540973     
   49967079.6382166     
   49698014.5880066     
   49428973.5108350     
   49159727.0924351     
   48890047.7438166     
   48619709.8564785     
   48348490.0680492     
   48076167.5405164     
   47802524.2532527     
   47527345.3130946     
   47250419.2837902     
   46971538.5372043     
   46690499.6287399     
   46407103.6995282     
   46121156.9080308     
   45832470.8937994     
   45540863.2762618     
   45246158.1915159     
   44948186.8702601     
   44646788.2601228     
   44341809.6958240     
   44033107.6207563     
   43720548.3637679     
   43404008.9751132     
   43083378.1257531     
   42758557.0744008     
   42429460.7069516     
   42096018.6531831     
   41758176.4858803     
   41415897.0078281     
   41069161.6324103     
   40717971.8638819     
   40362350.8837160     
   40002345.2497941     
   39638026.7155854     
   39269494.1768713     
   38896875.7539991     
   38520331.0181021     
   38140053.3702098     
   37756272.5826746     
   37369257.5128853     
   36979318.9998074     
   36586812.9544870     
   36192143.6563011     
   35795767.2674007     
   35398195.5785107     
   35000000.0000000     
   70000000.0000000     
   69498940.4166538     
   68998753.7477573     
   68500242.9746297     
   68004131.6641256     
   67511069.3292069     
   67021636.4624294     
   66536349.2608734     
   66055664.0600433     
   65579981.4933154     
   65109650.3926107     
   64644971.4451202     
   64186200.6201067     
   63733552.3790393     
   63287202.6816027     
   62847291.7994338     
   62413926.9487991     
   61987184.7528126     
   61567113.5432169     
   61153735.5112043     
   60747048.7162424     
   60347028.9613776     
   59953631.5430316     
   59566792.8828721     
   59186432.0489259     
   58812452.1727232     
   58444741.7688849     
   58083175.9632351     
   57727617.6351838     
   57377918.4798303     
   57033919.9949433     
   56695454.3977104     
   56362345.4758892     
   56034409.3777608     
   55711455.3450619     
   55393286.3928593     
   55079699.9401403     
   54770488.3947100     
   54465439.6958123     
   54164337.8177408     
   53866963.2375522     
   53573093.3698673     
   53282502.9716127     
   52994964.5194467     
   52710248.5625080     
   52428124.0530283     
   52148358.6572657     
   51870719.0491415     
   51594971.1888898     
   51320880.5889746     
   51048212.5694748     
   50776732.5050966     
   50506206.0659374     
   50236399.4540973     
   49967079.6382166     
   49698014.5880066     
   49428973.5108349     
   49159727.0924351     
   48890047.7438166     
   48619709.8564786     
   48348490.0680492     
   48076167.5405164     
   47802524.2532527     
   47527345.3130946     
   47250419.2837903     
   46971538.5372043     
   46690499.6287399     
   46407103.6995282     
   46121156.9080308     
   45832470.8937994     
   45540863.2762618     
   45246158.1915160     
   44948186.8702601     
   44646788.2601228     
   44341809.6958240     
   44033107.6207563     
   43720548.3637679     
   43404008.9751132     
   43083378.1257531     
   42758557.0744008     
   42429460.7069516     
   42096018.6531831     
   41758176.4858803     
   41415897.0078281     
   41069161.6324104     
   40717971.8638819     
   40362350.8837160     
   40002345.2497941     
   39638026.7155854     
   39269494.1768713     
   38896875.7539990     
   38520331.0181021     
   38140053.3702098     
   37756272.5826746     
   37369257.5128853     
   36979318.9998074     
   36586812.9544870     
   36192143.6563011     
   35795767.2674007     
   35398195.5785107     
   35000000.0000000     
   70000000.0000000     
   69498940.4166538     
   68998753.7477573     
   68500242.9746297     
   68004131.6641256     
   67511069.3292069     
   67021636.4624294     
   66536349.2608734     
   66055664.0600433     
   65579981.4933155     
   65109650.3926107     
   64644971.4451202     
   64186200.6201067     
   63733552.3790393     
   63287202.6816028     
   62847291.7994338     
   62413926.9487991     
   61987184.7528126     
   61567113.5432169     
   61153735.5112043     
   60747048.7162423     
   60347028.9613776     
   59953631.5430317     
   59566792.8828721     
   59186432.0489259     
   58812452.1727231     
   58444741.7688849     
   58083175.9632351     
   57727617.6351839     
   57377918.4798303     
   57033919.9949433     
   56695454.3977104     
   56362345.4758892     
   56034409.3777608     
   55711455.3450620     
   55393286.3928593     
   55079699.9401403     
   54770488.3947100     
   54465439.6958123     
   54164337.8177408     
   53866963.2375522     
   53573093.3698673     
   53282502.9716127     
   52994964.5194467     
   52710248.5625080     
   52428124.0530284     
   52148358.6572657     
   51870719.0491415     
   51594971.1888898     
   51320880.5889746     
   51048212.5694748     
   50776732.5050966     
   50506206.0659374     
   50236399.4540974     
   49967079.6382166     
   49698014.5880066     
   49428973.5108350     
   49159727.0924351     
   48890047.7438166     
   48619709.8564786     
   48348490.0680492     
   48076167.5405164     
   47802524.2532527     
   47527345.3130946     
   47250419.2837902     
   46971538.5372043     
   46690499.6287399     
   46407103.6995282     
   46121156.9080307     
   45832470.8937994     
   45540863.2762617     
   45246158.1915160     
   44948186.8702600     
   44646788.2601229     
   44341809.6958240     
   44033107.6207564     
   43720548.3637679     
   43404008.9751132     
   43083378.1257531     
   42758557.0744008     
   42429460.7069517     
   42096018.6531831     
   41758176.4858803     
   41415897.0078281     
   41069161.6324104     
   40717971.8638819     
   40362350.8837160     
   40002345.2497941     
   39638026.7155854     
   39269494.1768713     
   38896875.7539990     
   38520331.0181020     
   38140053.3702098     
   37756272.5826746     
   37369257.5128854     
   36979318.9998074     
   36586812.9544870     
   36192143.6563011     
   35795767.2674007     
   35398195.5785107     
   35000000.0000000     
   70000000.0000000     
   69498940.4166538     
   68998753.7477572     
   68500242.9746297     
   68004131.6641255     
   67511069.3292068     
   67021636.4624294     
   66536349.2608733     
   66055664.0600432     
   65579981.4933155     
   65109650.3926107     
   64644971.4451203     
   64186200.6201066     
   63733552.3790393     
   63287202.6816027     
   62847291.7994338     
   62413926.9487991     
   61987184.7528126     
   61567113.5432170     
   61153735.5112043     
   60747048.7162423     
   60347028.9613776     
   59953631.5430317     
   59566792.8828720     
   59186432.0489259     
   58812452.1727232     
   58444741.7688849     
   58083175.9632351     
   57727617.6351839     
   57377918.4798303     
   57033919.9949433     
   56695454.3977105     
   56362345.4758892     
   56034409.3777608     
   55711455.3450620     
   55393286.3928593     
   55079699.9401404     
   54770488.3947100     
   54465439.6958123     
   54164337.8177408     
   53866963.2375522     
   53573093.3698673     
   53282502.9716127     
   52994964.5194467     
   52710248.5625081     
   52428124.0530284     
   52148358.6572657     
   51870719.0491415     
   51594971.1888898     
   51320880.5889746     
   51048212.5694748     
   50776732.5050966     
   50506206.0659374     
   50236399.4540974     
   49967079.6382167     
   49698014.5880065     
   49428973.5108350     
   49159727.0924351     
   48890047.7438167     
   48619709.8564786     
   48348490.0680492     
   48076167.5405164     
   47802524.2532528     
   47527345.3130946     
   47250419.2837903     
   46971538.5372043     
   46690499.6287399     
   46407103.6995282     
   46121156.9080308     
   45832470.8937995     
   45540863.2762618     
   45246158.1915160     
   44948186.8702600     
   44646788.2601229     
   44341809.6958240     
   44033107.6207564     
   43720548.3637679     
   43404008.9751132     
   43083378.1257531     
   42758557.0744008     
   42429460.7069517     
   42096018.6531831     
   41758176.4858803     
   41415897.0078281     
   41069161.6324104     
   40717971.8638819     
   40362350.8837160     
   40002345.2497941     
   39638026.7155854     
   39269494.1768713     
   38896875.7539990     
   38520331.0181020     
   38140053.3702098     
   37756272.5826746     
   37369257.5128854     
   36979318.9998074     
   36586812.9544870     
   36192143.6563011     
   35795767.2674007     
   35398195.5785107     
   35000000.0000000     
   70000000.0000000     
   69498940.4166538     
   68998753.7477572     
   68500242.9746297     
   68004131.6641255     
   67511069.3292068     
   67021636.4624293     
   66536349.2608733     
   66055664.0600432     
   65579981.4933155     
   65109650.3926107     
   64644971.4451202     
   64186200.6201066     
   63733552.3790393     
   63287202.6816027     
   62847291.7994338     
   62413926.9487991     
   61987184.7528127     
   61567113.5432170     
   61153735.5112043     
   60747048.7162423     
   60347028.9613776     
   59953631.5430317     
   59566792.8828720     
   59186432.0489259     
   58812452.1727231     
   58444741.7688849     
   58083175.9632352     
   57727617.6351839     
   57377918.4798304     
   57033919.9949434     
   56695454.3977105     
   56362345.4758892     
   56034409.3777608     
   55711455.3450620     
   55393286.3928593     
   55079699.9401404     
   54770488.3947100     
   54465439.6958123     
   54164337.8177408     
   53866963.2375522     
   53573093.3698673     
   53282502.9716127     
   52994964.5194467     
   52710248.5625081     
   52428124.0530284     
   52148358.6572656     
   51870719.0491415     
   51594971.1888898     
   51320880.5889746     
   51048212.5694749     
   50776732.5050967     
   50506206.0659375     
   50236399.4540973     
   49967079.6382167     
   49698014.5880066     
   49428973.5108350     
   49159727.0924351     
   48890047.7438167     
   48619709.8564786     
   48348490.0680492     
   48076167.5405165     
   47802524.2532528     
   47527345.3130946     
   47250419.2837903     
   46971538.5372044     
   46690499.6287399     
   46407103.6995282     
   46121156.9080308     
   45832470.8937994     
   45540863.2762618     
   45246158.1915160     
   44948186.8702601     
   44646788.2601229     
   44341809.6958240     
   44033107.6207564     
   43720548.3637679     
   43404008.9751132     
   43083378.1257532     
   42758557.0744008     
   42429460.7069517     
   42096018.6531831     
   41758176.4858803     
   41415897.0078281     
   41069161.6324104     
   40717971.8638819     
   40362350.8837160     
   40002345.2497941     
   39638026.7155854     
   39269494.1768712     
   38896875.7539990     
   38520331.0181020     
   38140053.3702098     
   37756272.5826745     
   37369257.5128854     
   36979318.9998074     
   36586812.9544870     
   36192143.6563011     
   35795767.2674007     
   35398195.5785107     
   35000000.0000000     
   70000000.0000000     
   69498940.4166538     
   68998753.7477572     
   68500242.9746296     
   68004131.6641255     
   67511069.3292067     
   67021636.4624292     
   66536349.2608732     
   66055664.0600432     
   65579981.4933154     
   65109650.3926107     
   64644971.4451202     
   64186200.6201066     
   63733552.3790393     
   63287202.6816027     
   62847291.7994338     
   62413926.9487991     
   61987184.7528128     
   61567113.5432170     
   61153735.5112043     
   60747048.7162424     
   60347028.9613776     
   59953631.5430317     
   59566792.8828720     
   59186432.0489259     
   58812452.1727231     
   58444741.7688850     
   58083175.9632352     
   57727617.6351839     
   57377918.4798304     
   57033919.9949434     
   56695454.3977106     
   56362345.4758892     
   56034409.3777609     
   55711455.3450620     
   55393286.3928593     
   55079699.9401404     
   54770488.3947100     
   54465439.6958123     
   54164337.8177407     
   53866963.2375522     
   53573093.3698673     
   53282502.9716127     
   52994964.5194467     
   52710248.5625081     
   52428124.0530284     
   52148358.6572657     
   51870719.0491415     
   51594971.1888898     
   51320880.5889746     
   51048212.5694749     
   50776732.5050967     
   50506206.0659375     
   50236399.4540973     
   49967079.6382167     
   49698014.5880065     
   49428973.5108350     
   49159727.0924352     
   48890047.7438167     
   48619709.8564786     
   48348490.0680493     
   48076167.5405164     
   47802524.2532528     
   47527345.3130946     
   47250419.2837903     
   46971538.5372044     
   46690499.6287399     
   46407103.6995283     
   46121156.9080309     
   45832470.8937995     
   45540863.2762617     
   45246158.1915159     
   44948186.8702601     
   44646788.2601229     
   44341809.6958240     
   44033107.6207564     
   43720548.3637679     
   43404008.9751132     
   43083378.1257532     
   42758557.0744008     
   42429460.7069517     
   42096018.6531831     
   41758176.4858803     
   41415897.0078281     
   41069161.6324103     
   40717971.8638819     
   40362350.8837160     
   40002345.2497942     
   39638026.7155854     
   39269494.1768713     
   38896875.7539990     
   38520331.0181020     
   38140053.3702098     
   37756272.5826745     
   37369257.5128853     
   36979318.9998074     
   36586812.9544870     
   36192143.6563011     
   35795767.2674007     
   35398195.5785107     
   35000000.0000000     
   70000000.0000000     
   69498940.4166537     
   68998753.7477572     
   68500242.9746295     
   68004131.6641255     
   67511069.3292067     
   67021636.4624291     
   66536349.2608731     
   66055664.0600431     
   65579981.4933154     
   65109650.3926107     
   64644971.4451202     
   64186200.6201066     
   63733552.3790393     
   63287202.6816027     
   62847291.7994338     
   62413926.9487992     
   61987184.7528128     
   61567113.5432170     
   61153735.5112043     
   60747048.7162424     
   60347028.9613775     
   59953631.5430318     
   59566792.8828720     
   59186432.0489259     
   58812452.1727231     
   58444741.7688849     
   58083175.9632352     
   57727617.6351840     
   57377918.4798304     
   57033919.9949435     
   56695454.3977105     
   56362345.4758893     
   56034409.3777608     
   55711455.3450620     
   55393286.3928593     
   55079699.9401403     
   54770488.3947100     
   54465439.6958123     
   54164337.8177407     
   53866963.2375521     
   53573093.3698674     
   53282502.9716127     
   52994964.5194467     
   52710248.5625082     
   52428124.0530284     
   52148358.6572656     
   51870719.0491414     
   51594971.1888898     
   51320880.5889746     
   51048212.5694748     
   50776732.5050966     
   50506206.0659375     
   50236399.4540973     
   49967079.6382167     
   49698014.5880065     
   49428973.5108350     
   49159727.0924352     
   48890047.7438167     
   48619709.8564786     
   48348490.0680493     
   48076167.5405165     
   47802524.2532528     
   47527345.3130946     
   47250419.2837903     
   46971538.5372044     
   46690499.6287399     
   46407103.6995283     
   46121156.9080308     
   45832470.8937994     
   45540863.2762617     
   45246158.1915159     
   44948186.8702601     
   44646788.2601229     
   44341809.6958240     
   44033107.6207564     
   43720548.3637678     
   43404008.9751132     
   43083378.1257531     
   42758557.0744008     
   42429460.7069517     
   42096018.6531831     
   41758176.4858803     
   41415897.0078280     
   41069161.6324103     
   40717971.8638819     
   40362350.8837160     
   40002345.2497941     
   39638026.7155853     
   39269494.1768713     
   38896875.7539990     
   38520331.0181020     
   38140053.3702098     
   37756272.5826745     
   37369257.5128853     
   36979318.9998073     
   36586812.9544870     
   36192143.6563011     
   35795767.2674006     
   35398195.5785107     
   35000000.0000000     
   70000000.0000000     
   69498940.4166537     
   68998753.7477571     
   68500242.9746295     
   68004131.6641254     
   67511069.3292066     
   67021636.4624291     
   66536349.2608731     
   66055664.0600430     
   65579981.4933153     
   65109650.3926107     
   64644971.4451202     
   64186200.6201066     
   63733552.3790392     
   63287202.6816028     
   62847291.7994338     
   62413926.9487992     
   61987184.7528128     
   61567113.5432170     
   61153735.5112043     
   60747048.7162424     
   60347028.9613775     
   59953631.5430318     
   59566792.8828720     
   59186432.0489259     
   58812452.1727231     
   58444741.7688849     
   58083175.9632351     
   57727617.6351839     
   57377918.4798304     
   57033919.9949435     
   56695454.3977106     
   56362345.4758892     
   56034409.3777608     
   55711455.3450620     
   55393286.3928593     
   55079699.9401403     
   54770488.3947099     
   54465439.6958123     
   54164337.8177407     
   53866963.2375521     
   53573093.3698673     
   53282502.9716127     
   52994964.5194467     
   52710248.5625082     
   52428124.0530283     
   52148358.6572656     
   51870719.0491414     
   51594971.1888898     
   51320880.5889746     
   51048212.5694749     
   50776732.5050966     
   50506206.0659374     
   50236399.4540973     
   49967079.6382166     
   49698014.5880065     
   49428973.5108350     
   49159727.0924351     
   48890047.7438167     
   48619709.8564786     
   48348490.0680494     
   48076167.5405164     
   47802524.2532528     
   47527345.3130946     
   47250419.2837903     
   46971538.5372044     
   46690499.6287399     
   46407103.6995282     
   46121156.9080309     
   45832470.8937994     
   45540863.2762617     
   45246158.1915159     
   44948186.8702601     
   44646788.2601229     
   44341809.6958239     
   44033107.6207563     
   43720548.3637679     
   43404008.9751132     
   43083378.1257531     
   42758557.0744008     
   42429460.7069516     
   42096018.6531831     
   41758176.4858802     
   41415897.0078280     
   41069161.6324102     
   40717971.8638818     
   40362350.8837160     
   40002345.2497941     
   39638026.7155853     
   39269494.1768713     
   38896875.7539990     
   38520331.0181020     
   38140053.3702098     
   37756272.5826745     
   37369257.5128853     
   36979318.9998073     
   36586812.9544869     
   36192143.6563011     
   35795767.2674006     
   35398195.5785107     
   35000000.0000000     
   70000000.0000000     
   69498940.4166536     
   68998753.7477570     
   68500242.9746294     
   68004131.6641254     
   67511069.3292065     
   67021636.4624291     
   66536349.2608730     
   66055664.0600429     
   65579981.4933153     
   65109650.3926107     
   64644971.4451201     
   64186200.6201066     
   63733552.3790392     
   63287202.6816028     
   62847291.7994337     
   62413926.9487992     
   61987184.7528128     
   61567113.5432170     
   61153735.5112043     
   60747048.7162423     
   60347028.9613775     
   59953631.5430318     
   59566792.8828720     
   59186432.0489259     
   58812452.1727231     
   58444741.7688850     
   58083175.9632351     
   57727617.6351839     
   57377918.4798304     
   57033919.9949435     
   56695454.3977106     
   56362345.4758892     
   56034409.3777608     
   55711455.3450620     
   55393286.3928592     
   55079699.9401403     
   54770488.3947100     
   54465439.6958123     
   54164337.8177408     
   53866963.2375521     
   53573093.3698673     
   53282502.9716127     
   52994964.5194466     
   52710248.5625082     
   52428124.0530283     
   52148358.6572656     
   51870719.0491414     
   51594971.1888898     
   51320880.5889746     
   51048212.5694748     
   50776732.5050966     
   50506206.0659374     
   50236399.4540973     
   49967079.6382166     
   49698014.5880065     
   49428973.5108350     
   49159727.0924351     
   48890047.7438167     
   48619709.8564786     
   48348490.0680493     
   48076167.5405165     
   47802524.2532529     
   47527345.3130945     
   47250419.2837903     
   46971538.5372045     
   46690499.6287399     
   46407103.6995282     
   46121156.9080308     
   45832470.8937993     
   45540863.2762617     
   45246158.1915159     
   44948186.8702600     
   44646788.2601228     
   44341809.6958239     
   44033107.6207563     
   43720548.3637678     
   43404008.9751131     
   43083378.1257530     
   42758557.0744008     
   42429460.7069516     
   42096018.6531831     
   41758176.4858802     
   41415897.0078279     
   41069161.6324102     
   40717971.8638818     
   40362350.8837160     
   40002345.2497941     
   39638026.7155853     
   39269494.1768713     
   38896875.7539989     
   38520331.0181020     
   38140053.3702097     
   37756272.5826745     
   37369257.5128853     
   36979318.9998073     
   36586812.9544869     
   36192143.6563010     
   35795767.2674006     
   35398195.5785107     
   35000000.0000000     
   70000000.0000000     
   69498940.4166536     
   68998753.7477570     
   68500242.9746294     
   68004131.6641254     
   67511069.3292065     
   67021636.4624290     
   66536349.2608730     
   66055664.0600430     
   65579981.4933153     
   65109650.3926106     
   64644971.4451202     
   64186200.6201066     
   63733552.3790393     
   63287202.6816027     
   62847291.7994338     
   62413926.9487991     
   61987184.7528128     
   61567113.5432170     
   61153735.5112043     
   60747048.7162423     
   60347028.9613775     
   59953631.5430318     
   59566792.8828720     
   59186432.0489258     
   58812452.1727231     
   58444741.7688850     
   58083175.9632351     
   57727617.6351839     
   57377918.4798304     
   57033919.9949435     
   56695454.3977106     
   56362345.4758892     
   56034409.3777608     
   55711455.3450620     
   55393286.3928592     
   55079699.9401403     
   54770488.3947100     
   54465439.6958123     
   54164337.8177407     
   53866963.2375521     
   53573093.3698673     
   53282502.9716126     
   52994964.5194466     
   52710248.5625082     
   52428124.0530283     
   52148358.6572656     
   51870719.0491414     
   51594971.1888897     
   51320880.5889746     
   51048212.5694748     
   50776732.5050966     
   50506206.0659374     
   50236399.4540973     
   49967079.6382166     
   49698014.5880066     
   49428973.5108349     
   49159727.0924351     
   48890047.7438167     
   48619709.8564787     
   48348490.0680494     
   48076167.5405165     
   47802524.2532529     
   47527345.3130946     
   47250419.2837903     
   46971538.5372045     
   46690499.6287399     
   46407103.6995282     
   46121156.9080308     
   45832470.8937993     
   45540863.2762617     
   45246158.1915159     
   44948186.8702600     
   44646788.2601228     
   44341809.6958239     
   44033107.6207563     
   43720548.3637678     
   43404008.9751130     
   43083378.1257530     
   42758557.0744007     
   42429460.7069516     
   42096018.6531831     
   41758176.4858802     
   41415897.0078279     
   41069161.6324102     
   40717971.8638817     
   40362350.8837160     
   40002345.2497940     
   39638026.7155853     
   39269494.1768712     
   38896875.7539989     
   38520331.0181020     
   38140053.3702097     
   37756272.5826745     
   37369257.5128852     
   36979318.9998072     
   36586812.9544868     
   36192143.6563010     
   35795767.2674006     
   35398195.5785107     
   35000000.0000000     
   70000000.0000000     
   69498940.4166536     
   68998753.7477569     
   68500242.9746293     
   68004131.6641253     
   67511069.3292065     
   67021636.4624288     
   66536349.2608728     
   66055664.0600430     
   65579981.4933153     
   65109650.3926106     
   64644971.4451202     
   64186200.6201065     
   63733552.3790393     
   63287202.6816027     
   62847291.7994338     
   62413926.9487992     
   61987184.7528128     
   61567113.5432171     
   61153735.5112043     
   60747048.7162422     
   60347028.9613774     
   59953631.5430318     
   59566792.8828719     
   59186432.0489258     
   58812452.1727231     
   58444741.7688849     
   58083175.9632351     
   57727617.6351839     
   57377918.4798304     
   57033919.9949435     
   56695454.3977105     
   56362345.4758892     
   56034409.3777608     
   55711455.3450619     
   55393286.3928592     
   55079699.9401402     
   54770488.3947099     
   54465439.6958123     
   54164337.8177407     
   53866963.2375521     
   53573093.3698672     
   53282502.9716125     
   52994964.5194466     
   52710248.5625082     
   52428124.0530283     
   52148358.6572657     
   51870719.0491413     
   51594971.1888897     
   51320880.5889746     
   51048212.5694747     
   50776732.5050966     
   50506206.0659374     
   50236399.4540972     
   49967079.6382165     
   49698014.5880065     
   49428973.5108349     
   49159727.0924351     
   48890047.7438167     
   48619709.8564786     
   48348490.0680494     
   48076167.5405165     
   47802524.2532528     
   47527345.3130946     
   47250419.2837904     
   46971538.5372044     
   46690499.6287399     
   46407103.6995282     
   46121156.9080307     
   45832470.8937993     
   45540863.2762617     
   45246158.1915159     
   44948186.8702600     
   44646788.2601228     
   44341809.6958238     
   44033107.6207562     
   43720548.3637677     
   43404008.9751130     
   43083378.1257529     
   42758557.0744007     
   42429460.7069515     
   42096018.6531830     
   41758176.4858802     
   41415897.0078279     
   41069161.6324101     
   40717971.8638817     
   40362350.8837159     
   40002345.2497940     
   39638026.7155852     
   39269494.1768712     
   38896875.7539989     
   38520331.0181019     
   38140053.3702096     
   37756272.5826744     
   37369257.5128852     
   36979318.9998071     
   36586812.9544868     
   36192143.6563010     
   35795767.2674006     
   35398195.5785107     
   35000000.0000000     
   70000000.0000000     
   69498940.4166536     
   68998753.7477568     
   68500242.9746293     
   68004131.6641252     
   67511069.3292064     
   67021636.4624288     
   66536349.2608728     
   66055664.0600429     
   65579981.4933153     
   65109650.3926106     
   64644971.4451201     
   64186200.6201065     
   63733552.3790392     
   63287202.6816026     
   62847291.7994338     
   62413926.9487991     
   61987184.7528127     
   61567113.5432170     
   61153735.5112042     
   60747048.7162422     
   60347028.9613774     
   59953631.5430317     
   59566792.8828718     
   59186432.0489258     
   58812452.1727230     
   58444741.7688849     
   58083175.9632351     
   57727617.6351839     
   57377918.4798304     
   57033919.9949435     
   56695454.3977105     
   56362345.4758891     
   56034409.3777608     
   55711455.3450619     
   55393286.3928591     
   55079699.9401402     
   54770488.3947098     
   54465439.6958123     
   54164337.8177407     
   53866963.2375520     
   53573093.3698672     
   53282502.9716125     
   52994964.5194466     
   52710248.5625082     
   52428124.0530283     
   52148358.6572657     
   51870719.0491413     
   51594971.1888897     
   51320880.5889745     
   51048212.5694747     
   50776732.5050965     
   50506206.0659373     
   50236399.4540972     
   49967079.6382165     
   49698014.5880065     
   49428973.5108349     
   49159727.0924351     
   48890047.7438167     
   48619709.8564786     
   48348490.0680494     
   48076167.5405165     
   47802524.2532528     
   47527345.3130946     
   47250419.2837903     
   46971538.5372044     
   46690499.6287399     
   46407103.6995282     
   46121156.9080307     
   45832470.8937993     
   45540863.2762617     
   45246158.1915158     
   44948186.8702600     
   44646788.2601227     
   44341809.6958238     
   44033107.6207561     
   43720548.3637676     
   43404008.9751130     
   43083378.1257529     
   42758557.0744007     
   42429460.7069514     
   42096018.6531829     
   41758176.4858802     
   41415897.0078278     
   41069161.6324101     
   40717971.8638817     
   40362350.8837158     
   40002345.2497939     
   39638026.7155852     
   39269494.1768711     
   38896875.7539989     
   38520331.0181019     
   38140053.3702096     
   37756272.5826744     
   37369257.5128852     
   36979318.9998071     
   36586812.9544868     
   36192143.6563010     
   35795767.2674006     
   35398195.5785107     
   35000000.0000000     
   70000000.0000000     
   69498940.4166535     
   68998753.7477567     
   68500242.9746292     
   68004131.6641251     
   67511069.3292064     
   67021636.4624287     
   66536349.2608727     
   66055664.0600428     
   65579981.4933153     
   65109650.3926105     
   64644971.4451200     
   64186200.6201065     
   63733552.3790392     
   63287202.6816026     
   62847291.7994338     
   62413926.9487991     
   61987184.7528127     
   61567113.5432170     
   61153735.5112042     
   60747048.7162421     
   60347028.9613774     
   59953631.5430317     
   59566792.8828718     
   59186432.0489258     
   58812452.1727230     
   58444741.7688848     
   58083175.9632351     
   57727617.6351840     
   57377918.4798304     
   57033919.9949435     
   56695454.3977105     
   56362345.4758891     
   56034409.3777608     
   55711455.3450619     
   55393286.3928591     
   55079699.9401401     
   54770488.3947098     
   54465439.6958122     
   54164337.8177407     
   53866963.2375520     
   53573093.3698671     
   53282502.9716124     
   52994964.5194466     
   52710248.5625081     
   52428124.0530283     
   52148358.6572657     
   51870719.0491413     
   51594971.1888897     
   51320880.5889745     
   51048212.5694746     
   50776732.5050965     
   50506206.0659372     
   50236399.4540971     
   49967079.6382165     
   49698014.5880064     
   49428973.5108349     
   49159727.0924350     
   48890047.7438167     
   48619709.8564786     
   48348490.0680494     
   48076167.5405165     
   47802524.2532528     
   47527345.3130946     
   47250419.2837903     
   46971538.5372045     
   46690499.6287398     
   46407103.6995282     
   46121156.9080307     
   45832470.8937992     
   45540863.2762617     
   45246158.1915158     
   44948186.8702599     
   44646788.2601226     
   44341809.6958237     
   44033107.6207560     
   43720548.3637675     
   43404008.9751129     
   43083378.1257528     
   42758557.0744006     
   42429460.7069514     
   42096018.6531829     
   41758176.4858801     
   41415897.0078278     
   41069161.6324100     
   40717971.8638816     
   40362350.8837158     
   40002345.2497939     
   39638026.7155851     
   39269494.1768711     
   38896875.7539988     
   38520331.0181018     
   38140053.3702095     
   37756272.5826743     
   37369257.5128851     
   36979318.9998071     
   36586812.9544868     
   36192143.6563010     
   35795767.2674005     
   35398195.5785106     
   35000000.0000000     
   70000000.0000000     
   69498940.4166535     
   68998753.7477567     
   68500242.9746291     
   68004131.6641249     
   67511069.3292063     
   67021636.4624287     
   66536349.2608726     
   66055664.0600428     
   65579981.4933152     
   65109650.3926105     
   64644971.4451199     
   64186200.6201064     
   63733552.3790391     
   63287202.6816026     
   62847291.7994337     
   62413926.9487990     
   61987184.7528127     
   61567113.5432170     
   61153735.5112042     
   60747048.7162421     
   60347028.9613774     
   59953631.5430317     
   59566792.8828718     
   59186432.0489257     
   58812452.1727230     
   58444741.7688848     
   58083175.9632352     
   57727617.6351840     
   57377918.4798304     
   57033919.9949435     
   56695454.3977105     
   56362345.4758891     
   56034409.3777608     
   55711455.3450619     
   55393286.3928591     
   55079699.9401401     
   54770488.3947098     
   54465439.6958122     
   54164337.8177407     
   53866963.2375520     
   53573093.3698670     
   53282502.9716124     
   52994964.5194466     
   52710248.5625081     
   52428124.0530283     
   52148358.6572657     
   51870719.0491413     
   51594971.1888896     
   51320880.5889745     
   51048212.5694746     
   50776732.5050964     
   50506206.0659372     
   50236399.4540971     
   49967079.6382164     
   49698014.5880064     
   49428973.5108349     
   49159727.0924350     
   48890047.7438166     
   48619709.8564786     
   48348490.0680494     
   48076167.5405165     
   47802524.2532528     
   47527345.3130946     
   47250419.2837903     
   46971538.5372045     
   46690499.6287399     
   46407103.6995282     
   46121156.9080307     
   45832470.8937992     
   45540863.2762616     
   45246158.1915158     
   44948186.8702599     
   44646788.2601226     
   44341809.6958236     
   44033107.6207559     
   43720548.3637675     
   43404008.9751129     
   43083378.1257528     
   42758557.0744006     
   42429460.7069514     
   42096018.6531828     
   41758176.4858801     
   41415897.0078277     
   41069161.6324100     
   40717971.8638815     
   40362350.8837157     
   40002345.2497939     
   39638026.7155851     
   39269494.1768711     
   38896875.7539988     
   38520331.0181018     
   38140053.3702095     
   37756272.5826743     
   37369257.5128851     
   36979318.9998071     
   36586812.9544868     
   36192143.6563010     
   35795767.2674005     
   35398195.5785107     
   35000000.0000000     
   70000000.0000000     
   69498940.4166535     
   68998753.7477567     
   68500242.9746290     
   68004131.6641248     
   67511069.3292062     
   67021636.4624287     
   66536349.2608725     
   66055664.0600427     
   65579981.4933152     
   65109650.3926104     
   64644971.4451198     
   64186200.6201063     
   63733552.3790390     
   63287202.6816025     
   62847291.7994337     
   62413926.9487990     
   61987184.7528127     
   61567113.5432170     
   61153735.5112041     
   60747048.7162421     
   60347028.9613774     
   59953631.5430316     
   59566792.8828718     
   59186432.0489257     
   58812452.1727229     
   58444741.7688848     
   58083175.9632352     
   57727617.6351840     
   57377918.4798304     
   57033919.9949435     
   56695454.3977104     
   56362345.4758891     
   56034409.3777608     
   55711455.3450619     
   55393286.3928590     
   55079699.9401401     
   54770488.3947098     
   54465439.6958122     
   54164337.8177406     
   53866963.2375520     
   53573093.3698670     
   53282502.9716123     
   52994964.5194466     
   52710248.5625081     
   52428124.0530284     
   52148358.6572657     
   51870719.0491413     
   51594971.1888896     
   51320880.5889745     
   51048212.5694745     
   50776732.5050964     
   50506206.0659372     
   50236399.4540971     
   49967079.6382164     
   49698014.5880063     
   49428973.5108348     
   49159727.0924350     
   48890047.7438166     
   48619709.8564786     
   48348490.0680494     
   48076167.5405166     
   47802524.2532528     
   47527345.3130946     
   47250419.2837904     
   46971538.5372044     
   46690499.6287398     
   46407103.6995282     
   46121156.9080306     
   45832470.8937992     
   45540863.2762616     
   45246158.1915158     
   44948186.8702598     
   44646788.2601226     
   44341809.6958236     
   44033107.6207559     
   43720548.3637674     
   43404008.9751128     
   43083378.1257527     
   42758557.0744005     
   42429460.7069513     
   42096018.6531827     
   41758176.4858800     
   41415897.0078277     
   41069161.6324099     
   40717971.8638814     
   40362350.8837157     
   40002345.2497938     
   39638026.7155851     
   39269494.1768710     
   38896875.7539987     
   38520331.0181017     
   38140053.3702094     
   37756272.5826742     
   37369257.5128851     
   36979318.9998071     
   36586812.9544867     
   36192143.6563009     
   35795767.2674005     
   35398195.5785107     
   35000000.0000000     
   70000000.0000000     
   69498940.4166534     
   68998753.7477566     
   68500242.9746289     
   68004131.6641248     
   67511069.3292061     
   67021636.4624285     
   66536349.2608725     
   66055664.0600426     
   65579981.4933151     
   65109650.3926104     
   64644971.4451197     
   64186200.6201063     
   63733552.3790389     
   63287202.6816025     
   62847291.7994337     
   62413926.9487990     
   61987184.7528127     
   61567113.5432170     
   61153735.5112040     
   60747048.7162421     
   60347028.9613774     
   59953631.5430316     
   59566792.8828717     
   59186432.0489257     
   58812452.1727229     
   58444741.7688847     
   58083175.9632352     
   57727617.6351840     
   57377918.4798305     
   57033919.9949435     
   56695454.3977105     
   56362345.4758890     
   56034409.3777608     
   55711455.3450619     
   55393286.3928590     
   55079699.9401401     
   54770488.3947098     
   54465439.6958122     
   54164337.8177405     
   53866963.2375519     
   53573093.3698670     
   53282502.9716123     
   52994964.5194466     
   52710248.5625081     
   52428124.0530283     
   52148358.6572657     
   51870719.0491413     
   51594971.1888897     
   51320880.5889745     
   51048212.5694746     
   50776732.5050964     
   50506206.0659371     
   50236399.4540970     
   49967079.6382163     
   49698014.5880063     
   49428973.5108348     
   49159727.0924350     
   48890047.7438166     
   48619709.8564786     
   48348490.0680495     
   48076167.5405165     
   47802524.2532528     
   47527345.3130946     
   47250419.2837904     
   46971538.5372044     
   46690499.6287398     
   46407103.6995282     
   46121156.9080306     
   45832470.8937991     
   45540863.2762616     
   45246158.1915158     
   44948186.8702597     
   44646788.2601225     
   44341809.6958235     
   44033107.6207559     
   43720548.3637674     
   43404008.9751126     
   43083378.1257527     
   42758557.0744005     
   42429460.7069513     
   42096018.6531827     
   41758176.4858799     
   41415897.0078277     
   41069161.6324099     
   40717971.8638813     
   40362350.8837156     
   40002345.2497937     
   39638026.7155850     
   39269494.1768710     
   38896875.7539987     
   38520331.0181016     
   38140053.3702094     
   37756272.5826742     
   37369257.5128850     
   36979318.9998070     
   36586812.9544867     
   36192143.6563009     
   35795767.2674005     
   35398195.5785106     
   35000000.0000000     
   70000000.0000000     
   69498940.4166534     
   68998753.7477566     
   68500242.9746288     
   68004131.6641247     
   67511069.3292060     
   67021636.4624284     
   66536349.2608725     
   66055664.0600425     
   65579981.4933149     
   65109650.3926104     
   64644971.4451197     
   64186200.6201063     
   63733552.3790389     
   63287202.6816025     
   62847291.7994337     
   62413926.9487989     
   61987184.7528127     
   61567113.5432169     
   61153735.5112040     
   60747048.7162421     
   60347028.9613774     
   59953631.5430315     
   59566792.8828717     
   59186432.0489257     
   58812452.1727230     
   58444741.7688847     
   58083175.9632352     
   57727617.6351840     
   57377918.4798304     
   57033919.9949435     
   56695454.3977105     
   56362345.4758890     
   56034409.3777607     
   55711455.3450619     
   55393286.3928590     
   55079699.9401400     
   54770488.3947097     
   54465439.6958122     
   54164337.8177405     
   53866963.2375518     
   53573093.3698670     
   53282502.9716123     
   52994964.5194466     
   52710248.5625081     
   52428124.0530284     
   52148358.6572657     
   51870719.0491413     
   51594971.1888897     
   51320880.5889744     
   51048212.5694746     
   50776732.5050964     
   50506206.0659371     
   50236399.4540970     
   49967079.6382164     
   49698014.5880063     
   49428973.5108348     
   49159727.0924349     
   48890047.7438167     
   48619709.8564786     
   48348490.0680494     
   48076167.5405166     
   47802524.2532528     
   47527345.3130947     
   47250419.2837904     
   46971538.5372044     
   46690499.6287399     
   46407103.6995281     
   46121156.9080305     
   45832470.8937991     
   45540863.2762615     
   45246158.1915157     
   44948186.8702597     
   44646788.2601224     
   44341809.6958234     
   44033107.6207559     
   43720548.3637673     
   43404008.9751126     
   43083378.1257527     
   42758557.0744005     
   42429460.7069513     
   42096018.6531827     
   41758176.4858799     
   41415897.0078276     
   41069161.6324098     
   40717971.8638813     
   40362350.8837155     
   40002345.2497937     
   39638026.7155850     
   39269494.1768709     
   38896875.7539986     
   38520331.0181015     
   38140053.3702094     
   37756272.5826742     
   37369257.5128849     
   36979318.9998070     
   36586812.9544866     
   36192143.6563009     
   35795767.2674005     
   35398195.5785106     
   35000000.0000000     
   70000000.0000000     
   69498940.4166533     
   68998753.7477564     
   68500242.9746287     
   68004131.6641246     
   67511069.3292058     
   67021636.4624283     
   66536349.2608724     
   66055664.0600424     
   65579981.4933149     
   65109650.3926103     
   64644971.4451197     
   64186200.6201062     
   63733552.3790389     
   63287202.6816024     
   62847291.7994336     
   62413926.9487990     
   61987184.7528127     
   61567113.5432169     
   61153735.5112041     
   60747048.7162420     
   60347028.9613773     
   59953631.5430315     
   59566792.8828718     
   59186432.0489257     
   58812452.1727230     
   58444741.7688848     
   58083175.9632351     
   57727617.6351841     
   57377918.4798304     
   57033919.9949435     
   56695454.3977105     
   56362345.4758890     
   56034409.3777607     
   55711455.3450619     
   55393286.3928590     
   55079699.9401400     
   54770488.3947097     
   54465439.6958121     
   54164337.8177405     
   53866963.2375518     
   53573093.3698670     
   53282502.9716123     
   52994964.5194465     
   52710248.5625081     
   52428124.0530283     
   52148358.6572656     
   51870719.0491412     
   51594971.1888897     
   51320880.5889744     
   51048212.5694746     
   50776732.5050964     
   50506206.0659372     
   50236399.4540970     
   49967079.6382163     
   49698014.5880063     
   49428973.5108348     
   49159727.0924350     
   48890047.7438166     
   48619709.8564787     
   48348490.0680494     
   48076167.5405165     
   47802524.2532528     
   47527345.3130947     
   47250419.2837904     
   46971538.5372044     
   46690499.6287398     
   46407103.6995281     
   46121156.9080305     
   45832470.8937991     
   45540863.2762615     
   45246158.1915156     
   44948186.8702596     
   44646788.2601223     
   44341809.6958234     
   44033107.6207558     
   43720548.3637673     
   43404008.9751125     
   43083378.1257526     
   42758557.0744005     
   42429460.7069512     
   42096018.6531826     
   41758176.4858799     
   41415897.0078276     
   41069161.6324097     
   40717971.8638812     
   40362350.8837154     
   40002345.2497937     
   39638026.7155849     
   39269494.1768709     
   38896875.7539986     
   38520331.0181014     
   38140053.3702094     
   37756272.5826741     
   37369257.5128849     
   36979318.9998069     
   36586812.9544866     
   36192143.6563009     
   35795767.2674005     
   35398195.5785107     
   35000000.0000000     
   70000000.0000000     
   69498940.4166533     
   68998753.7477564     
   68500242.9746287     
   68004131.6641245     
   67511069.3292058     
   67021636.4624282     
   66536349.2608722     
   66055664.0600425     
   65579981.4933149     
   65109650.3926103     
   64644971.4451198     
   64186200.6201062     
   63733552.3790389     
   63287202.6816024     
   62847291.7994336     
   62413926.9487990     
   61987184.7528128     
   61567113.5432169     
   61153735.5112040     
   60747048.7162420     
   60347028.9613773     
   59953631.5430315     
   59566792.8828718     
   59186432.0489257     
   58812452.1727230     
   58444741.7688848     
   58083175.9632352     
   57727617.6351840     
   57377918.4798304     
   57033919.9949435     
   56695454.3977105     
   56362345.4758890     
   56034409.3777607     
   55711455.3450618     
   55393286.3928591     
   55079699.9401400     
   54770488.3947097     
   54465439.6958121     
   54164337.8177405     
   53866963.2375518     
   53573093.3698669     
   53282502.9716122     
   52994964.5194465     
   52710248.5625081     
   52428124.0530283     
   52148358.6572656     
   51870719.0491413     
   51594971.1888897     
   51320880.5889744     
   51048212.5694746     
   50776732.5050964     
   50506206.0659371     
   50236399.4540970     
   49967079.6382163     
   49698014.5880064     
   49428973.5108348     
   49159727.0924350     
   48890047.7438167     
   48619709.8564787     
   48348490.0680494     
   48076167.5405166     
   47802524.2532529     
   47527345.3130947     
   47250419.2837904     
   46971538.5372044     
   46690499.6287399     
   46407103.6995281     
   46121156.9080305     
   45832470.8937991     
   45540863.2762614     
   45246158.1915155     
   44948186.8702595     
   44646788.2601222     
   44341809.6958234     
   44033107.6207558     
   43720548.3637672     
   43404008.9751125     
   43083378.1257525     
   42758557.0744004     
   42429460.7069511     
   42096018.6531826     
   41758176.4858798     
   41415897.0078275     
   41069161.6324096     
   40717971.8638811     
   40362350.8837153     
   40002345.2497937     
   39638026.7155849     
   39269494.1768708     
   38896875.7539985     
   38520331.0181014     
   38140053.3702093     
   37756272.5826741     
   37369257.5128848     
   36979318.9998069     
   36586812.9544865     
   36192143.6563009     
   35795767.2674004     
   35398195.5785106     
   35000000.0000000     
   70000000.0000000     
   69498940.4166532     
   68998753.7477564     
   68500242.9746285     
   68004131.6641244     
   67511069.3292056     
   67021636.4624282     
   66536349.2608721     
   66055664.0600424     
   65579981.4933149     
   65109650.3926102     
   64644971.4451198     
   64186200.6201061     
   63733552.3790390     
   63287202.6816023     
   62847291.7994336     
   62413926.9487991     
   61987184.7528128     
   61567113.5432169     
   61153735.5112040     
   60747048.7162420     
   60347028.9613773     
   59953631.5430315     
   59566792.8828718     
   59186432.0489257     
   58812452.1727230     
   58444741.7688847     
   58083175.9632352     
   57727617.6351840     
   57377918.4798304     
   57033919.9949435     
   56695454.3977105     
   56362345.4758890     
   56034409.3777605     
   55711455.3450618     
   55393286.3928591     
   55079699.9401400     
   54770488.3947097     
   54465439.6958121     
   54164337.8177405     
   53866963.2375518     
   53573093.3698669     
   53282502.9716123     
   52994964.5194464     
   52710248.5625081     
   52428124.0530284     
   52148358.6572656     
   51870719.0491413     
   51594971.1888898     
   51320880.5889745     
   51048212.5694746     
   50776732.5050964     
   50506206.0659372     
   50236399.4540970     
   49967079.6382163     
   49698014.5880064     
   49428973.5108348     
   49159727.0924350     
   48890047.7438167     
   48619709.8564788     
   48348490.0680495     
   48076167.5405166     
   47802524.2532530     
   47527345.3130947     
   47250419.2837906     
   46971538.5372044     
   46690499.6287399     
   46407103.6995281     
   46121156.9080305     
   45832470.8937992     
   45540863.2762614     
   45246158.1915155     
   44948186.8702595     
   44646788.2601222     
   44341809.6958234     
   44033107.6207557     
   43720548.3637671     
   43404008.9751125     
   43083378.1257524     
   42758557.0744003     
   42429460.7069511     
   42096018.6531825     
   41758176.4858798     
   41415897.0078275     
   41069161.6324096     
   40717971.8638811     
   40362350.8837153     
   40002345.2497936     
   39638026.7155849     
   39269494.1768708     
   38896875.7539984     
   38520331.0181014     
   38140053.3702092     
   37756272.5826740     
   37369257.5128848     
   36979318.9998068     
   36586812.9544866     
   36192143.6563009     
   35795767.2674004     
   35398195.5785106     
   35000000.0000000     
   70000000.0000000     
   69498940.4166532     
   68998753.7477563     
   68500242.9746285     
   68004131.6641243     
   67511069.3292056     
   67021636.4624281     
   66536349.2608720     
   66055664.0600424     
   65579981.4933149     
   65109650.3926101     
   64644971.4451198     
   64186200.6201061     
   63733552.3790388     
   63287202.6816023     
   62847291.7994337     
   62413926.9487990     
   61987184.7528128     
   61567113.5432169     
   61153735.5112040     
   60747048.7162420     
   60347028.9613773     
   59953631.5430315     
   59566792.8828719     
   59186432.0489257     
   58812452.1727230     
   58444741.7688848     
   58083175.9632352     
   57727617.6351840     
   57377918.4798304     
   57033919.9949436     
   56695454.3977105     
   56362345.4758891     
   56034409.3777605     
   55711455.3450618     
   55393286.3928591     
   55079699.9401400     
   54770488.3947097     
   54465439.6958121     
   54164337.8177406     
   53866963.2375519     
   53573093.3698669     
   53282502.9716123     
   52994964.5194465     
   52710248.5625081     
   52428124.0530284     
   52148358.6572657     
   51870719.0491414     
   51594971.1888898     
   51320880.5889746     
   51048212.5694746     
   50776732.5050965     
   50506206.0659372     
   50236399.4540971     
   49967079.6382164     
   49698014.5880065     
   49428973.5108348     
   49159727.0924351     
   48890047.7438168     
   48619709.8564788     
   48348490.0680496     
   48076167.5405166     
   47802524.2532531     
   47527345.3130948     
   47250419.2837906     
   46971538.5372045     
   46690499.6287400     
   46407103.6995281     
   46121156.9080305     
   45832470.8937991     
   45540863.2762614     
   45246158.1915154     
   44948186.8702594     
   44646788.2601222     
   44341809.6958233     
   44033107.6207557     
   43720548.3637671     
   43404008.9751125     
   43083378.1257524     
   42758557.0744002     
   42429460.7069512     
   42096018.6531824     
   41758176.4858798     
   41415897.0078274     
   41069161.6324096     
   40717971.8638810     
   40362350.8837153     
   40002345.2497936     
   39638026.7155848     
   39269494.1768707     
   38896875.7539984     
   38520331.0181013     
   38140053.3702092     
   37756272.5826740     
   37369257.5128848     
   36979318.9998068     
   36586812.9544865     
   36192143.6563009     
   35795767.2674004     
   35398195.5785106     
   35000000.0000000     
   70000000.0000000     
   69498940.4166532     
   68998753.7477562     
   68500242.9746284     
   68004131.6641242     
   67511069.3292055     
   67021636.4624280     
   66536349.2608719     
   66055664.0600423     
   65579981.4933149     
   65109650.3926102     
   64644971.4451198     
   64186200.6201060     
   63733552.3790388     
   63287202.6816023     
   62847291.7994337     
   62413926.9487990     
   61987184.7528128     
   61567113.5432170     
   61153735.5112040     
   60747048.7162420     
   60347028.9613772     
   59953631.5430314     
   59566792.8828718     
   59186432.0489258     
   58812452.1727230     
   58444741.7688849     
   58083175.9632351     
   57727617.6351840     
   57377918.4798305     
   57033919.9949436     
   56695454.3977104     
   56362345.4758891     
   56034409.3777605     
   55711455.3450617     
   55393286.3928591     
   55079699.9401400     
   54770488.3947097     
   54465439.6958121     
   54164337.8177406     
   53866963.2375520     
   53573093.3698669     
   53282502.9716123     
   52994964.5194465     
   52710248.5625081     
   52428124.0530285     
   52148358.6572657     
   51870719.0491414     
   51594971.1888898     
   51320880.5889746     
   51048212.5694747     
   50776732.5050965     
   50506206.0659372     
   50236399.4540971     
   49967079.6382165     
   49698014.5880065     
   49428973.5108349     
   49159727.0924352     
   48890047.7438168     
   48619709.8564789     
   48348490.0680497     
   48076167.5405167     
   47802524.2532531     
   47527345.3130949     
   47250419.2837906     
   46971538.5372046     
   46690499.6287400     
   46407103.6995281     
   46121156.9080306     
   45832470.8937992     
   45540863.2762614     
   45246158.1915154     
   44948186.8702593     
   44646788.2601221     
   44341809.6958233     
   44033107.6207557     
   43720548.3637671     
   43404008.9751125     
   43083378.1257524     
   42758557.0744002     
   42429460.7069512     
   42096018.6531825     
   41758176.4858798     
   41415897.0078274     
   41069161.6324096     
   40717971.8638810     
   40362350.8837152     
   40002345.2497935     
   39638026.7155848     
   39269494.1768707     
   38896875.7539984     
   38520331.0181013     
   38140053.3702091     
   37756272.5826740     
   37369257.5128847     
   36979318.9998068     
   36586812.9544865     
   36192143.6563008     
   35795767.2674003     
   35398195.5785106     
   35000000.0000000     
   70000000.0000000     
   69498940.4166533     
   68998753.7477561     
   68500242.9746283     
   68004131.6641242     
   67511069.3292054     
   67021636.4624280     
   66536349.2608720     
   66055664.0600421     
   65579981.4933148     
   65109650.3926101     
   64644971.4451198     
   64186200.6201060     
   63733552.3790388     
   63287202.6816023     
   62847291.7994336     
   62413926.9487991     
   61987184.7528128     
   61567113.5432170     
   61153735.5112040     
   60747048.7162420     
   60347028.9613771     
   59953631.5430314     
   59566792.8828719     
   59186432.0489258     
   58812452.1727231     
   58444741.7688849     
   58083175.9632351     
   57727617.6351840     
   57377918.4798305     
   57033919.9949436     
   56695454.3977104     
   56362345.4758890     
   56034409.3777604     
   55711455.3450616     
   55393286.3928591     
   55079699.9401400     
   54770488.3947097     
   54465439.6958122     
   54164337.8177406     
   53866963.2375519     
   53573093.3698670     
   53282502.9716123     
   52994964.5194466     
   52710248.5625082     
   52428124.0530285     
   52148358.6572658     
   51870719.0491415     
   51594971.1888899     
   51320880.5889746     
   51048212.5694747     
   50776732.5050964     
   50506206.0659373     
   50236399.4540971     
   49967079.6382166     
   49698014.5880066     
   49428973.5108350     
   49159727.0924352     
   48890047.7438168     
   48619709.8564790     
   48348490.0680498     
   48076167.5405168     
   47802524.2532532     
   47527345.3130950     
   47250419.2837907     
   46971538.5372046     
   46690499.6287400     
   46407103.6995282     
   46121156.9080306     
   45832470.8937992     
   45540863.2762614     
   45246158.1915155     
   44948186.8702594     
   44646788.2601221     
   44341809.6958233     
   44033107.6207556     
   43720548.3637670     
   43404008.9751125     
   43083378.1257524     
   42758557.0744002     
   42429460.7069511     
   42096018.6531824     
   41758176.4858798     
   41415897.0078274     
   41069161.6324096     
   40717971.8638809     
   40362350.8837152     
   40002345.2497934     
   39638026.7155847     
   39269494.1768706     
   38896875.7539983     
   38520331.0181013     
   38140053.3702090     
   37756272.5826739     
   37369257.5128847     
   36979318.9998067     
   36586812.9544864     
   36192143.6563008     
   35795767.2674004     
   35398195.5785105     
   35000000.0000000     
   70000000.0000000     
   69498940.4166533     
   68998753.7477561     
   68500242.9746282     
   68004131.6641241     
   67511069.3292053     
   67021636.4624280     
   66536349.2608720     
   66055664.0600422     
   65579981.4933148     
   65109650.3926101     
   64644971.4451198     
   64186200.6201060     
   63733552.3790387     
   63287202.6816023     
   62847291.7994337     
   62413926.9487990     
   61987184.7528127     
   61567113.5432169     
   61153735.5112041     
   60747048.7162420     
   60347028.9613771     
   59953631.5430314     
   59566792.8828719     
   59186432.0489259     
   58812452.1727231     
   58444741.7688849     
   58083175.9632350     
   57727617.6351840     
   57377918.4798305     
   57033919.9949436     
   56695454.3977104     
   56362345.4758890     
   56034409.3777604     
   55711455.3450616     
   55393286.3928591     
   55079699.9401399     
   54770488.3947097     
   54465439.6958122     
   54164337.8177406     
   53866963.2375520     
   53573093.3698670     
   53282502.9716124     
   52994964.5194466     
   52710248.5625083     
   52428124.0530286     
   52148358.6572658     
   51870719.0491416     
   51594971.1888899     
   51320880.5889746     
   51048212.5694747     
   50776732.5050965     
   50506206.0659373     
   50236399.4540971     
   49967079.6382166     
   49698014.5880066     
   49428973.5108351     
   49159727.0924352     
   48890047.7438168     
   48619709.8564791     
   48348490.0680498     
   48076167.5405169     
   47802524.2532533     
   47527345.3130950     
   47250419.2837907     
   46971538.5372047     
   46690499.6287400     
   46407103.6995283     
   46121156.9080306     
   45832470.8937992     
   45540863.2762614     
   45246158.1915155     
   44948186.8702594     
   44646788.2601221     
   44341809.6958233     
   44033107.6207556     
   43720548.3637670     
   43404008.9751125     
   43083378.1257525     
   42758557.0744003     
   42429460.7069511     
   42096018.6531824     
   41758176.4858797     
   41415897.0078273     
   41069161.6324096     
   40717971.8638810     
   40362350.8837152     
   40002345.2497934     
   39638026.7155847     
   39269494.1768706     
   38896875.7539983     
   38520331.0181012     
   38140053.3702090     
   37756272.5826739     
   37369257.5128846     
   36979318.9998067     
   36586812.9544864     
   36192143.6563008     
   35795767.2674004     
   35398195.5785105     
   35000000.0000000     
   70000000.0000000     
   69498940.4166533     
   68998753.7477560     
   68500242.9746282     
   68004131.6641240     
   67511069.3292053     
   67021636.4624279     
   66536349.2608718     
   66055664.0600422     
   65579981.4933146     
   65109650.3926101     
   64644971.4451198     
   64186200.6201060     
   63733552.3790387     
   63287202.6816023     
   62847291.7994336     
   62413926.9487989     
   61987184.7528127     
   61567113.5432169     
   61153735.5112041     
   60747048.7162420     
   60347028.9613771     
   59953631.5430314     
   59566792.8828719     
   59186432.0489259     
   58812452.1727231     
   58444741.7688849     
   58083175.9632351     
   57727617.6351840     
   57377918.4798305     
   57033919.9949436     
   56695454.3977104     
   56362345.4758890     
   56034409.3777605     
   55711455.3450616     
   55393286.3928590     
   55079699.9401400     
   54770488.3947097     
   54465439.6958122     
   54164337.8177406     
   53866963.2375520     
   53573093.3698671     
   53282502.9716125     
   52994964.5194466     
   52710248.5625083     
   52428124.0530286     
   52148358.6572659     
   51870719.0491417     
   51594971.1888900     
   51320880.5889747     
   51048212.5694747     
   50776732.5050965     
   50506206.0659374     
   50236399.4540972     
   49967079.6382167     
   49698014.5880067     
   49428973.5108351     
   49159727.0924353     
   48890047.7438169     
   48619709.8564792     
   48348490.0680499     
   48076167.5405171     
   47802524.2532533     
   47527345.3130951     
   47250419.2837907     
   46971538.5372047     
   46690499.6287399     
   46407103.6995283     
   46121156.9080307     
   45832470.8937992     
   45540863.2762614     
   45246158.1915154     
   44948186.8702594     
   44646788.2601221     
   44341809.6958233     
   44033107.6207557     
   43720548.3637670     
   43404008.9751125     
   43083378.1257525     
   42758557.0744003     
   42429460.7069510     
   42096018.6531825     
   41758176.4858797     
   41415897.0078273     
   41069161.6324095     
   40717971.8638810     
   40362350.8837151     
   40002345.2497933     
   39638026.7155847     
   39269494.1768706     
   38896875.7539982     
   38520331.0181012     
   38140053.3702089     
   37756272.5826738     
   37369257.5128846     
   36979318.9998066     
   36586812.9544864     
   36192143.6563007     
   35795767.2674004     
   35398195.5785105     
   35000000.0000000     
   70000000.0000000     
   69498940.4166533     
   68998753.7477560     
   68500242.9746281     
   68004131.6641239     
   67511069.3292053     
   67021636.4624278     
   66536349.2608718     
   66055664.0600421     
   65579981.4933146     
   65109650.3926101     
   64644971.4451196     
   64186200.6201059     
   63733552.3790387     
   63287202.6816023     
   62847291.7994336     
   62413926.9487989     
   61987184.7528127     
   61567113.5432168     
   61153735.5112042     
   60747048.7162420     
   60347028.9613771     
   59953631.5430313     
   59566792.8828719     
   59186432.0489259     
   58812452.1727231     
   58444741.7688849     
   58083175.9632352     
   57727617.6351840     
   57377918.4798305     
   57033919.9949436     
   56695454.3977104     
   56362345.4758890     
   56034409.3777605     
   55711455.3450616     
   55393286.3928590     
   55079699.9401400     
   54770488.3947098     
   54465439.6958122     
   54164337.8177406     
   53866963.2375520     
   53573093.3698671     
   53282502.9716125     
   52994964.5194467     
   52710248.5625084     
   52428124.0530287     
   52148358.6572659     
   51870719.0491418     
   51594971.1888901     
   51320880.5889748     
   51048212.5694748     
   50776732.5050966     
   50506206.0659374     
   50236399.4540973     
   49967079.6382167     
   49698014.5880068     
   49428973.5108352     
   49159727.0924354     
   48890047.7438170     
   48619709.8564793     
   48348490.0680500     
   48076167.5405170     
   47802524.2532534     
   47527345.3130951     
   47250419.2837907     
   46971538.5372047     
   46690499.6287399     
   46407103.6995283     
   46121156.9080307     
   45832470.8937992     
   45540863.2762614     
   45246158.1915154     
   44948186.8702593     
   44646788.2601221     
   44341809.6958233     
   44033107.6207557     
   43720548.3637670     
   43404008.9751125     
   43083378.1257525     
   42758557.0744003     
   42429460.7069510     
   42096018.6531824     
   41758176.4858796     
   41415897.0078273     
   41069161.6324094     
   40717971.8638809     
   40362350.8837151     
   40002345.2497932     
   39638026.7155846     
   39269494.1768705     
   38896875.7539982     
   38520331.0181012     
   38140053.3702089     
   37756272.5826737     
   37369257.5128845     
   36979318.9998066     
   36586812.9544863     
   36192143.6563007     
   35795767.2674004     
   35398195.5785105     
   35000000.0000000     
   70000000.0000000     
   69498940.4166533     
   68998753.7477560     
   68500242.9746280     
   68004131.6641239     
   67511069.3292051     
   67021636.4624277     
   66536349.2608717     
   66055664.0600421     
   65579981.4933145     
   65109650.3926101     
   64644971.4451196     
   64186200.6201059     
   63733552.3790386     
   63287202.6816022     
   62847291.7994335     
   62413926.9487988     
   61987184.7528127     
   61567113.5432168     
   61153735.5112042     
   60747048.7162421     
   60347028.9613771     
   59953631.5430312     
   59566792.8828719     
   59186432.0489258     
   58812452.1727232     
   58444741.7688848     
   58083175.9632352     
   57727617.6351840     
   57377918.4798305     
   57033919.9949436     
   56695454.3977105     
   56362345.4758889     
   56034409.3777605     
   55711455.3450616     
   55393286.3928589     
   55079699.9401400     
   54770488.3947098     
   54465439.6958122     
   54164337.8177407     
   53866963.2375521     
   53573093.3698672     
   53282502.9716126     
   52994964.5194468     
   52710248.5625085     
   52428124.0530288     
   52148358.6572661     
   51870719.0491419     
   51594971.1888902     
   51320880.5889748     
   51048212.5694748     
   50776732.5050967     
   50506206.0659375     
   50236399.4540973     
   49967079.6382168     
   49698014.5880068     
   49428973.5108352     
   49159727.0924353     
   48890047.7438171     
   48619709.8564793     
   48348490.0680501     
   48076167.5405171     
   47802524.2532534     
   47527345.3130951     
   47250419.2837907     
   46971538.5372047     
   46690499.6287399     
   46407103.6995283     
   46121156.9080307     
   45832470.8937993     
   45540863.2762614     
   45246158.1915154     
   44948186.8702593     
   44646788.2601221     
   44341809.6958233     
   44033107.6207557     
   43720548.3637671     
   43404008.9751124     
   43083378.1257525     
   42758557.0744003     
   42429460.7069510     
   42096018.6531824     
   41758176.4858796     
   41415897.0078272     
   41069161.6324094     
   40717971.8638809     
   40362350.8837151     
   40002345.2497932     
   39638026.7155846     
   39269494.1768705     
   38896875.7539982     
   38520331.0181012     
   38140053.3702089     
   37756272.5826737     
   37369257.5128845     
   36979318.9998065     
   36586812.9544862     
   36192143.6563007     
   35795767.2674004     
   35398195.5785105     
   35000000.0000000     
   70000000.0000000     
   69498940.4166533     
   68998753.7477560     
   68500242.9746280     
   68004131.6641239     
   67511069.3292050     
   67021636.4624276     
   66536349.2608715     
   66055664.0600421     
   65579981.4933144     
   65109650.3926100     
   64644971.4451195     
   64186200.6201059     
   63733552.3790386     
   63287202.6816022     
   62847291.7994335     
   62413926.9487988     
   61987184.7528127     
   61567113.5432168     
   61153735.5112043     
   60747048.7162421     
   60347028.9613771     
   59953631.5430312     
   59566792.8828719     
   59186432.0489259     
   58812452.1727231     
   58444741.7688848     
   58083175.9632352     
   57727617.6351840     
   57377918.4798305     
   57033919.9949436     
   56695454.3977105     
   56362345.4758890     
   56034409.3777605     
   55711455.3450615     
   55393286.3928589     
   55079699.9401400     
   54770488.3947099     
   54465439.6958123     
   54164337.8177407     
   53866963.2375522     
   53573093.3698673     
   53282502.9716127     
   52994964.5194468     
   52710248.5625086     
   52428124.0530289     
   52148358.6572662     
   51870719.0491420     
   51594971.1888903     
   51320880.5889749     
   51048212.5694749     
   50776732.5050967     
   50506206.0659375     
   50236399.4540974     
   49967079.6382168     
   49698014.5880069     
   49428973.5108353     
   49159727.0924354     
   48890047.7438171     
   48619709.8564793     
   48348490.0680501     
   48076167.5405171     
   47802524.2532534     
   47527345.3130951     
   47250419.2837907     
   46971538.5372047     
   46690499.6287398     
   46407103.6995283     
   46121156.9080307     
   45832470.8937992     
   45540863.2762614     
   45246158.1915154     
   44948186.8702593     
   44646788.2601221     
   44341809.6958232     
   44033107.6207557     
   43720548.3637670     
   43404008.9751124     
   43083378.1257525     
   42758557.0744002     
   42429460.7069510     
   42096018.6531823     
   41758176.4858795     
   41415897.0078272     
   41069161.6324094     
   40717971.8638809     
   40362350.8837150     
   40002345.2497932     
   39638026.7155845     
   39269494.1768704     
   38896875.7539981     
   38520331.0181011     
   38140053.3702089     
   37756272.5826737     
   37369257.5128845     
   36979318.9998064     
   36586812.9544862     
   36192143.6563006     
   35795767.2674003     
   35398195.5785106     
   35000000.0000000     
   70000000.0000000     
   69498940.4166533     
   68998753.7477559     
   68500242.9746279     
   68004131.6641239     
   67511069.3292049     
   67021636.4624275     
   66536349.2608715     
   66055664.0600420     
   65579981.4933144     
   65109650.3926100     
   64644971.4451194     
   64186200.6201059     
   63733552.3790387     
   63287202.6816022     
   62847291.7994334     
   62413926.9487988     
   61987184.7528126     
   61567113.5432169     
   61153735.5112043     
   60747048.7162421     
   60347028.9613771     
   59953631.5430311     
   59566792.8828718     
   59186432.0489259     
   58812452.1727231     
   58444741.7688848     
   58083175.9632352     
   57727617.6351840     
   57377918.4798305     
   57033919.9949436     
   56695454.3977105     
   56362345.4758889     
   56034409.3777605     
   55711455.3450614     
   55393286.3928589     
   55079699.9401400     
   54770488.3947099     
   54465439.6958123     
   54164337.8177408     
   53866963.2375523     
   53573093.3698673     
   53282502.9716127     
   52994964.5194469     
   52710248.5625087     
   52428124.0530290     
   52148358.6572663     
   51870719.0491420     
   51594971.1888905     
   51320880.5889749     
   51048212.5694750     
   50776732.5050968     
   50506206.0659376     
   50236399.4540974     
   49967079.6382170     
   49698014.5880070     
   49428973.5108355     
   49159727.0924355     
   48890047.7438172     
   48619709.8564794     
   48348490.0680501     
   48076167.5405171     
   47802524.2532535     
   47527345.3130951     
   47250419.2837907     
   46971538.5372047     
   46690499.6287399     
   46407103.6995283     
   46121156.9080308     
   45832470.8937993     
   45540863.2762614     
   45246158.1915154     
   44948186.8702593     
   44646788.2601221     
   44341809.6958232     
   44033107.6207557     
   43720548.3637670     
   43404008.9751124     
   43083378.1257524     
   42758557.0744002     
   42429460.7069511     
   42096018.6531823     
   41758176.4858795     
   41415897.0078272     
   41069161.6324093     
   40717971.8638809     
   40362350.8837150     
   40002345.2497932     
   39638026.7155845     
   39269494.1768704     
   38896875.7539980     
   38520331.0181011     
   38140053.3702089     
   37756272.5826736     
   37369257.5128844     
   36979318.9998064     
   36586812.9544862     
   36192143.6563006     
   35795767.2674002     
   35398195.5785106     
   35000000.0000000     
   70000000.0000000     
   69498940.4166532     
   68998753.7477558     
   68500242.9746279     
   68004131.6641238     
   67511069.3292048     
   67021636.4624274     
   66536349.2608715     
   66055664.0600419     
   65579981.4933143     
   65109650.3926099     
   64644971.4451194     
   64186200.6201059     
   63733552.3790387     
   63287202.6816021     
   62847291.7994334     
   62413926.9487987     
   61987184.7528126     
   61567113.5432168     
   61153735.5112042     
   60747048.7162421     
   60347028.9613771     
   59953631.5430312     
   59566792.8828718     
   59186432.0489260     
   58812452.1727230     
   58444741.7688848     
   58083175.9632351     
   57727617.6351840     
   57377918.4798305     
   57033919.9949436     
   56695454.3977104     
   56362345.4758889     
   56034409.3777604     
   55711455.3450614     
   55393286.3928588     
   55079699.9401400     
   54770488.3947099     
   54465439.6958123     
   54164337.8177408     
   53866963.2375524     
   53573093.3698674     
   53282502.9716128     
   52994964.5194470     
   52710248.5625087     
   52428124.0530291     
   52148358.6572664     
   51870719.0491421     
   51594971.1888906     
   51320880.5889751     
   51048212.5694751     
   50776732.5050969     
   50506206.0659376     
   50236399.4540974     
   49967079.6382170     
   49698014.5880071     
   49428973.5108356     
   49159727.0924356     
   48890047.7438173     
   48619709.8564794     
   48348490.0680502     
   48076167.5405172     
   47802524.2532535     
   47527345.3130952     
   47250419.2837907     
   46971538.5372047     
   46690499.6287400     
   46407103.6995284     
   46121156.9080308     
   45832470.8937993     
   45540863.2762614     
   45246158.1915154     
   44948186.8702593     
   44646788.2601221     
   44341809.6958231     
   44033107.6207556     
   43720548.3637670     
   43404008.9751123     
   43083378.1257524     
   42758557.0744001     
   42429460.7069511     
   42096018.6531822     
   41758176.4858795     
   41415897.0078272     
   41069161.6324093     
   40717971.8638808     
   40362350.8837150     
   40002345.2497931     
   39638026.7155844     
   39269494.1768703     
   38896875.7539979     
   38520331.0181010     
   38140053.3702088     
   37756272.5826736     
   37369257.5128844     
   36979318.9998064     
   36586812.9544861     
   36192143.6563005     
   35795767.2674003     
   35398195.5785106     
   35000000.0000000     
   70000000.0000000     
   69498940.4166532     
   68998753.7477558     
   68500242.9746278     
   68004131.6641238     
   67511069.3292047     
   67021636.4624273     
   66536349.2608714     
   66055664.0600418     
   65579981.4933143     
   65109650.3926098     
   64644971.4451194     
   64186200.6201060     
   63733552.3790388     
   63287202.6816021     
   62847291.7994333     
   62413926.9487987     
   61987184.7528125     
   61567113.5432168     
   61153735.5112042     
   60747048.7162421     
   60347028.9613771     
   59953631.5430312     
   59566792.8828718     
   59186432.0489259     
   58812452.1727230     
   58444741.7688848     
   58083175.9632351     
   57727617.6351839     
   57377918.4798304     
   57033919.9949436     
   56695454.3977104     
   56362345.4758889     
   56034409.3777604     
   55711455.3450614     
   55393286.3928588     
   55079699.9401400     
   54770488.3947099     
   54465439.6958123     
   54164337.8177408     
   53866963.2375524     
   53573093.3698675     
   53282502.9716129     
   52994964.5194470     
   52710248.5625089     
   52428124.0530292     
   52148358.6572665     
   51870719.0491423     
   51594971.1888906     
   51320880.5889751     
   51048212.5694751     
   50776732.5050969     
   50506206.0659376     
   50236399.4540974     
   49967079.6382170     
   49698014.5880072     
   49428973.5108357     
   49159727.0924358     
   48890047.7438174     
   48619709.8564795     
   48348490.0680502     
   48076167.5405172     
   47802524.2532535     
   47527345.3130951     
   47250419.2837906     
   46971538.5372047     
   46690499.6287400     
   46407103.6995284     
   46121156.9080307     
   45832470.8937993     
   45540863.2762614     
   45246158.1915155     
   44948186.8702592     
   44646788.2601221     
   44341809.6958231     
   44033107.6207556     
   43720548.3637669     
   43404008.9751123     
   43083378.1257524     
   42758557.0744001     
   42429460.7069510     
   42096018.6531823     
   41758176.4858795     
   41415897.0078272     
   41069161.6324093     
   40717971.8638808     
   40362350.8837150     
   40002345.2497931     
   39638026.7155844     
   39269494.1768703     
   38896875.7539979     
   38520331.0181010     
   38140053.3702088     
   37756272.5826735     
   37369257.5128843     
   36979318.9998063     
   36586812.9544861     
   36192143.6563005     
   35795767.2674002     
   35398195.5785106     
   35000000.0000000     
   70000000.0000000     
   69498940.4166531     
   68998753.7477559     
   68500242.9746277     
   68004131.6641237     
   67511069.3292046     
   67021636.4624271     
   66536349.2608713     
   66055664.0600417     
   65579981.4933144     
   65109650.3926098     
   64644971.4451195     
   64186200.6201060     
   63733552.3790388     
   63287202.6816022     
   62847291.7994332     
   62413926.9487987     
   61987184.7528125     
   61567113.5432169     
   61153735.5112042     
   60747048.7162421     
   60347028.9613771     
   59953631.5430312     
   59566792.8828718     
   59186432.0489259     
   58812452.1727230     
   58444741.7688847     
   58083175.9632351     
   57727617.6351838     
   57377918.4798304     
   57033919.9949435     
   56695454.3977105     
   56362345.4758889     
   56034409.3777604     
   55711455.3450614     
   55393286.3928589     
   55079699.9401400     
   54770488.3947099     
   54465439.6958124     
   54164337.8177408     
   53866963.2375524     
   53573093.3698676     
   53282502.9716130     
   52994964.5194471     
   52710248.5625090     
   52428124.0530293     
   52148358.6572666     
   51870719.0491424     
   51594971.1888906     
   51320880.5889752     
   51048212.5694752     
   50776732.5050970     
   50506206.0659376     
   50236399.4540976     
   49967079.6382170     
   49698014.5880073     
   49428973.5108358     
   49159727.0924359     
   48890047.7438176     
   48619709.8564796     
   48348490.0680502     
   48076167.5405173     
   47802524.2532535     
   47527345.3130952     
   47250419.2837906     
   46971538.5372046     
   46690499.6287400     
   46407103.6995284     
   46121156.9080307     
   45832470.8937993     
   45540863.2762614     
   45246158.1915155     
   44948186.8702592     
   44646788.2601221     
   44341809.6958231     
   44033107.6207556     
   43720548.3637669     
   43404008.9751123     
   43083378.1257523     
   42758557.0744002     
   42429460.7069510     
   42096018.6531823     
   41758176.4858795     
   41415897.0078272     
   41069161.6324093     
   40717971.8638809     
   40362350.8837149     
   40002345.2497930     
   39638026.7155843     
   39269494.1768702     
   38896875.7539978     
   38520331.0181010     
   38140053.3702087     
   37756272.5826735     
   37369257.5128843     
   36979318.9998063     
   36586812.9544861     
   36192143.6563005     
   35795767.2674002     
   35398195.5785106     
   35000000.0000000     
   70000000.0000000     
   69498940.4166531     
   68998753.7477558     
   68500242.9746277     
   68004131.6641236     
   67511069.3292045     
   67021636.4624270     
   66536349.2608712     
   66055664.0600416     
   65579981.4933143     
   65109650.3926099     
   64644971.4451195     
   64186200.6201060     
   63733552.3790387     
   63287202.6816021     
   62847291.7994332     
   62413926.9487986     
   61987184.7528125     
   61567113.5432168     
   61153735.5112042     
   60747048.7162420     
   60347028.9613772     
   59953631.5430313     
   59566792.8828718     
   59186432.0489259     
   58812452.1727229     
   58444741.7688847     
   58083175.9632350     
   57727617.6351839     
   57377918.4798303     
   57033919.9949434     
   56695454.3977104     
   56362345.4758888     
   56034409.3777602     
   55711455.3450614     
   55393286.3928588     
   55079699.9401400     
   54770488.3947099     
   54465439.6958123     
   54164337.8177409     
   53866963.2375525     
   53573093.3698677     
   53282502.9716130     
   52994964.5194472     
   52710248.5625091     
   52428124.0530295     
   52148358.6572667     
   51870719.0491425     
   51594971.1888906     
   51320880.5889753     
   51048212.5694753     
   50776732.5050969     
   50506206.0659376     
   50236399.4540976     
   49967079.6382170     
   49698014.5880073     
   49428973.5108359     
   49159727.0924360     
   48890047.7438177     
   48619709.8564796     
   48348490.0680503     
   48076167.5405173     
   47802524.2532535     
   47527345.3130952     
   47250419.2837905     
   46971538.5372046     
   46690499.6287400     
   46407103.6995283     
   46121156.9080308     
   45832470.8937992     
   45540863.2762614     
   45246158.1915155     
   44948186.8702592     
   44646788.2601220     
   44341809.6958231     
   44033107.6207556     
   43720548.3637669     
   43404008.9751123     
   43083378.1257523     
   42758557.0744002     
   42429460.7069509     
   42096018.6531823     
   41758176.4858795     
   41415897.0078271     
   41069161.6324093     
   40717971.8638808     
   40362350.8837150     
   40002345.2497930     
   39638026.7155843     
   39269494.1768701     
   38896875.7539978     
   38520331.0181009     
   38140053.3702086     
   37756272.5826734     
   37369257.5128842     
   36979318.9998063     
   36586812.9544861     
   36192143.6563005     
   35795767.2674002     
   35398195.5785106     
   35000000.0000000     
   70000000.0000000     
   69498940.4166531     
   68998753.7477558     
   68500242.9746277     
   68004131.6641234     
   67511069.3292045     
   67021636.4624269     
   66536349.2608711     
   66055664.0600416     
   65579981.4933142     
   65109650.3926099     
   64644971.4451196     
   64186200.6201060     
   63733552.3790386     
   63287202.6816022     
   62847291.7994331     
   62413926.9487986     
   61987184.7528125     
   61567113.5432169     
   61153735.5112042     
   60747048.7162420     
   60347028.9613772     
   59953631.5430314     
   59566792.8828718     
   59186432.0489259     
   58812452.1727229     
   58444741.7688847     
   58083175.9632349     
   57727617.6351839     
   57377918.4798303     
   57033919.9949434     
   56695454.3977104     
   56362345.4758888     
   56034409.3777602     
   55711455.3450615     
   55393286.3928587     
   55079699.9401400     
   54770488.3947099     
   54465439.6958124     
   54164337.8177409     
   53866963.2375525     
   53573093.3698678     
   53282502.9716131     
   52994964.5194473     
   52710248.5625092     
   52428124.0530295     
   52148358.6572668     
   51870719.0491425     
   51594971.1888907     
   51320880.5889753     
   51048212.5694753     
   50776732.5050969     
   50506206.0659377     
   50236399.4540976     
   49967079.6382171     
   49698014.5880074     
   49428973.5108359     
   49159727.0924362     
   48890047.7438177     
   48619709.8564797     
   48348490.0680504     
   48076167.5405173     
   47802524.2532536     
   47527345.3130952     
   47250419.2837906     
   46971538.5372045     
   46690499.6287400     
   46407103.6995284     
   46121156.9080307     
   45832470.8937992     
   45540863.2762614     
   45246158.1915155     
   44948186.8702592     
   44646788.2601220     
   44341809.6958230     
   44033107.6207555     
   43720548.3637670     
   43404008.9751123     
   43083378.1257523     
   42758557.0744002     
   42429460.7069509     
   42096018.6531824     
   41758176.4858795     
   41415897.0078271     
   41069161.6324093     
   40717971.8638808     
   40362350.8837149     
   40002345.2497930     
   39638026.7155842     
   39269494.1768701     
   38896875.7539977     
   38520331.0181009     
   38140053.3702086     
   37756272.5826734     
   37369257.5128842     
   36979318.9998062     
   36586812.9544861     
   36192143.6563004     
   35795767.2674002     
   35398195.5785105     
   35000000.0000000     
   70000000.0000000     
   69498940.4166531     
   68998753.7477558     
   68500242.9746277     
   68004131.6641233     
   67511069.3292045     
   67021636.4624269     
   66536349.2608710     
   66055664.0600414     
   65579981.4933142     
   65109650.3926098     
   64644971.4451195     
   64186200.6201060     
   63733552.3790386     
   63287202.6816021     
   62847291.7994331     
   62413926.9487986     
   61987184.7528125     
   61567113.5432169     
   61153735.5112041     
   60747048.7162420     
   60347028.9613772     
   59953631.5430314     
   59566792.8828719     
   59186432.0489257     
   58812452.1727229     
   58444741.7688847     
   58083175.9632349     
   57727617.6351839     
   57377918.4798302     
   57033919.9949434     
   56695454.3977105     
   56362345.4758888     
   56034409.3777602     
   55711455.3450614     
   55393286.3928588     
   55079699.9401400     
   54770488.3947099     
   54465439.6958124     
   54164337.8177409     
   53866963.2375525     
   53573093.3698679     
   53282502.9716132     
   52994964.5194474     
   52710248.5625093     
   52428124.0530296     
   52148358.6572669     
   51870719.0491426     
   51594971.1888908     
   51320880.5889753     
   51048212.5694753     
   50776732.5050970     
   50506206.0659376     
   50236399.4540976     
   49967079.6382172     
   49698014.5880074     
   49428973.5108359     
   49159727.0924363     
   48890047.7438177     
   48619709.8564798     
   48348490.0680504     
   48076167.5405173     
   47802524.2532536     
   47527345.3130952     
   47250419.2837906     
   46971538.5372045     
   46690499.6287400     
   46407103.6995284     
   46121156.9080307     
   45832470.8937993     
   45540863.2762614     
   45246158.1915154     
   44948186.8702592     
   44646788.2601219     
   44341809.6958230     
   44033107.6207555     
   43720548.3637670     
   43404008.9751123     
   43083378.1257523     
   42758557.0744001     
   42429460.7069510     
   42096018.6531823     
   41758176.4858795     
   41415897.0078271     
   41069161.6324093     
   40717971.8638808     
   40362350.8837149     
   40002345.2497930     
   39638026.7155842     
   39269494.1768701     
   38896875.7539977     
   38520331.0181008     
   38140053.3702086     
   37756272.5826734     
   37369257.5128841     
   36979318.9998062     
   36586812.9544861     
   36192143.6563004     
   35795767.2674002     
   35398195.5785105     
   35000000.0000000     
   70000000.0000000     
   69498940.4166530     
   68998753.7477558     
   68500242.9746276     
   68004131.6641233     
   67511069.3292044     
   67021636.4624269     
   66536349.2608709     
   66055664.0600413     
   65579981.4933141     
   65109650.3926098     
   64644971.4451195     
   64186200.6201060     
   63733552.3790385     
   63287202.6816021     
   62847291.7994330     
   62413926.9487985     
   61987184.7528125     
   61567113.5432169     
   61153735.5112042     
   60747048.7162421     
   60347028.9613772     
   59953631.5430315     
   59566792.8828718     
   59186432.0489257     
   58812452.1727229     
   58444741.7688846     
   58083175.9632349     
   57727617.6351838     
   57377918.4798302     
   57033919.9949434     
   56695454.3977105     
   56362345.4758888     
   56034409.3777602     
   55711455.3450615     
   55393286.3928588     
   55079699.9401400     
   54770488.3947100     
   54465439.6958124     
   54164337.8177410     
   53866963.2375525     
   53573093.3698680     
   53282502.9716132     
   52994964.5194476     
   52710248.5625093     
   52428124.0530297     
   52148358.6572670     
   51870719.0491427     
   51594971.1888909     
   51320880.5889754     
   51048212.5694754     
   50776732.5050970     
   50506206.0659377     
   50236399.4540976     
   49967079.6382172     
   49698014.5880075     
   49428973.5108359     
   49159727.0924363     
   48890047.7438177     
   48619709.8564798     
   48348490.0680505     
   48076167.5405173     
   47802524.2532536     
   47527345.3130952     
   47250419.2837907     
   46971538.5372045     
   46690499.6287399     
   46407103.6995283     
   46121156.9080308     
   45832470.8937993     
   45540863.2762615     
   45246158.1915154     
   44948186.8702592     
   44646788.2601219     
   44341809.6958230     
   44033107.6207554     
   43720548.3637670     
   43404008.9751123     
   43083378.1257523     
   42758557.0744001     
   42429460.7069510     
   42096018.6531823     
   41758176.4858795     
   41415897.0078271     
   41069161.6324093     
   40717971.8638809     
   40362350.8837150     
   40002345.2497930     
   39638026.7155842     
   39269494.1768700     
   38896875.7539977     
   38520331.0181007     
   38140053.3702086     
   37756272.5826734     
   37369257.5128842     
   36979318.9998062     
   36586812.9544861     
   36192143.6563004     
   35795767.2674002     
   35398195.5785105     
   35000000.0000000     
   70000000.0000000     
   69498940.4166530     
   68998753.7477557     
   68500242.9746277     
   68004131.6641233     
   67511069.3292043     
   67021636.4624268     
   66536349.2608709     
   66055664.0600413     
   65579981.4933140     
   65109650.3926098     
   64644971.4451195     
   64186200.6201060     
   63733552.3790385     
   63287202.6816020     
   62847291.7994330     
   62413926.9487985     
   61987184.7528125     
   61567113.5432169     
   61153735.5112042     
   60747048.7162421     
   60347028.9613773     
   59953631.5430316     
   59566792.8828718     
   59186432.0489258     
   58812452.1727229     
   58444741.7688847     
   58083175.9632348     
   57727617.6351838     
   57377918.4798302     
   57033919.9949433     
   56695454.3977105     
   56362345.4758888     
   56034409.3777602     
   55711455.3450614     
   55393286.3928588     
   55079699.9401401     
   54770488.3947100     
   54465439.6958124     
   54164337.8177411     
   53866963.2375525     
   53573093.3698680     
   53282502.9716134     
   52994964.5194477     
   52710248.5625094     
   52428124.0530298     
   52148358.6572671     
   51870719.0491427     
   51594971.1888909     
   51320880.5889755     
   51048212.5694754     
   50776732.5050971     
   50506206.0659377     
   50236399.4540977     
   49967079.6382172     
   49698014.5880076     
   49428973.5108359     
   49159727.0924363     
   48890047.7438177     
   48619709.8564799     
   48348490.0680505     
   48076167.5405174     
   47802524.2532535     
   47527345.3130952     
   47250419.2837907     
   46971538.5372045     
   46690499.6287399     
   46407103.6995282     
   46121156.9080307     
   45832470.8937993     
   45540863.2762615     
   45246158.1915154     
   44948186.8702592     
   44646788.2601219     
   44341809.6958230     
   44033107.6207554     
   43720548.3637670     
   43404008.9751123     
   43083378.1257523     
   42758557.0744001     
   42429460.7069510     
   42096018.6531823     
   41758176.4858794     
   41415897.0078272     
   41069161.6324094     
   40717971.8638809     
   40362350.8837150     
   40002345.2497930     
   39638026.7155842     
   39269494.1768700     
   38896875.7539976     
   38520331.0181006     
   38140053.3702085     
   37756272.5826734     
   37369257.5128841     
   36979318.9998062     
   36586812.9544861     
   36192143.6563004     
   35795767.2674002     
   35398195.5785105     
   35000000.0000000     
   70000000.0000000     
   69498940.4166530     
   68998753.7477557     
   68500242.9746277     
   68004131.6641231     
   67511069.3292042     
   67021636.4624267     
   66536349.2608707     
   66055664.0600413     
   65579981.4933140     
   65109650.3926097     
   64644971.4451195     
   64186200.6201060     
   63733552.3790384     
   63287202.6816020     
   62847291.7994330     
   62413926.9487986     
   61987184.7528125     
   61567113.5432169     
   61153735.5112042     
   60747048.7162421     
   60347028.9613773     
   59953631.5430317     
   59566792.8828718     
   59186432.0489258     
   58812452.1727229     
   58444741.7688847     
   58083175.9632348     
   57727617.6351837     
   57377918.4798302     
   57033919.9949432     
   56695454.3977105     
   56362345.4758889     
   56034409.3777603     
   55711455.3450613     
   55393286.3928588     
   55079699.9401401     
   54770488.3947100     
   54465439.6958125     
   54164337.8177410     
   53866963.2375525     
   53573093.3698679     
   53282502.9716135     
   52994964.5194477     
   52710248.5625094     
   52428124.0530298     
   52148358.6572671     
   51870719.0491428     
   51594971.1888910     
   51320880.5889756     
   51048212.5694754     
   50776732.5050971     
   50506206.0659377     
   50236399.4540977     
   49967079.6382173     
   49698014.5880076     
   49428973.5108360     
   49159727.0924363     
   48890047.7438177     
   48619709.8564799     
   48348490.0680506     
   48076167.5405174     
   47802524.2532536     
   47527345.3130952     
   47250419.2837907     
   46971538.5372045     
   46690499.6287399     
   46407103.6995282     
   46121156.9080307     
   45832470.8937993     
   45540863.2762616     
   45246158.1915154     
   44948186.8702592     
   44646788.2601220     
   44341809.6958230     
   44033107.6207554     
   43720548.3637670     
   43404008.9751123     
   43083378.1257523     
   42758557.0744001     
   42429460.7069510     
   42096018.6531824     
   41758176.4858794     
   41415897.0078272     
   41069161.6324094     
   40717971.8638809     
   40362350.8837150     
   40002345.2497929     
   39638026.7155842     
   39269494.1768700     
   38896875.7539977     
   38520331.0181006     
   38140053.3702086     
   37756272.5826733     
   37369257.5128841     
   36979318.9998062     
   36586812.9544860     
   36192143.6563004     
   35795767.2674002     
   35398195.5785106     
   35000000.0000000     
   70000000.0000000     
   69498940.4166529     
   68998753.7477557     
   68500242.9746277     
   68004131.6641232     
   67511069.3292042     
   67021636.4624266     
   66536349.2608707     
   66055664.0600414     
   65579981.4933139     
   65109650.3926097     
   64644971.4451195     
   64186200.6201060     
   63733552.3790383     
   63287202.6816020     
   62847291.7994330     
   62413926.9487986     
   61987184.7528124     
   61567113.5432169     
   61153735.5112043     
   60747048.7162421     
   60347028.9613774     
   59953631.5430317     
   59566792.8828719     
   59186432.0489258     
   58812452.1727229     
   58444741.7688847     
   58083175.9632349     
   57727617.6351837     
   57377918.4798302     
   57033919.9949432     
   56695454.3977104     
   56362345.4758890     
   56034409.3777602     
   55711455.3450614     
   55393286.3928588     
   55079699.9401401     
   54770488.3947100     
   54465439.6958124     
   54164337.8177411     
   53866963.2375526     
   53573093.3698680     
   53282502.9716136     
   52994964.5194479     
   52710248.5625095     
   52428124.0530299     
   52148358.6572672     
   51870719.0491429     
   51594971.1888910     
   51320880.5889756     
   51048212.5694755     
   50776732.5050972     
   50506206.0659378     
   50236399.4540977     
   49967079.6382173     
   49698014.5880076     
   49428973.5108361     
   49159727.0924363     
   48890047.7438176     
   48619709.8564800     
   48348490.0680507     
   48076167.5405174     
   47802524.2532536     
   47527345.3130952     
   47250419.2837908     
   46971538.5372045     
   46690499.6287398     
   46407103.6995282     
   46121156.9080307     
   45832470.8937994     
   45540863.2762615     
   45246158.1915154     
   44948186.8702593     
   44646788.2601220     
   44341809.6958230     
   44033107.6207554     
   43720548.3637670     
   43404008.9751123     
   43083378.1257523     
   42758557.0744001     
   42429460.7069510     
   42096018.6531824     
   41758176.4858794     
   41415897.0078272     
   41069161.6324094     
   40717971.8638809     
   40362350.8837150     
   40002345.2497928     
   39638026.7155841     
   39269494.1768700     
   38896875.7539977     
   38520331.0181005     
   38140053.3702085     
   37756272.5826733     
   37369257.5128840     
   36979318.9998061     
   36586812.9544860     
   36192143.6563004     
   35795767.2674002     
   35398195.5785105     
   35000000.0000000     
   70000000.0000000     
   69498940.4166529     
   68998753.7477557     
   68500242.9746275     
   68004131.6641231     
   67511069.3292041     
   67021636.4624267     
   66536349.2608707     
   66055664.0600413     
   65579981.4933139     
   65109650.3926097     
   64644971.4451195     
   64186200.6201060     
   63733552.3790383     
   63287202.6816019     
   62847291.7994331     
   62413926.9487985     
   61987184.7528124     
   61567113.5432169     
   61153735.5112043     
   60747048.7162421     
   60347028.9613774     
   59953631.5430317     
   59566792.8828719     
   59186432.0489258     
   58812452.1727229     
   58444741.7688846     
   58083175.9632348     
   57727617.6351837     
   57377918.4798301     
   57033919.9949432     
   56695454.3977104     
   56362345.4758890     
   56034409.3777603     
   55711455.3450614     
   55393286.3928589     
   55079699.9401402     
   54770488.3947100     
   54465439.6958124     
   54164337.8177411     
   53866963.2375527     
   53573093.3698679     
   53282502.9716136     
   52994964.5194479     
   52710248.5625096     
   52428124.0530299     
   52148358.6572672     
   51870719.0491429     
   51594971.1888911     
   51320880.5889756     
   51048212.5694756     
   50776732.5050971     
   50506206.0659378     
   50236399.4540978     
   49967079.6382174     
   49698014.5880077     
   49428973.5108361     
   49159727.0924363     
   48890047.7438177     
   48619709.8564799     
   48348490.0680507     
   48076167.5405175     
   47802524.2532537     
   47527345.3130953     
   47250419.2837908     
   46971538.5372046     
   46690499.6287398     
   46407103.6995282     
   46121156.9080307     
   45832470.8937994     
   45540863.2762616     
   45246158.1915155     
   44948186.8702593     
   44646788.2601219     
   44341809.6958230     
   44033107.6207554     
   43720548.3637670     
   43404008.9751124     
   43083378.1257523     
   42758557.0744001     
   42429460.7069511     
   42096018.6531824     
   41758176.4858794     
   41415897.0078272     
   41069161.6324094     
   40717971.8638809     
   40362350.8837150     
   40002345.2497928     
   39638026.7155841     
   39269494.1768699     
   38896875.7539976     
   38520331.0181006     
   38140053.3702085     
   37756272.5826733     
   37369257.5128840     
   36979318.9998061     
   36586812.9544860     
   36192143.6563003     
   35795767.2674001     
   35398195.5785105     
   35000000.0000000     
   70000000.0000000     
   69498940.4166529     
   68998753.7477557     
   68500242.9746275     
   68004131.6641230     
   67511069.3292042     
   67021636.4624266     
   66536349.2608706     
   66055664.0600413     
   65579981.4933139     
   65109650.3926097     
   64644971.4451194     
   64186200.6201060     
   63733552.3790382     
   63287202.6816019     
   62847291.7994332     
   62413926.9487985     
   61987184.7528125     
   61567113.5432170     
   61153735.5112043     
   60747048.7162422     
   60347028.9613774     
   59953631.5430316     
   59566792.8828720     
   59186432.0489259     
   58812452.1727228     
   58444741.7688846     
   58083175.9632348     
   57727617.6351836     
   57377918.4798301     
   57033919.9949432     
   56695454.3977104     
   56362345.4758890     
   56034409.3777603     
   55711455.3450614     
   55393286.3928590     
   55079699.9401402     
   54770488.3947100     
   54465439.6958125     
   54164337.8177412     
   53866963.2375526     
   53573093.3698680     
   53282502.9716136     
   52994964.5194480     
   52710248.5625097     
   52428124.0530299     
   52148358.6572672     
   51870719.0491430     
   51594971.1888911     
   51320880.5889756     
   51048212.5694756     
   50776732.5050971     
   50506206.0659378     
   50236399.4540978     
   49967079.6382175     
   49698014.5880077     
   49428973.5108362     
   49159727.0924362     
   48890047.7438177     
   48619709.8564799     
   48348490.0680507     
   48076167.5405176     
   47802524.2532537     
   47527345.3130953     
   47250419.2837907     
   46971538.5372046     
   46690499.6287398     
   46407103.6995282     
   46121156.9080307     
   45832470.8937994     
   45540863.2762616     
   45246158.1915155     
   44948186.8702594     
   44646788.2601218     
   44341809.6958230     
   44033107.6207554     
   43720548.3637669     
   43404008.9751124     
   43083378.1257523     
   42758557.0744001     
   42429460.7069511     
   42096018.6531823     
   41758176.4858795     
   41415897.0078272     
   41069161.6324094     
   40717971.8638809     
   40362350.8837150     
   40002345.2497928     
   39638026.7155840     
   39269494.1768698     
   38896875.7539975     
   38520331.0181006     
   38140053.3702084     
   37756272.5826733     
   37369257.5128840     
   36979318.9998061     
   36586812.9544859     
   36192143.6563002     
   35795767.2674001     
   35398195.5785105     
   35000000.0000000     
   70000000.0000000     
   69498940.4166529     
   68998753.7477556     
   68500242.9746274     
   68004131.6641228     
   67511069.3292041     
   67021636.4624265     
   66536349.2608707     
   66055664.0600412     
   65579981.4933140     
   65109650.3926097     
   64644971.4451194     
   64186200.6201059     
   63733552.3790383     
   63287202.6816018     
   62847291.7994331     
   62413926.9487985     
   61987184.7528125     
   61567113.5432170     
   61153735.5112042     
   60747048.7162422     
   60347028.9613774     
   59953631.5430317     
   59566792.8828720     
   59186432.0489260     
   58812452.1727228     
   58444741.7688846     
   58083175.9632347     
   57727617.6351836     
   57377918.4798301     
   57033919.9949432     
   56695454.3977105     
   56362345.4758889     
   56034409.3777604     
   55711455.3450614     
   55393286.3928591     
   55079699.9401402     
   54770488.3947101     
   54465439.6958124     
   54164337.8177412     
   53866963.2375526     
   53573093.3698680     
   53282502.9716136     
   52994964.5194480     
   52710248.5625097     
   52428124.0530301     
   52148358.6572673     
   51870719.0491430     
   51594971.1888911     
   51320880.5889756     
   51048212.5694756     
   50776732.5050972     
   50506206.0659378     
   50236399.4540978     
   49967079.6382176     
   49698014.5880077     
   49428973.5108362     
   49159727.0924362     
   48890047.7438178     
   48619709.8564799     
   48348490.0680507     
   48076167.5405177     
   47802524.2532537     
   47527345.3130954     
   47250419.2837908     
   46971538.5372046     
   46690499.6287399     
   46407103.6995281     
   46121156.9080307     
   45832470.8937994     
   45540863.2762616     
   45246158.1915155     
   44948186.8702594     
   44646788.2601218     
   44341809.6958230     
   44033107.6207553     
   43720548.3637669     
   43404008.9751124     
   43083378.1257524     
   42758557.0744001     
   42429460.7069510     
   42096018.6531823     
   41758176.4858795     
   41415897.0078272     
   41069161.6324095     
   40717971.8638808     
   40362350.8837150     
   40002345.2497928     
   39638026.7155840     
   39269494.1768698     
   38896875.7539976     
   38520331.0181006     
   38140053.3702084     
   37756272.5826732     
   37369257.5128840     
   36979318.9998062     
   36586812.9544859     
   36192143.6563002     
   35795767.2674001     
   35398195.5785105     
   35000000.0000000     
   70000000.0000000     
   69498940.4166529     
   68998753.7477556     
   68500242.9746274     
   68004131.6641228     
   67511069.3292040     
   67021636.4624265     
   66536349.2608707     
   66055664.0600411     
   65579981.4933141     
   65109650.3926097     
   64644971.4451194     
   64186200.6201058     
   63733552.3790384     
   63287202.6816018     
   62847291.7994330     
   62413926.9487985     
   61987184.7528125     
   61567113.5432171     
   61153735.5112043     
   60747048.7162423     
   60347028.9613775     
   59953631.5430317     
   59566792.8828720     
   59186432.0489260     
   58812452.1727228     
   58444741.7688846     
   58083175.9632348     
   57727617.6351835     
   57377918.4798301     
   57033919.9949433     
   56695454.3977106     
   56362345.4758889     
   56034409.3777604     
   55711455.3450616     
   55393286.3928591     
   55079699.9401402     
   54770488.3947100     
   54465439.6958125     
   54164337.8177412     
   53866963.2375526     
   53573093.3698680     
   53282502.9716136     
   52994964.5194480     
   52710248.5625098     
   52428124.0530301     
   52148358.6572673     
   51870719.0491431     
   51594971.1888911     
   51320880.5889756     
   51048212.5694756     
   50776732.5050973     
   50506206.0659379     
   50236399.4540979     
   49967079.6382176     
   49698014.5880077     
   49428973.5108362     
   49159727.0924363     
   48890047.7438178     
   48619709.8564800     
   48348490.0680507     
   48076167.5405178     
   47802524.2532538     
   47527345.3130955     
   47250419.2837908     
   46971538.5372047     
   46690499.6287399     
   46407103.6995281     
   46121156.9080308     
   45832470.8937995     
   45540863.2762616     
   45246158.1915156     
   44948186.8702594     
   44646788.2601219     
   44341809.6958230     
   44033107.6207553     
   43720548.3637669     
   43404008.9751125     
   43083378.1257524     
   42758557.0744001     
   42429460.7069511     
   42096018.6531823     
   41758176.4858795     
   41415897.0078272     
   41069161.6324095     
   40717971.8638809     
   40362350.8837150     
   40002345.2497928     
   39638026.7155840     
   39269494.1768698     
   38896875.7539975     
   38520331.0181007     
   38140053.3702083     
   37756272.5826731     
   37369257.5128839     
   36979318.9998062     
   36586812.9544858     
   36192143.6563002     
   35795767.2674000     
   35398195.5785105     
   35000000.0000000     
   70000000.0000000     
   69498940.4166529     
   68998753.7477555     
   68500242.9746274     
   68004131.6641227     
   67511069.3292040     
   67021636.4624266     
   66536349.2608708     
   66055664.0600411     
   65579981.4933141     
   65109650.3926097     
   64644971.4451194     
   64186200.6201057     
   63733552.3790384     
   63287202.6816017     
   62847291.7994330     
   62413926.9487985     
   61987184.7528126     
   61567113.5432171     
   61153735.5112043     
   60747048.7162423     
   60347028.9613775     
   59953631.5430318     
   59566792.8828720     
   59186432.0489260     
   58812452.1727228     
   58444741.7688847     
   58083175.9632347     
   57727617.6351835     
   57377918.4798300     
   57033919.9949434     
   56695454.3977106     
   56362345.4758889     
   56034409.3777605     
   55711455.3450617     
   55393286.3928592     
   55079699.9401402     
   54770488.3947100     
   54465439.6958125     
   54164337.8177412     
   53866963.2375525     
   53573093.3698680     
   53282502.9716137     
   52994964.5194480     
   52710248.5625099     
   52428124.0530301     
   52148358.6572673     
   51870719.0491430     
   51594971.1888911     
   51320880.5889756     
   51048212.5694756     
   50776732.5050974     
   50506206.0659379     
   50236399.4540980     
   49967079.6382176     
   49698014.5880078     
   49428973.5108362     
   49159727.0924363     
   48890047.7438179     
   48619709.8564799     
   48348490.0680507     
   48076167.5405177     
   47802524.2532538     
   47527345.3130956     
   47250419.2837909     
   46971538.5372047     
   46690499.6287399     
   46407103.6995282     
   46121156.9080308     
   45832470.8937995     
   45540863.2762616     
   45246158.1915156     
   44948186.8702593     
   44646788.2601219     
   44341809.6958230     
   44033107.6207554     
   43720548.3637670     
   43404008.9751125     
   43083378.1257524     
   42758557.0744001     
   42429460.7069511     
   42096018.6531823     
   41758176.4858795     
   41415897.0078272     
   41069161.6324095     
   40717971.8638809     
   40362350.8837150     
   40002345.2497929     
   39638026.7155840     
   39269494.1768698     
   38896875.7539975     
   38520331.0181007     
   38140053.3702082     
   37756272.5826731     
   37369257.5128840     
   36979318.9998061     
   36586812.9544859     
   36192143.6563001     
   35795767.2674000     
   35398195.5785105     
   35000000.0000000     
   70000000.0000000     
   69498940.4166528     
   68998753.7477554     
   68500242.9746273     
   68004131.6641227     
   67511069.3292039     
   67021636.4624266     
   66536349.2608709     
   66055664.0600411     
   65579981.4933141     
   65109650.3926097     
   64644971.4451194     
   64186200.6201057     
   63733552.3790382     
   63287202.6816017     
   62847291.7994329     
   62413926.9487985     
   61987184.7528126     
   61567113.5432171     
   61153735.5112043     
   60747048.7162423     
   60347028.9613776     
   59953631.5430319     
   59566792.8828721     
   59186432.0489260     
   58812452.1727229     
   58444741.7688847     
   58083175.9632347     
   57727617.6351835     
   57377918.4798301     
   57033919.9949435     
   56695454.3977107     
   56362345.4758889     
   56034409.3777605     
   55711455.3450617     
   55393286.3928592     
   55079699.9401402     
   54770488.3947100     
   54465439.6958125     
   54164337.8177411     
   53866963.2375526     
   53573093.3698680     
   53282502.9716137     
   52994964.5194481     
   52710248.5625099     
   52428124.0530301     
   52148358.6572674     
   51870719.0491430     
   51594971.1888912     
   51320880.5889757     
   51048212.5694756     
   50776732.5050974     
   50506206.0659380     
   50236399.4540980     
   49967079.6382176     
   49698014.5880078     
   49428973.5108361     
   49159727.0924363     
   48890047.7438178     
   48619709.8564799     
   48348490.0680507     
   48076167.5405178     
   47802524.2532539     
   47527345.3130955     
   47250419.2837909     
   46971538.5372048     
   46690499.6287399     
   46407103.6995282     
   46121156.9080308     
   45832470.8937995     
   45540863.2762617     
   45246158.1915156     
   44948186.8702594     
   44646788.2601219     
   44341809.6958230     
   44033107.6207554     
   43720548.3637670     
   43404008.9751125     
   43083378.1257525     
   42758557.0744001     
   42429460.7069511     
   42096018.6531823     
   41758176.4858795     
   41415897.0078272     
   41069161.6324095     
   40717971.8638809     
   40362350.8837150     
   40002345.2497928     
   39638026.7155840     
   39269494.1768698     
   38896875.7539975     
   38520331.0181007     
   38140053.3702082     
   37756272.5826731     
   37369257.5128839     
   36979318.9998061     
   36586812.9544859     
   36192143.6563001     
   35795767.2673999     
   35398195.5785105     
   35000000.0000000     
   70000000.0000000     
   69498940.4166528     
   68998753.7477554     
   68500242.9746272     
   68004131.6641227     
   67511069.3292039     
   67021636.4624266     
   66536349.2608709     
   66055664.0600411     
   65579981.4933139     
   65109650.3926097     
   64644971.4451193     
   64186200.6201056     
   63733552.3790382     
   63287202.6816016     
   62847291.7994329     
   62413926.9487985     
   61987184.7528126     
   61567113.5432171     
   61153735.5112043     
   60747048.7162423     
   60347028.9613776     
   59953631.5430320     
   59566792.8828722     
   59186432.0489260     
   58812452.1727229     
   58444741.7688847     
   58083175.9632347     
   57727617.6351836     
   57377918.4798301     
   57033919.9949436     
   56695454.3977106     
   56362345.4758889     
   56034409.3777605     
   55711455.3450617     
   55393286.3928592     
   55079699.9401402     
   54770488.3947101     
   54465439.6958125     
   54164337.8177411     
   53866963.2375526     
   53573093.3698680     
   53282502.9716137     
   52994964.5194481     
   52710248.5625099     
   52428124.0530301     
   52148358.6572674     
   51870719.0491429     
   51594971.1888911     
   51320880.5889757     
   51048212.5694756     
   50776732.5050974     
   50506206.0659381     
   50236399.4540981     
   49967079.6382176     
   49698014.5880079     
   49428973.5108361     
   49159727.0924363     
   48890047.7438179     
   48619709.8564800     
   48348490.0680507     
   48076167.5405178     
   47802524.2532540     
   47527345.3130956     
   47250419.2837910     
   46971538.5372049     
   46690499.6287400     
   46407103.6995282     
   46121156.9080308     
   45832470.8937995     
   45540863.2762617     
   45246158.1915157     
   44948186.8702594     
   44646788.2601220     
   44341809.6958230     
   44033107.6207554     
   43720548.3637671     
   43404008.9751125     
   43083378.1257525     
   42758557.0744002     
   42429460.7069511     
   42096018.6531824     
   41758176.4858795     
   41415897.0078273     
   41069161.6324094     
   40717971.8638809     
   40362350.8837150     
   40002345.2497929     
   39638026.7155839     
   39269494.1768698     
   38896875.7539975     
   38520331.0181006     
   38140053.3702083     
   37756272.5826730     
   37369257.5128839     
   36979318.9998060     
   36586812.9544858     
   36192143.6563000     
   35795767.2673999     
   35398195.5785105     
   35000000.0000000     
   70000000.0000000     
   69498940.4166528     
   68998753.7477553     
   68500242.9746273     
   68004131.6641226     
   67511069.3292039     
   67021636.4624267     
   66536349.2608710     
   66055664.0600412     
   65579981.4933138     
   65109650.3926096     
   64644971.4451194     
   64186200.6201056     
   63733552.3790381     
   63287202.6816016     
   62847291.7994329     
   62413926.9487984     
   61987184.7528126     
   61567113.5432170     
   61153735.5112043     
   60747048.7162423     
   60347028.9613777     
   59953631.5430320     
   59566792.8828723     
   59186432.0489259     
   58812452.1727230     
   58444741.7688847     
   58083175.9632347     
   57727617.6351835     
   57377918.4798301     
   57033919.9949436     
   56695454.3977107     
   56362345.4758890     
   56034409.3777605     
   55711455.3450618     
   55393286.3928591     
   55079699.9401402     
   54770488.3947101     
   54465439.6958125     
   54164337.8177411     
   53866963.2375525     
   53573093.3698680     
   53282502.9716137     
   52994964.5194482     
   52710248.5625098     
   52428124.0530302     
   52148358.6572674     
   51870719.0491429     
   51594971.1888911     
   51320880.5889757     
   51048212.5694757     
   50776732.5050974     
   50506206.0659381     
   50236399.4540981     
   49967079.6382177     
   49698014.5880079     
   49428973.5108361     
   49159727.0924362     
   48890047.7438180     
   48619709.8564800     
   48348490.0680507     
   48076167.5405178     
   47802524.2532540     
   47527345.3130956     
   47250419.2837910     
   46971538.5372049     
   46690499.6287400     
   46407103.6995283     
   46121156.9080309     
   45832470.8937996     
   45540863.2762618     
   45246158.1915157     
   44948186.8702594     
   44646788.2601220     
   44341809.6958230     
   44033107.6207554     
   43720548.3637671     
   43404008.9751125     
   43083378.1257525     
   42758557.0744003     
   42429460.7069511     
   42096018.6531824     
   41758176.4858795     
   41415897.0078273     
   41069161.6324094     
   40717971.8638810     
   40362350.8837150     
   40002345.2497929     
   39638026.7155839     
   39269494.1768697     
   38896875.7539975     
   38520331.0181006     
   38140053.3702082     
   37756272.5826730     
   37369257.5128839     
   36979318.9998061     
   36586812.9544858     
   36192143.6563000     
   35795767.2673999     
   35398195.5785105     
   35000000.0000000     
   70000000.0000000     
   69498940.4166527     
   68998753.7477552     
   68500242.9746272     
   68004131.6641227     
   67511069.3292038     
   67021636.4624268     
   66536349.2608711     
   66055664.0600413     
   65579981.4933138     
   65109650.3926096     
   64644971.4451194     
   64186200.6201057     
   63733552.3790382     
   63287202.6816016     
   62847291.7994329     
   62413926.9487983     
   61987184.7528126     
   61567113.5432170     
   61153735.5112043     
   60747048.7162422     
   60347028.9613777     
   59953631.5430320     
   59566792.8828723     
   59186432.0489258     
   58812452.1727230     
   58444741.7688847     
   58083175.9632348     
   57727617.6351836     
   57377918.4798301     
   57033919.9949435     
   56695454.3977107     
   56362345.4758890     
   56034409.3777606     
   55711455.3450618     
   55393286.3928592     
   55079699.9401402     
   54770488.3947101     
   54465439.6958126     
   54164337.8177410     
   53866963.2375526     
   53573093.3698679     
   53282502.9716138     
   52994964.5194481     
   52710248.5625098     
   52428124.0530302     
   52148358.6572674     
   51870719.0491429     
   51594971.1888911     
   51320880.5889758     
   51048212.5694758     
   50776732.5050975     
   50506206.0659381     
   50236399.4540981     
   49967079.6382177     
   49698014.5880079     
   49428973.5108361     
   49159727.0924362     
   48890047.7438179     
   48619709.8564801     
   48348490.0680507     
   48076167.5405178     
   47802524.2532541     
   47527345.3130956     
   47250419.2837911     
   46971538.5372049     
   46690499.6287401     
   46407103.6995283     
   46121156.9080309     
   45832470.8937997     
   45540863.2762618     
   45246158.1915157     
   44948186.8702594     
   44646788.2601220     
   44341809.6958230     
   44033107.6207554     
   43720548.3637672     
   43404008.9751125     
   43083378.1257526     
   42758557.0744003     
   42429460.7069511     
   42096018.6531824     
   41758176.4858795     
   41415897.0078273     
   41069161.6324094     
   40717971.8638810     
   40362350.8837150     
   40002345.2497929     
   39638026.7155839     
   39269494.1768697     
   38896875.7539975     
   38520331.0181006     
   38140053.3702082     
   37756272.5826730     
   37369257.5128838     
   36979318.9998061     
   36586812.9544858     
   36192143.6563000     
   35795767.2673999     
   35398195.5785105     
   35000000.0000000     
   70000000.0000000     
   69498940.4166527     
   68998753.7477551     
   68500242.9746272     
   68004131.6641228     
   67511069.3292039     
   67021636.4624268     
   66536349.2608711     
   66055664.0600411     
   65579981.4933138     
   65109650.3926095     
   64644971.4451194     
   64186200.6201057     
   63733552.3790382     
   63287202.6816016     
   62847291.7994329     
   62413926.9487984     
   61987184.7528125     
   61567113.5432170     
   61153735.5112043     
   60747048.7162422     
   60347028.9613777     
   59953631.5430321     
   59566792.8828723     
   59186432.0489258     
   58812452.1727229     
   58444741.7688847     
   58083175.9632348     
   57727617.6351836     
   57377918.4798300     
   57033919.9949435     
   56695454.3977106     
   56362345.4758890     
   56034409.3777606     
   55711455.3450617     
   55393286.3928591     
   55079699.9401401     
   54770488.3947101     
   54465439.6958126     
   54164337.8177410     
   53866963.2375526     
   53573093.3698679     
   53282502.9716138     
   52994964.5194482     
   52710248.5625098     
   52428124.0530302     
   52148358.6572674     
   51870719.0491429     
   51594971.1888912     
   51320880.5889758     
   51048212.5694758     
   50776732.5050975     
   50506206.0659381     
   50236399.4540982     
   49967079.6382177     
   49698014.5880079     
   49428973.5108361     
   49159727.0924363     
   48890047.7438179     
   48619709.8564801     
   48348490.0680507     
   48076167.5405178     
   47802524.2532541     
   47527345.3130956     
   47250419.2837911     
   46971538.5372049     
   46690499.6287401     
   46407103.6995284     
   46121156.9080309     
   45832470.8937997     
   45540863.2762619     
   45246158.1915158     
   44948186.8702594     
   44646788.2601220     
   44341809.6958230     
   44033107.6207556     
   43720548.3637672     
   43404008.9751125     
   43083378.1257526     
   42758557.0744003     
   42429460.7069511     
   42096018.6531824     
   41758176.4858795     
   41415897.0078272     
   41069161.6324094     
   40717971.8638810     
   40362350.8837150     
   40002345.2497929     
   39638026.7155839     
   39269494.1768697     
   38896875.7539975     
   38520331.0181006     
   38140053.3702082     
   37756272.5826729     
   37369257.5128838     
   36979318.9998061     
   36586812.9544858     
   36192143.6563000     
   35795767.2673999     
   35398195.5785104     
   35000000.0000000     
   70000000.0000000     
   69498940.4166527     
   68998753.7477551     
   68500242.9746272     
   68004131.6641228     
   67511069.3292040     
   67021636.4624267     
   66536349.2608712     
   66055664.0600411     
   65579981.4933138     
   65109650.3926096     
   64644971.4451192     
   64186200.6201057     
   63733552.3790382     
   63287202.6816016     
   62847291.7994329     
   62413926.9487983     
   61987184.7528125     
   61567113.5432171     
   61153735.5112043     
   60747048.7162422     
   60347028.9613777     
   59953631.5430321     
   59566792.8828723     
   59186432.0489258     
   58812452.1727229     
   58444741.7688847     
   58083175.9632348     
   57727617.6351836     
   57377918.4798301     
   57033919.9949434     
   56695454.3977107     
   56362345.4758889     
   56034409.3777607     
   55711455.3450617     
   55393286.3928592     
   55079699.9401401     
   54770488.3947101     
   54465439.6958126     
   54164337.8177410     
   53866963.2375527     
   53573093.3698680     
   53282502.9716138     
   52994964.5194482     
   52710248.5625099     
   52428124.0530301     
   52148358.6572675     
   51870719.0491430     
   51594971.1888912     
   51320880.5889759     
   51048212.5694758     
   50776732.5050975     
   50506206.0659381     
   50236399.4540982     
   49967079.6382177     
   49698014.5880080     
   49428973.5108360     
   49159727.0924363     
   48890047.7438179     
   48619709.8564802     
   48348490.0680508     
   48076167.5405179     
   47802524.2532542     
   47527345.3130956     
   47250419.2837912     
   46971538.5372049     
   46690499.6287401     
   46407103.6995285     
   46121156.9080309     
   45832470.8937997     
   45540863.2762619     
   45246158.1915158     
   44948186.8702594     
   44646788.2601220     
   44341809.6958229     
   44033107.6207556     
   43720548.3637673     
   43404008.9751126     
   43083378.1257526     
   42758557.0744003     
   42429460.7069510     
   42096018.6531824     
   41758176.4858794     
   41415897.0078272     
   41069161.6324094     
   40717971.8638810     
   40362350.8837150     
   40002345.2497930     
   39638026.7155839     
   39269494.1768697     
   38896875.7539975     
   38520331.0181006     
   38140053.3702082     
   37756272.5826730     
   37369257.5128839     
   36979318.9998061     
   36586812.9544858     
   36192143.6563000     
   35795767.2673998     
   35398195.5785104     
   35000000.0000000     
   70000000.0000000     
   69498940.4166527     
   68998753.7477551     
   68500242.9746273     
   68004131.6641228     
   67511069.3292040     
   67021636.4624267     
   66536349.2608712     
   66055664.0600411     
   65579981.4933138     
   65109650.3926096     
   64644971.4451193     
   64186200.6201056     
   63733552.3790381     
   63287202.6816015     
   62847291.7994329     
   62413926.9487984     
   61987184.7528125     
   61567113.5432171     
   61153735.5112044     
   60747048.7162422     
   60347028.9613778     
   59953631.5430321     
   59566792.8828723     
   59186432.0489258     
   58812452.1727229     
   58444741.7688847     
   58083175.9632348     
   57727617.6351836     
   57377918.4798301     
   57033919.9949434     
   56695454.3977106     
   56362345.4758889     
   56034409.3777607     
   55711455.3450617     
   55393286.3928591     
   55079699.9401401     
   54770488.3947102     
   54465439.6958126     
   54164337.8177410     
   53866963.2375527     
   53573093.3698680     
   53282502.9716139     
   52994964.5194482     
   52710248.5625098     
   52428124.0530301     
   52148358.6572675     
   51870719.0491430     
   51594971.1888912     
   51320880.5889759     
   51048212.5694758     
   50776732.5050974     
   50506206.0659382     
   50236399.4540982     
   49967079.6382177     
   49698014.5880080     
   49428973.5108360     
   49159727.0924363     
   48890047.7438180     
   48619709.8564802     
   48348490.0680508     
   48076167.5405179     
   47802524.2532542     
   47527345.3130957     
   47250419.2837912     
   46971538.5372049     
   46690499.6287401     
   46407103.6995285     
   46121156.9080309     
   45832470.8937997     
   45540863.2762619     
   45246158.1915158     
   44948186.8702594     
   44646788.2601219     
   44341809.6958230     
   44033107.6207556     
   43720548.3637673     
   43404008.9751126     
   43083378.1257526     
   42758557.0744003     
   42429460.7069511     
   42096018.6531824     
   41758176.4858795     
   41415897.0078273     
   41069161.6324094     
   40717971.8638810     
   40362350.8837150     
   40002345.2497930     
   39638026.7155839     
   39269494.1768697     
   38896875.7539975     
   38520331.0181006     
   38140053.3702082     
   37756272.5826729     
   37369257.5128839     
   36979318.9998061     
   36586812.9544858     
   36192143.6563000     
   35795767.2673998     
   35398195.5785104     
   35000000.0000000     
VECTORS u double 
    0.00000E+00         0.00000E+00         0.00000E+00
    0.00000E+00         0.00000E+00         0.00000E+00
    0.00000E+00         0.00000E+00         0.00000E+00
    0.00000E+00         0.00000E+00         0.00000E+00
    0.00000E+00         0.00000E+00         0.00000E+00
    0.00000E+00         0.00000E+00         0.00000E+00
    0.00000E+00         0.00000E+00         0.00000E+00
    0.00000E+00         0.00000E+00         0.00000E+00
    0.00000E+00         0.00000E+00         0.00000E+00
    0.00000E+00         0.00000E+00         0.00000E+00
    0.00000E+00         0.00000E+00         0.00000E+00
    0.00000E+00         0.00000E+00         0.00000E+00
    0.00000E+00         0.00000E+00         0.00000E+00
    0.00000E+00         0.00000E+00         0.00000E+00
    0.00000E+00         0.00000E+00         0.00000E+00
    0.00000E+00         0.00000E+00         0.00000E+00
    0.00000E+00         0.00000E+00         0.00000E+00
    0.00000E+00         0.00000E+00         0.00000E+00
    0.00000E+00         0.00000E+00         0.00000E+00
    0.00000E+00         0.00000E+00         0.00000E+00
    0.00000E+00         0.00000E+00         0.00000E+00
    0.00000E+00         0.00000E+00         0.00000E+00
    0.00000E+00         0.00000E+00         0.00000E+00
    0.00000E+00         0.00000E+00         0.00000E+00
    0.00000E+00         0.00000E+00         0.00000E+00
    0.00000E+00         0.00000E+00         0.00000E+00
    0.00000E+00         0.00000E+00         0.00000E+00
    0.00000E+00         0.00000E+00         0.00000E+00
    0.00000E+00         0.00000E+00         0.00000E+00
    0.00000E+00         0.00000E+00         0.00000E+00
    0.00000E+00         0.00000E+00         0.00000E+00
    0.00000E+00         0.00000E+00         0.00000E+00
    0.00000E+00         0.00000E+00         0.00000E+00
    0.00000E+00         0.00000E+00         0.00000E+00
    0.00000E+00         0.00000E+00         0.00000E+00
    0.00000E+00         0.00000E+00         0.00000E+00
    0.00000E+00         0.00000E+00         0.00000E+00
    0.00000E+00         0.00000E+00         0.00000E+00
    0.00000E+00         0.00000E+00         0.00000E+00
    0.00000E+00         0.00000E+00         0.00000E+00
    0.00000E+00         0.00000E+00         0.00000E+00
    0.00000E+00         0.00000E+00         0.00000E+00
    0.00000E+00         0.00000E+00         0.00000E+00
    0.00000E+00         0.00000E+00         0.00000E+00
    0.00000E+00         0.00000E+00         0.00000E+00
    0.00000E+00         0.00000E+00         0.00000E+00
    0.00000E+00         0.00000E+00         0.00000E+00
    0.00000E+00         0.00000E+00         0.00000E+00
    0.00000E+00         0.00000E+00         0.00000E+00
    0.00000E+00         0.00000E+00         0.00000E+00
    0.00000E+00         0.00000E+00         0.00000E+00
    0.00000E+00         0.00000E+00         0.00000E+00
    0.00000E+00         0.00000E+00         0.00000E+00
    0.00000E+00         0.00000E+00         0.00000E+00
    0.00000E+00         0.00000E+00         0.00000E+00
    0.00000E+00         0.00000E+00         0.00000E+00
    0.00000E+00         0.00000E+00         0.00000E+00
    0.00000E+00         0.00000E+00         0.00000E+00
    0.00000E+00         0.00000E+00         0.00000E+00
    0.00000E+00         0.00000E+00         0.00000E+00
    0.00000E+00         0.00000E+00         0.00000E+00
    0.00000E+00         0.00000E+00         0.00000E+00
    0.00000E+00         0.00000E+00         0.00000E+00
    0.00000E+00         0.00000E+00         0.00000E+00
    0.00000E+00         0.00000E+00         0.00000E+00
    0.00000E+00         0.00000E+00         0.00000E+00
    0.00000E+00         0.00000E+00         0.00000E+00
    0.00000E+00         0.00000E+00         0.00000E+00
    0.00000E+00         0.00000E+00         0.00000E+00
    0.00000E+00         0.00000E+00         0.00000E+00
    0.00000E+00         0.00000E+00         0.00000E+00
    0.00000E+00         0.00000E+00         0.00000E+00
    0.00000E+00         0.00000E+00         0.00000E+00
    0.00000E+00         0.00000E+00         0.00000E+00
    0.00000E+00         0.00000E+00         0.00000E+00
    0.00000E+00         0.00000E+00         0.00000E+00
    0.00000E+00         0.00000E+00         0.00000E+00
    0.00000E+00         0.00000E+00         0.00000E+00
    0.00000E+00         0.00000E+00         0.00000E+00
    0.00000E+00         0.00000E+00         0.00000E+00
    0.00000E+00         0.00000E+00         0.00000E+00
    0.00000E+00         0.00000E+00         0.00000E+00
    0.00000E+00         0.00000E+00         0.00000E+00
    0.00000E+00         0.00000E+00         0.00000E+00
    0.00000E+00         0.00000E+00         0.00000E+00
    0.00000E+00         0.00000E+00         0.00000E+00
    0.00000E+00         0.00000E+00         0.00000E+00
    0.00000E+00         0.00000E+00         0.00000E+00
    0.00000E+00         0.00000E+00         0.00000E+00
    0.00000E+00         0.00000E+00         0.00000E+00
    0.00000E+00         0.00000E+00         0.00000E+00
    0.00000E+00         0.00000E+00         0.00000E+00
    0.00000E+00         0.00000E+00         0.00000E+00
    0.00000E+00         0.00000E+00         0.00000E+00
    0.00000E+00         0.00000E+00         0.00000E+00
    0.00000E+00         0.00000E+00         0.00000E+00
    0.00000E+00         0.00000E+00         0.00000E+00
    0.00000E+00         0.00000E+00         0.00000E+00
    0.00000E+00         0.00000E+00         0.00000E+00
    0.00000E+00         0.00000E+00         0.00000E+00
    0.00000E+00         0.00000E+00         0.00000E+00
    0.00000E+00         0.60065E-03         0.00000E+00
    0.11439E-03         0.58803E-03         0.00000E+00
    0.18114E-03         0.55965E-03         0.00000E+00
    0.23285E-03         0.52415E-03         0.00000E+00
    0.27372E-03         0.48204E-03         0.00000E+00
    0.30662E-03         0.43508E-03         0.00000E+00
    0.33257E-03         0.38418E-03         0.00000E+00
    0.35186E-03         0.32998E-03         0.00000E+00
    0.36299E-03         0.27299E-03         0.00000E+00
    0.36083E-03         0.20983E-03         0.00000E+00
    0.36569E-03         0.14951E-03         0.00000E+00
    0.37940E-03         0.89386E-04         0.00000E+00
    0.39569E-03         0.28539E-04         0.00000E+00
    0.41290E-03        -0.31919E-04         0.00000E+00
    0.42984E-03        -0.91479E-04         0.00000E+00
    0.44584E-03        -0.14978E-03         0.00000E+00
    0.46053E-03        -0.20662E-03         0.00000E+00
    0.47370E-03        -0.26187E-03         0.00000E+00
    0.48525E-03        -0.31548E-03         0.00000E+00
    0.49516E-03        -0.36745E-03         0.00000E+00
    0.50349E-03        -0.41780E-03         0.00000E+00
    0.51029E-03        -0.46656E-03         0.00000E+00
    0.51566E-03        -0.51381E-03         0.00000E+00
    0.51973E-03        -0.55960E-03         0.00000E+00
    0.52261E-03        -0.60400E-03         0.00000E+00
    0.52443E-03        -0.64710E-03         0.00000E+00
    0.52530E-03        -0.68896E-03         0.00000E+00
    0.52534E-03        -0.72966E-03         0.00000E+00
    0.52467E-03        -0.76926E-03         0.00000E+00
    0.52340E-03        -0.80783E-03         0.00000E+00
    0.52161E-03        -0.84543E-03         0.00000E+00
    0.51939E-03        -0.88212E-03         0.00000E+00
    0.51684E-03        -0.91795E-03         0.00000E+00
    0.51402E-03        -0.95297E-03         0.00000E+00
    0.51099E-03        -0.98724E-03         0.00000E+00
    0.50782E-03        -0.10208E-02         0.00000E+00
    0.50457E-03        -0.10537E-02         0.00000E+00
    0.50127E-03        -0.10859E-02         0.00000E+00
    0.49797E-03        -0.11176E-02         0.00000E+00
    0.49471E-03        -0.11488E-02         0.00000E+00
    0.49151E-03        -0.11794E-02         0.00000E+00
    0.48842E-03        -0.12096E-02         0.00000E+00
    0.48546E-03        -0.12393E-02         0.00000E+00
    0.48264E-03        -0.12687E-02         0.00000E+00
    0.47999E-03        -0.12976E-02         0.00000E+00
    0.47753E-03        -0.13263E-02         0.00000E+00
    0.47526E-03        -0.13547E-02         0.00000E+00
    0.47321E-03        -0.13828E-02         0.00000E+00
    0.47139E-03        -0.14107E-02         0.00000E+00
    0.46980E-03        -0.14384E-02         0.00000E+00
    0.46845E-03        -0.14660E-02         0.00000E+00
    0.46735E-03        -0.14934E-02         0.00000E+00
    0.46649E-03        -0.15207E-02         0.00000E+00
    0.46589E-03        -0.15481E-02         0.00000E+00
    0.46554E-03        -0.15753E-02         0.00000E+00
    0.46544E-03        -0.16026E-02         0.00000E+00
    0.46558E-03        -0.16300E-02         0.00000E+00
    0.46598E-03        -0.16575E-02         0.00000E+00
    0.46660E-03        -0.16850E-02         0.00000E+00
    0.46746E-03        -0.17127E-02         0.00000E+00
    0.46854E-03        -0.17407E-02         0.00000E+00
    0.46982E-03        -0.17688E-02         0.00000E+00
    0.47130E-03        -0.17972E-02         0.00000E+00
    0.47295E-03        -0.18259E-02         0.00000E+00
    0.47475E-03        -0.18550E-02         0.00000E+00
    0.47669E-03        -0.18844E-02         0.00000E+00
    0.47872E-03        -0.19143E-02         0.00000E+00
    0.48084E-03        -0.19446E-02         0.00000E+00
    0.48299E-03        -0.19754E-02         0.00000E+00
    0.48514E-03        -0.20068E-02         0.00000E+00
    0.48725E-03        -0.20387E-02         0.00000E+00
    0.48926E-03        -0.20713E-02         0.00000E+00
    0.49112E-03        -0.21046E-02         0.00000E+00
    0.49277E-03        -0.21386E-02         0.00000E+00
    0.49413E-03        -0.21734E-02         0.00000E+00
    0.49514E-03        -0.22090E-02         0.00000E+00
    0.49571E-03        -0.22455E-02         0.00000E+00
    0.49575E-03        -0.22830E-02         0.00000E+00
    0.49516E-03        -0.23215E-02         0.00000E+00
    0.49384E-03        -0.23610E-02         0.00000E+00
    0.49170E-03        -0.24017E-02         0.00000E+00
    0.48862E-03        -0.24436E-02         0.00000E+00
    0.48451E-03        -0.24867E-02         0.00000E+00
    0.47926E-03        -0.25310E-02         0.00000E+00
    0.47280E-03        -0.25767E-02         0.00000E+00
    0.46505E-03        -0.26236E-02         0.00000E+00
    0.45596E-03        -0.26717E-02         0.00000E+00
    0.44552E-03        -0.27211E-02         0.00000E+00
    0.43373E-03        -0.27715E-02         0.00000E+00
    0.42063E-03        -0.28227E-02         0.00000E+00
    0.40624E-03        -0.28746E-02         0.00000E+00
    0.39061E-03        -0.29267E-02         0.00000E+00
    0.37370E-03        -0.29787E-02         0.00000E+00
    0.35532E-03        -0.30300E-02         0.00000E+00
    0.33501E-03        -0.30800E-02         0.00000E+00
    0.31186E-03        -0.31283E-02         0.00000E+00
    0.28417E-03        -0.31740E-02         0.00000E+00
    0.24920E-03        -0.32172E-02         0.00000E+00
    0.20139E-03        -0.32560E-02         0.00000E+00
    0.13446E-03        -0.32940E-02         0.00000E+00
    0.00000E+00        -0.33142E-02         0.00000E+00
    0.00000E+00         0.11898E-02         0.00000E+00
    0.21648E-03         0.11675E-02         0.00000E+00
    0.35303E-03         0.11139E-02         0.00000E+00
    0.45715E-03         0.10437E-02         0.00000E+00
    0.54005E-03         0.96049E-03         0.00000E+00
    0.60672E-03         0.86726E-03         0.00000E+00
    0.65947E-03         0.76611E-03         0.00000E+00
    0.69883E-03         0.65842E-03         0.00000E+00
    0.72231E-03         0.54527E-03         0.00000E+00
    0.72327E-03         0.42160E-03         0.00000E+00
    0.73434E-03         0.30015E-03         0.00000E+00
    0.76130E-03         0.17938E-03         0.00000E+00
    0.79352E-03         0.57537E-04         0.00000E+00
    0.82736E-03        -0.63435E-04         0.00000E+00
    0.86063E-03        -0.18251E-03         0.00000E+00
    0.89203E-03        -0.29903E-03         0.00000E+00
    0.92082E-03        -0.41258E-03         0.00000E+00
    0.94660E-03        -0.52296E-03         0.00000E+00
    0.96919E-03        -0.63005E-03         0.00000E+00
    0.98857E-03        -0.73386E-03         0.00000E+00
    0.10048E-02        -0.83443E-03         0.00000E+00
    0.10180E-02        -0.93185E-03         0.00000E+00
    0.10285E-02        -0.10262E-02         0.00000E+00
    0.10364E-02        -0.11177E-02         0.00000E+00
    0.10419E-02        -0.12065E-02         0.00000E+00
    0.10453E-02        -0.12926E-02         0.00000E+00
    0.10469E-02        -0.13763E-02         0.00000E+00
    0.10469E-02        -0.14577E-02         0.00000E+00
    0.10455E-02        -0.15369E-02         0.00000E+00
    0.10428E-02        -0.16140E-02         0.00000E+00
    0.10392E-02        -0.16892E-02         0.00000E+00
    0.10347E-02        -0.17626E-02         0.00000E+00
    0.10296E-02        -0.18343E-02         0.00000E+00
    0.10239E-02        -0.19044E-02         0.00000E+00
    0.10179E-02        -0.19730E-02         0.00000E+00
    0.10116E-02        -0.20401E-02         0.00000E+00
    0.10050E-02        -0.21060E-02         0.00000E+00
    0.99846E-03        -0.21706E-02         0.00000E+00
    0.99188E-03        -0.22340E-02         0.00000E+00
    0.98537E-03        -0.22963E-02         0.00000E+00
    0.97901E-03        -0.23577E-02         0.00000E+00
    0.97285E-03        -0.24181E-02         0.00000E+00
    0.96694E-03        -0.24776E-02         0.00000E+00
    0.96133E-03        -0.25364E-02         0.00000E+00
    0.95606E-03        -0.25944E-02         0.00000E+00
    0.95116E-03        -0.26518E-02         0.00000E+00
    0.94666E-03        -0.27086E-02         0.00000E+00
    0.94258E-03        -0.27649E-02         0.00000E+00
    0.93896E-03        -0.28208E-02         0.00000E+00
    0.93580E-03        -0.28763E-02         0.00000E+00
    0.93312E-03        -0.29314E-02         0.00000E+00
    0.93094E-03        -0.29864E-02         0.00000E+00
    0.92925E-03        -0.30412E-02         0.00000E+00
    0.92806E-03        -0.30958E-02         0.00000E+00
    0.92738E-03        -0.31505E-02         0.00000E+00
    0.92720E-03        -0.32052E-02         0.00000E+00
    0.92752E-03        -0.32600E-02         0.00000E+00
    0.92832E-03        -0.33149E-02         0.00000E+00
    0.92960E-03        -0.33701E-02         0.00000E+00
    0.93133E-03        -0.34256E-02         0.00000E+00
    0.93350E-03        -0.34815E-02         0.00000E+00
    0.93609E-03        -0.35379E-02         0.00000E+00
    0.93906E-03        -0.35947E-02         0.00000E+00
    0.94238E-03        -0.36522E-02         0.00000E+00
    0.94601E-03        -0.37104E-02         0.00000E+00
    0.94990E-03        -0.37693E-02         0.00000E+00
    0.95401E-03        -0.38290E-02         0.00000E+00
    0.95826E-03        -0.38897E-02         0.00000E+00
    0.96260E-03        -0.39513E-02         0.00000E+00
    0.96693E-03        -0.40140E-02         0.00000E+00
    0.97119E-03        -0.40779E-02         0.00000E+00
    0.97525E-03        -0.41431E-02         0.00000E+00
    0.97902E-03        -0.42096E-02         0.00000E+00
    0.98238E-03        -0.42776E-02         0.00000E+00
    0.98517E-03        -0.43471E-02         0.00000E+00
    0.98726E-03        -0.44183E-02         0.00000E+00
    0.98847E-03        -0.44912E-02         0.00000E+00
    0.98863E-03        -0.45661E-02         0.00000E+00
    0.98755E-03        -0.46429E-02         0.00000E+00
    0.98502E-03        -0.47219E-02         0.00000E+00
    0.98084E-03        -0.48031E-02         0.00000E+00
    0.97480E-03        -0.48867E-02         0.00000E+00
    0.96670E-03        -0.49726E-02         0.00000E+00
    0.95632E-03        -0.50611E-02         0.00000E+00
    0.94351E-03        -0.51522E-02         0.00000E+00
    0.92811E-03        -0.52458E-02         0.00000E+00
    0.91002E-03        -0.53418E-02         0.00000E+00
    0.88918E-03        -0.54403E-02         0.00000E+00
    0.86558E-03        -0.55408E-02         0.00000E+00
    0.83926E-03        -0.56430E-02         0.00000E+00
    0.81028E-03        -0.57465E-02         0.00000E+00
    0.77866E-03        -0.58505E-02         0.00000E+00
    0.74431E-03        -0.59541E-02         0.00000E+00
    0.70682E-03        -0.60564E-02         0.00000E+00
    0.66526E-03        -0.61560E-02         0.00000E+00
    0.61775E-03        -0.62518E-02         0.00000E+00
    0.56101E-03        -0.63425E-02         0.00000E+00
    0.48926E-03        -0.64269E-02         0.00000E+00
    0.39289E-03        -0.65030E-02         0.00000E+00
    0.25420E-03        -0.65717E-02         0.00000E+00
    0.00000E+00        -0.66048E-02         0.00000E+00
    0.00000E+00         0.17695E-02         0.00000E+00
    0.30940E-03         0.17391E-02         0.00000E+00
    0.51616E-03         0.16625E-02         0.00000E+00
    0.67364E-03         0.15589E-02         0.00000E+00
    0.79943E-03         0.14353E-02         0.00000E+00
    0.90074E-03         0.12965E-02         0.00000E+00
    0.98109E-03         0.11458E-02         0.00000E+00
    0.10413E-02         0.98528E-03         0.00000E+00
    0.10786E-02         0.81669E-03         0.00000E+00
    0.10865E-02         0.63451E-03         0.00000E+00
    0.11056E-02         0.45177E-03         0.00000E+00
    0.11457E-02         0.26985E-03         0.00000E+00
    0.11935E-02         0.86878E-04         0.00000E+00
    0.12435E-02        -0.94634E-04         0.00000E+00
    0.12925E-02        -0.27317E-03         0.00000E+00
    0.13387E-02        -0.44780E-03         0.00000E+00
    0.13810E-02        -0.61795E-03         0.00000E+00
    0.14189E-02        -0.78331E-03         0.00000E+00
    0.14520E-02        -0.94375E-03         0.00000E+00
    0.14804E-02        -0.10993E-02         0.00000E+00
    0.15041E-02        -0.12499E-02         0.00000E+00
    0.15234E-02        -0.13959E-02         0.00000E+00
    0.15386E-02        -0.15373E-02         0.00000E+00
    0.15500E-02        -0.16745E-02         0.00000E+00
    0.15580E-02        -0.18075E-02         0.00000E+00
    0.15629E-02        -0.19366E-02         0.00000E+00
    0.15650E-02        -0.20621E-02         0.00000E+00
    0.15648E-02        -0.21841E-02         0.00000E+00
    0.15625E-02        -0.23029E-02         0.00000E+00
    0.15584E-02        -0.24186E-02         0.00000E+00
    0.15529E-02        -0.25314E-02         0.00000E+00
    0.15461E-02        -0.26416E-02         0.00000E+00
    0.15383E-02        -0.27491E-02         0.00000E+00
    0.15298E-02        -0.28543E-02         0.00000E+00
    0.15207E-02        -0.29573E-02         0.00000E+00
    0.15112E-02        -0.30581E-02         0.00000E+00
    0.15015E-02        -0.31569E-02         0.00000E+00
    0.14916E-02        -0.32539E-02         0.00000E+00
    0.14818E-02        -0.33491E-02         0.00000E+00
    0.14720E-02        -0.34427E-02         0.00000E+00
    0.14625E-02        -0.35348E-02         0.00000E+00
    0.14533E-02        -0.36255E-02         0.00000E+00
    0.14445E-02        -0.37149E-02         0.00000E+00
    0.14361E-02        -0.38031E-02         0.00000E+00
    0.14282E-02        -0.38903E-02         0.00000E+00
    0.14209E-02        -0.39765E-02         0.00000E+00
    0.14142E-02        -0.40618E-02         0.00000E+00
    0.14081E-02        -0.41464E-02         0.00000E+00
    0.14027E-02        -0.42303E-02         0.00000E+00
    0.13980E-02        -0.43136E-02         0.00000E+00
    0.13940E-02        -0.43965E-02         0.00000E+00
    0.13908E-02        -0.44790E-02         0.00000E+00
    0.13883E-02        -0.45613E-02         0.00000E+00
    0.13865E-02        -0.46434E-02         0.00000E+00
    0.13855E-02        -0.47255E-02         0.00000E+00
    0.13853E-02        -0.48076E-02         0.00000E+00
    0.13858E-02        -0.48898E-02         0.00000E+00
    0.13870E-02        -0.49724E-02         0.00000E+00
    0.13890E-02        -0.50552E-02         0.00000E+00
    0.13916E-02        -0.51386E-02         0.00000E+00
    0.13949E-02        -0.52225E-02         0.00000E+00
    0.13988E-02        -0.53071E-02         0.00000E+00
    0.14033E-02        -0.53925E-02         0.00000E+00
    0.14083E-02        -0.54788E-02         0.00000E+00
    0.14138E-02        -0.55661E-02         0.00000E+00
    0.14197E-02        -0.56545E-02         0.00000E+00
    0.14259E-02        -0.57441E-02         0.00000E+00
    0.14323E-02        -0.58351E-02         0.00000E+00
    0.14388E-02        -0.59276E-02         0.00000E+00
    0.14454E-02        -0.60217E-02         0.00000E+00
    0.14518E-02        -0.61175E-02         0.00000E+00
    0.14580E-02        -0.62153E-02         0.00000E+00
    0.14637E-02        -0.63150E-02         0.00000E+00
    0.14688E-02        -0.64169E-02         0.00000E+00
    0.14731E-02        -0.65211E-02         0.00000E+00
    0.14764E-02        -0.66278E-02         0.00000E+00
    0.14783E-02        -0.67371E-02         0.00000E+00
    0.14787E-02        -0.68492E-02         0.00000E+00
    0.14772E-02        -0.69643E-02         0.00000E+00
    0.14735E-02        -0.70826E-02         0.00000E+00
    0.14674E-02        -0.72042E-02         0.00000E+00
    0.14586E-02        -0.73293E-02         0.00000E+00
    0.14466E-02        -0.74579E-02         0.00000E+00
    0.14312E-02        -0.75904E-02         0.00000E+00
    0.14122E-02        -0.77266E-02         0.00000E+00
    0.13892E-02        -0.78666E-02         0.00000E+00
    0.13622E-02        -0.80103E-02         0.00000E+00
    0.13310E-02        -0.81576E-02         0.00000E+00
    0.12955E-02        -0.83079E-02         0.00000E+00
    0.12559E-02        -0.84609E-02         0.00000E+00
    0.12121E-02        -0.86157E-02         0.00000E+00
    0.11642E-02        -0.87713E-02         0.00000E+00
    0.11119E-02        -0.89263E-02         0.00000E+00
    0.10545E-02        -0.90791E-02         0.00000E+00
    0.99079E-03        -0.92279E-02         0.00000E+00
    0.91779E-03        -0.93706E-02         0.00000E+00
    0.83064E-03        -0.95052E-02         0.00000E+00
    0.72076E-03        -0.96292E-02         0.00000E+00
    0.57433E-03        -0.97404E-02         0.00000E+00
    0.36224E-03        -0.98342E-02         0.00000E+00
    0.00000E+00        -0.98761E-02         0.00000E+00
    0.00000E+00         0.23411E-02         0.00000E+00
    0.39527E-03         0.23035E-02         0.00000E+00
    0.67138E-03         0.22056E-02         0.00000E+00
    0.88295E-03         0.20696E-02         0.00000E+00
    0.10524E-02         0.19066E-02         0.00000E+00
    0.11891E-02         0.17229E-02         0.00000E+00
    0.12978E-02         0.15232E-02         0.00000E+00
    0.13798E-02         0.13105E-02         0.00000E+00
    0.14324E-02         0.10871E-02         0.00000E+00
    0.14502E-02         0.84796E-03         0.00000E+00
    0.14791E-02         0.60409E-03         0.00000E+00
    0.15325E-02         0.36064E-03         0.00000E+00
    0.15957E-02         0.11644E-03         0.00000E+00
    0.16613E-02        -0.12561E-03         0.00000E+00
    0.17256E-02        -0.36353E-03         0.00000E+00
    0.17860E-02        -0.59616E-03         0.00000E+00
    0.18413E-02        -0.82277E-03         0.00000E+00
    0.18906E-02        -0.10430E-02         0.00000E+00
    0.19338E-02        -0.12566E-02         0.00000E+00
    0.19707E-02        -0.14637E-02         0.00000E+00
    0.20015E-02        -0.16644E-02         0.00000E+00
    0.20265E-02        -0.18588E-02         0.00000E+00
    0.20462E-02        -0.20471E-02         0.00000E+00
    0.20608E-02        -0.22298E-02         0.00000E+00
    0.20710E-02        -0.24070E-02         0.00000E+00
    0.20771E-02        -0.25791E-02         0.00000E+00
    0.20796E-02        -0.27464E-02         0.00000E+00
    0.20790E-02        -0.29090E-02         0.00000E+00
    0.20758E-02        -0.30673E-02         0.00000E+00
    0.20702E-02        -0.32216E-02         0.00000E+00
    0.20627E-02        -0.33721E-02         0.00000E+00
    0.20535E-02        -0.35190E-02         0.00000E+00
    0.20431E-02        -0.36625E-02         0.00000E+00
    0.20317E-02        -0.38028E-02         0.00000E+00
    0.20196E-02        -0.39401E-02         0.00000E+00
    0.20069E-02        -0.40746E-02         0.00000E+00
    0.19939E-02        -0.42065E-02         0.00000E+00
    0.19808E-02        -0.43359E-02         0.00000E+00
    0.19677E-02        -0.44629E-02         0.00000E+00
    0.19547E-02        -0.45879E-02         0.00000E+00
    0.19421E-02        -0.47108E-02         0.00000E+00
    0.19298E-02        -0.48319E-02         0.00000E+00
    0.19181E-02        -0.49512E-02         0.00000E+00
    0.19070E-02        -0.50690E-02         0.00000E+00
    0.18965E-02        -0.51854E-02         0.00000E+00
    0.18868E-02        -0.53004E-02         0.00000E+00
    0.18779E-02        -0.54143E-02         0.00000E+00
    0.18699E-02        -0.55272E-02         0.00000E+00
    0.18627E-02        -0.56392E-02         0.00000E+00
    0.18565E-02        -0.57504E-02         0.00000E+00
    0.18512E-02        -0.58611E-02         0.00000E+00
    0.18469E-02        -0.59713E-02         0.00000E+00
    0.18436E-02        -0.60811E-02         0.00000E+00
    0.18413E-02        -0.61907E-02         0.00000E+00
    0.18400E-02        -0.63002E-02         0.00000E+00
    0.18397E-02        -0.64099E-02         0.00000E+00
    0.18405E-02        -0.65197E-02         0.00000E+00
    0.18421E-02        -0.66298E-02         0.00000E+00
    0.18448E-02        -0.67404E-02         0.00000E+00
    0.18483E-02        -0.68517E-02         0.00000E+00
    0.18527E-02        -0.69637E-02         0.00000E+00
    0.18580E-02        -0.70766E-02         0.00000E+00
    0.18640E-02        -0.71905E-02         0.00000E+00
    0.18707E-02        -0.73056E-02         0.00000E+00
    0.18781E-02        -0.74221E-02         0.00000E+00
    0.18860E-02        -0.75400E-02         0.00000E+00
    0.18943E-02        -0.76596E-02         0.00000E+00
    0.19029E-02        -0.77810E-02         0.00000E+00
    0.19117E-02        -0.79043E-02         0.00000E+00
    0.19205E-02        -0.80298E-02         0.00000E+00
    0.19292E-02        -0.81576E-02         0.00000E+00
    0.19375E-02        -0.82879E-02         0.00000E+00
    0.19452E-02        -0.84208E-02         0.00000E+00
    0.19522E-02        -0.85566E-02         0.00000E+00
    0.19580E-02        -0.86954E-02         0.00000E+00
    0.19624E-02        -0.88375E-02         0.00000E+00
    0.19652E-02        -0.89831E-02         0.00000E+00
    0.19658E-02        -0.91324E-02         0.00000E+00
    0.19641E-02        -0.92857E-02         0.00000E+00
    0.19594E-02        -0.94431E-02         0.00000E+00
    0.19515E-02        -0.96049E-02         0.00000E+00
    0.19399E-02        -0.97713E-02         0.00000E+00
    0.19242E-02        -0.99425E-02         0.00000E+00
    0.19039E-02        -0.10119E-01         0.00000E+00
    0.18788E-02        -0.10300E-01         0.00000E+00
    0.18484E-02        -0.10486E-01         0.00000E+00
    0.18125E-02        -0.10677E-01         0.00000E+00
    0.17710E-02        -0.10873E-01         0.00000E+00
    0.17237E-02        -0.11073E-01         0.00000E+00
    0.16706E-02        -0.11276E-01         0.00000E+00
    0.16118E-02        -0.11482E-01         0.00000E+00
    0.15471E-02        -0.11689E-01         0.00000E+00
    0.14764E-02        -0.11895E-01         0.00000E+00
    0.13985E-02        -0.12098E-01         0.00000E+00
    0.13117E-02        -0.12296E-01         0.00000E+00
    0.12121E-02        -0.12484E-01         0.00000E+00
    0.10933E-02        -0.12662E-01         0.00000E+00
    0.94404E-03        -0.12824E-01         0.00000E+00
    0.74609E-03        -0.12968E-01         0.00000E+00
    0.46085E-03        -0.13082E-01         0.00000E+00
    0.00000E+00        -0.13131E-01         0.00000E+00
    0.00000E+00         0.29057E-02         0.00000E+00
    0.47556E-03         0.28614E-02         0.00000E+00
    0.81961E-03         0.27433E-02         0.00000E+00
    0.10857E-02         0.25761E-02         0.00000E+00
    0.12993E-02         0.23743E-02         0.00000E+00
    0.14722E-02         0.21464E-02         0.00000E+00
    0.16100E-02         0.18983E-02         0.00000E+00
    0.17147E-02         0.16340E-02         0.00000E+00
    0.17839E-02         0.13565E-02         0.00000E+00
    0.18140E-02         0.10615E-02         0.00000E+00
    0.18547E-02         0.75679E-03         0.00000E+00
    0.19218E-02         0.45160E-03         0.00000E+00
    0.20001E-02         0.14608E-03         0.00000E+00
    0.20810E-02        -0.15645E-03         0.00000E+00
    0.21599E-02        -0.45367E-03         0.00000E+00
    0.22340E-02        -0.74416E-03         0.00000E+00
    0.23017E-02        -0.10271E-02         0.00000E+00
    0.23620E-02        -0.13020E-02         0.00000E+00
    0.24147E-02        -0.15687E-02         0.00000E+00
    0.24596E-02        -0.18272E-02         0.00000E+00
    0.24971E-02        -0.20777E-02         0.00000E+00
    0.25275E-02        -0.23204E-02         0.00000E+00
    0.25512E-02        -0.25557E-02         0.00000E+00
    0.25689E-02        -0.27838E-02         0.00000E+00
    0.25810E-02        -0.30052E-02         0.00000E+00
    0.25881E-02        -0.32201E-02         0.00000E+00
    0.25909E-02        -0.34291E-02         0.00000E+00
    0.25898E-02        -0.36323E-02         0.00000E+00
    0.25854E-02        -0.38302E-02         0.00000E+00
    0.25782E-02        -0.40231E-02         0.00000E+00
    0.25687E-02        -0.42112E-02         0.00000E+00
    0.25571E-02        -0.43948E-02         0.00000E+00
    0.25440E-02        -0.45743E-02         0.00000E+00
    0.25297E-02        -0.47497E-02         0.00000E+00
    0.25145E-02        -0.49215E-02         0.00000E+00
    0.24986E-02        -0.50897E-02         0.00000E+00
    0.24824E-02        -0.52547E-02         0.00000E+00
    0.24660E-02        -0.54166E-02         0.00000E+00
    0.24496E-02        -0.55756E-02         0.00000E+00
    0.24335E-02        -0.57319E-02         0.00000E+00
    0.24177E-02        -0.58857E-02         0.00000E+00
    0.24024E-02        -0.60372E-02         0.00000E+00
    0.23878E-02        -0.61866E-02         0.00000E+00
    0.23740E-02        -0.63340E-02         0.00000E+00
    0.23610E-02        -0.64796E-02         0.00000E+00
    0.23489E-02        -0.66236E-02         0.00000E+00
    0.23378E-02        -0.67661E-02         0.00000E+00
    0.23278E-02        -0.69074E-02         0.00000E+00
    0.23189E-02        -0.70475E-02         0.00000E+00
    0.23112E-02        -0.71868E-02         0.00000E+00
    0.23046E-02        -0.73253E-02         0.00000E+00
    0.22993E-02        -0.74631E-02         0.00000E+00
    0.22952E-02        -0.76006E-02         0.00000E+00
    0.22924E-02        -0.77378E-02         0.00000E+00
    0.22909E-02        -0.78749E-02         0.00000E+00
    0.22905E-02        -0.80120E-02         0.00000E+00
    0.22915E-02        -0.81494E-02         0.00000E+00
    0.22936E-02        -0.82873E-02         0.00000E+00
    0.22969E-02        -0.84257E-02         0.00000E+00
    0.23014E-02        -0.85649E-02         0.00000E+00
    0.23070E-02        -0.87050E-02         0.00000E+00
    0.23136E-02        -0.88462E-02         0.00000E+00
    0.23212E-02        -0.89888E-02         0.00000E+00
    0.23296E-02        -0.91328E-02         0.00000E+00
    0.23389E-02        -0.92784E-02         0.00000E+00
    0.23488E-02        -0.94259E-02         0.00000E+00
    0.23593E-02        -0.95755E-02         0.00000E+00
    0.23701E-02        -0.97273E-02         0.00000E+00
    0.23812E-02        -0.98815E-02         0.00000E+00
    0.23923E-02        -0.10038E-01         0.00000E+00
    0.24032E-02        -0.10198E-01         0.00000E+00
    0.24137E-02        -0.10361E-01         0.00000E+00
    0.24235E-02        -0.10527E-01         0.00000E+00
    0.24323E-02        -0.10697E-01         0.00000E+00
    0.24398E-02        -0.10870E-01         0.00000E+00
    0.24455E-02        -0.11048E-01         0.00000E+00
    0.24491E-02        -0.11229E-01         0.00000E+00
    0.24502E-02        -0.11416E-01         0.00000E+00
    0.24482E-02        -0.11607E-01         0.00000E+00
    0.24427E-02        -0.11803E-01         0.00000E+00
    0.24331E-02        -0.12005E-01         0.00000E+00
    0.24189E-02        -0.12213E-01         0.00000E+00
    0.23995E-02        -0.12426E-01         0.00000E+00
    0.23745E-02        -0.12646E-01         0.00000E+00
    0.23434E-02        -0.12872E-01         0.00000E+00
    0.23056E-02        -0.13104E-01         0.00000E+00
    0.22610E-02        -0.13342E-01         0.00000E+00
    0.22091E-02        -0.13586E-01         0.00000E+00
    0.21499E-02        -0.13836E-01         0.00000E+00
    0.20834E-02        -0.14089E-01         0.00000E+00
    0.20093E-02        -0.14346E-01         0.00000E+00
    0.19276E-02        -0.14604E-01         0.00000E+00
    0.18379E-02        -0.14860E-01         0.00000E+00
    0.17388E-02        -0.15113E-01         0.00000E+00
    0.16280E-02        -0.15359E-01         0.00000E+00
    0.15008E-02        -0.15593E-01         0.00000E+00
    0.13491E-02        -0.15813E-01         0.00000E+00
    0.11594E-02        -0.16012E-01         0.00000E+00
    0.90885E-03        -0.16185E-01         0.00000E+00
    0.55172E-03        -0.16318E-01         0.00000E+00
    0.00000E+00        -0.16371E-01         0.00000E+00
    0.00000E+00         0.34642E-02         0.00000E+00
    0.55138E-03         0.34134E-02         0.00000E+00
    0.96175E-03         0.32759E-02         0.00000E+00
    0.12824E-02         0.30783E-02         0.00000E+00
    0.15409E-02         0.28385E-02         0.00000E+00
    0.17505E-02         0.25670E-02         0.00000E+00
    0.19182E-02         0.22711E-02         0.00000E+00
    0.20463E-02         0.19558E-02         0.00000E+00
    0.21333E-02         0.16247E-02         0.00000E+00
    0.21779E-02         0.12747E-02         0.00000E+00
    0.22320E-02         0.90956E-03         0.00000E+00
    0.23134E-02         0.54253E-03         0.00000E+00
    0.24067E-02         0.17568E-03         0.00000E+00
    0.25026E-02        -0.18727E-03         0.00000E+00
    0.25957E-02        -0.54366E-03         0.00000E+00
    0.26829E-02        -0.89188E-03         0.00000E+00
    0.27624E-02        -0.12310E-02         0.00000E+00
    0.28331E-02        -0.15604E-02         0.00000E+00
    0.28948E-02        -0.18800E-02         0.00000E+00
    0.29474E-02        -0.21898E-02         0.00000E+00
    0.29911E-02        -0.24900E-02         0.00000E+00
    0.30264E-02        -0.27810E-02         0.00000E+00
    0.30539E-02        -0.30630E-02         0.00000E+00
    0.30743E-02        -0.33365E-02         0.00000E+00
    0.30881E-02        -0.36019E-02         0.00000E+00
    0.30960E-02        -0.38597E-02         0.00000E+00
    0.30988E-02        -0.41103E-02         0.00000E+00
    0.30971E-02        -0.43542E-02         0.00000E+00
    0.30915E-02        -0.45916E-02         0.00000E+00
    0.30826E-02        -0.48230E-02         0.00000E+00
    0.30709E-02        -0.50488E-02         0.00000E+00
    0.30569E-02        -0.52692E-02         0.00000E+00
    0.30411E-02        -0.54846E-02         0.00000E+00
    0.30239E-02        -0.56953E-02         0.00000E+00
    0.30055E-02        -0.59015E-02         0.00000E+00
    0.29865E-02        -0.61035E-02         0.00000E+00
    0.29670E-02        -0.63016E-02         0.00000E+00
    0.29473E-02        -0.64961E-02         0.00000E+00
    0.29277E-02        -0.66870E-02         0.00000E+00
    0.29083E-02        -0.68748E-02         0.00000E+00
    0.28894E-02        -0.70596E-02         0.00000E+00
    0.28712E-02        -0.72415E-02         0.00000E+00
    0.28537E-02        -0.74210E-02         0.00000E+00
    0.28371E-02        -0.75980E-02         0.00000E+00
    0.28216E-02        -0.77730E-02         0.00000E+00
    0.28071E-02        -0.79459E-02         0.00000E+00
    0.27939E-02        -0.81172E-02         0.00000E+00
    0.27819E-02        -0.82869E-02         0.00000E+00
    0.27713E-02        -0.84553E-02         0.00000E+00
    0.27621E-02        -0.86226E-02         0.00000E+00
    0.27543E-02        -0.87890E-02         0.00000E+00
    0.27480E-02        -0.89546E-02         0.00000E+00
    0.27432E-02        -0.91198E-02         0.00000E+00
    0.27398E-02        -0.92846E-02         0.00000E+00
    0.27380E-02        -0.94493E-02         0.00000E+00
    0.27377E-02        -0.96141E-02         0.00000E+00
    0.27389E-02        -0.97791E-02         0.00000E+00
    0.27415E-02        -0.99447E-02         0.00000E+00
    0.27455E-02        -0.10111E-01         0.00000E+00
    0.27510E-02        -0.10278E-01         0.00000E+00
    0.27577E-02        -0.10446E-01         0.00000E+00
    0.27657E-02        -0.10616E-01         0.00000E+00
    0.27748E-02        -0.10787E-01         0.00000E+00
    0.27851E-02        -0.10960E-01         0.00000E+00
    0.27962E-02        -0.11135E-01         0.00000E+00
    0.28082E-02        -0.11312E-01         0.00000E+00
    0.28208E-02        -0.11492E-01         0.00000E+00
    0.28339E-02        -0.11674E-01         0.00000E+00
    0.28473E-02        -0.11859E-01         0.00000E+00
    0.28607E-02        -0.12047E-01         0.00000E+00
    0.28740E-02        -0.12239E-01         0.00000E+00
    0.28867E-02        -0.12434E-01         0.00000E+00
    0.28986E-02        -0.12633E-01         0.00000E+00
    0.29094E-02        -0.12837E-01         0.00000E+00
    0.29185E-02        -0.13045E-01         0.00000E+00
    0.29256E-02        -0.13258E-01         0.00000E+00
    0.29302E-02        -0.13476E-01         0.00000E+00
    0.29317E-02        -0.13699E-01         0.00000E+00
    0.29296E-02        -0.13928E-01         0.00000E+00
    0.29233E-02        -0.14164E-01         0.00000E+00
    0.29122E-02        -0.14405E-01         0.00000E+00
    0.28955E-02        -0.14654E-01         0.00000E+00
    0.28726E-02        -0.14910E-01         0.00000E+00
    0.28430E-02        -0.15173E-01         0.00000E+00
    0.28060E-02        -0.15443E-01         0.00000E+00
    0.27610E-02        -0.15721E-01         0.00000E+00
    0.27076E-02        -0.16006E-01         0.00000E+00
    0.26455E-02        -0.16298E-01         0.00000E+00
    0.25744E-02        -0.16596E-01         0.00000E+00
    0.24942E-02        -0.16900E-01         0.00000E+00
    0.24047E-02        -0.17207E-01         0.00000E+00
    0.23057E-02        -0.17515E-01         0.00000E+00
    0.21964E-02        -0.17822E-01         0.00000E+00
    0.20755E-02        -0.18125E-01         0.00000E+00
    0.19399E-02        -0.18418E-01         0.00000E+00
    0.17841E-02        -0.18697E-01         0.00000E+00
    0.15985E-02        -0.18957E-01         0.00000E+00
    0.13673E-02        -0.19192E-01         0.00000E+00
    0.10633E-02        -0.19393E-01         0.00000E+00
    0.63616E-03        -0.19541E-01         0.00000E+00
    0.00000E+00        -0.19599E-01         0.00000E+00
    0.00000E+00         0.40173E-02         0.00000E+00
    0.62355E-03         0.39601E-02         0.00000E+00
    0.10986E-02         0.38037E-02         0.00000E+00
    0.14739E-02         0.35764E-02         0.00000E+00
    0.17775E-02         0.32992E-02         0.00000E+00
    0.20245E-02         0.29848E-02         0.00000E+00
    0.22226E-02         0.26416E-02         0.00000E+00
    0.23751E-02         0.22758E-02         0.00000E+00
    0.24810E-02         0.18916E-02         0.00000E+00
    0.25419E-02         0.14873E-02         0.00000E+00
    0.26111E-02         0.10621E-02         0.00000E+00
    0.27073E-02         0.63324E-03         0.00000E+00
    0.28157E-02         0.20509E-03         0.00000E+00
    0.29261E-02        -0.21816E-03         0.00000E+00
    0.30329E-02        -0.63359E-03         0.00000E+00
    0.31327E-02        -0.10394E-02         0.00000E+00
    0.32234E-02        -0.14344E-02         0.00000E+00
    0.33041E-02        -0.18183E-02         0.00000E+00
    0.33743E-02        -0.21906E-02         0.00000E+00
    0.34340E-02        -0.25516E-02         0.00000E+00
    0.34835E-02        -0.29014E-02         0.00000E+00
    0.35235E-02        -0.32404E-02         0.00000E+00
    0.35544E-02        -0.35690E-02         0.00000E+00
    0.35771E-02        -0.38878E-02         0.00000E+00
    0.35924E-02        -0.41973E-02         0.00000E+00
    0.36009E-02        -0.44979E-02         0.00000E+00
    0.36036E-02        -0.47901E-02         0.00000E+00
    0.36011E-02        -0.50745E-02         0.00000E+00
    0.35942E-02        -0.53515E-02         0.00000E+00
    0.35835E-02        -0.56215E-02         0.00000E+00
    0.35695E-02        -0.58849E-02         0.00000E+00
    0.35530E-02        -0.61421E-02         0.00000E+00
    0.35344E-02        -0.63935E-02         0.00000E+00
    0.35142E-02        -0.66394E-02         0.00000E+00
    0.34927E-02        -0.68801E-02         0.00000E+00
    0.34704E-02        -0.71160E-02         0.00000E+00
    0.34477E-02        -0.73473E-02         0.00000E+00
    0.34247E-02        -0.75743E-02         0.00000E+00
    0.34018E-02        -0.77973E-02         0.00000E+00
    0.33793E-02        -0.80166E-02         0.00000E+00
    0.33573E-02        -0.82323E-02         0.00000E+00
    0.33361E-02        -0.84449E-02         0.00000E+00
    0.33157E-02        -0.86544E-02         0.00000E+00
    0.32965E-02        -0.88612E-02         0.00000E+00
    0.32784E-02        -0.90655E-02         0.00000E+00
    0.32616E-02        -0.92676E-02         0.00000E+00
    0.32462E-02        -0.94676E-02         0.00000E+00
    0.32323E-02        -0.96659E-02         0.00000E+00
    0.32200E-02        -0.98626E-02         0.00000E+00
    0.32093E-02        -0.10058E-01         0.00000E+00
    0.32003E-02        -0.10252E-01         0.00000E+00
    0.31930E-02        -0.10446E-01         0.00000E+00
    0.31874E-02        -0.10639E-01         0.00000E+00
    0.31836E-02        -0.10831E-01         0.00000E+00
    0.31815E-02        -0.11024E-01         0.00000E+00
    0.31812E-02        -0.11216E-01         0.00000E+00
    0.31826E-02        -0.11409E-01         0.00000E+00
    0.31858E-02        -0.11602E-01         0.00000E+00
    0.31905E-02        -0.11796E-01         0.00000E+00
    0.31969E-02        -0.11992E-01         0.00000E+00
    0.32049E-02        -0.12188E-01         0.00000E+00
    0.32142E-02        -0.12386E-01         0.00000E+00
    0.32250E-02        -0.12586E-01         0.00000E+00
    0.32370E-02        -0.12788E-01         0.00000E+00
    0.32501E-02        -0.12992E-01         0.00000E+00
    0.32641E-02        -0.13199E-01         0.00000E+00
    0.32789E-02        -0.13408E-01         0.00000E+00
    0.32943E-02        -0.13621E-01         0.00000E+00
    0.33101E-02        -0.13837E-01         0.00000E+00
    0.33259E-02        -0.14057E-01         0.00000E+00
    0.33415E-02        -0.14280E-01         0.00000E+00
    0.33565E-02        -0.14508E-01         0.00000E+00
    0.33706E-02        -0.14740E-01         0.00000E+00
    0.33833E-02        -0.14978E-01         0.00000E+00
    0.33942E-02        -0.15220E-01         0.00000E+00
    0.34027E-02        -0.15468E-01         0.00000E+00
    0.34083E-02        -0.15722E-01         0.00000E+00
    0.34105E-02        -0.15982E-01         0.00000E+00
    0.34084E-02        -0.16249E-01         0.00000E+00
    0.34014E-02        -0.16524E-01         0.00000E+00
    0.33888E-02        -0.16805E-01         0.00000E+00
    0.33697E-02        -0.17095E-01         0.00000E+00
    0.33435E-02        -0.17392E-01         0.00000E+00
    0.33094E-02        -0.17698E-01         0.00000E+00
    0.32666E-02        -0.18013E-01         0.00000E+00
    0.32145E-02        -0.18336E-01         0.00000E+00
    0.31525E-02        -0.18668E-01         0.00000E+00
    0.30802E-02        -0.19008E-01         0.00000E+00
    0.29972E-02        -0.19355E-01         0.00000E+00
    0.29032E-02        -0.19708E-01         0.00000E+00
    0.27980E-02        -0.20065E-01         0.00000E+00
    0.26813E-02        -0.20424E-01         0.00000E+00
    0.25521E-02        -0.20781E-01         0.00000E+00
    0.24086E-02        -0.21132E-01         0.00000E+00
    0.22474E-02        -0.21472E-01         0.00000E+00
    0.20620E-02        -0.21796E-01         0.00000E+00
    0.18416E-02        -0.22096E-01         0.00000E+00
    0.15679E-02        -0.22365E-01         0.00000E+00
    0.12104E-02        -0.22591E-01         0.00000E+00
    0.71517E-03        -0.22753E-01         0.00000E+00
    0.00000E+00        -0.22815E-01         0.00000E+00
    0.00000E+00         0.45656E-02         0.00000E+00
    0.69274E-03         0.45020E-02         0.00000E+00
    0.12310E-02         0.43269E-02         0.00000E+00
    0.16606E-02         0.40705E-02         0.00000E+00
    0.20097E-02         0.37566E-02         0.00000E+00
    0.22945E-02         0.33997E-02         0.00000E+00
    0.25238E-02         0.30098E-02         0.00000E+00
    0.27014E-02         0.25940E-02         0.00000E+00
    0.28272E-02         0.21570E-02         0.00000E+00
    0.29059E-02         0.16989E-02         0.00000E+00
    0.29918E-02         0.12140E-02         0.00000E+00
    0.31036E-02         0.72353E-03         0.00000E+00
    0.32269E-02         0.23418E-03         0.00000E+00
    0.33516E-02        -0.24924E-03         0.00000E+00
    0.34717E-02        -0.72352E-03         0.00000E+00
    0.35835E-02        -0.11867E-02         0.00000E+00
    0.36850E-02        -0.16376E-02         0.00000E+00
    0.37750E-02        -0.20756E-02         0.00000E+00
    0.38532E-02        -0.25005E-02         0.00000E+00
    0.39196E-02        -0.29125E-02         0.00000E+00
    0.39745E-02        -0.33117E-02         0.00000E+00
    0.40187E-02        -0.36987E-02         0.00000E+00
    0.40527E-02        -0.40739E-02         0.00000E+00
    0.40775E-02        -0.44379E-02         0.00000E+00
    0.40940E-02        -0.47913E-02         0.00000E+00
    0.41029E-02        -0.51346E-02         0.00000E+00
    0.41053E-02        -0.54685E-02         0.00000E+00
    0.41018E-02        -0.57934E-02         0.00000E+00
    0.40934E-02        -0.61099E-02         0.00000E+00
    0.40808E-02        -0.64184E-02         0.00000E+00
    0.40646E-02        -0.67195E-02         0.00000E+00
    0.40455E-02        -0.70136E-02         0.00000E+00
    0.40240E-02        -0.73010E-02         0.00000E+00
    0.40007E-02        -0.75822E-02         0.00000E+00
    0.39761E-02        -0.78574E-02         0.00000E+00
    0.39506E-02        -0.81272E-02         0.00000E+00
    0.39245E-02        -0.83917E-02         0.00000E+00
    0.38983E-02        -0.86514E-02         0.00000E+00
    0.38722E-02        -0.89064E-02         0.00000E+00
    0.38465E-02        -0.91572E-02         0.00000E+00
    0.38214E-02        -0.94041E-02         0.00000E+00
    0.37971E-02        -0.96472E-02         0.00000E+00
    0.37739E-02        -0.98870E-02         0.00000E+00
    0.37520E-02        -0.10124E-01         0.00000E+00
    0.37314E-02        -0.10357E-01         0.00000E+00
    0.37123E-02        -0.10589E-01         0.00000E+00
    0.36948E-02        -0.10817E-01         0.00000E+00
    0.36790E-02        -0.11044E-01         0.00000E+00
    0.36650E-02        -0.11269E-01         0.00000E+00
    0.36528E-02        -0.11493E-01         0.00000E+00
    0.36426E-02        -0.11715E-01         0.00000E+00
    0.36343E-02        -0.11937E-01         0.00000E+00
    0.36280E-02        -0.12157E-01         0.00000E+00
    0.36237E-02        -0.12378E-01         0.00000E+00
    0.36214E-02        -0.12598E-01         0.00000E+00
    0.36211E-02        -0.12818E-01         0.00000E+00
    0.36228E-02        -0.13038E-01         0.00000E+00
    0.36264E-02        -0.13260E-01         0.00000E+00
    0.36320E-02        -0.13482E-01         0.00000E+00
    0.36393E-02        -0.13705E-01         0.00000E+00
    0.36485E-02        -0.13930E-01         0.00000E+00
    0.36593E-02        -0.14156E-01         0.00000E+00
    0.36716E-02        -0.14385E-01         0.00000E+00
    0.36854E-02        -0.14616E-01         0.00000E+00
    0.37004E-02        -0.14849E-01         0.00000E+00
    0.37166E-02        -0.15086E-01         0.00000E+00
    0.37336E-02        -0.15325E-01         0.00000E+00
    0.37513E-02        -0.15568E-01         0.00000E+00
    0.37695E-02        -0.15815E-01         0.00000E+00
    0.37877E-02        -0.16066E-01         0.00000E+00
    0.38056E-02        -0.16322E-01         0.00000E+00
    0.38230E-02        -0.16582E-01         0.00000E+00
    0.38393E-02        -0.16848E-01         0.00000E+00
    0.38541E-02        -0.17119E-01         0.00000E+00
    0.38668E-02        -0.17396E-01         0.00000E+00
    0.38768E-02        -0.17679E-01         0.00000E+00
    0.38836E-02        -0.17969E-01         0.00000E+00
    0.38864E-02        -0.18266E-01         0.00000E+00
    0.38844E-02        -0.18571E-01         0.00000E+00
    0.38769E-02        -0.18883E-01         0.00000E+00
    0.38629E-02        -0.19205E-01         0.00000E+00
    0.38417E-02        -0.19535E-01         0.00000E+00
    0.38122E-02        -0.19874E-01         0.00000E+00
    0.37737E-02        -0.20223E-01         0.00000E+00
    0.37253E-02        -0.20582E-01         0.00000E+00
    0.36662E-02        -0.20950E-01         0.00000E+00
    0.35957E-02        -0.21328E-01         0.00000E+00
    0.35132E-02        -0.21715E-01         0.00000E+00
    0.34182E-02        -0.22111E-01         0.00000E+00
    0.33104E-02        -0.22513E-01         0.00000E+00
    0.31894E-02        -0.22920E-01         0.00000E+00
    0.30546E-02        -0.23329E-01         0.00000E+00
    0.29049E-02        -0.23735E-01         0.00000E+00
    0.27383E-02        -0.24135E-01         0.00000E+00
    0.25507E-02        -0.24522E-01         0.00000E+00
    0.23349E-02        -0.24889E-01         0.00000E+00
    0.20787E-02        -0.25228E-01         0.00000E+00
    0.17618E-02        -0.25530E-01         0.00000E+00
    0.13506E-02        -0.25781E-01         0.00000E+00
    0.78957E-03        -0.25956E-01         0.00000E+00
    0.00000E+00        -0.26021E-01         0.00000E+00
    0.00000E+00         0.51097E-02         0.00000E+00
    0.75949E-03         0.50396E-02         0.00000E+00
    0.13596E-02         0.48457E-02         0.00000E+00
    0.18431E-02         0.45607E-02         0.00000E+00
    0.22379E-02         0.42106E-02         0.00000E+00
    0.25609E-02         0.38118E-02         0.00000E+00
    0.28219E-02         0.33756E-02         0.00000E+00
    0.30255E-02         0.29103E-02         0.00000E+00
    0.31721E-02         0.24211E-02         0.00000E+00
    0.32701E-02         0.19093E-02         0.00000E+00
    0.33741E-02         0.13651E-02         0.00000E+00
    0.35021E-02         0.81317E-03         0.00000E+00
    0.36405E-02         0.26280E-03         0.00000E+00
    0.37792E-02        -0.28059E-03         0.00000E+00
    0.39121E-02        -0.81354E-03         0.00000E+00
    0.40354E-02        -0.13339E-02         0.00000E+00
    0.41471E-02        -0.18404E-02         0.00000E+00
    0.42460E-02        -0.23324E-02         0.00000E+00
    0.43317E-02        -0.28098E-02         0.00000E+00
    0.44043E-02        -0.32726E-02         0.00000E+00
    0.44642E-02        -0.37211E-02         0.00000E+00
    0.45121E-02        -0.41559E-02         0.00000E+00
    0.45489E-02        -0.45776E-02         0.00000E+00
    0.45756E-02        -0.49867E-02         0.00000E+00
    0.45929E-02        -0.53840E-02         0.00000E+00
    0.46020E-02        -0.57700E-02         0.00000E+00
    0.46039E-02        -0.61454E-02         0.00000E+00
    0.45993E-02        -0.65108E-02         0.00000E+00
    0.45893E-02        -0.68668E-02         0.00000E+00
    0.45746E-02        -0.72140E-02         0.00000E+00
    0.45561E-02        -0.75527E-02         0.00000E+00
    0.45343E-02        -0.78836E-02         0.00000E+00
    0.45099E-02        -0.82071E-02         0.00000E+00
    0.44836E-02        -0.85235E-02         0.00000E+00
    0.44558E-02        -0.88334E-02         0.00000E+00
    0.44270E-02        -0.91370E-02         0.00000E+00
    0.43976E-02        -0.94349E-02         0.00000E+00
    0.43681E-02        -0.97272E-02         0.00000E+00
    0.43387E-02        -0.10014E-01         0.00000E+00
    0.43098E-02        -0.10297E-01         0.00000E+00
    0.42816E-02        -0.10575E-01         0.00000E+00
    0.42544E-02        -0.10849E-01         0.00000E+00
    0.42284E-02        -0.11119E-01         0.00000E+00
    0.42037E-02        -0.11385E-01         0.00000E+00
    0.41806E-02        -0.11648E-01         0.00000E+00
    0.41592E-02        -0.11909E-01         0.00000E+00
    0.41396E-02        -0.12166E-01         0.00000E+00
    0.41219E-02        -0.12422E-01         0.00000E+00
    0.41062E-02        -0.12675E-01         0.00000E+00
    0.40926E-02        -0.12927E-01         0.00000E+00
    0.40812E-02        -0.13178E-01         0.00000E+00
    0.40719E-02        -0.13427E-01         0.00000E+00
    0.40649E-02        -0.13676E-01         0.00000E+00
    0.40602E-02        -0.13924E-01         0.00000E+00
    0.40577E-02        -0.14172E-01         0.00000E+00
    0.40574E-02        -0.14420E-01         0.00000E+00
    0.40594E-02        -0.14668E-01         0.00000E+00
    0.40635E-02        -0.14917E-01         0.00000E+00
    0.40698E-02        -0.15167E-01         0.00000E+00
    0.40782E-02        -0.15419E-01         0.00000E+00
    0.40885E-02        -0.15672E-01         0.00000E+00
    0.41007E-02        -0.15927E-01         0.00000E+00
    0.41147E-02        -0.16184E-01         0.00000E+00
    0.41303E-02        -0.16444E-01         0.00000E+00
    0.41473E-02        -0.16707E-01         0.00000E+00
    0.41656E-02        -0.16973E-01         0.00000E+00
    0.41849E-02        -0.17243E-01         0.00000E+00
    0.42050E-02        -0.17516E-01         0.00000E+00
    0.42255E-02        -0.17794E-01         0.00000E+00
    0.42461E-02        -0.18077E-01         0.00000E+00
    0.42665E-02        -0.18364E-01         0.00000E+00
    0.42863E-02        -0.18657E-01         0.00000E+00
    0.43048E-02        -0.18955E-01         0.00000E+00
    0.43217E-02        -0.19260E-01         0.00000E+00
    0.43363E-02        -0.19571E-01         0.00000E+00
    0.43480E-02        -0.19890E-01         0.00000E+00
    0.43560E-02        -0.20216E-01         0.00000E+00
    0.43595E-02        -0.20549E-01         0.00000E+00
    0.43577E-02        -0.20892E-01         0.00000E+00
    0.43498E-02        -0.21243E-01         0.00000E+00
    0.43346E-02        -0.21604E-01         0.00000E+00
    0.43113E-02        -0.21974E-01         0.00000E+00
    0.42787E-02        -0.22355E-01         0.00000E+00
    0.42360E-02        -0.22747E-01         0.00000E+00
    0.41821E-02        -0.23149E-01         0.00000E+00
    0.41161E-02        -0.23563E-01         0.00000E+00
    0.40371E-02        -0.23987E-01         0.00000E+00
    0.39445E-02        -0.24421E-01         0.00000E+00
    0.38376E-02        -0.24865E-01         0.00000E+00
    0.37158E-02        -0.25316E-01         0.00000E+00
    0.35787E-02        -0.25772E-01         0.00000E+00
    0.34256E-02        -0.26231E-01         0.00000E+00
    0.32550E-02        -0.26687E-01         0.00000E+00
    0.30646E-02        -0.27135E-01         0.00000E+00
    0.28499E-02        -0.27568E-01         0.00000E+00
    0.26029E-02        -0.27978E-01         0.00000E+00
    0.23101E-02        -0.28355E-01         0.00000E+00
    0.19494E-02        -0.28688E-01         0.00000E+00
    0.14848E-02        -0.28961E-01         0.00000E+00
    0.85999E-03        -0.29149E-01         0.00000E+00
    0.00000E+00        -0.29217E-01         0.00000E+00
    0.00000E+00         0.56501E-02         0.00000E+00
    0.82427E-03         0.55733E-02         0.00000E+00
    0.14850E-02         0.53606E-02         0.00000E+00
    0.20222E-02         0.50473E-02         0.00000E+00
    0.24627E-02         0.46614E-02         0.00000E+00
    0.28243E-02         0.42211E-02         0.00000E+00
    0.31176E-02         0.37391E-02         0.00000E+00
    0.33477E-02         0.32247E-02         0.00000E+00
    0.35160E-02         0.26836E-02         0.00000E+00
    0.36345E-02         0.21184E-02         0.00000E+00
    0.37580E-02         0.15151E-02         0.00000E+00
    0.39029E-02         0.90197E-03         0.00000E+00
    0.40564E-02         0.29081E-03         0.00000E+00
    0.42088E-02        -0.31233E-03         0.00000E+00
    0.43541E-02        -0.90373E-03         0.00000E+00
    0.44885E-02        -0.14811E-02         0.00000E+00
    0.46099E-02        -0.20430E-02         0.00000E+00
    0.47171E-02        -0.25889E-02         0.00000E+00
    0.48098E-02        -0.31184E-02         0.00000E+00
    0.48881E-02        -0.36319E-02         0.00000E+00
    0.49526E-02        -0.41296E-02         0.00000E+00
    0.50040E-02        -0.46122E-02         0.00000E+00
    0.50432E-02        -0.50802E-02         0.00000E+00
    0.50713E-02        -0.55343E-02         0.00000E+00
    0.50894E-02        -0.59754E-02         0.00000E+00
    0.50984E-02        -0.64040E-02         0.00000E+00
    0.50995E-02        -0.68210E-02         0.00000E+00
    0.50937E-02        -0.72269E-02         0.00000E+00
    0.50820E-02        -0.76224E-02         0.00000E+00
    0.50651E-02        -0.80081E-02         0.00000E+00
    0.50441E-02        -0.83845E-02         0.00000E+00
    0.50195E-02        -0.87523E-02         0.00000E+00
    0.49922E-02        -0.91118E-02         0.00000E+00
    0.49627E-02        -0.94636E-02         0.00000E+00
    0.49317E-02        -0.98081E-02         0.00000E+00
    0.48996E-02        -0.10146E-01         0.00000E+00
    0.48670E-02        -0.10477E-01         0.00000E+00
    0.48341E-02        -0.10802E-01         0.00000E+00
    0.48015E-02        -0.11121E-01         0.00000E+00
    0.47694E-02        -0.11435E-01         0.00000E+00
    0.47381E-02        -0.11745E-01         0.00000E+00
    0.47079E-02        -0.12049E-01         0.00000E+00
    0.46790E-02        -0.12349E-01         0.00000E+00
    0.46517E-02        -0.12646E-01         0.00000E+00
    0.46261E-02        -0.12939E-01         0.00000E+00
    0.46024E-02        -0.13228E-01         0.00000E+00
    0.45807E-02        -0.13515E-01         0.00000E+00
    0.45611E-02        -0.13799E-01         0.00000E+00
    0.45437E-02        -0.14081E-01         0.00000E+00
    0.45287E-02        -0.14361E-01         0.00000E+00
    0.45161E-02        -0.14640E-01         0.00000E+00
    0.45059E-02        -0.14917E-01         0.00000E+00
    0.44982E-02        -0.15194E-01         0.00000E+00
    0.44930E-02        -0.15470E-01         0.00000E+00
    0.44903E-02        -0.15745E-01         0.00000E+00
    0.44901E-02        -0.16021E-01         0.00000E+00
    0.44923E-02        -0.16297E-01         0.00000E+00
    0.44970E-02        -0.16575E-01         0.00000E+00
    0.45041E-02        -0.16853E-01         0.00000E+00
    0.45134E-02        -0.17132E-01         0.00000E+00
    0.45250E-02        -0.17414E-01         0.00000E+00
    0.45387E-02        -0.17698E-01         0.00000E+00
    0.45543E-02        -0.17984E-01         0.00000E+00
    0.45717E-02        -0.18273E-01         0.00000E+00
    0.45908E-02        -0.18565E-01         0.00000E+00
    0.46112E-02        -0.18861E-01         0.00000E+00
    0.46328E-02        -0.19160E-01         0.00000E+00
    0.46552E-02        -0.19465E-01         0.00000E+00
    0.46782E-02        -0.19773E-01         0.00000E+00
    0.47013E-02        -0.20087E-01         0.00000E+00
    0.47242E-02        -0.20406E-01         0.00000E+00
    0.47463E-02        -0.20732E-01         0.00000E+00
    0.47672E-02        -0.21063E-01         0.00000E+00
    0.47863E-02        -0.21402E-01         0.00000E+00
    0.48028E-02        -0.21747E-01         0.00000E+00
    0.48161E-02        -0.22101E-01         0.00000E+00
    0.48254E-02        -0.22463E-01         0.00000E+00
    0.48298E-02        -0.22833E-01         0.00000E+00
    0.48284E-02        -0.23213E-01         0.00000E+00
    0.48201E-02        -0.23602E-01         0.00000E+00
    0.48039E-02        -0.24002E-01         0.00000E+00
    0.47786E-02        -0.24413E-01         0.00000E+00
    0.47431E-02        -0.24836E-01         0.00000E+00
    0.46963E-02        -0.25270E-01         0.00000E+00
    0.46370E-02        -0.25716E-01         0.00000E+00
    0.45642E-02        -0.26174E-01         0.00000E+00
    0.44769E-02        -0.26644E-01         0.00000E+00
    0.43742E-02        -0.27125E-01         0.00000E+00
    0.42553E-02        -0.27616E-01         0.00000E+00
    0.41195E-02        -0.28116E-01         0.00000E+00
    0.39662E-02        -0.28622E-01         0.00000E+00
    0.37944E-02        -0.29129E-01         0.00000E+00
    0.36025E-02        -0.29634E-01         0.00000E+00
    0.33878E-02        -0.30130E-01         0.00000E+00
    0.31453E-02        -0.30608E-01         0.00000E+00
    0.28662E-02        -0.31061E-01         0.00000E+00
    0.25360E-02        -0.31476E-01         0.00000E+00
    0.21311E-02        -0.31839E-01         0.00000E+00
    0.16135E-02        -0.32134E-01         0.00000E+00
    0.92698E-03        -0.32333E-01         0.00000E+00
    0.00000E+00        -0.32404E-01         0.00000E+00
    0.00000E+00         0.61872E-02         0.00000E+00
    0.88750E-03         0.61035E-02         0.00000E+00
    0.16079E-02         0.58717E-02         0.00000E+00
    0.21982E-02         0.55302E-02         0.00000E+00
    0.26845E-02         0.51091E-02         0.00000E+00
    0.30850E-02         0.46278E-02         0.00000E+00
    0.34110E-02         0.41003E-02         0.00000E+00
    0.36685E-02         0.35372E-02         0.00000E+00
    0.38591E-02         0.29446E-02         0.00000E+00
    0.39994E-02         0.23258E-02         0.00000E+00
    0.41436E-02         0.16637E-02         0.00000E+00
    0.43059E-02         0.98972E-03         0.00000E+00
    0.44746E-02         0.31807E-03         0.00000E+00
    0.46406E-02        -0.34457E-03         0.00000E+00
    0.47979E-02        -0.99417E-03         0.00000E+00
    0.49429E-02        -0.16282E-02         0.00000E+00
    0.50734E-02        -0.22454E-02         0.00000E+00
    0.51884E-02        -0.28449E-02         0.00000E+00
    0.52876E-02        -0.34265E-02         0.00000E+00
    0.53712E-02        -0.39905E-02         0.00000E+00
    0.54398E-02        -0.45372E-02         0.00000E+00
    0.54942E-02        -0.50674E-02         0.00000E+00
    0.55356E-02        -0.55816E-02         0.00000E+00
    0.55649E-02        -0.60807E-02         0.00000E+00
    0.55833E-02        -0.65655E-02         0.00000E+00
    0.55921E-02        -0.70367E-02         0.00000E+00
    0.55923E-02        -0.74952E-02         0.00000E+00
    0.55850E-02        -0.79415E-02         0.00000E+00
    0.55714E-02        -0.83765E-02         0.00000E+00
    0.55523E-02        -0.88008E-02         0.00000E+00
    0.55287E-02        -0.92149E-02         0.00000E+00
    0.55013E-02        -0.96195E-02         0.00000E+00
    0.54709E-02        -0.10015E-01         0.00000E+00
    0.54383E-02        -0.10402E-01         0.00000E+00
    0.54040E-02        -0.10781E-01         0.00000E+00
    0.53686E-02        -0.11153E-01         0.00000E+00
    0.53326E-02        -0.11518E-01         0.00000E+00
    0.52964E-02        -0.11875E-01         0.00000E+00
    0.52605E-02        -0.12227E-01         0.00000E+00
    0.52252E-02        -0.12573E-01         0.00000E+00
    0.51908E-02        -0.12913E-01         0.00000E+00
    0.51576E-02        -0.13249E-01         0.00000E+00
    0.51259E-02        -0.13579E-01         0.00000E+00
    0.50960E-02        -0.13906E-01         0.00000E+00
    0.50679E-02        -0.14228E-01         0.00000E+00
    0.50418E-02        -0.14547E-01         0.00000E+00
    0.50180E-02        -0.14863E-01         0.00000E+00
    0.49966E-02        -0.15176E-01         0.00000E+00
    0.49776E-02        -0.15486E-01         0.00000E+00
    0.49611E-02        -0.15795E-01         0.00000E+00
    0.49473E-02        -0.16102E-01         0.00000E+00
    0.49362E-02        -0.16407E-01         0.00000E+00
    0.49278E-02        -0.16711E-01         0.00000E+00
    0.49221E-02        -0.17015E-01         0.00000E+00
    0.49192E-02        -0.17319E-01         0.00000E+00
    0.49191E-02        -0.17623E-01         0.00000E+00
    0.49217E-02        -0.17927E-01         0.00000E+00
    0.49269E-02        -0.18232E-01         0.00000E+00
    0.49348E-02        -0.18538E-01         0.00000E+00
    0.49452E-02        -0.18846E-01         0.00000E+00
    0.49580E-02        -0.19156E-01         0.00000E+00
    0.49731E-02        -0.19468E-01         0.00000E+00
    0.49904E-02        -0.19783E-01         0.00000E+00
    0.50097E-02        -0.20102E-01         0.00000E+00
    0.50307E-02        -0.20423E-01         0.00000E+00
    0.50533E-02        -0.20749E-01         0.00000E+00
    0.50772E-02        -0.21079E-01         0.00000E+00
    0.51020E-02        -0.21413E-01         0.00000E+00
    0.51275E-02        -0.21753E-01         0.00000E+00
    0.51531E-02        -0.22098E-01         0.00000E+00
    0.51785E-02        -0.22449E-01         0.00000E+00
    0.52031E-02        -0.22807E-01         0.00000E+00
    0.52264E-02        -0.23172E-01         0.00000E+00
    0.52477E-02        -0.23544E-01         0.00000E+00
    0.52663E-02        -0.23924E-01         0.00000E+00
    0.52813E-02        -0.24312E-01         0.00000E+00
    0.52920E-02        -0.24710E-01         0.00000E+00
    0.52974E-02        -0.25117E-01         0.00000E+00
    0.52964E-02        -0.25534E-01         0.00000E+00
    0.52879E-02        -0.25962E-01         0.00000E+00
    0.52707E-02        -0.26401E-01         0.00000E+00
    0.52436E-02        -0.26852E-01         0.00000E+00
    0.52053E-02        -0.27315E-01         0.00000E+00
    0.51546E-02        -0.27792E-01         0.00000E+00
    0.50901E-02        -0.28281E-01         0.00000E+00
    0.50106E-02        -0.28784E-01         0.00000E+00
    0.49150E-02        -0.29299E-01         0.00000E+00
    0.48023E-02        -0.29827E-01         0.00000E+00
    0.46715E-02        -0.30366E-01         0.00000E+00
    0.45216E-02        -0.30914E-01         0.00000E+00
    0.43519E-02        -0.31468E-01         0.00000E+00
    0.41611E-02        -0.32025E-01         0.00000E+00
    0.39475E-02        -0.32578E-01         0.00000E+00
    0.37079E-02        -0.33121E-01         0.00000E+00
    0.34369E-02        -0.33645E-01         0.00000E+00
    0.31251E-02        -0.34139E-01         0.00000E+00
    0.27569E-02        -0.34590E-01         0.00000E+00
    0.23073E-02        -0.34984E-01         0.00000E+00
    0.17373E-02        -0.35299E-01         0.00000E+00
    0.99096E-03        -0.35509E-01         0.00000E+00
    0.00000E+00        -0.35583E-01         0.00000E+00
    0.00000E+00         0.67216E-02         0.00000E+00
    0.94956E-03         0.66306E-02         0.00000E+00
    0.17287E-02         0.63793E-02         0.00000E+00
    0.23718E-02         0.60098E-02         0.00000E+00
    0.29039E-02         0.55538E-02         0.00000E+00
    0.33434E-02         0.50317E-02         0.00000E+00
    0.37027E-02         0.44591E-02         0.00000E+00
    0.39880E-02         0.38478E-02         0.00000E+00
    0.42017E-02         0.32040E-02         0.00000E+00
    0.43650E-02         0.25314E-02         0.00000E+00
    0.45310E-02         0.18106E-02         0.00000E+00
    0.47114E-02         0.10762E-02         0.00000E+00
    0.48953E-02         0.34445E-03         0.00000E+00
    0.50745E-02        -0.37739E-03         0.00000E+00
    0.52434E-02        -0.10849E-02         0.00000E+00
    0.53985E-02        -0.17755E-02         0.00000E+00
    0.55377E-02        -0.24476E-02         0.00000E+00
    0.56600E-02        -0.31005E-02         0.00000E+00
    0.57652E-02        -0.37340E-02         0.00000E+00
    0.58536E-02        -0.43483E-02         0.00000E+00
    0.59259E-02        -0.49440E-02         0.00000E+00
    0.59830E-02        -0.55216E-02         0.00000E+00
    0.60261E-02        -0.60820E-02         0.00000E+00
    0.60563E-02        -0.66259E-02         0.00000E+00
    0.60749E-02        -0.71544E-02         0.00000E+00
    0.60831E-02        -0.76681E-02         0.00000E+00
    0.60822E-02        -0.81680E-02         0.00000E+00
    0.60734E-02        -0.86548E-02         0.00000E+00
    0.60577E-02        -0.91293E-02         0.00000E+00
    0.60362E-02        -0.95921E-02         0.00000E+00
    0.60099E-02        -0.10044E-01         0.00000E+00
    0.59796E-02        -0.10485E-01         0.00000E+00
    0.59461E-02        -0.10917E-01         0.00000E+00
    0.59103E-02        -0.11340E-01         0.00000E+00
    0.58727E-02        -0.11754E-01         0.00000E+00
    0.58339E-02        -0.12159E-01         0.00000E+00
    0.57945E-02        -0.12557E-01         0.00000E+00
    0.57550E-02        -0.12948E-01         0.00000E+00
    0.57158E-02        -0.13332E-01         0.00000E+00
    0.56773E-02        -0.13709E-01         0.00000E+00
    0.56398E-02        -0.14081E-01         0.00000E+00
    0.56037E-02        -0.14447E-01         0.00000E+00
    0.55691E-02        -0.14808E-01         0.00000E+00
    0.55365E-02        -0.15165E-01         0.00000E+00
    0.55059E-02        -0.15517E-01         0.00000E+00
    0.54776E-02        -0.15865E-01         0.00000E+00
    0.54517E-02        -0.16210E-01         0.00000E+00
    0.54284E-02        -0.16552E-01         0.00000E+00
    0.54077E-02        -0.16891E-01         0.00000E+00
    0.53899E-02        -0.17228E-01         0.00000E+00
    0.53749E-02        -0.17563E-01         0.00000E+00
    0.53628E-02        -0.17896E-01         0.00000E+00
    0.53538E-02        -0.18229E-01         0.00000E+00
    0.53477E-02        -0.18561E-01         0.00000E+00
    0.53446E-02        -0.18892E-01         0.00000E+00
    0.53445E-02        -0.19224E-01         0.00000E+00
    0.53474E-02        -0.19556E-01         0.00000E+00
    0.53532E-02        -0.19889E-01         0.00000E+00
    0.53619E-02        -0.20224E-01         0.00000E+00
    0.53733E-02        -0.20560E-01         0.00000E+00
    0.53874E-02        -0.20899E-01         0.00000E+00
    0.54040E-02        -0.21239E-01         0.00000E+00
    0.54230E-02        -0.21583E-01         0.00000E+00
    0.54441E-02        -0.21931E-01         0.00000E+00
    0.54672E-02        -0.22282E-01         0.00000E+00
    0.54920E-02        -0.22637E-01         0.00000E+00
    0.55182E-02        -0.22997E-01         0.00000E+00
    0.55455E-02        -0.23362E-01         0.00000E+00
    0.55734E-02        -0.23733E-01         0.00000E+00
    0.56016E-02        -0.24109E-01         0.00000E+00
    0.56295E-02        -0.24493E-01         0.00000E+00
    0.56567E-02        -0.24883E-01         0.00000E+00
    0.56824E-02        -0.25280E-01         0.00000E+00
    0.57060E-02        -0.25686E-01         0.00000E+00
    0.57267E-02        -0.26100E-01         0.00000E+00
    0.57436E-02        -0.26524E-01         0.00000E+00
    0.57558E-02        -0.26957E-01         0.00000E+00
    0.57622E-02        -0.27400E-01         0.00000E+00
    0.57617E-02        -0.27855E-01         0.00000E+00
    0.57531E-02        -0.28321E-01         0.00000E+00
    0.57351E-02        -0.28799E-01         0.00000E+00
    0.57064E-02        -0.29290E-01         0.00000E+00
    0.56654E-02        -0.29794E-01         0.00000E+00
    0.56109E-02        -0.30313E-01         0.00000E+00
    0.55413E-02        -0.30845E-01         0.00000E+00
    0.54553E-02        -0.31392E-01         0.00000E+00
    0.53516E-02        -0.31953E-01         0.00000E+00
    0.52289E-02        -0.32527E-01         0.00000E+00
    0.50861E-02        -0.33113E-01         0.00000E+00
    0.49221E-02        -0.33709E-01         0.00000E+00
    0.47359E-02        -0.34311E-01         0.00000E+00
    0.45259E-02        -0.34916E-01         0.00000E+00
    0.42901E-02        -0.35518E-01         0.00000E+00
    0.40251E-02        -0.36108E-01         0.00000E+00
    0.37249E-02        -0.36676E-01         0.00000E+00
    0.33797E-02        -0.37211E-01         0.00000E+00
    0.29730E-02        -0.37699E-01         0.00000E+00
    0.24786E-02        -0.38122E-01         0.00000E+00
    0.18567E-02        -0.38457E-01         0.00000E+00
    0.10523E-02        -0.38677E-01         0.00000E+00
    0.00000E+00        -0.38755E-01         0.00000E+00
    0.00000E+00         0.72537E-02         0.00000E+00
    0.10108E-02         0.71549E-02         0.00000E+00
    0.18481E-02         0.68836E-02         0.00000E+00
    0.25435E-02         0.64862E-02         0.00000E+00
    0.31212E-02         0.59955E-02         0.00000E+00
    0.36000E-02         0.54330E-02         0.00000E+00
    0.39928E-02         0.48157E-02         0.00000E+00
    0.43066E-02         0.41565E-02         0.00000E+00
    0.45441E-02         0.34620E-02         0.00000E+00
    0.47314E-02         0.27350E-02         0.00000E+00
    0.49204E-02         0.19557E-02         0.00000E+00
    0.51192E-02         0.11614E-02         0.00000E+00
    0.53183E-02         0.36982E-03         0.00000E+00
    0.55106E-02        -0.41089E-03         0.00000E+00
    0.56907E-02        -0.11761E-02         0.00000E+00
    0.58554E-02        -0.19229E-02         0.00000E+00
    0.60028E-02        -0.26497E-02         0.00000E+00
    0.61319E-02        -0.33558E-02         0.00000E+00
    0.62427E-02        -0.40410E-02         0.00000E+00
    0.63354E-02        -0.47055E-02         0.00000E+00
    0.64110E-02        -0.53499E-02         0.00000E+00
    0.64704E-02        -0.59748E-02         0.00000E+00
    0.65149E-02        -0.65812E-02         0.00000E+00
    0.65456E-02        -0.71700E-02         0.00000E+00
    0.65641E-02        -0.77420E-02         0.00000E+00
    0.65716E-02        -0.82983E-02         0.00000E+00
    0.65694E-02        -0.88395E-02         0.00000E+00
    0.65588E-02        -0.93668E-02         0.00000E+00
    0.65409E-02        -0.98807E-02         0.00000E+00
    0.65169E-02        -0.10382E-01         0.00000E+00
    0.64878E-02        -0.10872E-01         0.00000E+00
    0.64545E-02        -0.11350E-01         0.00000E+00
    0.64179E-02        -0.11818E-01         0.00000E+00
    0.63787E-02        -0.12276E-01         0.00000E+00
    0.63378E-02        -0.12724E-01         0.00000E+00
    0.62956E-02        -0.13164E-01         0.00000E+00
    0.62528E-02        -0.13596E-01         0.00000E+00
    0.62100E-02        -0.14019E-01         0.00000E+00
    0.61674E-02        -0.14435E-01         0.00000E+00
    0.61257E-02        -0.14845E-01         0.00000E+00
    0.60851E-02        -0.15248E-01         0.00000E+00
    0.60460E-02        -0.15645E-01         0.00000E+00
    0.60086E-02        -0.16036E-01         0.00000E+00
    0.59733E-02        -0.16423E-01         0.00000E+00
    0.59402E-02        -0.16805E-01         0.00000E+00
    0.59096E-02        -0.17183E-01         0.00000E+00
    0.58817E-02        -0.17557E-01         0.00000E+00
    0.58565E-02        -0.17927E-01         0.00000E+00
    0.58342E-02        -0.18295E-01         0.00000E+00
    0.58150E-02        -0.18660E-01         0.00000E+00
    0.57988E-02        -0.19024E-01         0.00000E+00
    0.57859E-02        -0.19386E-01         0.00000E+00
    0.57761E-02        -0.19746E-01         0.00000E+00
    0.57696E-02        -0.20106E-01         0.00000E+00
    0.57664E-02        -0.20466E-01         0.00000E+00
    0.57664E-02        -0.20825E-01         0.00000E+00
    0.57696E-02        -0.21186E-01         0.00000E+00
    0.57760E-02        -0.21547E-01         0.00000E+00
    0.57854E-02        -0.21910E-01         0.00000E+00
    0.57979E-02        -0.22274E-01         0.00000E+00
    0.58133E-02        -0.22641E-01         0.00000E+00
    0.58314E-02        -0.23011E-01         0.00000E+00
    0.58521E-02        -0.23383E-01         0.00000E+00
    0.58751E-02        -0.23760E-01         0.00000E+00
    0.59002E-02        -0.24140E-01         0.00000E+00
    0.59273E-02        -0.24526E-01         0.00000E+00
    0.59558E-02        -0.24916E-01         0.00000E+00
    0.59855E-02        -0.25311E-01         0.00000E+00
    0.60160E-02        -0.25713E-01         0.00000E+00
    0.60468E-02        -0.26121E-01         0.00000E+00
    0.60773E-02        -0.26536E-01         0.00000E+00
    0.61070E-02        -0.26959E-01         0.00000E+00
    0.61352E-02        -0.27389E-01         0.00000E+00
    0.61612E-02        -0.27829E-01         0.00000E+00
    0.61840E-02        -0.28277E-01         0.00000E+00
    0.62029E-02        -0.28735E-01         0.00000E+00
    0.62166E-02        -0.29204E-01         0.00000E+00
    0.62242E-02        -0.29684E-01         0.00000E+00
    0.62244E-02        -0.30176E-01         0.00000E+00
    0.62159E-02        -0.30680E-01         0.00000E+00
    0.61972E-02        -0.31197E-01         0.00000E+00
    0.61669E-02        -0.31728E-01         0.00000E+00
    0.61235E-02        -0.32273E-01         0.00000E+00
    0.60653E-02        -0.32833E-01         0.00000E+00
    0.59908E-02        -0.33408E-01         0.00000E+00
    0.58984E-02        -0.33999E-01         0.00000E+00
    0.57866E-02        -0.34605E-01         0.00000E+00
    0.56540E-02        -0.35225E-01         0.00000E+00
    0.54993E-02        -0.35858E-01         0.00000E+00
    0.53211E-02        -0.36501E-01         0.00000E+00
    0.51182E-02        -0.37152E-01         0.00000E+00
    0.48887E-02        -0.37805E-01         0.00000E+00
    0.46304E-02        -0.38454E-01         0.00000E+00
    0.43395E-02        -0.39090E-01         0.00000E+00
    0.40096E-02        -0.39703E-01         0.00000E+00
    0.36304E-02        -0.40279E-01         0.00000E+00
    0.31846E-02        -0.40802E-01         0.00000E+00
    0.26452E-02        -0.41253E-01         0.00000E+00
    0.19721E-02        -0.41608E-01         0.00000E+00
    0.11113E-02        -0.41839E-01         0.00000E+00
    0.00000E+00        -0.41920E-01         0.00000E+00
    0.00000E+00         0.77838E-02         0.00000E+00
    0.10718E-02         0.76767E-02         0.00000E+00
    0.19666E-02         0.73848E-02         0.00000E+00
    0.27138E-02         0.69595E-02         0.00000E+00
    0.33369E-02         0.64344E-02         0.00000E+00
    0.38552E-02         0.58318E-02         0.00000E+00
    0.42817E-02         0.51699E-02         0.00000E+00
    0.46246E-02         0.44632E-02         0.00000E+00
    0.48866E-02         0.37184E-02         0.00000E+00
    0.50990E-02         0.29363E-02         0.00000E+00
    0.53119E-02         0.20987E-02         0.00000E+00
    0.55294E-02         0.12449E-02         0.00000E+00
    0.57438E-02         0.39404E-03         0.00000E+00
    0.59489E-02        -0.44516E-03         0.00000E+00
    0.61398E-02        -0.12676E-02         0.00000E+00
    0.63137E-02        -0.20704E-02         0.00000E+00
    0.64687E-02        -0.28517E-02         0.00000E+00
    0.66042E-02        -0.36108E-02         0.00000E+00
    0.67200E-02        -0.43474E-02         0.00000E+00
    0.68167E-02        -0.50620E-02         0.00000E+00
    0.68951E-02        -0.57549E-02         0.00000E+00
    0.69565E-02        -0.64271E-02         0.00000E+00
    0.70019E-02        -0.70794E-02         0.00000E+00
    0.70330E-02        -0.77129E-02         0.00000E+00
    0.70511E-02        -0.83285E-02         0.00000E+00
    0.70576E-02        -0.89271E-02         0.00000E+00
    0.70538E-02        -0.95098E-02         0.00000E+00
    0.70413E-02        -0.10077E-01         0.00000E+00
    0.70211E-02        -0.10631E-01         0.00000E+00
    0.69944E-02        -0.11171E-01         0.00000E+00
    0.69624E-02        -0.11698E-01         0.00000E+00
    0.69261E-02        -0.12213E-01         0.00000E+00
    0.68862E-02        -0.12717E-01         0.00000E+00
    0.68437E-02        -0.13211E-01         0.00000E+00
    0.67993E-02        -0.13694E-01         0.00000E+00
    0.67537E-02        -0.14168E-01         0.00000E+00
    0.67075E-02        -0.14633E-01         0.00000E+00
    0.66613E-02        -0.15089E-01         0.00000E+00
    0.66154E-02        -0.15538E-01         0.00000E+00
    0.65704E-02        -0.15979E-01         0.00000E+00
    0.65267E-02        -0.16414E-01         0.00000E+00
    0.64846E-02        -0.16842E-01         0.00000E+00
    0.64444E-02        -0.17264E-01         0.00000E+00
    0.64064E-02        -0.17680E-01         0.00000E+00
    0.63709E-02        -0.18092E-01         0.00000E+00
    0.63380E-02        -0.18499E-01         0.00000E+00
    0.63080E-02        -0.18903E-01         0.00000E+00
    0.62809E-02        -0.19302E-01         0.00000E+00
    0.62570E-02        -0.19699E-01         0.00000E+00
    0.62364E-02        -0.20093E-01         0.00000E+00
    0.62191E-02        -0.20484E-01         0.00000E+00
    0.62052E-02        -0.20874E-01         0.00000E+00
    0.61948E-02        -0.21263E-01         0.00000E+00
    0.61879E-02        -0.21651E-01         0.00000E+00
    0.61845E-02        -0.22039E-01         0.00000E+00
    0.61846E-02        -0.22427E-01         0.00000E+00
    0.61881E-02        -0.22815E-01         0.00000E+00
    0.61951E-02        -0.23204E-01         0.00000E+00
    0.62054E-02        -0.23595E-01         0.00000E+00
    0.62190E-02        -0.23988E-01         0.00000E+00
    0.62356E-02        -0.24384E-01         0.00000E+00
    0.62552E-02        -0.24782E-01         0.00000E+00
    0.62776E-02        -0.25184E-01         0.00000E+00
    0.63026E-02        -0.25590E-01         0.00000E+00
    0.63298E-02        -0.26000E-01         0.00000E+00
    0.63590E-02        -0.26414E-01         0.00000E+00
    0.63900E-02        -0.26835E-01         0.00000E+00
    0.64222E-02        -0.27261E-01         0.00000E+00
    0.64552E-02        -0.27694E-01         0.00000E+00
    0.64886E-02        -0.28133E-01         0.00000E+00
    0.65218E-02        -0.28580E-01         0.00000E+00
    0.65541E-02        -0.29035E-01         0.00000E+00
    0.65849E-02        -0.29499E-01         0.00000E+00
    0.66133E-02        -0.29972E-01         0.00000E+00
    0.66384E-02        -0.30454E-01         0.00000E+00
    0.66592E-02        -0.30947E-01         0.00000E+00
    0.66746E-02        -0.31452E-01         0.00000E+00
    0.66835E-02        -0.31968E-01         0.00000E+00
    0.66845E-02        -0.32496E-01         0.00000E+00
    0.66761E-02        -0.33038E-01         0.00000E+00
    0.66569E-02        -0.33594E-01         0.00000E+00
    0.66252E-02        -0.34165E-01         0.00000E+00
    0.65794E-02        -0.34751E-01         0.00000E+00
    0.65177E-02        -0.35352E-01         0.00000E+00
    0.64385E-02        -0.35970E-01         0.00000E+00
    0.63398E-02        -0.36605E-01         0.00000E+00
    0.62201E-02        -0.37255E-01         0.00000E+00
    0.60778E-02        -0.37921E-01         0.00000E+00
    0.59112E-02        -0.38600E-01         0.00000E+00
    0.57188E-02        -0.39291E-01         0.00000E+00
    0.54989E-02        -0.39989E-01         0.00000E+00
    0.52498E-02        -0.40690E-01         0.00000E+00
    0.49686E-02        -0.41386E-01         0.00000E+00
    0.46513E-02        -0.42069E-01         0.00000E+00
    0.42912E-02        -0.42725E-01         0.00000E+00
    0.38774E-02        -0.43341E-01         0.00000E+00
    0.33920E-02        -0.43900E-01         0.00000E+00
    0.28077E-02        -0.44379E-01         0.00000E+00
    0.20840E-02        -0.44753E-01         0.00000E+00
    0.11683E-02        -0.44994E-01         0.00000E+00
    0.00000E+00        -0.45078E-01         0.00000E+00
    0.00000E+00         0.83123E-02         0.00000E+00
    0.11328E-02         0.81963E-02         0.00000E+00
    0.20848E-02         0.78830E-02         0.00000E+00
    0.28832E-02         0.74300E-02         0.00000E+00
    0.35515E-02         0.68706E-02         0.00000E+00
    0.41093E-02         0.62281E-02         0.00000E+00
    0.45699E-02         0.55218E-02         0.00000E+00
    0.49423E-02         0.47678E-02         0.00000E+00
    0.52296E-02         0.39736E-02         0.00000E+00
    0.54681E-02         0.31351E-02         0.00000E+00
    0.57057E-02         0.22394E-02         0.00000E+00
    0.59421E-02         0.13268E-02         0.00000E+00
    0.61718E-02         0.41700E-03         0.00000E+00
    0.63894E-02        -0.48030E-03         0.00000E+00
    0.65908E-02        -0.13598E-02         0.00000E+00
    0.67734E-02        -0.22182E-02         0.00000E+00
    0.69356E-02        -0.30537E-02         0.00000E+00
    0.70769E-02        -0.38655E-02         0.00000E+00
    0.71973E-02        -0.46534E-02         0.00000E+00
    0.72975E-02        -0.54178E-02         0.00000E+00
    0.73784E-02        -0.61592E-02         0.00000E+00
    0.74412E-02        -0.68785E-02         0.00000E+00
    0.74874E-02        -0.75766E-02         0.00000E+00
    0.75184E-02        -0.82547E-02         0.00000E+00
    0.75358E-02        -0.89137E-02         0.00000E+00
    0.75411E-02        -0.95547E-02         0.00000E+00
    0.75357E-02        -0.10179E-01         0.00000E+00
    0.75210E-02        -0.10787E-01         0.00000E+00
    0.74983E-02        -0.11380E-01         0.00000E+00
    0.74689E-02        -0.11958E-01         0.00000E+00
    0.74339E-02        -0.12523E-01         0.00000E+00
    0.73943E-02        -0.13075E-01         0.00000E+00
    0.73511E-02        -0.13616E-01         0.00000E+00
    0.73052E-02        -0.14144E-01         0.00000E+00
    0.72574E-02        -0.14663E-01         0.00000E+00
    0.72083E-02        -0.15171E-01         0.00000E+00
    0.71587E-02        -0.15669E-01         0.00000E+00
    0.71090E-02        -0.16159E-01         0.00000E+00
    0.70598E-02        -0.16640E-01         0.00000E+00
    0.70115E-02        -0.17113E-01         0.00000E+00
    0.69647E-02        -0.17579E-01         0.00000E+00
    0.69196E-02        -0.18038E-01         0.00000E+00
    0.68766E-02        -0.18490E-01         0.00000E+00
    0.68359E-02        -0.18937E-01         0.00000E+00
    0.67979E-02        -0.19379E-01         0.00000E+00
    0.67627E-02        -0.19816E-01         0.00000E+00
    0.67306E-02        -0.20248E-01         0.00000E+00
    0.67017E-02        -0.20677E-01         0.00000E+00
    0.66762E-02        -0.21102E-01         0.00000E+00
    0.66542E-02        -0.21524E-01         0.00000E+00
    0.66357E-02        -0.21945E-01         0.00000E+00
    0.66210E-02        -0.22363E-01         0.00000E+00
    0.66099E-02        -0.22780E-01         0.00000E+00
    0.66026E-02        -0.23196E-01         0.00000E+00
    0.65990E-02        -0.23612E-01         0.00000E+00
    0.65992E-02        -0.24028E-01         0.00000E+00
    0.66031E-02        -0.24444E-01         0.00000E+00
    0.66107E-02        -0.24862E-01         0.00000E+00
    0.66218E-02        -0.25281E-01         0.00000E+00
    0.66365E-02        -0.25702E-01         0.00000E+00
    0.66544E-02        -0.26126E-01         0.00000E+00
    0.66756E-02        -0.26554E-01         0.00000E+00
    0.66997E-02        -0.26984E-01         0.00000E+00
    0.67265E-02        -0.27419E-01         0.00000E+00
    0.67559E-02        -0.27859E-01         0.00000E+00
    0.67874E-02        -0.28304E-01         0.00000E+00
    0.68207E-02        -0.28754E-01         0.00000E+00
    0.68554E-02        -0.29211E-01         0.00000E+00
    0.68911E-02        -0.29675E-01         0.00000E+00
    0.69272E-02        -0.30146E-01         0.00000E+00
    0.69630E-02        -0.30624E-01         0.00000E+00
    0.69980E-02        -0.31112E-01         0.00000E+00
    0.70314E-02        -0.31608E-01         0.00000E+00
    0.70623E-02        -0.32115E-01         0.00000E+00
    0.70897E-02        -0.32632E-01         0.00000E+00
    0.71126E-02        -0.33160E-01         0.00000E+00
    0.71298E-02        -0.33699E-01         0.00000E+00
    0.71400E-02        -0.34252E-01         0.00000E+00
    0.71419E-02        -0.34817E-01         0.00000E+00
    0.71338E-02        -0.35397E-01         0.00000E+00
    0.71142E-02        -0.35991E-01         0.00000E+00
    0.70813E-02        -0.36601E-01         0.00000E+00
    0.70333E-02        -0.37228E-01         0.00000E+00
    0.69683E-02        -0.37871E-01         0.00000E+00
    0.68844E-02        -0.38531E-01         0.00000E+00
    0.67797E-02        -0.39209E-01         0.00000E+00
    0.66522E-02        -0.39904E-01         0.00000E+00
    0.65001E-02        -0.40615E-01         0.00000E+00
    0.63217E-02        -0.41340E-01         0.00000E+00
    0.61150E-02        -0.42078E-01         0.00000E+00
    0.58783E-02        -0.42824E-01         0.00000E+00
    0.56092E-02        -0.43572E-01         0.00000E+00
    0.53049E-02        -0.44315E-01         0.00000E+00
    0.49608E-02        -0.45043E-01         0.00000E+00
    0.45699E-02        -0.45743E-01         0.00000E+00
    0.41210E-02        -0.46399E-01         0.00000E+00
    0.35957E-02        -0.46992E-01         0.00000E+00
    0.29663E-02        -0.47498E-01         0.00000E+00
    0.21928E-02        -0.47892E-01         0.00000E+00
    0.12235E-02        -0.48144E-01         0.00000E+00
    0.00000E+00        -0.48231E-01         0.00000E+00
    0.00000E+00         0.88396E-02         0.00000E+00
    0.11945E-02         0.87140E-02         0.00000E+00
    0.22031E-02         0.83785E-02         0.00000E+00
    0.30522E-02         0.78978E-02         0.00000E+00
    0.37654E-02         0.73042E-02         0.00000E+00
    0.43627E-02         0.66220E-02         0.00000E+00
    0.48576E-02         0.58716E-02         0.00000E+00
    0.52597E-02         0.50702E-02         0.00000E+00
    0.55733E-02         0.42277E-02         0.00000E+00
    0.58394E-02         0.33311E-02         0.00000E+00
    0.61019E-02         0.23777E-02         0.00000E+00
    0.63574E-02         0.14067E-02         0.00000E+00
    0.66022E-02         0.43861E-03         0.00000E+00
    0.68321E-02        -0.51638E-03         0.00000E+00
    0.70436E-02        -0.14525E-02         0.00000E+00
    0.72345E-02        -0.23662E-02         0.00000E+00
    0.74035E-02        -0.32557E-02         0.00000E+00
    0.75501E-02        -0.41200E-02         0.00000E+00
    0.76746E-02        -0.49590E-02         0.00000E+00
    0.77778E-02        -0.57730E-02         0.00000E+00
    0.78607E-02        -0.65626E-02         0.00000E+00
    0.79247E-02        -0.73289E-02         0.00000E+00
    0.79713E-02        -0.80728E-02         0.00000E+00
    0.80020E-02        -0.87954E-02         0.00000E+00
    0.80185E-02        -0.94978E-02         0.00000E+00
    0.80222E-02        -0.10181E-01         0.00000E+00
    0.80149E-02        -0.10846E-01         0.00000E+00
    0.79979E-02        -0.11495E-01         0.00000E+00
    0.79726E-02        -0.12127E-01         0.00000E+00
    0.79403E-02        -0.12744E-01         0.00000E+00
    0.79021E-02        -0.13347E-01         0.00000E+00
    0.78593E-02        -0.13936E-01         0.00000E+00
    0.78127E-02        -0.14513E-01         0.00000E+00
    0.77634E-02        -0.15077E-01         0.00000E+00
    0.77120E-02        -0.15630E-01         0.00000E+00
    0.76594E-02        -0.16172E-01         0.00000E+00
    0.76062E-02        -0.16704E-01         0.00000E+00
    0.75531E-02        -0.17227E-01         0.00000E+00
    0.75005E-02        -0.17740E-01         0.00000E+00
    0.74490E-02        -0.18245E-01         0.00000E+00
    0.73991E-02        -0.18743E-01         0.00000E+00
    0.73509E-02        -0.19233E-01         0.00000E+00
    0.73051E-02        -0.19716E-01         0.00000E+00
    0.72618E-02        -0.20193E-01         0.00000E+00
    0.72213E-02        -0.20665E-01         0.00000E+00
    0.71838E-02        -0.21131E-01         0.00000E+00
    0.71496E-02        -0.21593E-01         0.00000E+00
    0.71189E-02        -0.22051E-01         0.00000E+00
    0.70917E-02        -0.22505E-01         0.00000E+00
    0.70683E-02        -0.22956E-01         0.00000E+00
    0.70487E-02        -0.23404E-01         0.00000E+00
    0.70331E-02        -0.23851E-01         0.00000E+00
    0.70214E-02        -0.24296E-01         0.00000E+00
    0.70136E-02        -0.24741E-01         0.00000E+00
    0.70100E-02        -0.25185E-01         0.00000E+00
    0.70103E-02        -0.25629E-01         0.00000E+00
    0.70145E-02        -0.26073E-01         0.00000E+00
    0.70227E-02        -0.26519E-01         0.00000E+00
    0.70347E-02        -0.26967E-01         0.00000E+00
    0.70504E-02        -0.27417E-01         0.00000E+00
    0.70697E-02        -0.27869E-01         0.00000E+00
    0.70923E-02        -0.28325E-01         0.00000E+00
    0.71182E-02        -0.28785E-01         0.00000E+00
    0.71470E-02        -0.29249E-01         0.00000E+00
    0.71785E-02        -0.29719E-01         0.00000E+00
    0.72123E-02        -0.30193E-01         0.00000E+00
    0.72480E-02        -0.30674E-01         0.00000E+00
    0.72853E-02        -0.31161E-01         0.00000E+00
    0.73236E-02        -0.31656E-01         0.00000E+00
    0.73624E-02        -0.32158E-01         0.00000E+00
    0.74010E-02        -0.32669E-01         0.00000E+00
    0.74387E-02        -0.33189E-01         0.00000E+00
    0.74747E-02        -0.33719E-01         0.00000E+00
    0.75081E-02        -0.34258E-01         0.00000E+00
    0.75379E-02        -0.34809E-01         0.00000E+00
    0.75630E-02        -0.35372E-01         0.00000E+00
    0.75821E-02        -0.35947E-01         0.00000E+00
    0.75938E-02        -0.36536E-01         0.00000E+00
    0.75967E-02        -0.37138E-01         0.00000E+00
    0.75890E-02        -0.37755E-01         0.00000E+00
    0.75692E-02        -0.38388E-01         0.00000E+00
    0.75352E-02        -0.39038E-01         0.00000E+00
    0.74852E-02        -0.39704E-01         0.00000E+00
    0.74170E-02        -0.40389E-01         0.00000E+00
    0.73287E-02        -0.41091E-01         0.00000E+00
    0.72180E-02        -0.41812E-01         0.00000E+00
    0.70829E-02        -0.42551E-01         0.00000E+00
    0.69212E-02        -0.43307E-01         0.00000E+00
    0.67310E-02        -0.44078E-01         0.00000E+00
    0.65101E-02        -0.44862E-01         0.00000E+00
    0.62563E-02        -0.45655E-01         0.00000E+00
    0.59672E-02        -0.46450E-01         0.00000E+00
    0.56394E-02        -0.47240E-01         0.00000E+00
    0.52681E-02        -0.48013E-01         0.00000E+00
    0.48460E-02        -0.48756E-01         0.00000E+00
    0.43614E-02        -0.49451E-01         0.00000E+00
    0.37959E-02        -0.50078E-01         0.00000E+00
    0.31215E-02        -0.50612E-01         0.00000E+00
    0.22987E-02        -0.51024E-01         0.00000E+00
    0.12771E-02        -0.51287E-01         0.00000E+00
    0.00000E+00        -0.51377E-01         0.00000E+00
    0.00000E+00         0.93661E-02         0.00000E+00
    0.12576E-02         0.92299E-02         0.00000E+00
    0.23221E-02         0.88713E-02         0.00000E+00
    0.32211E-02         0.83631E-02         0.00000E+00
    0.39789E-02         0.77354E-02         0.00000E+00
    0.46159E-02         0.70135E-02         0.00000E+00
    0.51453E-02         0.62193E-02         0.00000E+00
    0.55768E-02         0.53703E-02         0.00000E+00
    0.59182E-02         0.44810E-02         0.00000E+00
    0.62133E-02         0.35239E-02         0.00000E+00
    0.65007E-02         0.25136E-02         0.00000E+00
    0.67753E-02         0.14847E-02         0.00000E+00
    0.70352E-02         0.45877E-03         0.00000E+00
    0.72771E-02        -0.55347E-03         0.00000E+00
    0.74983E-02        -0.15458E-02         0.00000E+00
    0.76971E-02        -0.25145E-02         0.00000E+00
    0.78723E-02        -0.34577E-02         0.00000E+00
    0.80238E-02        -0.43742E-02         0.00000E+00
    0.81520E-02        -0.52641E-02         0.00000E+00
    0.82578E-02        -0.61275E-02         0.00000E+00
    0.83423E-02        -0.69653E-02         0.00000E+00
    0.84071E-02        -0.77784E-02         0.00000E+00
    0.84537E-02        -0.85679E-02         0.00000E+00
    0.84837E-02        -0.93349E-02         0.00000E+00
    0.84990E-02        -0.10081E-01         0.00000E+00
    0.85011E-02        -0.10806E-01         0.00000E+00
    0.84916E-02        -0.11513E-01         0.00000E+00
    0.84721E-02        -0.12201E-01         0.00000E+00
    0.84440E-02        -0.12873E-01         0.00000E+00
    0.84086E-02        -0.13529E-01         0.00000E+00
    0.83673E-02        -0.14169E-01         0.00000E+00
    0.83211E-02        -0.14796E-01         0.00000E+00
    0.82710E-02        -0.15408E-01         0.00000E+00
    0.82181E-02        -0.16008E-01         0.00000E+00
    0.81632E-02        -0.16596E-01         0.00000E+00
    0.81070E-02        -0.17172E-01         0.00000E+00
    0.80503E-02        -0.17738E-01         0.00000E+00
    0.79937E-02        -0.18294E-01         0.00000E+00
    0.79377E-02        -0.18840E-01         0.00000E+00
    0.78830E-02        -0.19377E-01         0.00000E+00
    0.78298E-02        -0.19906E-01         0.00000E+00
    0.77787E-02        -0.20427E-01         0.00000E+00
    0.77300E-02        -0.20941E-01         0.00000E+00
    0.76840E-02        -0.21449E-01         0.00000E+00
    0.76410E-02        -0.21950E-01         0.00000E+00
    0.76012E-02        -0.22446E-01         0.00000E+00
    0.75650E-02        -0.22937E-01         0.00000E+00
    0.75324E-02        -0.23424E-01         0.00000E+00
    0.75036E-02        -0.23907E-01         0.00000E+00
    0.74788E-02        -0.24387E-01         0.00000E+00
    0.74581E-02        -0.24864E-01         0.00000E+00
    0.74416E-02        -0.25339E-01         0.00000E+00
    0.74292E-02        -0.25813E-01         0.00000E+00
    0.74211E-02        -0.26285E-01         0.00000E+00
    0.74173E-02        -0.26757E-01         0.00000E+00
    0.74177E-02        -0.27230E-01         0.00000E+00
    0.74223E-02        -0.27703E-01         0.00000E+00
    0.74311E-02        -0.28177E-01         0.00000E+00
    0.74440E-02        -0.28653E-01         0.00000E+00
    0.74608E-02        -0.29131E-01         0.00000E+00
    0.74814E-02        -0.29612E-01         0.00000E+00
    0.75056E-02        -0.30097E-01         0.00000E+00
    0.75332E-02        -0.30586E-01         0.00000E+00
    0.75640E-02        -0.31080E-01         0.00000E+00
    0.75976E-02        -0.31579E-01         0.00000E+00
    0.76337E-02        -0.32083E-01         0.00000E+00
    0.76719E-02        -0.32594E-01         0.00000E+00
    0.77118E-02        -0.33112E-01         0.00000E+00
    0.77527E-02        -0.33638E-01         0.00000E+00
    0.77942E-02        -0.34172E-01         0.00000E+00
    0.78356E-02        -0.34714E-01         0.00000E+00
    0.78761E-02        -0.35266E-01         0.00000E+00
    0.79148E-02        -0.35829E-01         0.00000E+00
    0.79509E-02        -0.36402E-01         0.00000E+00
    0.79832E-02        -0.36987E-01         0.00000E+00
    0.80105E-02        -0.37585E-01         0.00000E+00
    0.80315E-02        -0.38195E-01         0.00000E+00
    0.80448E-02        -0.38820E-01         0.00000E+00
    0.80488E-02        -0.39459E-01         0.00000E+00
    0.80418E-02        -0.40114E-01         0.00000E+00
    0.80218E-02        -0.40785E-01         0.00000E+00
    0.79869E-02        -0.41474E-01         0.00000E+00
    0.79350E-02        -0.42180E-01         0.00000E+00
    0.78639E-02        -0.42906E-01         0.00000E+00
    0.77713E-02        -0.43650E-01         0.00000E+00
    0.76548E-02        -0.44414E-01         0.00000E+00
    0.75122E-02        -0.45196E-01         0.00000E+00
    0.73411E-02        -0.45997E-01         0.00000E+00
    0.71391E-02        -0.46814E-01         0.00000E+00
    0.69040E-02        -0.47644E-01         0.00000E+00
    0.66332E-02        -0.48483E-01         0.00000E+00
    0.63238E-02        -0.49325E-01         0.00000E+00
    0.59722E-02        -0.50161E-01         0.00000E+00
    0.55734E-02        -0.50979E-01         0.00000E+00
    0.51197E-02        -0.51764E-01         0.00000E+00
    0.45990E-02        -0.52499E-01         0.00000E+00
    0.39930E-02        -0.53160E-01         0.00000E+00
    0.32737E-02        -0.53720E-01         0.00000E+00
    0.24022E-02        -0.54152E-01         0.00000E+00
    0.13293E-02        -0.54425E-01         0.00000E+00
    0.00000E+00        -0.54519E-01         0.00000E+00
    0.00000E+00         0.98919E-02         0.00000E+00
    0.13231E-02         0.97443E-02         0.00000E+00
    0.24424E-02         0.93617E-02         0.00000E+00
    0.33903E-02         0.88262E-02         0.00000E+00
    0.41926E-02         0.81642E-02         0.00000E+00
    0.48692E-02         0.74027E-02         0.00000E+00
    0.54334E-02         0.65649E-02         0.00000E+00
    0.58941E-02         0.56686E-02         0.00000E+00
    0.62651E-02         0.47305E-02         0.00000E+00
    0.65904E-02         0.37139E-02         0.00000E+00
    0.69022E-02         0.26468E-02         0.00000E+00
    0.71959E-02         0.15607E-02         0.00000E+00
    0.74706E-02         0.47738E-03         0.00000E+00
    0.77243E-02        -0.59164E-03         0.00000E+00
    0.79549E-02        -0.16398E-02         0.00000E+00
    0.81611E-02        -0.26632E-02         0.00000E+00
    0.83421E-02        -0.36597E-02         0.00000E+00
    0.84980E-02        -0.46283E-02         0.00000E+00
    0.86294E-02        -0.55688E-02         0.00000E+00
    0.87373E-02        -0.64815E-02         0.00000E+00
    0.88231E-02        -0.73673E-02         0.00000E+00
    0.88883E-02        -0.82271E-02         0.00000E+00
    0.89346E-02        -0.90621E-02         0.00000E+00
    0.89637E-02        -0.98734E-02         0.00000E+00
    0.89775E-02        -0.10662E-01         0.00000E+00
    0.89776E-02        -0.11430E-01         0.00000E+00
    0.89658E-02        -0.12178E-01         0.00000E+00
    0.89436E-02        -0.12907E-01         0.00000E+00
    0.89125E-02        -0.13618E-01         0.00000E+00
    0.88740E-02        -0.14312E-01         0.00000E+00
    0.88293E-02        -0.14991E-01         0.00000E+00
    0.87797E-02        -0.15654E-01         0.00000E+00
    0.87261E-02        -0.16303E-01         0.00000E+00
    0.86695E-02        -0.16938E-01         0.00000E+00
    0.86110E-02        -0.17561E-01         0.00000E+00
    0.85512E-02        -0.18172E-01         0.00000E+00
    0.84909E-02        -0.18771E-01         0.00000E+00
    0.84308E-02        -0.19360E-01         0.00000E+00
    0.83714E-02        -0.19938E-01         0.00000E+00
    0.83133E-02        -0.20508E-01         0.00000E+00
    0.82570E-02        -0.21068E-01         0.00000E+00
    0.82028E-02        -0.21621E-01         0.00000E+00
    0.81512E-02        -0.22165E-01         0.00000E+00
    0.81025E-02        -0.22703E-01         0.00000E+00
    0.80571E-02        -0.23235E-01         0.00000E+00
    0.80150E-02        -0.23760E-01         0.00000E+00
    0.79767E-02        -0.24281E-01         0.00000E+00
    0.79423E-02        -0.24797E-01         0.00000E+00
    0.79119E-02        -0.25309E-01         0.00000E+00
    0.78857E-02        -0.25817E-01         0.00000E+00
    0.78639E-02        -0.26323E-01         0.00000E+00
    0.78464E-02        -0.26827E-01         0.00000E+00
    0.78335E-02        -0.27329E-01         0.00000E+00
    0.78250E-02        -0.27830E-01         0.00000E+00
    0.78210E-02        -0.28330E-01         0.00000E+00
    0.78216E-02        -0.28830E-01         0.00000E+00
    0.78266E-02        -0.29332E-01         0.00000E+00
    0.78360E-02        -0.29834E-01         0.00000E+00
    0.78497E-02        -0.30339E-01         0.00000E+00
    0.78676E-02        -0.30846E-01         0.00000E+00
    0.78896E-02        -0.31356E-01         0.00000E+00
    0.79154E-02        -0.31869E-01         0.00000E+00
    0.79447E-02        -0.32387E-01         0.00000E+00
    0.79775E-02        -0.32910E-01         0.00000E+00
    0.80133E-02        -0.33439E-01         0.00000E+00
    0.80517E-02        -0.33973E-01         0.00000E+00
    0.80924E-02        -0.34514E-01         0.00000E+00
    0.81348E-02        -0.35063E-01         0.00000E+00
    0.81785E-02        -0.35620E-01         0.00000E+00
    0.82228E-02        -0.36185E-01         0.00000E+00
    0.82670E-02        -0.36760E-01         0.00000E+00
    0.83103E-02        -0.37344E-01         0.00000E+00
    0.83518E-02        -0.37940E-01         0.00000E+00
    0.83906E-02        -0.38546E-01         0.00000E+00
    0.84254E-02        -0.39165E-01         0.00000E+00
    0.84550E-02        -0.39797E-01         0.00000E+00
    0.84781E-02        -0.40443E-01         0.00000E+00
    0.84932E-02        -0.41104E-01         0.00000E+00
    0.84984E-02        -0.41780E-01         0.00000E+00
    0.84921E-02        -0.42472E-01         0.00000E+00
    0.84721E-02        -0.43181E-01         0.00000E+00
    0.84365E-02        -0.43909E-01         0.00000E+00
    0.83829E-02        -0.44656E-01         0.00000E+00
    0.83090E-02        -0.45422E-01         0.00000E+00
    0.82122E-02        -0.46208E-01         0.00000E+00
    0.80902E-02        -0.47014E-01         0.00000E+00
    0.79402E-02        -0.47840E-01         0.00000E+00
    0.77598E-02        -0.48685E-01         0.00000E+00
    0.75462E-02        -0.49547E-01         0.00000E+00
    0.72969E-02        -0.50423E-01         0.00000E+00
    0.70089E-02        -0.51309E-01         0.00000E+00
    0.66792E-02        -0.52197E-01         0.00000E+00
    0.63037E-02        -0.53078E-01         0.00000E+00
    0.58770E-02        -0.53941E-01         0.00000E+00
    0.53912E-02        -0.54768E-01         0.00000E+00
    0.48341E-02        -0.55541E-01         0.00000E+00
    0.41873E-02        -0.56236E-01         0.00000E+00
    0.34231E-02        -0.56823E-01         0.00000E+00
    0.25034E-02        -0.57274E-01         0.00000E+00
    0.13802E-02        -0.57558E-01         0.00000E+00
    0.00000E+00        -0.57656E-01         0.00000E+00
    0.00000E+00         0.10417E-01         0.00000E+00
    0.13926E-02         0.10257E-01         0.00000E+00
    0.25641E-02         0.98499E-02         0.00000E+00
    0.35602E-02         0.92873E-02         0.00000E+00
    0.44068E-02         0.85907E-02         0.00000E+00
    0.51229E-02         0.77897E-02         0.00000E+00
    0.57221E-02         0.69084E-02         0.00000E+00
    0.62123E-02         0.59653E-02         0.00000E+00
    0.66144E-02         0.49757E-02         0.00000E+00
    0.69707E-02         0.39009E-02         0.00000E+00
    0.73065E-02         0.27772E-02         0.00000E+00
    0.76193E-02         0.16344E-02         0.00000E+00
    0.79087E-02         0.49437E-03         0.00000E+00
    0.81738E-02        -0.63094E-03         0.00000E+00
    0.84134E-02        -0.17345E-02         0.00000E+00
    0.86265E-02        -0.28123E-02         0.00000E+00
    0.88129E-02        -0.38618E-02         0.00000E+00
    0.89728E-02        -0.48822E-02         0.00000E+00
    0.91069E-02        -0.58731E-02         0.00000E+00
    0.92166E-02        -0.68349E-02         0.00000E+00
    0.93032E-02        -0.77685E-02         0.00000E+00
    0.93684E-02        -0.86749E-02         0.00000E+00
    0.94140E-02        -0.95552E-02         0.00000E+00
    0.94419E-02        -0.10411E-01         0.00000E+00
    0.94539E-02        -0.11243E-01         0.00000E+00
    0.94519E-02        -0.12053E-01         0.00000E+00
    0.94375E-02        -0.12842E-01         0.00000E+00
    0.94125E-02        -0.13611E-01         0.00000E+00
    0.93783E-02        -0.14362E-01         0.00000E+00
    0.93365E-02        -0.15095E-01         0.00000E+00
    0.92884E-02        -0.15811E-01         0.00000E+00
    0.92351E-02        -0.16511E-01         0.00000E+00
    0.91779E-02        -0.17196E-01         0.00000E+00
    0.91176E-02        -0.17867E-01         0.00000E+00
    0.90554E-02        -0.18525E-01         0.00000E+00
    0.89919E-02        -0.19170E-01         0.00000E+00
    0.89280E-02        -0.19803E-01         0.00000E+00
    0.88643E-02        -0.20425E-01         0.00000E+00
    0.88015E-02        -0.21036E-01         0.00000E+00
    0.87401E-02        -0.21638E-01         0.00000E+00
    0.86806E-02        -0.22230E-01         0.00000E+00
    0.86234E-02        -0.22813E-01         0.00000E+00
    0.85689E-02        -0.23389E-01         0.00000E+00
    0.85175E-02        -0.23957E-01         0.00000E+00
    0.84695E-02        -0.24519E-01         0.00000E+00
    0.84252E-02        -0.25074E-01         0.00000E+00
    0.83848E-02        -0.25624E-01         0.00000E+00
    0.83486E-02        -0.26169E-01         0.00000E+00
    0.83166E-02        -0.26710E-01         0.00000E+00
    0.82890E-02        -0.27248E-01         0.00000E+00
    0.82660E-02        -0.27782E-01         0.00000E+00
    0.82477E-02        -0.28314E-01         0.00000E+00
    0.82341E-02        -0.28844E-01         0.00000E+00
    0.82252E-02        -0.29374E-01         0.00000E+00
    0.82212E-02        -0.29902E-01         0.00000E+00
    0.82218E-02        -0.30431E-01         0.00000E+00
    0.82272E-02        -0.30961E-01         0.00000E+00
    0.82373E-02        -0.31492E-01         0.00000E+00
    0.82519E-02        -0.32025E-01         0.00000E+00
    0.82709E-02        -0.32560E-01         0.00000E+00
    0.82942E-02        -0.33099E-01         0.00000E+00
    0.83216E-02        -0.33642E-01         0.00000E+00
    0.83527E-02        -0.34189E-01         0.00000E+00
    0.83875E-02        -0.34741E-01         0.00000E+00
    0.84254E-02        -0.35299E-01         0.00000E+00
    0.84662E-02        -0.35864E-01         0.00000E+00
    0.85094E-02        -0.36435E-01         0.00000E+00
    0.85545E-02        -0.37014E-01         0.00000E+00
    0.86009E-02        -0.37602E-01         0.00000E+00
    0.86480E-02        -0.38199E-01         0.00000E+00
    0.86951E-02        -0.38805E-01         0.00000E+00
    0.87413E-02        -0.39422E-01         0.00000E+00
    0.87856E-02        -0.40051E-01         0.00000E+00
    0.88271E-02        -0.40691E-01         0.00000E+00
    0.88645E-02        -0.41344E-01         0.00000E+00
    0.88966E-02        -0.42011E-01         0.00000E+00
    0.89219E-02        -0.42692E-01         0.00000E+00
    0.89387E-02        -0.43388E-01         0.00000E+00
    0.89454E-02        -0.44100E-01         0.00000E+00
    0.89399E-02        -0.44830E-01         0.00000E+00
    0.89201E-02        -0.45578E-01         0.00000E+00
    0.88839E-02        -0.46344E-01         0.00000E+00
    0.88288E-02        -0.47130E-01         0.00000E+00
    0.87523E-02        -0.47937E-01         0.00000E+00
    0.86516E-02        -0.48765E-01         0.00000E+00
    0.85241E-02        -0.49613E-01         0.00000E+00
    0.83670E-02        -0.50482E-01         0.00000E+00
    0.81774E-02        -0.51372E-01         0.00000E+00
    0.79523E-02        -0.52278E-01         0.00000E+00
    0.76888E-02        -0.53200E-01         0.00000E+00
    0.73838E-02        -0.54131E-01         0.00000E+00
    0.70336E-02        -0.55065E-01         0.00000E+00
    0.66339E-02        -0.55991E-01         0.00000E+00
    0.61791E-02        -0.56898E-01         0.00000E+00
    0.56608E-02        -0.57768E-01         0.00000E+00
    0.50670E-02        -0.58579E-01         0.00000E+00
    0.43792E-02        -0.59307E-01         0.00000E+00
    0.35702E-02        -0.59922E-01         0.00000E+00
    0.26027E-02        -0.60391E-01         0.00000E+00
    0.14301E-02        -0.60687E-01         0.00000E+00
    0.00000E+00        -0.60788E-01         0.00000E+00
    0.00000E+00         0.10938E-01         0.00000E+00
    0.14666E-02         0.10766E-01         0.00000E+00
    0.26875E-02         0.10337E-01         0.00000E+00
    0.37312E-02         0.97462E-02         0.00000E+00
    0.46219E-02         0.90151E-02         0.00000E+00
    0.53774E-02         0.81746E-02         0.00000E+00
    0.60118E-02         0.72497E-02         0.00000E+00
    0.65324E-02         0.62603E-02         0.00000E+00
    0.69666E-02         0.52165E-02         0.00000E+00
    0.73543E-02         0.40848E-02         0.00000E+00
    0.77139E-02         0.29048E-02         0.00000E+00
    0.80454E-02         0.17060E-02         0.00000E+00
    0.83493E-02         0.50970E-03         0.00000E+00
    0.86256E-02        -0.67143E-03         0.00000E+00
    0.88738E-02        -0.18300E-02         0.00000E+00
    0.90935E-02        -0.29617E-02         0.00000E+00
    0.92847E-02        -0.40640E-02         0.00000E+00
    0.94481E-02        -0.51359E-02         0.00000E+00
    0.95846E-02        -0.61769E-02         0.00000E+00
    0.96955E-02        -0.71877E-02         0.00000E+00
    0.97826E-02        -0.81689E-02         0.00000E+00
    0.98474E-02        -0.91218E-02         0.00000E+00
    0.98921E-02        -0.10047E-01         0.00000E+00
    0.99184E-02        -0.10947E-01         0.00000E+00
    0.99285E-02        -0.11823E-01         0.00000E+00
    0.99240E-02        -0.12675E-01         0.00000E+00
    0.99069E-02        -0.13505E-01         0.00000E+00
    0.98788E-02        -0.14314E-01         0.00000E+00
    0.98414E-02        -0.15104E-01         0.00000E+00
    0.97961E-02        -0.15876E-01         0.00000E+00
    0.97444E-02        -0.16630E-01         0.00000E+00
    0.96875E-02        -0.17367E-01         0.00000E+00
    0.96265E-02        -0.18088E-01         0.00000E+00
    0.95625E-02        -0.18795E-01         0.00000E+00
    0.94965E-02        -0.19488E-01         0.00000E+00
    0.94293E-02        -0.20167E-01         0.00000E+00
    0.93617E-02        -0.20834E-01         0.00000E+00
    0.92945E-02        -0.21489E-01         0.00000E+00
    0.92281E-02        -0.22133E-01         0.00000E+00
    0.91634E-02        -0.22766E-01         0.00000E+00
    0.91006E-02        -0.23390E-01         0.00000E+00
    0.90404E-02        -0.24005E-01         0.00000E+00
    0.89830E-02        -0.24612E-01         0.00000E+00
    0.89289E-02        -0.25210E-01         0.00000E+00
    0.88784E-02        -0.25802E-01         0.00000E+00
    0.88318E-02        -0.26387E-01         0.00000E+00
    0.87894E-02        -0.26967E-01         0.00000E+00
    0.87512E-02        -0.27541E-01         0.00000E+00
    0.87176E-02        -0.28111E-01         0.00000E+00
    0.86887E-02        -0.28677E-01         0.00000E+00
    0.86646E-02        -0.29241E-01         0.00000E+00
    0.86454E-02        -0.29801E-01         0.00000E+00
    0.86311E-02        -0.30360E-01         0.00000E+00
    0.86219E-02        -0.30918E-01         0.00000E+00
    0.86177E-02        -0.31475E-01         0.00000E+00
    0.86185E-02        -0.32032E-01         0.00000E+00
    0.86243E-02        -0.32590E-01         0.00000E+00
    0.86350E-02        -0.33149E-01         0.00000E+00
    0.86505E-02        -0.33711E-01         0.00000E+00
    0.86706E-02        -0.34275E-01         0.00000E+00
    0.86953E-02        -0.34843E-01         0.00000E+00
    0.87242E-02        -0.35414E-01         0.00000E+00
    0.87572E-02        -0.35990E-01         0.00000E+00
    0.87940E-02        -0.36572E-01         0.00000E+00
    0.88341E-02        -0.37160E-01         0.00000E+00
    0.88773E-02        -0.37754E-01         0.00000E+00
    0.89230E-02        -0.38356E-01         0.00000E+00
    0.89708E-02        -0.38966E-01         0.00000E+00
    0.90200E-02        -0.39585E-01         0.00000E+00
    0.90699E-02        -0.40213E-01         0.00000E+00
    0.91199E-02        -0.40852E-01         0.00000E+00
    0.91690E-02        -0.41501E-01         0.00000E+00
    0.92162E-02        -0.42162E-01         0.00000E+00
    0.92606E-02        -0.42836E-01         0.00000E+00
    0.93007E-02        -0.43523E-01         0.00000E+00
    0.93353E-02        -0.44224E-01         0.00000E+00
    0.93628E-02        -0.44940E-01         0.00000E+00
    0.93816E-02        -0.45672E-01         0.00000E+00
    0.93897E-02        -0.46421E-01         0.00000E+00
    0.93852E-02        -0.47188E-01         0.00000E+00
    0.93659E-02        -0.47973E-01         0.00000E+00
    0.93292E-02        -0.48779E-01         0.00000E+00
    0.92728E-02        -0.49604E-01         0.00000E+00
    0.91938E-02        -0.50452E-01         0.00000E+00
    0.90894E-02        -0.51320E-01         0.00000E+00
    0.89567E-02        -0.52211E-01         0.00000E+00
    0.87926E-02        -0.53123E-01         0.00000E+00
    0.85939E-02        -0.54056E-01         0.00000E+00
    0.83575E-02        -0.55007E-01         0.00000E+00
    0.80800E-02        -0.55974E-01         0.00000E+00
    0.77578E-02        -0.56950E-01         0.00000E+00
    0.73871E-02        -0.57929E-01         0.00000E+00
    0.69631E-02        -0.58901E-01         0.00000E+00
    0.64799E-02        -0.59851E-01         0.00000E+00
    0.59289E-02        -0.60762E-01         0.00000E+00
    0.52980E-02        -0.61612E-01         0.00000E+00
    0.45690E-02        -0.62374E-01         0.00000E+00
    0.37152E-02        -0.63015E-01         0.00000E+00
    0.27004E-02        -0.63504E-01         0.00000E+00
    0.14791E-02        -0.63811E-01         0.00000E+00
    0.00000E+00        -0.63916E-01         0.00000E+00
    0.00000E+00         0.11451E-01         0.00000E+00
    0.15431E-02         0.11271E-01         0.00000E+00
    0.28128E-02         0.10824E-01         0.00000E+00
    0.39037E-02         0.10203E-01         0.00000E+00
    0.48383E-02         0.94377E-02         0.00000E+00
    0.56333E-02         0.85574E-02         0.00000E+00
    0.63026E-02         0.75888E-02         0.00000E+00
    0.68550E-02         0.65540E-02         0.00000E+00
    0.73222E-02         0.54529E-02         0.00000E+00
    0.77413E-02         0.42653E-02         0.00000E+00
    0.81245E-02         0.30296E-02         0.00000E+00
    0.84744E-02         0.17752E-02         0.00000E+00
    0.87925E-02         0.52329E-03         0.00000E+00
    0.90796E-02        -0.71315E-03         0.00000E+00
    0.93360E-02        -0.19263E-02         0.00000E+00
    0.95619E-02        -0.31116E-02         0.00000E+00
    0.97576E-02        -0.42664E-02         0.00000E+00
    0.99240E-02        -0.53894E-02         0.00000E+00
    0.10062E-01        -0.64805E-02         0.00000E+00
    0.10174E-01        -0.75399E-02         0.00000E+00
    0.10261E-01        -0.85687E-02         0.00000E+00
    0.10325E-01        -0.95678E-02         0.00000E+00
    0.10369E-01        -0.10539E-01         0.00000E+00
    0.10393E-01        -0.11483E-01         0.00000E+00
    0.10401E-01        -0.12401E-01         0.00000E+00
    0.10394E-01        -0.13295E-01         0.00000E+00
    0.10374E-01        -0.14167E-01         0.00000E+00
    0.10343E-01        -0.15016E-01         0.00000E+00
    0.10302E-01        -0.15846E-01         0.00000E+00
    0.10253E-01        -0.16656E-01         0.00000E+00
    0.10197E-01        -0.17447E-01         0.00000E+00
    0.10137E-01        -0.18222E-01         0.00000E+00
    0.10072E-01        -0.18979E-01         0.00000E+00
    0.10004E-01        -0.19722E-01         0.00000E+00
    0.99343E-02        -0.20449E-01         0.00000E+00
    0.98633E-02        -0.21163E-01         0.00000E+00
    0.97920E-02        -0.21864E-01         0.00000E+00
    0.97211E-02        -0.22552E-01         0.00000E+00
    0.96513E-02        -0.23229E-01         0.00000E+00
    0.95831E-02        -0.23895E-01         0.00000E+00
    0.95171E-02        -0.24550E-01         0.00000E+00
    0.94538E-02        -0.25196E-01         0.00000E+00
    0.93935E-02        -0.25834E-01         0.00000E+00
    0.93368E-02        -0.26463E-01         0.00000E+00
    0.92838E-02        -0.27085E-01         0.00000E+00
    0.92348E-02        -0.27700E-01         0.00000E+00
    0.91903E-02        -0.28309E-01         0.00000E+00
    0.91503E-02        -0.28913E-01         0.00000E+00
    0.91151E-02        -0.29512E-01         0.00000E+00
    0.90848E-02        -0.30107E-01         0.00000E+00
    0.90595E-02        -0.30699E-01         0.00000E+00
    0.90394E-02        -0.31288E-01         0.00000E+00
    0.90246E-02        -0.31875E-01         0.00000E+00
    0.90150E-02        -0.32461E-01         0.00000E+00
    0.90107E-02        -0.33047E-01         0.00000E+00
    0.90116E-02        -0.33632E-01         0.00000E+00
    0.90178E-02        -0.34219E-01         0.00000E+00
    0.90291E-02        -0.34807E-01         0.00000E+00
    0.90455E-02        -0.35397E-01         0.00000E+00
    0.90668E-02        -0.35990E-01         0.00000E+00
    0.90928E-02        -0.36586E-01         0.00000E+00
    0.91234E-02        -0.37187E-01         0.00000E+00
    0.91582E-02        -0.37792E-01         0.00000E+00
    0.91970E-02        -0.38403E-01         0.00000E+00
    0.92393E-02        -0.39021E-01         0.00000E+00
    0.92849E-02        -0.39645E-01         0.00000E+00
    0.93332E-02        -0.40278E-01         0.00000E+00
    0.93836E-02        -0.40918E-01         0.00000E+00
    0.94356E-02        -0.41568E-01         0.00000E+00
    0.94885E-02        -0.42228E-01         0.00000E+00
    0.95414E-02        -0.42898E-01         0.00000E+00
    0.95935E-02        -0.43580E-01         0.00000E+00
    0.96437E-02        -0.44274E-01         0.00000E+00
    0.96909E-02        -0.44981E-01         0.00000E+00
    0.97338E-02        -0.45702E-01         0.00000E+00
    0.97710E-02        -0.46437E-01         0.00000E+00
    0.98009E-02        -0.47189E-01         0.00000E+00
    0.98217E-02        -0.47957E-01         0.00000E+00
    0.98315E-02        -0.48742E-01         0.00000E+00
    0.98282E-02        -0.49546E-01         0.00000E+00
    0.98093E-02        -0.50369E-01         0.00000E+00
    0.97724E-02        -0.51213E-01         0.00000E+00
    0.97148E-02        -0.52078E-01         0.00000E+00
    0.96336E-02        -0.52965E-01         0.00000E+00
    0.95257E-02        -0.53875E-01         0.00000E+00
    0.93880E-02        -0.54808E-01         0.00000E+00
    0.92171E-02        -0.55762E-01         0.00000E+00
    0.90096E-02        -0.56739E-01         0.00000E+00
    0.87619E-02        -0.57734E-01         0.00000E+00
    0.84704E-02        -0.58745E-01         0.00000E+00
    0.81312E-02        -0.59766E-01         0.00000E+00
    0.77399E-02        -0.60790E-01         0.00000E+00
    0.72915E-02        -0.61807E-01         0.00000E+00
    0.67797E-02        -0.62800E-01         0.00000E+00
    0.61957E-02        -0.63753E-01         0.00000E+00
    0.55275E-02        -0.64641E-01         0.00000E+00
    0.47570E-02        -0.65435E-01         0.00000E+00
    0.38584E-02        -0.66104E-01         0.00000E+00
    0.27966E-02        -0.66613E-01         0.00000E+00
    0.15272E-02        -0.66932E-01         0.00000E+00
    0.00000E+00        -0.67040E-01         0.00000E+00
    0.00000E+00         0.11956E-01         0.00000E+00
    0.16200E-02         0.11772E-01         0.00000E+00
    0.29405E-02         0.11309E-01         0.00000E+00
    0.40782E-02         0.10658E-01         0.00000E+00
    0.50562E-02         0.98584E-02         0.00000E+00
    0.58908E-02         0.89384E-02         0.00000E+00
    0.65946E-02         0.79258E-02         0.00000E+00
    0.71811E-02         0.68454E-02         0.00000E+00
    0.76818E-02         0.56849E-02         0.00000E+00
    0.81318E-02         0.44424E-02         0.00000E+00
    0.85383E-02         0.31515E-02         0.00000E+00
    0.89063E-02         0.18421E-02         0.00000E+00
    0.92383E-02         0.53512E-03         0.00000E+00
    0.95359E-02        -0.75614E-03         0.00000E+00
    0.98002E-02        -0.20235E-02         0.00000E+00
    0.10032E-01        -0.32619E-02         0.00000E+00
    0.10231E-01        -0.44688E-02         0.00000E+00
    0.10401E-01        -0.56428E-02         0.00000E+00
    0.10540E-01        -0.67836E-02         0.00000E+00
    0.10653E-01        -0.78916E-02         0.00000E+00
    0.10739E-01        -0.89677E-02         0.00000E+00
    0.10802E-01        -0.10013E-01         0.00000E+00
    0.10844E-01        -0.11029E-01         0.00000E+00
    0.10867E-01        -0.12017E-01         0.00000E+00
    0.10872E-01        -0.12978E-01         0.00000E+00
    0.10862E-01        -0.13915E-01         0.00000E+00
    0.10839E-01        -0.14827E-01         0.00000E+00
    0.10804E-01        -0.15717E-01         0.00000E+00
    0.10759E-01        -0.16586E-01         0.00000E+00
    0.10707E-01        -0.17434E-01         0.00000E+00
    0.10648E-01        -0.18264E-01         0.00000E+00
    0.10583E-01        -0.19075E-01         0.00000E+00
    0.10514E-01        -0.19869E-01         0.00000E+00
    0.10443E-01        -0.20647E-01         0.00000E+00
    0.10369E-01        -0.21410E-01         0.00000E+00
    0.10294E-01        -0.22158E-01         0.00000E+00
    0.10219E-01        -0.22893E-01         0.00000E+00
    0.10144E-01        -0.23614E-01         0.00000E+00
    0.10071E-01        -0.24324E-01         0.00000E+00
    0.99994E-02        -0.25022E-01         0.00000E+00
    0.99302E-02        -0.25709E-01         0.00000E+00
    0.98637E-02        -0.26387E-01         0.00000E+00
    0.98005E-02        -0.27055E-01         0.00000E+00
    0.97410E-02        -0.27715E-01         0.00000E+00
    0.96855E-02        -0.28367E-01         0.00000E+00
    0.96343E-02        -0.29012E-01         0.00000E+00
    0.95876E-02        -0.29651E-01         0.00000E+00
    0.95458E-02        -0.30284E-01         0.00000E+00
    0.95089E-02        -0.30912E-01         0.00000E+00
    0.94772E-02        -0.31536E-01         0.00000E+00
    0.94509E-02        -0.32157E-01         0.00000E+00
    0.94299E-02        -0.32775E-01         0.00000E+00
    0.94144E-02        -0.33390E-01         0.00000E+00
    0.94044E-02        -0.34005E-01         0.00000E+00
    0.94000E-02        -0.34619E-01         0.00000E+00
    0.94011E-02        -0.35233E-01         0.00000E+00
    0.94077E-02        -0.35848E-01         0.00000E+00
    0.94197E-02        -0.36464E-01         0.00000E+00
    0.94370E-02        -0.37083E-01         0.00000E+00
    0.94594E-02        -0.37705E-01         0.00000E+00
    0.94868E-02        -0.38330E-01         0.00000E+00
    0.95190E-02        -0.38960E-01         0.00000E+00
    0.95556E-02        -0.39594E-01         0.00000E+00
    0.95965E-02        -0.40235E-01         0.00000E+00
    0.96411E-02        -0.40882E-01         0.00000E+00
    0.96890E-02        -0.41537E-01         0.00000E+00
    0.97399E-02        -0.42199E-01         0.00000E+00
    0.97931E-02        -0.42871E-01         0.00000E+00
    0.98479E-02        -0.43551E-01         0.00000E+00
    0.99037E-02        -0.44243E-01         0.00000E+00
    0.99596E-02        -0.44945E-01         0.00000E+00
    0.10015E-01        -0.45659E-01         0.00000E+00
    0.10068E-01        -0.46386E-01         0.00000E+00
    0.10118E-01        -0.47126E-01         0.00000E+00
    0.10164E-01        -0.47881E-01         0.00000E+00
    0.10204E-01        -0.48651E-01         0.00000E+00
    0.10236E-01        -0.49438E-01         0.00000E+00
    0.10259E-01        -0.50241E-01         0.00000E+00
    0.10271E-01        -0.51063E-01         0.00000E+00
    0.10269E-01        -0.51904E-01         0.00000E+00
    0.10250E-01        -0.52765E-01         0.00000E+00
    0.10214E-01        -0.53647E-01         0.00000E+00
    0.10155E-01        -0.54551E-01         0.00000E+00
    0.10072E-01        -0.55478E-01         0.00000E+00
    0.99605E-02        -0.56429E-01         0.00000E+00
    0.98180E-02        -0.57403E-01         0.00000E+00
    0.96405E-02        -0.58400E-01         0.00000E+00
    0.94243E-02        -0.59419E-01         0.00000E+00
    0.91656E-02        -0.60458E-01         0.00000E+00
    0.88603E-02        -0.61514E-01         0.00000E+00
    0.85041E-02        -0.62580E-01         0.00000E+00
    0.80923E-02        -0.63648E-01         0.00000E+00
    0.76194E-02        -0.64708E-01         0.00000E+00
    0.70787E-02        -0.65745E-01         0.00000E+00
    0.64615E-02        -0.66739E-01         0.00000E+00
    0.57556E-02        -0.67665E-01         0.00000E+00
    0.49435E-02        -0.68492E-01         0.00000E+00
    0.40002E-02        -0.69189E-01         0.00000E+00
    0.28916E-02        -0.69717E-01         0.00000E+00
    0.15747E-02        -0.70048E-01         0.00000E+00
    0.00000E+00        -0.70161E-01         0.00000E+00
    0.00000E+00         0.12454E-01         0.00000E+00
    0.16952E-02         0.12270E-01         0.00000E+00
    0.30714E-02         0.11794E-01         0.00000E+00
    0.42550E-02         0.11111E-01         0.00000E+00
    0.52760E-02         0.10277E-01         0.00000E+00
    0.61504E-02         0.93174E-02         0.00000E+00
    0.68889E-02         0.82610E-02         0.00000E+00
    0.75109E-02         0.71325E-02         0.00000E+00
    0.80463E-02         0.59130E-02         0.00000E+00
    0.85258E-02         0.46158E-02         0.00000E+00
    0.89554E-02         0.32705E-02         0.00000E+00
    0.93412E-02         0.19067E-02         0.00000E+00
    0.96867E-02         0.54515E-03         0.00000E+00
    0.99945E-02        -0.80040E-03         0.00000E+00
    0.10266E-01        -0.21214E-02         0.00000E+00
    0.10503E-01        -0.34127E-02         0.00000E+00
    0.10706E-01        -0.46714E-02         0.00000E+00
    0.10878E-01        -0.58961E-02         0.00000E+00
    0.11018E-01        -0.70864E-02         0.00000E+00
    0.11131E-01        -0.82428E-02         0.00000E+00
    0.11217E-01        -0.93660E-02         0.00000E+00
    0.11279E-01        -0.10457E-01         0.00000E+00
    0.11318E-01        -0.11518E-01         0.00000E+00
    0.11338E-01        -0.12550E-01         0.00000E+00
    0.11341E-01        -0.13555E-01         0.00000E+00
    0.11328E-01        -0.14533E-01         0.00000E+00
    0.11301E-01        -0.15486E-01         0.00000E+00
    0.11263E-01        -0.16417E-01         0.00000E+00
    0.11214E-01        -0.17325E-01         0.00000E+00
    0.11158E-01        -0.18212E-01         0.00000E+00
    0.11095E-01        -0.19079E-01         0.00000E+00
    0.11026E-01        -0.19928E-01         0.00000E+00
    0.10953E-01        -0.20758E-01         0.00000E+00
    0.10878E-01        -0.21572E-01         0.00000E+00
    0.10800E-01        -0.22370E-01         0.00000E+00
    0.10721E-01        -0.23152E-01         0.00000E+00
    0.10643E-01        -0.23921E-01         0.00000E+00
    0.10564E-01        -0.24676E-01         0.00000E+00
    0.10487E-01        -0.25418E-01         0.00000E+00
    0.10412E-01        -0.26148E-01         0.00000E+00
    0.10340E-01        -0.26867E-01         0.00000E+00
    0.10270E-01        -0.27576E-01         0.00000E+00
    0.10204E-01        -0.28276E-01         0.00000E+00
    0.10142E-01        -0.28966E-01         0.00000E+00
    0.10084E-01        -0.29648E-01         0.00000E+00
    0.10030E-01        -0.30323E-01         0.00000E+00
    0.99814E-02        -0.30992E-01         0.00000E+00
    0.99377E-02        -0.31654E-01         0.00000E+00
    0.98992E-02        -0.32312E-01         0.00000E+00
    0.98661E-02        -0.32965E-01         0.00000E+00
    0.98386E-02        -0.33614E-01         0.00000E+00
    0.98168E-02        -0.34261E-01         0.00000E+00
    0.98007E-02        -0.34905E-01         0.00000E+00
    0.97903E-02        -0.35548E-01         0.00000E+00
    0.97858E-02        -0.36191E-01         0.00000E+00
    0.97870E-02        -0.36833E-01         0.00000E+00
    0.97940E-02        -0.37477E-01         0.00000E+00
    0.98067E-02        -0.38122E-01         0.00000E+00
    0.98249E-02        -0.38769E-01         0.00000E+00
    0.98485E-02        -0.39420E-01         0.00000E+00
    0.98773E-02        -0.40074E-01         0.00000E+00
    0.99111E-02        -0.40732E-01         0.00000E+00
    0.99496E-02        -0.41397E-01         0.00000E+00
    0.99924E-02        -0.42067E-01         0.00000E+00
    0.10039E-01        -0.42744E-01         0.00000E+00
    0.10090E-01        -0.43428E-01         0.00000E+00
    0.10143E-01        -0.44121E-01         0.00000E+00
    0.10199E-01        -0.44823E-01         0.00000E+00
    0.10257E-01        -0.45535E-01         0.00000E+00
    0.10316E-01        -0.46258E-01         0.00000E+00
    0.10375E-01        -0.46992E-01         0.00000E+00
    0.10433E-01        -0.47739E-01         0.00000E+00
    0.10489E-01        -0.48498E-01         0.00000E+00
    0.10542E-01        -0.49272E-01         0.00000E+00
    0.10591E-01        -0.50061E-01         0.00000E+00
    0.10634E-01        -0.50865E-01         0.00000E+00
    0.10669E-01        -0.51687E-01         0.00000E+00
    0.10694E-01        -0.52526E-01         0.00000E+00
    0.10707E-01        -0.53384E-01         0.00000E+00
    0.10707E-01        -0.54261E-01         0.00000E+00
    0.10689E-01        -0.55160E-01         0.00000E+00
    0.10653E-01        -0.56081E-01         0.00000E+00
    0.10593E-01        -0.57024E-01         0.00000E+00
    0.10508E-01        -0.57991E-01         0.00000E+00
    0.10394E-01        -0.58982E-01         0.00000E+00
    0.10247E-01        -0.59997E-01         0.00000E+00
    0.10063E-01        -0.61036E-01         0.00000E+00
    0.98383E-02        -0.62098E-01         0.00000E+00
    0.95687E-02        -0.63181E-01         0.00000E+00
    0.92497E-02        -0.64280E-01         0.00000E+00
    0.88766E-02        -0.65390E-01         0.00000E+00
    0.84443E-02        -0.66503E-01         0.00000E+00
    0.79468E-02        -0.67607E-01         0.00000E+00
    0.73773E-02        -0.68686E-01         0.00000E+00
    0.67267E-02        -0.69720E-01         0.00000E+00
    0.59829E-02        -0.70684E-01         0.00000E+00
    0.51290E-02        -0.71545E-01         0.00000E+00
    0.41409E-02        -0.72269E-01         0.00000E+00
    0.29857E-02        -0.72818E-01         0.00000E+00
    0.16217E-02        -0.73161E-01         0.00000E+00
    0.00000E+00        -0.73278E-01         0.00000E+00
    0.00000E+00         0.12946E-01         0.00000E+00
    0.17677E-02         0.12766E-01         0.00000E+00
    0.32051E-02         0.12275E-01         0.00000E+00
    0.44341E-02         0.11564E-01         0.00000E+00
    0.54982E-02         0.10694E-01         0.00000E+00
    0.64120E-02         0.96944E-02         0.00000E+00
    0.71869E-02         0.85950E-02         0.00000E+00
    0.78449E-02         0.74132E-02         0.00000E+00
    0.84157E-02         0.61374E-02         0.00000E+00
    0.89237E-02         0.47856E-02         0.00000E+00
    0.93759E-02         0.33866E-02         0.00000E+00
    0.97791E-02         0.19689E-02         0.00000E+00
    0.10138E-01         0.55337E-03         0.00000E+00
    0.10455E-01        -0.84597E-03         0.00000E+00
    0.10734E-01        -0.22202E-02         0.00000E+00
    0.10976E-01        -0.35640E-02         0.00000E+00
    0.11182E-01        -0.48742E-02         0.00000E+00
    0.11355E-01        -0.61493E-02         0.00000E+00
    0.11497E-01        -0.73889E-02         0.00000E+00
    0.11609E-01        -0.85933E-02         0.00000E+00
    0.11694E-01        -0.97636E-02         0.00000E+00
    0.11754E-01        -0.10901E-01         0.00000E+00
    0.11791E-01        -0.12007E-01         0.00000E+00
    0.11808E-01        -0.13083E-01         0.00000E+00
    0.11808E-01        -0.14130E-01         0.00000E+00
    0.11791E-01        -0.15150E-01         0.00000E+00
    0.11761E-01        -0.16145E-01         0.00000E+00
    0.11719E-01        -0.17115E-01         0.00000E+00
    0.11667E-01        -0.18063E-01         0.00000E+00
    0.11606E-01        -0.18988E-01         0.00000E+00
    0.11539E-01        -0.19893E-01         0.00000E+00
    0.11466E-01        -0.20779E-01         0.00000E+00
    0.11390E-01        -0.21646E-01         0.00000E+00
    0.11310E-01        -0.22496E-01         0.00000E+00
    0.11228E-01        -0.23328E-01         0.00000E+00
    0.11145E-01        -0.24146E-01         0.00000E+00
    0.11063E-01        -0.24948E-01         0.00000E+00
    0.10981E-01        -0.25736E-01         0.00000E+00
    0.10900E-01        -0.26511E-01         0.00000E+00
    0.10822E-01        -0.27274E-01         0.00000E+00
    0.10746E-01        -0.28025E-01         0.00000E+00
    0.10673E-01        -0.28765E-01         0.00000E+00
    0.10604E-01        -0.29496E-01         0.00000E+00
    0.10539E-01        -0.30217E-01         0.00000E+00
    0.10478E-01        -0.30929E-01         0.00000E+00
    0.10422E-01        -0.31634E-01         0.00000E+00
    0.10372E-01        -0.32332E-01         0.00000E+00
    0.10326E-01        -0.33024E-01         0.00000E+00
    0.10286E-01        -0.33711E-01         0.00000E+00
    0.10251E-01        -0.34393E-01         0.00000E+00
    0.10223E-01        -0.35072E-01         0.00000E+00
    0.10200E-01        -0.35747E-01         0.00000E+00
    0.10183E-01        -0.36420E-01         0.00000E+00
    0.10173E-01        -0.37092E-01         0.00000E+00
    0.10168E-01        -0.37763E-01         0.00000E+00
    0.10169E-01        -0.38434E-01         0.00000E+00
    0.10177E-01        -0.39106E-01         0.00000E+00
    0.10190E-01        -0.39779E-01         0.00000E+00
    0.10209E-01        -0.40455E-01         0.00000E+00
    0.10234E-01        -0.41135E-01         0.00000E+00
    0.10264E-01        -0.41818E-01         0.00000E+00
    0.10300E-01        -0.42506E-01         0.00000E+00
    0.10340E-01        -0.43199E-01         0.00000E+00
    0.10385E-01        -0.43899E-01         0.00000E+00
    0.10434E-01        -0.44606E-01         0.00000E+00
    0.10487E-01        -0.45320E-01         0.00000E+00
    0.10543E-01        -0.46044E-01         0.00000E+00
    0.10602E-01        -0.46776E-01         0.00000E+00
    0.10662E-01        -0.47519E-01         0.00000E+00
    0.10724E-01        -0.48274E-01         0.00000E+00
    0.10786E-01        -0.49040E-01         0.00000E+00
    0.10848E-01        -0.49819E-01         0.00000E+00
    0.10907E-01        -0.50611E-01         0.00000E+00
    0.10963E-01        -0.51418E-01         0.00000E+00
    0.11015E-01        -0.52241E-01         0.00000E+00
    0.11061E-01        -0.53080E-01         0.00000E+00
    0.11098E-01        -0.53936E-01         0.00000E+00
    0.11126E-01        -0.54811E-01         0.00000E+00
    0.11141E-01        -0.55705E-01         0.00000E+00
    0.11142E-01        -0.56619E-01         0.00000E+00
    0.11126E-01        -0.57555E-01         0.00000E+00
    0.11089E-01        -0.58514E-01         0.00000E+00
    0.11030E-01        -0.59496E-01         0.00000E+00
    0.10943E-01        -0.60503E-01         0.00000E+00
    0.10826E-01        -0.61534E-01         0.00000E+00
    0.10674E-01        -0.62590E-01         0.00000E+00
    0.10484E-01        -0.63671E-01         0.00000E+00
    0.10252E-01        -0.64776E-01         0.00000E+00
    0.99713E-02        -0.65901E-01         0.00000E+00
    0.96388E-02        -0.67044E-01         0.00000E+00
    0.92490E-02        -0.68197E-01         0.00000E+00
    0.87962E-02        -0.69354E-01         0.00000E+00
    0.82742E-02        -0.70501E-01         0.00000E+00
    0.76757E-02        -0.71623E-01         0.00000E+00
    0.69915E-02        -0.72697E-01         0.00000E+00
    0.62097E-02        -0.73699E-01         0.00000E+00
    0.53138E-02        -0.74594E-01         0.00000E+00
    0.42807E-02        -0.75345E-01         0.00000E+00
    0.30791E-02        -0.75915E-01         0.00000E+00
    0.16682E-02        -0.76271E-01         0.00000E+00
    0.00000E+00        -0.76392E-01         0.00000E+00
    0.00000E+00         0.13434E-01         0.00000E+00
    0.18380E-02         0.13255E-01         0.00000E+00
    0.33397E-02         0.12751E-01         0.00000E+00
    0.46160E-02         0.12017E-01         0.00000E+00
    0.57231E-02         0.11110E-01         0.00000E+00
    0.66765E-02         0.10070E-01         0.00000E+00
    0.74897E-02         0.89249E-02         0.00000E+00
    0.81840E-02         0.76888E-02         0.00000E+00
    0.87899E-02         0.63577E-02         0.00000E+00
    0.93255E-02         0.49519E-02         0.00000E+00
    0.97998E-02         0.34997E-02         0.00000E+00
    0.10220E-01         0.20287E-02         0.00000E+00
    0.10591E-01         0.55978E-03         0.00000E+00
    0.10918E-01        -0.89284E-03         0.00000E+00
    0.11204E-01        -0.23199E-02         0.00000E+00
    0.11450E-01        -0.37158E-02         0.00000E+00
    0.11659E-01        -0.50771E-02         0.00000E+00
    0.11834E-01        -0.64023E-02         0.00000E+00
    0.11975E-01        -0.76909E-02         0.00000E+00
    0.12087E-01        -0.89434E-02         0.00000E+00
    0.12170E-01        -0.10161E-01         0.00000E+00
    0.12228E-01        -0.11344E-01         0.00000E+00
    0.12263E-01        -0.12494E-01         0.00000E+00
    0.12277E-01        -0.13614E-01         0.00000E+00
    0.12273E-01        -0.14704E-01         0.00000E+00
    0.12253E-01        -0.15766E-01         0.00000E+00
    0.12219E-01        -0.16802E-01         0.00000E+00
    0.12173E-01        -0.17812E-01         0.00000E+00
    0.12117E-01        -0.18799E-01         0.00000E+00
    0.12052E-01        -0.19764E-01         0.00000E+00
    0.11981E-01        -0.20707E-01         0.00000E+00
    0.11904E-01        -0.21629E-01         0.00000E+00
    0.11823E-01        -0.22533E-01         0.00000E+00
    0.11739E-01        -0.23418E-01         0.00000E+00
    0.11653E-01        -0.24286E-01         0.00000E+00
    0.11566E-01        -0.25138E-01         0.00000E+00
    0.11480E-01        -0.25974E-01         0.00000E+00
    0.11394E-01        -0.26796E-01         0.00000E+00
    0.11310E-01        -0.27604E-01         0.00000E+00
    0.11228E-01        -0.28399E-01         0.00000E+00
    0.11148E-01        -0.29182E-01         0.00000E+00
    0.11072E-01        -0.29953E-01         0.00000E+00
    0.11000E-01        -0.30715E-01         0.00000E+00
    0.10933E-01        -0.31467E-01         0.00000E+00
    0.10869E-01        -0.32210E-01         0.00000E+00
    0.10811E-01        -0.32945E-01         0.00000E+00
    0.10758E-01        -0.33673E-01         0.00000E+00
    0.10711E-01        -0.34394E-01         0.00000E+00
    0.10669E-01        -0.35110E-01         0.00000E+00
    0.10633E-01        -0.35821E-01         0.00000E+00
    0.10603E-01        -0.36529E-01         0.00000E+00
    0.10580E-01        -0.37233E-01         0.00000E+00
    0.10562E-01        -0.37935E-01         0.00000E+00
    0.10551E-01        -0.38635E-01         0.00000E+00
    0.10547E-01        -0.39335E-01         0.00000E+00
    0.10548E-01        -0.40034E-01         0.00000E+00
    0.10556E-01        -0.40735E-01         0.00000E+00
    0.10570E-01        -0.41437E-01         0.00000E+00
    0.10590E-01        -0.42142E-01         0.00000E+00
    0.10616E-01        -0.42850E-01         0.00000E+00
    0.10648E-01        -0.43562E-01         0.00000E+00
    0.10685E-01        -0.44279E-01         0.00000E+00
    0.10727E-01        -0.45002E-01         0.00000E+00
    0.10774E-01        -0.45731E-01         0.00000E+00
    0.10825E-01        -0.46468E-01         0.00000E+00
    0.10881E-01        -0.47212E-01         0.00000E+00
    0.10939E-01        -0.47966E-01         0.00000E+00
    0.11001E-01        -0.48730E-01         0.00000E+00
    0.11065E-01        -0.49504E-01         0.00000E+00
    0.11129E-01        -0.50290E-01         0.00000E+00
    0.11195E-01        -0.51088E-01         0.00000E+00
    0.11259E-01        -0.51899E-01         0.00000E+00
    0.11322E-01        -0.52724E-01         0.00000E+00
    0.11381E-01        -0.53565E-01         0.00000E+00
    0.11436E-01        -0.54421E-01         0.00000E+00
    0.11485E-01        -0.55294E-01         0.00000E+00
    0.11525E-01        -0.56185E-01         0.00000E+00
    0.11555E-01        -0.57096E-01         0.00000E+00
    0.11573E-01        -0.58026E-01         0.00000E+00
    0.11576E-01        -0.58977E-01         0.00000E+00
    0.11560E-01        -0.59950E-01         0.00000E+00
    0.11524E-01        -0.60947E-01         0.00000E+00
    0.11464E-01        -0.61968E-01         0.00000E+00
    0.11376E-01        -0.63014E-01         0.00000E+00
    0.11256E-01        -0.64085E-01         0.00000E+00
    0.11101E-01        -0.65182E-01         0.00000E+00
    0.10905E-01        -0.66305E-01         0.00000E+00
    0.10664E-01        -0.67451E-01         0.00000E+00
    0.10373E-01        -0.68619E-01         0.00000E+00
    0.10028E-01        -0.69805E-01         0.00000E+00
    0.96213E-02        -0.71002E-01         0.00000E+00
    0.91482E-02        -0.72202E-01         0.00000E+00
    0.86017E-02        -0.73392E-01         0.00000E+00
    0.79742E-02        -0.74555E-01         0.00000E+00
    0.72563E-02        -0.75670E-01         0.00000E+00
    0.64362E-02        -0.76709E-01         0.00000E+00
    0.54981E-02        -0.77638E-01         0.00000E+00
    0.44201E-02        -0.78417E-01         0.00000E+00
    0.31720E-02        -0.79008E-01         0.00000E+00
    0.17144E-02        -0.79378E-01         0.00000E+00
    0.00000E+00        -0.79503E-01         0.00000E+00
    0.00000E+00         0.13918E-01         0.00000E+00
    0.19069E-02         0.13737E-01         0.00000E+00
    0.34737E-02         0.13224E-01         0.00000E+00
    0.48002E-02         0.12465E-01         0.00000E+00
    0.59512E-02         0.11524E-01         0.00000E+00
    0.69452E-02         0.10442E-01         0.00000E+00
    0.77971E-02         0.92507E-02         0.00000E+00
    0.85289E-02         0.79591E-02         0.00000E+00
    0.91687E-02         0.65737E-02         0.00000E+00
    0.97313E-02         0.51146E-02         0.00000E+00
    0.10227E-01         0.36099E-02         0.00000E+00
    0.10664E-01         0.20862E-02         0.00000E+00
    0.11048E-01         0.56437E-03         0.00000E+00
    0.11384E-01        -0.94102E-03         0.00000E+00
    0.11675E-01        -0.24205E-02         0.00000E+00
    0.11926E-01        -0.38680E-02         0.00000E+00
    0.12137E-01        -0.52801E-02         0.00000E+00
    0.12313E-01        -0.66552E-02         0.00000E+00
    0.12454E-01        -0.79927E-02         0.00000E+00
    0.12564E-01        -0.92929E-02         0.00000E+00
    0.12646E-01        -0.10557E-01         0.00000E+00
    0.12701E-01        -0.11786E-01         0.00000E+00
    0.12733E-01        -0.12981E-01         0.00000E+00
    0.12744E-01        -0.14144E-01         0.00000E+00
    0.12737E-01        -0.15277E-01         0.00000E+00
    0.12713E-01        -0.16381E-01         0.00000E+00
    0.12675E-01        -0.17458E-01         0.00000E+00
    0.12624E-01        -0.18509E-01         0.00000E+00
    0.12564E-01        -0.19535E-01         0.00000E+00
    0.12495E-01        -0.20538E-01         0.00000E+00
    0.12419E-01        -0.21519E-01         0.00000E+00
    0.12338E-01        -0.22478E-01         0.00000E+00
    0.12253E-01        -0.23418E-01         0.00000E+00
    0.12165E-01        -0.24340E-01         0.00000E+00
    0.12075E-01        -0.25243E-01         0.00000E+00
    0.11984E-01        -0.26129E-01         0.00000E+00
    0.11893E-01        -0.26999E-01         0.00000E+00
    0.11804E-01        -0.27854E-01         0.00000E+00
    0.11716E-01        -0.28695E-01         0.00000E+00
    0.11630E-01        -0.29523E-01         0.00000E+00
    0.11547E-01        -0.30338E-01         0.00000E+00
    0.11468E-01        -0.31141E-01         0.00000E+00
    0.11393E-01        -0.31934E-01         0.00000E+00
    0.11323E-01        -0.32716E-01         0.00000E+00
    0.11257E-01        -0.33489E-01         0.00000E+00
    0.11196E-01        -0.34255E-01         0.00000E+00
    0.11141E-01        -0.35012E-01         0.00000E+00
    0.11092E-01        -0.35763E-01         0.00000E+00
    0.11048E-01        -0.36509E-01         0.00000E+00
    0.11011E-01        -0.37249E-01         0.00000E+00
    0.10980E-01        -0.37985E-01         0.00000E+00
    0.10956E-01        -0.38718E-01         0.00000E+00
    0.10938E-01        -0.39449E-01         0.00000E+00
    0.10926E-01        -0.40178E-01         0.00000E+00
    0.10922E-01        -0.40906E-01         0.00000E+00
    0.10923E-01        -0.41634E-01         0.00000E+00
    0.10932E-01        -0.42364E-01         0.00000E+00
    0.10946E-01        -0.43095E-01         0.00000E+00
    0.10967E-01        -0.43828E-01         0.00000E+00
    0.10994E-01        -0.44565E-01         0.00000E+00
    0.11027E-01        -0.45306E-01         0.00000E+00
    0.11066E-01        -0.46052E-01         0.00000E+00
    0.11110E-01        -0.46804E-01         0.00000E+00
    0.11159E-01        -0.47563E-01         0.00000E+00
    0.11213E-01        -0.48330E-01         0.00000E+00
    0.11271E-01        -0.49105E-01         0.00000E+00
    0.11332E-01        -0.49889E-01         0.00000E+00
    0.11397E-01        -0.50683E-01         0.00000E+00
    0.11463E-01        -0.51489E-01         0.00000E+00
    0.11531E-01        -0.52306E-01         0.00000E+00
    0.11600E-01        -0.53136E-01         0.00000E+00
    0.11667E-01        -0.53980E-01         0.00000E+00
    0.11733E-01        -0.54838E-01         0.00000E+00
    0.11796E-01        -0.55711E-01         0.00000E+00
    0.11854E-01        -0.56601E-01         0.00000E+00
    0.11906E-01        -0.57509E-01         0.00000E+00
    0.11949E-01        -0.58435E-01         0.00000E+00
    0.11982E-01        -0.59381E-01         0.00000E+00
    0.12002E-01        -0.60347E-01         0.00000E+00
    0.12006E-01        -0.61335E-01         0.00000E+00
    0.11993E-01        -0.62345E-01         0.00000E+00
    0.11957E-01        -0.63380E-01         0.00000E+00
    0.11897E-01        -0.64439E-01         0.00000E+00
    0.11808E-01        -0.65524E-01         0.00000E+00
    0.11686E-01        -0.66635E-01         0.00000E+00
    0.11526E-01        -0.67773E-01         0.00000E+00
    0.11325E-01        -0.68937E-01         0.00000E+00
    0.11076E-01        -0.70125E-01         0.00000E+00
    0.10775E-01        -0.71335E-01         0.00000E+00
    0.10417E-01        -0.72564E-01         0.00000E+00
    0.99938E-02        -0.73804E-01         0.00000E+00
    0.95005E-02        -0.75046E-01         0.00000E+00
    0.89296E-02        -0.76279E-01         0.00000E+00
    0.82730E-02        -0.77484E-01         0.00000E+00
    0.75214E-02        -0.78639E-01         0.00000E+00
    0.66629E-02        -0.79715E-01         0.00000E+00
    0.56825E-02        -0.80677E-01         0.00000E+00
    0.45592E-02        -0.81486E-01         0.00000E+00
    0.32646E-02        -0.82099E-01         0.00000E+00
    0.17605E-02        -0.82481E-01         0.00000E+00
    0.00000E+00        -0.82611E-01         0.00000E+00
    0.00000E+00         0.14398E-01         0.00000E+00
    0.19749E-02         0.14214E-01         0.00000E+00
    0.36064E-02         0.13694E-01         0.00000E+00
    0.49868E-02         0.12909E-01         0.00000E+00
    0.61828E-02         0.11933E-01         0.00000E+00
    0.72186E-02         0.10810E-01         0.00000E+00
    0.81097E-02         0.95702E-02         0.00000E+00
    0.88798E-02         0.82245E-02         0.00000E+00
    0.95521E-02         0.67856E-02         0.00000E+00
    0.10141E-01         0.52739E-02         0.00000E+00
    0.10658E-01         0.37171E-02         0.00000E+00
    0.11111E-01         0.21413E-02         0.00000E+00
    0.11507E-01         0.56716E-03         0.00000E+00
    0.11851E-01        -0.99049E-03         0.00000E+00
    0.12149E-01        -0.25218E-02         0.00000E+00
    0.12403E-01        -0.40207E-02         0.00000E+00
    0.12616E-01        -0.54833E-02         0.00000E+00
    0.12792E-01        -0.69080E-02         0.00000E+00
    0.12933E-01        -0.82940E-02         0.00000E+00
    0.13042E-01        -0.96418E-02         0.00000E+00
    0.13121E-01        -0.10952E-01         0.00000E+00
    0.13174E-01        -0.12227E-01         0.00000E+00
    0.13202E-01        -0.13467E-01         0.00000E+00
    0.13210E-01        -0.14673E-01         0.00000E+00
    0.13198E-01        -0.15849E-01         0.00000E+00
    0.13170E-01        -0.16995E-01         0.00000E+00
    0.13128E-01        -0.18113E-01         0.00000E+00
    0.13074E-01        -0.19204E-01         0.00000E+00
    0.13009E-01        -0.20269E-01         0.00000E+00
    0.12936E-01        -0.21311E-01         0.00000E+00
    0.12855E-01        -0.22330E-01         0.00000E+00
    0.12770E-01        -0.23327E-01         0.00000E+00
    0.12680E-01        -0.24303E-01         0.00000E+00
    0.12588E-01        -0.25260E-01         0.00000E+00
    0.12493E-01        -0.26199E-01         0.00000E+00
    0.12398E-01        -0.27119E-01         0.00000E+00
    0.12304E-01        -0.28024E-01         0.00000E+00
    0.12210E-01        -0.28912E-01         0.00000E+00
    0.12118E-01        -0.29786E-01         0.00000E+00
    0.12029E-01        -0.30646E-01         0.00000E+00
    0.11943E-01        -0.31493E-01         0.00000E+00
    0.11861E-01        -0.32328E-01         0.00000E+00
    0.11783E-01        -0.33152E-01         0.00000E+00
    0.11709E-01        -0.33965E-01         0.00000E+00
    0.11641E-01        -0.34769E-01         0.00000E+00
    0.11578E-01        -0.35564E-01         0.00000E+00
    0.11521E-01        -0.36352E-01         0.00000E+00
    0.11469E-01        -0.37132E-01         0.00000E+00
    0.11424E-01        -0.37907E-01         0.00000E+00
    0.11386E-01        -0.38677E-01         0.00000E+00
    0.11354E-01        -0.39442E-01         0.00000E+00
    0.11328E-01        -0.40204E-01         0.00000E+00
    0.11310E-01        -0.40963E-01         0.00000E+00
    0.11298E-01        -0.41721E-01         0.00000E+00
    0.11293E-01        -0.42478E-01         0.00000E+00
    0.11295E-01        -0.43235E-01         0.00000E+00
    0.11303E-01        -0.43993E-01         0.00000E+00
    0.11319E-01        -0.44752E-01         0.00000E+00
    0.11341E-01        -0.45514E-01         0.00000E+00
    0.11369E-01        -0.46280E-01         0.00000E+00
    0.11404E-01        -0.47051E-01         0.00000E+00
    0.11444E-01        -0.47826E-01         0.00000E+00
    0.11490E-01        -0.48608E-01         0.00000E+00
    0.11541E-01        -0.49396E-01         0.00000E+00
    0.11597E-01        -0.50192E-01         0.00000E+00
    0.11658E-01        -0.50998E-01         0.00000E+00
    0.11722E-01        -0.51812E-01         0.00000E+00
    0.11789E-01        -0.52637E-01         0.00000E+00
    0.11859E-01        -0.53474E-01         0.00000E+00
    0.11930E-01        -0.54323E-01         0.00000E+00
    0.12001E-01        -0.55185E-01         0.00000E+00
    0.12072E-01        -0.56061E-01         0.00000E+00
    0.12142E-01        -0.56952E-01         0.00000E+00
    0.12208E-01        -0.57858E-01         0.00000E+00
    0.12269E-01        -0.58782E-01         0.00000E+00
    0.12324E-01        -0.59724E-01         0.00000E+00
    0.12370E-01        -0.60685E-01         0.00000E+00
    0.12406E-01        -0.61666E-01         0.00000E+00
    0.12428E-01        -0.62668E-01         0.00000E+00
    0.12435E-01        -0.63692E-01         0.00000E+00
    0.12423E-01        -0.64740E-01         0.00000E+00
    0.12388E-01        -0.65812E-01         0.00000E+00
    0.12328E-01        -0.66910E-01         0.00000E+00
    0.12238E-01        -0.68034E-01         0.00000E+00
    0.12113E-01        -0.69185E-01         0.00000E+00
    0.11950E-01        -0.70363E-01         0.00000E+00
    0.11744E-01        -0.71567E-01         0.00000E+00
    0.11488E-01        -0.72797E-01         0.00000E+00
    0.11177E-01        -0.74049E-01         0.00000E+00
    0.10806E-01        -0.75320E-01         0.00000E+00
    0.10367E-01        -0.76602E-01         0.00000E+00
    0.98533E-02        -0.77888E-01         0.00000E+00
    0.92581E-02        -0.79162E-01         0.00000E+00
    0.85726E-02        -0.80408E-01         0.00000E+00
    0.77872E-02        -0.81603E-01         0.00000E+00
    0.68902E-02        -0.82717E-01         0.00000E+00
    0.58671E-02        -0.83713E-01         0.00000E+00
    0.46985E-02        -0.84550E-01         0.00000E+00
    0.33572E-02        -0.85186E-01         0.00000E+00
    0.18065E-02        -0.85582E-01         0.00000E+00
    0.00000E+00        -0.85717E-01         0.00000E+00
    0.00000E+00         0.14874E-01         0.00000E+00
    0.20423E-02         0.14687E-01         0.00000E+00
    0.37379E-02         0.14157E-01         0.00000E+00
    0.51754E-02         0.13351E-01         0.00000E+00
    0.64184E-02         0.12339E-01         0.00000E+00
    0.74969E-02         0.11174E-01         0.00000E+00
    0.84287E-02         0.98834E-02         0.00000E+00
    0.92363E-02         0.84851E-02         0.00000E+00
    0.99402E-02         0.69933E-02         0.00000E+00
    0.10555E-01         0.54298E-02         0.00000E+00
    0.11092E-01         0.38215E-02         0.00000E+00
    0.11561E-01         0.21941E-02         0.00000E+00
    0.11968E-01         0.56819E-03         0.00000E+00
    0.12321E-01        -0.10412E-02         0.00000E+00
    0.12624E-01        -0.26241E-02         0.00000E+00
    0.12881E-01        -0.41738E-02         0.00000E+00
    0.13096E-01        -0.56866E-02         0.00000E+00
    0.13272E-01        -0.71606E-02         0.00000E+00
    0.13412E-01        -0.85950E-02         0.00000E+00
    0.13519E-01        -0.99902E-02         0.00000E+00
    0.13596E-01        -0.11347E-01         0.00000E+00
    0.13645E-01        -0.12667E-01         0.00000E+00
    0.13670E-01        -0.13951E-01         0.00000E+00
    0.13674E-01        -0.15202E-01         0.00000E+00
    0.13658E-01        -0.16420E-01         0.00000E+00
    0.13626E-01        -0.17608E-01         0.00000E+00
    0.13580E-01        -0.18767E-01         0.00000E+00
    0.13521E-01        -0.19898E-01         0.00000E+00
    0.13451E-01        -0.21003E-01         0.00000E+00
    0.13373E-01        -0.22083E-01         0.00000E+00
    0.13289E-01        -0.23140E-01         0.00000E+00
    0.13198E-01        -0.24174E-01         0.00000E+00
    0.13104E-01        -0.25187E-01         0.00000E+00
    0.13007E-01        -0.26180E-01         0.00000E+00
    0.12909E-01        -0.27153E-01         0.00000E+00
    0.12810E-01        -0.28109E-01         0.00000E+00
    0.12711E-01        -0.29047E-01         0.00000E+00
    0.12613E-01        -0.29969E-01         0.00000E+00
    0.12518E-01        -0.30876E-01         0.00000E+00
    0.12425E-01        -0.31769E-01         0.00000E+00
    0.12335E-01        -0.32648E-01         0.00000E+00
    0.12250E-01        -0.33514E-01         0.00000E+00
    0.12169E-01        -0.34369E-01         0.00000E+00
    0.12092E-01        -0.35213E-01         0.00000E+00
    0.12021E-01        -0.36048E-01         0.00000E+00
    0.11956E-01        -0.36873E-01         0.00000E+00
    0.11897E-01        -0.37691E-01         0.00000E+00
    0.11843E-01        -0.38501E-01         0.00000E+00
    0.11797E-01        -0.39305E-01         0.00000E+00
    0.11757E-01        -0.40104E-01         0.00000E+00
    0.11724E-01        -0.40898E-01         0.00000E+00
    0.11697E-01        -0.41689E-01         0.00000E+00
    0.11678E-01        -0.42477E-01         0.00000E+00
    0.11666E-01        -0.43264E-01         0.00000E+00
    0.11661E-01        -0.44049E-01         0.00000E+00
    0.11663E-01        -0.44835E-01         0.00000E+00
    0.11672E-01        -0.45621E-01         0.00000E+00
    0.11688E-01        -0.46410E-01         0.00000E+00
    0.11711E-01        -0.47201E-01         0.00000E+00
    0.11740E-01        -0.47996E-01         0.00000E+00
    0.11776E-01        -0.48795E-01         0.00000E+00
    0.11818E-01        -0.49600E-01         0.00000E+00
    0.11866E-01        -0.50411E-01         0.00000E+00
    0.11920E-01        -0.51229E-01         0.00000E+00
    0.11978E-01        -0.52055E-01         0.00000E+00
    0.12041E-01        -0.52891E-01         0.00000E+00
    0.12108E-01        -0.53736E-01         0.00000E+00
    0.12178E-01        -0.54592E-01         0.00000E+00
    0.12251E-01        -0.55459E-01         0.00000E+00
    0.12325E-01        -0.56340E-01         0.00000E+00
    0.12400E-01        -0.57234E-01         0.00000E+00
    0.12474E-01        -0.58142E-01         0.00000E+00
    0.12547E-01        -0.59066E-01         0.00000E+00
    0.12616E-01        -0.60006E-01         0.00000E+00
    0.12681E-01        -0.60964E-01         0.00000E+00
    0.12739E-01        -0.61940E-01         0.00000E+00
    0.12788E-01        -0.62935E-01         0.00000E+00
    0.12827E-01        -0.63952E-01         0.00000E+00
    0.12852E-01        -0.64989E-01         0.00000E+00
    0.12861E-01        -0.66050E-01         0.00000E+00
    0.12850E-01        -0.67135E-01         0.00000E+00
    0.12817E-01        -0.68245E-01         0.00000E+00
    0.12757E-01        -0.69381E-01         0.00000E+00
    0.12666E-01        -0.70544E-01         0.00000E+00
    0.12540E-01        -0.71734E-01         0.00000E+00
    0.12374E-01        -0.72952E-01         0.00000E+00
    0.12162E-01        -0.74197E-01         0.00000E+00
    0.11899E-01        -0.75468E-01         0.00000E+00
    0.11579E-01        -0.76761E-01         0.00000E+00
    0.11195E-01        -0.78074E-01         0.00000E+00
    0.10740E-01        -0.79399E-01         0.00000E+00
    0.10207E-01        -0.80726E-01         0.00000E+00
    0.95875E-02        -0.82042E-01         0.00000E+00
    0.88732E-02        -0.83329E-01         0.00000E+00
    0.80540E-02        -0.84563E-01         0.00000E+00
    0.71184E-02        -0.85714E-01         0.00000E+00
    0.60525E-02        -0.86745E-01         0.00000E+00
    0.48382E-02        -0.87611E-01         0.00000E+00
    0.34500E-02        -0.88270E-01         0.00000E+00
    0.18525E-02        -0.88681E-01         0.00000E+00
    0.00000E+00        -0.88821E-01         0.00000E+00
    0.00000E+00         0.15346E-01         0.00000E+00
    0.21094E-02         0.15156E-01         0.00000E+00
    0.38691E-02         0.14615E-01         0.00000E+00
    0.53650E-02         0.13786E-01         0.00000E+00
    0.66580E-02         0.12740E-01         0.00000E+00
    0.77808E-02         0.11530E-01         0.00000E+00
    0.87538E-02         0.10191E-01         0.00000E+00
    0.95983E-02         0.87406E-02         0.00000E+00
    0.10333E-01         0.71969E-02         0.00000E+00
    0.10973E-01         0.55822E-02         0.00000E+00
    0.11530E-01         0.39231E-02         0.00000E+00
    0.12014E-01         0.22446E-02         0.00000E+00
    0.12433E-01         0.56748E-03         0.00000E+00
    0.12793E-01        -0.10932E-02         0.00000E+00
    0.13101E-01        -0.27271E-02         0.00000E+00
    0.13361E-01        -0.43274E-02         0.00000E+00
    0.13577E-01        -0.58901E-02         0.00000E+00
    0.13753E-01        -0.74130E-02         0.00000E+00
    0.13891E-01        -0.88956E-02         0.00000E+00
    0.13996E-01        -0.10338E-01         0.00000E+00
    0.14070E-01        -0.11741E-01         0.00000E+00
    0.14116E-01        -0.13106E-01         0.00000E+00
    0.14137E-01        -0.14435E-01         0.00000E+00
    0.14137E-01        -0.15729E-01         0.00000E+00
    0.14117E-01        -0.16990E-01         0.00000E+00
    0.14080E-01        -0.18220E-01         0.00000E+00
    0.14029E-01        -0.19419E-01         0.00000E+00
    0.13965E-01        -0.20591E-01         0.00000E+00
    0.13891E-01        -0.21735E-01         0.00000E+00
    0.13809E-01        -0.22854E-01         0.00000E+00
    0.13719E-01        -0.23948E-01         0.00000E+00
    0.13624E-01        -0.25020E-01         0.00000E+00
    0.13526E-01        -0.26070E-01         0.00000E+00
    0.13424E-01        -0.27098E-01         0.00000E+00
    0.13321E-01        -0.28107E-01         0.00000E+00
    0.13218E-01        -0.29097E-01         0.00000E+00
    0.13115E-01        -0.30070E-01         0.00000E+00
    0.13013E-01        -0.31026E-01         0.00000E+00
    0.12914E-01        -0.31965E-01         0.00000E+00
    0.12817E-01        -0.32890E-01         0.00000E+00
    0.12724E-01        -0.33802E-01         0.00000E+00
    0.12635E-01        -0.34700E-01         0.00000E+00
    0.12551E-01        -0.35586E-01         0.00000E+00
    0.12472E-01        -0.36461E-01         0.00000E+00
    0.12398E-01        -0.37326E-01         0.00000E+00
    0.12331E-01        -0.38182E-01         0.00000E+00
    0.12269E-01        -0.39029E-01         0.00000E+00
    0.12214E-01        -0.39869E-01         0.00000E+00
    0.12166E-01        -0.40703E-01         0.00000E+00
    0.12124E-01        -0.41531E-01         0.00000E+00
    0.12090E-01        -0.42354E-01         0.00000E+00
    0.12063E-01        -0.43174E-01         0.00000E+00
    0.12043E-01        -0.43991E-01         0.00000E+00
    0.12030E-01        -0.44806E-01         0.00000E+00
    0.12025E-01        -0.45621E-01         0.00000E+00
    0.12027E-01        -0.46435E-01         0.00000E+00
    0.12037E-01        -0.47250E-01         0.00000E+00
    0.12053E-01        -0.48067E-01         0.00000E+00
    0.12077E-01        -0.48888E-01         0.00000E+00
    0.12108E-01        -0.49711E-01         0.00000E+00
    0.12145E-01        -0.50540E-01         0.00000E+00
    0.12189E-01        -0.51374E-01         0.00000E+00
    0.12239E-01        -0.52214E-01         0.00000E+00
    0.12294E-01        -0.53062E-01         0.00000E+00
    0.12355E-01        -0.53918E-01         0.00000E+00
    0.12421E-01        -0.54784E-01         0.00000E+00
    0.12490E-01        -0.55660E-01         0.00000E+00
    0.12563E-01        -0.56546E-01         0.00000E+00
    0.12639E-01        -0.57445E-01         0.00000E+00
    0.12717E-01        -0.58357E-01         0.00000E+00
    0.12795E-01        -0.59283E-01         0.00000E+00
    0.12873E-01        -0.60224E-01         0.00000E+00
    0.12949E-01        -0.61180E-01         0.00000E+00
    0.13022E-01        -0.62154E-01         0.00000E+00
    0.13090E-01        -0.63145E-01         0.00000E+00
    0.13151E-01        -0.64155E-01         0.00000E+00
    0.13204E-01        -0.65186E-01         0.00000E+00
    0.13245E-01        -0.66237E-01         0.00000E+00
    0.13273E-01        -0.67311E-01         0.00000E+00
    0.13284E-01        -0.68408E-01         0.00000E+00
    0.13276E-01        -0.69530E-01         0.00000E+00
    0.13244E-01        -0.70677E-01         0.00000E+00
    0.13184E-01        -0.71851E-01         0.00000E+00
    0.13093E-01        -0.73053E-01         0.00000E+00
    0.12965E-01        -0.74282E-01         0.00000E+00
    0.12796E-01        -0.75540E-01         0.00000E+00
    0.12580E-01        -0.76825E-01         0.00000E+00
    0.12310E-01        -0.78137E-01         0.00000E+00
    0.11980E-01        -0.79472E-01         0.00000E+00
    0.11584E-01        -0.80826E-01         0.00000E+00
    0.11114E-01        -0.82192E-01         0.00000E+00
    0.10561E-01        -0.83561E-01         0.00000E+00
    0.99181E-02        -0.84918E-01         0.00000E+00
    0.91751E-02        -0.86246E-01         0.00000E+00
    0.83222E-02        -0.87519E-01         0.00000E+00
    0.73479E-02        -0.88708E-01         0.00000E+00
    0.62390E-02        -0.89772E-01         0.00000E+00
    0.49787E-02        -0.90669E-01         0.00000E+00
    0.35432E-02        -0.91351E-01         0.00000E+00
    0.18987E-02        -0.91777E-01         0.00000E+00
    0.00000E+00        -0.91922E-01         0.00000E+00
    0.00000E+00         0.15814E-01         0.00000E+00
    0.21765E-02         0.15620E-01         0.00000E+00
    0.40007E-02         0.15067E-01         0.00000E+00
    0.55563E-02         0.14215E-01         0.00000E+00
    0.69015E-02         0.13134E-01         0.00000E+00
    0.80704E-02         0.11881E-01         0.00000E+00
    0.90850E-02         0.10493E-01         0.00000E+00
    0.99657E-02         0.89913E-02         0.00000E+00
    0.10731E-01         0.73965E-02         0.00000E+00
    0.11396E-01         0.57313E-02         0.00000E+00
    0.11972E-01         0.40219E-02         0.00000E+00
    0.12470E-01         0.22929E-02         0.00000E+00
    0.12899E-01         0.56510E-03         0.00000E+00
    0.13267E-01        -0.11464E-02         0.00000E+00
    0.13580E-01        -0.28309E-02         0.00000E+00
    0.13843E-01        -0.44813E-02         0.00000E+00
    0.14059E-01        -0.60936E-02         0.00000E+00
    0.14234E-01        -0.76653E-02         0.00000E+00
    0.14371E-01        -0.91958E-02         0.00000E+00
    0.14473E-01        -0.10685E-01         0.00000E+00
    0.14543E-01        -0.12135E-01         0.00000E+00
    0.14586E-01        -0.13545E-01         0.00000E+00
    0.14603E-01        -0.14918E-01         0.00000E+00
    0.14598E-01        -0.16256E-01         0.00000E+00
    0.14574E-01        -0.17559E-01         0.00000E+00
    0.14532E-01        -0.18830E-01         0.00000E+00
    0.14476E-01        -0.20071E-01         0.00000E+00
    0.14408E-01        -0.21283E-01         0.00000E+00
    0.14329E-01        -0.22466E-01         0.00000E+00
    0.14241E-01        -0.23624E-01         0.00000E+00
    0.14147E-01        -0.24756E-01         0.00000E+00
    0.14047E-01        -0.25865E-01         0.00000E+00
    0.13944E-01        -0.26951E-01         0.00000E+00
    0.13838E-01        -0.28016E-01         0.00000E+00
    0.13730E-01        -0.29060E-01         0.00000E+00
    0.13623E-01        -0.30085E-01         0.00000E+00
    0.13515E-01        -0.31092E-01         0.00000E+00
    0.13410E-01        -0.32081E-01         0.00000E+00
    0.13307E-01        -0.33054E-01         0.00000E+00
    0.13206E-01        -0.34012E-01         0.00000E+00
    0.13110E-01        -0.34955E-01         0.00000E+00
    0.13018E-01        -0.35885E-01         0.00000E+00
    0.12930E-01        -0.36802E-01         0.00000E+00
    0.12848E-01        -0.37708E-01         0.00000E+00
    0.12772E-01        -0.38604E-01         0.00000E+00
    0.12702E-01        -0.39490E-01         0.00000E+00
    0.12638E-01        -0.40367E-01         0.00000E+00
    0.12581E-01        -0.41237E-01         0.00000E+00
    0.12531E-01        -0.42100E-01         0.00000E+00
    0.12488E-01        -0.42957E-01         0.00000E+00
    0.12452E-01        -0.43810E-01         0.00000E+00
    0.12424E-01        -0.44659E-01         0.00000E+00
    0.12404E-01        -0.45505E-01         0.00000E+00
    0.12391E-01        -0.46349E-01         0.00000E+00
    0.12386E-01        -0.47192E-01         0.00000E+00
    0.12388E-01        -0.48035E-01         0.00000E+00
    0.12398E-01        -0.48879E-01         0.00000E+00
    0.12415E-01        -0.49725E-01         0.00000E+00
    0.12440E-01        -0.50574E-01         0.00000E+00
    0.12472E-01        -0.51427E-01         0.00000E+00
    0.12511E-01        -0.52284E-01         0.00000E+00
    0.12556E-01        -0.53148E-01         0.00000E+00
    0.12608E-01        -0.54018E-01         0.00000E+00
    0.12666E-01        -0.54895E-01         0.00000E+00
    0.12729E-01        -0.55782E-01         0.00000E+00
    0.12797E-01        -0.56677E-01         0.00000E+00
    0.12869E-01        -0.57584E-01         0.00000E+00
    0.12945E-01        -0.58501E-01         0.00000E+00
    0.13024E-01        -0.59431E-01         0.00000E+00
    0.13105E-01        -0.60375E-01         0.00000E+00
    0.13187E-01        -0.61333E-01         0.00000E+00
    0.13268E-01        -0.62306E-01         0.00000E+00
    0.13348E-01        -0.63295E-01         0.00000E+00
    0.13424E-01        -0.64302E-01         0.00000E+00
    0.13496E-01        -0.65327E-01         0.00000E+00
    0.13561E-01        -0.66372E-01         0.00000E+00
    0.13617E-01        -0.67437E-01         0.00000E+00
    0.13661E-01        -0.68523E-01         0.00000E+00
    0.13692E-01        -0.69633E-01         0.00000E+00
    0.13706E-01        -0.70766E-01         0.00000E+00
    0.13699E-01        -0.71925E-01         0.00000E+00
    0.13669E-01        -0.73109E-01         0.00000E+00
    0.13610E-01        -0.74321E-01         0.00000E+00
    0.13519E-01        -0.75561E-01         0.00000E+00
    0.13390E-01        -0.76830E-01         0.00000E+00
    0.13218E-01        -0.78127E-01         0.00000E+00
    0.12997E-01        -0.79452E-01         0.00000E+00
    0.12721E-01        -0.80804E-01         0.00000E+00
    0.12382E-01        -0.82180E-01         0.00000E+00
    0.11974E-01        -0.83576E-01         0.00000E+00
    0.11488E-01        -0.84983E-01         0.00000E+00
    0.10917E-01        -0.86393E-01         0.00000E+00
    0.10250E-01        -0.87791E-01         0.00000E+00
    0.94787E-02        -0.89159E-01         0.00000E+00
    0.85921E-02        -0.90472E-01         0.00000E+00
    0.75791E-02        -0.91697E-01         0.00000E+00
    0.64271E-02        -0.92796E-01         0.00000E+00
    0.51203E-02        -0.93723E-01         0.00000E+00
    0.36371E-02        -0.94429E-01         0.00000E+00
    0.19452E-02        -0.94871E-01         0.00000E+00
    0.00000E+00        -0.95021E-01         0.00000E+00
    0.00000E+00         0.16279E-01         0.00000E+00
    0.22439E-02         0.16081E-01         0.00000E+00
    0.41332E-02         0.15514E-01         0.00000E+00
    0.57498E-02         0.14637E-01         0.00000E+00
    0.71493E-02         0.13521E-01         0.00000E+00
    0.83656E-02         0.12225E-01         0.00000E+00
    0.94219E-02         0.10789E-01         0.00000E+00
    0.10338E-01         0.92372E-02         0.00000E+00
    0.11133E-01         0.75922E-02         0.00000E+00
    0.11822E-01         0.58772E-02         0.00000E+00
    0.12417E-01         0.41180E-02         0.00000E+00
    0.12929E-01         0.23391E-02         0.00000E+00
    0.13369E-01         0.56109E-03         0.00000E+00
    0.13744E-01        -0.12007E-02         0.00000E+00
    0.14061E-01        -0.29354E-02         0.00000E+00
    0.14325E-01        -0.46357E-02         0.00000E+00
    0.14542E-01        -0.62971E-02         0.00000E+00
    0.14716E-01        -0.79174E-02         0.00000E+00
    0.14850E-01        -0.94956E-02         0.00000E+00
    0.14949E-01        -0.11032E-01         0.00000E+00
    0.15016E-01        -0.12527E-01         0.00000E+00
    0.15055E-01        -0.13983E-01         0.00000E+00
    0.15067E-01        -0.15400E-01         0.00000E+00
    0.15058E-01        -0.16781E-01         0.00000E+00
    0.15029E-01        -0.18127E-01         0.00000E+00
    0.14982E-01        -0.19440E-01         0.00000E+00
    0.14921E-01        -0.20722E-01         0.00000E+00
    0.14848E-01        -0.21973E-01         0.00000E+00
    0.14764E-01        -0.23197E-01         0.00000E+00
    0.14671E-01        -0.24393E-01         0.00000E+00
    0.14572E-01        -0.25563E-01         0.00000E+00
    0.14468E-01        -0.26709E-01         0.00000E+00
    0.14359E-01        -0.27832E-01         0.00000E+00
    0.14249E-01        -0.28933E-01         0.00000E+00
    0.14137E-01        -0.30012E-01         0.00000E+00
    0.14024E-01        -0.31072E-01         0.00000E+00
    0.13913E-01        -0.32113E-01         0.00000E+00
    0.13803E-01        -0.33136E-01         0.00000E+00
    0.13696E-01        -0.34142E-01         0.00000E+00
    0.13592E-01        -0.35132E-01         0.00000E+00
    0.13492E-01        -0.36107E-01         0.00000E+00
    0.13396E-01        -0.37069E-01         0.00000E+00
    0.13306E-01        -0.38018E-01         0.00000E+00
    0.13221E-01        -0.38955E-01         0.00000E+00
    0.13142E-01        -0.39881E-01         0.00000E+00
    0.13069E-01        -0.40797E-01         0.00000E+00
    0.13003E-01        -0.41705E-01         0.00000E+00
    0.12944E-01        -0.42604E-01         0.00000E+00
    0.12892E-01        -0.43497E-01         0.00000E+00
    0.12848E-01        -0.44384E-01         0.00000E+00
    0.12811E-01        -0.45265E-01         0.00000E+00
    0.12782E-01        -0.46143E-01         0.00000E+00
    0.12761E-01        -0.47018E-01         0.00000E+00
    0.12748E-01        -0.47891E-01         0.00000E+00
    0.12743E-01        -0.48763E-01         0.00000E+00
    0.12745E-01        -0.49635E-01         0.00000E+00
    0.12755E-01        -0.50508E-01         0.00000E+00
    0.12774E-01        -0.51383E-01         0.00000E+00
    0.12799E-01        -0.52261E-01         0.00000E+00
    0.12832E-01        -0.53143E-01         0.00000E+00
    0.12873E-01        -0.54029E-01         0.00000E+00
    0.12920E-01        -0.54922E-01         0.00000E+00
    0.12974E-01        -0.55822E-01         0.00000E+00
    0.13034E-01        -0.56729E-01         0.00000E+00
    0.13099E-01        -0.57645E-01         0.00000E+00
    0.13170E-01        -0.58571E-01         0.00000E+00
    0.13245E-01        -0.59508E-01         0.00000E+00
    0.13324E-01        -0.60457E-01         0.00000E+00
    0.13406E-01        -0.61418E-01         0.00000E+00
    0.13490E-01        -0.62393E-01         0.00000E+00
    0.13575E-01        -0.63383E-01         0.00000E+00
    0.13660E-01        -0.64388E-01         0.00000E+00
    0.13743E-01        -0.65410E-01         0.00000E+00
    0.13823E-01        -0.66450E-01         0.00000E+00
    0.13898E-01        -0.67509E-01         0.00000E+00
    0.13967E-01        -0.68588E-01         0.00000E+00
    0.14026E-01        -0.69688E-01         0.00000E+00
    0.14074E-01        -0.70810E-01         0.00000E+00
    0.14108E-01        -0.71955E-01         0.00000E+00
    0.14125E-01        -0.73124E-01         0.00000E+00
    0.14120E-01        -0.74320E-01         0.00000E+00
    0.14092E-01        -0.75542E-01         0.00000E+00
    0.14034E-01        -0.76791E-01         0.00000E+00
    0.13943E-01        -0.78070E-01         0.00000E+00
    0.13813E-01        -0.79377E-01         0.00000E+00
    0.13638E-01        -0.80713E-01         0.00000E+00
    0.13413E-01        -0.82079E-01         0.00000E+00
    0.13131E-01        -0.83471E-01         0.00000E+00
    0.12784E-01        -0.84887E-01         0.00000E+00
    0.12365E-01        -0.86323E-01         0.00000E+00
    0.11864E-01        -0.87771E-01         0.00000E+00
    0.11274E-01        -0.89222E-01         0.00000E+00
    0.10584E-01        -0.90661E-01         0.00000E+00
    0.97842E-02        -0.92068E-01         0.00000E+00
    0.88642E-02        -0.93420E-01         0.00000E+00
    0.78125E-02        -0.94682E-01         0.00000E+00
    0.66170E-02        -0.95816E-01         0.00000E+00
    0.52635E-02        -0.96774E-01         0.00000E+00
    0.37320E-02        -0.97505E-01         0.00000E+00
    0.19921E-02        -0.97963E-01         0.00000E+00
    0.00000E+00        -0.98119E-01         0.00000E+00
    0.00000E+00         0.16741E-01         0.00000E+00
    0.23119E-02         0.16537E-01         0.00000E+00
    0.42672E-02         0.15956E-01         0.00000E+00
    0.59461E-02         0.15054E-01         0.00000E+00
    0.74015E-02         0.13902E-01         0.00000E+00
    0.86664E-02         0.12563E-01         0.00000E+00
    0.97646E-02         0.11079E-01         0.00000E+00
    0.10717E-01         0.94785E-02         0.00000E+00
    0.11541E-01         0.77840E-02         0.00000E+00
    0.12253E-01         0.60198E-02         0.00000E+00
    0.12866E-01         0.42115E-02         0.00000E+00
    0.13392E-01         0.23833E-02         0.00000E+00
    0.13841E-01         0.55552E-03         0.00000E+00
    0.14223E-01        -0.12562E-02         0.00000E+00
    0.14543E-01        -0.30406E-02         0.00000E+00
    0.14809E-01        -0.47904E-02         0.00000E+00
    0.15026E-01        -0.65008E-02         0.00000E+00
    0.15198E-01        -0.81693E-02         0.00000E+00
    0.15330E-01        -0.97950E-02         0.00000E+00
    0.15426E-01        -0.11378E-01         0.00000E+00
    0.15489E-01        -0.12919E-01         0.00000E+00
    0.15523E-01        -0.14420E-01         0.00000E+00
    0.15531E-01        -0.15881E-01         0.00000E+00
    0.15516E-01        -0.17305E-01         0.00000E+00
    0.15482E-01        -0.18694E-01         0.00000E+00
    0.15431E-01        -0.20049E-01         0.00000E+00
    0.15364E-01        -0.21371E-01         0.00000E+00
    0.15286E-01        -0.22663E-01         0.00000E+00
    0.15196E-01        -0.23926E-01         0.00000E+00
    0.15099E-01        -0.25161E-01         0.00000E+00
    0.14994E-01        -0.26369E-01         0.00000E+00
    0.14885E-01        -0.27553E-01         0.00000E+00
    0.14772E-01        -0.28712E-01         0.00000E+00
    0.14656E-01        -0.29849E-01         0.00000E+00
    0.14540E-01        -0.30964E-01         0.00000E+00
    0.14423E-01        -0.32058E-01         0.00000E+00
    0.14307E-01        -0.33133E-01         0.00000E+00
    0.14193E-01        -0.34190E-01         0.00000E+00
    0.14082E-01        -0.35229E-01         0.00000E+00
    0.13974E-01        -0.36252E-01         0.00000E+00
    0.13871E-01        -0.37259E-01         0.00000E+00
    0.13772E-01        -0.38253E-01         0.00000E+00
    0.13678E-01        -0.39233E-01         0.00000E+00
    0.13590E-01        -0.40201E-01         0.00000E+00
    0.13508E-01        -0.41158E-01         0.00000E+00
    0.13433E-01        -0.42104E-01         0.00000E+00
    0.13365E-01        -0.43042E-01         0.00000E+00
    0.13304E-01        -0.43971E-01         0.00000E+00
    0.13251E-01        -0.44893E-01         0.00000E+00
    0.13205E-01        -0.45810E-01         0.00000E+00
    0.13167E-01        -0.46721E-01         0.00000E+00
    0.13137E-01        -0.47628E-01         0.00000E+00
    0.13115E-01        -0.48531E-01         0.00000E+00
    0.13101E-01        -0.49433E-01         0.00000E+00
    0.13096E-01        -0.50334E-01         0.00000E+00
    0.13099E-01        -0.51235E-01         0.00000E+00
    0.13109E-01        -0.52137E-01         0.00000E+00
    0.13128E-01        -0.53041E-01         0.00000E+00
    0.13155E-01        -0.53948E-01         0.00000E+00
    0.13189E-01        -0.54858E-01         0.00000E+00
    0.13231E-01        -0.55774E-01         0.00000E+00
    0.13280E-01        -0.56697E-01         0.00000E+00
    0.13336E-01        -0.57626E-01         0.00000E+00
    0.13398E-01        -0.58563E-01         0.00000E+00
    0.13466E-01        -0.59509E-01         0.00000E+00
    0.13539E-01        -0.60465E-01         0.00000E+00
    0.13617E-01        -0.61433E-01         0.00000E+00
    0.13699E-01        -0.62412E-01         0.00000E+00
    0.13784E-01        -0.63405E-01         0.00000E+00
    0.13872E-01        -0.64411E-01         0.00000E+00
    0.13960E-01        -0.65433E-01         0.00000E+00
    0.14049E-01        -0.66471E-01         0.00000E+00
    0.14135E-01        -0.67526E-01         0.00000E+00
    0.14219E-01        -0.68599E-01         0.00000E+00
    0.14298E-01        -0.69692E-01         0.00000E+00
    0.14370E-01        -0.70805E-01         0.00000E+00
    0.14433E-01        -0.71939E-01         0.00000E+00
    0.14485E-01        -0.73096E-01         0.00000E+00
    0.14522E-01        -0.74277E-01         0.00000E+00
    0.14541E-01        -0.75483E-01         0.00000E+00
    0.14539E-01        -0.76715E-01         0.00000E+00
    0.14513E-01        -0.77974E-01         0.00000E+00
    0.14456E-01        -0.79261E-01         0.00000E+00
    0.14365E-01        -0.80577E-01         0.00000E+00
    0.14235E-01        -0.81923E-01         0.00000E+00
    0.14058E-01        -0.83299E-01         0.00000E+00
    0.13830E-01        -0.84704E-01         0.00000E+00
    0.13542E-01        -0.86136E-01         0.00000E+00
    0.13187E-01        -0.87592E-01         0.00000E+00
    0.12756E-01        -0.89069E-01         0.00000E+00
    0.12241E-01        -0.90557E-01         0.00000E+00
    0.11632E-01        -0.92048E-01         0.00000E+00
    0.10920E-01        -0.93527E-01         0.00000E+00
    0.10092E-01        -0.94974E-01         0.00000E+00
    0.91387E-02        -0.96364E-01         0.00000E+00
    0.80484E-02        -0.97663E-01         0.00000E+00
    0.68093E-02        -0.98832E-01         0.00000E+00
    0.54085E-02        -0.99821E-01         0.00000E+00
    0.38281E-02        -0.10058E+00         0.00000E+00
    0.20396E-02        -0.10105E+00         0.00000E+00
    0.00000E+00        -0.10122E+00         0.00000E+00
    0.00000E+00         0.17199E-01         0.00000E+00
    0.23807E-02         0.16990E-01         0.00000E+00
    0.44032E-02         0.16392E-01         0.00000E+00
    0.61457E-02         0.15463E-01         0.00000E+00
    0.76584E-02         0.14276E-01         0.00000E+00
    0.89728E-02         0.12894E-01         0.00000E+00
    0.10113E-01         0.11364E-01         0.00000E+00
    0.11100E-01         0.97151E-02         0.00000E+00
    0.11953E-01         0.79721E-02         0.00000E+00
    0.12687E-01         0.61594E-02         0.00000E+00
    0.13318E-01         0.43025E-02         0.00000E+00
    0.13857E-01         0.24254E-02         0.00000E+00
    0.14316E-01         0.54846E-03         0.00000E+00
    0.14703E-01        -0.13126E-02         0.00000E+00
    0.15027E-01        -0.31465E-02         0.00000E+00
    0.15295E-01        -0.49453E-02         0.00000E+00
    0.15511E-01        -0.67044E-02         0.00000E+00
    0.15681E-01        -0.84209E-02         0.00000E+00
    0.15810E-01        -0.10094E-01         0.00000E+00
    0.15902E-01        -0.11724E-01         0.00000E+00
    0.15961E-01        -0.13310E-01         0.00000E+00
    0.15990E-01        -0.14856E-01         0.00000E+00
    0.15993E-01        -0.16362E-01         0.00000E+00
    0.15974E-01        -0.17829E-01         0.00000E+00
    0.15934E-01        -0.19260E-01         0.00000E+00
    0.15877E-01        -0.20657E-01         0.00000E+00
    0.15805E-01        -0.22020E-01         0.00000E+00
    0.15721E-01        -0.23352E-01         0.00000E+00
    0.15627E-01        -0.24654E-01         0.00000E+00
    0.15524E-01        -0.25928E-01         0.00000E+00
    0.15414E-01        -0.27174E-01         0.00000E+00
    0.15300E-01        -0.28395E-01         0.00000E+00
    0.15182E-01        -0.29591E-01         0.00000E+00
    0.15061E-01        -0.30764E-01         0.00000E+00
    0.14940E-01        -0.31914E-01         0.00000E+00
    0.14818E-01        -0.33043E-01         0.00000E+00
    0.14698E-01        -0.34153E-01         0.00000E+00
    0.14580E-01        -0.35243E-01         0.00000E+00
    0.14465E-01        -0.36315E-01         0.00000E+00
    0.14353E-01        -0.37371E-01         0.00000E+00
    0.14246E-01        -0.38411E-01         0.00000E+00
    0.14144E-01        -0.39436E-01         0.00000E+00
    0.14047E-01        -0.40448E-01         0.00000E+00
    0.13956E-01        -0.41447E-01         0.00000E+00
    0.13871E-01        -0.42434E-01         0.00000E+00
    0.13794E-01        -0.43411E-01         0.00000E+00
    0.13723E-01        -0.44379E-01         0.00000E+00
    0.13660E-01        -0.45338E-01         0.00000E+00
    0.13605E-01        -0.46290E-01         0.00000E+00
    0.13558E-01        -0.47235E-01         0.00000E+00
    0.13519E-01        -0.48176E-01         0.00000E+00
    0.13488E-01        -0.49112E-01         0.00000E+00
    0.13465E-01        -0.50045E-01         0.00000E+00
    0.13451E-01        -0.50975E-01         0.00000E+00
    0.13446E-01        -0.51905E-01         0.00000E+00
    0.13449E-01        -0.52835E-01         0.00000E+00
    0.13460E-01        -0.53766E-01         0.00000E+00
    0.13479E-01        -0.54698E-01         0.00000E+00
    0.13507E-01        -0.55634E-01         0.00000E+00
    0.13542E-01        -0.56574E-01         0.00000E+00
    0.13586E-01        -0.57520E-01         0.00000E+00
    0.13636E-01        -0.58471E-01         0.00000E+00
    0.13694E-01        -0.59430E-01         0.00000E+00
    0.13758E-01        -0.60397E-01         0.00000E+00
    0.13829E-01        -0.61373E-01         0.00000E+00
    0.13905E-01        -0.62360E-01         0.00000E+00
    0.13986E-01        -0.63358E-01         0.00000E+00
    0.14071E-01        -0.64368E-01         0.00000E+00
    0.14159E-01        -0.65392E-01         0.00000E+00
    0.14250E-01        -0.66430E-01         0.00000E+00
    0.14342E-01        -0.67484E-01         0.00000E+00
    0.14434E-01        -0.68554E-01         0.00000E+00
    0.14525E-01        -0.69642E-01         0.00000E+00
    0.14612E-01        -0.70749E-01         0.00000E+00
    0.14695E-01        -0.71875E-01         0.00000E+00
    0.14771E-01        -0.73022E-01         0.00000E+00
    0.14838E-01        -0.74191E-01         0.00000E+00
    0.14893E-01        -0.75383E-01         0.00000E+00
    0.14933E-01        -0.76599E-01         0.00000E+00
    0.14955E-01        -0.77841E-01         0.00000E+00
    0.14956E-01        -0.79110E-01         0.00000E+00
    0.14932E-01        -0.80406E-01         0.00000E+00
    0.14877E-01        -0.81731E-01         0.00000E+00
    0.14786E-01        -0.83085E-01         0.00000E+00
    0.14655E-01        -0.84469E-01         0.00000E+00
    0.14477E-01        -0.85884E-01         0.00000E+00
    0.14245E-01        -0.87328E-01         0.00000E+00
    0.13952E-01        -0.88799E-01         0.00000E+00
    0.13589E-01        -0.90296E-01         0.00000E+00
    0.13148E-01        -0.91812E-01         0.00000E+00
    0.12620E-01        -0.93341E-01         0.00000E+00
    0.11993E-01        -0.94872E-01         0.00000E+00
    0.11258E-01        -0.96390E-01         0.00000E+00
    0.10402E-01        -0.97876E-01         0.00000E+00
    0.94162E-02        -0.99304E-01         0.00000E+00
    0.82873E-02        -0.10064E+00         0.00000E+00
    0.70045E-02        -0.10184E+00         0.00000E+00
    0.55559E-02        -0.10286E+00         0.00000E+00
    0.39258E-02        -0.10365E+00         0.00000E+00
    0.20879E-02        -0.10414E+00         0.00000E+00
    0.00000E+00        -0.10431E+00         0.00000E+00
    0.00000E+00         0.17653E-01         0.00000E+00
    0.24506E-02         0.17439E-01         0.00000E+00
    0.45416E-02         0.16823E-01         0.00000E+00
    0.63492E-02         0.15867E-01         0.00000E+00
    0.79203E-02         0.14643E-01         0.00000E+00
    0.92849E-02         0.13219E-01         0.00000E+00
    0.10467E-01         0.11643E-01         0.00000E+00
    0.11489E-01         0.99473E-02         0.00000E+00
    0.12369E-01         0.81565E-02         0.00000E+00
    0.13126E-01         0.62960E-02         0.00000E+00
    0.13774E-01         0.43912E-02         0.00000E+00
    0.14326E-01         0.24657E-02         0.00000E+00
    0.14794E-01         0.54002E-03         0.00000E+00
    0.15187E-01        -0.13701E-02         0.00000E+00
    0.15514E-01        -0.32529E-02         0.00000E+00
    0.15782E-01        -0.51005E-02         0.00000E+00
    0.15997E-01        -0.69079E-02         0.00000E+00
    0.16165E-01        -0.86723E-02         0.00000E+00
    0.16290E-01        -0.10392E-01         0.00000E+00
    0.16378E-01        -0.12068E-01         0.00000E+00
    0.16432E-01        -0.13701E-01         0.00000E+00
    0.16457E-01        -0.15291E-01         0.00000E+00
    0.16455E-01        -0.16841E-01         0.00000E+00
    0.16429E-01        -0.18352E-01         0.00000E+00
    0.16384E-01        -0.19825E-01         0.00000E+00
    0.16322E-01        -0.21263E-01         0.00000E+00
    0.16244E-01        -0.22668E-01         0.00000E+00
    0.16155E-01        -0.24040E-01         0.00000E+00
    0.16055E-01        -0.25381E-01         0.00000E+00
    0.15946E-01        -0.26694E-01         0.00000E+00
    0.15831E-01        -0.27978E-01         0.00000E+00
    0.15712E-01        -0.29236E-01         0.00000E+00
    0.15588E-01        -0.30469E-01         0.00000E+00
    0.15463E-01        -0.31678E-01         0.00000E+00
    0.15337E-01        -0.32864E-01         0.00000E+00
    0.15211E-01        -0.34028E-01         0.00000E+00
    0.15086E-01        -0.35171E-01         0.00000E+00
    0.14964E-01        -0.36295E-01         0.00000E+00
    0.14844E-01        -0.37401E-01         0.00000E+00
    0.14729E-01        -0.38489E-01         0.00000E+00
    0.14618E-01        -0.39562E-01         0.00000E+00
    0.14512E-01        -0.40619E-01         0.00000E+00
    0.14412E-01        -0.41662E-01         0.00000E+00
    0.14318E-01        -0.42692E-01         0.00000E+00
    0.14231E-01        -0.43710E-01         0.00000E+00
    0.14151E-01        -0.44718E-01         0.00000E+00
    0.14078E-01        -0.45715E-01         0.00000E+00
    0.14013E-01        -0.46704E-01         0.00000E+00
    0.13956E-01        -0.47686E-01         0.00000E+00
    0.13907E-01        -0.48661E-01         0.00000E+00
    0.13867E-01        -0.49630E-01         0.00000E+00
    0.13835E-01        -0.50596E-01         0.00000E+00
    0.13812E-01        -0.51558E-01         0.00000E+00
    0.13798E-01        -0.52517E-01         0.00000E+00
    0.13792E-01        -0.53476E-01         0.00000E+00
    0.13795E-01        -0.54435E-01         0.00000E+00
    0.13807E-01        -0.55394E-01         0.00000E+00
    0.13827E-01        -0.56356E-01         0.00000E+00
    0.13855E-01        -0.57321E-01         0.00000E+00
    0.13892E-01        -0.58290E-01         0.00000E+00
    0.13937E-01        -0.59265E-01         0.00000E+00
    0.13989E-01        -0.60246E-01         0.00000E+00
    0.14049E-01        -0.61234E-01         0.00000E+00
    0.14115E-01        -0.62231E-01         0.00000E+00
    0.14188E-01        -0.63237E-01         0.00000E+00
    0.14267E-01        -0.64254E-01         0.00000E+00
    0.14351E-01        -0.65283E-01         0.00000E+00
    0.14439E-01        -0.66324E-01         0.00000E+00
    0.14531E-01        -0.67379E-01         0.00000E+00
    0.14625E-01        -0.68449E-01         0.00000E+00
    0.14721E-01        -0.69535E-01         0.00000E+00
    0.14816E-01        -0.70638E-01         0.00000E+00
    0.14911E-01        -0.71758E-01         0.00000E+00
    0.15002E-01        -0.72898E-01         0.00000E+00
    0.15089E-01        -0.74058E-01         0.00000E+00
    0.15168E-01        -0.75239E-01         0.00000E+00
    0.15239E-01        -0.76443E-01         0.00000E+00
    0.15298E-01        -0.77670E-01         0.00000E+00
    0.15341E-01        -0.78922E-01         0.00000E+00
    0.15367E-01        -0.80200E-01         0.00000E+00
    0.15371E-01        -0.81505E-01         0.00000E+00
    0.15349E-01        -0.82838E-01         0.00000E+00
    0.15295E-01        -0.84200E-01         0.00000E+00
    0.15206E-01        -0.85592E-01         0.00000E+00
    0.15075E-01        -0.87015E-01         0.00000E+00
    0.14896E-01        -0.88468E-01         0.00000E+00
    0.14661E-01        -0.89951E-01         0.00000E+00
    0.14363E-01        -0.91462E-01         0.00000E+00
    0.13993E-01        -0.92998E-01         0.00000E+00
    0.13542E-01        -0.94554E-01         0.00000E+00
    0.12999E-01        -0.96122E-01         0.00000E+00
    0.12355E-01        -0.97693E-01         0.00000E+00
    0.11598E-01        -0.99250E-01         0.00000E+00
    0.10716E-01        -0.10077E+00         0.00000E+00
    0.96970E-02        -0.10224E+00         0.00000E+00
    0.85296E-02        -0.10361E+00         0.00000E+00
    0.72029E-02        -0.10485E+00         0.00000E+00
    0.57060E-02        -0.10591E+00         0.00000E+00
    0.40254E-02        -0.10672E+00         0.00000E+00
    0.21371E-02        -0.10723E+00         0.00000E+00
    0.00000E+00        -0.10740E+00         0.00000E+00
    0.00000E+00         0.18105E-01         0.00000E+00
    0.25220E-02         0.17884E-01         0.00000E+00
    0.46829E-02         0.17250E-01         0.00000E+00
    0.65571E-02         0.16264E-01         0.00000E+00
    0.81876E-02         0.15004E-01         0.00000E+00
    0.96027E-02         0.13538E-01         0.00000E+00
    0.10827E-01         0.11918E-01         0.00000E+00
    0.11883E-01         0.10175E-01         0.00000E+00
    0.12791E-01         0.83374E-02         0.00000E+00
    0.13569E-01         0.64298E-02         0.00000E+00
    0.14234E-01         0.44776E-02         0.00000E+00
    0.14798E-01         0.25043E-02         0.00000E+00
    0.15274E-01         0.53028E-03         0.00000E+00
    0.15672E-01        -0.14284E-02         0.00000E+00
    0.16001E-01        -0.33599E-02         0.00000E+00
    0.16270E-01        -0.52559E-02         0.00000E+00
    0.16484E-01        -0.71114E-02         0.00000E+00
    0.16649E-01        -0.89233E-02         0.00000E+00
    0.16771E-01        -0.10690E-01         0.00000E+00
    0.16854E-01        -0.12413E-01         0.00000E+00
    0.16903E-01        -0.14091E-01         0.00000E+00
    0.16922E-01        -0.15726E-01         0.00000E+00
    0.16915E-01        -0.17319E-01         0.00000E+00
    0.16884E-01        -0.18873E-01         0.00000E+00
    0.16833E-01        -0.20389E-01         0.00000E+00
    0.16764E-01        -0.21869E-01         0.00000E+00
    0.16681E-01        -0.23314E-01         0.00000E+00
    0.16586E-01        -0.24727E-01         0.00000E+00
    0.16480E-01        -0.26108E-01         0.00000E+00
    0.16366E-01        -0.27459E-01         0.00000E+00
    0.16246E-01        -0.28781E-01         0.00000E+00
    0.16121E-01        -0.30077E-01         0.00000E+00
    0.15992E-01        -0.31346E-01         0.00000E+00
    0.15862E-01        -0.32591E-01         0.00000E+00
    0.15731E-01        -0.33812E-01         0.00000E+00
    0.15600E-01        -0.35011E-01         0.00000E+00
    0.15471E-01        -0.36189E-01         0.00000E+00
    0.15344E-01        -0.37347E-01         0.00000E+00
    0.15221E-01        -0.38486E-01         0.00000E+00
    0.15101E-01        -0.39607E-01         0.00000E+00
    0.14986E-01        -0.40712E-01         0.00000E+00
    0.14877E-01        -0.41801E-01         0.00000E+00
    0.14774E-01        -0.42876E-01         0.00000E+00
    0.14677E-01        -0.43937E-01         0.00000E+00
    0.14587E-01        -0.44986E-01         0.00000E+00
    0.14504E-01        -0.46024E-01         0.00000E+00
    0.14429E-01        -0.47052E-01         0.00000E+00
    0.14362E-01        -0.48071E-01         0.00000E+00
    0.14303E-01        -0.49082E-01         0.00000E+00
    0.14253E-01        -0.50086E-01         0.00000E+00
    0.14212E-01        -0.51085E-01         0.00000E+00
    0.14179E-01        -0.52080E-01         0.00000E+00
    0.14155E-01        -0.53071E-01         0.00000E+00
    0.14140E-01        -0.54059E-01         0.00000E+00
    0.14134E-01        -0.55047E-01         0.00000E+00
    0.14138E-01        -0.56035E-01         0.00000E+00
    0.14150E-01        -0.57023E-01         0.00000E+00
    0.14171E-01        -0.58014E-01         0.00000E+00
    0.14200E-01        -0.59008E-01         0.00000E+00
    0.14238E-01        -0.60007E-01         0.00000E+00
    0.14284E-01        -0.61010E-01         0.00000E+00
    0.14339E-01        -0.62021E-01         0.00000E+00
    0.14400E-01        -0.63039E-01         0.00000E+00
    0.14469E-01        -0.64066E-01         0.00000E+00
    0.14544E-01        -0.65102E-01         0.00000E+00
    0.14626E-01        -0.66149E-01         0.00000E+00
    0.14713E-01        -0.67209E-01         0.00000E+00
    0.14804E-01        -0.68281E-01         0.00000E+00
    0.14899E-01        -0.69367E-01         0.00000E+00
    0.14996E-01        -0.70469E-01         0.00000E+00
    0.15096E-01        -0.71587E-01         0.00000E+00
    0.15195E-01        -0.72722E-01         0.00000E+00
    0.15293E-01        -0.73875E-01         0.00000E+00
    0.15389E-01        -0.75048E-01         0.00000E+00
    0.15479E-01        -0.76242E-01         0.00000E+00
    0.15563E-01        -0.77457E-01         0.00000E+00
    0.15637E-01        -0.78695E-01         0.00000E+00
    0.15700E-01        -0.79958E-01         0.00000E+00
    0.15747E-01        -0.81245E-01         0.00000E+00
    0.15777E-01        -0.82559E-01         0.00000E+00
    0.15783E-01        -0.83900E-01         0.00000E+00
    0.15764E-01        -0.85270E-01         0.00000E+00
    0.15713E-01        -0.86670E-01         0.00000E+00
    0.15625E-01        -0.88100E-01         0.00000E+00
    0.15494E-01        -0.89560E-01         0.00000E+00
    0.15314E-01        -0.91052E-01         0.00000E+00
    0.15076E-01        -0.92574E-01         0.00000E+00
    0.14774E-01        -0.94124E-01         0.00000E+00
    0.14397E-01        -0.95699E-01         0.00000E+00
    0.13936E-01        -0.97294E-01         0.00000E+00
    0.13381E-01        -0.98902E-01         0.00000E+00
    0.12720E-01        -0.10051E+00         0.00000E+00
    0.11941E-01        -0.10211E+00         0.00000E+00
    0.11033E-01        -0.10367E+00         0.00000E+00
    0.99814E-02        -0.10517E+00         0.00000E+00
    0.87759E-02        -0.10658E+00         0.00000E+00
    0.74051E-02        -0.10786E+00         0.00000E+00
    0.58594E-02        -0.10894E+00         0.00000E+00
    0.41272E-02        -0.10978E+00         0.00000E+00
    0.21873E-02        -0.11031E+00         0.00000E+00
    0.00000E+00        -0.11049E+00         0.00000E+00
    0.00000E+00         0.18553E-01         0.00000E+00
    0.25950E-02         0.18324E-01         0.00000E+00
    0.48277E-02         0.17670E-01         0.00000E+00
    0.67698E-02         0.16655E-01         0.00000E+00
    0.84606E-02         0.15358E-01         0.00000E+00
    0.99264E-02         0.13851E-01         0.00000E+00
    0.11192E-01         0.12187E-01         0.00000E+00
    0.12282E-01         0.10399E-01         0.00000E+00
    0.13217E-01         0.85150E-02         0.00000E+00
    0.14017E-01         0.65609E-02         0.00000E+00
    0.14697E-01         0.45618E-02         0.00000E+00
    0.15273E-01         0.25412E-02         0.00000E+00
    0.15757E-01         0.51935E-03         0.00000E+00
    0.16160E-01        -0.14875E-02         0.00000E+00
    0.16491E-01        -0.34672E-02         0.00000E+00
    0.16759E-01        -0.54115E-02         0.00000E+00
    0.16971E-01        -0.73147E-02         0.00000E+00
    0.17134E-01        -0.91740E-02         0.00000E+00
    0.17252E-01        -0.10988E-01         0.00000E+00
    0.17330E-01        -0.12756E-01         0.00000E+00
    0.17374E-01        -0.14479E-01         0.00000E+00
    0.17387E-01        -0.16159E-01         0.00000E+00
    0.17374E-01        -0.17797E-01         0.00000E+00
    0.17337E-01        -0.19394E-01         0.00000E+00
    0.17280E-01        -0.20952E-01         0.00000E+00
    0.17206E-01        -0.22474E-01         0.00000E+00
    0.17116E-01        -0.23960E-01         0.00000E+00
    0.17015E-01        -0.25413E-01         0.00000E+00
    0.16904E-01        -0.26833E-01         0.00000E+00
    0.16784E-01        -0.28223E-01         0.00000E+00
    0.16658E-01        -0.29584E-01         0.00000E+00
    0.16527E-01        -0.30916E-01         0.00000E+00
    0.16394E-01        -0.32223E-01         0.00000E+00
    0.16258E-01        -0.33504E-01         0.00000E+00
    0.16122E-01        -0.34760E-01         0.00000E+00
    0.15987E-01        -0.35994E-01         0.00000E+00
    0.15853E-01        -0.37207E-01         0.00000E+00
    0.15721E-01        -0.38398E-01         0.00000E+00
    0.15594E-01        -0.39571E-01         0.00000E+00
    0.15470E-01        -0.40725E-01         0.00000E+00
    0.15352E-01        -0.41862E-01         0.00000E+00
    0.15239E-01        -0.42983E-01         0.00000E+00
    0.15132E-01        -0.44089E-01         0.00000E+00
    0.15032E-01        -0.45181E-01         0.00000E+00
    0.14939E-01        -0.46261E-01         0.00000E+00
    0.14854E-01        -0.47329E-01         0.00000E+00
    0.14777E-01        -0.48387E-01         0.00000E+00
    0.14708E-01        -0.49436E-01         0.00000E+00
    0.14647E-01        -0.50477E-01         0.00000E+00
    0.14595E-01        -0.51511E-01         0.00000E+00
    0.14553E-01        -0.52540E-01         0.00000E+00
    0.14519E-01        -0.53563E-01         0.00000E+00
    0.14494E-01        -0.54583E-01         0.00000E+00
    0.14479E-01        -0.55601E-01         0.00000E+00
    0.14473E-01        -0.56618E-01         0.00000E+00
    0.14477E-01        -0.57634E-01         0.00000E+00
    0.14489E-01        -0.58652E-01         0.00000E+00
    0.14511E-01        -0.59672E-01         0.00000E+00
    0.14541E-01        -0.60695E-01         0.00000E+00
    0.14581E-01        -0.61723E-01         0.00000E+00
    0.14628E-01        -0.62756E-01         0.00000E+00
    0.14684E-01        -0.63796E-01         0.00000E+00
    0.14748E-01        -0.64844E-01         0.00000E+00
    0.14819E-01        -0.65900E-01         0.00000E+00
    0.14897E-01        -0.66967E-01         0.00000E+00
    0.14981E-01        -0.68045E-01         0.00000E+00
    0.15071E-01        -0.69135E-01         0.00000E+00
    0.15165E-01        -0.70238E-01         0.00000E+00
    0.15263E-01        -0.71356E-01         0.00000E+00
    0.15365E-01        -0.72489E-01         0.00000E+00
    0.15467E-01        -0.73639E-01         0.00000E+00
    0.15571E-01        -0.74806E-01         0.00000E+00
    0.15673E-01        -0.75992E-01         0.00000E+00
    0.15772E-01        -0.77199E-01         0.00000E+00
    0.15867E-01        -0.78426E-01         0.00000E+00
    0.15955E-01        -0.79675E-01         0.00000E+00
    0.16033E-01        -0.80948E-01         0.00000E+00
    0.16100E-01        -0.82245E-01         0.00000E+00
    0.16151E-01        -0.83568E-01         0.00000E+00
    0.16184E-01        -0.84918E-01         0.00000E+00
    0.16194E-01        -0.86296E-01         0.00000E+00
    0.16177E-01        -0.87702E-01         0.00000E+00
    0.16128E-01        -0.89139E-01         0.00000E+00
    0.16042E-01        -0.90607E-01         0.00000E+00
    0.15912E-01        -0.92105E-01         0.00000E+00
    0.15731E-01        -0.93635E-01         0.00000E+00
    0.15491E-01        -0.95196E-01         0.00000E+00
    0.15185E-01        -0.96784E-01         0.00000E+00
    0.14802E-01        -0.98398E-01         0.00000E+00
    0.14332E-01        -0.10003E+00         0.00000E+00
    0.13765E-01        -0.10168E+00         0.00000E+00
    0.13087E-01        -0.10333E+00         0.00000E+00
    0.12288E-01        -0.10496E+00         0.00000E+00
    0.11353E-01        -0.10656E+00         0.00000E+00
    0.10270E-01        -0.10810E+00         0.00000E+00
    0.90265E-02        -0.10955E+00         0.00000E+00
    0.76116E-02        -0.11086E+00         0.00000E+00
    0.60164E-02        -0.11198E+00         0.00000E+00
    0.42316E-02        -0.11284E+00         0.00000E+00
    0.22388E-02        -0.11339E+00         0.00000E+00
    0.00000E+00        -0.11358E+00         0.00000E+00
    0.00000E+00         0.18997E-01         0.00000E+00
    0.26700E-02         0.18761E-01         0.00000E+00
    0.49764E-02         0.18085E-01         0.00000E+00
    0.69879E-02         0.17039E-01         0.00000E+00
    0.87396E-02         0.15705E-01         0.00000E+00
    0.10256E-01         0.14158E-01         0.00000E+00
    0.11563E-01         0.12451E-01         0.00000E+00
    0.12686E-01         0.10618E-01         0.00000E+00
    0.13648E-01         0.86894E-02         0.00000E+00
    0.14468E-01         0.66895E-02         0.00000E+00
    0.15164E-01         0.46441E-02         0.00000E+00
    0.15751E-01         0.25766E-02         0.00000E+00
    0.16242E-01         0.50735E-03         0.00000E+00
    0.16649E-01        -0.15473E-02         0.00000E+00
    0.16983E-01        -0.35750E-02         0.00000E+00
    0.17250E-01        -0.55670E-02         0.00000E+00
    0.17460E-01        -0.75179E-02         0.00000E+00
    0.17619E-01        -0.94243E-02         0.00000E+00
    0.17732E-01        -0.11285E-01         0.00000E+00
    0.17806E-01        -0.13099E-01         0.00000E+00
    0.17844E-01        -0.14868E-01         0.00000E+00
    0.17852E-01        -0.16592E-01         0.00000E+00
    0.17832E-01        -0.18273E-01         0.00000E+00
    0.17789E-01        -0.19914E-01         0.00000E+00
    0.17725E-01        -0.21514E-01         0.00000E+00
    0.17645E-01        -0.23078E-01         0.00000E+00
    0.17550E-01        -0.24605E-01         0.00000E+00
    0.17442E-01        -0.26098E-01         0.00000E+00
    0.17325E-01        -0.27558E-01         0.00000E+00
    0.17199E-01        -0.28986E-01         0.00000E+00
    0.17067E-01        -0.30385E-01         0.00000E+00
    0.16931E-01        -0.31755E-01         0.00000E+00
    0.16792E-01        -0.33098E-01         0.00000E+00
    0.16651E-01        -0.34415E-01         0.00000E+00
    0.16510E-01        -0.35708E-01         0.00000E+00
    0.16370E-01        -0.36977E-01         0.00000E+00
    0.16231E-01        -0.38223E-01         0.00000E+00
    0.16096E-01        -0.39449E-01         0.00000E+00
    0.15964E-01        -0.40655E-01         0.00000E+00
    0.15836E-01        -0.41841E-01         0.00000E+00
    0.15714E-01        -0.43011E-01         0.00000E+00
    0.15597E-01        -0.44164E-01         0.00000E+00
    0.15487E-01        -0.45301E-01         0.00000E+00
    0.15384E-01        -0.46425E-01         0.00000E+00
    0.15288E-01        -0.47536E-01         0.00000E+00
    0.15200E-01        -0.48635E-01         0.00000E+00
    0.15121E-01        -0.49723E-01         0.00000E+00
    0.15050E-01        -0.50802E-01         0.00000E+00
    0.14987E-01        -0.51873E-01         0.00000E+00
    0.14934E-01        -0.52936E-01         0.00000E+00
    0.14890E-01        -0.53994E-01         0.00000E+00
    0.14855E-01        -0.55047E-01         0.00000E+00
    0.14830E-01        -0.56096E-01         0.00000E+00
    0.14815E-01        -0.57143E-01         0.00000E+00
    0.14809E-01        -0.58189E-01         0.00000E+00
    0.14812E-01        -0.59234E-01         0.00000E+00
    0.14825E-01        -0.60281E-01         0.00000E+00
    0.14847E-01        -0.61330E-01         0.00000E+00
    0.14879E-01        -0.62382E-01         0.00000E+00
    0.14919E-01        -0.63439E-01         0.00000E+00
    0.14969E-01        -0.64502E-01         0.00000E+00
    0.15026E-01        -0.65571E-01         0.00000E+00
    0.15092E-01        -0.66649E-01         0.00000E+00
    0.15165E-01        -0.67735E-01         0.00000E+00
    0.15246E-01        -0.68832E-01         0.00000E+00
    0.15333E-01        -0.69940E-01         0.00000E+00
    0.15425E-01        -0.71061E-01         0.00000E+00
    0.15523E-01        -0.72195E-01         0.00000E+00
    0.15625E-01        -0.73344E-01         0.00000E+00
    0.15729E-01        -0.74509E-01         0.00000E+00
    0.15836E-01        -0.75691E-01         0.00000E+00
    0.15943E-01        -0.76891E-01         0.00000E+00
    0.16049E-01        -0.78110E-01         0.00000E+00
    0.16153E-01        -0.79350E-01         0.00000E+00
    0.16251E-01        -0.80610E-01         0.00000E+00
    0.16343E-01        -0.81894E-01         0.00000E+00
    0.16426E-01        -0.83201E-01         0.00000E+00
    0.16497E-01        -0.84534E-01         0.00000E+00
    0.16552E-01        -0.85892E-01         0.00000E+00
    0.16588E-01        -0.87277E-01         0.00000E+00
    0.16602E-01        -0.88691E-01         0.00000E+00
    0.16588E-01        -0.90135E-01         0.00000E+00
    0.16542E-01        -0.91609E-01         0.00000E+00
    0.16458E-01        -0.93114E-01         0.00000E+00
    0.16329E-01        -0.94650E-01         0.00000E+00
    0.16147E-01        -0.96218E-01         0.00000E+00
    0.15906E-01        -0.97817E-01         0.00000E+00
    0.15596E-01        -0.99444E-01         0.00000E+00
    0.15208E-01        -0.10110E+00         0.00000E+00
    0.14730E-01        -0.10277E+00         0.00000E+00
    0.14150E-01        -0.10445E+00         0.00000E+00
    0.13457E-01        -0.10614E+00         0.00000E+00
    0.12638E-01        -0.10781E+00         0.00000E+00
    0.11677E-01        -0.10945E+00         0.00000E+00
    0.10563E-01        -0.11103E+00         0.00000E+00
    0.92819E-02        -0.11251E+00         0.00000E+00
    0.78230E-02        -0.11385E+00         0.00000E+00
    0.61778E-02        -0.11501E+00         0.00000E+00
    0.43391E-02        -0.11590E+00         0.00000E+00
    0.22919E-02        -0.11648E+00         0.00000E+00
    0.00000E+00        -0.11667E+00         0.00000E+00
    0.00000E+00         0.19438E-01         0.00000E+00
    0.27472E-02         0.19193E-01         0.00000E+00
    0.51295E-02         0.18495E-01         0.00000E+00
    0.72119E-02         0.17416E-01         0.00000E+00
    0.90249E-02         0.16046E-01         0.00000E+00
    0.10592E-01         0.14460E-01         0.00000E+00
    0.11940E-01         0.12710E-01         0.00000E+00
    0.13096E-01         0.10834E-01         0.00000E+00
    0.14083E-01         0.88607E-02         0.00000E+00
    0.14924E-01         0.68158E-02         0.00000E+00
    0.15635E-01         0.47246E-02         0.00000E+00
    0.16232E-01         0.26107E-02         0.00000E+00
    0.16731E-01         0.49439E-03         0.00000E+00
    0.17142E-01        -0.16077E-02         0.00000E+00
    0.17476E-01        -0.36830E-02         0.00000E+00
    0.17743E-01        -0.57226E-02         0.00000E+00
    0.17950E-01        -0.77208E-02         0.00000E+00
    0.18105E-01        -0.96741E-02         0.00000E+00
    0.18214E-01        -0.11581E-01         0.00000E+00
    0.18282E-01        -0.13441E-01         0.00000E+00
    0.18314E-01        -0.15255E-01         0.00000E+00
    0.18315E-01        -0.17024E-01         0.00000E+00
    0.18289E-01        -0.18749E-01         0.00000E+00
    0.18239E-01        -0.20432E-01         0.00000E+00
    0.18169E-01        -0.22076E-01         0.00000E+00
    0.18082E-01        -0.23680E-01         0.00000E+00
    0.17981E-01        -0.25249E-01         0.00000E+00
    0.17867E-01        -0.26782E-01         0.00000E+00
    0.17743E-01        -0.28281E-01         0.00000E+00
    0.17612E-01        -0.29749E-01         0.00000E+00
    0.17474E-01        -0.31185E-01         0.00000E+00
    0.17332E-01        -0.32593E-01         0.00000E+00
    0.17188E-01        -0.33973E-01         0.00000E+00
    0.17042E-01        -0.35326E-01         0.00000E+00
    0.16895E-01        -0.36654E-01         0.00000E+00
    0.16750E-01        -0.37958E-01         0.00000E+00
    0.16607E-01        -0.39239E-01         0.00000E+00
    0.16466E-01        -0.40499E-01         0.00000E+00
    0.16330E-01        -0.41738E-01         0.00000E+00
    0.16198E-01        -0.42958E-01         0.00000E+00
    0.16072E-01        -0.44159E-01         0.00000E+00
    0.15952E-01        -0.45344E-01         0.00000E+00
    0.15839E-01        -0.46514E-01         0.00000E+00
    0.15732E-01        -0.47668E-01         0.00000E+00
    0.15634E-01        -0.48810E-01         0.00000E+00
    0.15543E-01        -0.49940E-01         0.00000E+00
    0.15461E-01        -0.51058E-01         0.00000E+00
    0.15388E-01        -0.52167E-01         0.00000E+00
    0.15324E-01        -0.53268E-01         0.00000E+00
    0.15269E-01        -0.54361E-01         0.00000E+00
    0.15224E-01        -0.55448E-01         0.00000E+00
    0.15188E-01        -0.56530E-01         0.00000E+00
    0.15162E-01        -0.57609E-01         0.00000E+00
    0.15146E-01        -0.58685E-01         0.00000E+00
    0.15140E-01        -0.59759E-01         0.00000E+00
    0.15144E-01        -0.60834E-01         0.00000E+00
    0.15157E-01        -0.61910E-01         0.00000E+00
    0.15180E-01        -0.62988E-01         0.00000E+00
    0.15213E-01        -0.64069E-01         0.00000E+00
    0.15254E-01        -0.65156E-01         0.00000E+00
    0.15305E-01        -0.66248E-01         0.00000E+00
    0.15365E-01        -0.67347E-01         0.00000E+00
    0.15432E-01        -0.68454E-01         0.00000E+00
    0.15508E-01        -0.69570E-01         0.00000E+00
    0.15591E-01        -0.70697E-01         0.00000E+00
    0.15681E-01        -0.71836E-01         0.00000E+00
    0.15776E-01        -0.72987E-01         0.00000E+00
    0.15877E-01        -0.74153E-01         0.00000E+00
    0.15982E-01        -0.75333E-01         0.00000E+00
    0.16091E-01        -0.76530E-01         0.00000E+00
    0.16201E-01        -0.77744E-01         0.00000E+00
    0.16312E-01        -0.78976E-01         0.00000E+00
    0.16422E-01        -0.80228E-01         0.00000E+00
    0.16530E-01        -0.81501E-01         0.00000E+00
    0.16633E-01        -0.82795E-01         0.00000E+00
    0.16729E-01        -0.84113E-01         0.00000E+00
    0.16816E-01        -0.85455E-01         0.00000E+00
    0.16891E-01        -0.86822E-01         0.00000E+00
    0.16950E-01        -0.88216E-01         0.00000E+00
    0.16991E-01        -0.89637E-01         0.00000E+00
    0.17008E-01        -0.91088E-01         0.00000E+00
    0.16998E-01        -0.92568E-01         0.00000E+00
    0.16955E-01        -0.94079E-01         0.00000E+00
    0.16872E-01        -0.95621E-01         0.00000E+00
    0.16744E-01        -0.97195E-01         0.00000E+00
    0.16564E-01        -0.98801E-01         0.00000E+00
    0.16321E-01        -0.10044E+00         0.00000E+00
    0.16008E-01        -0.10210E+00         0.00000E+00
    0.15615E-01        -0.10379E+00         0.00000E+00
    0.15129E-01        -0.10551E+00         0.00000E+00
    0.14538E-01        -0.10723E+00         0.00000E+00
    0.13830E-01        -0.10895E+00         0.00000E+00
    0.12991E-01        -0.11066E+00         0.00000E+00
    0.12006E-01        -0.11234E+00         0.00000E+00
    0.10861E-01        -0.11395E+00         0.00000E+00
    0.95426E-02        -0.11547E+00         0.00000E+00
    0.80397E-02        -0.11685E+00         0.00000E+00
    0.63440E-02        -0.11803E+00         0.00000E+00
    0.44501E-02        -0.11896E+00         0.00000E+00
    0.23467E-02        -0.11956E+00         0.00000E+00
    0.00000E+00        -0.11976E+00         0.00000E+00
    0.00000E+00         0.19875E-01         0.00000E+00
    0.28271E-02         0.19621E-01         0.00000E+00
    0.52876E-02         0.18898E-01         0.00000E+00
    0.74422E-02         0.17786E-01         0.00000E+00
    0.93168E-02         0.16380E-01         0.00000E+00
    0.10934E-01         0.14755E-01         0.00000E+00
    0.12323E-01         0.12965E-01         0.00000E+00
    0.13511E-01         0.11046E-01         0.00000E+00
    0.14524E-01         0.90293E-02         0.00000E+00
    0.15384E-01         0.69399E-02         0.00000E+00
    0.16109E-01         0.48034E-02         0.00000E+00
    0.16717E-01         0.26435E-02         0.00000E+00
    0.17222E-01         0.48063E-03         0.00000E+00
    0.17636E-01        -0.16685E-02         0.00000E+00
    0.17971E-01        -0.37911E-02         0.00000E+00
    0.18237E-01        -0.58781E-02         0.00000E+00
    0.18441E-01        -0.79234E-02         0.00000E+00
    0.18591E-01        -0.99235E-02         0.00000E+00
    0.18695E-01        -0.11877E-01         0.00000E+00
    0.18757E-01        -0.13782E-01         0.00000E+00
    0.18783E-01        -0.15641E-01         0.00000E+00
    0.18778E-01        -0.17455E-01         0.00000E+00
    0.18745E-01        -0.19224E-01         0.00000E+00
    0.18688E-01        -0.20950E-01         0.00000E+00
    0.18612E-01        -0.22636E-01         0.00000E+00
    0.18518E-01        -0.24282E-01         0.00000E+00
    0.18410E-01        -0.25891E-01         0.00000E+00
    0.18290E-01        -0.27465E-01         0.00000E+00
    0.18160E-01        -0.29004E-01         0.00000E+00
    0.18022E-01        -0.30510E-01         0.00000E+00
    0.17879E-01        -0.31985E-01         0.00000E+00
    0.17731E-01        -0.33430E-01         0.00000E+00
    0.17581E-01        -0.34847E-01         0.00000E+00
    0.17429E-01        -0.36237E-01         0.00000E+00
    0.17277E-01        -0.37600E-01         0.00000E+00
    0.17127E-01        -0.38939E-01         0.00000E+00
    0.16979E-01        -0.40255E-01         0.00000E+00
    0.16834E-01        -0.41548E-01         0.00000E+00
    0.16693E-01        -0.42821E-01         0.00000E+00
    0.16557E-01        -0.44073E-01         0.00000E+00
    0.16427E-01        -0.45308E-01         0.00000E+00
    0.16304E-01        -0.46525E-01         0.00000E+00
    0.16187E-01        -0.47725E-01         0.00000E+00
    0.16077E-01        -0.48912E-01         0.00000E+00
    0.15976E-01        -0.50084E-01         0.00000E+00
    0.15883E-01        -0.51244E-01         0.00000E+00
    0.15798E-01        -0.52393E-01         0.00000E+00
    0.15723E-01        -0.53532E-01         0.00000E+00
    0.15657E-01        -0.54662E-01         0.00000E+00
    0.15601E-01        -0.55785E-01         0.00000E+00
    0.15554E-01        -0.56902E-01         0.00000E+00
    0.15517E-01        -0.58013E-01         0.00000E+00
    0.15491E-01        -0.59121E-01         0.00000E+00
    0.15474E-01        -0.60226E-01         0.00000E+00
    0.15468E-01        -0.61330E-01         0.00000E+00
    0.15472E-01        -0.62434E-01         0.00000E+00
    0.15486E-01        -0.63539E-01         0.00000E+00
    0.15509E-01        -0.64646E-01         0.00000E+00
    0.15543E-01        -0.65757E-01         0.00000E+00
    0.15586E-01        -0.66872E-01         0.00000E+00
    0.15638E-01        -0.67994E-01         0.00000E+00
    0.15699E-01        -0.69122E-01         0.00000E+00
    0.15769E-01        -0.70259E-01         0.00000E+00
    0.15847E-01        -0.71406E-01         0.00000E+00
    0.15933E-01        -0.72563E-01         0.00000E+00
    0.16025E-01        -0.73732E-01         0.00000E+00
    0.16124E-01        -0.74914E-01         0.00000E+00
    0.16228E-01        -0.76110E-01         0.00000E+00
    0.16336E-01        -0.77322E-01         0.00000E+00
    0.16448E-01        -0.78551E-01         0.00000E+00
    0.16563E-01        -0.79797E-01         0.00000E+00
    0.16678E-01        -0.81062E-01         0.00000E+00
    0.16792E-01        -0.82346E-01         0.00000E+00
    0.16904E-01        -0.83652E-01         0.00000E+00
    0.17011E-01        -0.84981E-01         0.00000E+00
    0.17112E-01        -0.86333E-01         0.00000E+00
    0.17203E-01        -0.87709E-01         0.00000E+00
    0.17283E-01        -0.89111E-01         0.00000E+00
    0.17346E-01        -0.90540E-01         0.00000E+00
    0.17391E-01        -0.91998E-01         0.00000E+00
    0.17412E-01        -0.93484E-01         0.00000E+00
    0.17406E-01        -0.95001E-01         0.00000E+00
    0.17365E-01        -0.96548E-01         0.00000E+00
    0.17286E-01        -0.98128E-01         0.00000E+00
    0.17160E-01        -0.99740E-01         0.00000E+00
    0.16979E-01        -0.10138E+00         0.00000E+00
    0.16736E-01        -0.10306E+00         0.00000E+00
    0.16421E-01        -0.10476E+00         0.00000E+00
    0.16023E-01        -0.10649E+00         0.00000E+00
    0.15529E-01        -0.10824E+00         0.00000E+00
    0.14929E-01        -0.11000E+00         0.00000E+00
    0.14206E-01        -0.11176E+00         0.00000E+00
    0.13348E-01        -0.11351E+00         0.00000E+00
    0.12339E-01        -0.11522E+00         0.00000E+00
    0.11164E-01        -0.11687E+00         0.00000E+00
    0.98091E-02        -0.11842E+00         0.00000E+00
    0.82623E-02        -0.11983E+00         0.00000E+00
    0.65156E-02        -0.12105E+00         0.00000E+00
    0.45653E-02        -0.12201E+00         0.00000E+00
    0.24036E-02        -0.12263E+00         0.00000E+00
    0.00000E+00        -0.12285E+00         0.00000E+00
    0.00000E+00         0.20308E-01         0.00000E+00
    0.29099E-02         0.20044E-01         0.00000E+00
    0.54514E-02         0.19295E-01         0.00000E+00
    0.76794E-02         0.18150E-01         0.00000E+00
    0.96155E-02         0.16708E-01         0.00000E+00
    0.11283E-01         0.15045E-01         0.00000E+00
    0.12712E-01         0.13215E-01         0.00000E+00
    0.13931E-01         0.11255E-01         0.00000E+00
    0.14969E-01         0.91952E-02         0.00000E+00
    0.15848E-01         0.70620E-02         0.00000E+00
    0.16587E-01         0.48808E-02         0.00000E+00
    0.17205E-01         0.26754E-02         0.00000E+00
    0.17716E-01         0.46619E-03         0.00000E+00
    0.18133E-01        -0.17297E-02         0.00000E+00
    0.18468E-01        -0.38994E-02         0.00000E+00
    0.18732E-01        -0.60334E-02         0.00000E+00
    0.18933E-01        -0.81256E-02         0.00000E+00
    0.19079E-01        -0.10172E-01         0.00000E+00
    0.19176E-01        -0.12172E-01         0.00000E+00
    0.19232E-01        -0.14123E-01         0.00000E+00
    0.19252E-01        -0.16027E-01         0.00000E+00
    0.19239E-01        -0.17885E-01         0.00000E+00
    0.19200E-01        -0.19698E-01         0.00000E+00
    0.19136E-01        -0.21467E-01         0.00000E+00
    0.19053E-01        -0.23195E-01         0.00000E+00
    0.18952E-01        -0.24883E-01         0.00000E+00
    0.18837E-01        -0.26533E-01         0.00000E+00
    0.18711E-01        -0.28147E-01         0.00000E+00
    0.18574E-01        -0.29725E-01         0.00000E+00
    0.18430E-01        -0.31271E-01         0.00000E+00
    0.18280E-01        -0.32784E-01         0.00000E+00
    0.18127E-01        -0.34267E-01         0.00000E+00
    0.17971E-01        -0.35720E-01         0.00000E+00
    0.17814E-01        -0.37146E-01         0.00000E+00
    0.17657E-01        -0.38545E-01         0.00000E+00
    0.17501E-01        -0.39919E-01         0.00000E+00
    0.17348E-01        -0.41269E-01         0.00000E+00
    0.17199E-01        -0.42597E-01         0.00000E+00
    0.17053E-01        -0.43903E-01         0.00000E+00
    0.16913E-01        -0.45188E-01         0.00000E+00
    0.16779E-01        -0.46455E-01         0.00000E+00
    0.16652E-01        -0.47704E-01         0.00000E+00
    0.16531E-01        -0.48937E-01         0.00000E+00
    0.16419E-01        -0.50154E-01         0.00000E+00
    0.16314E-01        -0.51358E-01         0.00000E+00
    0.16218E-01        -0.52548E-01         0.00000E+00
    0.16132E-01        -0.53728E-01         0.00000E+00
    0.16054E-01        -0.54897E-01         0.00000E+00
    0.15986E-01        -0.56057E-01         0.00000E+00
    0.15929E-01        -0.57209E-01         0.00000E+00
    0.15881E-01        -0.58356E-01         0.00000E+00
    0.15843E-01        -0.59496E-01         0.00000E+00
    0.15816E-01        -0.60634E-01         0.00000E+00
    0.15799E-01        -0.61768E-01         0.00000E+00
    0.15792E-01        -0.62901E-01         0.00000E+00
    0.15796E-01        -0.64034E-01         0.00000E+00
    0.15810E-01        -0.65168E-01         0.00000E+00
    0.15835E-01        -0.66304E-01         0.00000E+00
    0.15869E-01        -0.67444E-01         0.00000E+00
    0.15914E-01        -0.68589E-01         0.00000E+00
    0.15967E-01        -0.69740E-01         0.00000E+00
    0.16031E-01        -0.70898E-01         0.00000E+00
    0.16102E-01        -0.72065E-01         0.00000E+00
    0.16183E-01        -0.73241E-01         0.00000E+00
    0.16271E-01        -0.74429E-01         0.00000E+00
    0.16366E-01        -0.75628E-01         0.00000E+00
    0.16468E-01        -0.76841E-01         0.00000E+00
    0.16575E-01        -0.78069E-01         0.00000E+00
    0.16687E-01        -0.79312E-01         0.00000E+00
    0.16803E-01        -0.80572E-01         0.00000E+00
    0.16921E-01        -0.81850E-01         0.00000E+00
    0.17040E-01        -0.83147E-01         0.00000E+00
    0.17159E-01        -0.84465E-01         0.00000E+00
    0.17275E-01        -0.85805E-01         0.00000E+00
    0.17387E-01        -0.87167E-01         0.00000E+00
    0.17492E-01        -0.88553E-01         0.00000E+00
    0.17588E-01        -0.89963E-01         0.00000E+00
    0.17671E-01        -0.91401E-01         0.00000E+00
    0.17740E-01        -0.92865E-01         0.00000E+00
    0.17789E-01        -0.94358E-01         0.00000E+00
    0.17814E-01        -0.95881E-01         0.00000E+00
    0.17811E-01        -0.97434E-01         0.00000E+00
    0.17775E-01        -0.99019E-01         0.00000E+00
    0.17698E-01        -0.10064E+00         0.00000E+00
    0.17574E-01        -0.10228E+00         0.00000E+00
    0.17395E-01        -0.10397E+00         0.00000E+00
    0.17151E-01        -0.10568E+00         0.00000E+00
    0.16834E-01        -0.10742E+00         0.00000E+00
    0.16432E-01        -0.10919E+00         0.00000E+00
    0.15932E-01        -0.11097E+00         0.00000E+00
    0.15322E-01        -0.11277E+00         0.00000E+00
    0.14586E-01        -0.11457E+00         0.00000E+00
    0.13710E-01        -0.11635E+00         0.00000E+00
    0.12677E-01        -0.11810E+00         0.00000E+00
    0.11473E-01        -0.11978E+00         0.00000E+00
    0.10082E-01        -0.12137E+00         0.00000E+00
    0.84915E-02        -0.12282E+00         0.00000E+00
    0.66935E-02        -0.12407E+00         0.00000E+00
    0.46851E-02        -0.12506E+00         0.00000E+00
    0.24629E-02        -0.12571E+00         0.00000E+00
    0.00000E+00        -0.12593E+00         0.00000E+00
    0.00000E+00         0.20737E-01         0.00000E+00
    0.29962E-02         0.20462E-01         0.00000E+00
    0.56213E-02         0.19685E-01         0.00000E+00
    0.79238E-02         0.18506E-01         0.00000E+00
    0.99212E-02         0.17029E-01         0.00000E+00
    0.11638E-01         0.15330E-01         0.00000E+00
    0.13106E-01         0.13461E-01         0.00000E+00
    0.14357E-01         0.11461E-01         0.00000E+00
    0.15419E-01         0.93588E-02         0.00000E+00
    0.16316E-01         0.71823E-02         0.00000E+00
    0.17070E-01         0.49570E-02         0.00000E+00
    0.17697E-01         0.27063E-02         0.00000E+00
    0.18213E-01         0.45123E-03         0.00000E+00
    0.18632E-01        -0.17911E-02         0.00000E+00
    0.18968E-01        -0.40076E-02         0.00000E+00
    0.19229E-01        -0.61884E-02         0.00000E+00
    0.19426E-01        -0.83274E-02         0.00000E+00
    0.19566E-01        -0.10420E-01         0.00000E+00
    0.19658E-01        -0.12466E-01         0.00000E+00
    0.19708E-01        -0.14463E-01         0.00000E+00
    0.19720E-01        -0.16412E-01         0.00000E+00
    0.19701E-01        -0.18314E-01         0.00000E+00
    0.19654E-01        -0.20171E-01         0.00000E+00
    0.19583E-01        -0.21983E-01         0.00000E+00
    0.19492E-01        -0.23753E-01         0.00000E+00
    0.19385E-01        -0.25483E-01         0.00000E+00
    0.19263E-01        -0.27174E-01         0.00000E+00
    0.19129E-01        -0.28828E-01         0.00000E+00
    0.18986E-01        -0.30446E-01         0.00000E+00
    0.18836E-01        -0.32030E-01         0.00000E+00
    0.18680E-01        -0.33582E-01         0.00000E+00
    0.18520E-01        -0.35102E-01         0.00000E+00
    0.18358E-01        -0.36593E-01         0.00000E+00
    0.18195E-01        -0.38055E-01         0.00000E+00
    0.18033E-01        -0.39490E-01         0.00000E+00
    0.17872E-01        -0.40899E-01         0.00000E+00
    0.17714E-01        -0.42284E-01         0.00000E+00
    0.17560E-01        -0.43645E-01         0.00000E+00
    0.17410E-01        -0.44984E-01         0.00000E+00
    0.17266E-01        -0.46303E-01         0.00000E+00
    0.17128E-01        -0.47602E-01         0.00000E+00
    0.16996E-01        -0.48884E-01         0.00000E+00
    0.16872E-01        -0.50148E-01         0.00000E+00
    0.16757E-01        -0.51397E-01         0.00000E+00
    0.16649E-01        -0.52631E-01         0.00000E+00
    0.16551E-01        -0.53852E-01         0.00000E+00
    0.16461E-01        -0.55062E-01         0.00000E+00
    0.16382E-01        -0.56261E-01         0.00000E+00
    0.16312E-01        -0.57451E-01         0.00000E+00
    0.16253E-01        -0.58634E-01         0.00000E+00
    0.16204E-01        -0.59809E-01         0.00000E+00
    0.16165E-01        -0.60979E-01         0.00000E+00
    0.16137E-01        -0.62146E-01         0.00000E+00
    0.16120E-01        -0.63309E-01         0.00000E+00
    0.16113E-01        -0.64472E-01         0.00000E+00
    0.16117E-01        -0.65634E-01         0.00000E+00
    0.16132E-01        -0.66797E-01         0.00000E+00
    0.16157E-01        -0.67962E-01         0.00000E+00
    0.16192E-01        -0.69131E-01         0.00000E+00
    0.16238E-01        -0.70306E-01         0.00000E+00
    0.16293E-01        -0.71486E-01         0.00000E+00
    0.16358E-01        -0.72674E-01         0.00000E+00
    0.16432E-01        -0.73870E-01         0.00000E+00
    0.16515E-01        -0.75077E-01         0.00000E+00
    0.16605E-01        -0.76295E-01         0.00000E+00
    0.16703E-01        -0.77525E-01         0.00000E+00
    0.16808E-01        -0.78768E-01         0.00000E+00
    0.16919E-01        -0.80027E-01         0.00000E+00
    0.17035E-01        -0.81302E-01         0.00000E+00
    0.17154E-01        -0.82594E-01         0.00000E+00
    0.17276E-01        -0.83904E-01         0.00000E+00
    0.17399E-01        -0.85234E-01         0.00000E+00
    0.17522E-01        -0.86585E-01         0.00000E+00
    0.17642E-01        -0.87957E-01         0.00000E+00
    0.17759E-01        -0.89353E-01         0.00000E+00
    0.17869E-01        -0.90773E-01         0.00000E+00
    0.17969E-01        -0.92218E-01         0.00000E+00
    0.18058E-01        -0.93691E-01         0.00000E+00
    0.18131E-01        -0.95190E-01         0.00000E+00
    0.18184E-01        -0.96719E-01         0.00000E+00
    0.18214E-01        -0.98278E-01         0.00000E+00
    0.18215E-01        -0.99868E-01         0.00000E+00
    0.18182E-01        -0.10149E+00         0.00000E+00
    0.18109E-01        -0.10314E+00         0.00000E+00
    0.17987E-01        -0.10483E+00         0.00000E+00
    0.17809E-01        -0.10655E+00         0.00000E+00
    0.17567E-01        -0.10830E+00         0.00000E+00
    0.17248E-01        -0.11008E+00         0.00000E+00
    0.16842E-01        -0.11188E+00         0.00000E+00
    0.16337E-01        -0.11371E+00         0.00000E+00
    0.15717E-01        -0.11554E+00         0.00000E+00
    0.14969E-01        -0.11738E+00         0.00000E+00
    0.14076E-01        -0.11920E+00         0.00000E+00
    0.13021E-01        -0.12098E+00         0.00000E+00
    0.11788E-01        -0.12270E+00         0.00000E+00
    0.10361E-01        -0.12432E+00         0.00000E+00
    0.87279E-02        -0.12580E+00         0.00000E+00
    0.68781E-02        -0.12709E+00         0.00000E+00
    0.48103E-02        -0.12811E+00         0.00000E+00
    0.25250E-02        -0.12878E+00         0.00000E+00
    0.00000E+00        -0.12902E+00         0.00000E+00
    0.00000E+00         0.21161E-01         0.00000E+00
    0.30864E-02         0.20873E-01         0.00000E+00
    0.57981E-02         0.20067E-01         0.00000E+00
    0.81760E-02         0.18855E-01         0.00000E+00
    0.10234E-01         0.17344E-01         0.00000E+00
    0.11999E-01         0.15610E-01         0.00000E+00
    0.13506E-01         0.13704E-01         0.00000E+00
    0.14788E-01         0.11663E-01         0.00000E+00
    0.15874E-01         0.95202E-02         0.00000E+00
    0.16789E-01         0.73012E-02         0.00000E+00
    0.17556E-01         0.50320E-02         0.00000E+00
    0.18191E-01         0.27366E-02         0.00000E+00
    0.18713E-01         0.43592E-03         0.00000E+00
    0.19134E-01        -0.18527E-02         0.00000E+00
    0.19469E-01        -0.41156E-02         0.00000E+00
    0.19727E-01        -0.63431E-02         0.00000E+00
    0.19920E-01        -0.85286E-02         0.00000E+00
    0.20055E-01        -0.10668E-01         0.00000E+00
    0.20140E-01        -0.12759E-01         0.00000E+00
    0.20183E-01        -0.14802E-01         0.00000E+00
    0.20188E-01        -0.16796E-01         0.00000E+00
    0.20161E-01        -0.18742E-01         0.00000E+00
    0.20107E-01        -0.20642E-01         0.00000E+00
    0.20028E-01        -0.22498E-01         0.00000E+00
    0.19930E-01        -0.24311E-01         0.00000E+00
    0.19815E-01        -0.26082E-01         0.00000E+00
    0.19686E-01        -0.27814E-01         0.00000E+00
    0.19546E-01        -0.29508E-01         0.00000E+00
    0.19396E-01        -0.31166E-01         0.00000E+00
    0.19239E-01        -0.32789E-01         0.00000E+00
    0.19077E-01        -0.34379E-01         0.00000E+00
    0.18911E-01        -0.35937E-01         0.00000E+00
    0.18743E-01        -0.37464E-01         0.00000E+00
    0.18574E-01        -0.38963E-01         0.00000E+00
    0.18406E-01        -0.40434E-01         0.00000E+00
    0.18240E-01        -0.41878E-01         0.00000E+00
    0.18077E-01        -0.43297E-01         0.00000E+00
    0.17918E-01        -0.44692E-01         0.00000E+00
    0.17764E-01        -0.46065E-01         0.00000E+00
    0.17615E-01        -0.47417E-01         0.00000E+00
    0.17473E-01        -0.48749E-01         0.00000E+00
    0.17338E-01        -0.50062E-01         0.00000E+00
    0.17210E-01        -0.51358E-01         0.00000E+00
    0.17091E-01        -0.52639E-01         0.00000E+00
    0.16981E-01        -0.53904E-01         0.00000E+00
    0.16879E-01        -0.55156E-01         0.00000E+00
    0.16788E-01        -0.56396E-01         0.00000E+00
    0.16706E-01        -0.57626E-01         0.00000E+00
    0.16634E-01        -0.58846E-01         0.00000E+00
    0.16573E-01        -0.60057E-01         0.00000E+00
    0.16523E-01        -0.61263E-01         0.00000E+00
    0.16483E-01        -0.62462E-01         0.00000E+00
    0.16454E-01        -0.63658E-01         0.00000E+00
    0.16437E-01        -0.64851E-01         0.00000E+00
    0.16430E-01        -0.66042E-01         0.00000E+00
    0.16434E-01        -0.67233E-01         0.00000E+00
    0.16449E-01        -0.68426E-01         0.00000E+00
    0.16475E-01        -0.69620E-01         0.00000E+00
    0.16511E-01        -0.70819E-01         0.00000E+00
    0.16558E-01        -0.72023E-01         0.00000E+00
    0.16615E-01        -0.73232E-01         0.00000E+00
    0.16682E-01        -0.74450E-01         0.00000E+00
    0.16758E-01        -0.75676E-01         0.00000E+00
    0.16843E-01        -0.76913E-01         0.00000E+00
    0.16936E-01        -0.78161E-01         0.00000E+00
    0.17037E-01        -0.79422E-01         0.00000E+00
    0.17145E-01        -0.80696E-01         0.00000E+00
    0.17259E-01        -0.81986E-01         0.00000E+00
    0.17378E-01        -0.83292E-01         0.00000E+00
    0.17501E-01        -0.84616E-01         0.00000E+00
    0.17627E-01        -0.85958E-01         0.00000E+00
    0.17755E-01        -0.87321E-01         0.00000E+00
    0.17882E-01        -0.88704E-01         0.00000E+00
    0.18007E-01        -0.90110E-01         0.00000E+00
    0.18128E-01        -0.91540E-01         0.00000E+00
    0.18242E-01        -0.92994E-01         0.00000E+00
    0.18348E-01        -0.94474E-01         0.00000E+00
    0.18441E-01        -0.95981E-01         0.00000E+00
    0.18519E-01        -0.97516E-01         0.00000E+00
    0.18577E-01        -0.99081E-01         0.00000E+00
    0.18612E-01        -0.10068E+00         0.00000E+00
    0.18617E-01        -0.10230E+00         0.00000E+00
    0.18588E-01        -0.10396E+00         0.00000E+00
    0.18518E-01        -0.10565E+00         0.00000E+00
    0.18400E-01        -0.10737E+00         0.00000E+00
    0.18224E-01        -0.10913E+00         0.00000E+00
    0.17982E-01        -0.11092E+00         0.00000E+00
    0.17663E-01        -0.11273E+00         0.00000E+00
    0.17254E-01        -0.11458E+00         0.00000E+00
    0.16744E-01        -0.11644E+00         0.00000E+00
    0.16116E-01        -0.11831E+00         0.00000E+00
    0.15356E-01        -0.12018E+00         0.00000E+00
    0.14446E-01        -0.12204E+00         0.00000E+00
    0.13370E-01        -0.12385E+00         0.00000E+00
    0.12109E-01        -0.12561E+00         0.00000E+00
    0.10648E-01        -0.12726E+00         0.00000E+00
    0.89719E-02        -0.12878E+00         0.00000E+00
    0.70704E-02        -0.13010E+00         0.00000E+00
    0.49418E-02        -0.13115E+00         0.00000E+00
    0.25905E-02        -0.13185E+00         0.00000E+00
    0.00000E+00        -0.13210E+00         0.00000E+00
    0.00000E+00         0.21580E-01         0.00000E+00
    0.31810E-02         0.21279E-01         0.00000E+00
    0.59824E-02         0.20442E-01         0.00000E+00
    0.84361E-02         0.19197E-01         0.00000E+00
    0.10554E-01         0.17654E-01         0.00000E+00
    0.12368E-01         0.15885E-01         0.00000E+00
    0.13913E-01         0.13942E-01         0.00000E+00
    0.15224E-01         0.11863E-01         0.00000E+00
    0.16334E-01         0.96798E-02         0.00000E+00
    0.17267E-01         0.74187E-02         0.00000E+00
    0.18046E-01         0.51063E-02         0.00000E+00
    0.18690E-01         0.27664E-02         0.00000E+00
    0.19216E-01         0.42042E-03         0.00000E+00
    0.19639E-01        -0.19141E-02         0.00000E+00
    0.19972E-01        -0.42234E-02         0.00000E+00
    0.20227E-01        -0.64973E-02         0.00000E+00
    0.20415E-01        -0.87292E-02         0.00000E+00
    0.20544E-01        -0.10915E-01         0.00000E+00
    0.20623E-01        -0.13052E-01         0.00000E+00
    0.20658E-01        -0.15140E-01         0.00000E+00
    0.20656E-01        -0.17179E-01         0.00000E+00
    0.20621E-01        -0.19169E-01         0.00000E+00
    0.20559E-01        -0.21113E-01         0.00000E+00
    0.20473E-01        -0.23012E-01         0.00000E+00
    0.20367E-01        -0.24867E-01         0.00000E+00
    0.20244E-01        -0.26681E-01         0.00000E+00
    0.20108E-01        -0.28454E-01         0.00000E+00
    0.19960E-01        -0.30188E-01         0.00000E+00
    0.19803E-01        -0.31885E-01         0.00000E+00
    0.19640E-01        -0.33547E-01         0.00000E+00
    0.19471E-01        -0.35175E-01         0.00000E+00
    0.19299E-01        -0.36771E-01         0.00000E+00
    0.19125E-01        -0.38336E-01         0.00000E+00
    0.18950E-01        -0.39870E-01         0.00000E+00
    0.18777E-01        -0.41377E-01         0.00000E+00
    0.18605E-01        -0.42856E-01         0.00000E+00
    0.18437E-01        -0.44310E-01         0.00000E+00
    0.18273E-01        -0.45740E-01         0.00000E+00
    0.18114E-01        -0.47146E-01         0.00000E+00
    0.17961E-01        -0.48531E-01         0.00000E+00
    0.17815E-01        -0.49895E-01         0.00000E+00
    0.17676E-01        -0.51241E-01         0.00000E+00
    0.17545E-01        -0.52569E-01         0.00000E+00
    0.17422E-01        -0.53880E-01         0.00000E+00
    0.17309E-01        -0.55177E-01         0.00000E+00
    0.17205E-01        -0.56460E-01         0.00000E+00
    0.17110E-01        -0.57730E-01         0.00000E+00
    0.17026E-01        -0.58990E-01         0.00000E+00
    0.16953E-01        -0.60240E-01         0.00000E+00
    0.16890E-01        -0.61481E-01         0.00000E+00
    0.16839E-01        -0.62716E-01         0.00000E+00
    0.16798E-01        -0.63945E-01         0.00000E+00
    0.16768E-01        -0.65170E-01         0.00000E+00
    0.16750E-01        -0.66392E-01         0.00000E+00
    0.16743E-01        -0.67613E-01         0.00000E+00
    0.16747E-01        -0.68833E-01         0.00000E+00
    0.16763E-01        -0.70055E-01         0.00000E+00
    0.16789E-01        -0.71279E-01         0.00000E+00
    0.16827E-01        -0.72507E-01         0.00000E+00
    0.16875E-01        -0.73740E-01         0.00000E+00
    0.16933E-01        -0.74979E-01         0.00000E+00
    0.17002E-01        -0.76226E-01         0.00000E+00
    0.17080E-01        -0.77482E-01         0.00000E+00
    0.17167E-01        -0.78749E-01         0.00000E+00
    0.17263E-01        -0.80027E-01         0.00000E+00
    0.17367E-01        -0.81319E-01         0.00000E+00
    0.17478E-01        -0.82624E-01         0.00000E+00
    0.17596E-01        -0.83945E-01         0.00000E+00
    0.17719E-01        -0.85283E-01         0.00000E+00
    0.17846E-01        -0.86638E-01         0.00000E+00
    0.17976E-01        -0.88013E-01         0.00000E+00
    0.18107E-01        -0.89408E-01         0.00000E+00
    0.18239E-01        -0.90824E-01         0.00000E+00
    0.18368E-01        -0.92264E-01         0.00000E+00
    0.18494E-01        -0.93727E-01         0.00000E+00
    0.18613E-01        -0.95215E-01         0.00000E+00
    0.18724E-01        -0.96730E-01         0.00000E+00
    0.18822E-01        -0.98272E-01         0.00000E+00
    0.18905E-01        -0.99843E-01         0.00000E+00
    0.18968E-01        -0.10144E+00         0.00000E+00
    0.19007E-01        -0.10307E+00         0.00000E+00
    0.19018E-01        -0.10474E+00         0.00000E+00
    0.18993E-01        -0.10643E+00         0.00000E+00
    0.18927E-01        -0.10816E+00         0.00000E+00
    0.18812E-01        -0.10992E+00         0.00000E+00
    0.18638E-01        -0.11171E+00         0.00000E+00
    0.18398E-01        -0.11354E+00         0.00000E+00
    0.18078E-01        -0.11539E+00         0.00000E+00
    0.17668E-01        -0.11727E+00         0.00000E+00
    0.17153E-01        -0.11917E+00         0.00000E+00
    0.16518E-01        -0.12108E+00         0.00000E+00
    0.15747E-01        -0.12298E+00         0.00000E+00
    0.14822E-01        -0.12487E+00         0.00000E+00
    0.13725E-01        -0.12673E+00         0.00000E+00
    0.12438E-01        -0.12851E+00         0.00000E+00
    0.10943E-01        -0.13020E+00         0.00000E+00
    0.92242E-02        -0.13175E+00         0.00000E+00
    0.72710E-02        -0.13310E+00         0.00000E+00
    0.50803E-02        -0.13419E+00         0.00000E+00
    0.26598E-02        -0.13492E+00         0.00000E+00
    0.00000E+00        -0.13518E+00         0.00000E+00
    0.00000E+00         0.21993E-01         0.00000E+00
    0.32808E-02         0.21677E-01         0.00000E+00
    0.61750E-02         0.20809E-01         0.00000E+00
    0.87044E-02         0.19532E-01         0.00000E+00
    0.10882E-01         0.17957E-01         0.00000E+00
    0.12742E-01         0.16156E-01         0.00000E+00
    0.14325E-01         0.14178E-01         0.00000E+00
    0.15666E-01         0.12061E-01         0.00000E+00
    0.16799E-01         0.98377E-02         0.00000E+00
    0.17749E-01         0.75352E-02         0.00000E+00
    0.18540E-01         0.51799E-02         0.00000E+00
    0.19192E-01         0.27960E-02         0.00000E+00
    0.19722E-01         0.40491E-03         0.00000E+00
    0.20146E-01        -0.19753E-02         0.00000E+00
    0.20478E-01        -0.43307E-02         0.00000E+00
    0.20729E-01        -0.66510E-02         0.00000E+00
    0.20912E-01        -0.89292E-02         0.00000E+00
    0.21034E-01        -0.11161E-01         0.00000E+00
    0.21106E-01        -0.13344E-01         0.00000E+00
    0.21133E-01        -0.15477E-01         0.00000E+00
    0.21123E-01        -0.17561E-01         0.00000E+00
    0.21080E-01        -0.19596E-01         0.00000E+00
    0.21009E-01        -0.21583E-01         0.00000E+00
    0.20916E-01        -0.23525E-01         0.00000E+00
    0.20802E-01        -0.25423E-01         0.00000E+00
    0.20672E-01        -0.27278E-01         0.00000E+00
    0.20528E-01        -0.29092E-01         0.00000E+00
    0.20373E-01        -0.30867E-01         0.00000E+00
    0.20209E-01        -0.32604E-01         0.00000E+00
    0.20038E-01        -0.34305E-01         0.00000E+00
    0.19863E-01        -0.35971E-01         0.00000E+00
    0.19684E-01        -0.37604E-01         0.00000E+00
    0.19504E-01        -0.39206E-01         0.00000E+00
    0.19323E-01        -0.40777E-01         0.00000E+00
    0.19144E-01        -0.42319E-01         0.00000E+00
    0.18967E-01        -0.43834E-01         0.00000E+00
    0.18794E-01        -0.45322E-01         0.00000E+00
    0.18625E-01        -0.46786E-01         0.00000E+00
    0.18461E-01        -0.48226E-01         0.00000E+00
    0.18304E-01        -0.49644E-01         0.00000E+00
    0.18153E-01        -0.51041E-01         0.00000E+00
    0.18010E-01        -0.52419E-01         0.00000E+00
    0.17875E-01        -0.53779E-01         0.00000E+00
    0.17750E-01        -0.55122E-01         0.00000E+00
    0.17633E-01        -0.56449E-01         0.00000E+00
    0.17526E-01        -0.57763E-01         0.00000E+00
    0.17430E-01        -0.59064E-01         0.00000E+00
    0.17343E-01        -0.60353E-01         0.00000E+00
    0.17268E-01        -0.61633E-01         0.00000E+00
    0.17204E-01        -0.62905E-01         0.00000E+00
    0.17150E-01        -0.64169E-01         0.00000E+00
    0.17109E-01        -0.65428E-01         0.00000E+00
    0.17078E-01        -0.66682E-01         0.00000E+00
    0.17060E-01        -0.67934E-01         0.00000E+00
    0.17053E-01        -0.69183E-01         0.00000E+00
    0.17057E-01        -0.70433E-01         0.00000E+00
    0.17073E-01        -0.71684E-01         0.00000E+00
    0.17100E-01        -0.72937E-01         0.00000E+00
    0.17139E-01        -0.74194E-01         0.00000E+00
    0.17188E-01        -0.75457E-01         0.00000E+00
    0.17248E-01        -0.76726E-01         0.00000E+00
    0.17318E-01        -0.78003E-01         0.00000E+00
    0.17399E-01        -0.79289E-01         0.00000E+00
    0.17488E-01        -0.80586E-01         0.00000E+00
    0.17587E-01        -0.81894E-01         0.00000E+00
    0.17694E-01        -0.83216E-01         0.00000E+00
    0.17808E-01        -0.84552E-01         0.00000E+00
    0.17929E-01        -0.85905E-01         0.00000E+00
    0.18055E-01        -0.87274E-01         0.00000E+00
    0.18186E-01        -0.88661E-01         0.00000E+00
    0.18320E-01        -0.90068E-01         0.00000E+00
    0.18456E-01        -0.91495E-01         0.00000E+00
    0.18592E-01        -0.92945E-01         0.00000E+00
    0.18727E-01        -0.94418E-01         0.00000E+00
    0.18857E-01        -0.95915E-01         0.00000E+00
    0.18981E-01        -0.97437E-01         0.00000E+00
    0.19097E-01        -0.98986E-01         0.00000E+00
    0.19200E-01        -0.10056E+00         0.00000E+00
    0.19288E-01        -0.10217E+00         0.00000E+00
    0.19357E-01        -0.10381E+00         0.00000E+00
    0.19401E-01        -0.10547E+00         0.00000E+00
    0.19416E-01        -0.10717E+00         0.00000E+00
    0.19396E-01        -0.10890E+00         0.00000E+00
    0.19334E-01        -0.11067E+00         0.00000E+00
    0.19223E-01        -0.11247E+00         0.00000E+00
    0.19052E-01        -0.11430E+00         0.00000E+00
    0.18814E-01        -0.11616E+00         0.00000E+00
    0.18495E-01        -0.11805E+00         0.00000E+00
    0.18083E-01        -0.11996E+00         0.00000E+00
    0.17565E-01        -0.12190E+00         0.00000E+00
    0.16923E-01        -0.12384E+00         0.00000E+00
    0.16142E-01        -0.12579E+00         0.00000E+00
    0.15203E-01        -0.12771E+00         0.00000E+00
    0.14086E-01        -0.12960E+00         0.00000E+00
    0.12773E-01        -0.13142E+00         0.00000E+00
    0.11245E-01        -0.13314E+00         0.00000E+00
    0.94854E-02        -0.13472E+00         0.00000E+00
    0.74809E-02        -0.13610E+00         0.00000E+00
    0.52270E-02        -0.13723E+00         0.00000E+00
    0.27338E-02        -0.13799E+00         0.00000E+00
    0.00000E+00        -0.13826E+00         0.00000E+00
    0.00000E+00         0.22401E-01         0.00000E+00
    0.33865E-02         0.22067E-01         0.00000E+00
    0.63763E-02         0.21166E-01         0.00000E+00
    0.89809E-02         0.19859E-01         0.00000E+00
    0.11217E-01         0.18255E-01         0.00000E+00
    0.13123E-01         0.16422E-01         0.00000E+00
    0.14743E-01         0.14410E-01         0.00000E+00
    0.16113E-01         0.12257E-01         0.00000E+00
    0.17269E-01         0.99944E-02         0.00000E+00
    0.18236E-01         0.76510E-02         0.00000E+00
    0.19039E-01         0.52532E-02         0.00000E+00
    0.19698E-01         0.28254E-02         0.00000E+00
    0.20232E-01         0.38960E-03         0.00000E+00
    0.20656E-01        -0.20361E-02         0.00000E+00
    0.20986E-01        -0.44375E-02         0.00000E+00
    0.21233E-01        -0.68040E-02         0.00000E+00
    0.21409E-01        -0.91283E-02         0.00000E+00
    0.21525E-01        -0.11406E-01         0.00000E+00
    0.21589E-01        -0.13635E-01         0.00000E+00
    0.21608E-01        -0.15813E-01         0.00000E+00
    0.21590E-01        -0.17942E-01         0.00000E+00
    0.21538E-01        -0.20021E-01         0.00000E+00
    0.21459E-01        -0.22053E-01         0.00000E+00
    0.21357E-01        -0.24037E-01         0.00000E+00
    0.21235E-01        -0.25977E-01         0.00000E+00
    0.21097E-01        -0.27874E-01         0.00000E+00
    0.20946E-01        -0.29729E-01         0.00000E+00
    0.20783E-01        -0.31544E-01         0.00000E+00
    0.20612E-01        -0.33321E-01         0.00000E+00
    0.20434E-01        -0.35061E-01         0.00000E+00
    0.20252E-01        -0.36766E-01         0.00000E+00
    0.20067E-01        -0.38437E-01         0.00000E+00
    0.19880E-01        -0.40076E-01         0.00000E+00
    0.19694E-01        -0.41683E-01         0.00000E+00
    0.19509E-01        -0.43261E-01         0.00000E+00
    0.19326E-01        -0.44811E-01         0.00000E+00
    0.19147E-01        -0.46334E-01         0.00000E+00
    0.18973E-01        -0.47832E-01         0.00000E+00
    0.18805E-01        -0.49306E-01         0.00000E+00
    0.18643E-01        -0.50757E-01         0.00000E+00
    0.18488E-01        -0.52187E-01         0.00000E+00
    0.18341E-01        -0.53597E-01         0.00000E+00
    0.18203E-01        -0.54988E-01         0.00000E+00
    0.18074E-01        -0.56363E-01         0.00000E+00
    0.17954E-01        -0.57721E-01         0.00000E+00
    0.17844E-01        -0.59066E-01         0.00000E+00
    0.17745E-01        -0.60397E-01         0.00000E+00
    0.17657E-01        -0.61717E-01         0.00000E+00
    0.17579E-01        -0.63027E-01         0.00000E+00
    0.17513E-01        -0.64328E-01         0.00000E+00
    0.17459E-01        -0.65622E-01         0.00000E+00
    0.17416E-01        -0.66910E-01         0.00000E+00
    0.17385E-01        -0.68194E-01         0.00000E+00
    0.17366E-01        -0.69475E-01         0.00000E+00
    0.17358E-01        -0.70754E-01         0.00000E+00
    0.17363E-01        -0.72033E-01         0.00000E+00
    0.17379E-01        -0.73313E-01         0.00000E+00
    0.17407E-01        -0.74595E-01         0.00000E+00
    0.17447E-01        -0.75882E-01         0.00000E+00
    0.17497E-01        -0.77174E-01         0.00000E+00
    0.17559E-01        -0.78473E-01         0.00000E+00
    0.17631E-01        -0.79779E-01         0.00000E+00
    0.17714E-01        -0.81095E-01         0.00000E+00
    0.17806E-01        -0.82422E-01         0.00000E+00
    0.17907E-01        -0.83761E-01         0.00000E+00
    0.18017E-01        -0.85114E-01         0.00000E+00
    0.18134E-01        -0.86481E-01         0.00000E+00
    0.18258E-01        -0.87864E-01         0.00000E+00
    0.18389E-01        -0.89265E-01         0.00000E+00
    0.18523E-01        -0.90684E-01         0.00000E+00
    0.18662E-01        -0.92123E-01         0.00000E+00
    0.18802E-01        -0.93583E-01         0.00000E+00
    0.18943E-01        -0.95066E-01         0.00000E+00
    0.19082E-01        -0.96572E-01         0.00000E+00
    0.19217E-01        -0.98103E-01         0.00000E+00
    0.19346E-01        -0.99660E-01         0.00000E+00
    0.19467E-01        -0.10124E+00         0.00000E+00
    0.19576E-01        -0.10286E+00         0.00000E+00
    0.19669E-01        -0.10450E+00         0.00000E+00
    0.19743E-01        -0.10617E+00         0.00000E+00
    0.19792E-01        -0.10787E+00         0.00000E+00
    0.19813E-01        -0.10961E+00         0.00000E+00
    0.19798E-01        -0.11138E+00         0.00000E+00
    0.19741E-01        -0.11318E+00         0.00000E+00
    0.19633E-01        -0.11501E+00         0.00000E+00
    0.19466E-01        -0.11688E+00         0.00000E+00
    0.19230E-01        -0.11878E+00         0.00000E+00
    0.18912E-01        -0.12071E+00         0.00000E+00
    0.18500E-01        -0.12266E+00         0.00000E+00
    0.17979E-01        -0.12463E+00         0.00000E+00
    0.17332E-01        -0.12661E+00         0.00000E+00
    0.16542E-01        -0.12859E+00         0.00000E+00
    0.15589E-01        -0.13055E+00         0.00000E+00
    0.14454E-01        -0.13247E+00         0.00000E+00
    0.13117E-01        -0.13432E+00         0.00000E+00
    0.11557E-01        -0.13607E+00         0.00000E+00
    0.97560E-02        -0.13768E+00         0.00000E+00
    0.77006E-02        -0.13910E+00         0.00000E+00
    0.53829E-02        -0.14025E+00         0.00000E+00
    0.28133E-02        -0.14105E+00         0.00000E+00
    0.00000E+00        -0.14134E+00         0.00000E+00
    0.00000E+00         0.22801E-01         0.00000E+00
    0.34993E-02         0.22447E-01         0.00000E+00
    0.65870E-02         0.21514E-01         0.00000E+00
    0.92655E-02         0.20180E-01         0.00000E+00
    0.11558E-01         0.18549E-01         0.00000E+00
    0.13511E-01         0.16685E-01         0.00000E+00
    0.15167E-01         0.14640E-01         0.00000E+00
    0.16566E-01         0.12451E-01         0.00000E+00
    0.17744E-01         0.10150E-01         0.00000E+00
    0.18727E-01         0.77663E-02         0.00000E+00
    0.19542E-01         0.53263E-02         0.00000E+00
    0.20208E-01         0.28551E-02         0.00000E+00
    0.20745E-01         0.37466E-03         0.00000E+00
    0.21169E-01        -0.20964E-02         0.00000E+00
    0.21496E-01        -0.45436E-02         0.00000E+00
    0.21738E-01        -0.69561E-02         0.00000E+00
    0.21909E-01        -0.93266E-02         0.00000E+00
    0.22017E-01        -0.11650E-01         0.00000E+00
    0.22073E-01        -0.13925E-01         0.00000E+00
    0.22083E-01        -0.16148E-01         0.00000E+00
    0.22056E-01        -0.18322E-01         0.00000E+00
    0.21996E-01        -0.20446E-01         0.00000E+00
    0.21909E-01        -0.22521E-01         0.00000E+00
    0.21798E-01        -0.24549E-01         0.00000E+00
    0.21668E-01        -0.26531E-01         0.00000E+00
    0.21521E-01        -0.28470E-01         0.00000E+00
    0.21362E-01        -0.30366E-01         0.00000E+00
    0.21191E-01        -0.32221E-01         0.00000E+00
    0.21013E-01        -0.34038E-01         0.00000E+00
    0.20828E-01        -0.35817E-01         0.00000E+00
    0.20639E-01        -0.37560E-01         0.00000E+00
    0.20447E-01        -0.39269E-01         0.00000E+00
    0.20254E-01        -0.40945E-01         0.00000E+00
    0.20061E-01        -0.42589E-01         0.00000E+00
    0.19870E-01        -0.44203E-01         0.00000E+00
    0.19682E-01        -0.45788E-01         0.00000E+00
    0.19498E-01        -0.47346E-01         0.00000E+00
    0.19319E-01        -0.48878E-01         0.00000E+00
    0.19145E-01        -0.50385E-01         0.00000E+00
    0.18979E-01        -0.51869E-01         0.00000E+00
    0.18820E-01        -0.53332E-01         0.00000E+00
    0.18669E-01        -0.54774E-01         0.00000E+00
    0.18527E-01        -0.56197E-01         0.00000E+00
    0.18394E-01        -0.57603E-01         0.00000E+00
    0.18271E-01        -0.58993E-01         0.00000E+00
    0.18159E-01        -0.60368E-01         0.00000E+00
    0.18057E-01        -0.61730E-01         0.00000E+00
    0.17966E-01        -0.63081E-01         0.00000E+00
    0.17887E-01        -0.64420E-01         0.00000E+00
    0.17819E-01        -0.65752E-01         0.00000E+00
    0.17763E-01        -0.67075E-01         0.00000E+00
    0.17719E-01        -0.68393E-01         0.00000E+00
    0.17688E-01        -0.69706E-01         0.00000E+00
    0.17668E-01        -0.71016E-01         0.00000E+00
    0.17660E-01        -0.72325E-01         0.00000E+00
    0.17665E-01        -0.73633E-01         0.00000E+00
    0.17682E-01        -0.74942E-01         0.00000E+00
    0.17710E-01        -0.76254E-01         0.00000E+00
    0.17751E-01        -0.77570E-01         0.00000E+00
    0.17803E-01        -0.78891E-01         0.00000E+00
    0.17866E-01        -0.80219E-01         0.00000E+00
    0.17940E-01        -0.81556E-01         0.00000E+00
    0.18025E-01        -0.82902E-01         0.00000E+00
    0.18119E-01        -0.84259E-01         0.00000E+00
    0.18223E-01        -0.85629E-01         0.00000E+00
    0.18336E-01        -0.87012E-01         0.00000E+00
    0.18457E-01        -0.88410E-01         0.00000E+00
    0.18584E-01        -0.89824E-01         0.00000E+00
    0.18718E-01        -0.91257E-01         0.00000E+00
    0.18857E-01        -0.92708E-01         0.00000E+00
    0.19000E-01        -0.94179E-01         0.00000E+00
    0.19144E-01        -0.95672E-01         0.00000E+00
    0.19289E-01        -0.97188E-01         0.00000E+00
    0.19433E-01        -0.98727E-01         0.00000E+00
    0.19574E-01        -0.10029E+00         0.00000E+00
    0.19708E-01        -0.10188E+00         0.00000E+00
    0.19834E-01        -0.10350E+00         0.00000E+00
    0.19948E-01        -0.10515E+00         0.00000E+00
    0.20047E-01        -0.10682E+00         0.00000E+00
    0.20127E-01        -0.10853E+00         0.00000E+00
    0.20182E-01        -0.11027E+00         0.00000E+00
    0.20208E-01        -0.11204E+00         0.00000E+00
    0.20198E-01        -0.11385E+00         0.00000E+00
    0.20146E-01        -0.11569E+00         0.00000E+00
    0.20043E-01        -0.11756E+00         0.00000E+00
    0.19880E-01        -0.11946E+00         0.00000E+00
    0.19647E-01        -0.12140E+00         0.00000E+00
    0.19331E-01        -0.12336E+00         0.00000E+00
    0.18919E-01        -0.12535E+00         0.00000E+00
    0.18396E-01        -0.12736E+00         0.00000E+00
    0.17745E-01        -0.12937E+00         0.00000E+00
    0.16947E-01        -0.13139E+00         0.00000E+00
    0.15982E-01        -0.13338E+00         0.00000E+00
    0.14829E-01        -0.13534E+00         0.00000E+00
    0.13468E-01        -0.13722E+00         0.00000E+00
    0.11877E-01        -0.13901E+00         0.00000E+00
    0.10037E-01        -0.14065E+00         0.00000E+00
    0.79310E-02        -0.14209E+00         0.00000E+00
    0.55494E-02        -0.14328E+00         0.00000E+00
    0.28997E-02        -0.14411E+00         0.00000E+00
    0.00000E+00        -0.14442E+00         0.00000E+00
    0.00000E+00         0.23194E-01         0.00000E+00
    0.36204E-02         0.22816E-01         0.00000E+00
    0.68073E-02         0.21852E-01         0.00000E+00
    0.95578E-02         0.20494E-01         0.00000E+00
    0.11907E-01         0.18837E-01         0.00000E+00
    0.13904E-01         0.16945E-01         0.00000E+00
    0.15596E-01         0.14867E-01         0.00000E+00
    0.17024E-01         0.12643E-01         0.00000E+00
    0.18224E-01         0.10305E-01         0.00000E+00
    0.19224E-01         0.78814E-02         0.00000E+00
    0.20049E-01         0.53997E-02         0.00000E+00
    0.20722E-01         0.28851E-02         0.00000E+00
    0.21262E-01         0.36031E-03         0.00000E+00
    0.21685E-01        -0.21560E-02         0.00000E+00
    0.22009E-01        -0.46489E-02         0.00000E+00
    0.22246E-01        -0.71074E-02         0.00000E+00
    0.22409E-01        -0.95239E-02         0.00000E+00
    0.22510E-01        -0.11893E-01         0.00000E+00
    0.22557E-01        -0.14213E-01         0.00000E+00
    0.22559E-01        -0.16483E-01         0.00000E+00
    0.22522E-01        -0.18701E-01         0.00000E+00
    0.22453E-01        -0.20869E-01         0.00000E+00
    0.22357E-01        -0.22988E-01         0.00000E+00
    0.22237E-01        -0.25059E-01         0.00000E+00
    0.22098E-01        -0.27084E-01         0.00000E+00
    0.21944E-01        -0.29064E-01         0.00000E+00
    0.21776E-01        -0.31002E-01         0.00000E+00
    0.21598E-01        -0.32898E-01         0.00000E+00
    0.21412E-01        -0.34754E-01         0.00000E+00
    0.21219E-01        -0.36572E-01         0.00000E+00
    0.21023E-01        -0.38354E-01         0.00000E+00
    0.20824E-01        -0.40100E-01         0.00000E+00
    0.20625E-01        -0.41813E-01         0.00000E+00
    0.20426E-01        -0.43494E-01         0.00000E+00
    0.20229E-01        -0.45144E-01         0.00000E+00
    0.20035E-01        -0.46764E-01         0.00000E+00
    0.19845E-01        -0.48357E-01         0.00000E+00
    0.19661E-01        -0.49923E-01         0.00000E+00
    0.19483E-01        -0.51464E-01         0.00000E+00
    0.19312E-01        -0.52981E-01         0.00000E+00
    0.19148E-01        -0.54477E-01         0.00000E+00
    0.18993E-01        -0.55951E-01         0.00000E+00
    0.18847E-01        -0.57406E-01         0.00000E+00
    0.18711E-01        -0.58844E-01         0.00000E+00
    0.18585E-01        -0.60265E-01         0.00000E+00
    0.18470E-01        -0.61671E-01         0.00000E+00
    0.18365E-01        -0.63063E-01         0.00000E+00
    0.18272E-01        -0.64444E-01         0.00000E+00
    0.18191E-01        -0.65814E-01         0.00000E+00
    0.18122E-01        -0.67175E-01         0.00000E+00
    0.18064E-01        -0.68528E-01         0.00000E+00
    0.18019E-01        -0.69875E-01         0.00000E+00
    0.17987E-01        -0.71218E-01         0.00000E+00
    0.17966E-01        -0.72557E-01         0.00000E+00
    0.17959E-01        -0.73895E-01         0.00000E+00
    0.17963E-01        -0.75233E-01         0.00000E+00
    0.17981E-01        -0.76571E-01         0.00000E+00
    0.18010E-01        -0.77912E-01         0.00000E+00
    0.18051E-01        -0.79258E-01         0.00000E+00
    0.18105E-01        -0.80609E-01         0.00000E+00
    0.18169E-01        -0.81967E-01         0.00000E+00
    0.18245E-01        -0.83333E-01         0.00000E+00
    0.18332E-01        -0.84709E-01         0.00000E+00
    0.18429E-01        -0.86096E-01         0.00000E+00
    0.18536E-01        -0.87496E-01         0.00000E+00
    0.18652E-01        -0.88910E-01         0.00000E+00
    0.18776E-01        -0.90339E-01         0.00000E+00
    0.18907E-01        -0.91785E-01         0.00000E+00
    0.19045E-01        -0.93249E-01         0.00000E+00
    0.19187E-01        -0.94732E-01         0.00000E+00
    0.19334E-01        -0.96235E-01         0.00000E+00
    0.19483E-01        -0.97761E-01         0.00000E+00
    0.19633E-01        -0.99310E-01         0.00000E+00
    0.19782E-01        -0.10088E+00         0.00000E+00
    0.19927E-01        -0.10248E+00         0.00000E+00
    0.20067E-01        -0.10411E+00         0.00000E+00
    0.20199E-01        -0.10576E+00         0.00000E+00
    0.20318E-01        -0.10744E+00         0.00000E+00
    0.20423E-01        -0.10915E+00         0.00000E+00
    0.20508E-01        -0.11090E+00         0.00000E+00
    0.20569E-01        -0.11267E+00         0.00000E+00
    0.20601E-01        -0.11448E+00         0.00000E+00
    0.20597E-01        -0.11632E+00         0.00000E+00
    0.20550E-01        -0.11820E+00         0.00000E+00
    0.20452E-01        -0.12011E+00         0.00000E+00
    0.20294E-01        -0.12205E+00         0.00000E+00
    0.20064E-01        -0.12402E+00         0.00000E+00
    0.19751E-01        -0.12602E+00         0.00000E+00
    0.19340E-01        -0.12805E+00         0.00000E+00
    0.18816E-01        -0.13009E+00         0.00000E+00
    0.18161E-01        -0.13214E+00         0.00000E+00
    0.17356E-01        -0.13419E+00         0.00000E+00
    0.16380E-01        -0.13622E+00         0.00000E+00
    0.15212E-01        -0.13820E+00         0.00000E+00
    0.13828E-01        -0.14012E+00         0.00000E+00
    0.12207E-01        -0.14194E+00         0.00000E+00
    0.10328E-01        -0.14361E+00         0.00000E+00
    0.81728E-02        -0.14508E+00         0.00000E+00
    0.57277E-02        -0.14629E+00         0.00000E+00
    0.29947E-02        -0.14716E+00         0.00000E+00
    0.00000E+00        -0.14749E+00         0.00000E+00
    0.00000E+00         0.23579E-01         0.00000E+00
    0.37515E-02         0.23171E-01         0.00000E+00
    0.70369E-02         0.22181E-01         0.00000E+00
    0.98574E-02         0.20802E-01         0.00000E+00
    0.12263E-01         0.19120E-01         0.00000E+00
    0.14305E-01         0.17201E-01         0.00000E+00
    0.16032E-01         0.15093E-01         0.00000E+00
    0.17488E-01         0.12835E-01         0.00000E+00
    0.18709E-01         0.10460E-01         0.00000E+00
    0.19725E-01         0.79966E-02         0.00000E+00
    0.20562E-01         0.54734E-02         0.00000E+00
    0.21241E-01         0.29158E-02         0.00000E+00
    0.21783E-01         0.34677E-03         0.00000E+00
    0.22205E-01        -0.22146E-02         0.00000E+00
    0.22524E-01        -0.47532E-02         0.00000E+00
    0.22755E-01        -0.72576E-02         0.00000E+00
    0.22911E-01        -0.97201E-02         0.00000E+00
    0.23003E-01        -0.12136E-01         0.00000E+00
    0.23042E-01        -0.14501E-01         0.00000E+00
    0.23034E-01        -0.16816E-01         0.00000E+00
    0.22988E-01        -0.19079E-01         0.00000E+00
    0.22910E-01        -0.21291E-01         0.00000E+00
    0.22804E-01        -0.23454E-01         0.00000E+00
    0.22675E-01        -0.25568E-01         0.00000E+00
    0.22528E-01        -0.27636E-01         0.00000E+00
    0.22364E-01        -0.29658E-01         0.00000E+00
    0.22188E-01        -0.31637E-01         0.00000E+00
    0.22002E-01        -0.33573E-01         0.00000E+00
    0.21808E-01        -0.35469E-01         0.00000E+00
    0.21608E-01        -0.37327E-01         0.00000E+00
    0.21405E-01        -0.39147E-01         0.00000E+00
    0.21199E-01        -0.40931E-01         0.00000E+00
    0.20993E-01        -0.42681E-01         0.00000E+00
    0.20788E-01        -0.44398E-01         0.00000E+00
    0.20585E-01        -0.46084E-01         0.00000E+00
    0.20385E-01        -0.47740E-01         0.00000E+00
    0.20190E-01        -0.49367E-01         0.00000E+00
    0.20000E-01        -0.50968E-01         0.00000E+00
    0.19817E-01        -0.52542E-01         0.00000E+00
    0.19641E-01        -0.54093E-01         0.00000E+00
    0.19473E-01        -0.55621E-01         0.00000E+00
    0.19314E-01        -0.57128E-01         0.00000E+00
    0.19164E-01        -0.58615E-01         0.00000E+00
    0.19025E-01        -0.60084E-01         0.00000E+00
    0.18895E-01        -0.61536E-01         0.00000E+00
    0.18777E-01        -0.62973E-01         0.00000E+00
    0.18670E-01        -0.64396E-01         0.00000E+00
    0.18575E-01        -0.65807E-01         0.00000E+00
    0.18491E-01        -0.67207E-01         0.00000E+00
    0.18420E-01        -0.68598E-01         0.00000E+00
    0.18361E-01        -0.69981E-01         0.00000E+00
    0.18315E-01        -0.71358E-01         0.00000E+00
    0.18282E-01        -0.72730E-01         0.00000E+00
    0.18261E-01        -0.74099E-01         0.00000E+00
    0.18253E-01        -0.75466E-01         0.00000E+00
    0.18258E-01        -0.76832E-01         0.00000E+00
    0.18276E-01        -0.78200E-01         0.00000E+00
    0.18306E-01        -0.79571E-01         0.00000E+00
    0.18348E-01        -0.80946E-01         0.00000E+00
    0.18403E-01        -0.82326E-01         0.00000E+00
    0.18469E-01        -0.83714E-01         0.00000E+00
    0.18547E-01        -0.85110E-01         0.00000E+00
    0.18636E-01        -0.86516E-01         0.00000E+00
    0.18735E-01        -0.87934E-01         0.00000E+00
    0.18845E-01        -0.89364E-01         0.00000E+00
    0.18964E-01        -0.90808E-01         0.00000E+00
    0.19091E-01        -0.92269E-01         0.00000E+00
    0.19226E-01        -0.93746E-01         0.00000E+00
    0.19367E-01        -0.95241E-01         0.00000E+00
    0.19514E-01        -0.96756E-01         0.00000E+00
    0.19665E-01        -0.98292E-01         0.00000E+00
    0.19819E-01        -0.99850E-01         0.00000E+00
    0.19974E-01        -0.10143E+00         0.00000E+00
    0.20127E-01        -0.10304E+00         0.00000E+00
    0.20278E-01        -0.10467E+00         0.00000E+00
    0.20423E-01        -0.10633E+00         0.00000E+00
    0.20560E-01        -0.10802E+00         0.00000E+00
    0.20686E-01        -0.10974E+00         0.00000E+00
    0.20796E-01        -0.11148E+00         0.00000E+00
    0.20887E-01        -0.11326E+00         0.00000E+00
    0.20954E-01        -0.11507E+00         0.00000E+00
    0.20992E-01        -0.11692E+00         0.00000E+00
    0.20994E-01        -0.11880E+00         0.00000E+00
    0.20953E-01        -0.12071E+00         0.00000E+00
    0.20861E-01        -0.12265E+00         0.00000E+00
    0.20707E-01        -0.12463E+00         0.00000E+00
    0.20482E-01        -0.12664E+00         0.00000E+00
    0.20172E-01        -0.12868E+00         0.00000E+00
    0.19763E-01        -0.13074E+00         0.00000E+00
    0.19239E-01        -0.13282E+00         0.00000E+00
    0.18581E-01        -0.13491E+00         0.00000E+00
    0.17771E-01        -0.13699E+00         0.00000E+00
    0.16785E-01        -0.13905E+00         0.00000E+00
    0.15601E-01        -0.14107E+00         0.00000E+00
    0.14197E-01        -0.14302E+00         0.00000E+00
    0.12547E-01        -0.14486E+00         0.00000E+00
    0.10630E-01        -0.14656E+00         0.00000E+00
    0.84264E-02        -0.14807E+00         0.00000E+00
    0.59190E-02        -0.14931E+00         0.00000E+00
    0.31006E-02        -0.15020E+00         0.00000E+00
    0.00000E+00        -0.15057E+00         0.00000E+00
    0.00000E+00         0.23954E-01         0.00000E+00
    0.38946E-02         0.23510E-01         0.00000E+00
    0.72745E-02         0.22501E-01         0.00000E+00
    0.10164E-01         0.21104E-01         0.00000E+00
    0.12625E-01         0.19400E-01         0.00000E+00
    0.14711E-01         0.17455E-01         0.00000E+00
    0.16474E-01         0.15317E-01         0.00000E+00
    0.17958E-01         0.13026E-01         0.00000E+00
    0.19201E-01         0.10614E-01         0.00000E+00
    0.20232E-01         0.81123E-02         0.00000E+00
    0.21080E-01         0.55479E-02         0.00000E+00
    0.21764E-01         0.29475E-02         0.00000E+00
    0.22307E-01         0.33426E-03         0.00000E+00
    0.22728E-01        -0.22721E-02         0.00000E+00
    0.23042E-01        -0.48563E-02         0.00000E+00
    0.23267E-01        -0.74066E-02         0.00000E+00
    0.23415E-01        -0.99151E-02         0.00000E+00
    0.23498E-01        -0.12376E-01         0.00000E+00
    0.23527E-01        -0.14788E-01         0.00000E+00
    0.23510E-01        -0.17148E-01         0.00000E+00
    0.23454E-01        -0.19456E-01         0.00000E+00
    0.23366E-01        -0.21713E-01         0.00000E+00
    0.23250E-01        -0.23919E-01         0.00000E+00
    0.23112E-01        -0.26077E-01         0.00000E+00
    0.22956E-01        -0.28187E-01         0.00000E+00
    0.22783E-01        -0.30251E-01         0.00000E+00
    0.22599E-01        -0.32271E-01         0.00000E+00
    0.22404E-01        -0.34248E-01         0.00000E+00
    0.22202E-01        -0.36184E-01         0.00000E+00
    0.21995E-01        -0.38081E-01         0.00000E+00
    0.21784E-01        -0.39939E-01         0.00000E+00
    0.21571E-01        -0.41761E-01         0.00000E+00
    0.21358E-01        -0.43548E-01         0.00000E+00
    0.21147E-01        -0.45302E-01         0.00000E+00
    0.20937E-01        -0.47024E-01         0.00000E+00
    0.20732E-01        -0.48715E-01         0.00000E+00
    0.20531E-01        -0.50377E-01         0.00000E+00
    0.20336E-01        -0.52012E-01         0.00000E+00
    0.20148E-01        -0.53620E-01         0.00000E+00
    0.19967E-01        -0.55204E-01         0.00000E+00
    0.19795E-01        -0.56765E-01         0.00000E+00
    0.19631E-01        -0.58304E-01         0.00000E+00
    0.19478E-01        -0.59823E-01         0.00000E+00
    0.19334E-01        -0.61324E-01         0.00000E+00
    0.19202E-01        -0.62807E-01         0.00000E+00
    0.19081E-01        -0.64275E-01         0.00000E+00
    0.18971E-01        -0.65729E-01         0.00000E+00
    0.18873E-01        -0.67170E-01         0.00000E+00
    0.18788E-01        -0.68600E-01         0.00000E+00
    0.18715E-01        -0.70021E-01         0.00000E+00
    0.18655E-01        -0.71434E-01         0.00000E+00
    0.18608E-01        -0.72840E-01         0.00000E+00
    0.18573E-01        -0.74242E-01         0.00000E+00
    0.18552E-01        -0.75640E-01         0.00000E+00
    0.18544E-01        -0.77036E-01         0.00000E+00
    0.18549E-01        -0.78432E-01         0.00000E+00
    0.18567E-01        -0.79830E-01         0.00000E+00
    0.18598E-01        -0.81230E-01         0.00000E+00
    0.18641E-01        -0.82634E-01         0.00000E+00
    0.18697E-01        -0.84044E-01         0.00000E+00
    0.18765E-01        -0.85461E-01         0.00000E+00
    0.18845E-01        -0.86887E-01         0.00000E+00
    0.18936E-01        -0.88323E-01         0.00000E+00
    0.19038E-01        -0.89771E-01         0.00000E+00
    0.19150E-01        -0.91232E-01         0.00000E+00
    0.19272E-01        -0.92707E-01         0.00000E+00
    0.19403E-01        -0.94198E-01         0.00000E+00
    0.19541E-01        -0.95707E-01         0.00000E+00
    0.19686E-01        -0.97234E-01         0.00000E+00
    0.19837E-01        -0.98781E-01         0.00000E+00
    0.19993E-01        -0.10035E+00         0.00000E+00
    0.20151E-01        -0.10194E+00         0.00000E+00
    0.20311E-01        -0.10355E+00         0.00000E+00
    0.20470E-01        -0.10519E+00         0.00000E+00
    0.20626E-01        -0.10686E+00         0.00000E+00
    0.20776E-01        -0.10856E+00         0.00000E+00
    0.20919E-01        -0.11028E+00         0.00000E+00
    0.21050E-01        -0.11203E+00         0.00000E+00
    0.21167E-01        -0.11381E+00         0.00000E+00
    0.21264E-01        -0.11563E+00         0.00000E+00
    0.21338E-01        -0.11748E+00         0.00000E+00
    0.21382E-01        -0.11936E+00         0.00000E+00
    0.21390E-01        -0.12127E+00         0.00000E+00
    0.21355E-01        -0.12322E+00         0.00000E+00
    0.21269E-01        -0.12520E+00         0.00000E+00
    0.21121E-01        -0.12722E+00         0.00000E+00
    0.20901E-01        -0.12927E+00         0.00000E+00
    0.20595E-01        -0.13134E+00         0.00000E+00
    0.20188E-01        -0.13344E+00         0.00000E+00
    0.19665E-01        -0.13555E+00         0.00000E+00
    0.19006E-01        -0.13767E+00         0.00000E+00
    0.18190E-01        -0.13979E+00         0.00000E+00
    0.17196E-01        -0.14188E+00         0.00000E+00
    0.15999E-01        -0.14393E+00         0.00000E+00
    0.14575E-01        -0.14591E+00         0.00000E+00
    0.12898E-01        -0.14779E+00         0.00000E+00
    0.10945E-01        -0.14952E+00         0.00000E+00
    0.86928E-02        -0.15105E+00         0.00000E+00
    0.61241E-02        -0.15231E+00         0.00000E+00
    0.32209E-02        -0.15323E+00         0.00000E+00
    0.00000E+00        -0.15364E+00         0.00000E+00
    0.00000E+00         0.24319E-01         0.00000E+00
    0.40524E-02         0.23828E-01         0.00000E+00
    0.75173E-02         0.22814E-01         0.00000E+00
    0.10477E-01         0.21399E-01         0.00000E+00
    0.12993E-01         0.19676E-01         0.00000E+00
    0.15123E-01         0.17706E-01         0.00000E+00
    0.16921E-01         0.15540E-01         0.00000E+00
    0.18433E-01         0.13217E-01         0.00000E+00
    0.19697E-01         0.10769E-01         0.00000E+00
    0.20745E-01         0.82287E-02         0.00000E+00
    0.21602E-01         0.56234E-02         0.00000E+00
    0.22293E-01         0.29802E-02         0.00000E+00
    0.22837E-01         0.32303E-03         0.00000E+00
    0.23254E-01        -0.23283E-02         0.00000E+00
    0.23564E-01        -0.49580E-02         0.00000E+00
    0.23781E-01        -0.75543E-02         0.00000E+00
    0.23920E-01        -0.10109E-01         0.00000E+00
    0.23994E-01        -0.12616E-01         0.00000E+00
    0.24013E-01        -0.15073E-01         0.00000E+00
    0.23985E-01        -0.17478E-01         0.00000E+00
    0.23919E-01        -0.19831E-01         0.00000E+00
    0.23821E-01        -0.22133E-01         0.00000E+00
    0.23696E-01        -0.24383E-01         0.00000E+00
    0.23548E-01        -0.26584E-01         0.00000E+00
    0.23382E-01        -0.28737E-01         0.00000E+00
    0.23201E-01        -0.30843E-01         0.00000E+00
    0.23008E-01        -0.32904E-01         0.00000E+00
    0.22805E-01        -0.34922E-01         0.00000E+00
    0.22595E-01        -0.36898E-01         0.00000E+00
    0.22380E-01        -0.38834E-01         0.00000E+00
    0.22161E-01        -0.40731E-01         0.00000E+00
    0.21941E-01        -0.42591E-01         0.00000E+00
    0.21721E-01        -0.44415E-01         0.00000E+00
    0.21503E-01        -0.46206E-01         0.00000E+00
    0.21287E-01        -0.47963E-01         0.00000E+00
    0.21076E-01        -0.49690E-01         0.00000E+00
    0.20869E-01        -0.51387E-01         0.00000E+00
    0.20669E-01        -0.53056E-01         0.00000E+00
    0.20475E-01        -0.54698E-01         0.00000E+00
    0.20290E-01        -0.56315E-01         0.00000E+00
    0.20113E-01        -0.57909E-01         0.00000E+00
    0.19945E-01        -0.59480E-01         0.00000E+00
    0.19788E-01        -0.61031E-01         0.00000E+00
    0.19641E-01        -0.62563E-01         0.00000E+00
    0.19505E-01        -0.64078E-01         0.00000E+00
    0.19381E-01        -0.65577E-01         0.00000E+00
    0.19268E-01        -0.67061E-01         0.00000E+00
    0.19168E-01        -0.68533E-01         0.00000E+00
    0.19081E-01        -0.69993E-01         0.00000E+00
    0.19006E-01        -0.71444E-01         0.00000E+00
    0.18944E-01        -0.72886E-01         0.00000E+00
    0.18896E-01        -0.74322E-01         0.00000E+00
    0.18861E-01        -0.75753E-01         0.00000E+00
    0.18839E-01        -0.77181E-01         0.00000E+00
    0.18831E-01        -0.78607E-01         0.00000E+00
    0.18836E-01        -0.80032E-01         0.00000E+00
    0.18854E-01        -0.81459E-01         0.00000E+00
    0.18886E-01        -0.82889E-01         0.00000E+00
    0.18930E-01        -0.84322E-01         0.00000E+00
    0.18988E-01        -0.85762E-01         0.00000E+00
    0.19057E-01        -0.87209E-01         0.00000E+00
    0.19139E-01        -0.88665E-01         0.00000E+00
    0.19232E-01        -0.90131E-01         0.00000E+00
    0.19337E-01        -0.91609E-01         0.00000E+00
    0.19452E-01        -0.93100E-01         0.00000E+00
    0.19577E-01        -0.94606E-01         0.00000E+00
    0.19710E-01        -0.96128E-01         0.00000E+00
    0.19853E-01        -0.97668E-01         0.00000E+00
    0.20002E-01        -0.99227E-01         0.00000E+00
    0.20157E-01        -0.10081E+00         0.00000E+00
    0.20317E-01        -0.10241E+00         0.00000E+00
    0.20480E-01        -0.10403E+00         0.00000E+00
    0.20644E-01        -0.10568E+00         0.00000E+00
    0.20808E-01        -0.10735E+00         0.00000E+00
    0.20970E-01        -0.10905E+00         0.00000E+00
    0.21126E-01        -0.11078E+00         0.00000E+00
    0.21275E-01        -0.11254E+00         0.00000E+00
    0.21412E-01        -0.11433E+00         0.00000E+00
    0.21535E-01        -0.11614E+00         0.00000E+00
    0.21639E-01        -0.11799E+00         0.00000E+00
    0.21719E-01        -0.11988E+00         0.00000E+00
    0.21769E-01        -0.12180E+00         0.00000E+00
    0.21784E-01        -0.12375E+00         0.00000E+00
    0.21756E-01        -0.12573E+00         0.00000E+00
    0.21676E-01        -0.12775E+00         0.00000E+00
    0.21535E-01        -0.12981E+00         0.00000E+00
    0.21320E-01        -0.13189E+00         0.00000E+00
    0.21018E-01        -0.13400E+00         0.00000E+00
    0.20616E-01        -0.13613E+00         0.00000E+00
    0.20094E-01        -0.13828E+00         0.00000E+00
    0.19435E-01        -0.14044E+00         0.00000E+00
    0.18616E-01        -0.14259E+00         0.00000E+00
    0.17614E-01        -0.14472E+00         0.00000E+00
    0.16405E-01        -0.14680E+00         0.00000E+00
    0.14962E-01        -0.14881E+00         0.00000E+00
    0.13260E-01        -0.15071E+00         0.00000E+00
    0.11271E-01        -0.15247E+00         0.00000E+00
    0.89730E-02        -0.15402E+00         0.00000E+00
    0.63423E-02        -0.15531E+00         0.00000E+00
    0.33609E-02        -0.15625E+00         0.00000E+00
    0.00000E+00        -0.15670E+00         0.00000E+00
CELL_DATA       5000
VECTORS vDarcy double 
    0.50106E-07        -0.37253E-20         0.00000E+00
    0.50019E-07        -0.39581E-20         0.00000E+00
    0.49851E-07         0.13970E-20         0.00000E+00
    0.49611E-07         0.11642E-20         0.00000E+00
    0.49306E-07        -0.93132E-20         0.00000E+00
    0.48943E-07        -0.12806E-19         0.00000E+00
    0.48529E-07         0.51223E-20         0.00000E+00
    0.48069E-07         0.11642E-20         0.00000E+00
    0.47568E-07         0.18808E-36         0.00000E+00
    0.47033E-07         0.41910E-20         0.00000E+00
    0.46468E-07        -0.41910E-20         0.00000E+00
    0.45877E-07        -0.13970E-19         0.00000E+00
    0.45265E-07        -0.53551E-20         0.00000E+00
    0.44635E-07        -0.13970E-20         0.00000E+00
    0.43991E-07        -0.34925E-20         0.00000E+00
    0.43336E-07        -0.39581E-20         0.00000E+00
    0.42674E-07        -0.60536E-20         0.00000E+00
    0.42007E-07        -0.86147E-20         0.00000E+00
    0.41338E-07        -0.72177E-20         0.00000E+00
    0.40669E-07         0.41910E-20         0.00000E+00
    0.40002E-07         0.00000E+00         0.00000E+00
    0.39340E-07        -0.48894E-20         0.00000E+00
    0.38684E-07         0.79162E-20         0.00000E+00
    0.38036E-07         0.11642E-19         0.00000E+00
    0.37398E-07         0.11642E-20         0.00000E+00
    0.36771E-07        -0.41910E-20         0.00000E+00
    0.36157E-07        -0.16298E-20         0.00000E+00
    0.35556E-07         0.18626E-20         0.00000E+00
    0.34970E-07        -0.44238E-20         0.00000E+00
    0.34400E-07        -0.69849E-21         0.00000E+00
    0.33847E-07         0.13970E-20         0.00000E+00
    0.33311E-07        -0.83819E-20         0.00000E+00
    0.32794E-07        -0.14668E-19         0.00000E+00
    0.32295E-07        -0.88476E-20         0.00000E+00
    0.31817E-07         0.32596E-20         0.00000E+00
    0.31359E-07        -0.90804E-20         0.00000E+00
    0.30921E-07        -0.65193E-20         0.00000E+00
    0.30505E-07         0.41910E-20         0.00000E+00
    0.30110E-07        -0.67521E-20         0.00000E+00
    0.29737E-07         0.69849E-21         0.00000E+00
    0.29387E-07         0.34925E-20         0.00000E+00
    0.29059E-07         0.55879E-20         0.00000E+00
    0.28754E-07         0.55879E-20         0.00000E+00
    0.28472E-07         0.23283E-20         0.00000E+00
    0.28212E-07         0.18626E-20         0.00000E+00
    0.27977E-07        -0.34925E-20         0.00000E+00
    0.27764E-07         0.53551E-20         0.00000E+00
    0.27575E-07        -0.18626E-20         0.00000E+00
    0.27409E-07        -0.32596E-20         0.00000E+00
    0.27267E-07         0.18626E-20         0.00000E+00
    0.27148E-07        -0.53551E-20         0.00000E+00
    0.27053E-07        -0.88476E-20         0.00000E+00
    0.26981E-07        -0.23283E-20         0.00000E+00
    0.26932E-07        -0.44238E-20         0.00000E+00
    0.26907E-07        -0.18626E-20         0.00000E+00
    0.26904E-07         0.83819E-20         0.00000E+00
    0.26925E-07         0.20955E-20         0.00000E+00
    0.26968E-07        -0.30268E-20         0.00000E+00
    0.27034E-07        -0.44238E-20         0.00000E+00
    0.27122E-07        -0.44238E-20         0.00000E+00
    0.27232E-07         0.11642E-20         0.00000E+00
    0.27364E-07        -0.13970E-20         0.00000E+00
    0.27518E-07        -0.23283E-20         0.00000E+00
    0.27693E-07        -0.23283E-20         0.00000E+00
    0.27888E-07        -0.48894E-20         0.00000E+00
    0.28104E-07        -0.25611E-20         0.00000E+00
    0.28340E-07        -0.16298E-20         0.00000E+00
    0.28595E-07         0.46566E-21         0.00000E+00
    0.28869E-07         0.93132E-21         0.00000E+00
    0.29161E-07        -0.16298E-20         0.00000E+00
    0.29471E-07        -0.27940E-20         0.00000E+00
    0.29797E-07        -0.53551E-20         0.00000E+00
    0.30140E-07         0.34925E-20         0.00000E+00
    0.30498E-07         0.93132E-21         0.00000E+00
    0.30870E-07        -0.72177E-20         0.00000E+00
    0.31256E-07        -0.46566E-20         0.00000E+00
    0.31654E-07         0.65193E-20         0.00000E+00
    0.32063E-07         0.46566E-20         0.00000E+00
    0.32482E-07         0.23283E-20         0.00000E+00
    0.32910E-07         0.93132E-21         0.00000E+00
    0.33344E-07         0.20955E-20         0.00000E+00
    0.33784E-07         0.23283E-21         0.00000E+00
    0.34228E-07         0.18626E-20         0.00000E+00
    0.34674E-07        -0.32596E-20         0.00000E+00
    0.35119E-07        -0.18626E-20         0.00000E+00
    0.35562E-07         0.69849E-20         0.00000E+00
    0.36001E-07         0.41910E-20         0.00000E+00
    0.36432E-07         0.23283E-20         0.00000E+00
    0.36853E-07         0.93132E-21         0.00000E+00
    0.37262E-07         0.36089E-20         0.00000E+00
    0.37654E-07         0.43074E-20         0.00000E+00
    0.38028E-07         0.10477E-20         0.00000E+00
    0.38378E-07        -0.61700E-20         0.00000E+00
    0.38702E-07        -0.59372E-20         0.00000E+00
    0.38994E-07        -0.67521E-20         0.00000E+00
    0.39251E-07        -0.20955E-20         0.00000E+00
    0.39467E-07        -0.47730E-20         0.00000E+00
    0.39638E-07        -0.50059E-20         0.00000E+00
    0.39757E-07        -0.50059E-20         0.00000E+00
    0.39820E-07        -0.20955E-20         0.00000E+00
    0.50106E-07         0.37253E-20         0.00000E+00
    0.50019E-07         0.72177E-20         0.00000E+00
    0.49851E-07         0.10710E-19         0.00000E+00
    0.49611E-07         0.11176E-19         0.00000E+00
    0.49306E-07         0.15832E-19         0.00000E+00
    0.48943E-07         0.14668E-19         0.00000E+00
    0.48529E-07         0.18161E-19         0.00000E+00
    0.48069E-07         0.97789E-20         0.00000E+00
    0.47568E-07        -0.69849E-20         0.00000E+00
    0.47033E-07        -0.11409E-19         0.00000E+00
    0.46468E-07        -0.53551E-20         0.00000E+00
    0.45877E-07         0.37253E-20         0.00000E+00
    0.45265E-07         0.37253E-20         0.00000E+00
    0.44635E-07        -0.90804E-20         0.00000E+00
    0.43991E-07        -0.24447E-19         0.00000E+00
    0.43336E-07        -0.18161E-19         0.00000E+00
    0.42674E-07        -0.60536E-20         0.00000E+00
    0.42007E-07        -0.20023E-19         0.00000E+00
    0.41338E-07        -0.12573E-19         0.00000E+00
    0.40669E-07         0.17695E-19         0.00000E+00
    0.40002E-07         0.16298E-19         0.00000E+00
    0.39340E-07        -0.79162E-20         0.00000E+00
    0.38684E-07        -0.93132E-21         0.00000E+00
    0.38036E-07         0.46566E-20         0.00000E+00
    0.37398E-07         0.51223E-20         0.00000E+00
    0.36771E-07         0.16298E-20         0.00000E+00
    0.36157E-07        -0.74506E-20         0.00000E+00
    0.35556E-07        -0.90804E-20         0.00000E+00
    0.34970E-07        -0.27008E-19         0.00000E+00
    0.34400E-07        -0.24680E-19         0.00000E+00
    0.33847E-07        -0.15832E-19         0.00000E+00
    0.33311E-07        -0.74506E-20         0.00000E+00
    0.32794E-07        -0.23283E-20         0.00000E+00
    0.32295E-07        -0.16065E-19         0.00000E+00
    0.31817E-07        -0.20023E-19         0.00000E+00
    0.31359E-07        -0.10710E-19         0.00000E+00
    0.30921E-07        -0.60536E-20         0.00000E+00
    0.30505E-07        -0.34925E-20         0.00000E+00
    0.30110E-07        -0.72177E-20         0.00000E+00
    0.29737E-07         0.53551E-20         0.00000E+00
    0.29387E-07        -0.12806E-19         0.00000E+00
    0.29059E-07        -0.20489E-19         0.00000E+00
    0.28754E-07        -0.58208E-20         0.00000E+00
    0.28472E-07        -0.13504E-19         0.00000E+00
    0.28212E-07        -0.16997E-19         0.00000E+00
    0.27977E-07        -0.30268E-20         0.00000E+00
    0.27764E-07         0.12573E-19         0.00000E+00
    0.27575E-07        -0.18626E-20         0.00000E+00
    0.27409E-07        -0.10477E-19         0.00000E+00
    0.27267E-07        -0.37253E-20         0.00000E+00
    0.27148E-07        -0.97789E-20         0.00000E+00
    0.27053E-07        -0.10710E-19         0.00000E+00
    0.26981E-07        -0.15367E-19         0.00000E+00
    0.26932E-07        -0.17928E-19         0.00000E+00
    0.26907E-07        -0.88476E-20         0.00000E+00
    0.26904E-07        -0.76834E-20         0.00000E+00
    0.26925E-07        -0.46566E-21         0.00000E+00
    0.26968E-07        -0.25611E-20         0.00000E+00
    0.27034E-07        -0.15134E-19         0.00000E+00
    0.27122E-07        -0.79162E-20         0.00000E+00
    0.27232E-07        -0.12340E-19         0.00000E+00
    0.27364E-07        -0.81491E-20         0.00000E+00
    0.27518E-07        -0.65193E-20         0.00000E+00
    0.27693E-07         0.23283E-21         0.00000E+00
    0.27888E-07        -0.13970E-19         0.00000E+00
    0.28104E-07        -0.18626E-19         0.00000E+00
    0.28340E-07        -0.44238E-20         0.00000E+00
    0.28595E-07        -0.46566E-21         0.00000E+00
    0.28869E-07        -0.13039E-19         0.00000E+00
    0.29161E-07        -0.11176E-19         0.00000E+00
    0.29471E-07        -0.11642E-19         0.00000E+00
    0.29797E-07        -0.10245E-19         0.00000E+00
    0.30140E-07        -0.11642E-19         0.00000E+00
    0.30498E-07        -0.16997E-19         0.00000E+00
    0.30870E-07        -0.16997E-19         0.00000E+00
    0.31256E-07        -0.19092E-19         0.00000E+00
    0.31654E-07        -0.65193E-20         0.00000E+00
    0.32063E-07        -0.83819E-20         0.00000E+00
    0.32482E-07        -0.72177E-20         0.00000E+00
    0.32910E-07        -0.11176E-19         0.00000E+00
    0.33344E-07        -0.12573E-19         0.00000E+00
    0.33784E-07        -0.62864E-20         0.00000E+00
    0.34228E-07         0.23283E-20         0.00000E+00
    0.34674E-07         0.65193E-20         0.00000E+00
    0.35119E-07        -0.11642E-20         0.00000E+00
    0.35562E-07        -0.51223E-20         0.00000E+00
    0.36001E-07        -0.51223E-20         0.00000E+00
    0.36432E-07        -0.69849E-20         0.00000E+00
    0.36853E-07        -0.30268E-20         0.00000E+00
    0.37262E-07         0.11758E-19         0.00000E+00
    0.37654E-07         0.12806E-19         0.00000E+00
    0.38028E-07        -0.11642E-21         0.00000E+00
    0.38378E-07        -0.81491E-21         0.00000E+00
    0.38702E-07        -0.68685E-20         0.00000E+00
    0.38994E-07        -0.79162E-20         0.00000E+00
    0.39251E-07        -0.16298E-20         0.00000E+00
    0.39467E-07        -0.30268E-20         0.00000E+00
    0.39638E-07        -0.11642E-21         0.00000E+00
    0.39757E-07         0.80327E-20         0.00000E+00
    0.39820E-07         0.41910E-20         0.00000E+00
    0.50106E-07         0.18626E-20         0.00000E+00
    0.50019E-07         0.72177E-20         0.00000E+00
    0.49851E-07         0.76834E-20         0.00000E+00
    0.49611E-07         0.15832E-19         0.00000E+00
    0.49306E-07         0.23050E-19         0.00000E+00
    0.48943E-07         0.10943E-19         0.00000E+00
    0.48529E-07         0.10012E-19         0.00000E+00
    0.48069E-07         0.18161E-19         0.00000E+00
    0.47568E-07         0.88476E-20         0.00000E+00
    0.47033E-07         0.10710E-19         0.00000E+00
    0.46468E-07         0.67521E-20         0.00000E+00
    0.45877E-07         0.58208E-20         0.00000E+00
    0.45265E-07         0.10012E-19         0.00000E+00
    0.44635E-07         0.97789E-20         0.00000E+00
    0.43991E-07         0.69849E-20         0.00000E+00
    0.43336E-07        -0.23283E-20         0.00000E+00
    0.42674E-07        -0.86147E-20         0.00000E+00
    0.42007E-07        -0.16531E-19         0.00000E+00
    0.41338E-07        -0.62864E-20         0.00000E+00
    0.40669E-07         0.10710E-19         0.00000E+00
    0.40002E-07         0.10477E-19         0.00000E+00
    0.39340E-07         0.37253E-20         0.00000E+00
    0.38684E-07         0.27940E-20         0.00000E+00
    0.38036E-07        -0.44238E-20         0.00000E+00
    0.37398E-07        -0.86147E-20         0.00000E+00
    0.36771E-07         0.00000E+00         0.00000E+00
    0.36157E-07        -0.12340E-19         0.00000E+00
    0.35556E-07        -0.17928E-19         0.00000E+00
    0.34970E-07        -0.88476E-20         0.00000E+00
    0.34400E-07        -0.97789E-20         0.00000E+00
    0.33847E-07        -0.16997E-19         0.00000E+00
    0.33311E-07        -0.11642E-19         0.00000E+00
    0.32794E-07        -0.69849E-20         0.00000E+00
    0.32295E-07        -0.34925E-20         0.00000E+00
    0.31817E-07         0.00000E+00         0.00000E+00
    0.31359E-07        -0.67521E-20         0.00000E+00
    0.30921E-07        -0.67521E-20         0.00000E+00
    0.30505E-07         0.23283E-20         0.00000E+00
    0.30110E-07         0.10245E-19         0.00000E+00
    0.29737E-07         0.12806E-19         0.00000E+00
    0.29387E-07         0.48894E-20         0.00000E+00
    0.29059E-07         0.25611E-20         0.00000E+00
    0.28754E-07        -0.25611E-20         0.00000E+00
    0.28472E-07        -0.15134E-19         0.00000E+00
    0.28212E-07        -0.13271E-19         0.00000E+00
    0.27977E-07         0.41910E-20         0.00000E+00
    0.27764E-07         0.44238E-20         0.00000E+00
    0.27575E-07        -0.72177E-20         0.00000E+00
    0.27409E-07        -0.72177E-20         0.00000E+00
    0.27267E-07        -0.10477E-19         0.00000E+00
    0.27148E-07        -0.72177E-20         0.00000E+00
    0.27053E-07        -0.53551E-20         0.00000E+00
    0.26981E-07        -0.46566E-21         0.00000E+00
    0.26932E-07        -0.27940E-20         0.00000E+00
    0.26907E-07        -0.69849E-21         0.00000E+00
    0.26904E-07         0.25611E-20         0.00000E+00
    0.26925E-07        -0.23283E-21         0.00000E+00
    0.26968E-07        -0.93132E-20         0.00000E+00
    0.27034E-07        -0.11176E-19         0.00000E+00
    0.27122E-07        -0.20955E-20         0.00000E+00
    0.27232E-07        -0.95461E-20         0.00000E+00
    0.27364E-07        -0.14435E-19         0.00000E+00
    0.27518E-07        -0.12107E-19         0.00000E+00
    0.27693E-07        -0.65193E-20         0.00000E+00
    0.27888E-07        -0.16298E-20         0.00000E+00
    0.28104E-07        -0.11642E-20         0.00000E+00
    0.28340E-07        -0.11642E-20         0.00000E+00
    0.28595E-07        -0.48894E-20         0.00000E+00
    0.28869E-07        -0.11409E-19         0.00000E+00
    0.29161E-07        -0.86147E-20         0.00000E+00
    0.29471E-07        -0.23283E-20         0.00000E+00
    0.29797E-07         0.79162E-20         0.00000E+00
    0.30140E-07        -0.88476E-20         0.00000E+00
    0.30498E-07        -0.58208E-20         0.00000E+00
    0.30870E-07         0.55879E-20         0.00000E+00
    0.31256E-07         0.32596E-20         0.00000E+00
    0.31654E-07        -0.86147E-20         0.00000E+00
    0.32063E-07        -0.79162E-20         0.00000E+00
    0.32482E-07        -0.23283E-20         0.00000E+00
    0.32910E-07        -0.93132E-21         0.00000E+00
    0.33344E-07        -0.58208E-20         0.00000E+00
    0.33784E-07        -0.86147E-20         0.00000E+00
    0.34228E-07        -0.27940E-20         0.00000E+00
    0.34674E-07         0.23283E-21         0.00000E+00
    0.35119E-07         0.11642E-20         0.00000E+00
    0.35562E-07         0.81491E-20         0.00000E+00
    0.36001E-07         0.55879E-20         0.00000E+00
    0.36432E-07         0.37253E-20         0.00000E+00
    0.36853E-07         0.17695E-19         0.00000E+00
    0.37262E-07         0.11292E-19         0.00000E+00
    0.37654E-07         0.34925E-20         0.00000E+00
    0.38028E-07         0.54715E-20         0.00000E+00
    0.38378E-07         0.31432E-20         0.00000E+00
    0.38702E-07         0.40745E-20         0.00000E+00
    0.38994E-07        -0.18626E-20         0.00000E+00
    0.39251E-07        -0.13970E-20         0.00000E+00
    0.39467E-07         0.24447E-20         0.00000E+00
    0.39638E-07         0.72177E-20         0.00000E+00
    0.39757E-07         0.10827E-19         0.00000E+00
    0.39820E-07         0.22119E-20         0.00000E+00
    0.50106E-07        -0.88476E-20         0.00000E+00
    0.50019E-07        -0.46566E-20         0.00000E+00
    0.49851E-07         0.69849E-20         0.00000E+00
    0.49611E-07         0.97789E-20         0.00000E+00
    0.49306E-07         0.16764E-19         0.00000E+00
    0.48943E-07         0.21653E-19         0.00000E+00
    0.48529E-07         0.25844E-19         0.00000E+00
    0.48069E-07         0.13504E-19         0.00000E+00
    0.47568E-07        -0.51223E-20         0.00000E+00
    0.47033E-07        -0.81491E-20         0.00000E+00
    0.46468E-07         0.69849E-20         0.00000E+00
    0.45877E-07         0.62864E-20         0.00000E+00
    0.45265E-07        -0.11409E-19         0.00000E+00
    0.44635E-07        -0.65193E-20         0.00000E+00
    0.43991E-07        -0.25611E-20         0.00000E+00
    0.43336E-07         0.46566E-21         0.00000E+00
    0.42674E-07        -0.20722E-19         0.00000E+00
    0.42007E-07        -0.28871E-19         0.00000E+00
    0.41338E-07         0.93132E-21         0.00000E+00
    0.40669E-07         0.81491E-20         0.00000E+00
    0.40002E-07         0.32596E-20         0.00000E+00
    0.39340E-07        -0.37253E-20         0.00000E+00
    0.38684E-07         0.32596E-20         0.00000E+00
    0.38036E-07         0.12573E-19         0.00000E+00
    0.37398E-07         0.41910E-20         0.00000E+00
    0.36771E-07        -0.44238E-20         0.00000E+00
    0.36157E-07        -0.13504E-19         0.00000E+00
    0.35556E-07        -0.16531E-19         0.00000E+00
    0.34970E-07        -0.12107E-19         0.00000E+00
    0.34400E-07        -0.13737E-19         0.00000E+00
    0.33847E-07        -0.16764E-19         0.00000E+00
    0.33311E-07        -0.74506E-20         0.00000E+00
    0.32794E-07         0.93132E-21         0.00000E+00
    0.32295E-07        -0.23283E-20         0.00000E+00
    0.31817E-07        -0.60536E-20         0.00000E+00
    0.31359E-07        -0.74506E-20         0.00000E+00
    0.30921E-07        -0.83819E-20         0.00000E+00
    0.30505E-07         0.13970E-20         0.00000E+00
    0.30110E-07         0.10012E-19         0.00000E+00
    0.29737E-07         0.13970E-20         0.00000E+00
    0.29387E-07         0.18626E-20         0.00000E+00
    0.29059E-07         0.72177E-20         0.00000E+00
    0.28754E-07        -0.25611E-20         0.00000E+00
    0.28472E-07        -0.55879E-20         0.00000E+00
    0.28212E-07        -0.10477E-19         0.00000E+00
    0.27977E-07         0.46566E-21         0.00000E+00
    0.27764E-07         0.13970E-20         0.00000E+00
    0.27575E-07        -0.10245E-19         0.00000E+00
    0.27409E-07        -0.14203E-19         0.00000E+00
    0.27267E-07        -0.12573E-19         0.00000E+00
    0.27148E-07        -0.90804E-20         0.00000E+00
    0.27053E-07        -0.13970E-19         0.00000E+00
    0.26981E-07         0.00000E+00         0.00000E+00
    0.26932E-07        -0.13970E-20         0.00000E+00
    0.26907E-07        -0.11642E-19         0.00000E+00
    0.26904E-07        -0.41910E-20         0.00000E+00
    0.26925E-07        -0.13737E-19         0.00000E+00
    0.26968E-07        -0.14203E-19         0.00000E+00
    0.27034E-07        -0.10477E-19         0.00000E+00
    0.27122E-07        -0.74506E-20         0.00000E+00
    0.27232E-07        -0.12806E-19         0.00000E+00
    0.27364E-07        -0.13970E-19         0.00000E+00
    0.27518E-07        -0.32596E-20         0.00000E+00
    0.27693E-07        -0.10477E-19         0.00000E+00
    0.27888E-07        -0.18161E-19         0.00000E+00
    0.28104E-07        -0.10943E-19         0.00000E+00
    0.28340E-07        -0.41910E-20         0.00000E+00
    0.28595E-07        -0.16065E-19         0.00000E+00
    0.28869E-07        -0.37253E-20         0.00000E+00
    0.29161E-07         0.65193E-20         0.00000E+00
    0.29471E-07         0.79162E-20         0.00000E+00
    0.29797E-07        -0.72177E-20         0.00000E+00
    0.30140E-07        -0.11642E-19         0.00000E+00
    0.30498E-07         0.11642E-20         0.00000E+00
    0.30870E-07        -0.93132E-21         0.00000E+00
    0.31256E-07        -0.27940E-20         0.00000E+00
    0.31654E-07        -0.44238E-20         0.00000E+00
    0.32063E-07        -0.55879E-20         0.00000E+00
    0.32482E-07         0.39581E-20         0.00000E+00
    0.32910E-07         0.37253E-20         0.00000E+00
    0.33344E-07        -0.13039E-19         0.00000E+00
    0.33784E-07        -0.20955E-20         0.00000E+00
    0.34228E-07         0.17229E-19         0.00000E+00
    0.34674E-07         0.10477E-19         0.00000E+00
    0.35119E-07        -0.20955E-20         0.00000E+00
    0.35562E-07         0.23283E-21         0.00000E+00
    0.36001E-07         0.23283E-20         0.00000E+00
    0.36432E-07         0.83819E-20         0.00000E+00
    0.36853E-07         0.90804E-20         0.00000E+00
    0.37262E-07         0.59372E-20         0.00000E+00
    0.37654E-07         0.67521E-20         0.00000E+00
    0.38028E-07         0.43074E-20         0.00000E+00
    0.38378E-07         0.17579E-19         0.00000E+00
    0.38702E-07         0.14668E-19         0.00000E+00
    0.38994E-07         0.32596E-20         0.00000E+00
    0.39251E-07         0.25611E-20         0.00000E+00
    0.39467E-07        -0.17462E-20         0.00000E+00
    0.39638E-07        -0.19791E-20         0.00000E+00
    0.39757E-07         0.24447E-20         0.00000E+00
    0.39820E-07         0.17462E-20         0.00000E+00
    0.50106E-07         0.18859E-19         0.00000E+00
    0.50019E-07         0.17229E-19         0.00000E+00
    0.49851E-07         0.28405E-19         0.00000E+00
    0.49611E-07         0.22119E-19         0.00000E+00
    0.49306E-07         0.65193E-20         0.00000E+00
    0.48943E-07         0.34226E-19         0.00000E+00
    0.48529E-07         0.28871E-19         0.00000E+00
    0.48069E-07         0.25611E-19         0.00000E+00
    0.47568E-07         0.26776E-19         0.00000E+00
    0.47033E-07         0.65193E-20         0.00000E+00
    0.46468E-07        -0.37253E-20         0.00000E+00
    0.45877E-07         0.32596E-20         0.00000E+00
    0.45265E-07         0.13737E-19         0.00000E+00
    0.44635E-07         0.88476E-20         0.00000E+00
    0.43991E-07        -0.30268E-20         0.00000E+00
    0.43336E-07        -0.65193E-20         0.00000E+00
    0.42674E-07        -0.22352E-19         0.00000E+00
    0.42007E-07        -0.20256E-19         0.00000E+00
    0.41338E-07         0.11642E-20         0.00000E+00
    0.40669E-07        -0.69849E-20         0.00000E+00
    0.40002E-07        -0.79162E-20         0.00000E+00
    0.39340E-07        -0.32596E-20         0.00000E+00
    0.38684E-07        -0.13504E-19         0.00000E+00
    0.38036E-07        -0.62864E-20         0.00000E+00
    0.37398E-07         0.23283E-20         0.00000E+00
    0.36771E-07        -0.46566E-21         0.00000E+00
    0.36157E-07        -0.86147E-20         0.00000E+00
    0.35556E-07        -0.11874E-19         0.00000E+00
    0.34970E-07        -0.86147E-20         0.00000E+00
    0.34400E-07        -0.15600E-19         0.00000E+00
    0.33847E-07        -0.19791E-19         0.00000E+00
    0.33311E-07        -0.11409E-19         0.00000E+00
    0.32794E-07        -0.62864E-20         0.00000E+00
    0.32295E-07         0.93132E-21         0.00000E+00
    0.31817E-07         0.00000E+00         0.00000E+00
    0.31359E-07         0.23283E-21         0.00000E+00
    0.30921E-07         0.41910E-20         0.00000E+00
    0.30505E-07        -0.32596E-20         0.00000E+00
    0.30110E-07         0.27940E-20         0.00000E+00
    0.29737E-07         0.12806E-19         0.00000E+00
    0.29387E-07        -0.13970E-20         0.00000E+00
    0.29059E-07        -0.58208E-20         0.00000E+00
    0.28754E-07         0.16298E-20         0.00000E+00
    0.28472E-07        -0.60536E-20         0.00000E+00
    0.28212E-07        -0.74506E-20         0.00000E+00
    0.27977E-07        -0.46566E-20         0.00000E+00
    0.27764E-07         0.18626E-20         0.00000E+00
    0.27575E-07         0.15367E-19         0.00000E+00
    0.27409E-07         0.79162E-20         0.00000E+00
    0.27267E-07         0.25611E-20         0.00000E+00
    0.27148E-07         0.23283E-21         0.00000E+00
    0.27053E-07         0.34925E-20         0.00000E+00
    0.26981E-07         0.18626E-20         0.00000E+00
    0.26932E-07        -0.23283E-21         0.00000E+00
    0.26907E-07         0.44238E-20         0.00000E+00
    0.26904E-07        -0.34925E-20         0.00000E+00
    0.26925E-07        -0.16997E-19         0.00000E+00
    0.26968E-07        -0.22817E-19         0.00000E+00
    0.27034E-07        -0.18161E-19         0.00000E+00
    0.27122E-07        -0.20023E-19         0.00000E+00
    0.27232E-07        -0.76834E-20         0.00000E+00
    0.27364E-07        -0.90804E-20         0.00000E+00
    0.27518E-07        -0.15832E-19         0.00000E+00
    0.27693E-07        -0.13970E-20         0.00000E+00
    0.27888E-07        -0.10477E-19         0.00000E+00
    0.28104E-07        -0.58208E-20         0.00000E+00
    0.28340E-07        -0.81491E-20         0.00000E+00
    0.28595E-07        -0.14668E-19         0.00000E+00
    0.28869E-07        -0.14901E-19         0.00000E+00
    0.29161E-07        -0.46566E-20         0.00000E+00
    0.29471E-07         0.97789E-20         0.00000E+00
    0.29797E-07        -0.37253E-20         0.00000E+00
    0.30140E-07        -0.60536E-20         0.00000E+00
    0.30498E-07         0.25611E-20         0.00000E+00
    0.30870E-07         0.23283E-20         0.00000E+00
    0.31256E-07         0.46566E-21         0.00000E+00
    0.31654E-07         0.79162E-20         0.00000E+00
    0.32063E-07         0.67521E-20         0.00000E+00
    0.32482E-07        -0.37253E-20         0.00000E+00
    0.32910E-07         0.23283E-21         0.00000E+00
    0.33344E-07         0.37253E-20         0.00000E+00
    0.33784E-07         0.23283E-20         0.00000E+00
    0.34228E-07         0.69849E-20         0.00000E+00
    0.34674E-07         0.69849E-20         0.00000E+00
    0.35119E-07         0.11874E-19         0.00000E+00
    0.35562E-07         0.65193E-20         0.00000E+00
    0.36001E-07        -0.10245E-19         0.00000E+00
    0.36432E-07         0.30268E-20         0.00000E+00
    0.36853E-07         0.36089E-20         0.00000E+00
    0.37262E-07        -0.20955E-20         0.00000E+00
    0.37654E-07         0.46566E-21         0.00000E+00
    0.38028E-07         0.77998E-20         0.00000E+00
    0.38378E-07         0.20955E-20         0.00000E+00
    0.38702E-07         0.62864E-20         0.00000E+00
    0.38994E-07         0.14319E-19         0.00000E+00
    0.39251E-07         0.55879E-20         0.00000E+00
    0.39467E-07         0.69849E-20         0.00000E+00
    0.39638E-07         0.65193E-20         0.00000E+00
    0.39757E-07         0.22119E-20         0.00000E+00
    0.39820E-07         0.69849E-21         0.00000E+00
    0.50106E-07         0.17229E-19         0.00000E+00
    0.50019E-07         0.38883E-19         0.00000E+00
    0.49851E-07         0.33993E-19         0.00000E+00
    0.49611E-07         0.14901E-19         0.00000E+00
    0.49306E-07         0.13039E-19         0.00000E+00
    0.48943E-07         0.39348E-19         0.00000E+00
    0.48529E-07         0.55647E-19         0.00000E+00
    0.48069E-07         0.50291E-19         0.00000E+00
    0.47568E-07         0.37253E-19         0.00000E+00
    0.47033E-07         0.11642E-19         0.00000E+00
    0.46468E-07         0.58208E-20         0.00000E+00
    0.45877E-07         0.11642E-20         0.00000E+00
    0.45265E-07         0.55879E-20         0.00000E+00
    0.44635E-07         0.21886E-19         0.00000E+00
    0.43991E-07         0.13737E-19         0.00000E+00
    0.43336E-07        -0.27940E-20         0.00000E+00
    0.42674E-07        -0.13504E-19         0.00000E+00
    0.42007E-07        -0.69849E-21         0.00000E+00
    0.41338E-07        -0.46566E-21         0.00000E+00
    0.40669E-07        -0.41910E-20         0.00000E+00
    0.40002E-07         0.93132E-20         0.00000E+00
    0.39340E-07        -0.11642E-20         0.00000E+00
    0.38684E-07        -0.12107E-19         0.00000E+00
    0.38036E-07        -0.30268E-20         0.00000E+00
    0.37398E-07        -0.20955E-20         0.00000E+00
    0.36771E-07         0.93132E-21         0.00000E+00
    0.36157E-07         0.79162E-20         0.00000E+00
    0.35556E-07         0.20955E-20         0.00000E+00
    0.34970E-07        -0.25611E-20         0.00000E+00
    0.34400E-07        -0.12573E-19         0.00000E+00
    0.33847E-07        -0.67521E-20         0.00000E+00
    0.33311E-07        -0.20955E-20         0.00000E+00
    0.32794E-07        -0.13970E-20         0.00000E+00
    0.32295E-07         0.69849E-20         0.00000E+00
    0.31817E-07         0.23283E-20         0.00000E+00
    0.31359E-07         0.79162E-20         0.00000E+00
    0.30921E-07         0.79162E-20         0.00000E+00
    0.30505E-07         0.30268E-20         0.00000E+00
    0.30110E-07         0.48894E-20         0.00000E+00
    0.29737E-07         0.46566E-20         0.00000E+00
    0.29387E-07        -0.58208E-20         0.00000E+00
    0.29059E-07        -0.58208E-20         0.00000E+00
    0.28754E-07         0.27940E-20         0.00000E+00
    0.28472E-07        -0.60536E-20         0.00000E+00
    0.28212E-07         0.30268E-20         0.00000E+00
    0.27977E-07         0.21653E-19         0.00000E+00
    0.27764E-07         0.15600E-19         0.00000E+00
    0.27575E-07         0.15367E-19         0.00000E+00
    0.27409E-07         0.88476E-20         0.00000E+00
    0.27267E-07         0.37253E-20         0.00000E+00
    0.27148E-07         0.10943E-19         0.00000E+00
    0.27053E-07         0.93132E-21         0.00000E+00
    0.26981E-07         0.69849E-20         0.00000E+00
    0.26932E-07         0.17462E-19         0.00000E+00
    0.26907E-07         0.12340E-19         0.00000E+00
    0.26904E-07        -0.93132E-21         0.00000E+00
    0.26925E-07        -0.13970E-20         0.00000E+00
    0.26968E-07        -0.48894E-20         0.00000E+00
    0.27034E-07        -0.83819E-20         0.00000E+00
    0.27122E-07        -0.10943E-19         0.00000E+00
    0.27232E-07        -0.14668E-19         0.00000E+00
    0.27364E-07        -0.51223E-20         0.00000E+00
    0.27518E-07         0.46566E-20         0.00000E+00
    0.27693E-07         0.62864E-20         0.00000E+00
    0.27888E-07        -0.44238E-20         0.00000E+00
    0.28104E-07        -0.30268E-20         0.00000E+00
    0.28340E-07         0.44238E-20         0.00000E+00
    0.28595E-07         0.11176E-19         0.00000E+00
    0.28869E-07         0.12573E-19         0.00000E+00
    0.29161E-07         0.12107E-19         0.00000E+00
    0.29471E-07         0.32596E-20         0.00000E+00
    0.29797E-07         0.76834E-20         0.00000E+00
    0.30140E-07         0.79162E-20         0.00000E+00
    0.30498E-07         0.95461E-20         0.00000E+00
    0.30870E-07         0.16997E-19         0.00000E+00
    0.31256E-07         0.20489E-19         0.00000E+00
    0.31654E-07         0.13737E-19         0.00000E+00
    0.32063E-07         0.11642E-19         0.00000E+00
    0.32482E-07         0.14901E-19         0.00000E+00
    0.32910E-07         0.58208E-20         0.00000E+00
    0.33344E-07         0.13504E-19         0.00000E+00
    0.33784E-07         0.62864E-20         0.00000E+00
    0.34228E-07         0.11409E-19         0.00000E+00
    0.34674E-07         0.28405E-19         0.00000E+00
    0.35119E-07         0.24214E-19         0.00000E+00
    0.35562E-07         0.37253E-20         0.00000E+00
    0.36001E-07        -0.13970E-20         0.00000E+00
    0.36432E-07         0.10245E-19         0.00000E+00
    0.36853E-07         0.77998E-20         0.00000E+00
    0.37262E-07         0.18626E-20         0.00000E+00
    0.37654E-07         0.24447E-20         0.00000E+00
    0.38028E-07         0.34925E-20         0.00000E+00
    0.38378E-07         0.94296E-20         0.00000E+00
    0.38702E-07         0.14319E-19         0.00000E+00
    0.38994E-07         0.15716E-19         0.00000E+00
    0.39251E-07         0.12573E-19         0.00000E+00
    0.39467E-07         0.15250E-19         0.00000E+00
    0.39638E-07         0.12689E-19         0.00000E+00
    0.39757E-07         0.75670E-20         0.00000E+00
    0.39820E-07         0.58208E-21         0.00000E+00
    0.50106E-07         0.00000E+00         0.00000E+00
    0.50019E-07         0.18161E-19         0.00000E+00
    0.49851E-07         0.30734E-19         0.00000E+00
    0.49611E-07         0.24214E-19         0.00000E+00
    0.49306E-07         0.22352E-19         0.00000E+00
    0.48943E-07         0.23283E-19         0.00000E+00
    0.48529E-07         0.21420E-19         0.00000E+00
    0.48069E-07         0.29802E-19         0.00000E+00
    0.47568E-07         0.32131E-19         0.00000E+00
    0.47033E-07         0.11642E-19         0.00000E+00
    0.46468E-07         0.39581E-20         0.00000E+00
    0.45877E-07         0.95461E-20         0.00000E+00
    0.45265E-07         0.15600E-19         0.00000E+00
    0.44635E-07        -0.69849E-20         0.00000E+00
    0.43991E-07        -0.65193E-20         0.00000E+00
    0.43336E-07         0.10477E-19         0.00000E+00
    0.42674E-07         0.46566E-20         0.00000E+00
    0.42007E-07         0.18626E-20         0.00000E+00
    0.41338E-07        -0.18626E-20         0.00000E+00
    0.40669E-07        -0.18626E-20         0.00000E+00
    0.40002E-07         0.93132E-20         0.00000E+00
    0.39340E-07         0.97789E-20         0.00000E+00
    0.38684E-07        -0.65193E-20         0.00000E+00
    0.38036E-07         0.79162E-20         0.00000E+00
    0.37398E-07         0.11409E-19         0.00000E+00
    0.36771E-07         0.27940E-20         0.00000E+00
    0.36157E-07         0.83819E-20         0.00000E+00
    0.35556E-07         0.11874E-19         0.00000E+00
    0.34970E-07        -0.32596E-20         0.00000E+00
    0.34400E-07        -0.34925E-20         0.00000E+00
    0.33847E-07        -0.48894E-20         0.00000E+00
    0.33311E-07         0.23283E-20         0.00000E+00
    0.32794E-07         0.12806E-19         0.00000E+00
    0.32295E-07         0.60536E-20         0.00000E+00
    0.31817E-07         0.12573E-19         0.00000E+00
    0.31359E-07         0.10477E-19         0.00000E+00
    0.30921E-07         0.13271E-19         0.00000E+00
    0.30505E-07         0.60536E-20         0.00000E+00
    0.30110E-07        -0.93132E-20         0.00000E+00
    0.29737E-07         0.20955E-20         0.00000E+00
    0.29387E-07         0.12107E-19         0.00000E+00
    0.29059E-07         0.10012E-19         0.00000E+00
    0.28754E-07         0.97789E-20         0.00000E+00
    0.28472E-07         0.39581E-20         0.00000E+00
    0.28212E-07         0.62864E-20         0.00000E+00
    0.27977E-07         0.14435E-19         0.00000E+00
    0.27764E-07         0.11409E-19         0.00000E+00
    0.27575E-07         0.37253E-20         0.00000E+00
    0.27409E-07         0.10943E-19         0.00000E+00
    0.27267E-07         0.48894E-20         0.00000E+00
    0.27148E-07        -0.34925E-20         0.00000E+00
    0.27053E-07         0.69849E-20         0.00000E+00
    0.26981E-07         0.41910E-20         0.00000E+00
    0.26932E-07         0.13504E-19         0.00000E+00
    0.26907E-07         0.13039E-19         0.00000E+00
    0.26904E-07        -0.10710E-19         0.00000E+00
    0.26925E-07        -0.37616E-36         0.00000E+00
    0.26968E-07         0.10710E-19         0.00000E+00
    0.27034E-07         0.76834E-20         0.00000E+00
    0.27122E-07        -0.34925E-20         0.00000E+00
    0.27232E-07         0.00000E+00         0.00000E+00
    0.27364E-07         0.55879E-20         0.00000E+00
    0.27518E-07         0.13970E-20         0.00000E+00
    0.27693E-07        -0.93132E-21         0.00000E+00
    0.27888E-07        -0.18859E-19         0.00000E+00
    0.28104E-07        -0.46566E-20         0.00000E+00
    0.28340E-07         0.30268E-20         0.00000E+00
    0.28595E-07        -0.11642E-20         0.00000E+00
    0.28869E-07         0.79162E-20         0.00000E+00
    0.29161E-07         0.28871E-19         0.00000E+00
    0.29471E-07         0.16298E-19         0.00000E+00
    0.29797E-07         0.18626E-20         0.00000E+00
    0.30140E-07         0.79162E-20         0.00000E+00
    0.30498E-07         0.72177E-20         0.00000E+00
    0.30870E-07         0.18859E-19         0.00000E+00
    0.31256E-07         0.51223E-20         0.00000E+00
    0.31654E-07         0.20955E-20         0.00000E+00
    0.32063E-07         0.17229E-19         0.00000E+00
    0.32482E-07         0.13504E-19         0.00000E+00
    0.32910E-07         0.13271E-19         0.00000E+00
    0.33344E-07         0.10012E-19         0.00000E+00
    0.33784E-07         0.62864E-20         0.00000E+00
    0.34228E-07         0.18626E-19         0.00000E+00
    0.34674E-07         0.28871E-19         0.00000E+00
    0.35119E-07         0.27707E-19         0.00000E+00
    0.35562E-07         0.12573E-19         0.00000E+00
    0.36001E-07         0.41910E-20         0.00000E+00
    0.36432E-07         0.11642E-20         0.00000E+00
    0.36853E-07        -0.27940E-20         0.00000E+00
    0.37262E-07         0.89640E-20         0.00000E+00
    0.37654E-07         0.81491E-20         0.00000E+00
    0.38028E-07         0.18626E-20         0.00000E+00
    0.38378E-07         0.81491E-21         0.00000E+00
    0.38702E-07         0.88476E-20         0.00000E+00
    0.38994E-07         0.13388E-19         0.00000E+00
    0.39251E-07         0.20023E-19         0.00000E+00
    0.39467E-07         0.19209E-19         0.00000E+00
    0.39638E-07         0.15600E-19         0.00000E+00
    0.39757E-07         0.50059E-20         0.00000E+00
    0.39820E-07        -0.25611E-20         0.00000E+00
    0.50106E-07         0.18161E-19         0.00000E+00
    0.50019E-07         0.36089E-19         0.00000E+00
    0.49851E-07         0.30268E-19         0.00000E+00
    0.49611E-07         0.17229E-19         0.00000E+00
    0.49306E-07         0.27474E-19         0.00000E+00
    0.48943E-07         0.19791E-19         0.00000E+00
    0.48529E-07         0.10012E-19         0.00000E+00
    0.48069E-07         0.20023E-19         0.00000E+00
    0.47568E-07         0.93132E-20         0.00000E+00
    0.47033E-07         0.95461E-20         0.00000E+00
    0.46468E-07         0.17928E-19         0.00000E+00
    0.45877E-07         0.22352E-19         0.00000E+00
    0.45265E-07         0.16997E-19         0.00000E+00
    0.44635E-07         0.25611E-20         0.00000E+00
    0.43991E-07         0.95461E-20         0.00000E+00
    0.43336E-07         0.86147E-20         0.00000E+00
    0.42674E-07         0.74506E-20         0.00000E+00
    0.42007E-07         0.00000E+00         0.00000E+00
    0.41338E-07        -0.10245E-19         0.00000E+00
    0.40669E-07         0.18626E-20         0.00000E+00
    0.40002E-07         0.79162E-20         0.00000E+00
    0.39340E-07         0.86147E-20         0.00000E+00
    0.38684E-07         0.12107E-19         0.00000E+00
    0.38036E-07         0.12340E-19         0.00000E+00
    0.37398E-07         0.23283E-20         0.00000E+00
    0.36771E-07         0.23283E-20         0.00000E+00
    0.36157E-07         0.25611E-20         0.00000E+00
    0.35556E-07         0.81491E-20         0.00000E+00
    0.34970E-07         0.10477E-19         0.00000E+00
    0.34400E-07        -0.90804E-20         0.00000E+00
    0.33847E-07        -0.17695E-19         0.00000E+00
    0.33311E-07         0.97789E-20         0.00000E+00
    0.32794E-07         0.53551E-20         0.00000E+00
    0.32295E-07        -0.12573E-19         0.00000E+00
    0.31817E-07        -0.13970E-20         0.00000E+00
    0.31359E-07         0.14668E-19         0.00000E+00
    0.30921E-07         0.11642E-20         0.00000E+00
    0.30505E-07        -0.79162E-20         0.00000E+00
    0.30110E-07        -0.58208E-20         0.00000E+00
    0.29737E-07        -0.23283E-20         0.00000E+00
    0.29387E-07         0.10943E-19         0.00000E+00
    0.29059E-07         0.30268E-20         0.00000E+00
    0.28754E-07         0.74506E-20         0.00000E+00
    0.28472E-07         0.23283E-20         0.00000E+00
    0.28212E-07        -0.97789E-20         0.00000E+00
    0.27977E-07         0.41910E-20         0.00000E+00
    0.27764E-07         0.62864E-20         0.00000E+00
    0.27575E-07         0.11642E-20         0.00000E+00
    0.27409E-07        -0.83819E-20         0.00000E+00
    0.27267E-07         0.95461E-20         0.00000E+00
    0.27148E-07         0.15134E-19         0.00000E+00
    0.27053E-07         0.12107E-19         0.00000E+00
    0.26981E-07         0.55879E-20         0.00000E+00
    0.26932E-07         0.32596E-20         0.00000E+00
    0.26907E-07         0.74506E-20         0.00000E+00
    0.26904E-07         0.69849E-20         0.00000E+00
    0.26925E-07         0.14203E-19         0.00000E+00
    0.26968E-07         0.46566E-20         0.00000E+00
    0.27034E-07        -0.11176E-19         0.00000E+00
    0.27122E-07        -0.18626E-20         0.00000E+00
    0.27232E-07        -0.81491E-20         0.00000E+00
    0.27364E-07        -0.16764E-19         0.00000E+00
    0.27518E-07         0.13970E-20         0.00000E+00
    0.27693E-07         0.53551E-20         0.00000E+00
    0.27888E-07        -0.11642E-19         0.00000E+00
    0.28104E-07        -0.16764E-19         0.00000E+00
    0.28340E-07        -0.39581E-20         0.00000E+00
    0.28595E-07         0.39581E-20         0.00000E+00
    0.28869E-07         0.12573E-19         0.00000E+00
    0.29161E-07         0.58208E-20         0.00000E+00
    0.29471E-07        -0.93132E-21         0.00000E+00
    0.29797E-07         0.86147E-20         0.00000E+00
    0.30140E-07         0.22352E-19         0.00000E+00
    0.30498E-07         0.19791E-19         0.00000E+00
    0.30870E-07         0.15134E-19         0.00000E+00
    0.31256E-07         0.19558E-19         0.00000E+00
    0.31654E-07         0.18859E-19         0.00000E+00
    0.32063E-07         0.26543E-19         0.00000E+00
    0.32482E-07         0.21886E-19         0.00000E+00
    0.32910E-07         0.12107E-19         0.00000E+00
    0.33344E-07         0.69849E-20         0.00000E+00
    0.33784E-07         0.10477E-19         0.00000E+00
    0.34228E-07         0.12340E-19         0.00000E+00
    0.34674E-07         0.18626E-19         0.00000E+00
    0.35119E-07         0.27940E-19         0.00000E+00
    0.35562E-07         0.23283E-19         0.00000E+00
    0.36001E-07         0.22817E-19         0.00000E+00
    0.36432E-07         0.25146E-19         0.00000E+00
    0.36853E-07         0.94296E-20         0.00000E+00
    0.37262E-07         0.68685E-20         0.00000E+00
    0.37654E-07         0.10710E-19         0.00000E+00
    0.38028E-07         0.12456E-19         0.00000E+00
    0.38378E-07         0.25961E-19         0.00000E+00
    0.38702E-07         0.19791E-19         0.00000E+00
    0.38994E-07         0.16065E-19         0.00000E+00
    0.39251E-07         0.17462E-19         0.00000E+00
    0.39467E-07         0.18277E-19         0.00000E+00
    0.39638E-07         0.94296E-20         0.00000E+00
    0.39757E-07        -0.15134E-20         0.00000E+00
    0.39820E-07        -0.10477E-20         0.00000E+00
    0.50106E-07         0.97789E-20         0.00000E+00
    0.50019E-07         0.11409E-19         0.00000E+00
    0.49851E-07         0.14901E-19         0.00000E+00
    0.49611E-07         0.31199E-19         0.00000E+00
    0.49306E-07         0.19558E-19         0.00000E+00
    0.48943E-07         0.14668E-19         0.00000E+00
    0.48529E-07         0.29337E-19         0.00000E+00
    0.48069E-07         0.11642E-19         0.00000E+00
    0.47568E-07        -0.25611E-20         0.00000E+00
    0.47033E-07         0.72177E-20         0.00000E+00
    0.46468E-07        -0.44238E-20         0.00000E+00
    0.45877E-07        -0.97789E-20         0.00000E+00
    0.45265E-07        -0.12107E-19         0.00000E+00
    0.44635E-07         0.93132E-21         0.00000E+00
    0.43991E-07        -0.76834E-20         0.00000E+00
    0.43336E-07        -0.15367E-19         0.00000E+00
    0.42674E-07         0.32596E-20         0.00000E+00
    0.42007E-07        -0.74506E-20         0.00000E+00
    0.41338E-07        -0.11642E-20         0.00000E+00
    0.40669E-07         0.13039E-19         0.00000E+00
    0.40002E-07         0.15832E-19         0.00000E+00
    0.39340E-07        -0.27940E-20         0.00000E+00
    0.38684E-07         0.32596E-20         0.00000E+00
    0.38036E-07         0.23516E-19         0.00000E+00
    0.37398E-07         0.17229E-19         0.00000E+00
    0.36771E-07         0.27940E-20         0.00000E+00
    0.36157E-07        -0.11642E-20         0.00000E+00
    0.35556E-07        -0.25611E-20         0.00000E+00
    0.34970E-07        -0.46566E-21         0.00000E+00
    0.34400E-07        -0.69849E-21         0.00000E+00
    0.33847E-07         0.93132E-21         0.00000E+00
    0.33311E-07         0.13970E-20         0.00000E+00
    0.32794E-07         0.25611E-20         0.00000E+00
    0.32295E-07        -0.39581E-20         0.00000E+00
    0.31817E-07         0.88476E-20         0.00000E+00
    0.31359E-07         0.20023E-19         0.00000E+00
    0.30921E-07         0.13504E-19         0.00000E+00
    0.30505E-07         0.12573E-19         0.00000E+00
    0.30110E-07         0.11176E-19         0.00000E+00
    0.29737E-07         0.62864E-20         0.00000E+00
    0.29387E-07         0.11409E-19         0.00000E+00
    0.29059E-07         0.29802E-19         0.00000E+00
    0.28754E-07         0.20955E-19         0.00000E+00
    0.28472E-07         0.46566E-21         0.00000E+00
    0.28212E-07         0.23283E-21         0.00000E+00
    0.27977E-07        -0.11409E-19         0.00000E+00
    0.27764E-07        -0.69849E-20         0.00000E+00
    0.27575E-07         0.23516E-19         0.00000E+00
    0.27409E-07         0.19092E-19         0.00000E+00
    0.27267E-07         0.81491E-20         0.00000E+00
    0.27148E-07         0.93132E-20         0.00000E+00
    0.27053E-07         0.41910E-20         0.00000E+00
    0.26981E-07         0.13970E-19         0.00000E+00
    0.26932E-07         0.19558E-19         0.00000E+00
    0.26907E-07        -0.37253E-20         0.00000E+00
    0.26904E-07         0.10710E-19         0.00000E+00
    0.26925E-07         0.10943E-19         0.00000E+00
    0.26968E-07        -0.30268E-20         0.00000E+00
    0.27034E-07        -0.81491E-20         0.00000E+00
    0.27122E-07        -0.15832E-19         0.00000E+00
    0.27232E-07        -0.10012E-19         0.00000E+00
    0.27364E-07         0.13970E-20         0.00000E+00
    0.27518E-07        -0.83819E-20         0.00000E+00
    0.27693E-07        -0.10477E-19         0.00000E+00
    0.27888E-07         0.44238E-20         0.00000E+00
    0.28104E-07        -0.69849E-21         0.00000E+00
    0.28340E-07        -0.69849E-21         0.00000E+00
    0.28595E-07         0.21886E-19         0.00000E+00
    0.28869E-07         0.20023E-19         0.00000E+00
    0.29161E-07        -0.11642E-20         0.00000E+00
    0.29471E-07         0.13970E-20         0.00000E+00
    0.29797E-07         0.11874E-19         0.00000E+00
    0.30140E-07         0.65193E-20         0.00000E+00
    0.30498E-07         0.14668E-19         0.00000E+00
    0.30870E-07         0.24214E-19         0.00000E+00
    0.31256E-07         0.23749E-19         0.00000E+00
    0.31654E-07         0.31898E-19         0.00000E+00
    0.32063E-07         0.28405E-19         0.00000E+00
    0.32482E-07         0.19092E-19         0.00000E+00
    0.32910E-07         0.18626E-19         0.00000E+00
    0.33344E-07         0.11642E-19         0.00000E+00
    0.33784E-07         0.16298E-20         0.00000E+00
    0.34228E-07         0.60536E-20         0.00000E+00
    0.34674E-07         0.12107E-19         0.00000E+00
    0.35119E-07         0.17462E-19         0.00000E+00
    0.35562E-07         0.13504E-19         0.00000E+00
    0.36001E-07         0.11176E-19         0.00000E+00
    0.36432E-07         0.17462E-19         0.00000E+00
    0.36853E-07         0.14785E-19         0.00000E+00
    0.37262E-07         0.84983E-20         0.00000E+00
    0.37654E-07         0.15250E-19         0.00000E+00
    0.38028E-07         0.20373E-19         0.00000E+00
    0.38378E-07         0.10361E-19         0.00000E+00
    0.38702E-07         0.14552E-19         0.00000E+00
    0.38994E-07         0.21420E-19         0.00000E+00
    0.39251E-07         0.27008E-19         0.00000E+00
    0.39467E-07         0.15716E-19         0.00000E+00
    0.39638E-07        -0.69849E-21         0.00000E+00
    0.39757E-07         0.24447E-20         0.00000E+00
    0.39820E-07         0.39581E-20         0.00000E+00
    0.50106E-07        -0.55879E-20         0.00000E+00
    0.50019E-07         0.72177E-20         0.00000E+00
    0.49851E-07         0.26543E-19         0.00000E+00
    0.49611E-07         0.24680E-19         0.00000E+00
    0.49306E-07         0.28871E-19         0.00000E+00
    0.48943E-07         0.50524E-19         0.00000E+00
    0.48529E-07         0.82189E-19         0.00000E+00
    0.48069E-07         0.30734E-19         0.00000E+00
    0.47568E-07        -0.62864E-20         0.00000E+00
    0.47033E-07        -0.11642E-20         0.00000E+00
    0.46468E-07         0.44238E-20         0.00000E+00
    0.45877E-07         0.10477E-19         0.00000E+00
    0.45265E-07         0.14435E-19         0.00000E+00
    0.44635E-07         0.53551E-20         0.00000E+00
    0.43991E-07         0.20955E-20         0.00000E+00
    0.43336E-07        -0.97789E-20         0.00000E+00
    0.42674E-07        -0.25611E-20         0.00000E+00
    0.42007E-07        -0.76834E-20         0.00000E+00
    0.41338E-07        -0.10245E-19         0.00000E+00
    0.40669E-07         0.17229E-19         0.00000E+00
    0.40002E-07         0.23283E-19         0.00000E+00
    0.39340E-07         0.10477E-19         0.00000E+00
    0.38684E-07         0.22119E-19         0.00000E+00
    0.38036E-07         0.13737E-19         0.00000E+00
    0.37398E-07         0.16298E-20         0.00000E+00
    0.36771E-07         0.14668E-19         0.00000E+00
    0.36157E-07         0.13737E-19         0.00000E+00
    0.35556E-07         0.23283E-21         0.00000E+00
    0.34970E-07         0.69849E-21         0.00000E+00
    0.34400E-07        -0.83819E-20         0.00000E+00
    0.33847E-07        -0.93132E-21         0.00000E+00
    0.33311E-07         0.51223E-20         0.00000E+00
    0.32794E-07         0.11642E-20         0.00000E+00
    0.32295E-07         0.16531E-19         0.00000E+00
    0.31817E-07         0.14901E-19         0.00000E+00
    0.31359E-07         0.13504E-19         0.00000E+00
    0.30921E-07         0.36322E-19         0.00000E+00
    0.30505E-07         0.24913E-19         0.00000E+00
    0.30110E-07         0.37253E-20         0.00000E+00
    0.29737E-07         0.34925E-20         0.00000E+00
    0.29387E-07         0.18394E-19         0.00000E+00
    0.29059E-07         0.37020E-19         0.00000E+00
    0.28754E-07         0.13970E-19         0.00000E+00
    0.28472E-07        -0.69849E-21         0.00000E+00
    0.28212E-07         0.12340E-19         0.00000E+00
    0.27977E-07        -0.11176E-19         0.00000E+00
    0.27764E-07        -0.11409E-19         0.00000E+00
    0.27575E-07         0.15134E-19         0.00000E+00
    0.27409E-07         0.74506E-20         0.00000E+00
    0.27267E-07         0.12806E-19         0.00000E+00
    0.27148E-07         0.13039E-19         0.00000E+00
    0.27053E-07         0.51223E-20         0.00000E+00
    0.26981E-07         0.13039E-19         0.00000E+00
    0.26932E-07         0.20955E-19         0.00000E+00
    0.26907E-07         0.22817E-19         0.00000E+00
    0.26904E-07         0.17462E-19         0.00000E+00
    0.26925E-07         0.22119E-19         0.00000E+00
    0.26968E-07         0.10943E-19         0.00000E+00
    0.27034E-07         0.48894E-20         0.00000E+00
    0.27122E-07         0.27940E-20         0.00000E+00
    0.27232E-07        -0.10943E-19         0.00000E+00
    0.27364E-07         0.46566E-21         0.00000E+00
    0.27518E-07         0.55879E-20         0.00000E+00
    0.27693E-07        -0.44238E-20         0.00000E+00
    0.27888E-07        -0.23283E-21         0.00000E+00
    0.28104E-07         0.15134E-19         0.00000E+00
    0.28340E-07         0.10710E-19         0.00000E+00
    0.28595E-07         0.83819E-20         0.00000E+00
    0.28869E-07         0.12340E-19         0.00000E+00
    0.29161E-07         0.18626E-20         0.00000E+00
    0.29471E-07         0.65193E-20         0.00000E+00
    0.29797E-07         0.10710E-19         0.00000E+00
    0.30140E-07         0.16997E-19         0.00000E+00
    0.30498E-07         0.27940E-19         0.00000E+00
    0.30870E-07         0.34226E-19         0.00000E+00
    0.31256E-07         0.37951E-19         0.00000E+00
    0.31654E-07         0.23982E-19         0.00000E+00
    0.32063E-07         0.22817E-19         0.00000E+00
    0.32482E-07         0.24680E-19         0.00000E+00
    0.32910E-07         0.20955E-19         0.00000E+00
    0.33344E-07         0.34692E-19         0.00000E+00
    0.33784E-07         0.13271E-19         0.00000E+00
    0.34228E-07         0.90804E-20         0.00000E+00
    0.34674E-07         0.24447E-19         0.00000E+00
    0.35119E-07         0.16764E-19         0.00000E+00
    0.35562E-07         0.20722E-19         0.00000E+00
    0.36001E-07         0.27008E-19         0.00000E+00
    0.36432E-07         0.19791E-19         0.00000E+00
    0.36853E-07         0.23749E-19         0.00000E+00
    0.37262E-07         0.13388E-19         0.00000E+00
    0.37654E-07         0.98953E-20         0.00000E+00
    0.38028E-07         0.25961E-19         0.00000E+00
    0.38378E-07         0.25961E-19         0.00000E+00
    0.38702E-07         0.20489E-19         0.00000E+00
    0.38994E-07         0.25029E-19         0.00000E+00
    0.39251E-07         0.25844E-19         0.00000E+00
    0.39467E-07         0.57044E-20         0.00000E+00
    0.39638E-07        -0.36089E-20         0.00000E+00
    0.39757E-07         0.40745E-20         0.00000E+00
    0.39820E-07         0.20955E-20         0.00000E+00
    0.50106E-07         0.14901E-19         0.00000E+00
    0.50019E-07         0.37486E-19         0.00000E+00
    0.49851E-07         0.45169E-19         0.00000E+00
    0.49611E-07         0.41444E-19         0.00000E+00
    0.49306E-07         0.41211E-19         0.00000E+00
    0.48943E-07         0.24214E-19         0.00000E+00
    0.48529E-07         0.16997E-19         0.00000E+00
    0.48069E-07         0.22352E-19         0.00000E+00
    0.47568E-07         0.27707E-19         0.00000E+00
    0.47033E-07         0.17928E-19         0.00000E+00
    0.46468E-07         0.16531E-19         0.00000E+00
    0.45877E-07         0.12107E-19         0.00000E+00
    0.45265E-07         0.11642E-20         0.00000E+00
    0.44635E-07         0.31199E-19         0.00000E+00
    0.43991E-07         0.21188E-19         0.00000E+00
    0.43336E-07         0.14203E-19         0.00000E+00
    0.42674E-07         0.42142E-19         0.00000E+00
    0.42007E-07         0.27940E-19         0.00000E+00
    0.41338E-07         0.26543E-19         0.00000E+00
    0.40669E-07         0.35390E-19         0.00000E+00
    0.40002E-07         0.21653E-19         0.00000E+00
    0.39340E-07         0.16298E-19         0.00000E+00
    0.38684E-07         0.25379E-19         0.00000E+00
    0.38036E-07         0.21420E-19         0.00000E+00
    0.37398E-07         0.17462E-19         0.00000E+00
    0.36771E-07         0.23283E-19         0.00000E+00
    0.36157E-07         0.13970E-19         0.00000E+00
    0.35556E-07         0.10477E-19         0.00000E+00
    0.34970E-07         0.15600E-19         0.00000E+00
    0.34400E-07         0.23749E-19         0.00000E+00
    0.33847E-07         0.27940E-19         0.00000E+00
    0.33311E-07         0.20023E-19         0.00000E+00
    0.32794E-07         0.13271E-19         0.00000E+00
    0.32295E-07         0.88476E-20         0.00000E+00
    0.31817E-07         0.16298E-19         0.00000E+00
    0.31359E-07         0.26776E-19         0.00000E+00
    0.30921E-07         0.27008E-19         0.00000E+00
    0.30505E-07         0.23982E-19         0.00000E+00
    0.30110E-07         0.18626E-19         0.00000E+00
    0.29737E-07         0.19791E-19         0.00000E+00
    0.29387E-07         0.16065E-19         0.00000E+00
    0.29059E-07         0.10477E-19         0.00000E+00
    0.28754E-07         0.19325E-19         0.00000E+00
    0.28472E-07         0.12573E-19         0.00000E+00
    0.28212E-07         0.00000E+00         0.00000E+00
    0.27977E-07        -0.58208E-20         0.00000E+00
    0.27764E-07         0.10245E-19         0.00000E+00
    0.27575E-07         0.22352E-19         0.00000E+00
    0.27409E-07         0.30734E-19         0.00000E+00
    0.27267E-07         0.40280E-19         0.00000E+00
    0.27148E-07         0.39116E-19         0.00000E+00
    0.27053E-07         0.38650E-19         0.00000E+00
    0.26981E-07         0.32829E-19         0.00000E+00
    0.26932E-07         0.23982E-19         0.00000E+00
    0.26907E-07         0.27008E-19         0.00000E+00
    0.26904E-07         0.18161E-19         0.00000E+00
    0.26925E-07         0.53551E-20         0.00000E+00
    0.26968E-07         0.16764E-19         0.00000E+00
    0.27034E-07         0.16997E-19         0.00000E+00
    0.27122E-07         0.18626E-20         0.00000E+00
    0.27232E-07         0.93132E-20         0.00000E+00
    0.27364E-07         0.79162E-20         0.00000E+00
    0.27518E-07         0.32596E-20         0.00000E+00
    0.27693E-07         0.65193E-20         0.00000E+00
    0.27888E-07         0.93132E-20         0.00000E+00
    0.28104E-07         0.12806E-19         0.00000E+00
    0.28340E-07         0.10943E-19         0.00000E+00
    0.28595E-07         0.14435E-19         0.00000E+00
    0.28869E-07         0.28405E-19         0.00000E+00
    0.29161E-07         0.22817E-19         0.00000E+00
    0.29471E-07         0.19558E-19         0.00000E+00
    0.29797E-07         0.16997E-19         0.00000E+00
    0.30140E-07         0.24913E-19         0.00000E+00
    0.30498E-07         0.44471E-19         0.00000E+00
    0.30870E-07         0.54017E-19         0.00000E+00
    0.31256E-07         0.48429E-19         0.00000E+00
    0.31654E-07         0.40745E-19         0.00000E+00
    0.32063E-07         0.32596E-19         0.00000E+00
    0.32482E-07         0.19558E-19         0.00000E+00
    0.32910E-07         0.23283E-19         0.00000E+00
    0.33344E-07         0.26310E-19         0.00000E+00
    0.33784E-07         0.18859E-19         0.00000E+00
    0.34228E-07         0.20489E-19         0.00000E+00
    0.34674E-07         0.22119E-19         0.00000E+00
    0.35119E-07         0.21653E-19         0.00000E+00
    0.35562E-07         0.31898E-19         0.00000E+00
    0.36001E-07         0.31665E-19         0.00000E+00
    0.36432E-07         0.29104E-19         0.00000E+00
    0.36853E-07         0.29569E-19         0.00000E+00
    0.37262E-07         0.24331E-19         0.00000E+00
    0.37654E-07         0.24680E-19         0.00000E+00
    0.38028E-07         0.30152E-19         0.00000E+00
    0.38378E-07         0.32480E-19         0.00000E+00
    0.38702E-07         0.13853E-19         0.00000E+00
    0.38994E-07         0.18859E-19         0.00000E+00
    0.39251E-07         0.15134E-19         0.00000E+00
    0.39467E-07         0.38417E-20         0.00000E+00
    0.39638E-07         0.86147E-20         0.00000E+00
    0.39757E-07         0.38417E-20         0.00000E+00
    0.39820E-07        -0.37253E-20         0.00000E+00
    0.50106E-07         0.12573E-19         0.00000E+00
    0.50019E-07         0.42375E-19         0.00000E+00
    0.49851E-07         0.47032E-19         0.00000E+00
    0.49611E-07         0.44471E-19         0.00000E+00
    0.49306E-07         0.29337E-19         0.00000E+00
    0.48943E-07         0.29569E-19         0.00000E+00
    0.48529E-07         0.45402E-19         0.00000E+00
    0.48069E-07         0.39581E-19         0.00000E+00
    0.47568E-07         0.13970E-19         0.00000E+00
    0.47033E-07         0.18394E-19         0.00000E+00
    0.46468E-07         0.44005E-19         0.00000E+00
    0.45877E-07         0.31898E-19         0.00000E+00
    0.45265E-07         0.22119E-19         0.00000E+00
    0.44635E-07         0.19558E-19         0.00000E+00
    0.43991E-07         0.26543E-19         0.00000E+00
    0.43336E-07         0.28871E-19         0.00000E+00
    0.42674E-07         0.58208E-20         0.00000E+00
    0.42007E-07         0.93132E-21         0.00000E+00
    0.41338E-07         0.10477E-19         0.00000E+00
    0.40669E-07         0.17462E-19         0.00000E+00
    0.40002E-07         0.18859E-19         0.00000E+00
    0.39340E-07         0.30035E-19         0.00000E+00
    0.38684E-07         0.26077E-19         0.00000E+00
    0.38036E-07         0.21420E-19         0.00000E+00
    0.37398E-07         0.31898E-19         0.00000E+00
    0.36771E-07         0.27008E-19         0.00000E+00
    0.36157E-07         0.48894E-20         0.00000E+00
    0.35556E-07        -0.27707E-19         0.00000E+00
    0.34970E-07        -0.21188E-19         0.00000E+00
    0.34400E-07        -0.79162E-20         0.00000E+00
    0.33847E-07        -0.83819E-20         0.00000E+00
    0.33311E-07         0.10477E-19         0.00000E+00
    0.32794E-07         0.17695E-19         0.00000E+00
    0.32295E-07         0.14901E-19         0.00000E+00
    0.31817E-07         0.15367E-19         0.00000E+00
    0.31359E-07         0.23516E-19         0.00000E+00
    0.30921E-07         0.14435E-19         0.00000E+00
    0.30505E-07         0.67521E-20         0.00000E+00
    0.30110E-07         0.93132E-20         0.00000E+00
    0.29737E-07         0.17928E-19         0.00000E+00
    0.29387E-07         0.39348E-19         0.00000E+00
    0.29059E-07         0.43074E-19         0.00000E+00
    0.28754E-07         0.97789E-20         0.00000E+00
    0.28472E-07         0.60536E-20         0.00000E+00
    0.28212E-07         0.55879E-20         0.00000E+00
    0.27977E-07        -0.41910E-20         0.00000E+00
    0.27764E-07        -0.51223E-20         0.00000E+00
    0.27575E-07        -0.23283E-21         0.00000E+00
    0.27409E-07         0.12573E-19         0.00000E+00
    0.27267E-07         0.16531E-19         0.00000E+00
    0.27148E-07         0.23050E-19         0.00000E+00
    0.27053E-07         0.39116E-19         0.00000E+00
    0.26981E-07         0.24680E-19         0.00000E+00
    0.26932E-07         0.13737E-19         0.00000E+00
    0.26907E-07         0.23283E-19         0.00000E+00
    0.26904E-07         0.30966E-19         0.00000E+00
    0.26925E-07         0.18859E-19         0.00000E+00
    0.26968E-07         0.17462E-19         0.00000E+00
    0.27034E-07         0.15600E-19         0.00000E+00
    0.27122E-07         0.23283E-21         0.00000E+00
    0.27232E-07        -0.16997E-19         0.00000E+00
    0.27364E-07        -0.11642E-19         0.00000E+00
    0.27518E-07         0.83819E-20         0.00000E+00
    0.27693E-07         0.19092E-19         0.00000E+00
    0.27888E-07         0.37253E-20         0.00000E+00
    0.28104E-07         0.11642E-20         0.00000E+00
    0.28340E-07         0.14203E-19         0.00000E+00
    0.28595E-07         0.13504E-19         0.00000E+00
    0.28869E-07         0.14668E-19         0.00000E+00
    0.29161E-07         0.69849E-20         0.00000E+00
    0.29471E-07         0.65193E-20         0.00000E+00
    0.29797E-07         0.10245E-19         0.00000E+00
    0.30140E-07         0.14901E-19         0.00000E+00
    0.30498E-07         0.26776E-19         0.00000E+00
    0.30870E-07         0.32829E-19         0.00000E+00
    0.31256E-07         0.39581E-19         0.00000E+00
    0.31654E-07         0.37719E-19         0.00000E+00
    0.32063E-07         0.20955E-19         0.00000E+00
    0.32482E-07         0.16298E-19         0.00000E+00
    0.32910E-07         0.21653E-19         0.00000E+00
    0.33344E-07         0.16997E-19         0.00000E+00
    0.33784E-07         0.34925E-19         0.00000E+00
    0.34228E-07         0.26776E-19         0.00000E+00
    0.34674E-07         0.19558E-19         0.00000E+00
    0.35119E-07         0.21886E-19         0.00000E+00
    0.35562E-07         0.33760E-19         0.00000E+00
    0.36001E-07         0.31199E-19         0.00000E+00
    0.36432E-07         0.23749E-19         0.00000E+00
    0.36853E-07         0.17113E-19         0.00000E+00
    0.37262E-07         0.24214E-19         0.00000E+00
    0.37654E-07         0.25611E-19         0.00000E+00
    0.38028E-07         0.30617E-19         0.00000E+00
    0.38378E-07         0.31199E-19         0.00000E+00
    0.38702E-07         0.19092E-19         0.00000E+00
    0.38994E-07         0.12922E-19         0.00000E+00
    0.39251E-07        -0.93132E-21         0.00000E+00
    0.39467E-07         0.12224E-19         0.00000E+00
    0.39638E-07         0.18626E-19         0.00000E+00
    0.39757E-07         0.11059E-19         0.00000E+00
    0.39820E-07         0.37253E-20         0.00000E+00
    0.50106E-07         0.41910E-20         0.00000E+00
    0.50019E-07         0.15832E-19         0.00000E+00
    0.49851E-07         0.19325E-19         0.00000E+00
    0.49611E-07         0.63330E-19         0.00000E+00
    0.49306E-07         0.72177E-19         0.00000E+00
    0.48943E-07         0.13039E-19         0.00000E+00
    0.48529E-07         0.22352E-19         0.00000E+00
    0.48069E-07         0.35623E-19         0.00000E+00
    0.47568E-07         0.19558E-19         0.00000E+00
    0.47033E-07         0.21188E-19         0.00000E+00
    0.46468E-07         0.38417E-19         0.00000E+00
    0.45877E-07         0.62631E-19         0.00000E+00
    0.45265E-07         0.55647E-19         0.00000E+00
    0.44635E-07         0.18161E-19         0.00000E+00
    0.43991E-07         0.97789E-20         0.00000E+00
    0.43336E-07         0.16298E-19         0.00000E+00
    0.42674E-07         0.10943E-19         0.00000E+00
    0.42007E-07        -0.20955E-20         0.00000E+00
    0.41338E-07        -0.23283E-20         0.00000E+00
    0.40669E-07         0.44238E-20         0.00000E+00
    0.40002E-07        -0.74506E-20         0.00000E+00
    0.39340E-07        -0.81491E-20         0.00000E+00
    0.38684E-07         0.60536E-20         0.00000E+00
    0.38036E-07         0.16764E-19         0.00000E+00
    0.37398E-07         0.15832E-19         0.00000E+00
    0.36771E-07         0.11176E-19         0.00000E+00
    0.36157E-07         0.34925E-20         0.00000E+00
    0.35556E-07        -0.11874E-19         0.00000E+00
    0.34970E-07        -0.17695E-19         0.00000E+00
    0.34400E-07        -0.60536E-20         0.00000E+00
    0.33847E-07         0.95461E-20         0.00000E+00
    0.33311E-07         0.11176E-19         0.00000E+00
    0.32794E-07         0.95461E-20         0.00000E+00
    0.32295E-07        -0.23283E-20         0.00000E+00
    0.31817E-07         0.93132E-21         0.00000E+00
    0.31359E-07         0.14203E-19         0.00000E+00
    0.30921E-07         0.39581E-20         0.00000E+00
    0.30505E-07         0.13970E-20         0.00000E+00
    0.30110E-07         0.88476E-20         0.00000E+00
    0.29737E-07         0.30268E-20         0.00000E+00
    0.29387E-07         0.34925E-20         0.00000E+00
    0.29059E-07         0.17928E-19         0.00000E+00
    0.28754E-07         0.74506E-20         0.00000E+00
    0.28472E-07         0.69849E-20         0.00000E+00
    0.28212E-07         0.51223E-20         0.00000E+00
    0.27977E-07         0.62864E-20         0.00000E+00
    0.27764E-07        -0.20955E-20         0.00000E+00
    0.27575E-07         0.18626E-20         0.00000E+00
    0.27409E-07         0.83819E-20         0.00000E+00
    0.27267E-07         0.20955E-20         0.00000E+00
    0.27148E-07         0.90804E-20         0.00000E+00
    0.27053E-07         0.12340E-19         0.00000E+00
    0.26981E-07         0.11409E-19         0.00000E+00
    0.26932E-07         0.12806E-19         0.00000E+00
    0.26907E-07         0.16298E-19         0.00000E+00
    0.26904E-07         0.15600E-19         0.00000E+00
    0.26925E-07         0.12107E-19         0.00000E+00
    0.26968E-07         0.95461E-20         0.00000E+00
    0.27034E-07        -0.23283E-21         0.00000E+00
    0.27122E-07        -0.53551E-20         0.00000E+00
    0.27232E-07        -0.90804E-20         0.00000E+00
    0.27364E-07        -0.74506E-20         0.00000E+00
    0.27518E-07        -0.65193E-20         0.00000E+00
    0.27693E-07        -0.15367E-19         0.00000E+00
    0.27888E-07        -0.88476E-20         0.00000E+00
    0.28104E-07        -0.67521E-20         0.00000E+00
    0.28340E-07        -0.62864E-20         0.00000E+00
    0.28595E-07         0.44238E-20         0.00000E+00
    0.28869E-07         0.34925E-20         0.00000E+00
    0.29161E-07         0.11176E-19         0.00000E+00
    0.29471E-07         0.10245E-19         0.00000E+00
    0.29797E-07         0.10245E-19         0.00000E+00
    0.30140E-07         0.16997E-19         0.00000E+00
    0.30498E-07         0.23283E-19         0.00000E+00
    0.30870E-07         0.30966E-19         0.00000E+00
    0.31256E-07         0.22585E-19         0.00000E+00
    0.31654E-07         0.21886E-19         0.00000E+00
    0.32063E-07         0.24214E-19         0.00000E+00
    0.32482E-07         0.23283E-19         0.00000E+00
    0.32910E-07         0.20023E-19         0.00000E+00
    0.33344E-07         0.30734E-19         0.00000E+00
    0.33784E-07         0.30035E-19         0.00000E+00
    0.34228E-07         0.23516E-19         0.00000E+00
    0.34674E-07         0.38184E-19         0.00000E+00
    0.35119E-07         0.38883E-19         0.00000E+00
    0.35562E-07         0.37020E-19         0.00000E+00
    0.36001E-07         0.23749E-19         0.00000E+00
    0.36432E-07         0.15600E-19         0.00000E+00
    0.36853E-07         0.15134E-19         0.00000E+00
    0.37262E-07         0.15600E-19         0.00000E+00
    0.37654E-07         0.23749E-19         0.00000E+00
    0.38028E-07         0.23632E-19         0.00000E+00
    0.38378E-07         0.14901E-19         0.00000E+00
    0.38702E-07         0.17346E-19         0.00000E+00
    0.38994E-07         0.12573E-19         0.00000E+00
    0.39251E-07         0.11176E-19         0.00000E+00
    0.39467E-07         0.19791E-20         0.00000E+00
    0.39638E-07         0.25611E-20         0.00000E+00
    0.39757E-07        -0.15134E-20         0.00000E+00
    0.39820E-07        -0.68685E-20         0.00000E+00
    0.50106E-07         0.13271E-19         0.00000E+00
    0.50019E-07         0.13271E-19         0.00000E+00
    0.49851E-07         0.28871E-19         0.00000E+00
    0.49611E-07         0.58673E-19         0.00000E+00
    0.49306E-07         0.58440E-19         0.00000E+00
    0.48943E-07         0.40978E-19         0.00000E+00
    0.48529E-07         0.30035E-19         0.00000E+00
    0.48069E-07         0.39581E-19         0.00000E+00
    0.47568E-07         0.43074E-19         0.00000E+00
    0.47033E-07         0.43074E-19         0.00000E+00
    0.46468E-07         0.43074E-19         0.00000E+00
    0.45877E-07         0.42841E-19         0.00000E+00
    0.45265E-07         0.44238E-19         0.00000E+00
    0.44635E-07         0.53318E-19         0.00000E+00
    0.43991E-07         0.40280E-19         0.00000E+00
    0.43336E-07         0.20722E-19         0.00000E+00
    0.42674E-07         0.62864E-20         0.00000E+00
    0.42007E-07        -0.13970E-20         0.00000E+00
    0.41338E-07         0.20955E-19         0.00000E+00
    0.40669E-07         0.25611E-19         0.00000E+00
    0.40002E-07         0.51223E-20         0.00000E+00
    0.39340E-07         0.83819E-20         0.00000E+00
    0.38684E-07         0.18394E-19         0.00000E+00
    0.38036E-07         0.13271E-19         0.00000E+00
    0.37398E-07         0.16065E-19         0.00000E+00
    0.36771E-07         0.10245E-19         0.00000E+00
    0.36157E-07         0.69849E-21         0.00000E+00
    0.35556E-07        -0.95461E-20         0.00000E+00
    0.34970E-07        -0.58208E-20         0.00000E+00
    0.34400E-07        -0.72177E-20         0.00000E+00
    0.33847E-07        -0.37616E-36         0.00000E+00
    0.33311E-07         0.10012E-19         0.00000E+00
    0.32794E-07        -0.48894E-20         0.00000E+00
    0.32295E-07         0.23283E-21         0.00000E+00
    0.31817E-07         0.20955E-19         0.00000E+00
    0.31359E-07         0.20722E-19         0.00000E+00
    0.30921E-07         0.18626E-19         0.00000E+00
    0.30505E-07         0.18859E-19         0.00000E+00
    0.30110E-07         0.30734E-19         0.00000E+00
    0.29737E-07         0.24214E-19         0.00000E+00
    0.29387E-07         0.15600E-19         0.00000E+00
    0.29059E-07         0.29104E-19         0.00000E+00
    0.28754E-07         0.23050E-19         0.00000E+00
    0.28472E-07         0.13737E-19         0.00000E+00
    0.28212E-07        -0.32596E-20         0.00000E+00
    0.27977E-07        -0.97789E-20         0.00000E+00
    0.27764E-07         0.23283E-20         0.00000E+00
    0.27575E-07         0.46566E-20         0.00000E+00
    0.27409E-07         0.41910E-20         0.00000E+00
    0.27267E-07         0.16065E-19         0.00000E+00
    0.27148E-07         0.21653E-19         0.00000E+00
    0.27053E-07         0.12107E-19         0.00000E+00
    0.26981E-07         0.21886E-19         0.00000E+00
    0.26932E-07         0.17229E-19         0.00000E+00
    0.26907E-07         0.15367E-19         0.00000E+00
    0.26904E-07         0.16065E-19         0.00000E+00
    0.26925E-07         0.21886E-19         0.00000E+00
    0.26968E-07         0.17462E-19         0.00000E+00
    0.27034E-07         0.79162E-20         0.00000E+00
    0.27122E-07         0.23283E-20         0.00000E+00
    0.27232E-07        -0.67521E-20         0.00000E+00
    0.27364E-07        -0.44238E-20         0.00000E+00
    0.27518E-07        -0.23283E-20         0.00000E+00
    0.27693E-07        -0.12573E-19         0.00000E+00
    0.27888E-07        -0.25611E-20         0.00000E+00
    0.28104E-07         0.15600E-19         0.00000E+00
    0.28340E-07         0.79162E-20         0.00000E+00
    0.28595E-07         0.18859E-19         0.00000E+00
    0.28869E-07         0.34925E-19         0.00000E+00
    0.29161E-07         0.29569E-19         0.00000E+00
    0.29471E-07         0.15367E-19         0.00000E+00
    0.29797E-07         0.19325E-19         0.00000E+00
    0.30140E-07         0.39581E-19         0.00000E+00
    0.30498E-07         0.19325E-19         0.00000E+00
    0.30870E-07         0.13271E-19         0.00000E+00
    0.31256E-07         0.24680E-19         0.00000E+00
    0.31654E-07         0.40745E-19         0.00000E+00
    0.32063E-07         0.37486E-19         0.00000E+00
    0.32482E-07         0.10710E-19         0.00000E+00
    0.32910E-07         0.10710E-19         0.00000E+00
    0.33344E-07         0.18859E-19         0.00000E+00
    0.33784E-07         0.30035E-19         0.00000E+00
    0.34228E-07         0.24447E-19         0.00000E+00
    0.34674E-07         0.95461E-20         0.00000E+00
    0.35119E-07         0.37253E-19         0.00000E+00
    0.35562E-07         0.40978E-19         0.00000E+00
    0.36001E-07         0.24214E-19         0.00000E+00
    0.36432E-07         0.22119E-19         0.00000E+00
    0.36853E-07         0.16298E-19         0.00000E+00
    0.37262E-07         0.19791E-19         0.00000E+00
    0.37654E-07         0.29569E-19         0.00000E+00
    0.38028E-07         0.32946E-19         0.00000E+00
    0.38378E-07         0.20140E-19         0.00000E+00
    0.38702E-07         0.17462E-19         0.00000E+00
    0.38994E-07         0.95461E-20         0.00000E+00
    0.39251E-07         0.13388E-19         0.00000E+00
    0.39467E-07         0.16880E-19         0.00000E+00
    0.39638E-07         0.10943E-19         0.00000E+00
    0.39757E-07         0.24447E-20         0.00000E+00
    0.39820E-07        -0.23283E-21         0.00000E+00
    0.50106E-07         0.51223E-20         0.00000E+00
    0.50019E-07         0.20489E-19         0.00000E+00
    0.49851E-07         0.39116E-19         0.00000E+00
    0.49611E-07         0.15134E-19         0.00000E+00
    0.49306E-07         0.25146E-19         0.00000E+00
    0.48943E-07         0.64028E-19         0.00000E+00
    0.48529E-07         0.45169E-19         0.00000E+00
    0.48069E-07         0.30035E-19         0.00000E+00
    0.47568E-07         0.41444E-19         0.00000E+00
    0.47033E-07         0.16997E-19         0.00000E+00
    0.46468E-07         0.24913E-19         0.00000E+00
    0.45877E-07         0.60536E-20         0.00000E+00
    0.45265E-07         0.86147E-20         0.00000E+00
    0.44635E-07         0.16764E-19         0.00000E+00
    0.43991E-07        -0.95461E-20         0.00000E+00
    0.43336E-07        -0.13970E-20         0.00000E+00
    0.42674E-07        -0.69849E-20         0.00000E+00
    0.42007E-07         0.46566E-21         0.00000E+00
    0.41338E-07         0.28173E-19         0.00000E+00
    0.40669E-07         0.19558E-19         0.00000E+00
    0.40002E-07         0.12340E-19         0.00000E+00
    0.39340E-07         0.21420E-19         0.00000E+00
    0.38684E-07         0.19325E-19         0.00000E+00
    0.38036E-07         0.10943E-19         0.00000E+00
    0.37398E-07         0.58208E-20         0.00000E+00
    0.36771E-07         0.83819E-20         0.00000E+00
    0.36157E-07         0.10477E-19         0.00000E+00
    0.35556E-07         0.30268E-20         0.00000E+00
    0.34970E-07        -0.86147E-20         0.00000E+00
    0.34400E-07         0.13970E-20         0.00000E+00
    0.33847E-07         0.69849E-21         0.00000E+00
    0.33311E-07        -0.34925E-20         0.00000E+00
    0.32794E-07         0.11874E-19         0.00000E+00
    0.32295E-07         0.10710E-19         0.00000E+00
    0.31817E-07        -0.46566E-21         0.00000E+00
    0.31359E-07        -0.27940E-20         0.00000E+00
    0.30921E-07         0.20955E-20         0.00000E+00
    0.30505E-07         0.11874E-19         0.00000E+00
    0.30110E-07         0.20256E-19         0.00000E+00
    0.29737E-07         0.24214E-19         0.00000E+00
    0.29387E-07         0.10477E-19         0.00000E+00
    0.29059E-07         0.67521E-20         0.00000E+00
    0.28754E-07         0.88476E-20         0.00000E+00
    0.28472E-07        -0.95461E-20         0.00000E+00
    0.28212E-07        -0.39581E-20         0.00000E+00
    0.27977E-07         0.11874E-19         0.00000E+00
    0.27764E-07         0.10012E-19         0.00000E+00
    0.27575E-07        -0.62864E-20         0.00000E+00
    0.27409E-07         0.37253E-20         0.00000E+00
    0.27267E-07         0.11874E-19         0.00000E+00
    0.27148E-07        -0.20955E-20         0.00000E+00
    0.27053E-07         0.11642E-19         0.00000E+00
    0.26981E-07         0.13039E-19         0.00000E+00
    0.26932E-07         0.25379E-19         0.00000E+00
    0.26907E-07         0.21886E-19         0.00000E+00
    0.26904E-07         0.14203E-19         0.00000E+00
    0.26925E-07         0.10710E-19         0.00000E+00
    0.26968E-07         0.58208E-20         0.00000E+00
    0.27034E-07         0.14203E-19         0.00000E+00
    0.27122E-07        -0.62864E-20         0.00000E+00
    0.27232E-07        -0.34925E-20         0.00000E+00
    0.27364E-07         0.72177E-20         0.00000E+00
    0.27518E-07        -0.41910E-20         0.00000E+00
    0.27693E-07        -0.12806E-19         0.00000E+00
    0.27888E-07        -0.48894E-20         0.00000E+00
    0.28104E-07        -0.39581E-20         0.00000E+00
    0.28340E-07         0.13737E-19         0.00000E+00
    0.28595E-07         0.12573E-19         0.00000E+00
    0.28869E-07         0.18859E-19         0.00000E+00
    0.29161E-07         0.13271E-19         0.00000E+00
    0.29471E-07         0.11874E-19         0.00000E+00
    0.29797E-07         0.27474E-19         0.00000E+00
    0.30140E-07         0.30268E-19         0.00000E+00
    0.30498E-07         0.33295E-19         0.00000E+00
    0.30870E-07         0.27940E-19         0.00000E+00
    0.31256E-07         0.27008E-19         0.00000E+00
    0.31654E-07         0.47032E-19         0.00000E+00
    0.32063E-07         0.28871E-19         0.00000E+00
    0.32482E-07         0.41910E-20         0.00000E+00
    0.32910E-07         0.21886E-19         0.00000E+00
    0.33344E-07         0.18161E-19         0.00000E+00
    0.33784E-07         0.18394E-19         0.00000E+00
    0.34228E-07         0.21188E-19         0.00000E+00
    0.34674E-07         0.15367E-19         0.00000E+00
    0.35119E-07         0.18859E-19         0.00000E+00
    0.35562E-07         0.23050E-19         0.00000E+00
    0.36001E-07         0.30501E-19         0.00000E+00
    0.36432E-07         0.30734E-19         0.00000E+00
    0.36853E-07         0.27474E-19         0.00000E+00
    0.37262E-07         0.24447E-19         0.00000E+00
    0.37654E-07         0.30617E-19         0.00000E+00
    0.38028E-07         0.27823E-19         0.00000E+00
    0.38378E-07         0.15949E-19         0.00000E+00
    0.38702E-07         0.28056E-19         0.00000E+00
    0.38994E-07         0.20722E-19         0.00000E+00
    0.39251E-07         0.19907E-19         0.00000E+00
    0.39467E-07         0.22352E-19         0.00000E+00
    0.39638E-07        -0.69849E-21         0.00000E+00
    0.39757E-07         0.11642E-21         0.00000E+00
    0.39820E-07         0.31432E-20         0.00000E+00
    0.50106E-07         0.18161E-19         0.00000E+00
    0.50019E-07         0.24447E-19         0.00000E+00
    0.49851E-07         0.54948E-19         0.00000E+00
    0.49611E-07         0.56345E-19         0.00000E+00
    0.49306E-07         0.47032E-19         0.00000E+00
    0.48943E-07         0.62631E-19         0.00000E+00
    0.48529E-07         0.34692E-19         0.00000E+00
    0.48069E-07         0.37253E-19         0.00000E+00
    0.47568E-07         0.65891E-19         0.00000E+00
    0.47033E-07         0.31898E-19         0.00000E+00
    0.46468E-07         0.41910E-20         0.00000E+00
    0.45877E-07         0.19325E-19         0.00000E+00
    0.45265E-07         0.19325E-19         0.00000E+00
    0.44635E-07         0.25379E-19         0.00000E+00
    0.43991E-07         0.19791E-19         0.00000E+00
    0.43336E-07         0.21188E-19         0.00000E+00
    0.42674E-07         0.25844E-19         0.00000E+00
    0.42007E-07         0.20489E-19         0.00000E+00
    0.41338E-07         0.69849E-21         0.00000E+00
    0.40669E-07         0.13970E-20         0.00000E+00
    0.40002E-07         0.41910E-20         0.00000E+00
    0.39340E-07         0.81491E-20         0.00000E+00
    0.38684E-07         0.13737E-19         0.00000E+00
    0.38036E-07        -0.21420E-19         0.00000E+00
    0.37398E-07        -0.15134E-19         0.00000E+00
    0.36771E-07        -0.58208E-20         0.00000E+00
    0.36157E-07        -0.97789E-20         0.00000E+00
    0.35556E-07        -0.15600E-19         0.00000E+00
    0.34970E-07         0.41910E-20         0.00000E+00
    0.34400E-07         0.18626E-20         0.00000E+00
    0.33847E-07        -0.74506E-20         0.00000E+00
    0.33311E-07         0.10710E-19         0.00000E+00
    0.32794E-07         0.17229E-19         0.00000E+00
    0.32295E-07         0.16298E-20         0.00000E+00
    0.31817E-07        -0.46566E-20         0.00000E+00
    0.31359E-07         0.69849E-20         0.00000E+00
    0.30921E-07         0.19092E-19         0.00000E+00
    0.30505E-07         0.12340E-19         0.00000E+00
    0.30110E-07         0.46566E-20         0.00000E+00
    0.29737E-07         0.24913E-19         0.00000E+00
    0.29387E-07         0.23982E-19         0.00000E+00
    0.29059E-07         0.10943E-19         0.00000E+00
    0.28754E-07         0.17695E-19         0.00000E+00
    0.28472E-07         0.10245E-19         0.00000E+00
    0.28212E-07        -0.93132E-21         0.00000E+00
    0.27977E-07        -0.81491E-20         0.00000E+00
    0.27764E-07         0.51223E-20         0.00000E+00
    0.27575E-07         0.23283E-20         0.00000E+00
    0.27409E-07         0.46566E-21         0.00000E+00
    0.27267E-07         0.58208E-20         0.00000E+00
    0.27148E-07         0.95461E-20         0.00000E+00
    0.27053E-07         0.74506E-20         0.00000E+00
    0.26981E-07         0.32596E-20         0.00000E+00
    0.26932E-07        -0.58208E-20         0.00000E+00
    0.26907E-07        -0.13970E-20         0.00000E+00
    0.26904E-07         0.34925E-20         0.00000E+00
    0.26925E-07         0.16298E-20         0.00000E+00
    0.26968E-07        -0.13504E-19         0.00000E+00
    0.27034E-07        -0.23749E-19         0.00000E+00
    0.27122E-07         0.16298E-20         0.00000E+00
    0.27232E-07        -0.46566E-20         0.00000E+00
    0.27364E-07        -0.93132E-20         0.00000E+00
    0.27518E-07        -0.93132E-20         0.00000E+00
    0.27693E-07        -0.28405E-19         0.00000E+00
    0.27888E-07        -0.90804E-20         0.00000E+00
    0.28104E-07        -0.20955E-20         0.00000E+00
    0.28340E-07        -0.48894E-20         0.00000E+00
    0.28595E-07         0.55879E-20         0.00000E+00
    0.28869E-07         0.18626E-19         0.00000E+00
    0.29161E-07         0.19092E-19         0.00000E+00
    0.29471E-07         0.23050E-19         0.00000E+00
    0.29797E-07         0.24214E-19         0.00000E+00
    0.30140E-07         0.30268E-19         0.00000E+00
    0.30498E-07         0.44005E-19         0.00000E+00
    0.30870E-07         0.23516E-19         0.00000E+00
    0.31256E-07         0.13737E-19         0.00000E+00
    0.31654E-07         0.25844E-19         0.00000E+00
    0.32063E-07         0.25379E-19         0.00000E+00
    0.32482E-07         0.20722E-19         0.00000E+00
    0.32910E-07         0.17695E-19         0.00000E+00
    0.33344E-07         0.13504E-19         0.00000E+00
    0.33784E-07         0.11874E-19         0.00000E+00
    0.34228E-07         0.13039E-19         0.00000E+00
    0.34674E-07         0.34226E-19         0.00000E+00
    0.35119E-07         0.30035E-19         0.00000E+00
    0.35562E-07         0.38184E-19         0.00000E+00
    0.36001E-07         0.35390E-19         0.00000E+00
    0.36432E-07         0.13039E-19         0.00000E+00
    0.36853E-07         0.23749E-19         0.00000E+00
    0.37262E-07         0.28522E-19         0.00000E+00
    0.37654E-07         0.33062E-19         0.00000E+00
    0.38028E-07         0.23283E-19         0.00000E+00
    0.38378E-07         0.57044E-20         0.00000E+00
    0.38702E-07         0.26543E-19         0.00000E+00
    0.38994E-07         0.32596E-19         0.00000E+00
    0.39251E-07         0.17695E-19         0.00000E+00
    0.39467E-07         0.37253E-20         0.00000E+00
    0.39638E-07         0.13271E-19         0.00000E+00
    0.39757E-07         0.10128E-19         0.00000E+00
    0.39820E-07         0.11642E-21         0.00000E+00
    0.50106E-07         0.93132E-20         0.00000E+00
    0.50019E-07         0.37486E-19         0.00000E+00
    0.49851E-07         0.42375E-19         0.00000E+00
    0.49611E-07         0.37253E-19         0.00000E+00
    0.49306E-07         0.63330E-19         0.00000E+00
    0.48943E-07         0.71479E-19         0.00000E+00
    0.48529E-07         0.59372E-19         0.00000E+00
    0.48069E-07         0.35856E-19         0.00000E+00
    0.47568E-07         0.21188E-19         0.00000E+00
    0.47033E-07         0.29569E-19         0.00000E+00
    0.46468E-07         0.26077E-19         0.00000E+00
    0.45877E-07         0.30734E-19         0.00000E+00
    0.45265E-07         0.18859E-19         0.00000E+00
    0.44635E-07         0.41910E-20         0.00000E+00
    0.43991E-07         0.30035E-19         0.00000E+00
    0.43336E-07         0.11409E-19         0.00000E+00
    0.42674E-07        -0.10710E-19         0.00000E+00
    0.42007E-07         0.90804E-20         0.00000E+00
    0.41338E-07         0.93132E-20         0.00000E+00
    0.40669E-07         0.46566E-21         0.00000E+00
    0.40002E-07         0.21188E-19         0.00000E+00
    0.39340E-07         0.20256E-19         0.00000E+00
    0.38684E-07         0.20955E-20         0.00000E+00
    0.38036E-07        -0.20955E-20         0.00000E+00
    0.37398E-07         0.69849E-21         0.00000E+00
    0.36771E-07        -0.16997E-19         0.00000E+00
    0.36157E-07         0.76834E-20         0.00000E+00
    0.35556E-07         0.90804E-20         0.00000E+00
    0.34970E-07         0.16298E-20         0.00000E+00
    0.34400E-07         0.15832E-19         0.00000E+00
    0.33847E-07        -0.18626E-20         0.00000E+00
    0.33311E-07        -0.46566E-20         0.00000E+00
    0.32794E-07         0.13504E-19         0.00000E+00
    0.32295E-07         0.26077E-19         0.00000E+00
    0.31817E-07         0.13039E-19         0.00000E+00
    0.31359E-07         0.53551E-20         0.00000E+00
    0.30921E-07         0.62864E-20         0.00000E+00
    0.30505E-07         0.90804E-20         0.00000E+00
    0.30110E-07         0.90804E-20         0.00000E+00
    0.29737E-07         0.72177E-20         0.00000E+00
    0.29387E-07         0.15600E-19         0.00000E+00
    0.29059E-07         0.16298E-19         0.00000E+00
    0.28754E-07         0.15134E-19         0.00000E+00
    0.28472E-07         0.12340E-19         0.00000E+00
    0.28212E-07         0.51223E-20         0.00000E+00
    0.27977E-07         0.13039E-19         0.00000E+00
    0.27764E-07         0.24680E-19         0.00000E+00
    0.27575E-07         0.48894E-20         0.00000E+00
    0.27409E-07         0.48894E-20         0.00000E+00
    0.27267E-07         0.25611E-20         0.00000E+00
    0.27148E-07        -0.27940E-20         0.00000E+00
    0.27053E-07        -0.13970E-20         0.00000E+00
    0.26981E-07        -0.41910E-20         0.00000E+00
    0.26932E-07         0.21653E-19         0.00000E+00
    0.26907E-07         0.93132E-21         0.00000E+00
    0.26904E-07        -0.19092E-19         0.00000E+00
    0.26925E-07        -0.16764E-19         0.00000E+00
    0.26968E-07        -0.39581E-20         0.00000E+00
    0.27034E-07        -0.81491E-20         0.00000E+00
    0.27122E-07        -0.18626E-19         0.00000E+00
    0.27232E-07         0.13970E-19         0.00000E+00
    0.27364E-07         0.23283E-20         0.00000E+00
    0.27518E-07        -0.11874E-19         0.00000E+00
    0.27693E-07        -0.34925E-20         0.00000E+00
    0.27888E-07        -0.62864E-20         0.00000E+00
    0.28104E-07        -0.10710E-19         0.00000E+00
    0.28340E-07         0.90804E-20         0.00000E+00
    0.28595E-07         0.16764E-19         0.00000E+00
    0.28869E-07         0.46566E-20         0.00000E+00
    0.29161E-07         0.95461E-20         0.00000E+00
    0.29471E-07         0.46100E-19         0.00000E+00
    0.29797E-07         0.55647E-19         0.00000E+00
    0.30140E-07         0.61467E-19         0.00000E+00
    0.30498E-07         0.35623E-19         0.00000E+00
    0.30870E-07         0.15600E-19         0.00000E+00
    0.31256E-07         0.27940E-19         0.00000E+00
    0.31654E-07         0.37253E-19         0.00000E+00
    0.32063E-07         0.49360E-19         0.00000E+00
    0.32482E-07         0.24680E-19         0.00000E+00
    0.32910E-07         0.19092E-19         0.00000E+00
    0.33344E-07         0.35157E-19         0.00000E+00
    0.33784E-07         0.22585E-19         0.00000E+00
    0.34228E-07         0.15134E-19         0.00000E+00
    0.34674E-07         0.25379E-19         0.00000E+00
    0.35119E-07         0.40978E-19         0.00000E+00
    0.35562E-07         0.50757E-19         0.00000E+00
    0.36001E-07         0.32829E-19         0.00000E+00
    0.36432E-07         0.19791E-19         0.00000E+00
    0.36853E-07         0.28289E-19         0.00000E+00
    0.37262E-07         0.27241E-19         0.00000E+00
    0.37654E-07         0.28056E-19         0.00000E+00
    0.38028E-07         0.26892E-19         0.00000E+00
    0.38378E-07         0.23399E-19         0.00000E+00
    0.38702E-07         0.25262E-19         0.00000E+00
    0.38994E-07         0.22817E-19         0.00000E+00
    0.39251E-07         0.16647E-19         0.00000E+00
    0.39467E-07         0.18976E-19         0.00000E+00
    0.39638E-07         0.10012E-19         0.00000E+00
    0.39757E-07        -0.32596E-20         0.00000E+00
    0.39820E-07        -0.27940E-20         0.00000E+00
    0.50106E-07         0.32596E-20         0.00000E+00
    0.50019E-07         0.12340E-19         0.00000E+00
    0.49851E-07         0.32131E-19         0.00000E+00
    0.49611E-07         0.42841E-19         0.00000E+00
    0.49306E-07         0.44238E-19         0.00000E+00
    0.48943E-07         0.34692E-19         0.00000E+00
    0.48529E-07         0.57509E-19         0.00000E+00
    0.48069E-07         0.34925E-19         0.00000E+00
    0.47568E-07         0.83819E-20         0.00000E+00
    0.47033E-07         0.22585E-19         0.00000E+00
    0.46468E-07        -0.17229E-19         0.00000E+00
    0.45877E-07        -0.20722E-19         0.00000E+00
    0.45265E-07         0.48894E-20         0.00000E+00
    0.44635E-07         0.11642E-19         0.00000E+00
    0.43991E-07         0.11642E-19         0.00000E+00
    0.43336E-07        -0.12107E-19         0.00000E+00
    0.42674E-07        -0.29802E-19         0.00000E+00
    0.42007E-07        -0.22119E-19         0.00000E+00
    0.41338E-07         0.18626E-20         0.00000E+00
    0.40669E-07         0.93132E-21         0.00000E+00
    0.40002E-07         0.46566E-20         0.00000E+00
    0.39340E-07         0.13039E-19         0.00000E+00
    0.38684E-07        -0.12107E-19         0.00000E+00
    0.38036E-07        -0.32596E-20         0.00000E+00
    0.37398E-07         0.74506E-20         0.00000E+00
    0.36771E-07        -0.37253E-20         0.00000E+00
    0.36157E-07        -0.16298E-20         0.00000E+00
    0.35556E-07         0.16298E-20         0.00000E+00
    0.34970E-07        -0.46566E-21         0.00000E+00
    0.34400E-07        -0.27940E-20         0.00000E+00
    0.33847E-07        -0.13970E-20         0.00000E+00
    0.33311E-07        -0.83819E-20         0.00000E+00
    0.32794E-07        -0.62864E-20         0.00000E+00
    0.32295E-07         0.44238E-20         0.00000E+00
    0.31817E-07         0.69849E-21         0.00000E+00
    0.31359E-07        -0.12340E-19         0.00000E+00
    0.30921E-07        -0.23283E-20         0.00000E+00
    0.30505E-07         0.18626E-19         0.00000E+00
    0.30110E-07         0.10943E-19         0.00000E+00
    0.29737E-07         0.51223E-20         0.00000E+00
    0.29387E-07         0.22585E-19         0.00000E+00
    0.29059E-07         0.10943E-19         0.00000E+00
    0.28754E-07         0.60536E-20         0.00000E+00
    0.28472E-07         0.11642E-19         0.00000E+00
    0.28212E-07         0.10710E-19         0.00000E+00
    0.27977E-07         0.10245E-19         0.00000E+00
    0.27764E-07        -0.11409E-19         0.00000E+00
    0.27575E-07        -0.55879E-20         0.00000E+00
    0.27409E-07        -0.79162E-20         0.00000E+00
    0.27267E-07        -0.62864E-20         0.00000E+00
    0.27148E-07        -0.23283E-21         0.00000E+00
    0.27053E-07         0.88476E-20         0.00000E+00
    0.26981E-07         0.88476E-20         0.00000E+00
    0.26932E-07         0.20955E-20         0.00000E+00
    0.26907E-07        -0.10477E-19         0.00000E+00
    0.26904E-07         0.41910E-20         0.00000E+00
    0.26925E-07         0.20023E-19         0.00000E+00
    0.26968E-07        -0.83819E-20         0.00000E+00
    0.27034E-07        -0.18626E-19         0.00000E+00
    0.27122E-07        -0.12573E-19         0.00000E+00
    0.27232E-07        -0.12806E-19         0.00000E+00
    0.27364E-07        -0.18626E-19         0.00000E+00
    0.27518E-07        -0.11176E-19         0.00000E+00
    0.27693E-07        -0.69849E-21         0.00000E+00
    0.27888E-07        -0.93132E-21         0.00000E+00
    0.28104E-07        -0.20955E-20         0.00000E+00
    0.28340E-07         0.67521E-20         0.00000E+00
    0.28595E-07         0.95461E-20         0.00000E+00
    0.28869E-07         0.10710E-19         0.00000E+00
    0.29161E-07         0.17229E-19         0.00000E+00
    0.29471E-07         0.20489E-19         0.00000E+00
    0.29797E-07         0.30734E-19         0.00000E+00
    0.30140E-07         0.27474E-19         0.00000E+00
    0.30498E-07         0.17462E-19         0.00000E+00
    0.30870E-07         0.15367E-19         0.00000E+00
    0.31256E-07         0.32596E-19         0.00000E+00
    0.31654E-07         0.23050E-19         0.00000E+00
    0.32063E-07         0.33528E-19         0.00000E+00
    0.32482E-07         0.52620E-19         0.00000E+00
    0.32910E-07         0.21420E-19         0.00000E+00
    0.33344E-07         0.39581E-20         0.00000E+00
    0.33784E-07         0.10477E-19         0.00000E+00
    0.34228E-07         0.25146E-19         0.00000E+00
    0.34674E-07         0.37951E-19         0.00000E+00
    0.35119E-07         0.46333E-19         0.00000E+00
    0.35562E-07         0.37719E-19         0.00000E+00
    0.36001E-07         0.23050E-19         0.00000E+00
    0.36432E-07         0.22585E-19         0.00000E+00
    0.36853E-07         0.18743E-19         0.00000E+00
    0.37262E-07         0.31316E-19         0.00000E+00
    0.37654E-07         0.27474E-19         0.00000E+00
    0.38028E-07         0.14086E-19         0.00000E+00
    0.38378E-07         0.18626E-19         0.00000E+00
    0.38702E-07         0.17579E-19         0.00000E+00
    0.38994E-07         0.26776E-19         0.00000E+00
    0.39251E-07         0.33062E-19         0.00000E+00
    0.39467E-07         0.23050E-19         0.00000E+00
    0.39638E-07         0.15018E-19         0.00000E+00
    0.39757E-07         0.21071E-19         0.00000E+00
    0.39820E-07         0.72177E-20         0.00000E+00
    0.50106E-07         0.29802E-19         0.00000E+00
    0.50019E-07         0.35623E-19         0.00000E+00
    0.49851E-07         0.35856E-19         0.00000E+00
    0.49611E-07         0.59139E-19         0.00000E+00
    0.49306E-07         0.53784E-19         0.00000E+00
    0.48943E-07         0.30501E-19         0.00000E+00
    0.48529E-07         0.30966E-19         0.00000E+00
    0.48069E-07         0.31199E-19         0.00000E+00
    0.47568E-07        -0.18394E-19         0.00000E+00
    0.47033E-07         0.11642E-20         0.00000E+00
    0.46468E-07         0.18161E-19         0.00000E+00
    0.45877E-07         0.18394E-19         0.00000E+00
    0.45265E-07         0.14668E-19         0.00000E+00
    0.44635E-07         0.17695E-19         0.00000E+00
    0.43991E-07         0.13504E-19         0.00000E+00
    0.43336E-07        -0.27474E-19         0.00000E+00
    0.42674E-07        -0.10245E-19         0.00000E+00
    0.42007E-07        -0.13271E-19         0.00000E+00
    0.41338E-07        -0.16298E-20         0.00000E+00
    0.40669E-07         0.24214E-19         0.00000E+00
    0.40002E-07         0.13039E-19         0.00000E+00
    0.39340E-07        -0.69849E-20         0.00000E+00
    0.38684E-07        -0.79162E-20         0.00000E+00
    0.38036E-07        -0.12573E-19         0.00000E+00
    0.37398E-07        -0.14668E-19         0.00000E+00
    0.36771E-07         0.37253E-20         0.00000E+00
    0.36157E-07         0.37253E-20         0.00000E+00
    0.35556E-07         0.39581E-20         0.00000E+00
    0.34970E-07         0.12806E-19         0.00000E+00
    0.34400E-07        -0.83819E-20         0.00000E+00
    0.33847E-07        -0.60536E-20         0.00000E+00
    0.33311E-07        -0.10245E-19         0.00000E+00
    0.32794E-07         0.26776E-19         0.00000E+00
    0.32295E-07         0.46100E-19         0.00000E+00
    0.31817E-07        -0.51223E-20         0.00000E+00
    0.31359E-07         0.69849E-21         0.00000E+00
    0.30921E-07         0.79162E-20         0.00000E+00
    0.30505E-07         0.93132E-21         0.00000E+00
    0.30110E-07         0.30268E-20         0.00000E+00
    0.29737E-07        -0.13039E-19         0.00000E+00
    0.29387E-07        -0.23283E-21         0.00000E+00
    0.29059E-07        -0.72177E-20         0.00000E+00
    0.28754E-07        -0.32596E-20         0.00000E+00
    0.28472E-07         0.20955E-20         0.00000E+00
    0.28212E-07        -0.25844E-19         0.00000E+00
    0.27977E-07        -0.13970E-19         0.00000E+00
    0.27764E-07        -0.10477E-19         0.00000E+00
    0.27575E-07        -0.21886E-19         0.00000E+00
    0.27409E-07        -0.33062E-19         0.00000E+00
    0.27267E-07        -0.23749E-19         0.00000E+00
    0.27148E-07        -0.18626E-19         0.00000E+00
    0.27053E-07        -0.20955E-19         0.00000E+00
    0.26981E-07        -0.12573E-19         0.00000E+00
    0.26932E-07        -0.17462E-19         0.00000E+00
    0.26907E-07        -0.30268E-19         0.00000E+00
    0.26904E-07        -0.15600E-19         0.00000E+00
    0.26925E-07        -0.13737E-19         0.00000E+00
    0.26968E-07        -0.27474E-19         0.00000E+00
    0.27034E-07        -0.22119E-19         0.00000E+00
    0.27122E-07        -0.30966E-19         0.00000E+00
    0.27232E-07        -0.19325E-19         0.00000E+00
    0.27364E-07        -0.16997E-19         0.00000E+00
    0.27518E-07        -0.29802E-19         0.00000E+00
    0.27693E-07        -0.40047E-19         0.00000E+00
    0.27888E-07        -0.35856E-19         0.00000E+00
    0.28104E-07        -0.18161E-19         0.00000E+00
    0.28340E-07        -0.21653E-19         0.00000E+00
    0.28595E-07        -0.25611E-20         0.00000E+00
    0.28869E-07        -0.17229E-19         0.00000E+00
    0.29161E-07        -0.21420E-19         0.00000E+00
    0.29471E-07         0.24214E-19         0.00000E+00
    0.29797E-07         0.24214E-19         0.00000E+00
    0.30140E-07         0.11176E-19         0.00000E+00
    0.30498E-07         0.23050E-19         0.00000E+00
    0.30870E-07         0.32131E-19         0.00000E+00
    0.31256E-07         0.26543E-19         0.00000E+00
    0.31654E-07         0.17928E-19         0.00000E+00
    0.32063E-07         0.97789E-20         0.00000E+00
    0.32482E-07         0.31665E-19         0.00000E+00
    0.32910E-07         0.26776E-19         0.00000E+00
    0.33344E-07         0.19325E-19         0.00000E+00
    0.33784E-07         0.20722E-19         0.00000E+00
    0.34228E-07         0.27940E-20         0.00000E+00
    0.34674E-07         0.22817E-19         0.00000E+00
    0.35119E-07         0.22817E-19         0.00000E+00
    0.35562E-07         0.16065E-19         0.00000E+00
    0.36001E-07         0.33993E-19         0.00000E+00
    0.36432E-07         0.17229E-19         0.00000E+00
    0.36853E-07         0.33760E-20         0.00000E+00
    0.37262E-07         0.29453E-19         0.00000E+00
    0.37654E-07         0.39930E-19         0.00000E+00
    0.38028E-07         0.26310E-19         0.00000E+00
    0.38378E-07         0.30734E-19         0.00000E+00
    0.38702E-07         0.11874E-19         0.00000E+00
    0.38994E-07         0.86147E-20         0.00000E+00
    0.39251E-07         0.34925E-20         0.00000E+00
    0.39467E-07        -0.14901E-19         0.00000E+00
    0.39638E-07        -0.34925E-20         0.00000E+00
    0.39757E-07         0.80327E-20         0.00000E+00
    0.39820E-07         0.11059E-19         0.00000E+00
    0.50106E-07        -0.37253E-20         0.00000E+00
    0.50019E-07         0.67521E-20         0.00000E+00
    0.49851E-07         0.28871E-19         0.00000E+00
    0.49611E-07         0.55414E-19         0.00000E+00
    0.49306E-07         0.52620E-19         0.00000E+00
    0.48943E-07         0.36554E-19         0.00000E+00
    0.48529E-07         0.49127E-19         0.00000E+00
    0.48069E-07         0.27940E-19         0.00000E+00
    0.47568E-07         0.14435E-19         0.00000E+00
    0.47033E-07         0.14435E-19         0.00000E+00
    0.46468E-07         0.13271E-19         0.00000E+00
    0.45877E-07        -0.11409E-19         0.00000E+00
    0.45265E-07         0.12573E-19         0.00000E+00
    0.44635E-07         0.22352E-19         0.00000E+00
    0.43991E-07        -0.21886E-19         0.00000E+00
    0.43336E-07        -0.13039E-19         0.00000E+00
    0.42674E-07        -0.15134E-19         0.00000E+00
    0.42007E-07        -0.15832E-19         0.00000E+00
    0.41338E-07         0.86147E-20         0.00000E+00
    0.40669E-07         0.69849E-20         0.00000E+00
    0.40002E-07         0.12573E-19         0.00000E+00
    0.39340E-07         0.81491E-20         0.00000E+00
    0.38684E-07        -0.51223E-20         0.00000E+00
    0.38036E-07        -0.11642E-19         0.00000E+00
    0.37398E-07        -0.16065E-19         0.00000E+00
    0.36771E-07        -0.33528E-19         0.00000E+00
    0.36157E-07        -0.19325E-19         0.00000E+00
    0.35556E-07         0.44238E-20         0.00000E+00
    0.34970E-07        -0.69849E-21         0.00000E+00
    0.34400E-07        -0.17928E-19         0.00000E+00
    0.33847E-07        -0.88476E-20         0.00000E+00
    0.33311E-07        -0.13039E-19         0.00000E+00
    0.32794E-07        -0.11874E-19         0.00000E+00
    0.32295E-07         0.90804E-20         0.00000E+00
    0.31817E-07         0.32596E-20         0.00000E+00
    0.31359E-07         0.30268E-20         0.00000E+00
    0.30921E-07        -0.17695E-19         0.00000E+00
    0.30505E-07        -0.11176E-19         0.00000E+00
    0.30110E-07        -0.95461E-20         0.00000E+00
    0.29737E-07        -0.33062E-19         0.00000E+00
    0.29387E-07        -0.26310E-19         0.00000E+00
    0.29059E-07        -0.10245E-19         0.00000E+00
    0.28754E-07        -0.21188E-19         0.00000E+00
    0.28472E-07        -0.10943E-19         0.00000E+00
    0.28212E-07        -0.16298E-19         0.00000E+00
    0.27977E-07        -0.36787E-19         0.00000E+00
    0.27764E-07        -0.35623E-19         0.00000E+00
    0.27575E-07        -0.27474E-19         0.00000E+00
    0.27409E-07        -0.24680E-19         0.00000E+00
    0.27267E-07        -0.15367E-19         0.00000E+00
    0.27148E-07        -0.10943E-19         0.00000E+00
    0.27053E-07        -0.10710E-19         0.00000E+00
    0.26981E-07        -0.10943E-19         0.00000E+00
    0.26932E-07        -0.38417E-19         0.00000E+00
    0.26907E-07        -0.33993E-19         0.00000E+00
    0.26904E-07        -0.27940E-19         0.00000E+00
    0.26925E-07        -0.44703E-19         0.00000E+00
    0.26968E-07        -0.33528E-19         0.00000E+00
    0.27034E-07        -0.16997E-19         0.00000E+00
    0.27122E-07        -0.23050E-19         0.00000E+00
    0.27232E-07        -0.31665E-19         0.00000E+00
    0.27364E-07        -0.35856E-19         0.00000E+00
    0.27518E-07        -0.46566E-19         0.00000E+00
    0.27693E-07        -0.28638E-19         0.00000E+00
    0.27888E-07        -0.20256E-19         0.00000E+00
    0.28104E-07        -0.31432E-19         0.00000E+00
    0.28340E-07        -0.90804E-20         0.00000E+00
    0.28595E-07         0.37253E-20         0.00000E+00
    0.28869E-07        -0.46566E-20         0.00000E+00
    0.29161E-07         0.93132E-21         0.00000E+00
    0.29471E-07         0.11176E-19         0.00000E+00
    0.29797E-07         0.31199E-19         0.00000E+00
    0.30140E-07         0.25844E-19         0.00000E+00
    0.30498E-07         0.16997E-19         0.00000E+00
    0.30870E-07         0.16298E-19         0.00000E+00
    0.31256E-07         0.20023E-19         0.00000E+00
    0.31654E-07         0.19558E-19         0.00000E+00
    0.32063E-07         0.55879E-20         0.00000E+00
    0.32482E-07         0.23749E-19         0.00000E+00
    0.32910E-07         0.12573E-19         0.00000E+00
    0.33344E-07         0.18161E-19         0.00000E+00
    0.33784E-07         0.26776E-19         0.00000E+00
    0.34228E-07         0.17462E-19         0.00000E+00
    0.34674E-07         0.97789E-20         0.00000E+00
    0.35119E-07         0.12340E-19         0.00000E+00
    0.35562E-07         0.24447E-19         0.00000E+00
    0.36001E-07         0.97789E-20         0.00000E+00
    0.36432E-07         0.27940E-19         0.00000E+00
    0.36853E-07         0.30734E-19         0.00000E+00
    0.37262E-07         0.26426E-19         0.00000E+00
    0.37654E-07         0.33760E-19         0.00000E+00
    0.38028E-07         0.38650E-19         0.00000E+00
    0.38378E-07         0.21537E-19         0.00000E+00
    0.38702E-07         0.15367E-19         0.00000E+00
    0.38994E-07         0.23050E-19         0.00000E+00
    0.39251E-07         0.30268E-19         0.00000E+00
    0.39467E-07         0.19558E-19         0.00000E+00
    0.39638E-07         0.19209E-19         0.00000E+00
    0.39757E-07         0.20140E-19         0.00000E+00
    0.39820E-07         0.16298E-20         0.00000E+00
    0.50106E-07        -0.93132E-21         0.00000E+00
    0.50019E-07         0.27707E-19         0.00000E+00
    0.49851E-07         0.49360E-19         0.00000E+00
    0.49611E-07         0.34925E-19         0.00000E+00
    0.49306E-07         0.36787E-19         0.00000E+00
    0.48943E-07         0.22817E-19         0.00000E+00
    0.48529E-07         0.36554E-19         0.00000E+00
    0.48069E-07         0.57742E-19         0.00000E+00
    0.47568E-07         0.41677E-19         0.00000E+00
    0.47033E-07         0.23283E-21         0.00000E+00
    0.46468E-07         0.27940E-20         0.00000E+00
    0.45877E-07         0.27940E-19         0.00000E+00
    0.45265E-07         0.26543E-19         0.00000E+00
    0.44635E-07         0.13039E-19         0.00000E+00
    0.43991E-07         0.86147E-20         0.00000E+00
    0.43336E-07         0.23283E-20         0.00000E+00
    0.42674E-07         0.13039E-19         0.00000E+00
    0.42007E-07         0.60536E-20         0.00000E+00
    0.41338E-07        -0.86147E-20         0.00000E+00
    0.40669E-07         0.13970E-20         0.00000E+00
    0.40002E-07         0.15367E-19         0.00000E+00
    0.39340E-07         0.27474E-19         0.00000E+00
    0.38684E-07         0.18161E-19         0.00000E+00
    0.38036E-07        -0.32596E-20         0.00000E+00
    0.37398E-07        -0.76834E-20         0.00000E+00
    0.36771E-07        -0.11176E-19         0.00000E+00
    0.36157E-07        -0.58208E-20         0.00000E+00
    0.35556E-07         0.12340E-19         0.00000E+00
    0.34970E-07        -0.12573E-19         0.00000E+00
    0.34400E-07        -0.18859E-19         0.00000E+00
    0.33847E-07         0.16764E-19         0.00000E+00
    0.33311E-07         0.37719E-19         0.00000E+00
    0.32794E-07         0.18161E-19         0.00000E+00
    0.32295E-07         0.26776E-19         0.00000E+00
    0.31817E-07         0.21420E-19         0.00000E+00
    0.31359E-07         0.23283E-21         0.00000E+00
    0.30921E-07         0.55879E-20         0.00000E+00
    0.30505E-07        -0.27940E-20         0.00000E+00
    0.30110E-07         0.69849E-21         0.00000E+00
    0.29737E-07        -0.83819E-20         0.00000E+00
    0.29387E-07        -0.21420E-19         0.00000E+00
    0.29059E-07        -0.10012E-19         0.00000E+00
    0.28754E-07        -0.51223E-20         0.00000E+00
    0.28472E-07        -0.97789E-20         0.00000E+00
    0.28212E-07        -0.11874E-19         0.00000E+00
    0.27977E-07        -0.14901E-19         0.00000E+00
    0.27764E-07        -0.17462E-19         0.00000E+00
    0.27575E-07        -0.12573E-19         0.00000E+00
    0.27409E-07        -0.55879E-20         0.00000E+00
    0.27267E-07        -0.15134E-19         0.00000E+00
    0.27148E-07        -0.39581E-20         0.00000E+00
    0.27053E-07        -0.12573E-19         0.00000E+00
    0.26981E-07        -0.22119E-19         0.00000E+00
    0.26932E-07        -0.19092E-19         0.00000E+00
    0.26907E-07        -0.22817E-19         0.00000E+00
    0.26904E-07        -0.18394E-19         0.00000E+00
    0.26925E-07        -0.27940E-19         0.00000E+00
    0.26968E-07        -0.20023E-19         0.00000E+00
    0.27034E-07        -0.24680E-19         0.00000E+00
    0.27122E-07        -0.40513E-19         0.00000E+00
    0.27232E-07        -0.34692E-19         0.00000E+00
    0.27364E-07        -0.43306E-19         0.00000E+00
    0.27518E-07        -0.40513E-19         0.00000E+00
    0.27693E-07        -0.25146E-19         0.00000E+00
    0.27888E-07        -0.24447E-19         0.00000E+00
    0.28104E-07        -0.30035E-19         0.00000E+00
    0.28340E-07        -0.18859E-19         0.00000E+00
    0.28595E-07        -0.22817E-19         0.00000E+00
    0.28869E-07        -0.28405E-19         0.00000E+00
    0.29161E-07        -0.46566E-21         0.00000E+00
    0.29471E-07        -0.46566E-21         0.00000E+00
    0.29797E-07         0.93132E-20         0.00000E+00
    0.30140E-07         0.29802E-19         0.00000E+00
    0.30498E-07         0.11176E-19         0.00000E+00
    0.30870E-07         0.48894E-20         0.00000E+00
    0.31256E-07         0.11176E-19         0.00000E+00
    0.31654E-07         0.34925E-20         0.00000E+00
    0.32063E-07         0.16298E-20         0.00000E+00
    0.32482E-07         0.13039E-19         0.00000E+00
    0.32910E-07         0.69849E-20         0.00000E+00
    0.33344E-07        -0.39581E-20         0.00000E+00
    0.33784E-07         0.25611E-20         0.00000E+00
    0.34228E-07         0.16997E-19         0.00000E+00
    0.34674E-07         0.13970E-19         0.00000E+00
    0.35119E-07         0.11176E-19         0.00000E+00
    0.35562E-07         0.15367E-19         0.00000E+00
    0.36001E-07         0.15134E-19         0.00000E+00
    0.36432E-07         0.16531E-19         0.00000E+00
    0.36853E-07         0.23167E-19         0.00000E+00
    0.37262E-07         0.16298E-19         0.00000E+00
    0.37654E-07        -0.34925E-20         0.00000E+00
    0.38028E-07         0.21071E-19         0.00000E+00
    0.38378E-07         0.36089E-19         0.00000E+00
    0.38702E-07         0.29919E-19         0.00000E+00
    0.38994E-07         0.18626E-19         0.00000E+00
    0.39251E-07         0.13970E-20         0.00000E+00
    0.39467E-07         0.10012E-19         0.00000E+00
    0.39638E-07         0.74506E-20         0.00000E+00
    0.39757E-07         0.82655E-20         0.00000E+00
    0.39820E-07         0.57044E-20         0.00000E+00
    0.50106E-07        -0.74506E-20         0.00000E+00
    0.50019E-07         0.25844E-19         0.00000E+00
    0.49851E-07         0.50757E-19         0.00000E+00
    0.49611E-07         0.23283E-19         0.00000E+00
    0.49306E-07         0.33528E-19         0.00000E+00
    0.48943E-07         0.51456E-19         0.00000E+00
    0.48529E-07        -0.11642E-20         0.00000E+00
    0.48069E-07         0.14901E-19         0.00000E+00
    0.47568E-07         0.53784E-19         0.00000E+00
    0.47033E-07         0.20256E-19         0.00000E+00
    0.46468E-07         0.39581E-20         0.00000E+00
    0.45877E-07        -0.32596E-20         0.00000E+00
    0.45265E-07         0.11176E-19         0.00000E+00
    0.44635E-07         0.11642E-19         0.00000E+00
    0.43991E-07         0.21188E-19         0.00000E+00
    0.43336E-07         0.14668E-19         0.00000E+00
    0.42674E-07        -0.25611E-20         0.00000E+00
    0.42007E-07         0.18626E-20         0.00000E+00
    0.41338E-07        -0.88476E-20         0.00000E+00
    0.40669E-07        -0.13970E-20         0.00000E+00
    0.40002E-07         0.15600E-19         0.00000E+00
    0.39340E-07         0.18161E-19         0.00000E+00
    0.38684E-07        -0.13970E-20         0.00000E+00
    0.38036E-07        -0.21420E-19         0.00000E+00
    0.37398E-07        -0.23982E-19         0.00000E+00
    0.36771E-07        -0.12806E-19         0.00000E+00
    0.36157E-07         0.13970E-19         0.00000E+00
    0.35556E-07         0.18394E-19         0.00000E+00
    0.34970E-07         0.69849E-20         0.00000E+00
    0.34400E-07         0.30268E-20         0.00000E+00
    0.33847E-07         0.27940E-20         0.00000E+00
    0.33311E-07         0.41910E-20         0.00000E+00
    0.32794E-07         0.15367E-19         0.00000E+00
    0.32295E-07         0.27940E-19         0.00000E+00
    0.31817E-07         0.24680E-19         0.00000E+00
    0.31359E-07         0.97789E-20         0.00000E+00
    0.30921E-07         0.69849E-20         0.00000E+00
    0.30505E-07        -0.10710E-19         0.00000E+00
    0.30110E-07        -0.16997E-19         0.00000E+00
    0.29737E-07         0.13271E-19         0.00000E+00
    0.29387E-07        -0.25611E-20         0.00000E+00
    0.29059E-07        -0.14668E-19         0.00000E+00
    0.28754E-07         0.18626E-20         0.00000E+00
    0.28472E-07        -0.18394E-19         0.00000E+00
    0.28212E-07        -0.23516E-19         0.00000E+00
    0.27977E-07        -0.20023E-19         0.00000E+00
    0.27764E-07        -0.17695E-19         0.00000E+00
    0.27575E-07        -0.30734E-19         0.00000E+00
    0.27409E-07        -0.29337E-19         0.00000E+00
    0.27267E-07        -0.17462E-19         0.00000E+00
    0.27148E-07        -0.25611E-20         0.00000E+00
    0.27053E-07        -0.74506E-20         0.00000E+00
    0.26981E-07        -0.97789E-20         0.00000E+00
    0.26932E-07        -0.14901E-19         0.00000E+00
    0.26907E-07        -0.33062E-19         0.00000E+00
    0.26904E-07        -0.29802E-19         0.00000E+00
    0.26925E-07        -0.23050E-19         0.00000E+00
    0.26968E-07        -0.17695E-19         0.00000E+00
    0.27034E-07        -0.35623E-19         0.00000E+00
    0.27122E-07        -0.46566E-19         0.00000E+00
    0.27232E-07        -0.54948E-19         0.00000E+00
    0.27364E-07        -0.49593E-19         0.00000E+00
    0.27518E-07        -0.37719E-19         0.00000E+00
    0.27693E-07        -0.36787E-19         0.00000E+00
    0.27888E-07        -0.23749E-19         0.00000E+00
    0.28104E-07        -0.10245E-19         0.00000E+00
    0.28340E-07        -0.23516E-19         0.00000E+00
    0.28595E-07        -0.33760E-19         0.00000E+00
    0.28869E-07        -0.13039E-19         0.00000E+00
    0.29161E-07        -0.10245E-19         0.00000E+00
    0.29471E-07        -0.60536E-20         0.00000E+00
    0.29797E-07        -0.60536E-20         0.00000E+00
    0.30140E-07         0.46566E-20         0.00000E+00
    0.30498E-07         0.14203E-19         0.00000E+00
    0.30870E-07         0.21420E-19         0.00000E+00
    0.31256E-07         0.18859E-19         0.00000E+00
    0.31654E-07         0.46566E-20         0.00000E+00
    0.32063E-07        -0.27940E-20         0.00000E+00
    0.32482E-07        -0.19558E-19         0.00000E+00
    0.32910E-07         0.32596E-20         0.00000E+00
    0.33344E-07         0.18859E-19         0.00000E+00
    0.33784E-07         0.86147E-20         0.00000E+00
    0.34228E-07         0.37253E-20         0.00000E+00
    0.34674E-07         0.15367E-19         0.00000E+00
    0.35119E-07         0.22119E-19         0.00000E+00
    0.35562E-07         0.15832E-19         0.00000E+00
    0.36001E-07         0.30035E-19         0.00000E+00
    0.36432E-07         0.34459E-19         0.00000E+00
    0.36853E-07         0.23283E-19         0.00000E+00
    0.37262E-07         0.20373E-19         0.00000E+00
    0.37654E-07         0.19441E-19         0.00000E+00
    0.38028E-07         0.36671E-19         0.00000E+00
    0.38378E-07         0.39232E-19         0.00000E+00
    0.38702E-07         0.27125E-19         0.00000E+00
    0.38994E-07         0.24331E-19         0.00000E+00
    0.39251E-07         0.29569E-19         0.00000E+00
    0.39467E-07         0.23982E-19         0.00000E+00
    0.39638E-07        -0.61700E-20         0.00000E+00
    0.39757E-07         0.29104E-20         0.00000E+00
    0.39820E-07         0.15018E-19         0.00000E+00
    0.50106E-07        -0.11176E-19         0.00000E+00
    0.50019E-07        -0.62864E-20         0.00000E+00
    0.49851E-07         0.34459E-19         0.00000E+00
    0.49611E-07         0.45635E-19         0.00000E+00
    0.49306E-07         0.38184E-19         0.00000E+00
    0.48943E-07         0.21653E-19         0.00000E+00
    0.48529E-07         0.13737E-19         0.00000E+00
    0.48069E-07         0.37253E-20         0.00000E+00
    0.47568E-07         0.25611E-20         0.00000E+00
    0.47033E-07         0.24913E-19         0.00000E+00
    0.46468E-07         0.22352E-19         0.00000E+00
    0.45877E-07         0.93132E-20         0.00000E+00
    0.45265E-07         0.19558E-19         0.00000E+00
    0.44635E-07         0.30268E-20         0.00000E+00
    0.43991E-07        -0.36554E-19         0.00000E+00
    0.43336E-07         0.23283E-20         0.00000E+00
    0.42674E-07         0.41444E-19         0.00000E+00
    0.42007E-07         0.47265E-19         0.00000E+00
    0.41338E-07         0.74506E-20         0.00000E+00
    0.40669E-07        -0.22817E-19         0.00000E+00
    0.40002E-07         0.72177E-20         0.00000E+00
    0.39340E-07         0.60536E-20         0.00000E+00
    0.38684E-07        -0.65193E-20         0.00000E+00
    0.38036E-07        -0.18161E-19         0.00000E+00
    0.37398E-07        -0.25146E-19         0.00000E+00
    0.36771E-07        -0.14203E-19         0.00000E+00
    0.36157E-07         0.13970E-20         0.00000E+00
    0.35556E-07         0.76834E-20         0.00000E+00
    0.34970E-07         0.23283E-20         0.00000E+00
    0.34400E-07        -0.12340E-19         0.00000E+00
    0.33847E-07        -0.12107E-19         0.00000E+00
    0.33311E-07         0.13504E-19         0.00000E+00
    0.32794E-07         0.12573E-19         0.00000E+00
    0.32295E-07         0.11409E-19         0.00000E+00
    0.31817E-07         0.14435E-19         0.00000E+00
    0.31359E-07         0.16531E-19         0.00000E+00
    0.30921E-07         0.93132E-20         0.00000E+00
    0.30505E-07        -0.23283E-20         0.00000E+00
    0.30110E-07        -0.15832E-19         0.00000E+00
    0.29737E-07        -0.27474E-19         0.00000E+00
    0.29387E-07        -0.15832E-19         0.00000E+00
    0.29059E-07        -0.16997E-19         0.00000E+00
    0.28754E-07        -0.14901E-19         0.00000E+00
    0.28472E-07        -0.24680E-19         0.00000E+00
    0.28212E-07        -0.33993E-19         0.00000E+00
    0.27977E-07        -0.24680E-19         0.00000E+00
    0.27764E-07        -0.33993E-19         0.00000E+00
    0.27575E-07        -0.37486E-19         0.00000E+00
    0.27409E-07        -0.15134E-19         0.00000E+00
    0.27267E-07         0.11642E-20         0.00000E+00
    0.27148E-07        -0.39581E-20         0.00000E+00
    0.27053E-07        -0.13039E-19         0.00000E+00
    0.26981E-07        -0.12107E-19         0.00000E+00
    0.26932E-07        -0.19791E-19         0.00000E+00
    0.26907E-07        -0.25611E-19         0.00000E+00
    0.26904E-07        -0.40513E-19         0.00000E+00
    0.26925E-07        -0.23516E-19         0.00000E+00
    0.26968E-07        -0.20955E-20         0.00000E+00
    0.27034E-07        -0.21653E-19         0.00000E+00
    0.27122E-07        -0.41910E-19         0.00000E+00
    0.27232E-07        -0.47032E-19         0.00000E+00
    0.27364E-07        -0.40745E-19         0.00000E+00
    0.27518E-07        -0.25611E-19         0.00000E+00
    0.27693E-07        -0.74506E-20         0.00000E+00
    0.27888E-07        -0.18394E-19         0.00000E+00
    0.28104E-07        -0.23283E-21         0.00000E+00
    0.28340E-07        -0.69849E-21         0.00000E+00
    0.28595E-07        -0.26543E-19         0.00000E+00
    0.28869E-07        -0.88476E-20         0.00000E+00
    0.29161E-07        -0.23283E-20         0.00000E+00
    0.29471E-07        -0.18626E-20         0.00000E+00
    0.29797E-07         0.00000E+00         0.00000E+00
    0.30140E-07        -0.76834E-20         0.00000E+00
    0.30498E-07        -0.65193E-20         0.00000E+00
    0.30870E-07         0.53551E-20         0.00000E+00
    0.31256E-07         0.15367E-19         0.00000E+00
    0.31654E-07         0.16997E-19         0.00000E+00
    0.32063E-07        -0.23283E-20         0.00000E+00
    0.32482E-07        -0.14435E-19         0.00000E+00
    0.32910E-07         0.13504E-19         0.00000E+00
    0.33344E-07         0.74506E-20         0.00000E+00
    0.33784E-07         0.90804E-20         0.00000E+00
    0.34228E-07         0.28871E-19         0.00000E+00
    0.34674E-07         0.13271E-19         0.00000E+00
    0.35119E-07        -0.13970E-20         0.00000E+00
    0.35562E-07         0.86147E-20         0.00000E+00
    0.36001E-07         0.15367E-19         0.00000E+00
    0.36432E-07         0.10943E-19         0.00000E+00
    0.36853E-07         0.10710E-19         0.00000E+00
    0.37262E-07         0.19674E-19         0.00000E+00
    0.37654E-07         0.23167E-19         0.00000E+00
    0.38028E-07         0.19092E-19         0.00000E+00
    0.38378E-07         0.47730E-20         0.00000E+00
    0.38702E-07         0.11525E-19         0.00000E+00
    0.38994E-07         0.37020E-19         0.00000E+00
    0.39251E-07         0.23982E-19         0.00000E+00
    0.39467E-07         0.31432E-20         0.00000E+00
    0.39638E-07        -0.90804E-20         0.00000E+00
    0.39757E-07        -0.74506E-20         0.00000E+00
    0.39820E-07        -0.69849E-21         0.00000E+00
    0.50106E-07        -0.74506E-20         0.00000E+00
    0.50019E-07         0.11176E-19         0.00000E+00
    0.49851E-07         0.13970E-19         0.00000E+00
    0.49611E-07         0.30035E-19         0.00000E+00
    0.49306E-07         0.49593E-19         0.00000E+00
    0.48943E-07         0.38883E-19         0.00000E+00
    0.48529E-07         0.61234E-19         0.00000E+00
    0.48069E-07         0.27474E-19         0.00000E+00
    0.47568E-07         0.29104E-19         0.00000E+00
    0.47033E-07         0.27241E-19         0.00000E+00
    0.46468E-07        -0.20955E-20         0.00000E+00
    0.45877E-07         0.17229E-19         0.00000E+00
    0.45265E-07         0.31199E-19         0.00000E+00
    0.44635E-07         0.13970E-19         0.00000E+00
    0.43991E-07         0.17462E-19         0.00000E+00
    0.43336E-07         0.29104E-19         0.00000E+00
    0.42674E-07         0.19325E-19         0.00000E+00
    0.42007E-07         0.55879E-20         0.00000E+00
    0.41338E-07        -0.53551E-20         0.00000E+00
    0.40669E-07         0.37253E-20         0.00000E+00
    0.40002E-07        -0.46566E-20         0.00000E+00
    0.39340E-07         0.65193E-20         0.00000E+00
    0.38684E-07         0.21886E-19         0.00000E+00
    0.38036E-07         0.67521E-20         0.00000E+00
    0.37398E-07        -0.34925E-20         0.00000E+00
    0.36771E-07        -0.62864E-20         0.00000E+00
    0.36157E-07         0.16298E-20         0.00000E+00
    0.35556E-07         0.34925E-20         0.00000E+00
    0.34970E-07         0.13970E-20         0.00000E+00
    0.34400E-07        -0.23283E-21         0.00000E+00
    0.33847E-07        -0.41910E-20         0.00000E+00
    0.33311E-07        -0.58208E-20         0.00000E+00
    0.32794E-07        -0.10943E-19         0.00000E+00
    0.32295E-07        -0.27940E-20         0.00000E+00
    0.31817E-07         0.22352E-19         0.00000E+00
    0.31359E-07         0.14203E-19         0.00000E+00
    0.30921E-07        -0.93132E-20         0.00000E+00
    0.30505E-07        -0.16997E-19         0.00000E+00
    0.30110E-07        -0.97789E-20         0.00000E+00
    0.29737E-07        -0.18394E-19         0.00000E+00
    0.29387E-07        -0.26077E-19         0.00000E+00
    0.29059E-07        -0.31898E-19         0.00000E+00
    0.28754E-07        -0.38883E-19         0.00000E+00
    0.28472E-07        -0.31432E-19         0.00000E+00
    0.28212E-07        -0.33295E-19         0.00000E+00
    0.27977E-07        -0.25146E-19         0.00000E+00
    0.27764E-07        -0.49593E-19         0.00000E+00
    0.27575E-07        -0.57509E-19         0.00000E+00
    0.27409E-07        -0.47032E-19         0.00000E+00
    0.27267E-07        -0.21188E-19         0.00000E+00
    0.27148E-07        -0.10477E-19         0.00000E+00
    0.27053E-07        -0.29337E-19         0.00000E+00
    0.26981E-07        -0.41444E-19         0.00000E+00
    0.26932E-07        -0.52620E-19         0.00000E+00
    0.26907E-07        -0.41444E-19         0.00000E+00
    0.26904E-07        -0.40978E-19         0.00000E+00
    0.26925E-07        -0.38883E-19         0.00000E+00
    0.26968E-07        -0.32131E-19         0.00000E+00
    0.27034E-07        -0.45868E-19         0.00000E+00
    0.27122E-07        -0.54948E-19         0.00000E+00
    0.27232E-07        -0.51456E-19         0.00000E+00
    0.27364E-07        -0.39116E-19         0.00000E+00
    0.27518E-07        -0.19092E-19         0.00000E+00
    0.27693E-07        -0.14668E-19         0.00000E+00
    0.27888E-07        -0.18626E-19         0.00000E+00
    0.28104E-07        -0.60536E-20         0.00000E+00
    0.28340E-07         0.18626E-20         0.00000E+00
    0.28595E-07        -0.19325E-19         0.00000E+00
    0.28869E-07        -0.90804E-20         0.00000E+00
    0.29161E-07         0.65193E-20         0.00000E+00
    0.29471E-07         0.55879E-20         0.00000E+00
    0.29797E-07        -0.18626E-20         0.00000E+00
    0.30140E-07         0.93132E-21         0.00000E+00
    0.30498E-07         0.83819E-20         0.00000E+00
    0.30870E-07        -0.81491E-20         0.00000E+00
    0.31256E-07        -0.10943E-19         0.00000E+00
    0.31654E-07        -0.44238E-20         0.00000E+00
    0.32063E-07        -0.93132E-21         0.00000E+00
    0.32482E-07        -0.79162E-20         0.00000E+00
    0.32910E-07        -0.74506E-20         0.00000E+00
    0.33344E-07        -0.65193E-20         0.00000E+00
    0.33784E-07         0.34925E-20         0.00000E+00
    0.34228E-07         0.18859E-19         0.00000E+00
    0.34674E-07         0.20722E-19         0.00000E+00
    0.35119E-07         0.13737E-19         0.00000E+00
    0.35562E-07         0.14901E-19         0.00000E+00
    0.36001E-07         0.33528E-19         0.00000E+00
    0.36432E-07         0.17695E-19         0.00000E+00
    0.36853E-07         0.80327E-20         0.00000E+00
    0.37262E-07         0.25029E-19         0.00000E+00
    0.37654E-07         0.21071E-19         0.00000E+00
    0.38028E-07         0.46566E-20         0.00000E+00
    0.38378E-07         0.32480E-19         0.00000E+00
    0.38702E-07         0.40629E-19         0.00000E+00
    0.38994E-07         0.26077E-19         0.00000E+00
    0.39251E-07         0.12107E-19         0.00000E+00
    0.39467E-07         0.19092E-19         0.00000E+00
    0.39638E-07         0.13388E-19         0.00000E+00
    0.39757E-07         0.94296E-20         0.00000E+00
    0.39820E-07         0.10594E-19         0.00000E+00
    0.50106E-07        -0.69849E-21         0.00000E+00
    0.50019E-07         0.67521E-20         0.00000E+00
    0.49851E-07         0.34459E-19         0.00000E+00
    0.49611E-07         0.52154E-19         0.00000E+00
    0.49306E-07         0.25611E-19         0.00000E+00
    0.48943E-07         0.22119E-19         0.00000E+00
    0.48529E-07         0.36554E-19         0.00000E+00
    0.48069E-07         0.19558E-19         0.00000E+00
    0.47568E-07         0.29802E-19         0.00000E+00
    0.47033E-07         0.17928E-19         0.00000E+00
    0.46468E-07         0.36322E-19         0.00000E+00
    0.45877E-07         0.40978E-19         0.00000E+00
    0.45265E-07        -0.86147E-20         0.00000E+00
    0.44635E-07         0.12107E-19         0.00000E+00
    0.43991E-07         0.33295E-19         0.00000E+00
    0.43336E-07         0.27940E-19         0.00000E+00
    0.42674E-07         0.16298E-19         0.00000E+00
    0.42007E-07         0.10245E-19         0.00000E+00
    0.41338E-07        -0.55879E-20         0.00000E+00
    0.40669E-07        -0.30268E-19         0.00000E+00
    0.40002E-07        -0.15367E-19         0.00000E+00
    0.39340E-07         0.23516E-19         0.00000E+00
    0.38684E-07         0.16298E-19         0.00000E+00
    0.38036E-07        -0.76834E-20         0.00000E+00
    0.37398E-07         0.20955E-20         0.00000E+00
    0.36771E-07         0.69849E-20         0.00000E+00
    0.36157E-07        -0.18394E-19         0.00000E+00
    0.35556E-07        -0.17928E-19         0.00000E+00
    0.34970E-07         0.69849E-21         0.00000E+00
    0.34400E-07        -0.15134E-19         0.00000E+00
    0.33847E-07        -0.34925E-20         0.00000E+00
    0.33311E-07         0.15832E-19         0.00000E+00
    0.32794E-07         0.13039E-19         0.00000E+00
    0.32295E-07        -0.79162E-20         0.00000E+00
    0.31817E-07         0.46566E-21         0.00000E+00
    0.31359E-07        -0.41910E-20         0.00000E+00
    0.30921E-07        -0.28638E-19         0.00000E+00
    0.30505E-07        -0.21420E-19         0.00000E+00
    0.30110E-07         0.18808E-36         0.00000E+00
    0.29737E-07         0.93132E-21         0.00000E+00
    0.29387E-07        -0.12573E-19         0.00000E+00
    0.29059E-07        -0.21188E-19         0.00000E+00
    0.28754E-07        -0.23050E-19         0.00000E+00
    0.28472E-07        -0.27474E-19         0.00000E+00
    0.28212E-07        -0.33760E-19         0.00000E+00
    0.27977E-07        -0.39348E-19         0.00000E+00
    0.27764E-07        -0.39814E-19         0.00000E+00
    0.27575E-07        -0.39581E-19         0.00000E+00
    0.27409E-07        -0.28871E-19         0.00000E+00
    0.27267E-07        -0.33295E-19         0.00000E+00
    0.27148E-07        -0.43306E-19         0.00000E+00
    0.27053E-07        -0.38883E-19         0.00000E+00
    0.26981E-07        -0.43772E-19         0.00000E+00
    0.26932E-07        -0.37951E-19         0.00000E+00
    0.26907E-07        -0.34925E-19         0.00000E+00
    0.26904E-07        -0.24913E-19         0.00000E+00
    0.26925E-07        -0.20489E-19         0.00000E+00
    0.26968E-07        -0.42375E-19         0.00000E+00
    0.27034E-07        -0.47497E-19         0.00000E+00
    0.27122E-07        -0.42841E-19         0.00000E+00
    0.27232E-07        -0.13737E-19         0.00000E+00
    0.27364E-07        -0.17928E-19         0.00000E+00
    0.27518E-07        -0.30966E-19         0.00000E+00
    0.27693E-07        -0.76834E-20         0.00000E+00
    0.27888E-07        -0.23283E-21         0.00000E+00
    0.28104E-07         0.37616E-36         0.00000E+00
    0.28340E-07         0.41910E-20         0.00000E+00
    0.28595E-07         0.18626E-20         0.00000E+00
    0.28869E-07        -0.93132E-21         0.00000E+00
    0.29161E-07         0.58208E-20         0.00000E+00
    0.29471E-07         0.10245E-19         0.00000E+00
    0.29797E-07         0.14203E-19         0.00000E+00
    0.30140E-07         0.51223E-20         0.00000E+00
    0.30498E-07        -0.23283E-20         0.00000E+00
    0.30870E-07        -0.32596E-20         0.00000E+00
    0.31256E-07        -0.19092E-19         0.00000E+00
    0.31654E-07        -0.74506E-20         0.00000E+00
    0.32063E-07        -0.13970E-20         0.00000E+00
    0.32482E-07        -0.27940E-20         0.00000E+00
    0.32910E-07         0.23283E-20         0.00000E+00
    0.33344E-07         0.15832E-19         0.00000E+00
    0.33784E-07         0.20256E-19         0.00000E+00
    0.34228E-07         0.60536E-20         0.00000E+00
    0.34674E-07         0.11176E-19         0.00000E+00
    0.35119E-07         0.16764E-19         0.00000E+00
    0.35562E-07         0.69849E-20         0.00000E+00
    0.36001E-07         0.18161E-19         0.00000E+00
    0.36432E-07         0.35623E-19         0.00000E+00
    0.36853E-07         0.26426E-19         0.00000E+00
    0.37262E-07         0.10710E-19         0.00000E+00
    0.37654E-07         0.15483E-19         0.00000E+00
    0.38028E-07         0.19907E-19         0.00000E+00
    0.38378E-07         0.30617E-19         0.00000E+00
    0.38702E-07         0.37253E-19         0.00000E+00
    0.38994E-07         0.23865E-19         0.00000E+00
    0.39251E-07         0.26077E-19         0.00000E+00
    0.39467E-07         0.30617E-19         0.00000E+00
    0.39638E-07         0.20955E-19         0.00000E+00
    0.39757E-07        -0.15949E-19         0.00000E+00
    0.39820E-07        -0.20140E-19         0.00000E+00
    0.50106E-07         0.00000E+00         0.00000E+00
    0.50019E-07         0.23283E-21         0.00000E+00
    0.49851E-07         0.30268E-19         0.00000E+00
    0.49611E-07         0.22119E-19         0.00000E+00
    0.49306E-07         0.23982E-19         0.00000E+00
    0.48943E-07         0.41677E-19         0.00000E+00
    0.48529E-07         0.44471E-19         0.00000E+00
    0.48069E-07         0.50059E-19         0.00000E+00
    0.47568E-07         0.37020E-19         0.00000E+00
    0.47033E-07         0.28638E-19         0.00000E+00
    0.46468E-07         0.21886E-19         0.00000E+00
    0.45877E-07         0.18626E-19         0.00000E+00
    0.45265E-07         0.14668E-19         0.00000E+00
    0.44635E-07         0.23050E-19         0.00000E+00
    0.43991E-07         0.12340E-19         0.00000E+00
    0.43336E-07         0.23982E-19         0.00000E+00
    0.42674E-07         0.14668E-19         0.00000E+00
    0.42007E-07         0.46566E-20         0.00000E+00
    0.41338E-07        -0.10245E-19         0.00000E+00
    0.40669E-07        -0.30501E-19         0.00000E+00
    0.40002E-07        -0.10710E-19         0.00000E+00
    0.39340E-07         0.14668E-19         0.00000E+00
    0.38684E-07         0.16065E-19         0.00000E+00
    0.38036E-07         0.16065E-19         0.00000E+00
    0.37398E-07         0.67521E-20         0.00000E+00
    0.36771E-07         0.16298E-19         0.00000E+00
    0.36157E-07         0.10477E-19         0.00000E+00
    0.35556E-07        -0.14203E-19         0.00000E+00
    0.34970E-07        -0.60536E-20         0.00000E+00
    0.34400E-07        -0.39581E-20         0.00000E+00
    0.33847E-07        -0.65193E-20         0.00000E+00
    0.33311E-07        -0.23283E-20         0.00000E+00
    0.32794E-07        -0.72177E-20         0.00000E+00
    0.32295E-07        -0.32596E-20         0.00000E+00
    0.31817E-07         0.11642E-19         0.00000E+00
    0.31359E-07         0.55879E-20         0.00000E+00
    0.30921E-07        -0.16298E-20         0.00000E+00
    0.30505E-07        -0.12107E-19         0.00000E+00
    0.30110E-07        -0.19092E-19         0.00000E+00
    0.29737E-07        -0.20955E-19         0.00000E+00
    0.29387E-07        -0.43074E-19         0.00000E+00
    0.29059E-07        -0.52387E-19         0.00000E+00
    0.28754E-07        -0.46333E-19         0.00000E+00
    0.28472E-07        -0.54017E-19         0.00000E+00
    0.28212E-07        -0.55647E-19         0.00000E+00
    0.27977E-07        -0.52620E-19         0.00000E+00
    0.27764E-07        -0.51456E-19         0.00000E+00
    0.27575E-07        -0.40978E-19         0.00000E+00
    0.27409E-07        -0.32596E-19         0.00000E+00
    0.27267E-07        -0.28173E-19         0.00000E+00
    0.27148E-07        -0.38883E-19         0.00000E+00
    0.27053E-07        -0.29802E-19         0.00000E+00
    0.26981E-07        -0.10245E-19         0.00000E+00
    0.26932E-07        -0.15134E-19         0.00000E+00
    0.26907E-07        -0.23749E-19         0.00000E+00
    0.26904E-07        -0.29802E-19         0.00000E+00
    0.26925E-07        -0.81491E-20         0.00000E+00
    0.26968E-07        -0.13737E-19         0.00000E+00
    0.27034E-07        -0.20955E-19         0.00000E+00
    0.27122E-07        -0.12806E-19         0.00000E+00
    0.27232E-07        -0.22352E-19         0.00000E+00
    0.27364E-07        -0.10943E-19         0.00000E+00
    0.27518E-07        -0.44238E-20         0.00000E+00
    0.27693E-07        -0.95461E-20         0.00000E+00
    0.27888E-07        -0.62864E-20         0.00000E+00
    0.28104E-07         0.13039E-19         0.00000E+00
    0.28340E-07         0.15832E-19         0.00000E+00
    0.28595E-07         0.72177E-20         0.00000E+00
    0.28869E-07        -0.17229E-19         0.00000E+00
    0.29161E-07        -0.74506E-20         0.00000E+00
    0.29471E-07         0.18161E-19         0.00000E+00
    0.29797E-07         0.95461E-20         0.00000E+00
    0.30140E-07        -0.46566E-21         0.00000E+00
    0.30498E-07         0.74506E-20         0.00000E+00
    0.30870E-07         0.15600E-19         0.00000E+00
    0.31256E-07         0.46566E-20         0.00000E+00
    0.31654E-07         0.11176E-19         0.00000E+00
    0.32063E-07         0.65193E-20         0.00000E+00
    0.32482E-07         0.11642E-19         0.00000E+00
    0.32910E-07         0.11642E-19         0.00000E+00
    0.33344E-07         0.12573E-19         0.00000E+00
    0.33784E-07         0.27707E-19         0.00000E+00
    0.34228E-07         0.26543E-19         0.00000E+00
    0.34674E-07         0.23050E-19         0.00000E+00
    0.35119E-07         0.16997E-19         0.00000E+00
    0.35562E-07         0.26310E-19         0.00000E+00
    0.36001E-07         0.20955E-19         0.00000E+00
    0.36432E-07         0.25844E-19         0.00000E+00
    0.36853E-07         0.36671E-19         0.00000E+00
    0.37262E-07         0.24680E-19         0.00000E+00
    0.37654E-07         0.13737E-19         0.00000E+00
    0.38028E-07         0.43074E-20         0.00000E+00
    0.38378E-07         0.84983E-20         0.00000E+00
    0.38702E-07         0.12224E-19         0.00000E+00
    0.38994E-07         0.15600E-19         0.00000E+00
    0.39251E-07         0.34692E-19         0.00000E+00
    0.39467E-07         0.24796E-19         0.00000E+00
    0.39638E-07         0.76834E-20         0.00000E+00
    0.39757E-07         0.26776E-20         0.00000E+00
    0.39820E-07        -0.33760E-20         0.00000E+00
    0.50106E-07         0.69849E-20         0.00000E+00
    0.50019E-07         0.69849E-21         0.00000E+00
    0.49851E-07        -0.20955E-20         0.00000E+00
    0.49611E-07         0.95461E-20         0.00000E+00
    0.49306E-07         0.26543E-19         0.00000E+00
    0.48943E-07         0.49593E-19         0.00000E+00
    0.48529E-07         0.61234E-19         0.00000E+00
    0.48069E-07         0.28638E-19         0.00000E+00
    0.47568E-07         0.46566E-20         0.00000E+00
    0.47033E-07         0.32829E-19         0.00000E+00
    0.46468E-07         0.35390E-19         0.00000E+00
    0.45877E-07         0.21886E-19         0.00000E+00
    0.45265E-07         0.88476E-20         0.00000E+00
    0.44635E-07         0.37253E-20         0.00000E+00
    0.43991E-07         0.19092E-19         0.00000E+00
    0.43336E-07         0.95461E-20         0.00000E+00
    0.42674E-07        -0.86147E-20         0.00000E+00
    0.42007E-07        -0.88476E-20         0.00000E+00
    0.41338E-07        -0.26310E-19         0.00000E+00
    0.40669E-07        -0.23283E-19         0.00000E+00
    0.40002E-07         0.95461E-20         0.00000E+00
    0.39340E-07         0.15367E-19         0.00000E+00
    0.38684E-07         0.10245E-19         0.00000E+00
    0.38036E-07        -0.10245E-19         0.00000E+00
    0.37398E-07        -0.30268E-20         0.00000E+00
    0.36771E-07        -0.25611E-20         0.00000E+00
    0.36157E-07        -0.41910E-20         0.00000E+00
    0.35556E-07        -0.34925E-20         0.00000E+00
    0.34970E-07        -0.10477E-19         0.00000E+00
    0.34400E-07         0.25611E-20         0.00000E+00
    0.33847E-07        -0.74506E-20         0.00000E+00
    0.33311E-07        -0.17462E-19         0.00000E+00
    0.32794E-07        -0.11874E-19         0.00000E+00
    0.32295E-07         0.18626E-19         0.00000E+00
    0.31817E-07         0.28871E-19         0.00000E+00
    0.31359E-07         0.12806E-19         0.00000E+00
    0.30921E-07        -0.11176E-19         0.00000E+00
    0.30505E-07        -0.16298E-19         0.00000E+00
    0.30110E-07        -0.23283E-19         0.00000E+00
    0.29737E-07        -0.37951E-19         0.00000E+00
    0.29387E-07        -0.33295E-19         0.00000E+00
    0.29059E-07        -0.30966E-19         0.00000E+00
    0.28754E-07        -0.35157E-19         0.00000E+00
    0.28472E-07        -0.41444E-19         0.00000E+00
    0.28212E-07        -0.54017E-19         0.00000E+00
    0.27977E-07        -0.70082E-19         0.00000E+00
    0.27764E-07        -0.58440E-19         0.00000E+00
    0.27575E-07        -0.58906E-19         0.00000E+00
    0.27409E-07        -0.52154E-19         0.00000E+00
    0.27267E-07        -0.32363E-19         0.00000E+00
    0.27148E-07        -0.29802E-19         0.00000E+00
    0.27053E-07        -0.20955E-19         0.00000E+00
    0.26981E-07        -0.14901E-19         0.00000E+00
    0.26932E-07        -0.20023E-19         0.00000E+00
    0.26907E-07        -0.30734E-19         0.00000E+00
    0.26904E-07        -0.31432E-19         0.00000E+00
    0.26925E-07        -0.28173E-19         0.00000E+00
    0.26968E-07        -0.20256E-19         0.00000E+00
    0.27034E-07        -0.13737E-19         0.00000E+00
    0.27122E-07        -0.12573E-19         0.00000E+00
    0.27232E-07         0.18626E-20         0.00000E+00
    0.27364E-07        -0.55879E-20         0.00000E+00
    0.27518E-07        -0.32596E-20         0.00000E+00
    0.27693E-07         0.17928E-19         0.00000E+00
    0.27888E-07         0.24913E-19         0.00000E+00
    0.28104E-07         0.25844E-19         0.00000E+00
    0.28340E-07         0.13271E-19         0.00000E+00
    0.28595E-07        -0.79162E-20         0.00000E+00
    0.28869E-07         0.55879E-20         0.00000E+00
    0.29161E-07         0.37253E-20         0.00000E+00
    0.29471E-07        -0.65193E-20         0.00000E+00
    0.29797E-07         0.60536E-20         0.00000E+00
    0.30140E-07         0.48894E-20         0.00000E+00
    0.30498E-07         0.16065E-19         0.00000E+00
    0.30870E-07         0.20256E-19         0.00000E+00
    0.31256E-07         0.74506E-20         0.00000E+00
    0.31654E-07         0.10943E-19         0.00000E+00
    0.32063E-07        -0.13970E-20         0.00000E+00
    0.32482E-07         0.46566E-20         0.00000E+00
    0.32910E-07         0.37253E-20         0.00000E+00
    0.33344E-07         0.15134E-19         0.00000E+00
    0.33784E-07         0.35157E-19         0.00000E+00
    0.34228E-07         0.17928E-19         0.00000E+00
    0.34674E-07         0.19558E-19         0.00000E+00
    0.35119E-07         0.19558E-19         0.00000E+00
    0.35562E-07         0.11409E-19         0.00000E+00
    0.36001E-07         0.13039E-19         0.00000E+00
    0.36432E-07         0.22585E-19         0.00000E+00
    0.36853E-07         0.34226E-19         0.00000E+00
    0.37262E-07         0.32014E-19         0.00000E+00
    0.37654E-07         0.36904E-19         0.00000E+00
    0.38028E-07         0.29220E-19         0.00000E+00
    0.38378E-07         0.18859E-19         0.00000E+00
    0.38702E-07         0.16764E-19         0.00000E+00
    0.38994E-07         0.26659E-19         0.00000E+00
    0.39251E-07         0.30966E-19         0.00000E+00
    0.39467E-07         0.27823E-19         0.00000E+00
    0.39638E-07         0.25728E-19         0.00000E+00
    0.39757E-07        -0.26776E-20         0.00000E+00
    0.39820E-07        -0.13388E-19         0.00000E+00
    0.50106E-07        -0.97789E-20         0.00000E+00
    0.50019E-07         0.46566E-20         0.00000E+00
    0.49851E-07         0.25611E-19         0.00000E+00
    0.49611E-07         0.17229E-19         0.00000E+00
    0.49306E-07         0.29337E-19         0.00000E+00
    0.48943E-07         0.44005E-19         0.00000E+00
    0.48529E-07         0.33295E-19         0.00000E+00
    0.48069E-07         0.40047E-19         0.00000E+00
    0.47568E-07         0.21886E-19         0.00000E+00
    0.47033E-07         0.67521E-20         0.00000E+00
    0.46468E-07         0.25379E-19         0.00000E+00
    0.45877E-07         0.25611E-20         0.00000E+00
    0.45265E-07        -0.14435E-19         0.00000E+00
    0.44635E-07         0.93132E-21         0.00000E+00
    0.43991E-07         0.15134E-19         0.00000E+00
    0.43336E-07         0.23749E-19         0.00000E+00
    0.42674E-07         0.15832E-19         0.00000E+00
    0.42007E-07        -0.46566E-21         0.00000E+00
    0.41338E-07         0.88476E-20         0.00000E+00
    0.40669E-07         0.90804E-20         0.00000E+00
    0.40002E-07        -0.74506E-20         0.00000E+00
    0.39340E-07         0.20023E-19         0.00000E+00
    0.38684E-07         0.20489E-19         0.00000E+00
    0.38036E-07         0.37253E-20         0.00000E+00
    0.37398E-07        -0.58208E-20         0.00000E+00
    0.36771E-07         0.11874E-19         0.00000E+00
    0.36157E-07         0.10245E-19         0.00000E+00
    0.35556E-07         0.39581E-20         0.00000E+00
    0.34970E-07         0.32596E-20         0.00000E+00
    0.34400E-07        -0.72177E-20         0.00000E+00
    0.33847E-07        -0.13970E-20         0.00000E+00
    0.33311E-07         0.18161E-19         0.00000E+00
    0.32794E-07         0.22352E-19         0.00000E+00
    0.32295E-07         0.29104E-19         0.00000E+00
    0.31817E-07         0.16298E-19         0.00000E+00
    0.31359E-07         0.16298E-20         0.00000E+00
    0.30921E-07         0.60536E-20         0.00000E+00
    0.30505E-07         0.55879E-20         0.00000E+00
    0.30110E-07        -0.55879E-20         0.00000E+00
    0.29737E-07        -0.30268E-19         0.00000E+00
    0.29387E-07        -0.40513E-19         0.00000E+00
    0.29059E-07        -0.29104E-19         0.00000E+00
    0.28754E-07        -0.33993E-19         0.00000E+00
    0.28472E-07        -0.37719E-19         0.00000E+00
    0.28212E-07        -0.37719E-19         0.00000E+00
    0.27977E-07        -0.41910E-19         0.00000E+00
    0.27764E-07        -0.37253E-19         0.00000E+00
    0.27575E-07        -0.48429E-19         0.00000E+00
    0.27409E-07        -0.45635E-19         0.00000E+00
    0.27267E-07        -0.28173E-19         0.00000E+00
    0.27148E-07        -0.39814E-19         0.00000E+00
    0.27053E-07        -0.29802E-19         0.00000E+00
    0.26981E-07        -0.18161E-19         0.00000E+00
    0.26932E-07        -0.44471E-19         0.00000E+00
    0.26907E-07        -0.55879E-19         0.00000E+00
    0.26904E-07        -0.73807E-19         0.00000E+00
    0.26925E-07        -0.81258E-19         0.00000E+00
    0.26968E-07        -0.59372E-19         0.00000E+00
    0.27034E-07        -0.38417E-19         0.00000E+00
    0.27122E-07        -0.32596E-19         0.00000E+00
    0.27232E-07        -0.27940E-19         0.00000E+00
    0.27364E-07        -0.16065E-19         0.00000E+00
    0.27518E-07        -0.16764E-19         0.00000E+00
    0.27693E-07        -0.46566E-20         0.00000E+00
    0.27888E-07         0.93132E-21         0.00000E+00
    0.28104E-07        -0.16997E-19         0.00000E+00
    0.28340E-07        -0.14203E-19         0.00000E+00
    0.28595E-07        -0.18394E-19         0.00000E+00
    0.28869E-07        -0.30734E-19         0.00000E+00
    0.29161E-07        -0.51223E-20         0.00000E+00
    0.29471E-07        -0.60536E-20         0.00000E+00
    0.29797E-07        -0.20489E-19         0.00000E+00
    0.30140E-07         0.51223E-20         0.00000E+00
    0.30498E-07        -0.53551E-20         0.00000E+00
    0.30870E-07        -0.12573E-19         0.00000E+00
    0.31256E-07         0.69849E-20         0.00000E+00
    0.31654E-07         0.13504E-19         0.00000E+00
    0.32063E-07         0.20023E-19         0.00000E+00
    0.32482E-07         0.16764E-19         0.00000E+00
    0.32910E-07        -0.55879E-20         0.00000E+00
    0.33344E-07        -0.11409E-19         0.00000E+00
    0.33784E-07         0.72177E-20         0.00000E+00
    0.34228E-07         0.11409E-19         0.00000E+00
    0.34674E-07         0.51223E-20         0.00000E+00
    0.35119E-07         0.86147E-20         0.00000E+00
    0.35562E-07         0.21420E-19         0.00000E+00
    0.36001E-07         0.19558E-19         0.00000E+00
    0.36432E-07         0.48894E-20         0.00000E+00
    0.36853E-07         0.14901E-19         0.00000E+00
    0.37262E-07         0.29453E-19         0.00000E+00
    0.37654E-07         0.23865E-19         0.00000E+00
    0.38028E-07         0.11176E-19         0.00000E+00
    0.38378E-07         0.10361E-19         0.00000E+00
    0.38702E-07         0.25961E-19         0.00000E+00
    0.38994E-07         0.26659E-19         0.00000E+00
    0.39251E-07         0.11409E-19         0.00000E+00
    0.39467E-07         0.20955E-20         0.00000E+00
    0.39638E-07         0.11991E-19         0.00000E+00
    0.39757E-07         0.11292E-19         0.00000E+00
    0.39820E-07        -0.60536E-20         0.00000E+00
    0.50106E-07         0.24214E-19         0.00000E+00
    0.50019E-07         0.63097E-19         0.00000E+00
    0.49851E-07         0.40978E-19         0.00000E+00
    0.49611E-07         0.20023E-19         0.00000E+00
    0.49306E-07         0.48429E-19         0.00000E+00
    0.48943E-07         0.76136E-19         0.00000E+00
    0.48529E-07         0.32829E-19         0.00000E+00
    0.48069E-07         0.10710E-19         0.00000E+00
    0.47568E-07         0.50990E-19         0.00000E+00
    0.47033E-07         0.46799E-19         0.00000E+00
    0.46468E-07         0.22119E-19         0.00000E+00
    0.45877E-07         0.58208E-20         0.00000E+00
    0.45265E-07        -0.83819E-20         0.00000E+00
    0.44635E-07         0.13504E-19         0.00000E+00
    0.43991E-07         0.31432E-19         0.00000E+00
    0.43336E-07         0.28173E-19         0.00000E+00
    0.42674E-07         0.30268E-19         0.00000E+00
    0.42007E-07         0.20023E-19         0.00000E+00
    0.41338E-07         0.23982E-19         0.00000E+00
    0.40669E-07         0.18394E-19         0.00000E+00
    0.40002E-07         0.20955E-20         0.00000E+00
    0.39340E-07        -0.11642E-19         0.00000E+00
    0.38684E-07         0.34925E-20         0.00000E+00
    0.38036E-07        -0.41910E-20         0.00000E+00
    0.37398E-07         0.55879E-20         0.00000E+00
    0.36771E-07         0.23749E-19         0.00000E+00
    0.36157E-07         0.20722E-19         0.00000E+00
    0.35556E-07         0.27008E-19         0.00000E+00
    0.34970E-07         0.16298E-19         0.00000E+00
    0.34400E-07         0.24214E-19         0.00000E+00
    0.33847E-07         0.24680E-19         0.00000E+00
    0.33311E-07         0.20489E-19         0.00000E+00
    0.32794E-07         0.14668E-19         0.00000E+00
    0.32295E-07         0.13039E-19         0.00000E+00
    0.31817E-07         0.20023E-19         0.00000E+00
    0.31359E-07         0.11409E-19         0.00000E+00
    0.30921E-07        -0.10710E-19         0.00000E+00
    0.30505E-07        -0.10710E-19         0.00000E+00
    0.30110E-07        -0.55879E-20         0.00000E+00
    0.29737E-07        -0.23283E-19         0.00000E+00
    0.29387E-07        -0.40978E-19         0.00000E+00
    0.29059E-07        -0.40280E-19         0.00000E+00
    0.28754E-07        -0.31199E-19         0.00000E+00
    0.28472E-07        -0.29802E-19         0.00000E+00
    0.28212E-07        -0.45169E-19         0.00000E+00
    0.27977E-07        -0.55181E-19         0.00000E+00
    0.27764E-07        -0.60070E-19         0.00000E+00
    0.27575E-07        -0.51688E-19         0.00000E+00
    0.27409E-07        -0.55879E-19         0.00000E+00
    0.27267E-07        -0.46799E-19         0.00000E+00
    0.27148E-07        -0.23982E-19         0.00000E+00
    0.27053E-07        -0.22585E-19         0.00000E+00
    0.26981E-07        -0.13970E-19         0.00000E+00
    0.26932E-07        -0.17229E-19         0.00000E+00
    0.26907E-07        -0.33062E-19         0.00000E+00
    0.26904E-07        -0.51921E-19         0.00000E+00
    0.26925E-07        -0.56112E-19         0.00000E+00
    0.26968E-07        -0.61467E-19         0.00000E+00
    0.27034E-07        -0.40280E-19         0.00000E+00
    0.27122E-07        -0.15367E-19         0.00000E+00
    0.27232E-07        -0.24680E-19         0.00000E+00
    0.27364E-07        -0.10710E-19         0.00000E+00
    0.27518E-07        -0.51223E-20         0.00000E+00
    0.27693E-07        -0.32596E-20         0.00000E+00
    0.27888E-07         0.51223E-20         0.00000E+00
    0.28104E-07        -0.11642E-19         0.00000E+00
    0.28340E-07        -0.32829E-19         0.00000E+00
    0.28595E-07        -0.10943E-19         0.00000E+00
    0.28869E-07        -0.23283E-20         0.00000E+00
    0.29161E-07        -0.88476E-20         0.00000E+00
    0.29471E-07        -0.32596E-20         0.00000E+00
    0.29797E-07        -0.51223E-20         0.00000E+00
    0.30140E-07        -0.46566E-21         0.00000E+00
    0.30498E-07         0.28173E-19         0.00000E+00
    0.30870E-07         0.32829E-19         0.00000E+00
    0.31256E-07         0.10245E-19         0.00000E+00
    0.31654E-07         0.27707E-19         0.00000E+00
    0.32063E-07         0.29337E-19         0.00000E+00
    0.32482E-07         0.26077E-19         0.00000E+00
    0.32910E-07         0.15367E-19         0.00000E+00
    0.33344E-07         0.90804E-20         0.00000E+00
    0.33784E-07         0.14668E-19         0.00000E+00
    0.34228E-07         0.23283E-20         0.00000E+00
    0.34674E-07         0.86147E-20         0.00000E+00
    0.35119E-07         0.15600E-19         0.00000E+00
    0.35562E-07         0.11874E-19         0.00000E+00
    0.36001E-07         0.17695E-19         0.00000E+00
    0.36432E-07         0.29569E-19         0.00000E+00
    0.36853E-07         0.31432E-19         0.00000E+00
    0.37262E-07         0.41327E-19         0.00000E+00
    0.37654E-07         0.38301E-19         0.00000E+00
    0.38028E-07         0.25495E-19         0.00000E+00
    0.38378E-07         0.22235E-19         0.00000E+00
    0.38702E-07         0.23982E-19         0.00000E+00
    0.38994E-07         0.20606E-19         0.00000E+00
    0.39251E-07         0.20606E-19         0.00000E+00
    0.39467E-07         0.23283E-19         0.00000E+00
    0.39638E-07         0.34925E-20         0.00000E+00
    0.39757E-07        -0.26776E-20         0.00000E+00
    0.39820E-07         0.23283E-20         0.00000E+00
    0.50106E-07         0.17695E-19         0.00000E+00
    0.50019E-07         0.15600E-19         0.00000E+00
    0.49851E-07         0.29337E-19         0.00000E+00
    0.49611E-07         0.32131E-19         0.00000E+00
    0.49306E-07         0.13039E-19         0.00000E+00
    0.48943E-07         0.33295E-19         0.00000E+00
    0.48529E-07         0.67288E-19         0.00000E+00
    0.48069E-07         0.63330E-19         0.00000E+00
    0.47568E-07         0.23982E-19         0.00000E+00
    0.47033E-07         0.10477E-19         0.00000E+00
    0.46468E-07         0.69849E-20         0.00000E+00
    0.45877E-07        -0.16531E-19         0.00000E+00
    0.45265E-07        -0.29569E-19         0.00000E+00
    0.44635E-07        -0.19325E-19         0.00000E+00
    0.43991E-07         0.13271E-19         0.00000E+00
    0.43336E-07         0.27008E-19         0.00000E+00
    0.42674E-07         0.30501E-19         0.00000E+00
    0.42007E-07         0.13504E-19         0.00000E+00
    0.41338E-07        -0.30268E-20         0.00000E+00
    0.40669E-07         0.65193E-20         0.00000E+00
    0.40002E-07        -0.69849E-20         0.00000E+00
    0.39340E-07        -0.72177E-20         0.00000E+00
    0.38684E-07        -0.46566E-21         0.00000E+00
    0.38036E-07         0.10477E-19         0.00000E+00
    0.37398E-07         0.29569E-19         0.00000E+00
    0.36771E-07         0.22352E-19         0.00000E+00
    0.36157E-07         0.48894E-20         0.00000E+00
    0.35556E-07         0.16531E-19         0.00000E+00
    0.34970E-07         0.46333E-19         0.00000E+00
    0.34400E-07         0.24447E-19         0.00000E+00
    0.33847E-07         0.44238E-20         0.00000E+00
    0.33311E-07         0.10245E-19         0.00000E+00
    0.32794E-07         0.26077E-19         0.00000E+00
    0.32295E-07         0.11409E-19         0.00000E+00
    0.31817E-07        -0.65193E-20         0.00000E+00
    0.31359E-07        -0.23283E-21         0.00000E+00
    0.30921E-07        -0.13970E-20         0.00000E+00
    0.30505E-07        -0.83819E-20         0.00000E+00
    0.30110E-07        -0.26077E-19         0.00000E+00
    0.29737E-07        -0.20489E-19         0.00000E+00
    0.29387E-07        -0.24913E-19         0.00000E+00
    0.29059E-07        -0.33295E-19         0.00000E+00
    0.28754E-07        -0.23982E-19         0.00000E+00
    0.28472E-07        -0.38184E-19         0.00000E+00
    0.28212E-07        -0.50757E-19         0.00000E+00
    0.27977E-07        -0.53318E-19         0.00000E+00
    0.27764E-07        -0.64028E-19         0.00000E+00
    0.27575E-07        -0.35390E-19         0.00000E+00
    0.27409E-07        -0.24214E-19         0.00000E+00
    0.27267E-07        -0.35157E-19         0.00000E+00
    0.27148E-07        -0.20023E-19         0.00000E+00
    0.27053E-07        -0.15134E-19         0.00000E+00
    0.26981E-07        -0.53551E-20         0.00000E+00
    0.26932E-07        -0.76834E-20         0.00000E+00
    0.26907E-07        -0.28405E-19         0.00000E+00
    0.26904E-07        -0.50757E-19         0.00000E+00
    0.26925E-07        -0.65658E-19         0.00000E+00
    0.26968E-07        -0.64494E-19         0.00000E+00
    0.27034E-07        -0.37951E-19         0.00000E+00
    0.27122E-07        -0.16764E-19         0.00000E+00
    0.27232E-07        -0.16531E-19         0.00000E+00
    0.27364E-07        -0.18161E-19         0.00000E+00
    0.27518E-07        -0.13970E-20         0.00000E+00
    0.27693E-07         0.11176E-19         0.00000E+00
    0.27888E-07         0.32596E-20         0.00000E+00
    0.28104E-07        -0.95461E-20         0.00000E+00
    0.28340E-07        -0.11409E-19         0.00000E+00
    0.28595E-07         0.27940E-20         0.00000E+00
    0.28869E-07         0.16997E-19         0.00000E+00
    0.29161E-07         0.72177E-20         0.00000E+00
    0.29471E-07        -0.93132E-20         0.00000E+00
    0.29797E-07         0.17928E-19         0.00000E+00
    0.30140E-07         0.37020E-19         0.00000E+00
    0.30498E-07         0.26310E-19         0.00000E+00
    0.30870E-07         0.29569E-19         0.00000E+00
    0.31256E-07         0.20489E-19         0.00000E+00
    0.31654E-07         0.13970E-19         0.00000E+00
    0.32063E-07         0.23749E-19         0.00000E+00
    0.32482E-07         0.15367E-19         0.00000E+00
    0.32910E-07         0.15367E-19         0.00000E+00
    0.33344E-07         0.15600E-19         0.00000E+00
    0.33784E-07        -0.13271E-19         0.00000E+00
    0.34228E-07        -0.10943E-19         0.00000E+00
    0.34674E-07         0.10943E-19         0.00000E+00
    0.35119E-07         0.16531E-19         0.00000E+00
    0.35562E-07         0.55879E-20         0.00000E+00
    0.36001E-07         0.12340E-19         0.00000E+00
    0.36432E-07         0.30501E-19         0.00000E+00
    0.36853E-07         0.20256E-19         0.00000E+00
    0.37262E-07         0.19791E-19         0.00000E+00
    0.37654E-07         0.15018E-19         0.00000E+00
    0.38028E-07         0.10827E-19         0.00000E+00
    0.38378E-07         0.25146E-19         0.00000E+00
    0.38702E-07         0.35623E-19         0.00000E+00
    0.38994E-07         0.26892E-19         0.00000E+00
    0.39251E-07         0.22352E-19         0.00000E+00
    0.39467E-07         0.14668E-19         0.00000E+00
    0.39638E-07         0.95461E-20         0.00000E+00
    0.39757E-07         0.61700E-20         0.00000E+00
    0.39820E-07         0.17462E-20         0.00000E+00
    0.50106E-07         0.22352E-19         0.00000E+00
    0.50019E-07         0.86147E-20         0.00000E+00
    0.49851E-07        -0.93132E-21         0.00000E+00
    0.49611E-07         0.34226E-19         0.00000E+00
    0.49306E-07         0.45635E-19         0.00000E+00
    0.48943E-07         0.49593E-19         0.00000E+00
    0.48529E-07         0.47032E-19         0.00000E+00
    0.48069E-07         0.58208E-19         0.00000E+00
    0.47568E-07         0.19791E-19         0.00000E+00
    0.47033E-07        -0.39581E-20         0.00000E+00
    0.46468E-07         0.67521E-20         0.00000E+00
    0.45877E-07        -0.27940E-20         0.00000E+00
    0.45265E-07        -0.39581E-20         0.00000E+00
    0.44635E-07        -0.17695E-19         0.00000E+00
    0.43991E-07         0.18394E-19         0.00000E+00
    0.43336E-07         0.37719E-19         0.00000E+00
    0.42674E-07         0.13970E-19         0.00000E+00
    0.42007E-07         0.37253E-20         0.00000E+00
    0.41338E-07        -0.79162E-20         0.00000E+00
    0.40669E-07        -0.60536E-20         0.00000E+00
    0.40002E-07         0.93132E-21         0.00000E+00
    0.39340E-07        -0.12806E-19         0.00000E+00
    0.38684E-07        -0.14668E-19         0.00000E+00
    0.38036E-07        -0.83819E-20         0.00000E+00
    0.37398E-07        -0.53551E-20         0.00000E+00
    0.36771E-07         0.41910E-20         0.00000E+00
    0.36157E-07         0.10943E-19         0.00000E+00
    0.35556E-07         0.27707E-19         0.00000E+00
    0.34970E-07         0.33760E-19         0.00000E+00
    0.34400E-07         0.28638E-19         0.00000E+00
    0.33847E-07         0.60536E-20         0.00000E+00
    0.33311E-07        -0.11642E-19         0.00000E+00
    0.32794E-07         0.34925E-20         0.00000E+00
    0.32295E-07         0.21188E-19         0.00000E+00
    0.31817E-07         0.10710E-19         0.00000E+00
    0.31359E-07        -0.18626E-20         0.00000E+00
    0.30921E-07        -0.41910E-20         0.00000E+00
    0.30505E-07        -0.32596E-19         0.00000E+00
    0.30110E-07        -0.24447E-19         0.00000E+00
    0.29737E-07        -0.11874E-19         0.00000E+00
    0.29387E-07        -0.33760E-19         0.00000E+00
    0.29059E-07        -0.49127E-19         0.00000E+00
    0.28754E-07        -0.42608E-19         0.00000E+00
    0.28472E-07        -0.53318E-19         0.00000E+00
    0.28212E-07        -0.59837E-19         0.00000E+00
    0.27977E-07        -0.51456E-19         0.00000E+00
    0.27764E-07        -0.60303E-19         0.00000E+00
    0.27575E-07        -0.34692E-19         0.00000E+00
    0.27409E-07        -0.65193E-20         0.00000E+00
    0.27267E-07        -0.24447E-19         0.00000E+00
    0.27148E-07        -0.32363E-19         0.00000E+00
    0.27053E-07        -0.16298E-19         0.00000E+00
    0.26981E-07        -0.35157E-19         0.00000E+00
    0.26932E-07        -0.26310E-19         0.00000E+00
    0.26907E-07        -0.15832E-19         0.00000E+00
    0.26904E-07        -0.46100E-19         0.00000E+00
    0.26925E-07        -0.44703E-19         0.00000E+00
    0.26968E-07        -0.64727E-19         0.00000E+00
    0.27034E-07        -0.72643E-19         0.00000E+00
    0.27122E-07        -0.29337E-19         0.00000E+00
    0.27232E-07        -0.26776E-19         0.00000E+00
    0.27364E-07        -0.32596E-19         0.00000E+00
    0.27518E-07        -0.19558E-19         0.00000E+00
    0.27693E-07        -0.93132E-21         0.00000E+00
    0.27888E-07         0.18161E-19         0.00000E+00
    0.28104E-07         0.81491E-20         0.00000E+00
    0.28340E-07        -0.67521E-20         0.00000E+00
    0.28595E-07        -0.10012E-19         0.00000E+00
    0.28869E-07         0.32596E-20         0.00000E+00
    0.29161E-07        -0.65193E-20         0.00000E+00
    0.29471E-07        -0.97789E-20         0.00000E+00
    0.29797E-07        -0.12340E-19         0.00000E+00
    0.30140E-07        -0.95461E-20         0.00000E+00
    0.30498E-07         0.16298E-20         0.00000E+00
    0.30870E-07         0.93132E-20         0.00000E+00
    0.31256E-07         0.12573E-19         0.00000E+00
    0.31654E-07        -0.67521E-20         0.00000E+00
    0.32063E-07        -0.93132E-21         0.00000E+00
    0.32482E-07        -0.13970E-20         0.00000E+00
    0.32910E-07        -0.37253E-20         0.00000E+00
    0.33344E-07        -0.69849E-21         0.00000E+00
    0.33784E-07         0.46566E-21         0.00000E+00
    0.34228E-07         0.46566E-20         0.00000E+00
    0.34674E-07         0.46566E-21         0.00000E+00
    0.35119E-07        -0.12107E-19         0.00000E+00
    0.35562E-07         0.20955E-20         0.00000E+00
    0.36001E-07         0.18626E-19         0.00000E+00
    0.36432E-07         0.26543E-19         0.00000E+00
    0.36853E-07         0.31199E-19         0.00000E+00
    0.37262E-07         0.20955E-19         0.00000E+00
    0.37654E-07         0.59372E-20         0.00000E+00
    0.38028E-07         0.16415E-19         0.00000E+00
    0.38378E-07         0.29802E-19         0.00000E+00
    0.38702E-07         0.21537E-19         0.00000E+00
    0.38994E-07         0.16764E-19         0.00000E+00
    0.39251E-07         0.58208E-20         0.00000E+00
    0.39467E-07         0.81491E-21         0.00000E+00
    0.39638E-07         0.37253E-20         0.00000E+00
    0.39757E-07         0.59372E-20         0.00000E+00
    0.39820E-07         0.24447E-20         0.00000E+00
    0.50106E-07         0.46566E-21         0.00000E+00
    0.50019E-07         0.76834E-20         0.00000E+00
    0.49851E-07         0.20955E-19         0.00000E+00
    0.49611E-07         0.53551E-19         0.00000E+00
    0.49306E-07         0.73109E-19         0.00000E+00
    0.48943E-07         0.64960E-19         0.00000E+00
    0.48529E-07         0.44936E-19         0.00000E+00
    0.48069E-07         0.31199E-19         0.00000E+00
    0.47568E-07         0.41444E-19         0.00000E+00
    0.47033E-07         0.23283E-21         0.00000E+00
    0.46468E-07        -0.21420E-19         0.00000E+00
    0.45877E-07        -0.16298E-19         0.00000E+00
    0.45265E-07         0.16997E-19         0.00000E+00
    0.44635E-07         0.37719E-19         0.00000E+00
    0.43991E-07         0.48894E-20         0.00000E+00
    0.43336E-07         0.17462E-19         0.00000E+00
    0.42674E-07         0.15600E-19         0.00000E+00
    0.42007E-07         0.44238E-20         0.00000E+00
    0.41338E-07         0.60536E-20         0.00000E+00
    0.40669E-07         0.23982E-19         0.00000E+00
    0.40002E-07         0.34925E-20         0.00000E+00
    0.39340E-07        -0.27008E-19         0.00000E+00
    0.38684E-07        -0.10012E-19         0.00000E+00
    0.38036E-07         0.15134E-19         0.00000E+00
    0.37398E-07         0.18626E-19         0.00000E+00
    0.36771E-07         0.10710E-19         0.00000E+00
    0.36157E-07         0.26077E-19         0.00000E+00
    0.35556E-07         0.34925E-20         0.00000E+00
    0.34970E-07        -0.58208E-20         0.00000E+00
    0.34400E-07         0.28173E-19         0.00000E+00
    0.33847E-07         0.38883E-19         0.00000E+00
    0.33311E-07         0.23982E-19         0.00000E+00
    0.32794E-07         0.36322E-19         0.00000E+00
    0.32295E-07         0.14203E-19         0.00000E+00
    0.31817E-07         0.41910E-20         0.00000E+00
    0.31359E-07         0.30268E-19         0.00000E+00
    0.30921E-07         0.11176E-19         0.00000E+00
    0.30505E-07         0.26543E-19         0.00000E+00
    0.30110E-07         0.12806E-19         0.00000E+00
    0.29737E-07        -0.32596E-19         0.00000E+00
    0.29387E-07        -0.42375E-19         0.00000E+00
    0.29059E-07        -0.41910E-19         0.00000E+00
    0.28754E-07        -0.54250E-19         0.00000E+00
    0.28472E-07        -0.68685E-19         0.00000E+00
    0.28212E-07        -0.61002E-19         0.00000E+00
    0.27977E-07        -0.46799E-19         0.00000E+00
    0.27764E-07        -0.34459E-19         0.00000E+00
    0.27575E-07        -0.23283E-19         0.00000E+00
    0.27409E-07        -0.30268E-19         0.00000E+00
    0.27267E-07        -0.47497E-19         0.00000E+00
    0.27148E-07        -0.17695E-19         0.00000E+00
    0.27053E-07        -0.20955E-20         0.00000E+00
    0.26981E-07        -0.13271E-19         0.00000E+00
    0.26932E-07        -0.10943E-19         0.00000E+00
    0.26907E-07        -0.24214E-19         0.00000E+00
    0.26904E-07        -0.35623E-19         0.00000E+00
    0.26925E-07        -0.48429E-19         0.00000E+00
    0.26968E-07        -0.54482E-19         0.00000E+00
    0.27034E-07        -0.43539E-19         0.00000E+00
    0.27122E-07        -0.35856E-19         0.00000E+00
    0.27232E-07        -0.30268E-19         0.00000E+00
    0.27364E-07        -0.17928E-19         0.00000E+00
    0.27518E-07        -0.81491E-20         0.00000E+00
    0.27693E-07         0.65193E-20         0.00000E+00
    0.27888E-07         0.25844E-19         0.00000E+00
    0.28104E-07         0.86147E-20         0.00000E+00
    0.28340E-07         0.10245E-19         0.00000E+00
    0.28595E-07         0.16997E-19         0.00000E+00
    0.28869E-07         0.69849E-20         0.00000E+00
    0.29161E-07         0.83819E-20         0.00000E+00
    0.29471E-07        -0.65193E-20         0.00000E+00
    0.29797E-07        -0.51223E-20         0.00000E+00
    0.30140E-07         0.19325E-19         0.00000E+00
    0.30498E-07         0.15832E-19         0.00000E+00
    0.30870E-07         0.20955E-20         0.00000E+00
    0.31256E-07         0.18626E-20         0.00000E+00
    0.31654E-07         0.11642E-19         0.00000E+00
    0.32063E-07         0.21653E-19         0.00000E+00
    0.32482E-07         0.27940E-20         0.00000E+00
    0.32910E-07         0.10710E-19         0.00000E+00
    0.33344E-07         0.23283E-20         0.00000E+00
    0.33784E-07        -0.15600E-19         0.00000E+00
    0.34228E-07        -0.69849E-21         0.00000E+00
    0.34674E-07         0.14901E-19         0.00000E+00
    0.35119E-07         0.17462E-19         0.00000E+00
    0.35562E-07         0.27940E-20         0.00000E+00
    0.36001E-07         0.46566E-21         0.00000E+00
    0.36432E-07         0.17928E-19         0.00000E+00
    0.36853E-07         0.27474E-19         0.00000E+00
    0.37262E-07         0.35740E-19         0.00000E+00
    0.37654E-07         0.33644E-19         0.00000E+00
    0.38028E-07         0.42724E-19         0.00000E+00
    0.38378E-07         0.33644E-19         0.00000E+00
    0.38702E-07         0.12922E-19         0.00000E+00
    0.38994E-07         0.14552E-19         0.00000E+00
    0.39251E-07         0.23283E-20         0.00000E+00
    0.39467E-07        -0.19791E-20         0.00000E+00
    0.39638E-07         0.17695E-19         0.00000E+00
    0.39757E-07         0.10477E-19         0.00000E+00
    0.39820E-07        -0.23283E-20         0.00000E+00
    0.50106E-07        -0.97789E-20         0.00000E+00
    0.50019E-07         0.76834E-20         0.00000E+00
    0.49851E-07         0.20023E-19         0.00000E+00
    0.49611E-07         0.40513E-19         0.00000E+00
    0.49306E-07         0.44703E-19         0.00000E+00
    0.48943E-07         0.29569E-19         0.00000E+00
    0.48529E-07         0.51921E-19         0.00000E+00
    0.48069E-07         0.30734E-19         0.00000E+00
    0.47568E-07         0.25146E-19         0.00000E+00
    0.47033E-07         0.11176E-19         0.00000E+00
    0.46468E-07        -0.26776E-19         0.00000E+00
    0.45877E-07         0.93132E-21         0.00000E+00
    0.45265E-07         0.31898E-19         0.00000E+00
    0.44635E-07         0.58208E-20         0.00000E+00
    0.43991E-07         0.46566E-20         0.00000E+00
    0.43336E-07         0.22817E-19         0.00000E+00
    0.42674E-07         0.21886E-19         0.00000E+00
    0.42007E-07        -0.58208E-20         0.00000E+00
    0.41338E-07        -0.83819E-20         0.00000E+00
    0.40669E-07         0.93132E-20         0.00000E+00
    0.40002E-07        -0.51223E-20         0.00000E+00
    0.39340E-07        -0.34459E-19         0.00000E+00
    0.38684E-07        -0.20489E-19         0.00000E+00
    0.38036E-07         0.16997E-19         0.00000E+00
    0.37398E-07         0.18859E-19         0.00000E+00
    0.36771E-07         0.86147E-20         0.00000E+00
    0.36157E-07         0.23050E-19         0.00000E+00
    0.35556E-07         0.20722E-19         0.00000E+00
    0.34970E-07         0.58208E-20         0.00000E+00
    0.34400E-07         0.60536E-20         0.00000E+00
    0.33847E-07        -0.30268E-20         0.00000E+00
    0.33311E-07        -0.55879E-20         0.00000E+00
    0.32794E-07         0.14203E-19         0.00000E+00
    0.32295E-07         0.83819E-20         0.00000E+00
    0.31817E-07         0.37253E-20         0.00000E+00
    0.31359E-07         0.00000E+00         0.00000E+00
    0.30921E-07        -0.67521E-20         0.00000E+00
    0.30505E-07        -0.12573E-19         0.00000E+00
    0.30110E-07        -0.19791E-19         0.00000E+00
    0.29737E-07        -0.18626E-19         0.00000E+00
    0.29387E-07        -0.32363E-19         0.00000E+00
    0.29059E-07        -0.39348E-19         0.00000E+00
    0.28754E-07        -0.39116E-19         0.00000E+00
    0.28472E-07        -0.43539E-19         0.00000E+00
    0.28212E-07        -0.44936E-19         0.00000E+00
    0.27977E-07        -0.43772E-19         0.00000E+00
    0.27764E-07        -0.38883E-19         0.00000E+00
    0.27575E-07        -0.45169E-19         0.00000E+00
    0.27409E-07        -0.41444E-19         0.00000E+00
    0.27267E-07        -0.18394E-19         0.00000E+00
    0.27148E-07        -0.67521E-20         0.00000E+00
    0.27053E-07        -0.13737E-19         0.00000E+00
    0.26981E-07        -0.20023E-19         0.00000E+00
    0.26932E-07        -0.16298E-19         0.00000E+00
    0.26907E-07        -0.15832E-19         0.00000E+00
    0.26904E-07        -0.19791E-19         0.00000E+00
    0.26925E-07        -0.59605E-19         0.00000E+00
    0.26968E-07        -0.40978E-19         0.00000E+00
    0.27034E-07        -0.12340E-19         0.00000E+00
    0.27122E-07        -0.43772E-19         0.00000E+00
    0.27232E-07        -0.17462E-19         0.00000E+00
    0.27364E-07        -0.18626E-20         0.00000E+00
    0.27518E-07         0.23283E-20         0.00000E+00
    0.27693E-07        -0.11409E-19         0.00000E+00
    0.27888E-07        -0.86147E-20         0.00000E+00
    0.28104E-07         0.93132E-20         0.00000E+00
    0.28340E-07        -0.15367E-19         0.00000E+00
    0.28595E-07        -0.37253E-20         0.00000E+00
    0.28869E-07         0.88476E-20         0.00000E+00
    0.29161E-07        -0.23283E-21         0.00000E+00
    0.29471E-07         0.10245E-19         0.00000E+00
    0.29797E-07         0.10943E-19         0.00000E+00
    0.30140E-07        -0.69849E-21         0.00000E+00
    0.30498E-07         0.58208E-20         0.00000E+00
    0.30870E-07         0.26310E-19         0.00000E+00
    0.31256E-07         0.37253E-20         0.00000E+00
    0.31654E-07        -0.72177E-20         0.00000E+00
    0.32063E-07         0.97789E-20         0.00000E+00
    0.32482E-07         0.69849E-20         0.00000E+00
    0.32910E-07         0.23283E-20         0.00000E+00
    0.33344E-07        -0.19325E-19         0.00000E+00
    0.33784E-07        -0.12806E-19         0.00000E+00
    0.34228E-07        -0.93132E-21         0.00000E+00
    0.34674E-07         0.46566E-21         0.00000E+00
    0.35119E-07         0.81491E-20         0.00000E+00
    0.35562E-07         0.69849E-20         0.00000E+00
    0.36001E-07        -0.46566E-21         0.00000E+00
    0.36432E-07         0.93132E-20         0.00000E+00
    0.36853E-07         0.25379E-19         0.00000E+00
    0.37262E-07         0.20256E-19         0.00000E+00
    0.37654E-07         0.19092E-19         0.00000E+00
    0.38028E-07         0.10012E-19         0.00000E+00
    0.38378E-07         0.41910E-20         0.00000E+00
    0.38702E-07         0.19209E-19         0.00000E+00
    0.38994E-07         0.30850E-19         0.00000E+00
    0.39251E-07         0.23749E-19         0.00000E+00
    0.39467E-07         0.16997E-19         0.00000E+00
    0.39638E-07         0.17346E-19         0.00000E+00
    0.39757E-07         0.19674E-19         0.00000E+00
    0.39820E-07         0.14785E-19         0.00000E+00
    0.50106E-07        -0.65193E-20         0.00000E+00
    0.50019E-07        -0.10477E-19         0.00000E+00
    0.49851E-07         0.46566E-21         0.00000E+00
    0.49611E-07         0.25146E-19         0.00000E+00
    0.49306E-07         0.27474E-19         0.00000E+00
    0.48943E-07         0.17462E-19         0.00000E+00
    0.48529E-07         0.52387E-19         0.00000E+00
    0.48069E-07         0.81956E-19         0.00000E+00
    0.47568E-07         0.44471E-19         0.00000E+00
    0.47033E-07         0.25379E-19         0.00000E+00
    0.46468E-07         0.50059E-19         0.00000E+00
    0.45877E-07         0.58208E-20         0.00000E+00
    0.45265E-07        -0.48894E-20         0.00000E+00
    0.44635E-07         0.26543E-19         0.00000E+00
    0.43991E-07         0.33295E-19         0.00000E+00
    0.43336E-07         0.51223E-20         0.00000E+00
    0.42674E-07        -0.16764E-19         0.00000E+00
    0.42007E-07        -0.23283E-20         0.00000E+00
    0.41338E-07         0.18161E-19         0.00000E+00
    0.40669E-07         0.34925E-20         0.00000E+00
    0.40002E-07        -0.24680E-19         0.00000E+00
    0.39340E-07        -0.20955E-19         0.00000E+00
    0.38684E-07        -0.29802E-19         0.00000E+00
    0.38036E-07         0.18161E-19         0.00000E+00
    0.37398E-07         0.36089E-19         0.00000E+00
    0.36771E-07         0.86147E-20         0.00000E+00
    0.36157E-07         0.17462E-19         0.00000E+00
    0.35556E-07         0.58208E-20         0.00000E+00
    0.34970E-07         0.19325E-19         0.00000E+00
    0.34400E-07         0.30734E-19         0.00000E+00
    0.33847E-07        -0.93132E-20         0.00000E+00
    0.33311E-07        -0.24214E-19         0.00000E+00
    0.32794E-07        -0.13970E-19         0.00000E+00
    0.32295E-07        -0.74506E-20         0.00000E+00
    0.31817E-07         0.46566E-21         0.00000E+00
    0.31359E-07        -0.58208E-20         0.00000E+00
    0.30921E-07        -0.11176E-19         0.00000E+00
    0.30505E-07        -0.14435E-19         0.00000E+00
    0.30110E-07        -0.12806E-19         0.00000E+00
    0.29737E-07         0.79162E-20         0.00000E+00
    0.29387E-07        -0.14901E-19         0.00000E+00
    0.29059E-07        -0.43074E-19         0.00000E+00
    0.28754E-07        -0.45868E-19         0.00000E+00
    0.28472E-07        -0.52853E-19         0.00000E+00
    0.28212E-07        -0.32596E-19         0.00000E+00
    0.27977E-07        -0.41677E-19         0.00000E+00
    0.27764E-07        -0.45868E-19         0.00000E+00
    0.27575E-07        -0.46799E-19         0.00000E+00
    0.27409E-07        -0.33295E-19         0.00000E+00
    0.27267E-07        -0.16764E-19         0.00000E+00
    0.27148E-07        -0.27707E-19         0.00000E+00
    0.27053E-07        -0.32596E-20         0.00000E+00
    0.26981E-07         0.11176E-19         0.00000E+00
    0.26932E-07        -0.27940E-19         0.00000E+00
    0.26907E-07        -0.38650E-19         0.00000E+00
    0.26904E-07        -0.11642E-19         0.00000E+00
    0.26925E-07        -0.20955E-19         0.00000E+00
    0.26968E-07        -0.30268E-19         0.00000E+00
    0.27034E-07        -0.23050E-19         0.00000E+00
    0.27122E-07        -0.19791E-19         0.00000E+00
    0.27232E-07        -0.34925E-20         0.00000E+00
    0.27364E-07        -0.10012E-19         0.00000E+00
    0.27518E-07        -0.74506E-20         0.00000E+00
    0.27693E-07         0.20955E-20         0.00000E+00
    0.27888E-07         0.74506E-20         0.00000E+00
    0.28104E-07         0.93132E-20         0.00000E+00
    0.28340E-07         0.10710E-19         0.00000E+00
    0.28595E-07         0.46566E-20         0.00000E+00
    0.28869E-07        -0.10245E-19         0.00000E+00
    0.29161E-07        -0.18394E-19         0.00000E+00
    0.29471E-07        -0.32596E-20         0.00000E+00
    0.29797E-07         0.10710E-19         0.00000E+00
    0.30140E-07         0.13970E-19         0.00000E+00
    0.30498E-07         0.16997E-19         0.00000E+00
    0.30870E-07         0.11176E-19         0.00000E+00
    0.31256E-07         0.13970E-20         0.00000E+00
    0.31654E-07        -0.51223E-20         0.00000E+00
    0.32063E-07        -0.83819E-20         0.00000E+00
    0.32482E-07         0.15367E-19         0.00000E+00
    0.32910E-07         0.13970E-19         0.00000E+00
    0.33344E-07        -0.16298E-20         0.00000E+00
    0.33784E-07         0.13737E-19         0.00000E+00
    0.34228E-07         0.93132E-20         0.00000E+00
    0.34674E-07        -0.48894E-20         0.00000E+00
    0.35119E-07        -0.13271E-19         0.00000E+00
    0.35562E-07         0.48894E-20         0.00000E+00
    0.36001E-07         0.19558E-19         0.00000E+00
    0.36432E-07         0.65193E-20         0.00000E+00
    0.36853E-07         0.94296E-20         0.00000E+00
    0.37262E-07         0.14319E-19         0.00000E+00
    0.37654E-07         0.32829E-19         0.00000E+00
    0.38028E-07         0.26776E-19         0.00000E+00
    0.38378E-07         0.97789E-20         0.00000E+00
    0.38702E-07         0.20023E-19         0.00000E+00
    0.38994E-07         0.14435E-19         0.00000E+00
    0.39251E-07         0.95461E-20         0.00000E+00
    0.39467E-07         0.11059E-19         0.00000E+00
    0.39638E-07         0.34925E-21         0.00000E+00
    0.39757E-07        -0.18626E-20         0.00000E+00
    0.39820E-07         0.00000E+00         0.00000E+00
    0.50106E-07         0.18626E-19         0.00000E+00
    0.50019E-07         0.21653E-19         0.00000E+00
    0.49851E-07         0.93132E-20         0.00000E+00
    0.49611E-07         0.26077E-19         0.00000E+00
    0.49306E-07         0.33062E-19         0.00000E+00
    0.48943E-07         0.72177E-20         0.00000E+00
    0.48529E-07         0.81491E-20         0.00000E+00
    0.48069E-07         0.36787E-19         0.00000E+00
    0.47568E-07         0.45868E-19         0.00000E+00
    0.47033E-07         0.29569E-19         0.00000E+00
    0.46468E-07         0.11642E-20         0.00000E+00
    0.45877E-07         0.58208E-20         0.00000E+00
    0.45265E-07         0.21420E-19         0.00000E+00
    0.44635E-07         0.27008E-19         0.00000E+00
    0.43991E-07         0.24214E-19         0.00000E+00
    0.43336E-07         0.30268E-19         0.00000E+00
    0.42674E-07         0.20722E-19         0.00000E+00
    0.42007E-07         0.51223E-20         0.00000E+00
    0.41338E-07        -0.74506E-20         0.00000E+00
    0.40669E-07        -0.30035E-19         0.00000E+00
    0.40002E-07        -0.15134E-19         0.00000E+00
    0.39340E-07        -0.24680E-19         0.00000E+00
    0.38684E-07        -0.18626E-19         0.00000E+00
    0.38036E-07        -0.30268E-20         0.00000E+00
    0.37398E-07        -0.21420E-19         0.00000E+00
    0.36771E-07        -0.60536E-20         0.00000E+00
    0.36157E-07         0.13737E-19         0.00000E+00
    0.35556E-07         0.18859E-19         0.00000E+00
    0.34970E-07         0.27241E-19         0.00000E+00
    0.34400E-07         0.37253E-20         0.00000E+00
    0.33847E-07        -0.32596E-20         0.00000E+00
    0.33311E-07         0.13970E-19         0.00000E+00
    0.32794E-07         0.65193E-20         0.00000E+00
    0.32295E-07        -0.62864E-20         0.00000E+00
    0.31817E-07        -0.23749E-19         0.00000E+00
    0.31359E-07        -0.28173E-19         0.00000E+00
    0.30921E-07        -0.29802E-19         0.00000E+00
    0.30505E-07        -0.25146E-19         0.00000E+00
    0.30110E-07        -0.14203E-19         0.00000E+00
    0.29737E-07        -0.58208E-20         0.00000E+00
    0.29387E-07        -0.23982E-19         0.00000E+00
    0.29059E-07        -0.38417E-19         0.00000E+00
    0.28754E-07        -0.48894E-19         0.00000E+00
    0.28472E-07        -0.39116E-19         0.00000E+00
    0.28212E-07        -0.32363E-19         0.00000E+00
    0.27977E-07        -0.59139E-19         0.00000E+00
    0.27764E-07        -0.44936E-19         0.00000E+00
    0.27575E-07        -0.34226E-19         0.00000E+00
    0.27409E-07        -0.41444E-19         0.00000E+00
    0.27267E-07        -0.25146E-19         0.00000E+00
    0.27148E-07        -0.83819E-20         0.00000E+00
    0.27053E-07        -0.10943E-19         0.00000E+00
    0.26981E-07        -0.93132E-20         0.00000E+00
    0.26932E-07         0.00000E+00         0.00000E+00
    0.26907E-07        -0.28405E-19         0.00000E+00
    0.26904E-07        -0.30268E-19         0.00000E+00
    0.26925E-07        -0.62864E-20         0.00000E+00
    0.26968E-07        -0.86147E-20         0.00000E+00
    0.27034E-07        -0.14668E-19         0.00000E+00
    0.27122E-07        -0.33062E-19         0.00000E+00
    0.27232E-07        -0.22585E-19         0.00000E+00
    0.27364E-07        -0.18626E-20         0.00000E+00
    0.27518E-07        -0.37253E-20         0.00000E+00
    0.27693E-07        -0.11176E-19         0.00000E+00
    0.27888E-07        -0.15600E-19         0.00000E+00
    0.28104E-07         0.39581E-20         0.00000E+00
    0.28340E-07         0.23982E-19         0.00000E+00
    0.28595E-07        -0.16298E-20         0.00000E+00
    0.28869E-07        -0.15367E-19         0.00000E+00
    0.29161E-07        -0.86147E-20         0.00000E+00
    0.29471E-07         0.74506E-20         0.00000E+00
    0.29797E-07         0.18161E-19         0.00000E+00
    0.30140E-07         0.83819E-20         0.00000E+00
    0.30498E-07         0.86147E-20         0.00000E+00
    0.30870E-07         0.13271E-19         0.00000E+00
    0.31256E-07         0.83819E-20         0.00000E+00
    0.31654E-07         0.23283E-20         0.00000E+00
    0.32063E-07        -0.23283E-20         0.00000E+00
    0.32482E-07         0.65193E-20         0.00000E+00
    0.32910E-07         0.12107E-19         0.00000E+00
    0.33344E-07         0.27940E-20         0.00000E+00
    0.33784E-07         0.11642E-20         0.00000E+00
    0.34228E-07        -0.39581E-20         0.00000E+00
    0.34674E-07        -0.19558E-19         0.00000E+00
    0.35119E-07        -0.18626E-19         0.00000E+00
    0.35562E-07        -0.17695E-19         0.00000E+00
    0.36001E-07        -0.65193E-20         0.00000E+00
    0.36432E-07         0.88476E-20         0.00000E+00
    0.36853E-07         0.39581E-20         0.00000E+00
    0.37262E-07         0.15018E-19         0.00000E+00
    0.37654E-07         0.30152E-19         0.00000E+00
    0.38028E-07         0.23399E-19         0.00000E+00
    0.38378E-07         0.34925E-21         0.00000E+00
    0.38702E-07        -0.87311E-20         0.00000E+00
    0.38994E-07        -0.27940E-20         0.00000E+00
    0.39251E-07         0.23283E-20         0.00000E+00
    0.39467E-07         0.13621E-19         0.00000E+00
    0.39638E-07         0.50059E-20         0.00000E+00
    0.39757E-07        -0.12224E-19         0.00000E+00
    0.39820E-07        -0.16298E-20         0.00000E+00
    0.50106E-07        -0.69849E-20         0.00000E+00
    0.50019E-07         0.17928E-19         0.00000E+00
    0.49851E-07         0.18626E-20         0.00000E+00
    0.49611E-07        -0.17229E-19         0.00000E+00
    0.49306E-07         0.30734E-19         0.00000E+00
    0.48943E-07         0.46333E-19         0.00000E+00
    0.48529E-07         0.21188E-19         0.00000E+00
    0.48069E-07         0.11642E-19         0.00000E+00
    0.47568E-07         0.23982E-19         0.00000E+00
    0.47033E-07         0.21653E-19         0.00000E+00
    0.46468E-07         0.72177E-20         0.00000E+00
    0.45877E-07        -0.37253E-20         0.00000E+00
    0.45265E-07         0.11409E-19         0.00000E+00
    0.44635E-07         0.31199E-19         0.00000E+00
    0.43991E-07         0.23283E-19         0.00000E+00
    0.43336E-07         0.14435E-19         0.00000E+00
    0.42674E-07        -0.32596E-20         0.00000E+00
    0.42007E-07        -0.15832E-19         0.00000E+00
    0.41338E-07        -0.88476E-20         0.00000E+00
    0.40669E-07        -0.39581E-20         0.00000E+00
    0.40002E-07        -0.18161E-19         0.00000E+00
    0.39340E-07        -0.29337E-19         0.00000E+00
    0.38684E-07        -0.23283E-19         0.00000E+00
    0.38036E-07        -0.22119E-19         0.00000E+00
    0.37398E-07        -0.13271E-19         0.00000E+00
    0.36771E-07        -0.55879E-20         0.00000E+00
    0.36157E-07         0.41910E-20         0.00000E+00
    0.35556E-07         0.22119E-19         0.00000E+00
    0.34970E-07         0.19092E-19         0.00000E+00
    0.34400E-07         0.30268E-19         0.00000E+00
    0.33847E-07         0.18394E-19         0.00000E+00
    0.33311E-07        -0.97789E-20         0.00000E+00
    0.32794E-07        -0.83819E-20         0.00000E+00
    0.32295E-07         0.72177E-20         0.00000E+00
    0.31817E-07         0.18626E-19         0.00000E+00
    0.31359E-07         0.90804E-20         0.00000E+00
    0.30921E-07        -0.65193E-20         0.00000E+00
    0.30505E-07        -0.76834E-20         0.00000E+00
    0.30110E-07        -0.29337E-19         0.00000E+00
    0.29737E-07        -0.23749E-19         0.00000E+00
    0.29387E-07        -0.39581E-20         0.00000E+00
    0.29059E-07        -0.40280E-19         0.00000E+00
    0.28754E-07        -0.62399E-19         0.00000E+00
    0.28472E-07        -0.29337E-19         0.00000E+00
    0.28212E-07        -0.31199E-19         0.00000E+00
    0.27977E-07        -0.29104E-19         0.00000E+00
    0.27764E-07        -0.22119E-19         0.00000E+00
    0.27575E-07        -0.23749E-19         0.00000E+00
    0.27409E-07        -0.23749E-19         0.00000E+00
    0.27267E-07        -0.20722E-19         0.00000E+00
    0.27148E-07        -0.27707E-19         0.00000E+00
    0.27053E-07        -0.24680E-19         0.00000E+00
    0.26981E-07        -0.62864E-20         0.00000E+00
    0.26932E-07        -0.12806E-19         0.00000E+00
    0.26907E-07        -0.27008E-19         0.00000E+00
    0.26904E-07        -0.25146E-19         0.00000E+00
    0.26925E-07        -0.16997E-19         0.00000E+00
    0.26968E-07        -0.12573E-19         0.00000E+00
    0.27034E-07        -0.46566E-20         0.00000E+00
    0.27122E-07        -0.27008E-19         0.00000E+00
    0.27232E-07        -0.26776E-19         0.00000E+00
    0.27364E-07         0.27940E-20         0.00000E+00
    0.27518E-07         0.55879E-20         0.00000E+00
    0.27693E-07        -0.12573E-19         0.00000E+00
    0.27888E-07        -0.90804E-20         0.00000E+00
    0.28104E-07         0.44238E-20         0.00000E+00
    0.28340E-07         0.25146E-19         0.00000E+00
    0.28595E-07         0.22352E-19         0.00000E+00
    0.28869E-07        -0.93132E-21         0.00000E+00
    0.29161E-07        -0.22817E-19         0.00000E+00
    0.29471E-07        -0.11642E-19         0.00000E+00
    0.29797E-07         0.37253E-20         0.00000E+00
    0.30140E-07         0.10245E-19         0.00000E+00
    0.30498E-07         0.65193E-20         0.00000E+00
    0.30870E-07         0.13737E-19         0.00000E+00
    0.31256E-07         0.46566E-21         0.00000E+00
    0.31654E-07        -0.27940E-20         0.00000E+00
    0.32063E-07         0.16764E-19         0.00000E+00
    0.32482E-07        -0.23283E-20         0.00000E+00
    0.32910E-07        -0.17229E-19         0.00000E+00
    0.33344E-07        -0.34925E-20         0.00000E+00
    0.33784E-07         0.10943E-19         0.00000E+00
    0.34228E-07        -0.13504E-19         0.00000E+00
    0.34674E-07        -0.33760E-19         0.00000E+00
    0.35119E-07        -0.11176E-19         0.00000E+00
    0.35562E-07        -0.12806E-19         0.00000E+00
    0.36001E-07        -0.15832E-19         0.00000E+00
    0.36432E-07         0.16298E-20         0.00000E+00
    0.36853E-07         0.13853E-19         0.00000E+00
    0.37262E-07         0.12573E-19         0.00000E+00
    0.37654E-07         0.32363E-19         0.00000E+00
    0.38028E-07         0.34343E-19         0.00000E+00
    0.38378E-07         0.30268E-20         0.00000E+00
    0.38702E-07         0.69849E-21         0.00000E+00
    0.38994E-07        -0.58208E-21         0.00000E+00
    0.39251E-07         0.23283E-21         0.00000E+00
    0.39467E-07        -0.22119E-20         0.00000E+00
    0.39638E-07        -0.65193E-20         0.00000E+00
    0.39757E-07        -0.61700E-20         0.00000E+00
    0.39820E-07        -0.77998E-20         0.00000E+00
    0.50106E-07         0.16764E-19         0.00000E+00
    0.50019E-07         0.19092E-19         0.00000E+00
    0.49851E-07         0.55879E-20         0.00000E+00
    0.49611E-07         0.40978E-19         0.00000E+00
    0.49306E-07         0.39814E-19         0.00000E+00
    0.48943E-07         0.38650E-19         0.00000E+00
    0.48529E-07         0.69151E-19         0.00000E+00
    0.48069E-07         0.29802E-19         0.00000E+00
    0.47568E-07         0.11642E-20         0.00000E+00
    0.47033E-07         0.13970E-19         0.00000E+00
    0.46468E-07         0.72177E-20         0.00000E+00
    0.45877E-07         0.46566E-21         0.00000E+00
    0.45265E-07         0.23749E-19         0.00000E+00
    0.44635E-07         0.22352E-19         0.00000E+00
    0.43991E-07        -0.23283E-20         0.00000E+00
    0.43336E-07        -0.26543E-19         0.00000E+00
    0.42674E-07        -0.93132E-20         0.00000E+00
    0.42007E-07         0.14901E-19         0.00000E+00
    0.41338E-07        -0.17695E-19         0.00000E+00
    0.40669E-07        -0.12340E-19         0.00000E+00
    0.40002E-07        -0.23283E-20         0.00000E+00
    0.39340E-07        -0.36322E-19         0.00000E+00
    0.38684E-07        -0.26077E-19         0.00000E+00
    0.38036E-07        -0.34925E-20         0.00000E+00
    0.37398E-07        -0.23283E-20         0.00000E+00
    0.36771E-07        -0.13039E-19         0.00000E+00
    0.36157E-07        -0.83819E-20         0.00000E+00
    0.35556E-07         0.11874E-19         0.00000E+00
    0.34970E-07         0.62864E-20         0.00000E+00
    0.34400E-07         0.14203E-19         0.00000E+00
    0.33847E-07         0.24913E-19         0.00000E+00
    0.33311E-07        -0.93132E-20         0.00000E+00
    0.32794E-07        -0.32363E-19         0.00000E+00
    0.32295E-07         0.93132E-20         0.00000E+00
    0.31817E-07         0.22585E-19         0.00000E+00
    0.31359E-07        -0.72177E-20         0.00000E+00
    0.30921E-07        -0.76834E-20         0.00000E+00
    0.30505E-07        -0.34925E-20         0.00000E+00
    0.30110E-07         0.27940E-20         0.00000E+00
    0.29737E-07        -0.97789E-20         0.00000E+00
    0.29387E-07        -0.30268E-20         0.00000E+00
    0.29059E-07        -0.19325E-19         0.00000E+00
    0.28754E-07        -0.50291E-19         0.00000E+00
    0.28472E-07        -0.42841E-19         0.00000E+00
    0.28212E-07        -0.31665E-19         0.00000E+00
    0.27977E-07        -0.21886E-19         0.00000E+00
    0.27764E-07        -0.26077E-19         0.00000E+00
    0.27575E-07        -0.23749E-19         0.00000E+00
    0.27409E-07        -0.26310E-19         0.00000E+00
    0.27267E-07        -0.27008E-19         0.00000E+00
    0.27148E-07        -0.21420E-19         0.00000E+00
    0.27053E-07        -0.16764E-19         0.00000E+00
    0.26981E-07        -0.10012E-19         0.00000E+00
    0.26932E-07        -0.12107E-19         0.00000E+00
    0.26907E-07        -0.23283E-20         0.00000E+00
    0.26904E-07         0.11642E-20         0.00000E+00
    0.26925E-07        -0.13970E-20         0.00000E+00
    0.26968E-07         0.67521E-20         0.00000E+00
    0.27034E-07        -0.16298E-19         0.00000E+00
    0.27122E-07        -0.29802E-19         0.00000E+00
    0.27232E-07        -0.16997E-19         0.00000E+00
    0.27364E-07        -0.16298E-19         0.00000E+00
    0.27518E-07        -0.13504E-19         0.00000E+00
    0.27693E-07        -0.88476E-20         0.00000E+00
    0.27888E-07        -0.13737E-19         0.00000E+00
    0.28104E-07         0.86147E-20         0.00000E+00
    0.28340E-07         0.23982E-19         0.00000E+00
    0.28595E-07         0.15832E-19         0.00000E+00
    0.28869E-07        -0.23283E-21         0.00000E+00
    0.29161E-07        -0.14668E-19         0.00000E+00
    0.29471E-07        -0.10245E-19         0.00000E+00
    0.29797E-07        -0.19092E-19         0.00000E+00
    0.30140E-07        -0.26077E-19         0.00000E+00
    0.30498E-07        -0.16065E-19         0.00000E+00
    0.30870E-07         0.16298E-20         0.00000E+00
    0.31256E-07         0.41910E-20         0.00000E+00
    0.31654E-07        -0.83819E-20         0.00000E+00
    0.32063E-07         0.23283E-21         0.00000E+00
    0.32482E-07        -0.37253E-20         0.00000E+00
    0.32910E-07        -0.18626E-19         0.00000E+00
    0.33344E-07        -0.25611E-19         0.00000E+00
    0.33784E-07        -0.11409E-19         0.00000E+00
    0.34228E-07         0.93132E-20         0.00000E+00
    0.34674E-07         0.34925E-20         0.00000E+00
    0.35119E-07        -0.10943E-19         0.00000E+00
    0.35562E-07        -0.15600E-19         0.00000E+00
    0.36001E-07         0.23283E-19         0.00000E+00
    0.36432E-07         0.31199E-19         0.00000E+00
    0.36853E-07         0.11758E-19         0.00000E+00
    0.37262E-07        -0.16298E-20         0.00000E+00
    0.37654E-07        -0.12806E-20         0.00000E+00
    0.38028E-07         0.11292E-19         0.00000E+00
    0.38378E-07         0.24796E-19         0.00000E+00
    0.38702E-07         0.39348E-19         0.00000E+00
    0.38994E-07         0.21071E-19         0.00000E+00
    0.39251E-07         0.16065E-19         0.00000E+00
    0.39467E-07         0.11991E-19         0.00000E+00
    0.39638E-07         0.37253E-20         0.00000E+00
    0.39757E-07        -0.43074E-20         0.00000E+00
    0.39820E-07        -0.59372E-20         0.00000E+00
    0.50106E-07         0.17229E-19         0.00000E+00
    0.50019E-07         0.16298E-19         0.00000E+00
    0.49851E-07         0.23283E-20         0.00000E+00
    0.49611E-07        -0.83819E-20         0.00000E+00
    0.49306E-07         0.10245E-19         0.00000E+00
    0.48943E-07         0.39581E-19         0.00000E+00
    0.48529E-07         0.36089E-19         0.00000E+00
    0.48069E-07         0.18626E-20         0.00000E+00
    0.47568E-07         0.72177E-20         0.00000E+00
    0.47033E-07         0.40745E-19         0.00000E+00
    0.46468E-07         0.22585E-19         0.00000E+00
    0.45877E-07        -0.58208E-20         0.00000E+00
    0.45265E-07         0.15134E-19         0.00000E+00
    0.44635E-07         0.27241E-19         0.00000E+00
    0.43991E-07        -0.41910E-20         0.00000E+00
    0.43336E-07         0.25611E-20         0.00000E+00
    0.42674E-07         0.19092E-19         0.00000E+00
    0.42007E-07         0.65193E-20         0.00000E+00
    0.41338E-07        -0.74506E-20         0.00000E+00
    0.40669E-07        -0.16065E-19         0.00000E+00
    0.40002E-07        -0.15367E-19         0.00000E+00
    0.39340E-07        -0.14435E-19         0.00000E+00
    0.38684E-07        -0.19325E-19         0.00000E+00
    0.38036E-07        -0.14435E-19         0.00000E+00
    0.37398E-07         0.55879E-20         0.00000E+00
    0.36771E-07         0.20023E-19         0.00000E+00
    0.36157E-07         0.55879E-20         0.00000E+00
    0.35556E-07         0.58208E-20         0.00000E+00
    0.34970E-07         0.13271E-19         0.00000E+00
    0.34400E-07         0.14203E-19         0.00000E+00
    0.33847E-07         0.22817E-19         0.00000E+00
    0.33311E-07        -0.27940E-20         0.00000E+00
    0.32794E-07        -0.10012E-19         0.00000E+00
    0.32295E-07        -0.23283E-20         0.00000E+00
    0.31817E-07        -0.22817E-19         0.00000E+00
    0.31359E-07        -0.27241E-19         0.00000E+00
    0.30921E-07        -0.19558E-19         0.00000E+00
    0.30505E-07         0.23283E-20         0.00000E+00
    0.30110E-07        -0.97789E-20         0.00000E+00
    0.29737E-07        -0.24913E-19         0.00000E+00
    0.29387E-07        -0.14203E-19         0.00000E+00
    0.29059E-07        -0.17928E-19         0.00000E+00
    0.28754E-07        -0.46333E-19         0.00000E+00
    0.28472E-07        -0.43074E-19         0.00000E+00
    0.28212E-07        -0.16997E-19         0.00000E+00
    0.27977E-07        -0.22817E-19         0.00000E+00
    0.27764E-07        -0.31432E-19         0.00000E+00
    0.27575E-07        -0.28871E-19         0.00000E+00
    0.27409E-07        -0.22817E-19         0.00000E+00
    0.27267E-07        -0.29337E-19         0.00000E+00
    0.27148E-07        -0.19325E-19         0.00000E+00
    0.27053E-07        -0.14203E-19         0.00000E+00
    0.26981E-07        -0.36787E-19         0.00000E+00
    0.26932E-07        -0.31665E-19         0.00000E+00
    0.26907E-07        -0.17229E-19         0.00000E+00
    0.26904E-07        -0.22585E-19         0.00000E+00
    0.26925E-07        -0.14203E-19         0.00000E+00
    0.26968E-07         0.20256E-19         0.00000E+00
    0.27034E-07         0.76834E-20         0.00000E+00
    0.27122E-07        -0.22119E-19         0.00000E+00
    0.27232E-07        -0.22352E-19         0.00000E+00
    0.27364E-07        -0.13970E-19         0.00000E+00
    0.27518E-07        -0.14901E-19         0.00000E+00
    0.27693E-07        -0.97789E-20         0.00000E+00
    0.27888E-07        -0.93132E-20         0.00000E+00
    0.28104E-07         0.60536E-20         0.00000E+00
    0.28340E-07         0.15134E-19         0.00000E+00
    0.28595E-07         0.69849E-20         0.00000E+00
    0.28869E-07        -0.69849E-20         0.00000E+00
    0.29161E-07        -0.74506E-20         0.00000E+00
    0.29471E-07        -0.74506E-20         0.00000E+00
    0.29797E-07        -0.22817E-19         0.00000E+00
    0.30140E-07        -0.17695E-19         0.00000E+00
    0.30498E-07         0.69849E-21         0.00000E+00
    0.30870E-07         0.11642E-20         0.00000E+00
    0.31256E-07         0.18626E-20         0.00000E+00
    0.31654E-07        -0.12573E-19         0.00000E+00
    0.32063E-07        -0.16531E-19         0.00000E+00
    0.32482E-07         0.13970E-20         0.00000E+00
    0.32910E-07        -0.41910E-20         0.00000E+00
    0.33344E-07        -0.86147E-20         0.00000E+00
    0.33784E-07        -0.58208E-20         0.00000E+00
    0.34228E-07        -0.55879E-20         0.00000E+00
    0.34674E-07        -0.72177E-20         0.00000E+00
    0.35119E-07         0.69849E-20         0.00000E+00
    0.35562E-07         0.44238E-20         0.00000E+00
    0.36001E-07         0.79162E-20         0.00000E+00
    0.36432E-07         0.20722E-19         0.00000E+00
    0.36853E-07         0.83819E-20         0.00000E+00
    0.37262E-07         0.82655E-20         0.00000E+00
    0.37654E-07         0.13737E-19         0.00000E+00
    0.38028E-07         0.13155E-19         0.00000E+00
    0.38378E-07         0.72177E-20         0.00000E+00
    0.38702E-07         0.16182E-19         0.00000E+00
    0.38994E-07         0.23865E-19         0.00000E+00
    0.39251E-07         0.14668E-19         0.00000E+00
    0.39467E-07         0.10245E-19         0.00000E+00
    0.39638E-07         0.59372E-20         0.00000E+00
    0.39757E-07         0.11758E-19         0.00000E+00
    0.39820E-07         0.84983E-20         0.00000E+00
    0.50106E-07         0.74506E-20         0.00000E+00
    0.50019E-07         0.30268E-20         0.00000E+00
    0.49851E-07         0.28871E-19         0.00000E+00
    0.49611E-07         0.47497E-19         0.00000E+00
    0.49306E-07         0.24214E-19         0.00000E+00
    0.48943E-07         0.11642E-20         0.00000E+00
    0.48529E-07        -0.34925E-20         0.00000E+00
    0.48069E-07         0.93132E-20         0.00000E+00
    0.47568E-07         0.62864E-20         0.00000E+00
    0.47033E-07        -0.23283E-21         0.00000E+00
    0.46468E-07         0.39581E-20         0.00000E+00
    0.45877E-07         0.11642E-19         0.00000E+00
    0.45265E-07        -0.32596E-20         0.00000E+00
    0.44635E-07         0.23283E-19         0.00000E+00
    0.43991E-07         0.14203E-19         0.00000E+00
    0.43336E-07        -0.20955E-20         0.00000E+00
    0.42674E-07         0.11409E-19         0.00000E+00
    0.42007E-07        -0.79162E-20         0.00000E+00
    0.41338E-07        -0.69849E-20         0.00000E+00
    0.40669E-07        -0.76834E-20         0.00000E+00
    0.40002E-07        -0.21886E-19         0.00000E+00
    0.39340E-07        -0.53551E-20         0.00000E+00
    0.38684E-07         0.51223E-20         0.00000E+00
    0.38036E-07         0.44238E-20         0.00000E+00
    0.37398E-07         0.10245E-19         0.00000E+00
    0.36771E-07         0.12573E-19         0.00000E+00
    0.36157E-07         0.23982E-19         0.00000E+00
    0.35556E-07         0.16997E-19         0.00000E+00
    0.34970E-07         0.20722E-19         0.00000E+00
    0.34400E-07         0.15832E-19         0.00000E+00
    0.33847E-07         0.18626E-19         0.00000E+00
    0.33311E-07         0.21420E-19         0.00000E+00
    0.32794E-07        -0.44238E-20         0.00000E+00
    0.32295E-07        -0.67521E-20         0.00000E+00
    0.31817E-07        -0.10710E-19         0.00000E+00
    0.31359E-07        -0.23050E-19         0.00000E+00
    0.30921E-07        -0.18859E-19         0.00000E+00
    0.30505E-07        -0.46566E-20         0.00000E+00
    0.30110E-07        -0.27940E-20         0.00000E+00
    0.29737E-07        -0.19325E-19         0.00000E+00
    0.29387E-07        -0.12806E-19         0.00000E+00
    0.29059E-07         0.23283E-21         0.00000E+00
    0.28754E-07        -0.15367E-19         0.00000E+00
    0.28472E-07        -0.37719E-19         0.00000E+00
    0.28212E-07        -0.34459E-19         0.00000E+00
    0.27977E-07        -0.16764E-19         0.00000E+00
    0.27764E-07        -0.24214E-19         0.00000E+00
    0.27575E-07        -0.26310E-19         0.00000E+00
    0.27409E-07        -0.46566E-20         0.00000E+00
    0.27267E-07        -0.10477E-19         0.00000E+00
    0.27148E-07        -0.32596E-20         0.00000E+00
    0.27053E-07         0.11176E-19         0.00000E+00
    0.26981E-07        -0.29802E-19         0.00000E+00
    0.26932E-07        -0.43772E-19         0.00000E+00
    0.26907E-07        -0.37253E-19         0.00000E+00
    0.26904E-07        -0.34692E-19         0.00000E+00
    0.26925E-07        -0.14901E-19         0.00000E+00
    0.26968E-07        -0.46566E-20         0.00000E+00
    0.27034E-07         0.14203E-19         0.00000E+00
    0.27122E-07        -0.25611E-20         0.00000E+00
    0.27232E-07        -0.29104E-19         0.00000E+00
    0.27364E-07        -0.24680E-19         0.00000E+00
    0.27518E-07        -0.22817E-19         0.00000E+00
    0.27693E-07        -0.93132E-20         0.00000E+00
    0.27888E-07        -0.69849E-20         0.00000E+00
    0.28104E-07        -0.27940E-20         0.00000E+00
    0.28340E-07         0.11642E-20         0.00000E+00
    0.28595E-07         0.69849E-20         0.00000E+00
    0.28869E-07         0.53551E-20         0.00000E+00
    0.29161E-07        -0.27940E-20         0.00000E+00
    0.29471E-07        -0.12573E-19         0.00000E+00
    0.29797E-07        -0.20955E-19         0.00000E+00
    0.30140E-07         0.13039E-19         0.00000E+00
    0.30498E-07         0.33760E-19         0.00000E+00
    0.30870E-07         0.10710E-19         0.00000E+00
    0.31256E-07         0.18626E-19         0.00000E+00
    0.31654E-07        -0.16298E-20         0.00000E+00
    0.32063E-07        -0.14901E-19         0.00000E+00
    0.32482E-07         0.93132E-21         0.00000E+00
    0.32910E-07        -0.93132E-20         0.00000E+00
    0.33344E-07        -0.41910E-20         0.00000E+00
    0.33784E-07         0.16298E-20         0.00000E+00
    0.34228E-07         0.16298E-20         0.00000E+00
    0.34674E-07         0.41910E-20         0.00000E+00
    0.35119E-07        -0.46566E-20         0.00000E+00
    0.35562E-07        -0.69849E-21         0.00000E+00
    0.36001E-07        -0.41910E-20         0.00000E+00
    0.36432E-07         0.10710E-19         0.00000E+00
    0.36853E-07         0.26310E-19         0.00000E+00
    0.37262E-07         0.29569E-19         0.00000E+00
    0.37654E-07         0.81491E-20         0.00000E+00
    0.38028E-07         0.10943E-19         0.00000E+00
    0.38378E-07         0.15949E-19         0.00000E+00
    0.38702E-07         0.84983E-20         0.00000E+00
    0.38994E-07         0.30268E-20         0.00000E+00
    0.39251E-07         0.47730E-20         0.00000E+00
    0.39467E-07         0.23865E-19         0.00000E+00
    0.39638E-07         0.27358E-19         0.00000E+00
    0.39757E-07         0.18510E-19         0.00000E+00
    0.39820E-07         0.22119E-20         0.00000E+00
    0.50106E-07        -0.51223E-20         0.00000E+00
    0.50019E-07         0.72177E-20         0.00000E+00
    0.49851E-07         0.40280E-19         0.00000E+00
    0.49611E-07         0.56811E-19         0.00000E+00
    0.49306E-07         0.33993E-19         0.00000E+00
    0.48943E-07         0.30268E-20         0.00000E+00
    0.48529E-07         0.18161E-19         0.00000E+00
    0.48069E-07         0.21188E-19         0.00000E+00
    0.47568E-07         0.72177E-20         0.00000E+00
    0.47033E-07        -0.21886E-19         0.00000E+00
    0.46468E-07         0.48894E-20         0.00000E+00
    0.45877E-07         0.19558E-19         0.00000E+00
    0.45265E-07         0.28173E-19         0.00000E+00
    0.44635E-07         0.26543E-19         0.00000E+00
    0.43991E-07        -0.76834E-20         0.00000E+00
    0.43336E-07        -0.60536E-20         0.00000E+00
    0.42674E-07        -0.65193E-20         0.00000E+00
    0.42007E-07        -0.21886E-19         0.00000E+00
    0.41338E-07        -0.76834E-20         0.00000E+00
    0.40669E-07        -0.20023E-19         0.00000E+00
    0.40002E-07        -0.18161E-19         0.00000E+00
    0.39340E-07         0.13970E-19         0.00000E+00
    0.38684E-07        -0.25611E-20         0.00000E+00
    0.38036E-07        -0.49826E-19         0.00000E+00
    0.37398E-07        -0.21420E-19         0.00000E+00
    0.36771E-07         0.27241E-19         0.00000E+00
    0.36157E-07         0.93132E-20         0.00000E+00
    0.35556E-07         0.11176E-19         0.00000E+00
    0.34970E-07         0.31432E-19         0.00000E+00
    0.34400E-07         0.23283E-20         0.00000E+00
    0.33847E-07        -0.60536E-20         0.00000E+00
    0.33311E-07         0.83819E-20         0.00000E+00
    0.32794E-07        -0.15832E-19         0.00000E+00
    0.32295E-07        -0.20489E-19         0.00000E+00
    0.31817E-07        -0.41910E-19         0.00000E+00
    0.31359E-07        -0.37719E-19         0.00000E+00
    0.30921E-07         0.10477E-19         0.00000E+00
    0.30505E-07         0.93132E-21         0.00000E+00
    0.30110E-07        -0.18859E-19         0.00000E+00
    0.29737E-07        -0.67521E-20         0.00000E+00
    0.29387E-07        -0.79162E-20         0.00000E+00
    0.29059E-07        -0.19325E-19         0.00000E+00
    0.28754E-07        -0.22585E-19         0.00000E+00
    0.28472E-07        -0.32596E-19         0.00000E+00
    0.28212E-07        -0.31665E-19         0.00000E+00
    0.27977E-07        -0.11409E-19         0.00000E+00
    0.27764E-07        -0.18394E-19         0.00000E+00
    0.27575E-07        -0.23283E-19         0.00000E+00
    0.27409E-07        -0.13970E-19         0.00000E+00
    0.27267E-07        -0.12107E-19         0.00000E+00
    0.27148E-07        -0.21188E-19         0.00000E+00
    0.27053E-07        -0.17229E-19         0.00000E+00
    0.26981E-07         0.65193E-20         0.00000E+00
    0.26932E-07        -0.21420E-19         0.00000E+00
    0.26907E-07        -0.31199E-19         0.00000E+00
    0.26904E-07        -0.15367E-19         0.00000E+00
    0.26925E-07        -0.93132E-21         0.00000E+00
    0.26968E-07        -0.32596E-20         0.00000E+00
    0.27034E-07        -0.14435E-19         0.00000E+00
    0.27122E-07         0.30268E-20         0.00000E+00
    0.27232E-07        -0.31898E-19         0.00000E+00
    0.27364E-07        -0.40047E-19         0.00000E+00
    0.27518E-07        -0.27474E-19         0.00000E+00
    0.27693E-07        -0.15367E-19         0.00000E+00
    0.27888E-07        -0.60536E-20         0.00000E+00
    0.28104E-07        -0.95461E-20         0.00000E+00
    0.28340E-07         0.16298E-20         0.00000E+00
    0.28595E-07         0.10710E-19         0.00000E+00
    0.28869E-07         0.13504E-19         0.00000E+00
    0.29161E-07        -0.58208E-20         0.00000E+00
    0.29471E-07        -0.14203E-19         0.00000E+00
    0.29797E-07        -0.12107E-19         0.00000E+00
    0.30140E-07        -0.39581E-20         0.00000E+00
    0.30498E-07         0.44238E-20         0.00000E+00
    0.30870E-07         0.69849E-21         0.00000E+00
    0.31256E-07         0.18626E-20         0.00000E+00
    0.31654E-07        -0.51223E-20         0.00000E+00
    0.32063E-07        -0.28638E-19         0.00000E+00
    0.32482E-07        -0.51223E-20         0.00000E+00
    0.32910E-07         0.14203E-19         0.00000E+00
    0.33344E-07         0.11874E-19         0.00000E+00
    0.33784E-07        -0.37253E-20         0.00000E+00
    0.34228E-07        -0.69849E-20         0.00000E+00
    0.34674E-07         0.55879E-20         0.00000E+00
    0.35119E-07        -0.23283E-21         0.00000E+00
    0.35562E-07         0.69849E-21         0.00000E+00
    0.36001E-07         0.32596E-20         0.00000E+00
    0.36432E-07         0.18859E-19         0.00000E+00
    0.36853E-07         0.27940E-19         0.00000E+00
    0.37262E-07         0.25262E-19         0.00000E+00
    0.37654E-07         0.27940E-20         0.00000E+00
    0.38028E-07         0.61700E-20         0.00000E+00
    0.38378E-07         0.21537E-19         0.00000E+00
    0.38702E-07         0.90804E-20         0.00000E+00
    0.38994E-07        -0.18626E-20         0.00000E+00
    0.39251E-07         0.39581E-20         0.00000E+00
    0.39467E-07         0.22468E-19         0.00000E+00
    0.39638E-07         0.35157E-19         0.00000E+00
    0.39757E-07         0.66357E-20         0.00000E+00
    0.39820E-07        -0.90804E-20         0.00000E+00
    0.50106E-07         0.00000E+00         0.00000E+00
    0.50019E-07         0.20955E-19         0.00000E+00
    0.49851E-07         0.34925E-19         0.00000E+00
    0.49611E-07         0.49593E-19         0.00000E+00
    0.49306E-07         0.52154E-19         0.00000E+00
    0.48943E-07         0.45868E-19         0.00000E+00
    0.48529E-07         0.17229E-19         0.00000E+00
    0.48069E-07        -0.46566E-21         0.00000E+00
    0.47568E-07        -0.65193E-20         0.00000E+00
    0.47033E-07        -0.62864E-20         0.00000E+00
    0.46468E-07         0.13504E-19         0.00000E+00
    0.45877E-07         0.21188E-19         0.00000E+00
    0.45265E-07         0.90804E-20         0.00000E+00
    0.44635E-07        -0.18626E-20         0.00000E+00
    0.43991E-07         0.33760E-19         0.00000E+00
    0.43336E-07         0.24214E-19         0.00000E+00
    0.42674E-07        -0.16298E-20         0.00000E+00
    0.42007E-07        -0.93132E-20         0.00000E+00
    0.41338E-07         0.51223E-20         0.00000E+00
    0.40669E-07         0.10710E-19         0.00000E+00
    0.40002E-07        -0.46566E-20         0.00000E+00
    0.39340E-07        -0.10245E-19         0.00000E+00
    0.38684E-07        -0.10943E-19         0.00000E+00
    0.38036E-07        -0.16065E-19         0.00000E+00
    0.37398E-07        -0.95461E-20         0.00000E+00
    0.36771E-07         0.93132E-21         0.00000E+00
    0.36157E-07         0.19325E-19         0.00000E+00
    0.35556E-07         0.29104E-19         0.00000E+00
    0.34970E-07         0.16298E-20         0.00000E+00
    0.34400E-07        -0.62864E-20         0.00000E+00
    0.33847E-07        -0.34459E-19         0.00000E+00
    0.33311E-07        -0.95461E-20         0.00000E+00
    0.32794E-07        -0.51223E-20         0.00000E+00
    0.32295E-07        -0.30501E-19         0.00000E+00
    0.31817E-07        -0.33062E-19         0.00000E+00
    0.31359E-07        -0.25146E-19         0.00000E+00
    0.30921E-07        -0.69849E-20         0.00000E+00
    0.30505E-07         0.30268E-20         0.00000E+00
    0.30110E-07         0.11642E-19         0.00000E+00
    0.29737E-07         0.46566E-20         0.00000E+00
    0.29387E-07         0.48894E-20         0.00000E+00
    0.29059E-07        -0.16298E-20         0.00000E+00
    0.28754E-07        -0.14203E-19         0.00000E+00
    0.28472E-07        -0.24680E-19         0.00000E+00
    0.28212E-07        -0.47265E-19         0.00000E+00
    0.27977E-07        -0.44238E-19         0.00000E+00
    0.27764E-07        -0.21653E-19         0.00000E+00
    0.27575E-07        -0.16298E-19         0.00000E+00
    0.27409E-07        -0.65193E-20         0.00000E+00
    0.27267E-07         0.41910E-20         0.00000E+00
    0.27148E-07        -0.15832E-19         0.00000E+00
    0.27053E-07        -0.24214E-19         0.00000E+00
    0.26981E-07        -0.83819E-20         0.00000E+00
    0.26932E-07        -0.25146E-19         0.00000E+00
    0.26907E-07        -0.18161E-19         0.00000E+00
    0.26904E-07        -0.10245E-19         0.00000E+00
    0.26925E-07        -0.30268E-20         0.00000E+00
    0.26968E-07        -0.58208E-20         0.00000E+00
    0.27034E-07        -0.27241E-19         0.00000E+00
    0.27122E-07        -0.53551E-20         0.00000E+00
    0.27232E-07        -0.13271E-19         0.00000E+00
    0.27364E-07        -0.28405E-19         0.00000E+00
    0.27518E-07        -0.22352E-19         0.00000E+00
    0.27693E-07        -0.21886E-19         0.00000E+00
    0.27888E-07        -0.62864E-20         0.00000E+00
    0.28104E-07        -0.23516E-19         0.00000E+00
    0.28340E-07        -0.72177E-20         0.00000E+00
    0.28595E-07        -0.44238E-20         0.00000E+00
    0.28869E-07        -0.26543E-19         0.00000E+00
    0.29161E-07        -0.44238E-20         0.00000E+00
    0.29471E-07        -0.79162E-20         0.00000E+00
    0.29797E-07        -0.10012E-19         0.00000E+00
    0.30140E-07         0.13970E-20         0.00000E+00
    0.30498E-07        -0.48894E-20         0.00000E+00
    0.30870E-07         0.12806E-19         0.00000E+00
    0.31256E-07         0.19092E-19         0.00000E+00
    0.31654E-07         0.65193E-20         0.00000E+00
    0.32063E-07        -0.55879E-20         0.00000E+00
    0.32482E-07        -0.19558E-19         0.00000E+00
    0.32910E-07         0.55879E-20         0.00000E+00
    0.33344E-07         0.65193E-20         0.00000E+00
    0.33784E-07        -0.48894E-20         0.00000E+00
    0.34228E-07        -0.51223E-20         0.00000E+00
    0.34674E-07        -0.86147E-20         0.00000E+00
    0.35119E-07         0.23283E-20         0.00000E+00
    0.35562E-07         0.22585E-19         0.00000E+00
    0.36001E-07         0.37253E-20         0.00000E+00
    0.36432E-07         0.46566E-20         0.00000E+00
    0.36853E-07         0.17346E-19         0.00000E+00
    0.37262E-07        -0.74506E-20         0.00000E+00
    0.37654E-07        -0.17928E-19         0.00000E+00
    0.38028E-07         0.11292E-19         0.00000E+00
    0.38378E-07         0.31199E-19         0.00000E+00
    0.38702E-07         0.15018E-19         0.00000E+00
    0.38994E-07        -0.16764E-19         0.00000E+00
    0.39251E-07        -0.46566E-21         0.00000E+00
    0.39467E-07         0.20140E-19         0.00000E+00
    0.39638E-07         0.59372E-20         0.00000E+00
    0.39757E-07         0.20955E-20         0.00000E+00
    0.39820E-07         0.45402E-20         0.00000E+00
    0.50106E-07        -0.12573E-19         0.00000E+00
    0.50019E-07        -0.41910E-20         0.00000E+00
    0.49851E-07         0.10245E-19         0.00000E+00
    0.49611E-07         0.12573E-19         0.00000E+00
    0.49306E-07         0.29802E-19         0.00000E+00
    0.48943E-07         0.31432E-19         0.00000E+00
    0.48529E-07        -0.72177E-20         0.00000E+00
    0.48069E-07         0.74506E-20         0.00000E+00
    0.47568E-07         0.93132E-20         0.00000E+00
    0.47033E-07        -0.17928E-19         0.00000E+00
    0.46468E-07        -0.81491E-20         0.00000E+00
    0.45877E-07         0.97789E-20         0.00000E+00
    0.45265E-07        -0.46566E-21         0.00000E+00
    0.44635E-07        -0.10245E-19         0.00000E+00
    0.43991E-07         0.24913E-19         0.00000E+00
    0.43336E-07         0.18626E-19         0.00000E+00
    0.42674E-07        -0.62864E-20         0.00000E+00
    0.42007E-07        -0.24680E-19         0.00000E+00
    0.41338E-07        -0.31199E-19         0.00000E+00
    0.40669E-07        -0.20023E-19         0.00000E+00
    0.40002E-07        -0.30966E-19         0.00000E+00
    0.39340E-07        -0.37719E-19         0.00000E+00
    0.38684E-07        -0.31665E-19         0.00000E+00
    0.38036E-07        -0.79162E-20         0.00000E+00
    0.37398E-07         0.90804E-20         0.00000E+00
    0.36771E-07        -0.13504E-19         0.00000E+00
    0.36157E-07        -0.19092E-19         0.00000E+00
    0.35556E-07         0.22119E-19         0.00000E+00
    0.34970E-07         0.30035E-19         0.00000E+00
    0.34400E-07        -0.14901E-19         0.00000E+00
    0.33847E-07        -0.35856E-19         0.00000E+00
    0.33311E-07        -0.19791E-19         0.00000E+00
    0.32794E-07        -0.11642E-20         0.00000E+00
    0.32295E-07        -0.40280E-19         0.00000E+00
    0.31817E-07        -0.39116E-19         0.00000E+00
    0.31359E-07        -0.76834E-20         0.00000E+00
    0.30921E-07         0.34925E-20         0.00000E+00
    0.30505E-07        -0.30268E-20         0.00000E+00
    0.30110E-07        -0.23516E-19         0.00000E+00
    0.29737E-07         0.20955E-20         0.00000E+00
    0.29387E-07         0.97789E-20         0.00000E+00
    0.29059E-07        -0.95461E-20         0.00000E+00
    0.28754E-07        -0.30268E-20         0.00000E+00
    0.28472E-07        -0.18626E-19         0.00000E+00
    0.28212E-07        -0.28173E-19         0.00000E+00
    0.27977E-07        -0.18161E-19         0.00000E+00
    0.27764E-07        -0.18161E-19         0.00000E+00
    0.27575E-07        -0.60536E-20         0.00000E+00
    0.27409E-07         0.55879E-20         0.00000E+00
    0.27267E-07         0.58208E-20         0.00000E+00
    0.27148E-07        -0.12340E-19         0.00000E+00
    0.27053E-07        -0.31199E-19         0.00000E+00
    0.26981E-07        -0.34692E-19         0.00000E+00
    0.26932E-07        -0.12806E-19         0.00000E+00
    0.26907E-07        -0.97789E-20         0.00000E+00
    0.26904E-07        -0.11642E-19         0.00000E+00
    0.26925E-07        -0.95461E-20         0.00000E+00
    0.26968E-07        -0.20955E-19         0.00000E+00
    0.27034E-07        -0.10477E-19         0.00000E+00
    0.27122E-07        -0.69849E-21         0.00000E+00
    0.27232E-07        -0.12573E-19         0.00000E+00
    0.27364E-07        -0.27474E-19         0.00000E+00
    0.27518E-07        -0.34459E-19         0.00000E+00
    0.27693E-07        -0.32131E-19         0.00000E+00
    0.27888E-07        -0.33528E-19         0.00000E+00
    0.28104E-07        -0.32363E-19         0.00000E+00
    0.28340E-07        -0.58208E-20         0.00000E+00
    0.28595E-07        -0.12340E-19         0.00000E+00
    0.28869E-07        -0.25844E-19         0.00000E+00
    0.29161E-07        -0.17229E-19         0.00000E+00
    0.29471E-07        -0.16298E-19         0.00000E+00
    0.29797E-07        -0.13039E-19         0.00000E+00
    0.30140E-07        -0.10245E-19         0.00000E+00
    0.30498E-07         0.69849E-21         0.00000E+00
    0.30870E-07         0.44238E-20         0.00000E+00
    0.31256E-07         0.88476E-20         0.00000E+00
    0.31654E-07         0.23283E-20         0.00000E+00
    0.32063E-07        -0.20256E-19         0.00000E+00
    0.32482E-07        -0.13504E-19         0.00000E+00
    0.32910E-07        -0.13970E-20         0.00000E+00
    0.33344E-07        -0.69849E-20         0.00000E+00
    0.33784E-07        -0.30268E-20         0.00000E+00
    0.34228E-07        -0.41910E-20         0.00000E+00
    0.34674E-07        -0.13970E-19         0.00000E+00
    0.35119E-07        -0.14203E-19         0.00000E+00
    0.35562E-07        -0.18626E-20         0.00000E+00
    0.36001E-07         0.79162E-20         0.00000E+00
    0.36432E-07         0.65193E-20         0.00000E+00
    0.36853E-07        -0.15134E-20         0.00000E+00
    0.37262E-07         0.10245E-19         0.00000E+00
    0.37654E-07         0.44238E-20         0.00000E+00
    0.38028E-07        -0.25611E-20         0.00000E+00
    0.38378E-07         0.30152E-19         0.00000E+00
    0.38702E-07         0.29802E-19         0.00000E+00
    0.38994E-07         0.22235E-19         0.00000E+00
    0.39251E-07         0.18161E-19         0.00000E+00
    0.39467E-07         0.13853E-19         0.00000E+00
    0.39638E-07         0.10128E-19         0.00000E+00
    0.39757E-07         0.17579E-19         0.00000E+00
    0.39820E-07         0.13155E-19         0.00000E+00
    0.50106E-07         0.17695E-19         0.00000E+00
    0.50019E-07         0.22585E-19         0.00000E+00
    0.49851E-07         0.13039E-19         0.00000E+00
    0.49611E-07         0.21653E-19         0.00000E+00
    0.49306E-07         0.14435E-19         0.00000E+00
    0.48943E-07        -0.41677E-19         0.00000E+00
    0.48529E-07        -0.38417E-19         0.00000E+00
    0.48069E-07         0.13970E-20         0.00000E+00
    0.47568E-07        -0.69849E-21         0.00000E+00
    0.47033E-07        -0.13504E-19         0.00000E+00
    0.46468E-07         0.20955E-20         0.00000E+00
    0.45877E-07         0.31665E-19         0.00000E+00
    0.45265E-07         0.86147E-20         0.00000E+00
    0.44635E-07         0.14435E-19         0.00000E+00
    0.43991E-07         0.31432E-19         0.00000E+00
    0.43336E-07        -0.44238E-20         0.00000E+00
    0.42674E-07        -0.17695E-19         0.00000E+00
    0.42007E-07        -0.22817E-19         0.00000E+00
    0.41338E-07        -0.28405E-19         0.00000E+00
    0.40669E-07        -0.90804E-20         0.00000E+00
    0.40002E-07        -0.65193E-20         0.00000E+00
    0.39340E-07        -0.29337E-19         0.00000E+00
    0.38684E-07        -0.20023E-19         0.00000E+00
    0.38036E-07        -0.11409E-19         0.00000E+00
    0.37398E-07        -0.18859E-19         0.00000E+00
    0.36771E-07        -0.41910E-20         0.00000E+00
    0.36157E-07         0.69849E-20         0.00000E+00
    0.35556E-07        -0.39581E-20         0.00000E+00
    0.34970E-07        -0.81491E-20         0.00000E+00
    0.34400E-07        -0.26543E-19         0.00000E+00
    0.33847E-07        -0.42375E-19         0.00000E+00
    0.33311E-07        -0.10710E-19         0.00000E+00
    0.32794E-07        -0.10477E-19         0.00000E+00
    0.32295E-07        -0.28405E-19         0.00000E+00
    0.31817E-07        -0.21420E-19         0.00000E+00
    0.31359E-07         0.46566E-20         0.00000E+00
    0.30921E-07         0.12806E-19         0.00000E+00
    0.30505E-07        -0.74506E-20         0.00000E+00
    0.30110E-07        -0.69849E-20         0.00000E+00
    0.29737E-07         0.11874E-19         0.00000E+00
    0.29387E-07        -0.72177E-20         0.00000E+00
    0.29059E-07        -0.13970E-19         0.00000E+00
    0.28754E-07        -0.53551E-20         0.00000E+00
    0.28472E-07        -0.20955E-19         0.00000E+00
    0.28212E-07        -0.30734E-19         0.00000E+00
    0.27977E-07        -0.46566E-20         0.00000E+00
    0.27764E-07         0.14203E-19         0.00000E+00
    0.27575E-07         0.25611E-20         0.00000E+00
    0.27409E-07        -0.16997E-19         0.00000E+00
    0.27267E-07        -0.11874E-19         0.00000E+00
    0.27148E-07        -0.24913E-19         0.00000E+00
    0.27053E-07        -0.30734E-19         0.00000E+00
    0.26981E-07        -0.33993E-19         0.00000E+00
    0.26932E-07        -0.24913E-19         0.00000E+00
    0.26907E-07        -0.29337E-19         0.00000E+00
    0.26904E-07        -0.11874E-19         0.00000E+00
    0.26925E-07         0.10943E-19         0.00000E+00
    0.26968E-07        -0.19092E-19         0.00000E+00
    0.27034E-07        -0.13737E-19         0.00000E+00
    0.27122E-07        -0.32596E-20         0.00000E+00
    0.27232E-07         0.11642E-20         0.00000E+00
    0.27364E-07        -0.76834E-20         0.00000E+00
    0.27518E-07        -0.26077E-19         0.00000E+00
    0.27693E-07        -0.25611E-19         0.00000E+00
    0.27888E-07        -0.30734E-19         0.00000E+00
    0.28104E-07        -0.12340E-19         0.00000E+00
    0.28340E-07        -0.16065E-19         0.00000E+00
    0.28595E-07        -0.12806E-19         0.00000E+00
    0.28869E-07        -0.41910E-20         0.00000E+00
    0.29161E-07        -0.10710E-19         0.00000E+00
    0.29471E-07        -0.88476E-20         0.00000E+00
    0.29797E-07         0.53551E-20         0.00000E+00
    0.30140E-07        -0.51223E-20         0.00000E+00
    0.30498E-07        -0.15600E-19         0.00000E+00
    0.30870E-07        -0.30268E-20         0.00000E+00
    0.31256E-07        -0.13737E-19         0.00000E+00
    0.31654E-07        -0.10477E-19         0.00000E+00
    0.32063E-07        -0.93132E-21         0.00000E+00
    0.32482E-07        -0.74506E-20         0.00000E+00
    0.32910E-07        -0.16764E-19         0.00000E+00
    0.33344E-07        -0.60536E-20         0.00000E+00
    0.33784E-07        -0.11874E-19         0.00000E+00
    0.34228E-07        -0.12340E-19         0.00000E+00
    0.34674E-07        -0.20955E-20         0.00000E+00
    0.35119E-07        -0.10012E-19         0.00000E+00
    0.35562E-07        -0.72177E-20         0.00000E+00
    0.36001E-07        -0.97789E-20         0.00000E+00
    0.36432E-07        -0.69849E-20         0.00000E+00
    0.36853E-07        -0.52387E-20         0.00000E+00
    0.37262E-07         0.90804E-20         0.00000E+00
    0.37654E-07        -0.30268E-20         0.00000E+00
    0.38028E-07         0.55879E-20         0.00000E+00
    0.38378E-07         0.25262E-19         0.00000E+00
    0.38702E-07         0.32596E-20         0.00000E+00
    0.38994E-07         0.90804E-20         0.00000E+00
    0.39251E-07         0.23283E-20         0.00000E+00
    0.39467E-07        -0.13970E-20         0.00000E+00
    0.39638E-07         0.24796E-19         0.00000E+00
    0.39757E-07         0.19441E-19         0.00000E+00
    0.39820E-07         0.58208E-21         0.00000E+00
    0.50106E-07         0.22817E-19         0.00000E+00
    0.50019E-07         0.47963E-19         0.00000E+00
    0.49851E-07         0.31199E-19         0.00000E+00
    0.49611E-07         0.11874E-19         0.00000E+00
    0.49306E-07         0.20023E-19         0.00000E+00
    0.48943E-07         0.72177E-20         0.00000E+00
    0.48529E-07        -0.32363E-19         0.00000E+00
    0.48069E-07        -0.23516E-19         0.00000E+00
    0.47568E-07         0.16298E-20         0.00000E+00
    0.47033E-07        -0.10943E-19         0.00000E+00
    0.46468E-07        -0.16531E-19         0.00000E+00
    0.45877E-07         0.44238E-20         0.00000E+00
    0.45265E-07         0.51921E-19         0.00000E+00
    0.44635E-07         0.37253E-19         0.00000E+00
    0.43991E-07         0.72177E-20         0.00000E+00
    0.43336E-07         0.15600E-19         0.00000E+00
    0.42674E-07        -0.27940E-20         0.00000E+00
    0.42007E-07         0.55879E-20         0.00000E+00
    0.41338E-07         0.25146E-19         0.00000E+00
    0.40669E-07         0.44238E-20         0.00000E+00
    0.40002E-07        -0.18859E-19         0.00000E+00
    0.39340E-07        -0.23749E-19         0.00000E+00
    0.38684E-07        -0.27008E-19         0.00000E+00
    0.38036E-07        -0.15600E-19         0.00000E+00
    0.37398E-07        -0.74506E-20         0.00000E+00
    0.36771E-07        -0.97789E-20         0.00000E+00
    0.36157E-07         0.58208E-20         0.00000E+00
    0.35556E-07         0.10943E-19         0.00000E+00
    0.34970E-07        -0.16065E-19         0.00000E+00
    0.34400E-07        -0.41444E-19         0.00000E+00
    0.33847E-07        -0.20955E-19         0.00000E+00
    0.33311E-07        -0.76834E-20         0.00000E+00
    0.32794E-07        -0.12107E-19         0.00000E+00
    0.32295E-07        -0.20489E-19         0.00000E+00
    0.31817E-07        -0.15832E-19         0.00000E+00
    0.31359E-07        -0.23283E-21         0.00000E+00
    0.30921E-07         0.62864E-20         0.00000E+00
    0.30505E-07         0.93132E-20         0.00000E+00
    0.30110E-07         0.21653E-19         0.00000E+00
    0.29737E-07        -0.95461E-20         0.00000E+00
    0.29387E-07        -0.11409E-19         0.00000E+00
    0.29059E-07         0.90804E-20         0.00000E+00
    0.28754E-07        -0.18626E-19         0.00000E+00
    0.28472E-07        -0.17462E-19         0.00000E+00
    0.28212E-07        -0.32596E-20         0.00000E+00
    0.27977E-07        -0.19558E-19         0.00000E+00
    0.27764E-07        -0.34925E-20         0.00000E+00
    0.27575E-07         0.27940E-20         0.00000E+00
    0.27409E-07        -0.24680E-19         0.00000E+00
    0.27267E-07        -0.25844E-19         0.00000E+00
    0.27148E-07        -0.12107E-19         0.00000E+00
    0.27053E-07        -0.26776E-19         0.00000E+00
    0.26981E-07        -0.44005E-19         0.00000E+00
    0.26932E-07        -0.22817E-19         0.00000E+00
    0.26907E-07        -0.15600E-19         0.00000E+00
    0.26904E-07        -0.37253E-20         0.00000E+00
    0.26925E-07         0.00000E+00         0.00000E+00
    0.26968E-07         0.55879E-20         0.00000E+00
    0.27034E-07         0.53551E-20         0.00000E+00
    0.27122E-07        -0.32596E-20         0.00000E+00
    0.27232E-07        -0.10012E-19         0.00000E+00
    0.27364E-07        -0.28638E-19         0.00000E+00
    0.27518E-07        -0.13504E-19         0.00000E+00
    0.27693E-07        -0.90804E-20         0.00000E+00
    0.27888E-07        -0.25146E-19         0.00000E+00
    0.28104E-07        -0.20023E-19         0.00000E+00
    0.28340E-07        -0.58208E-20         0.00000E+00
    0.28595E-07        -0.18626E-20         0.00000E+00
    0.28869E-07        -0.93132E-20         0.00000E+00
    0.29161E-07        -0.13039E-19         0.00000E+00
    0.29471E-07        -0.18161E-19         0.00000E+00
    0.29797E-07        -0.22119E-19         0.00000E+00
    0.30140E-07        -0.97789E-20         0.00000E+00
    0.30498E-07        -0.12806E-19         0.00000E+00
    0.30870E-07        -0.14668E-19         0.00000E+00
    0.31256E-07        -0.12340E-19         0.00000E+00
    0.31654E-07        -0.18626E-19         0.00000E+00
    0.32063E-07        -0.15832E-19         0.00000E+00
    0.32482E-07        -0.60536E-20         0.00000E+00
    0.32910E-07        -0.41910E-20         0.00000E+00
    0.33344E-07        -0.62864E-20         0.00000E+00
    0.33784E-07         0.25611E-20         0.00000E+00
    0.34228E-07         0.79162E-20         0.00000E+00
    0.34674E-07         0.86147E-20         0.00000E+00
    0.35119E-07         0.41910E-20         0.00000E+00
    0.35562E-07         0.39581E-20         0.00000E+00
    0.36001E-07         0.79162E-20         0.00000E+00
    0.36432E-07         0.27940E-20         0.00000E+00
    0.36853E-07         0.12922E-19         0.00000E+00
    0.37262E-07         0.13621E-19         0.00000E+00
    0.37654E-07         0.15483E-19         0.00000E+00
    0.38028E-07         0.82655E-20         0.00000E+00
    0.38378E-07         0.64028E-20         0.00000E+00
    0.38702E-07         0.17928E-19         0.00000E+00
    0.38994E-07         0.15716E-19         0.00000E+00
    0.39251E-07         0.90804E-20         0.00000E+00
    0.39467E-07         0.26077E-19         0.00000E+00
    0.39638E-07         0.23283E-19         0.00000E+00
    0.39757E-07         0.15134E-20         0.00000E+00
    0.39820E-07        -0.44238E-20         0.00000E+00
    0.50106E-07        -0.88476E-20         0.00000E+00
    0.50019E-07         0.11409E-19         0.00000E+00
    0.49851E-07         0.35856E-19         0.00000E+00
    0.49611E-07         0.20489E-19         0.00000E+00
    0.49306E-07         0.10012E-19         0.00000E+00
    0.48943E-07         0.13970E-20         0.00000E+00
    0.48529E-07        -0.25844E-19         0.00000E+00
    0.48069E-07        -0.26543E-19         0.00000E+00
    0.47568E-07         0.31665E-19         0.00000E+00
    0.47033E-07         0.57044E-19         0.00000E+00
    0.46468E-07         0.19092E-19         0.00000E+00
    0.45877E-07         0.17462E-19         0.00000E+00
    0.45265E-07         0.17229E-19         0.00000E+00
    0.44635E-07         0.30966E-19         0.00000E+00
    0.43991E-07         0.20256E-19         0.00000E+00
    0.43336E-07        -0.58208E-20         0.00000E+00
    0.42674E-07        -0.90804E-20         0.00000E+00
    0.42007E-07        -0.23283E-20         0.00000E+00
    0.41338E-07         0.69849E-20         0.00000E+00
    0.40669E-07         0.16298E-20         0.00000E+00
    0.40002E-07        -0.11409E-19         0.00000E+00
    0.39340E-07        -0.27940E-19         0.00000E+00
    0.38684E-07        -0.38184E-19         0.00000E+00
    0.38036E-07        -0.83819E-20         0.00000E+00
    0.37398E-07         0.13271E-19         0.00000E+00
    0.36771E-07        -0.15367E-19         0.00000E+00
    0.36157E-07        -0.44238E-20         0.00000E+00
    0.35556E-07        -0.10943E-19         0.00000E+00
    0.34970E-07         0.55879E-20         0.00000E+00
    0.34400E-07        -0.18859E-19         0.00000E+00
    0.33847E-07        -0.31665E-19         0.00000E+00
    0.33311E-07         0.58208E-20         0.00000E+00
    0.32794E-07        -0.65193E-20         0.00000E+00
    0.32295E-07        -0.83819E-20         0.00000E+00
    0.31817E-07        -0.60536E-20         0.00000E+00
    0.31359E-07        -0.12573E-19         0.00000E+00
    0.30921E-07        -0.23283E-19         0.00000E+00
    0.30505E-07        -0.14901E-19         0.00000E+00
    0.30110E-07         0.86147E-20         0.00000E+00
    0.29737E-07         0.20489E-19         0.00000E+00
    0.29387E-07         0.22352E-19         0.00000E+00
    0.29059E-07         0.30268E-20         0.00000E+00
    0.28754E-07        -0.17462E-19         0.00000E+00
    0.28472E-07        -0.12573E-19         0.00000E+00
    0.28212E-07         0.20955E-20         0.00000E+00
    0.27977E-07        -0.10943E-19         0.00000E+00
    0.27764E-07        -0.81491E-20         0.00000E+00
    0.27575E-07         0.10710E-19         0.00000E+00
    0.27409E-07         0.95461E-20         0.00000E+00
    0.27267E-07        -0.11642E-20         0.00000E+00
    0.27148E-07        -0.10477E-19         0.00000E+00
    0.27053E-07        -0.29337E-19         0.00000E+00
    0.26981E-07        -0.24680E-19         0.00000E+00
    0.26932E-07        -0.95461E-20         0.00000E+00
    0.26907E-07        -0.16531E-19         0.00000E+00
    0.26904E-07        -0.44238E-20         0.00000E+00
    0.26925E-07         0.88476E-20         0.00000E+00
    0.26968E-07        -0.34925E-20         0.00000E+00
    0.27034E-07        -0.76834E-20         0.00000E+00
    0.27122E-07        -0.12573E-19         0.00000E+00
    0.27232E-07        -0.16065E-19         0.00000E+00
    0.27364E-07        -0.19325E-19         0.00000E+00
    0.27518E-07        -0.20955E-19         0.00000E+00
    0.27693E-07        -0.22817E-19         0.00000E+00
    0.27888E-07        -0.26776E-19         0.00000E+00
    0.28104E-07        -0.26077E-19         0.00000E+00
    0.28340E-07        -0.24214E-19         0.00000E+00
    0.28595E-07        -0.23749E-19         0.00000E+00
    0.28869E-07        -0.13504E-19         0.00000E+00
    0.29161E-07        -0.24680E-19         0.00000E+00
    0.29471E-07        -0.30268E-19         0.00000E+00
    0.29797E-07        -0.13504E-19         0.00000E+00
    0.30140E-07        -0.16764E-19         0.00000E+00
    0.30498E-07        -0.65193E-20         0.00000E+00
    0.30870E-07         0.13970E-20         0.00000E+00
    0.31256E-07        -0.20023E-19         0.00000E+00
    0.31654E-07        -0.18161E-19         0.00000E+00
    0.32063E-07        -0.51223E-20         0.00000E+00
    0.32482E-07        -0.22585E-19         0.00000E+00
    0.32910E-07        -0.19558E-19         0.00000E+00
    0.33344E-07        -0.10012E-19         0.00000E+00
    0.33784E-07        -0.10710E-19         0.00000E+00
    0.34228E-07        -0.24214E-19         0.00000E+00
    0.34674E-07        -0.12573E-19         0.00000E+00
    0.35119E-07         0.86147E-20         0.00000E+00
    0.35562E-07         0.16298E-20         0.00000E+00
    0.36001E-07        -0.93132E-20         0.00000E+00
    0.36432E-07        -0.74506E-20         0.00000E+00
    0.36853E-07         0.52387E-20         0.00000E+00
    0.37262E-07        -0.24447E-20         0.00000E+00
    0.37654E-07         0.98953E-20         0.00000E+00
    0.38028E-07         0.59372E-20         0.00000E+00
    0.38378E-07         0.16415E-19         0.00000E+00
    0.38702E-07         0.25961E-19         0.00000E+00
    0.38994E-07         0.17229E-19         0.00000E+00
    0.39251E-07         0.23516E-19         0.00000E+00
    0.39467E-07         0.20489E-19         0.00000E+00
    0.39638E-07         0.11642E-19         0.00000E+00
    0.39757E-07         0.71013E-20         0.00000E+00
    0.39820E-07         0.52387E-20         0.00000E+00
    0.50106E-07         0.41910E-20         0.00000E+00
    0.50019E-07         0.27940E-19         0.00000E+00
    0.49851E-07         0.69849E-20         0.00000E+00
    0.49611E-07         0.10245E-19         0.00000E+00
    0.49306E-07         0.27241E-19         0.00000E+00
    0.48943E-07         0.60536E-20         0.00000E+00
    0.48529E-07        -0.67521E-20         0.00000E+00
    0.48069E-07        -0.15832E-19         0.00000E+00
    0.47568E-07         0.11409E-19         0.00000E+00
    0.47033E-07         0.35623E-19         0.00000E+00
    0.46468E-07         0.11642E-20         0.00000E+00
    0.45877E-07        -0.93132E-21         0.00000E+00
    0.45265E-07         0.23516E-19         0.00000E+00
    0.44635E-07         0.10245E-19         0.00000E+00
    0.43991E-07        -0.10245E-19         0.00000E+00
    0.43336E-07         0.17928E-19         0.00000E+00
    0.42674E-07         0.13737E-19         0.00000E+00
    0.42007E-07         0.10245E-19         0.00000E+00
    0.41338E-07         0.93132E-20         0.00000E+00
    0.40669E-07        -0.74506E-20         0.00000E+00
    0.40002E-07         0.46566E-21         0.00000E+00
    0.39340E-07        -0.26077E-19         0.00000E+00
    0.38684E-07        -0.40280E-19         0.00000E+00
    0.38036E-07        -0.27940E-20         0.00000E+00
    0.37398E-07        -0.20955E-20         0.00000E+00
    0.36771E-07        -0.25379E-19         0.00000E+00
    0.36157E-07        -0.90804E-20         0.00000E+00
    0.35556E-07         0.11642E-20         0.00000E+00
    0.34970E-07         0.16298E-20         0.00000E+00
    0.34400E-07         0.20955E-20         0.00000E+00
    0.33847E-07        -0.12573E-19         0.00000E+00
    0.33311E-07        -0.37253E-19         0.00000E+00
    0.32794E-07        -0.14668E-19         0.00000E+00
    0.32295E-07        -0.93132E-20         0.00000E+00
    0.31817E-07        -0.46566E-20         0.00000E+00
    0.31359E-07        -0.46566E-21         0.00000E+00
    0.30921E-07        -0.18626E-19         0.00000E+00
    0.30505E-07        -0.13039E-19         0.00000E+00
    0.30110E-07        -0.13737E-19         0.00000E+00
    0.29737E-07         0.46566E-21         0.00000E+00
    0.29387E-07         0.12107E-19         0.00000E+00
    0.29059E-07        -0.72177E-20         0.00000E+00
    0.28754E-07        -0.18626E-19         0.00000E+00
    0.28472E-07        -0.37616E-36         0.00000E+00
    0.28212E-07        -0.93132E-21         0.00000E+00
    0.27977E-07        -0.13970E-19         0.00000E+00
    0.27764E-07         0.72177E-20         0.00000E+00
    0.27575E-07         0.93132E-20         0.00000E+00
    0.27409E-07        -0.60536E-20         0.00000E+00
    0.27267E-07        -0.29802E-19         0.00000E+00
    0.27148E-07        -0.22352E-19         0.00000E+00
    0.27053E-07        -0.46566E-21         0.00000E+00
    0.26981E-07        -0.32596E-20         0.00000E+00
    0.26932E-07        -0.16065E-19         0.00000E+00
    0.26907E-07        -0.12573E-19         0.00000E+00
    0.26904E-07        -0.11874E-19         0.00000E+00
    0.26925E-07         0.34925E-20         0.00000E+00
    0.26968E-07        -0.10710E-19         0.00000E+00
    0.27034E-07        -0.40280E-19         0.00000E+00
    0.27122E-07        -0.67521E-20         0.00000E+00
    0.27232E-07         0.58208E-20         0.00000E+00
    0.27364E-07        -0.20023E-19         0.00000E+00
    0.27518E-07        -0.26077E-19         0.00000E+00
    0.27693E-07        -0.17928E-19         0.00000E+00
    0.27888E-07        -0.30734E-19         0.00000E+00
    0.28104E-07        -0.32829E-19         0.00000E+00
    0.28340E-07        -0.17695E-19         0.00000E+00
    0.28595E-07        -0.24913E-19         0.00000E+00
    0.28869E-07        -0.29337E-19         0.00000E+00
    0.29161E-07        -0.17229E-19         0.00000E+00
    0.29471E-07        -0.24214E-19         0.00000E+00
    0.29797E-07        -0.14435E-19         0.00000E+00
    0.30140E-07        -0.69849E-20         0.00000E+00
    0.30498E-07         0.69849E-20         0.00000E+00
    0.30870E-07        -0.34925E-20         0.00000E+00
    0.31256E-07        -0.30268E-19         0.00000E+00
    0.31654E-07        -0.21653E-19         0.00000E+00
    0.32063E-07        -0.95461E-20         0.00000E+00
    0.32482E-07        -0.18626E-19         0.00000E+00
    0.32910E-07        -0.13039E-19         0.00000E+00
    0.33344E-07        -0.23283E-20         0.00000E+00
    0.33784E-07         0.53551E-20         0.00000E+00
    0.34228E-07         0.13970E-20         0.00000E+00
    0.34674E-07        -0.55879E-20         0.00000E+00
    0.35119E-07        -0.13271E-19         0.00000E+00
    0.35562E-07        -0.15367E-19         0.00000E+00
    0.36001E-07         0.55879E-20         0.00000E+00
    0.36432E-07         0.14203E-19         0.00000E+00
    0.36853E-07         0.24331E-19         0.00000E+00
    0.37262E-07         0.15716E-19         0.00000E+00
    0.37654E-07         0.55879E-20         0.00000E+00
    0.38028E-07         0.14552E-19         0.00000E+00
    0.38378E-07         0.11525E-19         0.00000E+00
    0.38702E-07         0.18044E-19         0.00000E+00
    0.38994E-07        -0.13970E-20         0.00000E+00
    0.39251E-07        -0.83819E-20         0.00000E+00
    0.39467E-07        -0.11642E-20         0.00000E+00
    0.39638E-07         0.31432E-20         0.00000E+00
    0.39757E-07         0.98953E-20         0.00000E+00
    0.39820E-07         0.41910E-20         0.00000E+00
    0.50106E-07         0.16065E-19         0.00000E+00
    0.50019E-07         0.37951E-19         0.00000E+00
    0.49851E-07         0.36787E-19         0.00000E+00
    0.49611E-07        -0.15832E-19         0.00000E+00
    0.49306E-07        -0.13970E-19         0.00000E+00
    0.48943E-07        -0.19325E-19         0.00000E+00
    0.48529E-07        -0.53551E-19         0.00000E+00
    0.48069E-07        -0.56811E-19         0.00000E+00
    0.47568E-07        -0.21886E-19         0.00000E+00
    0.47033E-07         0.19325E-19         0.00000E+00
    0.46468E-07         0.20955E-19         0.00000E+00
    0.45877E-07        -0.18626E-19         0.00000E+00
    0.45265E-07        -0.31432E-19         0.00000E+00
    0.44635E-07         0.67521E-20         0.00000E+00
    0.43991E-07         0.10477E-19         0.00000E+00
    0.43336E-07         0.20023E-19         0.00000E+00
    0.42674E-07         0.35390E-19         0.00000E+00
    0.42007E-07         0.14901E-19         0.00000E+00
    0.41338E-07         0.00000E+00         0.00000E+00
    0.40669E-07         0.11874E-19         0.00000E+00
    0.40002E-07        -0.18626E-20         0.00000E+00
    0.39340E-07        -0.14901E-19         0.00000E+00
    0.38684E-07        -0.12806E-19         0.00000E+00
    0.38036E-07         0.74506E-20         0.00000E+00
    0.37398E-07         0.15600E-19         0.00000E+00
    0.36771E-07        -0.18626E-20         0.00000E+00
    0.36157E-07        -0.15600E-19         0.00000E+00
    0.35556E-07        -0.28173E-19         0.00000E+00
    0.34970E-07        -0.12806E-19         0.00000E+00
    0.34400E-07         0.22585E-19         0.00000E+00
    0.33847E-07         0.18859E-19         0.00000E+00
    0.33311E-07        -0.72177E-20         0.00000E+00
    0.32794E-07        -0.20722E-19         0.00000E+00
    0.32295E-07        -0.11642E-19         0.00000E+00
    0.31817E-07         0.13970E-20         0.00000E+00
    0.31359E-07         0.74506E-20         0.00000E+00
    0.30921E-07         0.10245E-19         0.00000E+00
    0.30505E-07        -0.24913E-19         0.00000E+00
    0.30110E-07         0.32596E-20         0.00000E+00
    0.29737E-07         0.13737E-19         0.00000E+00
    0.29387E-07        -0.74506E-20         0.00000E+00
    0.29059E-07        -0.13970E-19         0.00000E+00
    0.28754E-07        -0.11642E-19         0.00000E+00
    0.28472E-07         0.16764E-19         0.00000E+00
    0.28212E-07        -0.20955E-20         0.00000E+00
    0.27977E-07        -0.95461E-20         0.00000E+00
    0.27764E-07        -0.23283E-21         0.00000E+00
    0.27575E-07        -0.93132E-21         0.00000E+00
    0.27409E-07        -0.14435E-19         0.00000E+00
    0.27267E-07        -0.17695E-19         0.00000E+00
    0.27148E-07        -0.19325E-19         0.00000E+00
    0.27053E-07        -0.81491E-20         0.00000E+00
    0.26981E-07        -0.88476E-20         0.00000E+00
    0.26932E-07        -0.16531E-19         0.00000E+00
    0.26907E-07        -0.32596E-20         0.00000E+00
    0.26904E-07         0.18161E-19         0.00000E+00
    0.26925E-07         0.18626E-19         0.00000E+00
    0.26968E-07         0.13039E-19         0.00000E+00
    0.27034E-07        -0.18626E-20         0.00000E+00
    0.27122E-07        -0.11642E-19         0.00000E+00
    0.27232E-07        -0.39581E-20         0.00000E+00
    0.27364E-07        -0.18161E-19         0.00000E+00
    0.27518E-07        -0.17229E-19         0.00000E+00
    0.27693E-07        -0.16531E-19         0.00000E+00
    0.27888E-07        -0.97789E-20         0.00000E+00
    0.28104E-07        -0.11176E-19         0.00000E+00
    0.28340E-07        -0.28405E-19         0.00000E+00
    0.28595E-07        -0.16531E-19         0.00000E+00
    0.28869E-07        -0.30966E-19         0.00000E+00
    0.29161E-07        -0.33760E-19         0.00000E+00
    0.29471E-07        -0.12107E-19         0.00000E+00
    0.29797E-07         0.93132E-21         0.00000E+00
    0.30140E-07         0.23283E-20         0.00000E+00
    0.30498E-07         0.46566E-20         0.00000E+00
    0.30870E-07         0.48894E-20         0.00000E+00
    0.31256E-07        -0.26776E-19         0.00000E+00
    0.31654E-07        -0.24447E-19         0.00000E+00
    0.32063E-07        -0.93132E-20         0.00000E+00
    0.32482E-07        -0.19092E-19         0.00000E+00
    0.32910E-07        -0.20955E-20         0.00000E+00
    0.33344E-07         0.34925E-20         0.00000E+00
    0.33784E-07        -0.11409E-19         0.00000E+00
    0.34228E-07        -0.37253E-20         0.00000E+00
    0.34674E-07         0.11874E-19         0.00000E+00
    0.35119E-07         0.30268E-20         0.00000E+00
    0.35562E-07        -0.11642E-19         0.00000E+00
    0.36001E-07        -0.13504E-19         0.00000E+00
    0.36432E-07         0.46566E-20         0.00000E+00
    0.36853E-07         0.90804E-20         0.00000E+00
    0.37262E-07        -0.69849E-21         0.00000E+00
    0.37654E-07        -0.30268E-20         0.00000E+00
    0.38028E-07         0.64028E-20         0.00000E+00
    0.38378E-07         0.15134E-19         0.00000E+00
    0.38702E-07         0.16764E-19         0.00000E+00
    0.38994E-07         0.15483E-19         0.00000E+00
    0.39251E-07         0.37253E-20         0.00000E+00
    0.39467E-07         0.10710E-19         0.00000E+00
    0.39638E-07         0.15483E-19         0.00000E+00
    0.39757E-07         0.33760E-20         0.00000E+00
    0.39820E-07        -0.13970E-20         0.00000E+00
    0.50106E-07         0.83819E-20         0.00000E+00
    0.50019E-07         0.21188E-19         0.00000E+00
    0.49851E-07         0.16764E-19         0.00000E+00
    0.49611E-07         0.51223E-20         0.00000E+00
    0.49306E-07        -0.15832E-19         0.00000E+00
    0.48943E-07        -0.19325E-19         0.00000E+00
    0.48529E-07        -0.74506E-20         0.00000E+00
    0.48069E-07         0.27940E-19         0.00000E+00
    0.47568E-07         0.35623E-19         0.00000E+00
    0.47033E-07         0.24680E-19         0.00000E+00
    0.46468E-07         0.23749E-19         0.00000E+00
    0.45877E-07         0.12573E-19         0.00000E+00
    0.45265E-07         0.69849E-20         0.00000E+00
    0.44635E-07        -0.13970E-20         0.00000E+00
    0.43991E-07         0.58208E-20         0.00000E+00
    0.43336E-07         0.55879E-20         0.00000E+00
    0.42674E-07         0.16298E-20         0.00000E+00
    0.42007E-07        -0.69849E-20         0.00000E+00
    0.41338E-07        -0.16531E-19         0.00000E+00
    0.40669E-07         0.51223E-20         0.00000E+00
    0.40002E-07         0.76834E-20         0.00000E+00
    0.39340E-07        -0.90804E-20         0.00000E+00
    0.38684E-07        -0.86147E-20         0.00000E+00
    0.38036E-07         0.55879E-20         0.00000E+00
    0.37398E-07         0.17229E-19         0.00000E+00
    0.36771E-07         0.60536E-20         0.00000E+00
    0.36157E-07        -0.13271E-19         0.00000E+00
    0.35556E-07        -0.24913E-19         0.00000E+00
    0.34970E-07        -0.81491E-20         0.00000E+00
    0.34400E-07         0.13039E-19         0.00000E+00
    0.33847E-07         0.28638E-19         0.00000E+00
    0.33311E-07         0.22817E-19         0.00000E+00
    0.32794E-07        -0.17229E-19         0.00000E+00
    0.32295E-07        -0.88476E-20         0.00000E+00
    0.31817E-07         0.15832E-19         0.00000E+00
    0.31359E-07         0.21653E-19         0.00000E+00
    0.30921E-07         0.23749E-19         0.00000E+00
    0.30505E-07         0.10245E-19         0.00000E+00
    0.30110E-07         0.37253E-20         0.00000E+00
    0.29737E-07        -0.13039E-19         0.00000E+00
    0.29387E-07        -0.69849E-21         0.00000E+00
    0.29059E-07         0.10943E-19         0.00000E+00
    0.28754E-07        -0.83819E-20         0.00000E+00
    0.28472E-07        -0.13039E-19         0.00000E+00
    0.28212E-07         0.13504E-19         0.00000E+00
    0.27977E-07         0.16997E-19         0.00000E+00
    0.27764E-07        -0.83819E-20         0.00000E+00
    0.27575E-07        -0.15367E-19         0.00000E+00
    0.27409E-07        -0.20955E-19         0.00000E+00
    0.27267E-07        -0.22585E-19         0.00000E+00
    0.27148E-07        -0.86147E-20         0.00000E+00
    0.27053E-07        -0.11176E-19         0.00000E+00
    0.26981E-07        -0.93132E-20         0.00000E+00
    0.26932E-07        -0.27940E-20         0.00000E+00
    0.26907E-07        -0.62864E-20         0.00000E+00
    0.26904E-07        -0.23283E-20         0.00000E+00
    0.26925E-07        -0.10710E-19         0.00000E+00
    0.26968E-07        -0.76834E-20         0.00000E+00
    0.27034E-07        -0.79162E-20         0.00000E+00
    0.27122E-07        -0.23283E-19         0.00000E+00
    0.27232E-07        -0.11409E-19         0.00000E+00
    0.27364E-07        -0.16531E-19         0.00000E+00
    0.27518E-07        -0.13504E-19         0.00000E+00
    0.27693E-07        -0.13970E-19         0.00000E+00
    0.27888E-07         0.18626E-20         0.00000E+00
    0.28104E-07         0.25611E-19         0.00000E+00
    0.28340E-07        -0.58208E-20         0.00000E+00
    0.28595E-07        -0.15832E-19         0.00000E+00
    0.28869E-07        -0.79162E-20         0.00000E+00
    0.29161E-07        -0.20023E-19         0.00000E+00
    0.29471E-07        -0.25379E-19         0.00000E+00
    0.29797E-07        -0.14435E-19         0.00000E+00
    0.30140E-07        -0.69849E-21         0.00000E+00
    0.30498E-07         0.10012E-19         0.00000E+00
    0.30870E-07        -0.24447E-19         0.00000E+00
    0.31256E-07        -0.31432E-19         0.00000E+00
    0.31654E-07        -0.10012E-19         0.00000E+00
    0.32063E-07        -0.14435E-19         0.00000E+00
    0.32482E-07        -0.12107E-19         0.00000E+00
    0.32910E-07         0.18626E-20         0.00000E+00
    0.33344E-07        -0.46566E-21         0.00000E+00
    0.33784E-07         0.44238E-20         0.00000E+00
    0.34228E-07         0.18394E-19         0.00000E+00
    0.34674E-07         0.90804E-20         0.00000E+00
    0.35119E-07        -0.12573E-19         0.00000E+00
    0.35562E-07        -0.60536E-20         0.00000E+00
    0.36001E-07        -0.65193E-20         0.00000E+00
    0.36432E-07        -0.10710E-19         0.00000E+00
    0.36853E-07         0.12806E-20         0.00000E+00
    0.37262E-07         0.77998E-20         0.00000E+00
    0.37654E-07         0.72177E-20         0.00000E+00
    0.38028E-07         0.32596E-20         0.00000E+00
    0.38378E-07         0.59372E-20         0.00000E+00
    0.38702E-07         0.12689E-19         0.00000E+00
    0.38994E-07        -0.69849E-21         0.00000E+00
    0.39251E-07         0.55879E-20         0.00000E+00
    0.39467E-07         0.12573E-19         0.00000E+00
    0.39638E-07         0.18626E-20         0.00000E+00
    0.39757E-07         0.11642E-19         0.00000E+00
    0.39820E-07         0.34925E-20         0.00000E+00
    0.50106E-07         0.37253E-20         0.00000E+00
    0.50019E-07         0.14203E-19         0.00000E+00
    0.49851E-07         0.60536E-20         0.00000E+00
    0.49611E-07        -0.13504E-19         0.00000E+00
    0.49306E-07        -0.30268E-19         0.00000E+00
    0.48943E-07         0.23283E-21         0.00000E+00
    0.48529E-07        -0.16298E-20         0.00000E+00
    0.48069E-07        -0.75232E-36         0.00000E+00
    0.47568E-07         0.10943E-19         0.00000E+00
    0.47033E-07        -0.29569E-19         0.00000E+00
    0.46468E-07         0.55879E-20         0.00000E+00
    0.45877E-07         0.15134E-19         0.00000E+00
    0.45265E-07        -0.76834E-20         0.00000E+00
    0.44635E-07         0.13271E-19         0.00000E+00
    0.43991E-07         0.27241E-19         0.00000E+00
    0.43336E-07         0.20023E-19         0.00000E+00
    0.42674E-07         0.19325E-19         0.00000E+00
    0.42007E-07         0.32596E-20         0.00000E+00
    0.41338E-07        -0.10710E-19         0.00000E+00
    0.40669E-07         0.16298E-20         0.00000E+00
    0.40002E-07        -0.93132E-20         0.00000E+00
    0.39340E-07        -0.16764E-19         0.00000E+00
    0.38684E-07        -0.65193E-20         0.00000E+00
    0.38036E-07        -0.93132E-21         0.00000E+00
    0.37398E-07         0.13271E-19         0.00000E+00
    0.36771E-07         0.41910E-20         0.00000E+00
    0.36157E-07        -0.67521E-20         0.00000E+00
    0.35556E-07         0.10943E-19         0.00000E+00
    0.34970E-07        -0.58208E-20         0.00000E+00
    0.34400E-07         0.86147E-20         0.00000E+00
    0.33847E-07         0.12573E-19         0.00000E+00
    0.33311E-07         0.93132E-20         0.00000E+00
    0.32794E-07         0.16298E-20         0.00000E+00
    0.32295E-07        -0.11642E-20         0.00000E+00
    0.31817E-07        -0.93132E-21         0.00000E+00
    0.31359E-07        -0.46566E-20         0.00000E+00
    0.30921E-07        -0.65193E-20         0.00000E+00
    0.30505E-07        -0.22352E-19         0.00000E+00
    0.30110E-07        -0.10943E-19         0.00000E+00
    0.29737E-07        -0.16298E-19         0.00000E+00
    0.29387E-07        -0.30035E-19         0.00000E+00
    0.29059E-07        -0.22119E-19         0.00000E+00
    0.28754E-07        -0.34925E-20         0.00000E+00
    0.28472E-07        -0.15134E-19         0.00000E+00
    0.28212E-07        -0.86147E-20         0.00000E+00
    0.27977E-07        -0.76834E-20         0.00000E+00
    0.27764E-07        -0.26077E-19         0.00000E+00
    0.27575E-07        -0.23749E-19         0.00000E+00
    0.27409E-07        -0.23982E-19         0.00000E+00
    0.27267E-07        -0.19092E-19         0.00000E+00
    0.27148E-07        -0.67521E-20         0.00000E+00
    0.27053E-07        -0.13970E-19         0.00000E+00
    0.26981E-07        -0.18161E-19         0.00000E+00
    0.26932E-07        -0.95461E-20         0.00000E+00
    0.26907E-07        -0.11642E-19         0.00000E+00
    0.26904E-07        -0.12107E-19         0.00000E+00
    0.26925E-07         0.11409E-19         0.00000E+00
    0.26968E-07        -0.83819E-20         0.00000E+00
    0.27034E-07        -0.26310E-19         0.00000E+00
    0.27122E-07        -0.27474E-19         0.00000E+00
    0.27232E-07        -0.19325E-19         0.00000E+00
    0.27364E-07        -0.18626E-19         0.00000E+00
    0.27518E-07        -0.11642E-19         0.00000E+00
    0.27693E-07        -0.74506E-20         0.00000E+00
    0.27888E-07        -0.19092E-19         0.00000E+00
    0.28104E-07        -0.14435E-19         0.00000E+00
    0.28340E-07        -0.27707E-19         0.00000E+00
    0.28595E-07        -0.12806E-19         0.00000E+00
    0.28869E-07         0.93132E-20         0.00000E+00
    0.29161E-07        -0.97789E-20         0.00000E+00
    0.29471E-07        -0.79162E-20         0.00000E+00
    0.29797E-07        -0.90804E-20         0.00000E+00
    0.30140E-07        -0.95461E-20         0.00000E+00
    0.30498E-07         0.97789E-20         0.00000E+00
    0.30870E-07         0.67521E-20         0.00000E+00
    0.31256E-07        -0.13039E-19         0.00000E+00
    0.31654E-07        -0.30966E-19         0.00000E+00
    0.32063E-07        -0.18626E-19         0.00000E+00
    0.32482E-07        -0.47020E-37         0.00000E+00
    0.32910E-07         0.12107E-19         0.00000E+00
    0.33344E-07         0.97789E-20         0.00000E+00
    0.33784E-07         0.10012E-19         0.00000E+00
    0.34228E-07         0.12340E-19         0.00000E+00
    0.34674E-07        -0.76834E-20         0.00000E+00
    0.35119E-07        -0.11176E-19         0.00000E+00
    0.35562E-07         0.88476E-20         0.00000E+00
    0.36001E-07         0.69849E-21         0.00000E+00
    0.36432E-07        -0.15600E-19         0.00000E+00
    0.36853E-07        -0.30268E-20         0.00000E+00
    0.37262E-07        -0.10361E-19         0.00000E+00
    0.37654E-07        -0.12806E-19         0.00000E+00
    0.38028E-07        -0.19791E-20         0.00000E+00
    0.38378E-07        -0.89640E-20         0.00000E+00
    0.38702E-07        -0.19441E-19         0.00000E+00
    0.38994E-07        -0.19907E-19         0.00000E+00
    0.39251E-07        -0.22119E-20         0.00000E+00
    0.39467E-07        -0.12224E-19         0.00000E+00
    0.39638E-07        -0.29104E-20         0.00000E+00
    0.39757E-07         0.12922E-19         0.00000E+00
    0.39820E-07         0.61700E-20         0.00000E+00
    0.50106E-07        -0.74506E-20         0.00000E+00
    0.50019E-07         0.10943E-19         0.00000E+00
    0.49851E-07        -0.60536E-20         0.00000E+00
    0.49611E-07        -0.14668E-19         0.00000E+00
    0.49306E-07        -0.41910E-20         0.00000E+00
    0.48943E-07        -0.65193E-20         0.00000E+00
    0.48529E-07        -0.19325E-19         0.00000E+00
    0.48069E-07        -0.32131E-19         0.00000E+00
    0.47568E-07        -0.69849E-20         0.00000E+00
    0.47033E-07         0.32596E-20         0.00000E+00
    0.46468E-07        -0.76834E-20         0.00000E+00
    0.45877E-07         0.17928E-19         0.00000E+00
    0.45265E-07         0.27241E-19         0.00000E+00
    0.44635E-07         0.14901E-19         0.00000E+00
    0.43991E-07         0.90804E-20         0.00000E+00
    0.43336E-07        -0.12573E-19         0.00000E+00
    0.42674E-07        -0.16997E-19         0.00000E+00
    0.42007E-07        -0.16065E-19         0.00000E+00
    0.41338E-07        -0.27008E-19         0.00000E+00
    0.40669E-07        -0.83819E-20         0.00000E+00
    0.40002E-07        -0.76834E-20         0.00000E+00
    0.39340E-07        -0.14203E-19         0.00000E+00
    0.38684E-07        -0.58208E-20         0.00000E+00
    0.38036E-07        -0.74506E-20         0.00000E+00
    0.37398E-07        -0.51223E-20         0.00000E+00
    0.36771E-07        -0.30268E-20         0.00000E+00
    0.36157E-07        -0.14435E-19         0.00000E+00
    0.35556E-07        -0.12806E-19         0.00000E+00
    0.34970E-07        -0.67521E-20         0.00000E+00
    0.34400E-07        -0.19558E-19         0.00000E+00
    0.33847E-07        -0.27940E-20         0.00000E+00
    0.33311E-07         0.97789E-20         0.00000E+00
    0.32794E-07         0.79162E-20         0.00000E+00
    0.32295E-07        -0.53551E-20         0.00000E+00
    0.31817E-07        -0.51223E-20         0.00000E+00
    0.31359E-07        -0.27940E-20         0.00000E+00
    0.30921E-07        -0.22585E-19         0.00000E+00
    0.30505E-07        -0.10710E-19         0.00000E+00
    0.30110E-07         0.00000E+00         0.00000E+00
    0.29737E-07        -0.88476E-20         0.00000E+00
    0.29387E-07        -0.60536E-20         0.00000E+00
    0.29059E-07        -0.12340E-19         0.00000E+00
    0.28754E-07        -0.14668E-19         0.00000E+00
    0.28472E-07         0.46566E-20         0.00000E+00
    0.28212E-07         0.00000E+00         0.00000E+00
    0.27977E-07         0.13970E-20         0.00000E+00
    0.27764E-07        -0.32596E-20         0.00000E+00
    0.27575E-07        -0.15832E-19         0.00000E+00
    0.27409E-07        -0.13039E-19         0.00000E+00
    0.27267E-07        -0.83819E-20         0.00000E+00
    0.27148E-07         0.90804E-20         0.00000E+00
    0.27053E-07         0.65193E-20         0.00000E+00
    0.26981E-07         0.41910E-20         0.00000E+00
    0.26932E-07        -0.20955E-20         0.00000E+00
    0.26907E-07        -0.22817E-19         0.00000E+00
    0.26904E-07        -0.79162E-20         0.00000E+00
    0.26925E-07        -0.32596E-20         0.00000E+00
    0.26968E-07        -0.60536E-20         0.00000E+00
    0.27034E-07        -0.53551E-20         0.00000E+00
    0.27122E-07        -0.11874E-19         0.00000E+00
    0.27232E-07        -0.81491E-20         0.00000E+00
    0.27364E-07         0.46566E-20         0.00000E+00
    0.27518E-07        -0.11409E-19         0.00000E+00
    0.27693E-07        -0.10245E-19         0.00000E+00
    0.27888E-07        -0.74506E-20         0.00000E+00
    0.28104E-07        -0.14668E-19         0.00000E+00
    0.28340E-07        -0.15600E-19         0.00000E+00
    0.28595E-07        -0.10710E-19         0.00000E+00
    0.28869E-07         0.46566E-20         0.00000E+00
    0.29161E-07         0.11874E-19         0.00000E+00
    0.29471E-07         0.37253E-20         0.00000E+00
    0.29797E-07        -0.69849E-20         0.00000E+00
    0.30140E-07         0.41910E-20         0.00000E+00
    0.30498E-07        -0.72177E-20         0.00000E+00
    0.30870E-07        -0.25146E-19         0.00000E+00
    0.31256E-07        -0.23749E-19         0.00000E+00
    0.31654E-07        -0.39581E-20         0.00000E+00
    0.32063E-07         0.11176E-19         0.00000E+00
    0.32482E-07         0.16298E-20         0.00000E+00
    0.32910E-07        -0.16298E-19         0.00000E+00
    0.33344E-07         0.93132E-21         0.00000E+00
    0.33784E-07         0.60536E-20         0.00000E+00
    0.34228E-07        -0.10245E-19         0.00000E+00
    0.34674E-07        -0.16298E-20         0.00000E+00
    0.35119E-07         0.10477E-19         0.00000E+00
    0.35562E-07         0.81491E-20         0.00000E+00
    0.36001E-07        -0.27940E-20         0.00000E+00
    0.36432E-07        -0.90804E-20         0.00000E+00
    0.36853E-07        -0.19441E-19         0.00000E+00
    0.37262E-07        -0.11991E-19         0.00000E+00
    0.37654E-07        -0.34925E-20         0.00000E+00
    0.38028E-07         0.87311E-20         0.00000E+00
    0.38378E-07         0.11991E-19         0.00000E+00
    0.38702E-07        -0.90804E-20         0.00000E+00
    0.38994E-07        -0.45402E-20         0.00000E+00
    0.39251E-07         0.12340E-19         0.00000E+00
    0.39467E-07         0.10943E-19         0.00000E+00
    0.39638E-07         0.77998E-20         0.00000E+00
    0.39757E-07         0.43074E-20         0.00000E+00
    0.39820E-07         0.29104E-20         0.00000E+00
POINT_DATA       5151
VECTORS vDarcyNodal double 
    0.50106E-07         0.00000E+00         0.00000E+00
    0.50062E-07         0.00000E+00         0.00000E+00
    0.49935E-07         0.00000E+00         0.00000E+00
    0.49731E-07         0.00000E+00         0.00000E+00
    0.49459E-07         0.00000E+00         0.00000E+00
    0.49125E-07        -0.14901E-19         0.00000E+00
    0.48736E-07        -0.37253E-20         0.00000E+00
    0.48299E-07         0.93132E-20         0.00000E+00
    0.47818E-07        -0.11176E-19         0.00000E+00
    0.47301E-07         0.74506E-20         0.00000E+00
    0.46751E-07         0.00000E+00         0.00000E+00
    0.46172E-07        -0.74506E-20         0.00000E+00
    0.45571E-07        -0.14901E-19         0.00000E+00
    0.44950E-07         0.37253E-20         0.00000E+00
    0.44313E-07        -0.55879E-20         0.00000E+00
    0.43664E-07        -0.37253E-20         0.00000E+00
    0.43005E-07        -0.74506E-20         0.00000E+00
    0.42341E-07        -0.74506E-20         0.00000E+00
    0.41672E-07        -0.93132E-20         0.00000E+00
    0.41003E-07         0.00000E+00         0.00000E+00
    0.40335E-07         0.74506E-20         0.00000E+00
    0.39671E-07        -0.74506E-20         0.00000E+00
    0.39012E-07         0.00000E+00         0.00000E+00
    0.38360E-07         0.14901E-19         0.00000E+00
    0.37717E-07         0.74506E-20         0.00000E+00
    0.37085E-07        -0.11176E-19         0.00000E+00
    0.36464E-07         0.00000E+00         0.00000E+00
    0.35856E-07         0.00000E+00         0.00000E+00
    0.35263E-07         0.55879E-20         0.00000E+00
    0.34685E-07        -0.11176E-19         0.00000E+00
    0.34123E-07         0.14901E-19         0.00000E+00
    0.33579E-07        -0.11176E-19         0.00000E+00
    0.33052E-07        -0.74506E-20         0.00000E+00
    0.32545E-07        -0.18626E-19         0.00000E+00
    0.32056E-07         0.00000E+00         0.00000E+00
    0.31588E-07         0.37253E-20         0.00000E+00
    0.31140E-07        -0.22352E-19         0.00000E+00
    0.30713E-07         0.11176E-19         0.00000E+00
    0.30308E-07        -0.74506E-20         0.00000E+00
    0.29924E-07        -0.11176E-19         0.00000E+00
    0.29562E-07         0.14901E-19         0.00000E+00
    0.29223E-07        -0.74506E-20         0.00000E+00
    0.28906E-07         0.18626E-19         0.00000E+00
    0.28613E-07        -0.74506E-20         0.00000E+00
    0.28342E-07         0.11176E-19         0.00000E+00
    0.28094E-07        -0.11176E-19         0.00000E+00
    0.27870E-07         0.37253E-20         0.00000E+00
    0.27669E-07         0.55879E-20         0.00000E+00
    0.27492E-07        -0.11176E-19         0.00000E+00
    0.27338E-07         0.93132E-20         0.00000E+00
    0.27207E-07        -0.37253E-20         0.00000E+00
    0.27100E-07        -0.11176E-19         0.00000E+00
    0.27017E-07        -0.37253E-20         0.00000E+00
    0.26956E-07         0.00000E+00         0.00000E+00
    0.26919E-07        -0.93132E-20         0.00000E+00
    0.26905E-07         0.74506E-20         0.00000E+00
    0.26914E-07         0.74506E-20         0.00000E+00
    0.26946E-07         0.00000E+00         0.00000E+00
    0.27001E-07         0.18626E-20         0.00000E+00
    0.27078E-07        -0.74506E-20         0.00000E+00
    0.27177E-07         0.00000E+00         0.00000E+00
    0.27298E-07         0.00000E+00         0.00000E+00
    0.27441E-07        -0.74506E-20         0.00000E+00
    0.27605E-07         0.00000E+00         0.00000E+00
    0.27790E-07        -0.74506E-20         0.00000E+00
    0.27996E-07         0.00000E+00         0.00000E+00
    0.28222E-07        -0.18626E-20         0.00000E+00
    0.28467E-07        -0.37253E-20         0.00000E+00
    0.28732E-07         0.74506E-20         0.00000E+00
    0.29015E-07        -0.74506E-20         0.00000E+00
    0.29316E-07         0.37253E-20         0.00000E+00
    0.29634E-07        -0.11176E-19         0.00000E+00
    0.29968E-07         0.74506E-20         0.00000E+00
    0.30319E-07        -0.18626E-20         0.00000E+00
    0.30684E-07         0.00000E+00         0.00000E+00
    0.31063E-07        -0.14901E-19         0.00000E+00
    0.31455E-07         0.74506E-20         0.00000E+00
    0.31859E-07         0.00000E+00         0.00000E+00
    0.32273E-07         0.74506E-20         0.00000E+00
    0.32696E-07        -0.18626E-20         0.00000E+00
    0.33127E-07         0.74506E-20         0.00000E+00
    0.33564E-07         0.18626E-20         0.00000E+00
    0.34006E-07         0.18626E-20         0.00000E+00
    0.34451E-07         0.18626E-20         0.00000E+00
    0.34896E-07        -0.74506E-20         0.00000E+00
    0.35341E-07         0.37253E-20         0.00000E+00
    0.35781E-07         0.74506E-20         0.00000E+00
    0.36216E-07         0.00000E+00         0.00000E+00
    0.36643E-07         0.37253E-20         0.00000E+00
    0.37058E-07         0.00000E+00         0.00000E+00
    0.37458E-07         0.74506E-20         0.00000E+00
    0.37841E-07         0.37253E-20         0.00000E+00
    0.38203E-07        -0.18626E-20         0.00000E+00
    0.38540E-07        -0.74506E-20         0.00000E+00
    0.38848E-07        -0.13039E-19         0.00000E+00
    0.39122E-07        -0.37253E-20         0.00000E+00
    0.39359E-07        -0.37253E-20         0.00000E+00
    0.39552E-07        -0.55879E-20         0.00000E+00
    0.39697E-07        -0.74506E-20         0.00000E+00
    0.39788E-07        -0.37253E-20         0.00000E+00
    0.39820E-07         0.00000E+00         0.00000E+00
    0.50106E-07         0.00000E+00         0.00000E+00
    0.50062E-07         0.74506E-20         0.00000E+00
    0.49935E-07         0.37253E-20         0.00000E+00
    0.49731E-07         0.55879E-20         0.00000E+00
    0.49459E-07         0.37253E-20         0.00000E+00
    0.49125E-07         0.00000E+00         0.00000E+00
    0.48736E-07         0.37253E-20         0.00000E+00
    0.48299E-07         0.18828E-19         0.00000E+00
    0.47818E-07        -0.74506E-20         0.00000E+00
    0.47301E-07        -0.22360E-20         0.00000E+00
    0.46751E-07        -0.55879E-20         0.00000E+00
    0.46172E-07        -0.37253E-20         0.00000E+00
    0.45571E-07        -0.37253E-20         0.00000E+00
    0.44950E-07         0.18626E-20         0.00000E+00
    0.44313E-07        -0.13329E-19         0.00000E+00
    0.43664E-07        -0.17695E-19         0.00000E+00
    0.43005E-07        -0.55879E-20         0.00000E+00
    0.42341E-07        -0.83819E-20         0.00000E+00
    0.41672E-07        -0.22681E-19         0.00000E+00
    0.41003E-07         0.18626E-20         0.00000E+00
    0.40335E-07         0.18626E-19         0.00000E+00
    0.39671E-07        -0.46566E-20         0.00000E+00
    0.39012E-07        -0.74506E-20         0.00000E+00
    0.38360E-07         0.12918E-19         0.00000E+00
    0.37717E-07         0.46566E-20         0.00000E+00
    0.37085E-07        -0.93132E-21         0.00000E+00
    0.36464E-07        -0.55879E-20         0.00000E+00
    0.35856E-07         0.38203E-21         0.00000E+00
    0.35263E-07        -0.77430E-20         0.00000E+00
    0.34685E-07        -0.22312E-19         0.00000E+00
    0.34123E-07        -0.18626E-20         0.00000E+00
    0.33579E-07        -0.11176E-19         0.00000E+00
    0.33052E-07        -0.55879E-20         0.00000E+00
    0.32545E-07        -0.11177E-19         0.00000E+00
    0.32056E-07        -0.13970E-19         0.00000E+00
    0.31588E-07        -0.37253E-20         0.00000E+00
    0.31140E-07        -0.16520E-19         0.00000E+00
    0.30713E-07         0.55879E-20         0.00000E+00
    0.30308E-07        -0.55879E-20         0.00000E+00
    0.29924E-07        -0.93132E-20         0.00000E+00
    0.29562E-07         0.14901E-19         0.00000E+00
    0.29223E-07        -0.24214E-19         0.00000E+00
    0.28906E-07         0.83819E-20         0.00000E+00
    0.28613E-07        -0.74506E-20         0.00000E+00
    0.28342E-07        -0.37253E-20         0.00000E+00
    0.28094E-07        -0.13039E-19         0.00000E+00
    0.27870E-07         0.55875E-20         0.00000E+00
    0.27669E-07         0.11375E-19         0.00000E+00
    0.27492E-07        -0.13039E-19         0.00000E+00
    0.27338E-07         0.40641E-20         0.00000E+00
    0.27207E-07        -0.55879E-20         0.00000E+00
    0.27100E-07        -0.93132E-20         0.00000E+00
    0.27017E-07        -0.11176E-19         0.00000E+00
    0.26956E-07        -0.37253E-20         0.00000E+00
    0.26919E-07        -0.16442E-19         0.00000E+00
    0.26905E-07         0.55879E-20         0.00000E+00
    0.26914E-07        -0.35699E-20         0.00000E+00
    0.26946E-07         0.70570E-20         0.00000E+00
    0.27001E-07        -0.11165E-19         0.00000E+00
    0.27078E-07        -0.46566E-20         0.00000E+00
    0.27177E-07        -0.74506E-20         0.00000E+00
    0.27298E-07        -0.65193E-20         0.00000E+00
    0.27441E-07        -0.55879E-20         0.00000E+00
    0.27605E-07        -0.18626E-20         0.00000E+00
    0.27790E-07        -0.18626E-20         0.00000E+00
    0.27996E-07        -0.14901E-19         0.00000E+00
    0.28222E-07         0.30465E-21         0.00000E+00
    0.28467E-07        -0.74506E-20         0.00000E+00
    0.28732E-07         0.93132E-20         0.00000E+00
    0.29015E-07        -0.18976E-19         0.00000E+00
    0.29316E-07         0.55272E-20         0.00000E+00
    0.29634E-07        -0.20489E-19         0.00000E+00
    0.29968E-07         0.74506E-20         0.00000E+00
    0.30319E-07        -0.17150E-19         0.00000E+00
    0.30684E-07        -0.18626E-20         0.00000E+00
    0.31063E-07        -0.26077E-19         0.00000E+00
    0.31455E-07         0.00000E+00         0.00000E+00
    0.31859E-07        -0.37253E-20         0.00000E+00
    0.32273E-07         0.00000E+00         0.00000E+00
    0.32696E-07        -0.34832E-20         0.00000E+00
    0.33127E-07        -0.55879E-20         0.00000E+00
    0.33564E-07        -0.16226E-20         0.00000E+00
    0.34006E-07        -0.11487E-20         0.00000E+00
    0.34451E-07         0.53252E-20         0.00000E+00
    0.34896E-07        -0.37253E-20         0.00000E+00
    0.35341E-07        -0.93132E-21         0.00000E+00
    0.35781E-07         0.00000E+00         0.00000E+00
    0.36216E-07         0.00000E+00         0.00000E+00
    0.36643E-07        -0.55879E-20         0.00000E+00
    0.37058E-07         0.55879E-20         0.00000E+00
    0.37458E-07         0.11176E-19         0.00000E+00
    0.37841E-07         0.71228E-20         0.00000E+00
    0.38203E-07        -0.57953E-20         0.00000E+00
    0.38540E-07         0.18626E-20         0.00000E+00
    0.38848E-07        -0.14539E-19         0.00000E+00
    0.39122E-07        -0.18626E-20         0.00000E+00
    0.39359E-07        -0.37253E-20         0.00000E+00
    0.39552E-07        -0.57490E-20         0.00000E+00
    0.39697E-07         0.20939E-21         0.00000E+00
    0.39788E-07         0.55879E-20         0.00000E+00
    0.39820E-07         0.00000E+00         0.00000E+00
    0.50106E-07         0.00000E+00         0.00000E+00
    0.50062E-07         0.74506E-20         0.00000E+00
    0.49935E-07         0.11176E-19         0.00000E+00
    0.49731E-07         0.67895E-20         0.00000E+00
    0.49459E-07         0.22352E-19         0.00000E+00
    0.49125E-07         0.14901E-19         0.00000E+00
    0.48736E-07         0.97215E-20         0.00000E+00
    0.48299E-07         0.23081E-19         0.00000E+00
    0.47818E-07         0.74506E-20         0.00000E+00
    0.47301E-07        -0.70772E-20         0.00000E+00
    0.46751E-07         0.74506E-20         0.00000E+00
    0.46172E-07        -0.37253E-20         0.00000E+00
    0.45571E-07         0.15209E-19         0.00000E+00
    0.44950E-07         0.00000E+00         0.00000E+00
    0.44313E-07        -0.25030E-20         0.00000E+00
    0.43664E-07        -0.14769E-19         0.00000E+00
    0.43005E-07        -0.37253E-20         0.00000E+00
    0.42341E-07        -0.10998E-19         0.00000E+00
    0.41672E-07        -0.25748E-19         0.00000E+00
    0.41003E-07         0.55879E-20         0.00000E+00
    0.40335E-07         0.22352E-19         0.00000E+00
    0.39671E-07         0.48179E-20         0.00000E+00
    0.39012E-07        -0.74506E-20         0.00000E+00
    0.38360E-07         0.75712E-20         0.00000E+00
    0.37717E-07        -0.58460E-20         0.00000E+00
    0.37085E-07         0.22558E-20         0.00000E+00
    0.36464E-07        -0.37253E-20         0.00000E+00
    0.35856E-07        -0.13421E-19         0.00000E+00
    0.35263E-07        -0.15540E-19         0.00000E+00
    0.34685E-07        -0.20529E-19         0.00000E+00
    0.34123E-07        -0.15110E-19         0.00000E+00
    0.33579E-07        -0.16764E-19         0.00000E+00
    0.33052E-07        -0.18626E-20         0.00000E+00
    0.32545E-07        -0.74496E-20         0.00000E+00
    0.32056E-07        -0.14669E-19         0.00000E+00
    0.31588E-07        -0.55879E-20         0.00000E+00
    0.31140E-07        -0.13282E-19         0.00000E+00
    0.30713E-07         0.18836E-20         0.00000E+00
    0.30308E-07        -0.37253E-20         0.00000E+00
    0.29924E-07         0.93132E-20         0.00000E+00
    0.29562E-07         0.74506E-20         0.00000E+00
    0.29223E-07        -0.18717E-19         0.00000E+00
    0.28906E-07        -0.10496E-20         0.00000E+00
    0.28613E-07        -0.65193E-20         0.00000E+00
    0.28342E-07        -0.18626E-19         0.00000E+00
    0.28094E-07        -0.11176E-19         0.00000E+00
    0.27870E-07         0.13039E-19         0.00000E+00
    0.27669E-07         0.73206E-21         0.00000E+00
    0.27492E-07        -0.97098E-20         0.00000E+00
    0.27338E-07        -0.87208E-20         0.00000E+00
    0.27207E-07        -0.75947E-20         0.00000E+00
    0.27100E-07        -0.93132E-20         0.00000E+00
    0.27017E-07        -0.93132E-20         0.00000E+00
    0.26956E-07        -0.37253E-20         0.00000E+00
    0.26919E-07        -0.16154E-19         0.00000E+00
    0.26905E-07         0.74506E-20         0.00000E+00
    0.26914E-07        -0.94686E-20         0.00000E+00
    0.26946E-07         0.74506E-20         0.00000E+00
    0.27001E-07        -0.23294E-19         0.00000E+00
    0.27078E-07        -0.22349E-20         0.00000E+00
    0.27177E-07        -0.74506E-20         0.00000E+00
    0.27298E-07        -0.14180E-19         0.00000E+00
    0.27441E-07        -0.93132E-20         0.00000E+00
    0.27605E-07        -0.74506E-20         0.00000E+00
    0.27790E-07        -0.18626E-20         0.00000E+00
    0.27996E-07        -0.13039E-19         0.00000E+00
    0.28222E-07        -0.30986E-20         0.00000E+00
    0.28467E-07         0.00000E+00         0.00000E+00
    0.28732E-07        -0.35498E-20         0.00000E+00
    0.29015E-07        -0.16414E-19         0.00000E+00
    0.29316E-07        -0.55879E-20         0.00000E+00
    0.29634E-07        -0.10245E-19         0.00000E+00
    0.29968E-07         0.55879E-20         0.00000E+00
    0.30319E-07        -0.24760E-19         0.00000E+00
    0.30684E-07         0.11697E-21         0.00000E+00
    0.31063E-07        -0.10245E-19         0.00000E+00
    0.31455E-07        -0.74506E-20         0.00000E+00
    0.31859E-07        -0.11176E-19         0.00000E+00
    0.32273E-07        -0.55879E-20         0.00000E+00
    0.32696E-07        -0.48987E-20         0.00000E+00
    0.33127E-07        -0.13039E-19         0.00000E+00
    0.33564E-07        -0.48967E-20         0.00000E+00
    0.34006E-07        -0.55879E-20         0.00000E+00
    0.34451E-07         0.67820E-20         0.00000E+00
    0.34896E-07        -0.35431E-20         0.00000E+00
    0.35341E-07        -0.31053E-21         0.00000E+00
    0.35781E-07         0.37253E-20         0.00000E+00
    0.36216E-07        -0.18626E-20         0.00000E+00
    0.36643E-07         0.00000E+00         0.00000E+00
    0.37058E-07         0.16764E-19         0.00000E+00
    0.37458E-07         0.83819E-20         0.00000E+00
    0.37841E-07         0.96410E-20         0.00000E+00
    0.38203E-07        -0.35179E-20         0.00000E+00
    0.38540E-07         0.63357E-20         0.00000E+00
    0.38848E-07        -0.87437E-20         0.00000E+00
    0.39122E-07        -0.18822E-20         0.00000E+00
    0.39359E-07         0.22594E-20         0.00000E+00
    0.39552E-07        -0.77025E-21         0.00000E+00
    0.39697E-07         0.10966E-19         0.00000E+00
    0.39788E-07         0.89593E-20         0.00000E+00
    0.39820E-07         0.00000E+00         0.00000E+00
    0.50106E-07         0.00000E+00         0.00000E+00
    0.50062E-07        -0.11176E-19         0.00000E+00
    0.49935E-07         0.93132E-20         0.00000E+00
    0.49731E-07         0.62491E-20         0.00000E+00
    0.49459E-07         0.26077E-19         0.00000E+00
    0.49125E-07         0.18174E-19         0.00000E+00
    0.48736E-07         0.16356E-19         0.00000E+00
    0.48299E-07         0.20489E-19         0.00000E+00
    0.47818E-07         0.12107E-19         0.00000E+00
    0.47301E-07        -0.78239E-20         0.00000E+00
    0.46751E-07         0.11634E-19         0.00000E+00
    0.46172E-07         0.37253E-20         0.00000E+00
    0.45571E-07         0.71432E-20         0.00000E+00
    0.44950E-07        -0.55879E-20         0.00000E+00
    0.44313E-07         0.55879E-20         0.00000E+00
    0.43664E-07         0.79893E-21         0.00000E+00
    0.43005E-07        -0.27940E-20         0.00000E+00
    0.42341E-07        -0.27186E-19         0.00000E+00
    0.41672E-07        -0.15231E-19         0.00000E+00
    0.41003E-07         0.93132E-20         0.00000E+00
    0.40335E-07         0.90075E-20         0.00000E+00
    0.39671E-07         0.46566E-20         0.00000E+00
    0.39012E-07        -0.74506E-20         0.00000E+00
    0.38360E-07         0.11055E-19         0.00000E+00
    0.37717E-07        -0.25359E-20         0.00000E+00
    0.37085E-07        -0.39317E-21         0.00000E+00
    0.36464E-07        -0.37253E-20         0.00000E+00
    0.35856E-07        -0.20489E-19         0.00000E+00
    0.35263E-07        -0.16764E-19         0.00000E+00
    0.34685E-07        -0.83819E-20         0.00000E+00
    0.34123E-07        -0.14692E-19         0.00000E+00
    0.33579E-07        -0.18626E-19         0.00000E+00
    0.33052E-07        -0.93132E-21         0.00000E+00
    0.32545E-07        -0.55879E-20         0.00000E+00
    0.32056E-07        -0.48886E-20         0.00000E+00
    0.31588E-07        -0.51264E-20         0.00000E+00
    0.31140E-07        -0.10932E-19         0.00000E+00
    0.30713E-07        -0.37462E-20         0.00000E+00
    0.30308E-07         0.18626E-20         0.00000E+00
    0.29924E-07         0.16764E-19         0.00000E+00
    0.29562E-07        -0.40271E-20         0.00000E+00
    0.29223E-07         0.75411E-20         0.00000E+00
    0.28906E-07         0.93132E-21         0.00000E+00
    0.28613E-07        -0.77753E-20         0.00000E+00
    0.28342E-07        -0.13039E-19         0.00000E+00
    0.28094E-07        -0.95132E-20         0.00000E+00
    0.27870E-07         0.16763E-19         0.00000E+00
    0.27669E-07        -0.11176E-19         0.00000E+00
    0.27492E-07        -0.89167E-20         0.00000E+00
    0.27338E-07        -0.13970E-19         0.00000E+00
    0.27207E-07        -0.91691E-20         0.00000E+00
    0.27100E-07        -0.11226E-19         0.00000E+00
    0.27017E-07        -0.74506E-20         0.00000E+00
    0.26956E-07         0.55879E-20         0.00000E+00
    0.26919E-07        -0.11176E-19         0.00000E+00
    0.26905E-07         0.00000E+00         0.00000E+00
    0.26914E-07         0.00000E+00         0.00000E+00
    0.26946E-07        -0.16764E-19         0.00000E+00
    0.27001E-07        -0.12107E-19         0.00000E+00
    0.27078E-07        -0.80096E-20         0.00000E+00
    0.27177E-07        -0.16878E-20         0.00000E+00
    0.27298E-07        -0.19558E-19         0.00000E+00
    0.27441E-07        -0.83819E-20         0.00000E+00
    0.27605E-07        -0.11176E-19         0.00000E+00
    0.27790E-07        -0.74506E-20         0.00000E+00
    0.27996E-07        -0.13130E-19         0.00000E+00
    0.28222E-07        -0.37253E-20         0.00000E+00
    0.28467E-07        -0.20899E-20         0.00000E+00
    0.28732E-07        -0.18802E-19         0.00000E+00
    0.29015E-07         0.37253E-20         0.00000E+00
    0.29316E-07        -0.55272E-20         0.00000E+00
    0.29634E-07         0.15357E-19         0.00000E+00
    0.29968E-07        -0.11176E-19         0.00000E+00
    0.30319E-07        -0.74506E-20         0.00000E+00
    0.30684E-07        -0.19796E-20         0.00000E+00
    0.31063E-07         0.77670E-20         0.00000E+00
    0.31455E-07        -0.35491E-20         0.00000E+00
    0.31859E-07        -0.13039E-19         0.00000E+00
    0.32273E-07        -0.37253E-20         0.00000E+00
    0.32696E-07         0.46566E-20         0.00000E+00
    0.33127E-07        -0.58155E-20         0.00000E+00
    0.33564E-07        -0.93132E-20         0.00000E+00
    0.34006E-07         0.37253E-20         0.00000E+00
    0.34451E-07         0.12107E-19         0.00000E+00
    0.34896E-07         0.00000E+00         0.00000E+00
    0.35341E-07        -0.62079E-21         0.00000E+00
    0.35781E-07         0.94349E-20         0.00000E+00
    0.36216E-07        -0.18626E-20         0.00000E+00
    0.36643E-07         0.14901E-19         0.00000E+00
    0.37058E-07         0.14901E-19         0.00000E+00
    0.37458E-07         0.10054E-20         0.00000E+00
    0.37841E-07         0.61915E-20         0.00000E+00
    0.38203E-07         0.16553E-20         0.00000E+00
    0.38540E-07         0.17879E-19         0.00000E+00
    0.38848E-07         0.00000E+00         0.00000E+00
    0.39122E-07        -0.18626E-20         0.00000E+00
    0.39359E-07         0.33286E-20         0.00000E+00
    0.39552E-07        -0.20237E-20         0.00000E+00
    0.39697E-07         0.74506E-20         0.00000E+00
    0.39788E-07         0.40792E-20         0.00000E+00
    0.39820E-07         0.00000E+00         0.00000E+00
    0.50106E-07         0.00000E+00         0.00000E+00
    0.50062E-07         0.71422E-20         0.00000E+00
    0.49935E-07         0.30864E-20         0.00000E+00
    0.49731E-07         0.29802E-19         0.00000E+00
    0.49459E-07         0.49611E-21         0.00000E+00
    0.49125E-07         0.26529E-19         0.00000E+00
    0.48736E-07         0.31665E-19         0.00000E+00
    0.48299E-07         0.19558E-19         0.00000E+00
    0.47818E-07         0.20201E-19         0.00000E+00
    0.47301E-07         0.59613E-20         0.00000E+00
    0.46751E-07        -0.23205E-20         0.00000E+00
    0.46172E-07         0.46566E-20         0.00000E+00
    0.45571E-07         0.18626E-20         0.00000E+00
    0.44950E-07         0.37253E-20         0.00000E+00
    0.44313E-07        -0.93132E-21         0.00000E+00
    0.43664E-07        -0.18626E-20         0.00000E+00
    0.43005E-07        -0.18865E-20         0.00000E+00
    0.42341E-07        -0.40978E-19         0.00000E+00
    0.41672E-07        -0.52585E-20         0.00000E+00
    0.41003E-07         0.65193E-20         0.00000E+00
    0.40335E-07        -0.90075E-20         0.00000E+00
    0.39671E-07         0.35640E-20         0.00000E+00
    0.39012E-07        -0.14901E-19         0.00000E+00
    0.38360E-07         0.57085E-20         0.00000E+00
    0.37717E-07         0.18626E-20         0.00000E+00
    0.37085E-07         0.51948E-20         0.00000E+00
    0.36464E-07        -0.74506E-20         0.00000E+00
    0.35856E-07        -0.14901E-19         0.00000E+00
    0.35263E-07        -0.15832E-19         0.00000E+00
    0.34685E-07        -0.46169E-20         0.00000E+00
    0.34123E-07        -0.20489E-19         0.00000E+00
    0.33579E-07        -0.16764E-19         0.00000E+00
    0.33052E-07        -0.34876E-20         0.00000E+00
    0.32545E-07        -0.37253E-20         0.00000E+00
    0.32056E-07        -0.18626E-20         0.00000E+00
    0.31588E-07        -0.37253E-20         0.00000E+00
    0.31140E-07        -0.11751E-20         0.00000E+00
    0.30713E-07        -0.18626E-20         0.00000E+00
    0.30308E-07        -0.93132E-21         0.00000E+00
    0.29924E-07         0.13039E-19         0.00000E+00
    0.29562E-07         0.93132E-21         0.00000E+00
    0.29223E-07         0.17721E-20         0.00000E+00
    0.28906E-07         0.19809E-20         0.00000E+00
    0.28613E-07        -0.60659E-21         0.00000E+00
    0.28342E-07        -0.13970E-19         0.00000E+00
    0.28094E-07        -0.65193E-20         0.00000E+00
    0.27870E-07         0.48029E-24         0.00000E+00
    0.27669E-07         0.74506E-20         0.00000E+00
    0.27492E-07        -0.18626E-20         0.00000E+00
    0.27338E-07        -0.43178E-20         0.00000E+00
    0.27207E-07        -0.55879E-20         0.00000E+00
    0.27100E-07        -0.55383E-20         0.00000E+00
    0.27017E-07        -0.55879E-20         0.00000E+00
    0.26956E-07         0.55879E-20         0.00000E+00
    0.26919E-07        -0.83819E-20         0.00000E+00
    0.26905E-07        -0.18626E-20         0.00000E+00
    0.26914E-07        -0.46566E-20         0.00000E+00
    0.26946E-07        -0.25683E-19         0.00000E+00
    0.27001E-07        -0.11165E-19         0.00000E+00
    0.27078E-07        -0.16764E-19         0.00000E+00
    0.27177E-07        -0.15076E-19         0.00000E+00
    0.27298E-07        -0.63087E-20         0.00000E+00
    0.27441E-07        -0.18293E-19         0.00000E+00
    0.27605E-07        -0.55879E-20         0.00000E+00
    0.27790E-07        -0.55879E-20         0.00000E+00
    0.27996E-07        -0.18626E-19         0.00000E+00
    0.28222E-07        -0.93132E-21         0.00000E+00
    0.28467E-07        -0.14901E-19         0.00000E+00
    0.28732E-07        -0.15832E-19         0.00000E+00
    0.29015E-07        -0.34953E-21         0.00000E+00
    0.29316E-07         0.55879E-20         0.00000E+00
    0.29634E-07         0.13514E-19         0.00000E+00
    0.29968E-07        -0.18626E-19         0.00000E+00
    0.30319E-07         0.37253E-20         0.00000E+00
    0.30684E-07        -0.17457E-20         0.00000E+00
    0.31063E-07         0.61489E-21         0.00000E+00
    0.31455E-07        -0.17620E-21         0.00000E+00
    0.31859E-07         0.00000E+00         0.00000E+00
    0.32273E-07        -0.37253E-20         0.00000E+00
    0.32696E-07         0.68920E-21         0.00000E+00
    0.33127E-07         0.18626E-20         0.00000E+00
    0.33564E-07        -0.83819E-20         0.00000E+00
    0.34006E-07         0.13039E-19         0.00000E+00
    0.34451E-07         0.12776E-19         0.00000E+00
    0.34896E-07         0.74506E-20         0.00000E+00
    0.35341E-07         0.55879E-20         0.00000E+00
    0.35781E-07        -0.19844E-20         0.00000E+00
    0.36216E-07        -0.55879E-20         0.00000E+00
    0.36643E-07         0.16764E-19         0.00000E+00
    0.37058E-07         0.00000E+00         0.00000E+00
    0.37458E-07         0.93132E-21         0.00000E+00
    0.37841E-07         0.21904E-20         0.00000E+00
    0.38203E-07         0.10452E-19         0.00000E+00
    0.38540E-07         0.93132E-20         0.00000E+00
    0.38848E-07         0.93132E-20         0.00000E+00
    0.39122E-07         0.55879E-20         0.00000E+00
    0.39359E-07         0.18626E-20         0.00000E+00
    0.39552E-07         0.29550E-20         0.00000E+00
    0.39697E-07         0.20720E-20         0.00000E+00
    0.39788E-07         0.46566E-20         0.00000E+00
    0.39820E-07         0.00000E+00         0.00000E+00
    0.50106E-07         0.00000E+00         0.00000E+00
    0.50062E-07         0.33836E-19         0.00000E+00
    0.49935E-07         0.19265E-19         0.00000E+00
    0.49731E-07         0.35390E-19         0.00000E+00
    0.49459E-07        -0.42214E-20         0.00000E+00
    0.49125E-07         0.26077E-19         0.00000E+00
    0.48736E-07         0.50291E-19         0.00000E+00
    0.48299E-07         0.36523E-19         0.00000E+00
    0.47818E-07         0.40335E-19         0.00000E+00
    0.47301E-07         0.23841E-19         0.00000E+00
    0.46751E-07        -0.55879E-20         0.00000E+00
    0.46172E-07         0.78405E-20         0.00000E+00
    0.45571E-07        -0.37253E-20         0.00000E+00
    0.44950E-07         0.22352E-19         0.00000E+00
    0.44313E-07         0.62283E-20         0.00000E+00
    0.43664E-07         0.55879E-20         0.00000E+00
    0.43005E-07        -0.11152E-19         0.00000E+00
    0.42341E-07        -0.24214E-19         0.00000E+00
    0.41672E-07         0.52585E-20         0.00000E+00
    0.41003E-07        -0.14100E-20         0.00000E+00
    0.40335E-07        -0.11176E-19         0.00000E+00
    0.39671E-07         0.12268E-19         0.00000E+00
    0.39012E-07        -0.17676E-19         0.00000E+00
    0.38360E-07        -0.57085E-20         0.00000E+00
    0.37717E-07        -0.27940E-20         0.00000E+00
    0.37085E-07         0.13245E-20         0.00000E+00
    0.36464E-07         0.00000E+00         0.00000E+00
    0.35856E-07        -0.37253E-20         0.00000E+00
    0.35263E-07        -0.86743E-20         0.00000E+00
    0.34685E-07        -0.56277E-20         0.00000E+00
    0.34123E-07        -0.18626E-19         0.00000E+00
    0.33579E-07        -0.37253E-20         0.00000E+00
    0.33052E-07        -0.76883E-20         0.00000E+00
    0.32545E-07         0.00000E+00         0.00000E+00
    0.32056E-07         0.55879E-20         0.00000E+00
    0.31588E-07        -0.23241E-20         0.00000E+00
    0.31140E-07         0.11420E-19         0.00000E+00
    0.30713E-07         0.18836E-20         0.00000E+00
    0.30308E-07        -0.20614E-20         0.00000E+00
    0.29924E-07         0.11176E-19         0.00000E+00
    0.29562E-07         0.49585E-20         0.00000E+00
    0.29223E-07        -0.92227E-20         0.00000E+00
    0.28906E-07        -0.29122E-20         0.00000E+00
    0.28613E-07         0.37253E-20         0.00000E+00
    0.28342E-07        -0.16362E-19         0.00000E+00
    0.28094E-07         0.87819E-20         0.00000E+00
    0.27870E-07         0.55879E-20         0.00000E+00
    0.27669E-07         0.13970E-19         0.00000E+00
    0.27492E-07         0.14505E-19         0.00000E+00
    0.27338E-07         0.27940E-20         0.00000E+00
    0.27207E-07         0.75947E-20         0.00000E+00
    0.27100E-07         0.36756E-20         0.00000E+00
    0.27017E-07         0.00000E+00         0.00000E+00
    0.26956E-07         0.93132E-20         0.00000E+00
    0.26919E-07         0.77722E-20         0.00000E+00
    0.26905E-07         0.44296E-20         0.00000E+00
    0.26914E-07        -0.91578E-20         0.00000E+00
    0.26946E-07        -0.97068E-20         0.00000E+00
    0.27001E-07        -0.19569E-19         0.00000E+00
    0.27078E-07        -0.93132E-20         0.00000E+00
    0.27177E-07        -0.26077E-19         0.00000E+00
    0.27298E-07         0.46566E-20         0.00000E+00
    0.27441E-07        -0.18029E-19         0.00000E+00
    0.27605E-07         0.55879E-20         0.00000E+00
    0.27790E-07        -0.32792E-20         0.00000E+00
    0.27996E-07        -0.93132E-20         0.00000E+00
    0.28222E-07        -0.15580E-20         0.00000E+00
    0.28467E-07        -0.18626E-20         0.00000E+00
    0.28732E-07        -0.44812E-20         0.00000E+00
    0.29015E-07         0.18626E-20         0.00000E+00
    0.29316E-07         0.93132E-20         0.00000E+00
    0.29634E-07         0.55879E-20         0.00000E+00
    0.29968E-07         0.93132E-21         0.00000E+00
    0.30319E-07         0.00000E+00         0.00000E+00
    0.30684E-07         0.11059E-19         0.00000E+00
    0.31063E-07         0.55879E-20         0.00000E+00
    0.31455E-07         0.11176E-19         0.00000E+00
    0.31859E-07         0.55879E-20         0.00000E+00
    0.32273E-07         0.90997E-20         0.00000E+00
    0.32696E-07         0.48425E-21         0.00000E+00
    0.33127E-07         0.10245E-19         0.00000E+00
    0.33564E-07         0.76907E-20         0.00000E+00
    0.34006E-07         0.46566E-20         0.00000E+00
    0.34451E-07         0.16095E-19         0.00000E+00
    0.34896E-07         0.18444E-19         0.00000E+00
    0.35341E-07         0.17695E-19         0.00000E+00
    0.35781E-07        -0.93132E-20         0.00000E+00
    0.36216E-07        -0.18626E-20         0.00000E+00
    0.36643E-07         0.13075E-19         0.00000E+00
    0.37058E-07        -0.32756E-20         0.00000E+00
    0.37458E-07         0.45085E-20         0.00000E+00
    0.37841E-07        -0.24662E-20         0.00000E+00
    0.38203E-07         0.15832E-19         0.00000E+00
    0.38540E-07        -0.18626E-20         0.00000E+00
    0.38848E-07         0.17695E-19         0.00000E+00
    0.39122E-07         0.11195E-19         0.00000E+00
    0.39359E-07         0.59846E-20         0.00000E+00
    0.39552E-07         0.14740E-19         0.00000E+00
    0.39697E-07         0.55879E-20         0.00000E+00
    0.39788E-07         0.61654E-20         0.00000E+00
    0.39820E-07         0.00000E+00         0.00000E+00
    0.50106E-07         0.00000E+00         0.00000E+00
    0.50062E-07         0.15209E-19         0.00000E+00
    0.49935E-07         0.37892E-19         0.00000E+00
    0.49731E-07         0.23553E-19         0.00000E+00
    0.49459E-07         0.14405E-19         0.00000E+00
    0.49125E-07         0.22352E-19         0.00000E+00
    0.48736E-07         0.43249E-19         0.00000E+00
    0.48299E-07         0.34459E-19         0.00000E+00
    0.47818E-07         0.44991E-19         0.00000E+00
    0.47301E-07         0.22725E-19         0.00000E+00
    0.46751E-07         0.00000E+00         0.00000E+00
    0.46172E-07         0.14121E-19         0.00000E+00
    0.45571E-07        -0.24866E-20         0.00000E+00
    0.44950E-07         0.20489E-19         0.00000E+00
    0.44313E-07        -0.83819E-20         0.00000E+00
    0.43664E-07         0.16896E-19         0.00000E+00
    0.43005E-07        -0.74267E-20         0.00000E+00
    0.42341E-07        -0.18626E-20         0.00000E+00
    0.41672E-07         0.59174E-20         0.00000E+00
    0.41003E-07        -0.32466E-20         0.00000E+00
    0.40335E-07        -0.18626E-20         0.00000E+00
    0.39671E-07         0.22352E-19         0.00000E+00
    0.39012E-07        -0.14008E-19         0.00000E+00
    0.38360E-07        -0.53467E-20         0.00000E+00
    0.37717E-07         0.53299E-20         0.00000E+00
    0.37085E-07         0.00000E+00         0.00000E+00
    0.36464E-07         0.18626E-20         0.00000E+00
    0.35856E-07         0.13039E-19         0.00000E+00
    0.35263E-07         0.93132E-21         0.00000E+00
    0.34685E-07        -0.55879E-20         0.00000E+00
    0.34123E-07        -0.95220E-20         0.00000E+00
    0.33579E-07        -0.23158E-20         0.00000E+00
    0.33052E-07         0.25563E-20         0.00000E+00
    0.32545E-07         0.93132E-20         0.00000E+00
    0.32056E-07         0.74506E-20         0.00000E+00
    0.31588E-07         0.74506E-20         0.00000E+00
    0.31140E-07         0.10932E-19         0.00000E+00
    0.30713E-07         0.74296E-20         0.00000E+00
    0.30308E-07        -0.73255E-21         0.00000E+00
    0.29924E-07        -0.18626E-20         0.00000E+00
    0.29562E-07         0.74506E-20         0.00000E+00
    0.29223E-07         0.84077E-21         0.00000E+00
    0.28906E-07         0.11825E-21         0.00000E+00
    0.28613E-07         0.74506E-20         0.00000E+00
    0.28342E-07        -0.87842E-20         0.00000E+00
    0.28094E-07         0.16764E-19         0.00000E+00
    0.27870E-07         0.18627E-19         0.00000E+00
    0.27669E-07         0.67185E-20         0.00000E+00
    0.27492E-07         0.13039E-19         0.00000E+00
    0.27338E-07         0.43178E-20         0.00000E+00
    0.27207E-07         0.35812E-20         0.00000E+00
    0.27100E-07         0.37749E-20         0.00000E+00
    0.27017E-07         0.37253E-20         0.00000E+00
    0.26956E-07         0.93132E-20         0.00000E+00
    0.26919E-07         0.22961E-19         0.00000E+00
    0.26905E-07        -0.70435E-21         0.00000E+00
    0.26914E-07        -0.94686E-20         0.00000E+00
    0.26946E-07         0.78442E-20         0.00000E+00
    0.27001E-07        -0.55879E-20         0.00000E+00
    0.27078E-07         0.37253E-20         0.00000E+00
    0.27177E-07        -0.20489E-19         0.00000E+00
    0.27298E-07         0.63087E-20         0.00000E+00
    0.27441E-07        -0.65193E-20         0.00000E+00
    0.27605E-07         0.11176E-19         0.00000E+00
    0.27790E-07        -0.11622E-19         0.00000E+00
    0.27996E-07        -0.11176E-19         0.00000E+00
    0.28222E-07         0.62667E-21         0.00000E+00
    0.28467E-07         0.76779E-20         0.00000E+00
    0.28732E-07        -0.93132E-21         0.00000E+00
    0.29015E-07         0.19558E-19         0.00000E+00
    0.29316E-07         0.21420E-19         0.00000E+00
    0.29634E-07        -0.18626E-20         0.00000E+00
    0.29968E-07         0.14007E-19         0.00000E+00
    0.30319E-07         0.00000E+00         0.00000E+00
    0.30684E-07         0.16764E-19         0.00000E+00
    0.31063E-07         0.13970E-19         0.00000E+00
    0.31455E-07         0.74506E-20         0.00000E+00
    0.31859E-07         0.65193E-20         0.00000E+00
    0.32273E-07         0.22565E-19         0.00000E+00
    0.32696E-07         0.65193E-20         0.00000E+00
    0.33127E-07         0.16060E-19         0.00000E+00
    0.33564E-07         0.72105E-20         0.00000E+00
    0.34006E-07         0.76680E-20         0.00000E+00
    0.34451E-07         0.23283E-19         0.00000E+00
    0.34896E-07         0.30734E-19         0.00000E+00
    0.35341E-07         0.17385E-19         0.00000E+00
    0.35781E-07        -0.37253E-20         0.00000E+00
    0.36216E-07         0.74506E-20         0.00000E+00
    0.36643E-07         0.36892E-20         0.00000E+00
    0.37058E-07         0.18946E-20         0.00000E+00
    0.37458E-07         0.12107E-19         0.00000E+00
    0.37841E-07         0.15349E-20         0.00000E+00
    0.38203E-07         0.57953E-20         0.00000E+00
    0.38540E-07         0.55879E-20         0.00000E+00
    0.38848E-07         0.18057E-19         0.00000E+00
    0.39122E-07         0.13019E-19         0.00000E+00
    0.39359E-07         0.18626E-19         0.00000E+00
    0.39552E-07         0.16925E-19         0.00000E+00
    0.39697E-07         0.14692E-19         0.00000E+00
    0.39788E-07        -0.18626E-20         0.00000E+00
    0.39820E-07         0.00000E+00         0.00000E+00
    0.50106E-07         0.00000E+00         0.00000E+00
    0.50062E-07         0.18318E-19         0.00000E+00
    0.49935E-07         0.34751E-19         0.00000E+00
    0.49731E-07         0.28601E-19         0.00000E+00
    0.49459E-07         0.11672E-19         0.00000E+00
    0.49125E-07         0.37253E-19         0.00000E+00
    0.48736E-07         0.70423E-20         0.00000E+00
    0.48299E-07         0.24944E-19         0.00000E+00
    0.47818E-07         0.29514E-19         0.00000E+00
    0.47301E-07         0.14528E-19         0.00000E+00
    0.46751E-07         0.93132E-20         0.00000E+00
    0.46172E-07         0.14901E-19         0.00000E+00
    0.45571E-07         0.20182E-19         0.00000E+00
    0.44950E-07         0.74506E-20         0.00000E+00
    0.44313E-07        -0.15542E-19         0.00000E+00
    0.43664E-07         0.18626E-19         0.00000E+00
    0.43005E-07         0.90742E-21         0.00000E+00
    0.42341E-07         0.11176E-19         0.00000E+00
    0.41672E-07        -0.68487E-20         0.00000E+00
    0.41003E-07        -0.37253E-20         0.00000E+00
    0.40335E-07         0.18626E-20         0.00000E+00
    0.39671E-07         0.15832E-19         0.00000E+00
    0.39012E-07        -0.18626E-20         0.00000E+00
    0.38360E-07         0.91926E-20         0.00000E+00
    0.37717E-07         0.77086E-20         0.00000E+00
    0.37085E-07         0.55879E-20         0.00000E+00
    0.36464E-07        -0.18626E-20         0.00000E+00
    0.35856E-07         0.13039E-19         0.00000E+00
    0.35263E-07         0.68116E-20         0.00000E+00
    0.34685E-07         0.39746E-22         0.00000E+00
    0.34123E-07        -0.16764E-19         0.00000E+00
    0.33579E-07        -0.56129E-20         0.00000E+00
    0.33052E-07         0.18864E-19         0.00000E+00
    0.32545E-07        -0.18636E-20         0.00000E+00
    0.32056E-07        -0.55879E-20         0.00000E+00
    0.31588E-07         0.15363E-19         0.00000E+00
    0.31140E-07         0.86257E-20         0.00000E+00
    0.30713E-07         0.18626E-20         0.00000E+00
    0.30308E-07        -0.37253E-20         0.00000E+00
    0.29924E-07        -0.11176E-19         0.00000E+00
    0.29562E-07         0.93132E-20         0.00000E+00
    0.29223E-07         0.15923E-19         0.00000E+00
    0.28906E-07        -0.37253E-20         0.00000E+00
    0.28613E-07         0.18626E-19         0.00000E+00
    0.28342E-07        -0.12107E-19         0.00000E+00
    0.28094E-07         0.12839E-19         0.00000E+00
    0.27870E-07         0.55875E-20         0.00000E+00
    0.27669E-07         0.10245E-19         0.00000E+00
    0.27492E-07        -0.33287E-20         0.00000E+00
    0.27338E-07         0.18626E-20         0.00000E+00
    0.27207E-07         0.93132E-20         0.00000E+00
    0.27100E-07         0.18626E-20         0.00000E+00
    0.27017E-07         0.14901E-19         0.00000E+00
    0.26956E-07        -0.37253E-20         0.00000E+00
    0.26919E-07         0.22352E-19         0.00000E+00
    0.26905E-07        -0.37253E-20         0.00000E+00
    0.26914E-07         0.15539E-21         0.00000E+00
    0.26946E-07         0.14508E-19         0.00000E+00
    0.27001E-07         0.00000E+00         0.00000E+00
    0.27078E-07        -0.93132E-21         0.00000E+00
    0.27177E-07        -0.55879E-20         0.00000E+00
    0.27298E-07        -0.55879E-20         0.00000E+00
    0.27441E-07        -0.68531E-20         0.00000E+00
    0.27605E-07         0.12107E-19         0.00000E+00
    0.27790E-07        -0.93132E-20         0.00000E+00
    0.27996E-07        -0.15741E-19         0.00000E+00
    0.28222E-07        -0.37253E-20         0.00000E+00
    0.28467E-07         0.44293E-20         0.00000E+00
    0.28732E-07        -0.17544E-21         0.00000E+00
    0.29015E-07         0.18976E-19         0.00000E+00
    0.29316E-07         0.16703E-19         0.00000E+00
    0.29634E-07        -0.37253E-20         0.00000E+00
    0.29968E-07         0.13932E-19         0.00000E+00
    0.30319E-07         0.16764E-19         0.00000E+00
    0.30684E-07         0.11176E-19         0.00000E+00
    0.31063E-07         0.17379E-19         0.00000E+00
    0.31455E-07         0.37253E-20         0.00000E+00
    0.31859E-07         0.18894E-19         0.00000E+00
    0.32273E-07         0.24214E-19         0.00000E+00
    0.32696E-07         0.11865E-19         0.00000E+00
    0.33127E-07         0.14901E-19         0.00000E+00
    0.33564E-07         0.39654E-20         0.00000E+00
    0.34006E-07         0.14684E-19         0.00000E+00
    0.34451E-07         0.19295E-19         0.00000E+00
    0.34896E-07         0.27191E-19         0.00000E+00
    0.35341E-07         0.25146E-19         0.00000E+00
    0.35781E-07         0.93132E-20         0.00000E+00
    0.36216E-07         0.20489E-19         0.00000E+00
    0.36643E-07         0.55879E-20         0.00000E+00
    0.37058E-07        -0.93132E-21         0.00000E+00
    0.37458E-07         0.17769E-19         0.00000E+00
    0.37841E-07         0.37253E-20         0.00000E+00
    0.38203E-07         0.91059E-20         0.00000E+00
    0.38540E-07         0.14718E-19         0.00000E+00
    0.38848E-07         0.12107E-19         0.00000E+00
    0.39122E-07         0.16783E-19         0.00000E+00
    0.39359E-07         0.17298E-19         0.00000E+00
    0.39552E-07         0.18465E-19         0.00000E+00
    0.39697E-07         0.74506E-20         0.00000E+00
    0.39788E-07        -0.20862E-20         0.00000E+00
    0.39820E-07         0.00000E+00         0.00000E+00
    0.50106E-07         0.00000E+00         0.00000E+00
    0.50062E-07         0.26077E-19         0.00000E+00
    0.49935E-07         0.22352E-19         0.00000E+00
    0.49731E-07         0.29141E-19         0.00000E+00
    0.49459E-07         0.18626E-19         0.00000E+00
    0.49125E-07         0.26077E-19         0.00000E+00
    0.48736E-07         0.97215E-20         0.00000E+00
    0.48299E-07         0.29802E-19         0.00000E+00
    0.47818E-07         0.37253E-20         0.00000E+00
    0.47301E-07         0.93132E-20         0.00000E+00
    0.46751E-07         0.93132E-20         0.00000E+00
    0.46172E-07         0.22526E-20         0.00000E+00
    0.45571E-07         0.11483E-19         0.00000E+00
    0.44950E-07        -0.11176E-19         0.00000E+00
    0.44313E-07         0.13039E-19         0.00000E+00
    0.43664E-07        -0.11176E-19         0.00000E+00
    0.43005E-07         0.37253E-20         0.00000E+00
    0.42341E-07         0.46566E-20         0.00000E+00
    0.41672E-07        -0.11176E-19         0.00000E+00
    0.41003E-07        -0.18626E-20         0.00000E+00
    0.40335E-07         0.14901E-19         0.00000E+00
    0.39671E-07         0.82206E-20         0.00000E+00
    0.39012E-07        -0.37061E-20         0.00000E+00
    0.38360E-07         0.20610E-19         0.00000E+00
    0.37717E-07         0.14643E-19         0.00000E+00
    0.37085E-07         0.74506E-20         0.00000E+00
    0.36464E-07        -0.18626E-20         0.00000E+00
    0.35856E-07         0.22447E-20         0.00000E+00
    0.35263E-07         0.55879E-20         0.00000E+00
    0.34685E-07         0.55879E-20         0.00000E+00
    0.34123E-07        -0.14901E-19         0.00000E+00
    0.33579E-07        -0.45316E-21         0.00000E+00
    0.33052E-07         0.13039E-19         0.00000E+00
    0.32545E-07        -0.37253E-20         0.00000E+00
    0.32056E-07        -0.11176E-19         0.00000E+00
    0.31588E-07         0.20489E-19         0.00000E+00
    0.31140E-07         0.16764E-19         0.00000E+00
    0.30713E-07        -0.37253E-20         0.00000E+00
    0.30308E-07         0.74506E-20         0.00000E+00
    0.29924E-07        -0.18626E-20         0.00000E+00
    0.29562E-07         0.74506E-20         0.00000E+00
    0.29223E-07         0.15742E-19         0.00000E+00
    0.28906E-07         0.16764E-19         0.00000E+00
    0.28613E-07         0.93132E-20         0.00000E+00
    0.28342E-07        -0.70483E-20         0.00000E+00
    0.28094E-07         0.00000E+00         0.00000E+00
    0.27870E-07        -0.74501E-20         0.00000E+00
    0.27669E-07         0.10045E-19         0.00000E+00
    0.27492E-07         0.14505E-19         0.00000E+00
    0.27338E-07        -0.65193E-20         0.00000E+00
    0.27207E-07         0.20489E-19         0.00000E+00
    0.27100E-07         0.55879E-20         0.00000E+00
    0.27017E-07         0.93132E-20         0.00000E+00
    0.26956E-07         0.11176E-19         0.00000E+00
    0.26919E-07         0.11176E-19         0.00000E+00
    0.26905E-07        -0.74506E-20         0.00000E+00
    0.26914E-07         0.24059E-19         0.00000E+00
    0.26946E-07         0.00000E+00         0.00000E+00
    0.27001E-07        -0.93132E-21         0.00000E+00
    0.27078E-07        -0.15273E-19         0.00000E+00
    0.27177E-07        -0.55879E-20         0.00000E+00
    0.27298E-07        -0.14691E-19         0.00000E+00
    0.27441E-07        -0.15288E-20         0.00000E+00
    0.27605E-07        -0.46015E-20         0.00000E+00
    0.27790E-07        -0.32401E-20         0.00000E+00
    0.27996E-07        -0.45650E-20         0.00000E+00
    0.28222E-07        -0.10245E-19         0.00000E+00
    0.28467E-07         0.30213E-20         0.00000E+00
    0.28732E-07         0.21596E-19         0.00000E+00
    0.29015E-07         0.89637E-20         0.00000E+00
    0.29316E-07        -0.64585E-20         0.00000E+00
    0.29634E-07         0.55879E-20         0.00000E+00
    0.29968E-07         0.15870E-19         0.00000E+00
    0.30319E-07         0.14901E-19         0.00000E+00
    0.30684E-07         0.16764E-19         0.00000E+00
    0.31063E-07         0.20806E-19         0.00000E+00
    0.31455E-07         0.17695E-19         0.00000E+00
    0.31859E-07         0.30466E-19         0.00000E+00
    0.32273E-07         0.24001E-19         0.00000E+00
    0.32696E-07         0.16764E-19         0.00000E+00
    0.33127E-07         0.14901E-19         0.00000E+00
    0.33564E-07         0.44165E-20         0.00000E+00
    0.34006E-07         0.12325E-19         0.00000E+00
    0.34451E-07         0.10245E-19         0.00000E+00
    0.34896E-07         0.18444E-19         0.00000E+00
    0.35341E-07         0.23594E-19         0.00000E+00
    0.35781E-07         0.12107E-19         0.00000E+00
    0.36216E-07         0.22899E-19         0.00000E+00
    0.36643E-07         0.17731E-19         0.00000E+00
    0.37058E-07         0.51063E-20         0.00000E+00
    0.37458E-07         0.11176E-19         0.00000E+00
    0.37841E-07         0.13642E-19         0.00000E+00
    0.38203E-07         0.16971E-19         0.00000E+00
    0.38540E-07         0.16764E-19         0.00000E+00
    0.38848E-07         0.17333E-19         0.00000E+00
    0.39122E-07         0.20489E-19         0.00000E+00
    0.39359E-07         0.23680E-19         0.00000E+00
    0.39552E-07         0.11337E-19         0.00000E+00
    0.39697E-07        -0.18626E-20         0.00000E+00
    0.39788E-07         0.33714E-20         0.00000E+00
    0.39820E-07         0.00000E+00         0.00000E+00
    0.50106E-07         0.00000E+00         0.00000E+00
    0.50062E-07        -0.37253E-20         0.00000E+00
    0.49935E-07         0.26077E-19         0.00000E+00
    0.49731E-07         0.21150E-19         0.00000E+00
    0.49459E-07         0.37253E-19         0.00000E+00
    0.49125E-07         0.74506E-20         0.00000E+00
    0.48736E-07         0.57334E-19         0.00000E+00
    0.48299E-07         0.48429E-19         0.00000E+00
    0.47818E-07        -0.55879E-20         0.00000E+00
    0.47301E-07         0.00000E+00         0.00000E+00
    0.46751E-07         0.55879E-20         0.00000E+00
    0.46172E-07        -0.65193E-20         0.00000E+00
    0.45571E-07         0.52806E-20         0.00000E+00
    0.44950E-07        -0.55879E-20         0.00000E+00
    0.44313E-07         0.93132E-20         0.00000E+00
    0.43664E-07        -0.18759E-19         0.00000E+00
    0.43005E-07        -0.55879E-20         0.00000E+00
    0.42341E-07         0.39032E-20         0.00000E+00
    0.41672E-07        -0.18626E-19         0.00000E+00
    0.41003E-07         0.37253E-20         0.00000E+00
    0.40335E-07         0.26077E-19         0.00000E+00
    0.39671E-07         0.13039E-19         0.00000E+00
    0.39012E-07        -0.27940E-20         0.00000E+00
    0.38360E-07         0.26077E-19         0.00000E+00
    0.37717E-07         0.15159E-19         0.00000E+00
    0.37085E-07         0.46566E-20         0.00000E+00
    0.36464E-07         0.14901E-19         0.00000E+00
    0.35856E-07        -0.41073E-20         0.00000E+00
    0.35263E-07         0.37253E-20         0.00000E+00
    0.34685E-07        -0.74903E-20         0.00000E+00
    0.34123E-07        -0.53792E-20         0.00000E+00
    0.33579E-07         0.60411E-20         0.00000E+00
    0.33052E-07         0.37253E-20         0.00000E+00
    0.32545E-07         0.18636E-20         0.00000E+00
    0.32056E-07         0.12339E-19         0.00000E+00
    0.31588E-07         0.13039E-19         0.00000E+00
    0.31140E-07         0.22352E-19         0.00000E+00
    0.30713E-07         0.27940E-19         0.00000E+00
    0.30308E-07         0.55879E-20         0.00000E+00
    0.29924E-07         0.70351E-20         0.00000E+00
    0.29562E-07         0.37253E-20         0.00000E+00
    0.29223E-07         0.25236E-19         0.00000E+00
    0.28906E-07         0.40978E-19         0.00000E+00
    0.28613E-07        -0.59127E-20         0.00000E+00
    0.28342E-07         0.42543E-20         0.00000E+00
    0.28094E-07         0.55879E-20         0.00000E+00
    0.27870E-07        -0.27940E-19         0.00000E+00
    0.27669E-07         0.11375E-19         0.00000E+00
    0.27492E-07         0.24611E-19         0.00000E+00
    0.27338E-07        -0.22015E-20         0.00000E+00
    0.27207E-07         0.20489E-19         0.00000E+00
    0.27100E-07         0.55383E-20         0.00000E+00
    0.27017E-07         0.55879E-20         0.00000E+00
    0.26956E-07         0.23283E-19         0.00000E+00
    0.26919E-07         0.14901E-19         0.00000E+00
    0.26905E-07         0.37253E-20         0.00000E+00
    0.26914E-07         0.22507E-19         0.00000E+00
    0.26946E-07         0.97068E-20         0.00000E+00
    0.27001E-07        -0.27830E-20         0.00000E+00
    0.27078E-07         0.13036E-20         0.00000E+00
    0.27177E-07        -0.14901E-19         0.00000E+00
    0.27298E-07        -0.74506E-20         0.00000E+00
    0.27441E-07         0.74506E-20         0.00000E+00
    0.27605E-07        -0.84370E-20         0.00000E+00
    0.27790E-07        -0.51418E-20         0.00000E+00
    0.27996E-07         0.93132E-20         0.00000E+00
    0.28222E-07         0.58926E-20         0.00000E+00
    0.28467E-07         0.18626E-20         0.00000E+00
    0.28732E-07         0.25146E-19         0.00000E+00
    0.29015E-07         0.50061E-20         0.00000E+00
    0.29316E-07        -0.83819E-20         0.00000E+00
    0.29634E-07         0.14901E-19         0.00000E+00
    0.29968E-07         0.11138E-19         0.00000E+00
    0.30319E-07         0.14901E-19         0.00000E+00
    0.30684E-07         0.24214E-19         0.00000E+00
    0.31063E-07         0.29802E-19         0.00000E+00
    0.31455E-07         0.29047E-19         0.00000E+00
    0.31859E-07         0.22352E-19         0.00000E+00
    0.32273E-07         0.28153E-19         0.00000E+00
    0.32696E-07         0.14901E-19         0.00000E+00
    0.33127E-07         0.26077E-19         0.00000E+00
    0.33564E-07         0.20489E-19         0.00000E+00
    0.34006E-07        -0.21740E-21         0.00000E+00
    0.34451E-07         0.17027E-19         0.00000E+00
    0.34896E-07         0.18809E-19         0.00000E+00
    0.35341E-07         0.13970E-19         0.00000E+00
    0.35781E-07         0.17817E-19         0.00000E+00
    0.36216E-07         0.18079E-19         0.00000E+00
    0.36643E-07         0.17659E-19         0.00000E+00
    0.37058E-07         0.22352E-19         0.00000E+00
    0.37458E-07         0.93132E-21         0.00000E+00
    0.37841E-07         0.23007E-19         0.00000E+00
    0.38203E-07         0.20282E-19         0.00000E+00
    0.38540E-07         0.13039E-19         0.00000E+00
    0.38848E-07         0.20851E-19         0.00000E+00
    0.39122E-07         0.27008E-19         0.00000E+00
    0.39359E-07         0.25680E-19         0.00000E+00
    0.39552E-07        -0.57490E-20         0.00000E+00
    0.39697E-07         0.25846E-20         0.00000E+00
    0.39788E-07         0.55879E-20         0.00000E+00
    0.39820E-07         0.18626E-20         0.00000E+00
    0.50106E-07         0.00000E+00         0.00000E+00
    0.50062E-07         0.37253E-20         0.00000E+00
    0.49935E-07         0.44703E-19         0.00000E+00
    0.49731E-07         0.25416E-19         0.00000E+00
    0.49459E-07         0.40978E-19         0.00000E+00
    0.49125E-07         0.26077E-19         0.00000E+00
    0.48736E-07         0.50700E-19         0.00000E+00
    0.48299E-07         0.44703E-19         0.00000E+00
    0.47818E-07         0.11176E-19         0.00000E+00
    0.47301E-07         0.13412E-19         0.00000E+00
    0.46751E-07         0.37253E-20         0.00000E+00
    0.46172E-07         0.16374E-19         0.00000E+00
    0.45571E-07         0.49640E-20         0.00000E+00
    0.44950E-07         0.93132E-20         0.00000E+00
    0.44313E-07         0.24214E-19         0.00000E+00
    0.43664E-07        -0.37253E-20         0.00000E+00
    0.43005E-07         0.93132E-20         0.00000E+00
    0.42341E-07         0.28693E-19         0.00000E+00
    0.41672E-07        -0.52585E-20         0.00000E+00
    0.41003E-07         0.22352E-19         0.00000E+00
    0.40335E-07         0.30734E-19         0.00000E+00
    0.39671E-07         0.14131E-19         0.00000E+00
    0.39012E-07         0.13019E-19         0.00000E+00
    0.38360E-07         0.33528E-19         0.00000E+00
    0.37717E-07         0.62612E-20         0.00000E+00
    0.37085E-07         0.12645E-19         0.00000E+00
    0.36464E-07         0.26077E-19         0.00000E+00
    0.35856E-07         0.18626E-20         0.00000E+00
    0.35263E-07         0.11176E-19         0.00000E+00
    0.34685E-07         0.74903E-20         0.00000E+00
    0.34123E-07         0.11176E-19         0.00000E+00
    0.33579E-07         0.16311E-19         0.00000E+00
    0.33052E-07         0.74506E-20         0.00000E+00
    0.32545E-07         0.93132E-20         0.00000E+00
    0.32056E-07         0.17463E-19         0.00000E+00
    0.31588E-07         0.14440E-19         0.00000E+00
    0.31140E-07         0.27696E-19         0.00000E+00
    0.30713E-07         0.35390E-19         0.00000E+00
    0.30308E-07         0.13039E-19         0.00000E+00
    0.29924E-07         0.78661E-20         0.00000E+00
    0.29562E-07         0.15832E-19         0.00000E+00
    0.29223E-07         0.20489E-19         0.00000E+00
    0.28906E-07         0.27940E-19         0.00000E+00
    0.28613E-07         0.93132E-20         0.00000E+00
    0.28342E-07         0.27940E-20         0.00000E+00
    0.28094E-07         0.72506E-20         0.00000E+00
    0.27870E-07        -0.24214E-19         0.00000E+00
    0.27669E-07         0.23283E-19         0.00000E+00
    0.27492E-07         0.14901E-19         0.00000E+00
    0.27338E-07         0.21759E-19         0.00000E+00
    0.27207E-07         0.29802E-19         0.00000E+00
    0.27100E-07         0.22401E-19         0.00000E+00
    0.27017E-07         0.24214E-19         0.00000E+00
    0.26956E-07         0.22290E-19         0.00000E+00
    0.26919E-07         0.22352E-19         0.00000E+00
    0.26905E-07         0.27940E-19         0.00000E+00
    0.26914E-07         0.72952E-20         0.00000E+00
    0.26946E-07         0.18626E-19         0.00000E+00
    0.27001E-07         0.93132E-20         0.00000E+00
    0.27078E-07         0.10804E-19         0.00000E+00
    0.27177E-07        -0.46566E-20         0.00000E+00
    0.27298E-07         0.18626E-20         0.00000E+00
    0.27441E-07         0.93132E-20         0.00000E+00
    0.27605E-07        -0.98640E-21         0.00000E+00
    0.27790E-07         0.14165E-20         0.00000E+00
    0.27996E-07         0.73589E-20         0.00000E+00
    0.28222E-07         0.20184E-19         0.00000E+00
    0.28467E-07         0.00000E+00         0.00000E+00
    0.28732E-07         0.20314E-19         0.00000E+00
    0.29015E-07         0.16764E-19         0.00000E+00
    0.29316E-07         0.45959E-20         0.00000E+00
    0.29634E-07         0.20489E-19         0.00000E+00
    0.29968E-07         0.11176E-19         0.00000E+00
    0.30319E-07         0.37253E-19         0.00000E+00
    0.30684E-07         0.31665E-19         0.00000E+00
    0.31063E-07         0.48429E-19         0.00000E+00
    0.31455E-07         0.38939E-19         0.00000E+00
    0.31859E-07         0.22352E-19         0.00000E+00
    0.32273E-07         0.29802E-19         0.00000E+00
    0.32696E-07         0.14901E-19         0.00000E+00
    0.33127E-07         0.29802E-19         0.00000E+00
    0.33564E-07         0.34459E-19         0.00000E+00
    0.34006E-07         0.11487E-20         0.00000E+00
    0.34451E-07         0.30471E-19         0.00000E+00
    0.34896E-07         0.21420E-19         0.00000E+00
    0.35341E-07         0.17385E-19         0.00000E+00
    0.35781E-07         0.34459E-19         0.00000E+00
    0.36216E-07         0.23283E-19         0.00000E+00
    0.36643E-07         0.26077E-19         0.00000E+00
    0.37058E-07         0.26077E-19         0.00000E+00
    0.37458E-07         0.12181E-19         0.00000E+00
    0.37841E-07         0.21696E-19         0.00000E+00
    0.38203E-07         0.33735E-19         0.00000E+00
    0.38540E-07         0.22352E-19         0.00000E+00
    0.38848E-07         0.13039E-19         0.00000E+00
    0.39122E-07         0.28851E-19         0.00000E+00
    0.39359E-07         0.13039E-19         0.00000E+00
    0.39552E-07        -0.35642E-20         0.00000E+00
    0.39697E-07         0.12317E-19         0.00000E+00
    0.39788E-07        -0.18626E-20         0.00000E+00
    0.39820E-07         0.18875E-20         0.00000E+00
    0.50106E-07         0.00000E+00         0.00000E+00
    0.50062E-07         0.26077E-19         0.00000E+00
    0.49935E-07         0.54017E-19         0.00000E+00
    0.49731E-07         0.35390E-19         0.00000E+00
    0.49459E-07         0.48429E-19         0.00000E+00
    0.49125E-07         0.21900E-19         0.00000E+00
    0.48736E-07         0.31665E-19         0.00000E+00
    0.48299E-07         0.31665E-19         0.00000E+00
    0.47818E-07         0.30734E-19         0.00000E+00
    0.47301E-07         0.11176E-19         0.00000E+00
    0.46751E-07         0.26535E-19         0.00000E+00
    0.46172E-07         0.40437E-19         0.00000E+00
    0.45571E-07         0.46566E-20         0.00000E+00
    0.44950E-07         0.18626E-19         0.00000E+00
    0.44313E-07         0.29802E-19         0.00000E+00
    0.43664E-07         0.16896E-19         0.00000E+00
    0.43005E-07         0.26077E-19         0.00000E+00
    0.42341E-07         0.20489E-19         0.00000E+00
    0.41672E-07         0.11176E-19         0.00000E+00
    0.41003E-07         0.31186E-19         0.00000E+00
    0.40335E-07         0.25771E-19         0.00000E+00
    0.39671E-07         0.19397E-19         0.00000E+00
    0.39012E-07         0.28890E-19         0.00000E+00
    0.38360E-07         0.24094E-19         0.00000E+00
    0.37717E-07         0.17695E-19         0.00000E+00
    0.37085E-07         0.29264E-19         0.00000E+00
    0.36464E-07         0.20489E-19         0.00000E+00
    0.35856E-07        -0.18626E-20         0.00000E+00
    0.35263E-07        -0.13039E-19         0.00000E+00
    0.34685E-07         0.74108E-20         0.00000E+00
    0.34123E-07         0.81732E-20         0.00000E+00
    0.33579E-07         0.11176E-19         0.00000E+00
    0.33052E-07         0.17695E-19         0.00000E+00
    0.32545E-07         0.14900E-19         0.00000E+00
    0.32056E-07         0.93132E-20         0.00000E+00
    0.31588E-07         0.22813E-19         0.00000E+00
    0.31140E-07         0.26077E-19         0.00000E+00
    0.30713E-07         0.14901E-19         0.00000E+00
    0.30308E-07         0.18428E-19         0.00000E+00
    0.29924E-07         0.93132E-20         0.00000E+00
    0.29562E-07         0.28569E-19         0.00000E+00
    0.29223E-07         0.26077E-19         0.00000E+00
    0.28906E-07         0.24214E-19         0.00000E+00
    0.28613E-07         0.59127E-20         0.00000E+00
    0.28342E-07         0.97155E-20         0.00000E+00
    0.28094E-07        -0.46566E-20         0.00000E+00
    0.27870E-07        -0.55884E-20         0.00000E+00
    0.27669E-07         0.11908E-19         0.00000E+00
    0.27492E-07         0.13039E-19         0.00000E+00
    0.27338E-07         0.31665E-19         0.00000E+00
    0.27207E-07         0.22352E-19         0.00000E+00
    0.27100E-07         0.39116E-19         0.00000E+00
    0.27017E-07         0.37253E-19         0.00000E+00
    0.26956E-07         0.23345E-19         0.00000E+00
    0.26919E-07         0.14901E-19         0.00000E+00
    0.26905E-07         0.37253E-19         0.00000E+00
    0.26914E-07         0.13194E-19         0.00000E+00
    0.26946E-07         0.12107E-19         0.00000E+00
    0.27001E-07         0.23272E-19         0.00000E+00
    0.27078E-07         0.74506E-20         0.00000E+00
    0.27177E-07        -0.75643E-21         0.00000E+00
    0.27298E-07        -0.37253E-20         0.00000E+00
    0.27441E-07         0.18626E-20         0.00000E+00
    0.27605E-07         0.74506E-20         0.00000E+00
    0.27790E-07         0.16279E-19         0.00000E+00
    0.27996E-07        -0.37253E-20         0.00000E+00
    0.28222E-07         0.18931E-19         0.00000E+00
    0.28467E-07         0.55879E-20         0.00000E+00
    0.28732E-07         0.21596E-19         0.00000E+00
    0.29015E-07         0.19558E-19         0.00000E+00
    0.29316E-07         0.93132E-20         0.00000E+00
    0.29634E-07         0.16764E-19         0.00000E+00
    0.29968E-07         0.11176E-19         0.00000E+00
    0.30319E-07         0.33528E-19         0.00000E+00
    0.30684E-07         0.36322E-19         0.00000E+00
    0.31063E-07         0.44703E-19         0.00000E+00
    0.31455E-07         0.40047E-19         0.00000E+00
    0.31859E-07         0.35390E-19         0.00000E+00
    0.32273E-07         0.16764E-19         0.00000E+00
    0.32696E-07         0.24214E-19         0.00000E+00
    0.33127E-07         0.18626E-19         0.00000E+00
    0.33564E-07         0.30974E-19         0.00000E+00
    0.34006E-07         0.24928E-19         0.00000E+00
    0.34451E-07         0.27008E-19         0.00000E+00
    0.34896E-07         0.15650E-19         0.00000E+00
    0.35341E-07         0.28871E-19         0.00000E+00
    0.35781E-07         0.37131E-19         0.00000E+00
    0.36216E-07         0.23667E-19         0.00000E+00
    0.36643E-07         0.27976E-19         0.00000E+00
    0.37058E-07         0.17695E-19         0.00000E+00
    0.37458E-07         0.30734E-19         0.00000E+00
    0.37841E-07         0.18023E-19         0.00000E+00
    0.38203E-07         0.39840E-19         0.00000E+00
    0.38540E-07         0.20489E-19         0.00000E+00
    0.38848E-07         0.12677E-19         0.00000E+00
    0.39122E-07         0.14901E-19         0.00000E+00
    0.39359E-07         0.93132E-21         0.00000E+00
    0.39552E-07         0.14740E-19         0.00000E+00
    0.39697E-07         0.13039E-19         0.00000E+00
    0.39788E-07         0.18626E-20         0.00000E+00
    0.39820E-07        -0.18875E-20         0.00000E+00
    0.50106E-07         0.00000E+00         0.00000E+00
    0.50062E-07         0.18318E-19         0.00000E+00
    0.49935E-07         0.36614E-19         0.00000E+00
    0.49731E-07         0.32326E-19         0.00000E+00
    0.49459E-07         0.75002E-19         0.00000E+00
    0.49125E-07         0.22804E-19         0.00000E+00
    0.48736E-07         0.21012E-19         0.00000E+00
    0.48299E-07         0.46566E-19         0.00000E+00
    0.47818E-07         0.29514E-19         0.00000E+00
    0.47301E-07         0.18626E-20         0.00000E+00
    0.46751E-07         0.34932E-19         0.00000E+00
    0.46172E-07         0.48429E-19         0.00000E+00
    0.45571E-07         0.48121E-19         0.00000E+00
    0.44950E-07         0.35390E-19         0.00000E+00
    0.44313E-07         0.18626E-20         0.00000E+00
    0.43664E-07         0.31533E-19         0.00000E+00
    0.43005E-07         0.14877E-19         0.00000E+00
    0.42341E-07         0.27940E-20         0.00000E+00
    0.41672E-07        -0.18626E-20         0.00000E+00
    0.41003E-07         0.97919E-20         0.00000E+00
    0.40335E-07         0.86877E-20         0.00000E+00
    0.39671E-07         0.37253E-20         0.00000E+00
    0.39012E-07         0.20489E-19         0.00000E+00
    0.38360E-07         0.11176E-19         0.00000E+00
    0.37717E-07         0.24472E-19         0.00000E+00
    0.37085E-07         0.22352E-19         0.00000E+00
    0.36464E-07         0.16764E-19         0.00000E+00
    0.35856E-07        -0.93132E-20         0.00000E+00
    0.35263E-07        -0.29802E-19         0.00000E+00
    0.34685E-07        -0.74108E-20         0.00000E+00
    0.34123E-07        -0.44479E-20         0.00000E+00
    0.33579E-07         0.55879E-20         0.00000E+00
    0.33052E-07         0.14208E-19         0.00000E+00
    0.32545E-07         0.13040E-19         0.00000E+00
    0.32056E-07         0.00000E+00         0.00000E+00
    0.31588E-07         0.18626E-19         0.00000E+00
    0.31140E-07         0.13039E-19         0.00000E+00
    0.30713E-07         0.55879E-20         0.00000E+00
    0.30308E-07         0.20614E-20         0.00000E+00
    0.29924E-07         0.13039E-19         0.00000E+00
    0.29562E-07         0.74506E-20         0.00000E+00
    0.29223E-07         0.35390E-19         0.00000E+00
    0.28906E-07         0.20489E-19         0.00000E+00
    0.28613E-07        -0.21874E-20         0.00000E+00
    0.28342E-07         0.13165E-19         0.00000E+00
    0.28094E-07        -0.25940E-20         0.00000E+00
    0.27870E-07         0.18626E-20         0.00000E+00
    0.27669E-07        -0.74506E-20         0.00000E+00
    0.27492E-07         0.70540E-20         0.00000E+00
    0.27338E-07         0.74506E-20         0.00000E+00
    0.27207E-07         0.11176E-19         0.00000E+00
    0.27100E-07         0.20539E-19         0.00000E+00
    0.27017E-07         0.26077E-19         0.00000E+00
    0.26956E-07         0.13970E-19         0.00000E+00
    0.26919E-07         0.11176E-19         0.00000E+00
    0.26905E-07         0.27940E-19         0.00000E+00
    0.26914E-07         0.15677E-19         0.00000E+00
    0.26946E-07         0.13576E-19         0.00000E+00
    0.27001E-07         0.13049E-19         0.00000E+00
    0.27078E-07         0.18626E-20         0.00000E+00
    0.27177E-07        -0.76255E-20         0.00000E+00
    0.27298E-07        -0.16764E-19         0.00000E+00
    0.27441E-07        -0.37253E-20         0.00000E+00
    0.27605E-07         0.56430E-20         0.00000E+00
    0.27790E-07         0.00000E+00         0.00000E+00
    0.27996E-07        -0.37253E-20         0.00000E+00
    0.28222E-07         0.62667E-21         0.00000E+00
    0.28467E-07         0.74506E-20         0.00000E+00
    0.28732E-07         0.83819E-20         0.00000E+00
    0.29015E-07         0.61697E-20         0.00000E+00
    0.29316E-07         0.13039E-19         0.00000E+00
    0.29634E-07         0.60441E-20         0.00000E+00
    0.29968E-07         0.16764E-19         0.00000E+00
    0.30319E-07         0.16764E-19         0.00000E+00
    0.30684E-07         0.33645E-19         0.00000E+00
    0.31063E-07         0.29802E-19         0.00000E+00
    0.31455E-07         0.30557E-19         0.00000E+00
    0.31859E-07         0.26077E-19         0.00000E+00
    0.32273E-07         0.16764E-19         0.00000E+00
    0.32696E-07         0.29802E-19         0.00000E+00
    0.33127E-07         0.93132E-20         0.00000E+00
    0.33564E-07         0.43772E-19         0.00000E+00
    0.34006E-07         0.22569E-19         0.00000E+00
    0.34451E-07         0.31928E-19         0.00000E+00
    0.34896E-07         0.24397E-19         0.00000E+00
    0.35341E-07         0.36632E-19         0.00000E+00
    0.35781E-07         0.31787E-19         0.00000E+00
    0.36216E-07         0.20105E-19         0.00000E+00
    0.36643E-07         0.19486E-19         0.00000E+00
    0.37058E-07         0.16282E-19         0.00000E+00
    0.37458E-07         0.23209E-19         0.00000E+00
    0.37841E-07         0.26077E-19         0.00000E+00
    0.38203E-07         0.26077E-19         0.00000E+00
    0.38540E-07         0.20856E-19         0.00000E+00
    0.38848E-07         0.14901E-19         0.00000E+00
    0.39122E-07         0.93132E-20         0.00000E+00
    0.39359E-07         0.31907E-20         0.00000E+00
    0.39552E-07         0.11337E-19         0.00000E+00
    0.39697E-07         0.13039E-19         0.00000E+00
    0.39788E-07        -0.18626E-20         0.00000E+00
    0.39820E-07         0.00000E+00         0.00000E+00
    0.50106E-07         0.00000E+00         0.00000E+00
    0.50062E-07         0.18935E-19         0.00000E+00
    0.49935E-07         0.99521E-20         0.00000E+00
    0.49731E-07         0.41519E-19         0.00000E+00
    0.49459E-07         0.81460E-19         0.00000E+00
    0.49125E-07         0.44703E-19         0.00000E+00
    0.48736E-07         0.10130E-19         0.00000E+00
    0.48299E-07         0.42841E-19         0.00000E+00
    0.47818E-07         0.34747E-19         0.00000E+00
    0.47301E-07         0.29802E-19         0.00000E+00
    0.46751E-07         0.33528E-19         0.00000E+00
    0.46172E-07         0.44703E-19         0.00000E+00
    0.45571E-07         0.59288E-19         0.00000E+00
    0.44950E-07         0.40978E-19         0.00000E+00
    0.44313E-07         0.29802E-19         0.00000E+00
    0.43664E-07         0.18626E-19         0.00000E+00
    0.43005E-07         0.20513E-19         0.00000E+00
    0.42341E-07        -0.16848E-20         0.00000E+00
    0.41672E-07        -0.18626E-20         0.00000E+00
    0.41003E-07         0.20489E-19         0.00000E+00
    0.40335E-07         0.11176E-19         0.00000E+00
    0.39671E-07        -0.12107E-19         0.00000E+00
    0.39012E-07         0.16764E-19         0.00000E+00
    0.38360E-07         0.74506E-20         0.00000E+00
    0.37717E-07         0.20904E-19         0.00000E+00
    0.37085E-07         0.93132E-20         0.00000E+00
    0.36464E-07         0.14901E-19         0.00000E+00
    0.35856E-07        -0.93132E-20         0.00000E+00
    0.35263E-07        -0.13039E-19         0.00000E+00
    0.34685E-07        -0.13078E-19         0.00000E+00
    0.34123E-07         0.00000E+00         0.00000E+00
    0.33579E-07         0.13039E-19         0.00000E+00
    0.33052E-07         0.81442E-20         0.00000E+00
    0.32545E-07         0.00000E+00         0.00000E+00
    0.32056E-07         0.23203E-21         0.00000E+00
    0.31588E-07         0.22352E-19         0.00000E+00
    0.31140E-07         0.11176E-19         0.00000E+00
    0.30713E-07         0.11176E-19         0.00000E+00
    0.30308E-07         0.93132E-20         0.00000E+00
    0.29924E-07         0.30218E-19         0.00000E+00
    0.29562E-07        -0.37253E-20         0.00000E+00
    0.29223E-07         0.22352E-19         0.00000E+00
    0.28906E-07         0.25146E-19         0.00000E+00
    0.28613E-07         0.77753E-20         0.00000E+00
    0.28342E-07         0.10647E-19         0.00000E+00
    0.28094E-07        -0.93132E-20         0.00000E+00
    0.27870E-07         0.37253E-20         0.00000E+00
    0.27669E-07        -0.35260E-20         0.00000E+00
    0.27492E-07         0.93132E-20         0.00000E+00
    0.27338E-07        -0.37253E-20         0.00000E+00
    0.27207E-07         0.23283E-19         0.00000E+00
    0.27100E-07         0.36756E-20         0.00000E+00
    0.27017E-07         0.16764E-19         0.00000E+00
    0.26956E-07         0.17633E-19         0.00000E+00
    0.26919E-07         0.13039E-19         0.00000E+00
    0.26905E-07         0.16764E-19         0.00000E+00
    0.26914E-07         0.13039E-19         0.00000E+00
    0.26946E-07         0.19020E-19         0.00000E+00
    0.27001E-07         0.74396E-20         0.00000E+00
    0.27078E-07         0.00000E+00         0.00000E+00
    0.27177E-07        -0.27940E-20         0.00000E+00
    0.27298E-07        -0.13039E-19         0.00000E+00
    0.27441E-07         0.00000E+00         0.00000E+00
    0.27605E-07        -0.93132E-20         0.00000E+00
    0.27790E-07        -0.18626E-19         0.00000E+00
    0.27996E-07         0.83819E-20         0.00000E+00
    0.28222E-07         0.18626E-20         0.00000E+00
    0.28467E-07         0.18626E-20         0.00000E+00
    0.28732E-07         0.21245E-19         0.00000E+00
    0.29015E-07         0.12107E-19         0.00000E+00
    0.29316E-07         0.24275E-19         0.00000E+00
    0.29634E-07         0.00000E+00         0.00000E+00
    0.29968E-07         0.29802E-19         0.00000E+00
    0.30319E-07         0.24214E-19         0.00000E+00
    0.30684E-07         0.21186E-19         0.00000E+00
    0.31063E-07         0.26077E-19         0.00000E+00
    0.31455E-07         0.26253E-19         0.00000E+00
    0.31859E-07         0.34459E-19         0.00000E+00
    0.32273E-07         0.24214E-19         0.00000E+00
    0.32696E-07         0.14901E-19         0.00000E+00
    0.33127E-07         0.18399E-19         0.00000E+00
    0.33564E-07         0.36082E-19         0.00000E+00
    0.34006E-07         0.27940E-19         0.00000E+00
    0.34451E-07         0.23020E-19         0.00000E+00
    0.34896E-07         0.26077E-19         0.00000E+00
    0.35341E-07         0.52154E-19         0.00000E+00
    0.35781E-07         0.21299E-19         0.00000E+00
    0.36216E-07         0.22735E-19         0.00000E+00
    0.36643E-07         0.14006E-19         0.00000E+00
    0.37058E-07         0.18626E-19         0.00000E+00
    0.37458E-07         0.14901E-19         0.00000E+00
    0.37841E-07         0.40978E-19         0.00000E+00
    0.38203E-07         0.13970E-19         0.00000E+00
    0.38540E-07         0.23847E-19         0.00000E+00
    0.38848E-07         0.11538E-19         0.00000E+00
    0.39122E-07         0.10245E-19         0.00000E+00
    0.39359E-07         0.12107E-19         0.00000E+00
    0.39552E-07         0.10083E-19         0.00000E+00
    0.39697E-07         0.55879E-20         0.00000E+00
    0.39788E-07        -0.93132E-21         0.00000E+00
    0.39820E-07         0.00000E+00         0.00000E+00
    0.50106E-07         0.00000E+00         0.00000E+00
    0.50062E-07         0.14593E-19         0.00000E+00
    0.49935E-07         0.14262E-19         0.00000E+00
    0.49731E-07         0.52815E-19         0.00000E+00
    0.49459E-07         0.30298E-19         0.00000E+00
    0.49125E-07         0.55879E-19         0.00000E+00
    0.48736E-07         0.48021E-19         0.00000E+00
    0.48299E-07         0.27940E-19         0.00000E+00
    0.47818E-07         0.42553E-19         0.00000E+00
    0.47301E-07         0.40978E-19         0.00000E+00
    0.46751E-07         0.22352E-19         0.00000E+00
    0.46172E-07         0.42841E-19         0.00000E+00
    0.45571E-07         0.90058E-20         0.00000E+00
    0.44950E-07         0.44703E-19         0.00000E+00
    0.44313E-07         0.22352E-19         0.00000E+00
    0.43664E-07         0.75830E-20         0.00000E+00
    0.43005E-07         0.13015E-19         0.00000E+00
    0.42341E-07        -0.12285E-19         0.00000E+00
    0.41672E-07         0.14901E-19         0.00000E+00
    0.41003E-07         0.34912E-19         0.00000E+00
    0.40335E-07         0.13039E-19         0.00000E+00
    0.39671E-07         0.57492E-20         0.00000E+00
    0.39012E-07         0.26077E-19         0.00000E+00
    0.38360E-07         0.12918E-19         0.00000E+00
    0.37717E-07         0.13297E-19         0.00000E+00
    0.37085E-07         0.55879E-20         0.00000E+00
    0.36464E-07         0.14901E-19         0.00000E+00
    0.35856E-07        -0.37253E-20         0.00000E+00
    0.35263E-07        -0.18626E-20         0.00000E+00
    0.34685E-07        -0.14861E-19         0.00000E+00
    0.34123E-07         0.44479E-20         0.00000E+00
    0.33579E-07        -0.18626E-20         0.00000E+00
    0.33052E-07         0.76883E-20         0.00000E+00
    0.32545E-07        -0.18617E-20         0.00000E+00
    0.32056E-07         0.90812E-20         0.00000E+00
    0.31588E-07         0.88517E-20         0.00000E+00
    0.31140E-07         0.11176E-19         0.00000E+00
    0.30713E-07         0.93132E-20         0.00000E+00
    0.30308E-07         0.22153E-19         0.00000E+00
    0.29924E-07         0.27524E-19         0.00000E+00
    0.29562E-07         0.19860E-19         0.00000E+00
    0.29223E-07         0.74506E-20         0.00000E+00
    0.28906E-07         0.25027E-19         0.00000E+00
    0.28613E-07         0.52632E-20         0.00000E+00
    0.28342E-07        -0.14604E-20         0.00000E+00
    0.28094E-07        -0.46566E-20         0.00000E+00
    0.27870E-07         0.55875E-20         0.00000E+00
    0.27669E-07         0.44573E-20         0.00000E+00
    0.27492E-07        -0.70540E-20         0.00000E+00
    0.27338E-07         0.11176E-19         0.00000E+00
    0.27207E-07         0.14114E-19         0.00000E+00
    0.27100E-07         0.18626E-20         0.00000E+00
    0.27017E-07         0.18626E-19         0.00000E+00
    0.26956E-07         0.15956E-19         0.00000E+00
    0.26919E-07         0.27940E-19         0.00000E+00
    0.26905E-07         0.74506E-20         0.00000E+00
    0.26914E-07         0.20489E-19         0.00000E+00
    0.26946E-07         0.93132E-20         0.00000E+00
    0.27001E-07         0.15843E-19         0.00000E+00
    0.27078E-07         0.46566E-20         0.00000E+00
    0.27177E-07        -0.82070E-20         0.00000E+00
    0.27298E-07         0.00000E+00         0.00000E+00
    0.27441E-07         0.31278E-20         0.00000E+00
    0.27605E-07        -0.11176E-19         0.00000E+00
    0.27790E-07        -0.14901E-19         0.00000E+00
    0.27996E-07         0.84736E-20         0.00000E+00
    0.28222E-07         0.74506E-20         0.00000E+00
    0.28467E-07         0.13039E-19         0.00000E+00
    0.28732E-07         0.22352E-19         0.00000E+00
    0.29015E-07         0.27358E-19         0.00000E+00
    0.29316E-07         0.13909E-19         0.00000E+00
    0.29634E-07         0.13039E-19         0.00000E+00
    0.29968E-07         0.36359E-19         0.00000E+00
    0.30319E-07         0.33528E-19         0.00000E+00
    0.30684E-07         0.18743E-19         0.00000E+00
    0.31063E-07         0.18310E-19         0.00000E+00
    0.31455E-07         0.33528E-19         0.00000E+00
    0.31859E-07         0.51886E-19         0.00000E+00
    0.32273E-07         0.13039E-19         0.00000E+00
    0.32696E-07         0.46566E-20         0.00000E+00
    0.33127E-07         0.27236E-19         0.00000E+00
    0.33564E-07         0.93132E-20         0.00000E+00
    0.34006E-07         0.42841E-19         0.00000E+00
    0.34451E-07         0.74506E-20         0.00000E+00
    0.34896E-07         0.18809E-19         0.00000E+00
    0.35341E-07         0.40047E-19         0.00000E+00
    0.35781E-07         0.22473E-19         0.00000E+00
    0.36216E-07         0.31829E-19         0.00000E+00
    0.36643E-07         0.18663E-19         0.00000E+00
    0.37058E-07         0.24214E-19         0.00000E+00
    0.37458E-07         0.18626E-19         0.00000E+00
    0.37841E-07         0.41582E-19         0.00000E+00
    0.38203E-07         0.17488E-19         0.00000E+00
    0.38540E-07         0.20489E-19         0.00000E+00
    0.38848E-07         0.23853E-19         0.00000E+00
    0.39122E-07         0.65583E-20         0.00000E+00
    0.39359E-07         0.26612E-19         0.00000E+00
    0.39552E-07         0.14901E-19         0.00000E+00
    0.39697E-07        -0.37253E-20         0.00000E+00
    0.39788E-07         0.43027E-20         0.00000E+00
    0.39820E-07         0.00000E+00         0.00000E+00
    0.50106E-07         0.00000E+00         0.00000E+00
    0.50062E-07         0.18935E-19         0.00000E+00
    0.49935E-07         0.26716E-19         0.00000E+00
    0.49731E-07         0.63991E-19         0.00000E+00
    0.49459E-07         0.69545E-20         0.00000E+00
    0.49125E-07         0.63330E-19         0.00000E+00
    0.48736E-07         0.64784E-19         0.00000E+00
    0.48299E-07         0.16764E-19         0.00000E+00
    0.47818E-07         0.54305E-19         0.00000E+00
    0.47301E-07         0.54017E-19         0.00000E+00
    0.46751E-07         0.18626E-20         0.00000E+00
    0.46172E-07         0.28871E-19         0.00000E+00
    0.45571E-07        -0.49640E-20         0.00000E+00
    0.44950E-07         0.33528E-19         0.00000E+00
    0.44313E-07         0.55879E-20         0.00000E+00
    0.43664E-07         0.35929E-20         0.00000E+00
    0.43005E-07         0.18650E-19         0.00000E+00
    0.42341E-07         0.93132E-21         0.00000E+00
    0.41672E-07         0.20489E-19         0.00000E+00
    0.41003E-07         0.97919E-20         0.00000E+00
    0.40335E-07         0.11176E-19         0.00000E+00
    0.39671E-07         0.44953E-20         0.00000E+00
    0.39012E-07         0.26077E-19         0.00000E+00
    0.38360E-07         0.21039E-20         0.00000E+00
    0.37717E-07        -0.11849E-19         0.00000E+00
    0.37085E-07        -0.93132E-21         0.00000E+00
    0.36464E-07         0.55879E-20         0.00000E+00
    0.35856E-07        -0.55879E-20         0.00000E+00
    0.35263E-07        -0.55879E-20         0.00000E+00
    0.34685E-07        -0.37253E-20         0.00000E+00
    0.34123E-07         0.48653E-20         0.00000E+00
    0.33579E-07        -0.74506E-20         0.00000E+00
    0.33052E-07         0.15595E-19         0.00000E+00
    0.32545E-07         0.13038E-19         0.00000E+00
    0.32056E-07        -0.18626E-20         0.00000E+00
    0.31588E-07        -0.14011E-20         0.00000E+00
    0.31140E-07         0.74506E-20         0.00000E+00
    0.30713E-07         0.14901E-19         0.00000E+00
    0.30308E-07         0.95120E-20         0.00000E+00
    0.29924E-07         0.13039E-19         0.00000E+00
    0.29562E-07         0.35692E-19         0.00000E+00
    0.29223E-07        -0.90554E-22         0.00000E+00
    0.28906E-07         0.15019E-19         0.00000E+00
    0.28613E-07         0.93132E-20         0.00000E+00
    0.28342E-07        -0.65193E-20         0.00000E+00
    0.28094E-07         0.19998E-21         0.00000E+00
    0.27870E-07         0.18626E-20         0.00000E+00
    0.27669E-07         0.11908E-19         0.00000E+00
    0.27492E-07        -0.13832E-19         0.00000E+00
    0.27338E-07         0.18626E-19         0.00000E+00
    0.27207E-07        -0.75947E-20         0.00000E+00
    0.27100E-07         0.13039E-19         0.00000E+00
    0.27017E-07         0.37253E-20         0.00000E+00
    0.26956E-07         0.10183E-19         0.00000E+00
    0.26919E-07         0.74506E-20         0.00000E+00
    0.26905E-07         0.13039E-19         0.00000E+00
    0.26914E-07         0.37253E-20         0.00000E+00
    0.26946E-07         0.74506E-20         0.00000E+00
    0.27001E-07        -0.93132E-20         0.00000E+00
    0.27078E-07        -0.33530E-20         0.00000E+00
    0.27177E-07        -0.29689E-20         0.00000E+00
    0.27298E-07        -0.55879E-20         0.00000E+00
    0.27441E-07         0.61855E-20         0.00000E+00
    0.27605E-07        -0.18626E-19         0.00000E+00
    0.27790E-07        -0.21420E-19         0.00000E+00
    0.27996E-07         0.54963E-20         0.00000E+00
    0.28222E-07        -0.74506E-20         0.00000E+00
    0.28467E-07         0.16764E-19         0.00000E+00
    0.28732E-07         0.65193E-20         0.00000E+00
    0.29015E-07         0.27008E-19         0.00000E+00
    0.29316E-07         0.47173E-20         0.00000E+00
    0.29634E-07         0.27483E-19         0.00000E+00
    0.29968E-07         0.26971E-19         0.00000E+00
    0.30319E-07         0.35390E-19         0.00000E+00
    0.30684E-07         0.40978E-19         0.00000E+00
    0.31063E-07         0.77670E-20         0.00000E+00
    0.31455E-07         0.29802E-19         0.00000E+00
    0.31859E-07         0.42177E-19         0.00000E+00
    0.32273E-07         0.11176E-19         0.00000E+00
    0.32696E-07         0.10934E-19         0.00000E+00
    0.33127E-07         0.23511E-19         0.00000E+00
    0.33564E-07         0.93132E-20         0.00000E+00
    0.34006E-07         0.24214E-19         0.00000E+00
    0.34451E-07         0.13970E-19         0.00000E+00
    0.34896E-07         0.37071E-19         0.00000E+00
    0.35341E-07         0.11797E-19         0.00000E+00
    0.35781E-07         0.46566E-19         0.00000E+00
    0.36216E-07         0.17695E-19         0.00000E+00
    0.36643E-07         0.24214E-19         0.00000E+00
    0.37058E-07         0.27940E-19         0.00000E+00
    0.37458E-07         0.26003E-19         0.00000E+00
    0.37841E-07         0.41634E-19         0.00000E+00
    0.38203E-07         0.10245E-19         0.00000E+00
    0.38540E-07         0.15268E-19         0.00000E+00
    0.38848E-07         0.36891E-19         0.00000E+00
    0.39122E-07         0.18626E-19         0.00000E+00
    0.39359E-07         0.16626E-19         0.00000E+00
    0.39552E-07         0.65193E-20         0.00000E+00
    0.39697E-07         0.74506E-20         0.00000E+00
    0.39788E-07         0.22165E-20         0.00000E+00
    0.39820E-07         0.00000E+00         0.00000E+00
    0.50106E-07         0.00000E+00         0.00000E+00
    0.50062E-07         0.22352E-19         0.00000E+00
    0.49935E-07         0.40978E-19         0.00000E+00
    0.49731E-07         0.52154E-19         0.00000E+00
    0.49459E-07         0.33528E-19         0.00000E+00
    0.49125E-07         0.70781E-19         0.00000E+00
    0.48736E-07         0.68918E-19         0.00000E+00
    0.48299E-07         0.26077E-19         0.00000E+00
    0.47818E-07         0.50291E-19         0.00000E+00
    0.47301E-07         0.40978E-19         0.00000E+00
    0.46751E-07         0.24214E-19         0.00000E+00
    0.46172E-07         0.51980E-20         0.00000E+00
    0.45571E-07         0.40978E-19         0.00000E+00
    0.44950E-07         0.00000E+00         0.00000E+00
    0.44313E-07         0.27940E-19         0.00000E+00
    0.43664E-07         0.24347E-19         0.00000E+00
    0.43005E-07         0.93132E-20         0.00000E+00
    0.42341E-07         0.39032E-20         0.00000E+00
    0.41672E-07         0.26077E-19         0.00000E+00
    0.41003E-07        -0.15354E-19         0.00000E+00
    0.40335E-07         0.16764E-19         0.00000E+00
    0.39671E-07         0.57492E-20         0.00000E+00
    0.39012E-07         0.26989E-19         0.00000E+00
    0.38360E-07        -0.13159E-19         0.00000E+00
    0.37717E-07        -0.93132E-20         0.00000E+00
    0.37085E-07        -0.10638E-19         0.00000E+00
    0.36464E-07        -0.11176E-19         0.00000E+00
    0.35856E-07         0.96953E-20         0.00000E+00
    0.35263E-07        -0.14901E-19         0.00000E+00
    0.34685E-07         0.16724E-19         0.00000E+00
    0.34123E-07        -0.39340E-20         0.00000E+00
    0.33579E-07        -0.79037E-20         0.00000E+00
    0.33052E-07         0.13039E-19         0.00000E+00
    0.32545E-07         0.18626E-19         0.00000E+00
    0.32056E-07         0.95453E-20         0.00000E+00
    0.31588E-07        -0.13928E-20         0.00000E+00
    0.31140E-07         0.11176E-19         0.00000E+00
    0.30713E-07         0.16764E-19         0.00000E+00
    0.30308E-07         0.39241E-20         0.00000E+00
    0.29924E-07         0.74506E-20         0.00000E+00
    0.29562E-07         0.22981E-19         0.00000E+00
    0.29223E-07         0.14901E-19         0.00000E+00
    0.28906E-07         0.14901E-19         0.00000E+00
    0.28613E-07         0.15832E-19         0.00000E+00
    0.28342E-07         0.75773E-20         0.00000E+00
    0.28094E-07        -0.39253E-20         0.00000E+00
    0.27870E-07         0.11176E-19         0.00000E+00
    0.27669E-07         0.20489E-19         0.00000E+00
    0.27492E-07        -0.14108E-19         0.00000E+00
    0.27338E-07         0.16764E-19         0.00000E+00
    0.27207E-07        -0.11176E-19         0.00000E+00
    0.27100E-07         0.16813E-19         0.00000E+00
    0.27017E-07        -0.13039E-19         0.00000E+00
    0.26956E-07         0.13039E-19         0.00000E+00
    0.26919E-07         0.18626E-20         0.00000E+00
    0.26905E-07         0.00000E+00         0.00000E+00
    0.26914E-07        -0.13039E-19         0.00000E+00
    0.26946E-07        -0.50502E-20         0.00000E+00
    0.27001E-07        -0.13039E-19         0.00000E+00
    0.27078E-07        -0.22724E-19         0.00000E+00
    0.27177E-07         0.85568E-20         0.00000E+00
    0.27298E-07         0.00000E+00         0.00000E+00
    0.27441E-07        -0.74506E-20         0.00000E+00
    0.27605E-07        -0.14901E-19         0.00000E+00
    0.27790E-07        -0.13524E-19         0.00000E+00
    0.27996E-07        -0.18626E-20         0.00000E+00
    0.28222E-07        -0.37253E-20         0.00000E+00
    0.28467E-07         0.11176E-19         0.00000E+00
    0.28732E-07         0.14145E-19         0.00000E+00
    0.29015E-07         0.61697E-20         0.00000E+00
    0.29316E-07         0.23283E-19         0.00000E+00
    0.29634E-07         0.44703E-19         0.00000E+00
    0.29968E-07         0.37253E-19         0.00000E+00
    0.30319E-07         0.55879E-19         0.00000E+00
    0.30684E-07         0.22352E-19         0.00000E+00
    0.31063E-07         0.15516E-19         0.00000E+00
    0.31455E-07         0.26077E-19         0.00000E+00
    0.31859E-07         0.37253E-19         0.00000E+00
    0.32273E-07         0.35390E-19         0.00000E+00
    0.32696E-07         0.79348E-20         0.00000E+00
    0.33127E-07         0.29575E-19         0.00000E+00
    0.33564E-07         0.26077E-19         0.00000E+00
    0.34006E-07         0.81645E-20         0.00000E+00
    0.34451E-07         0.20752E-19         0.00000E+00
    0.34896E-07         0.37071E-19         0.00000E+00
    0.35341E-07         0.29802E-19         0.00000E+00
    0.35781E-07         0.56811E-19         0.00000E+00
    0.36216E-07         0.10628E-19         0.00000E+00
    0.36643E-07         0.23211E-19         0.00000E+00
    0.37058E-07         0.30734E-19         0.00000E+00
    0.37458E-07         0.23357E-19         0.00000E+00
    0.37841E-07         0.37253E-19         0.00000E+00
    0.38203E-07         0.13246E-19         0.00000E+00
    0.38540E-07         0.17328E-19         0.00000E+00
    0.38848E-07         0.31665E-19         0.00000E+00
    0.39122E-07         0.24175E-19         0.00000E+00
    0.39359E-07         0.11314E-19         0.00000E+00
    0.39552E-07         0.13200E-19         0.00000E+00
    0.39697E-07         0.11176E-19         0.00000E+00
    0.39788E-07        -0.18626E-20         0.00000E+00
    0.39820E-07         0.00000E+00         0.00000E+00
    0.50106E-07         0.00000E+00         0.00000E+00
    0.50062E-07         0.11176E-19         0.00000E+00
    0.49935E-07         0.40978E-19         0.00000E+00
    0.49731E-07         0.29802E-19         0.00000E+00
    0.49459E-07         0.48429E-19         0.00000E+00
    0.49125E-07         0.55879E-19         0.00000E+00
    0.48736E-07         0.52154E-19         0.00000E+00
    0.48299E-07         0.61467E-19         0.00000E+00
    0.47818E-07         0.93132E-20         0.00000E+00
    0.47301E-07         0.22352E-19         0.00000E+00
    0.46751E-07         0.31665E-19         0.00000E+00
    0.46172E-07        -0.24366E-19         0.00000E+00
    0.45571E-07         0.32596E-19         0.00000E+00
    0.44950E-07        -0.74506E-20         0.00000E+00
    0.44313E-07         0.20489E-19         0.00000E+00
    0.43664E-07         0.22352E-19         0.00000E+00
    0.43005E-07        -0.22352E-19         0.00000E+00
    0.42341E-07        -0.20667E-19         0.00000E+00
    0.41672E-07         0.93132E-20         0.00000E+00
    0.41003E-07         0.45261E-21         0.00000E+00
    0.40335E-07         0.18626E-20         0.00000E+00
    0.39671E-07         0.22352E-19         0.00000E+00
    0.39012E-07         0.93515E-20         0.00000E+00
    0.38360E-07        -0.20368E-19         0.00000E+00
    0.37717E-07         0.15832E-19         0.00000E+00
    0.37085E-07        -0.12107E-19         0.00000E+00
    0.36464E-07        -0.74506E-20         0.00000E+00
    0.35856E-07         0.12656E-19         0.00000E+00
    0.35263E-07        -0.37253E-20         0.00000E+00
    0.34685E-07         0.18626E-20         0.00000E+00
    0.34123E-07         0.11176E-19         0.00000E+00
    0.33579E-07        -0.14901E-19         0.00000E+00
    0.33052E-07         0.18626E-20         0.00000E+00
    0.32545E-07         0.74506E-20         0.00000E+00
    0.32056E-07         0.23982E-19         0.00000E+00
    0.31588E-07        -0.11646E-19         0.00000E+00
    0.31140E-07         0.37253E-20         0.00000E+00
    0.30713E-07         0.00000E+00         0.00000E+00
    0.30308E-07         0.24016E-19         0.00000E+00
    0.29924E-07        -0.55879E-20         0.00000E+00
    0.29562E-07         0.17695E-19         0.00000E+00
    0.29223E-07         0.20489E-19         0.00000E+00
    0.28906E-07         0.73323E-20         0.00000E+00
    0.28613E-07         0.14295E-19         0.00000E+00
    0.28342E-07         0.91865E-20         0.00000E+00
    0.28094E-07         0.81819E-20         0.00000E+00
    0.27870E-07         0.12107E-19         0.00000E+00
    0.27669E-07        -0.73206E-21         0.00000E+00
    0.27492E-07        -0.55879E-20         0.00000E+00
    0.27338E-07         0.18626E-20         0.00000E+00
    0.27207E-07        -0.74506E-20         0.00000E+00
    0.27100E-07         0.36756E-20         0.00000E+00
    0.27017E-07         0.37253E-20         0.00000E+00
    0.26956E-07         0.37253E-20         0.00000E+00
    0.26919E-07         0.23283E-19         0.00000E+00
    0.26905E-07        -0.27940E-19         0.00000E+00
    0.26914E-07         0.11176E-19         0.00000E+00
    0.26946E-07        -0.89196E-20         0.00000E+00
    0.27001E-07        -0.46566E-20         0.00000E+00
    0.27078E-07        -0.24773E-19         0.00000E+00
    0.27177E-07        -0.27940E-20         0.00000E+00
    0.27298E-07         0.18626E-20         0.00000E+00
    0.27441E-07        -0.18626E-19         0.00000E+00
    0.27605E-07        -0.55879E-20         0.00000E+00
    0.27790E-07        -0.44613E-21         0.00000E+00
    0.27996E-07        -0.74506E-20         0.00000E+00
    0.28222E-07         0.00000E+00         0.00000E+00
    0.28467E-07         0.17695E-19         0.00000E+00
    0.28732E-07         0.93132E-20         0.00000E+00
    0.29015E-07         0.55879E-20         0.00000E+00
    0.29316E-07         0.21360E-19         0.00000E+00
    0.29634E-07         0.42841E-19         0.00000E+00
    0.29968E-07         0.40084E-19         0.00000E+00
    0.30319E-07         0.46566E-19         0.00000E+00
    0.30684E-07         0.37253E-20         0.00000E+00
    0.31063E-07         0.21737E-19         0.00000E+00
    0.31455E-07         0.35390E-19         0.00000E+00
    0.31859E-07         0.22352E-19         0.00000E+00
    0.32273E-07         0.57742E-19         0.00000E+00
    0.32696E-07         0.16764E-19         0.00000E+00
    0.33127E-07         0.27940E-19         0.00000E+00
    0.33564E-07         0.16764E-19         0.00000E+00
    0.34006E-07         0.17913E-19         0.00000E+00
    0.34451E-07         0.23952E-19         0.00000E+00
    0.34896E-07         0.37253E-19         0.00000E+00
    0.35341E-07         0.49360E-19         0.00000E+00
    0.35781E-07         0.39925E-19         0.00000E+00
    0.36216E-07         0.16380E-19         0.00000E+00
    0.36643E-07         0.26149E-19         0.00000E+00
    0.37058E-07         0.20971E-19         0.00000E+00
    0.37458E-07         0.36396E-19         0.00000E+00
    0.37841E-07         0.18902E-19         0.00000E+00
    0.38203E-07         0.25870E-19         0.00000E+00
    0.38540E-07         0.15085E-19         0.00000E+00
    0.38848E-07         0.26439E-19         0.00000E+00
    0.39122E-07         0.20489E-19         0.00000E+00
    0.39359E-07         0.29802E-19         0.00000E+00
    0.39552E-07         0.12877E-19         0.00000E+00
    0.39697E-07         0.13039E-19         0.00000E+00
    0.39788E-07         0.74506E-20         0.00000E+00
    0.39820E-07        -0.18626E-20         0.00000E+00
    0.50106E-07         0.00000E+00         0.00000E+00
    0.50062E-07         0.33528E-19         0.00000E+00
    0.49935E-07         0.14901E-19         0.00000E+00
    0.49731E-07         0.47227E-19         0.00000E+00
    0.49459E-07         0.52154E-19         0.00000E+00
    0.49125E-07         0.44703E-19         0.00000E+00
    0.48736E-07         0.18218E-19         0.00000E+00
    0.48299E-07         0.67055E-19         0.00000E+00
    0.47818E-07        -0.37253E-20         0.00000E+00
    0.47301E-07        -0.37253E-20         0.00000E+00
    0.46751E-07         0.31665E-19         0.00000E+00
    0.46172E-07        -0.28330E-19         0.00000E+00
    0.45571E-07         0.29495E-19         0.00000E+00
    0.44950E-07        -0.93132E-20         0.00000E+00
    0.44313E-07         0.37253E-19         0.00000E+00
    0.43664E-07        -0.15034E-19         0.00000E+00
    0.43005E-07        -0.24214E-19         0.00000E+00
    0.42341E-07        -0.17517E-19         0.00000E+00
    0.41672E-07        -0.18626E-19         0.00000E+00
    0.41003E-07         0.16764E-19         0.00000E+00
    0.40335E-07         0.55879E-20         0.00000E+00
    0.39671E-07         0.15832E-19         0.00000E+00
    0.39012E-07        -0.46758E-20         0.00000E+00
    0.38360E-07        -0.13039E-19         0.00000E+00
    0.37717E-07        -0.34672E-20         0.00000E+00
    0.37085E-07        -0.24008E-20         0.00000E+00
    0.36464E-07         0.55879E-20         0.00000E+00
    0.35856E-07        -0.55879E-20         0.00000E+00
    0.35263E-07         0.74506E-20         0.00000E+00
    0.34685E-07         0.00000E+00         0.00000E+00
    0.34123E-07        -0.72419E-20         0.00000E+00
    0.33579E-07        -0.51348E-20         0.00000E+00
    0.33052E-07        -0.14901E-19         0.00000E+00
    0.32545E-07         0.37252E-19         0.00000E+00
    0.32056E-07         0.13271E-19         0.00000E+00
    0.31588E-07        -0.20489E-19         0.00000E+00
    0.31140E-07         0.55879E-20         0.00000E+00
    0.30713E-07        -0.18626E-20         0.00000E+00
    0.30308E-07         0.20489E-19         0.00000E+00
    0.29924E-07        -0.70351E-20         0.00000E+00
    0.29562E-07        -0.12332E-20         0.00000E+00
    0.29223E-07         0.20489E-19         0.00000E+00
    0.28906E-07        -0.17695E-19         0.00000E+00
    0.28613E-07         0.17370E-19         0.00000E+00
    0.28342E-07        -0.45299E-20         0.00000E+00
    0.28094E-07        -0.65193E-20         0.00000E+00
    0.27870E-07        -0.93036E-21         0.00000E+00
    0.27669E-07        -0.17496E-19         0.00000E+00
    0.27492E-07        -0.14901E-19         0.00000E+00
    0.27338E-07        -0.26077E-19         0.00000E+00
    0.27207E-07        -0.27940E-20         0.00000E+00
    0.27100E-07        -0.14852E-19         0.00000E+00
    0.27017E-07         0.00000E+00         0.00000E+00
    0.26956E-07        -0.46566E-20         0.00000E+00
    0.26919E-07        -0.80603E-20         0.00000E+00
    0.26905E-07        -0.27940E-19         0.00000E+00
    0.26914E-07         0.13970E-19         0.00000E+00
    0.26946E-07        -0.87755E-20         0.00000E+00
    0.27001E-07        -0.28882E-19         0.00000E+00
    0.27078E-07        -0.14901E-19         0.00000E+00
    0.27177E-07        -0.27183E-19         0.00000E+00
    0.27298E-07        -0.65193E-20         0.00000E+00
    0.27441E-07        -0.27940E-19         0.00000E+00
    0.27605E-07        -0.13039E-19         0.00000E+00
    0.27790E-07        -0.27494E-19         0.00000E+00
    0.27996E-07        -0.56796E-20         0.00000E+00
    0.28222E-07        -0.17695E-19         0.00000E+00
    0.28467E-07         0.70403E-21         0.00000E+00
    0.28732E-07         0.74506E-20         0.00000E+00
    0.29015E-07        -0.11176E-19         0.00000E+00
    0.29316E-07         0.11237E-19         0.00000E+00
    0.29634E-07         0.31665E-19         0.00000E+00
    0.29968E-07         0.25108E-19         0.00000E+00
    0.30319E-07         0.14901E-19         0.00000E+00
    0.30684E-07         0.20489E-19         0.00000E+00
    0.31063E-07         0.22352E-19         0.00000E+00
    0.31455E-07         0.31665E-19         0.00000E+00
    0.31859E-07         0.37253E-20         0.00000E+00
    0.32273E-07         0.39116E-19         0.00000E+00
    0.32696E-07         0.41910E-19         0.00000E+00
    0.33127E-07         0.83819E-20         0.00000E+00
    0.33564E-07         0.17695E-19         0.00000E+00
    0.34006E-07         0.18409E-19         0.00000E+00
    0.34451E-07         0.13301E-19         0.00000E+00
    0.34896E-07         0.44703E-19         0.00000E+00
    0.35341E-07         0.25456E-19         0.00000E+00
    0.35781E-07         0.28061E-19         0.00000E+00
    0.36216E-07         0.25913E-19         0.00000E+00
    0.36643E-07         0.13898E-19         0.00000E+00
    0.37058E-07         0.12589E-19         0.00000E+00
    0.37458E-07         0.48429E-19         0.00000E+00
    0.37841E-07         0.15229E-19         0.00000E+00
    0.38203E-07         0.23698E-19         0.00000E+00
    0.38540E-07         0.24962E-19         0.00000E+00
    0.38848E-07         0.59498E-20         0.00000E+00
    0.39122E-07         0.27940E-19         0.00000E+00
    0.39359E-07         0.11176E-19         0.00000E+00
    0.39552E-07        -0.77025E-21         0.00000E+00
    0.39697E-07         0.16764E-19         0.00000E+00
    0.39788E-07         0.14901E-19         0.00000E+00
    0.39820E-07         0.18378E-20         0.00000E+00
    0.50106E-07         0.00000E+00         0.00000E+00
    0.50062E-07         0.26077E-19         0.00000E+00
    0.49935E-07         0.14901E-19         0.00000E+00
    0.49731E-07         0.49630E-19         0.00000E+00
    0.49459E-07         0.63330E-19         0.00000E+00
    0.49125E-07         0.37253E-19         0.00000E+00
    0.48736E-07         0.33936E-19         0.00000E+00
    0.48299E-07         0.48429E-19         0.00000E+00
    0.47818E-07         0.11176E-19         0.00000E+00
    0.47301E-07        -0.13039E-19         0.00000E+00
    0.46751E-07         0.33528E-19         0.00000E+00
    0.46172E-07        -0.22526E-20         0.00000E+00
    0.45571E-07         0.86893E-20         0.00000E+00
    0.44950E-07         0.14449E-19         0.00000E+00
    0.44313E-07         0.24214E-19         0.00000E+00
    0.43664E-07        -0.37253E-19         0.00000E+00
    0.43005E-07        -0.37253E-20         0.00000E+00
    0.42341E-07        -0.21420E-19         0.00000E+00
    0.41672E-07        -0.55879E-20         0.00000E+00
    0.41003E-07         0.11176E-19         0.00000E+00
    0.40335E-07         0.18626E-19         0.00000E+00
    0.39671E-07         0.52654E-20         0.00000E+00
    0.39012E-07        -0.46758E-20         0.00000E+00
    0.38360E-07        -0.57085E-20         0.00000E+00
    0.37717E-07        -0.19816E-19         0.00000E+00
    0.37085E-07        -0.93132E-20         0.00000E+00
    0.36464E-07        -0.16643E-19         0.00000E+00
    0.35856E-07         0.00000E+00         0.00000E+00
    0.35263E-07         0.55879E-20         0.00000E+00
    0.34685E-07         0.18626E-20         0.00000E+00
    0.34123E-07        -0.24214E-19         0.00000E+00
    0.33579E-07         0.97664E-20         0.00000E+00
    0.33052E-07        -0.35390E-19         0.00000E+00
    0.32545E-07         0.52154E-19         0.00000E+00
    0.32056E-07         0.46566E-20         0.00000E+00
    0.31588E-07        -0.74506E-20         0.00000E+00
    0.31140E-07         0.55879E-20         0.00000E+00
    0.30713E-07        -0.13039E-19         0.00000E+00
    0.30308E-07         0.37253E-20         0.00000E+00
    0.29924E-07        -0.11591E-19         0.00000E+00
    0.29562E-07        -0.35390E-19         0.00000E+00
    0.29223E-07         0.55879E-20         0.00000E+00
    0.28906E-07        -0.22233E-19         0.00000E+00
    0.28613E-07        -0.21445E-20         0.00000E+00
    0.28342E-07        -0.83819E-20         0.00000E+00
    0.28094E-07        -0.33328E-19         0.00000E+00
    0.27870E-07        -0.18626E-19         0.00000E+00
    0.27669E-07        -0.26077E-19         0.00000E+00
    0.27492E-07        -0.26077E-19         0.00000E+00
    0.27338E-07        -0.31665E-19         0.00000E+00
    0.27207E-07        -0.75947E-20         0.00000E+00
    0.27100E-07        -0.22401E-19         0.00000E+00
    0.27017E-07        -0.93132E-20         0.00000E+00
    0.26956E-07        -0.15894E-19         0.00000E+00
    0.26919E-07        -0.40047E-19         0.00000E+00
    0.26905E-07        -0.24214E-19         0.00000E+00
    0.26914E-07        -0.18471E-19         0.00000E+00
    0.26946E-07        -0.37253E-19         0.00000E+00
    0.27001E-07        -0.26077E-19         0.00000E+00
    0.27078E-07        -0.14901E-19         0.00000E+00
    0.27177E-07        -0.39116E-19         0.00000E+00
    0.27298E-07        -0.10965E-19         0.00000E+00
    0.27441E-07        -0.42841E-19         0.00000E+00
    0.27605E-07        -0.33528E-19         0.00000E+00
    0.27790E-07        -0.39562E-19         0.00000E+00
    0.27996E-07        -0.14810E-19         0.00000E+00
    0.28222E-07        -0.31360E-19         0.00000E+00
    0.28467E-07        -0.27940E-20         0.00000E+00
    0.28732E-07         0.93132E-21         0.00000E+00
    0.29015E-07        -0.20489E-19         0.00000E+00
    0.29316E-07         0.18626E-20         0.00000E+00
    0.29634E-07         0.31665E-19         0.00000E+00
    0.29968E-07         0.27940E-19         0.00000E+00
    0.30319E-07         0.11176E-19         0.00000E+00
    0.30684E-07         0.26077E-19         0.00000E+00
    0.31063E-07         0.18626E-19         0.00000E+00
    0.31455E-07         0.24214E-19         0.00000E+00
    0.31859E-07         0.93132E-20         0.00000E+00
    0.32273E-07         0.74506E-20         0.00000E+00
    0.32696E-07         0.45393E-19         0.00000E+00
    0.33127E-07        -0.67469E-20         0.00000E+00
    0.33564E-07         0.44944E-19         0.00000E+00
    0.34006E-07         0.58053E-20         0.00000E+00
    0.34451E-07         0.17432E-19         0.00000E+00
    0.34896E-07         0.12856E-19         0.00000E+00
    0.35341E-07         0.21420E-19         0.00000E+00
    0.35781E-07         0.20246E-19         0.00000E+00
    0.36216E-07         0.27556E-19         0.00000E+00
    0.36643E-07         0.15832E-19         0.00000E+00
    0.37058E-07         0.18626E-19         0.00000E+00
    0.37458E-07         0.31591E-19         0.00000E+00
    0.37841E-07         0.38788E-19         0.00000E+00
    0.38203E-07         0.24214E-19         0.00000E+00
    0.38540E-07         0.26077E-19         0.00000E+00
    0.38848E-07         0.18626E-20         0.00000E+00
    0.39122E-07         0.27940E-19         0.00000E+00
    0.39359E-07         0.74506E-20         0.00000E+00
    0.39552E-07         0.00000E+00         0.00000E+00
    0.39697E-07         0.22352E-19         0.00000E+00
    0.39788E-07         0.74506E-20         0.00000E+00
    0.39820E-07         0.24885E-22         0.00000E+00
    0.50106E-07         0.00000E+00         0.00000E+00
    0.50062E-07        -0.37253E-20         0.00000E+00
    0.49935E-07         0.40978E-19         0.00000E+00
    0.49731E-07         0.37253E-19         0.00000E+00
    0.49459E-07         0.55879E-19         0.00000E+00
    0.49125E-07         0.29802E-19         0.00000E+00
    0.48736E-07         0.35390E-19         0.00000E+00
    0.48299E-07         0.50291E-19         0.00000E+00
    0.47818E-07         0.37253E-19         0.00000E+00
    0.47301E-07         0.18626E-19         0.00000E+00
    0.46751E-07        -0.18626E-20         0.00000E+00
    0.46172E-07         0.12887E-19         0.00000E+00
    0.45571E-07         0.27940E-20         0.00000E+00
    0.44950E-07         0.33979E-19         0.00000E+00
    0.44313E-07         0.00000E+00         0.00000E+00
    0.43664E-07        -0.14901E-19         0.00000E+00
    0.43005E-07         0.37253E-20         0.00000E+00
    0.42341E-07        -0.57658E-20         0.00000E+00
    0.41672E-07        -0.37253E-20         0.00000E+00
    0.41003E-07         0.37253E-20         0.00000E+00
    0.40335E-07         0.37253E-20         0.00000E+00
    0.39671E-07         0.21743E-19         0.00000E+00
    0.39012E-07         0.15871E-19         0.00000E+00
    0.38360E-07         0.18626E-20         0.00000E+00
    0.37717E-07        -0.15832E-19         0.00000E+00
    0.37085E-07        -0.93132E-20         0.00000E+00
    0.36464E-07        -0.31786E-19         0.00000E+00
    0.35856E-07         0.55879E-20         0.00000E+00
    0.35263E-07         0.74506E-20         0.00000E+00
    0.34685E-07        -0.24175E-19         0.00000E+00
    0.34123E-07        -0.11176E-19         0.00000E+00
    0.33579E-07         0.21899E-19         0.00000E+00
    0.33052E-07        -0.18626E-20         0.00000E+00
    0.32545E-07         0.93142E-20         0.00000E+00
    0.32056E-07         0.26776E-19         0.00000E+00
    0.31588E-07        -0.37253E-20         0.00000E+00
    0.31140E-07         0.18626E-20         0.00000E+00
    0.30713E-07        -0.11176E-19         0.00000E+00
    0.30308E-07        -0.37253E-20         0.00000E+00
    0.29924E-07        -0.55879E-20         0.00000E+00
    0.29562E-07        -0.34459E-19         0.00000E+00
    0.29223E-07        -0.16764E-19         0.00000E+00
    0.28906E-07        -0.47749E-20         0.00000E+00
    0.28613E-07        -0.23001E-19         0.00000E+00
    0.28342E-07        -0.23917E-20         0.00000E+00
    0.28094E-07        -0.29071E-19         0.00000E+00
    0.27870E-07        -0.22352E-19         0.00000E+00
    0.27669E-07        -0.31665E-19         0.00000E+00
    0.27492E-07        -0.74506E-20         0.00000E+00
    0.27338E-07        -0.20489E-19         0.00000E+00
    0.27207E-07        -0.11963E-19         0.00000E+00
    0.27100E-07        -0.74506E-20         0.00000E+00
    0.27017E-07        -0.13039E-19         0.00000E+00
    0.26956E-07        -0.19558E-19         0.00000E+00
    0.26919E-07        -0.38506E-19         0.00000E+00
    0.26905E-07        -0.16764E-19         0.00000E+00
    0.26914E-07        -0.29026E-19         0.00000E+00
    0.26946E-07        -0.44310E-19         0.00000E+00
    0.27001E-07        -0.10245E-19         0.00000E+00
    0.27078E-07        -0.32596E-19         0.00000E+00
    0.27177E-07        -0.31665E-19         0.00000E+00
    0.27298E-07        -0.34669E-19         0.00000E+00
    0.27441E-07        -0.44703E-19         0.00000E+00
    0.27605E-07        -0.39116E-19         0.00000E+00
    0.27790E-07        -0.16764E-19         0.00000E+00
    0.27996E-07        -0.27940E-19         0.00000E+00
    0.28222E-07        -0.29176E-19         0.00000E+00
    0.28467E-07         0.39526E-20         0.00000E+00
    0.28732E-07        -0.24390E-19         0.00000E+00
    0.29015E-07        -0.74506E-20         0.00000E+00
    0.29316E-07         0.74506E-20         0.00000E+00
    0.29634E-07         0.37253E-20         0.00000E+00
    0.29968E-07         0.39116E-19         0.00000E+00
    0.30319E-07         0.16764E-19         0.00000E+00
    0.30684E-07         0.11176E-19         0.00000E+00
    0.31063E-07         0.74506E-20         0.00000E+00
    0.31455E-07         0.22352E-19         0.00000E+00
    0.31859E-07        -0.18626E-20         0.00000E+00
    0.32273E-07         0.74506E-20         0.00000E+00
    0.32696E-07         0.29802E-19         0.00000E+00
    0.33127E-07        -0.10948E-19         0.00000E+00
    0.33564E-07         0.23043E-19         0.00000E+00
    0.34006E-07         0.93132E-20         0.00000E+00
    0.34451E-07         0.31665E-19         0.00000E+00
    0.34896E-07        -0.70862E-20         0.00000E+00
    0.35341E-07         0.28560E-19         0.00000E+00
    0.35781E-07         0.76940E-20         0.00000E+00
    0.36216E-07         0.18243E-19         0.00000E+00
    0.36643E-07         0.23319E-19         0.00000E+00
    0.37058E-07         0.27940E-19         0.00000E+00
    0.37458E-07         0.11250E-19         0.00000E+00
    0.37841E-07         0.18626E-19         0.00000E+00
    0.38203E-07         0.38184E-19         0.00000E+00
    0.38540E-07         0.15832E-19         0.00000E+00
    0.38848E-07         0.27940E-19         0.00000E+00
    0.39122E-07         0.13039E-19         0.00000E+00
    0.39359E-07         0.20489E-19         0.00000E+00
    0.39552E-07         0.93132E-20         0.00000E+00
    0.39697E-07         0.22352E-19         0.00000E+00
    0.39788E-07         0.74506E-20         0.00000E+00
    0.39820E-07         0.00000E+00         0.00000E+00
    0.50106E-07         0.00000E+00         0.00000E+00
    0.50062E-07        -0.74506E-20         0.00000E+00
    0.49935E-07         0.59605E-19         0.00000E+00
    0.49731E-07         0.40317E-19         0.00000E+00
    0.49459E-07         0.18626E-19         0.00000E+00
    0.49125E-07         0.52154E-19         0.00000E+00
    0.48736E-07         0.26485E-19         0.00000E+00
    0.48299E-07         0.55879E-20         0.00000E+00
    0.47818E-07         0.70781E-19         0.00000E+00
    0.47301E-07         0.24214E-19         0.00000E+00
    0.46751E-07        -0.18626E-20         0.00000E+00
    0.46172E-07         0.42667E-20         0.00000E+00
    0.45571E-07         0.21728E-19         0.00000E+00
    0.44950E-07         0.14901E-19         0.00000E+00
    0.44313E-07         0.74506E-20         0.00000E+00
    0.43664E-07         0.24347E-19         0.00000E+00
    0.43005E-07        -0.74506E-20         0.00000E+00
    0.42341E-07         0.18804E-19         0.00000E+00
    0.41672E-07        -0.13039E-19         0.00000E+00
    0.41003E-07        -0.37253E-20         0.00000E+00
    0.40335E-07         0.18626E-20         0.00000E+00
    0.39671E-07         0.33528E-19         0.00000E+00
    0.39012E-07         0.16745E-19         0.00000E+00
    0.38360E-07        -0.12061E-21         0.00000E+00
    0.37717E-07        -0.25404E-19         0.00000E+00
    0.37085E-07        -0.83819E-20         0.00000E+00
    0.36464E-07        -0.13039E-19         0.00000E+00
    0.35856E-07         0.18626E-19         0.00000E+00
    0.35263E-07         0.93132E-20         0.00000E+00
    0.34685E-07        -0.18626E-19         0.00000E+00
    0.34123E-07        -0.20873E-21         0.00000E+00
    0.33579E-07         0.20489E-19         0.00000E+00
    0.33052E-07         0.22352E-19         0.00000E+00
    0.32545E-07         0.13039E-19         0.00000E+00
    0.32056E-07         0.41210E-19         0.00000E+00
    0.31588E-07         0.55879E-20         0.00000E+00
    0.31140E-07         0.18626E-20         0.00000E+00
    0.30713E-07         0.11176E-19         0.00000E+00
    0.30308E-07        -0.26077E-19         0.00000E+00
    0.29924E-07         0.74506E-20         0.00000E+00
    0.29562E-07        -0.24921E-20         0.00000E+00
    0.29223E-07        -0.27940E-19         0.00000E+00
    0.28906E-07         0.38435E-20         0.00000E+00
    0.28613E-07        -0.11176E-19         0.00000E+00
    0.28342E-07        -0.16764E-19         0.00000E+00
    0.28094E-07        -0.18626E-19         0.00000E+00
    0.27870E-07        -0.13039E-19         0.00000E+00
    0.27669E-07        -0.24214E-19         0.00000E+00
    0.27492E-07        -0.20886E-19         0.00000E+00
    0.27338E-07        -0.14901E-19         0.00000E+00
    0.27207E-07        -0.17695E-19         0.00000E+00
    0.27100E-07         0.93132E-20         0.00000E+00
    0.27017E-07        -0.27940E-19         0.00000E+00
    0.26956E-07        -0.27322E-20         0.00000E+00
    0.26919E-07        -0.31665E-19         0.00000E+00
    0.26905E-07        -0.22352E-19         0.00000E+00
    0.26914E-07        -0.27940E-19         0.00000E+00
    0.26946E-07        -0.26077E-19         0.00000E+00
    0.27001E-07        -0.12096E-19         0.00000E+00
    0.27078E-07        -0.49732E-19         0.00000E+00
    0.27177E-07        -0.36322E-19         0.00000E+00
    0.27298E-07        -0.55879E-19         0.00000E+00
    0.27441E-07        -0.33528E-19         0.00000E+00
    0.27605E-07        -0.42841E-19         0.00000E+00
    0.27790E-07        -0.20489E-19         0.00000E+00
    0.27996E-07        -0.27940E-19         0.00000E+00
    0.28222E-07        -0.93132E-20         0.00000E+00
    0.28467E-07        -0.29098E-19         0.00000E+00
    0.28732E-07        -0.25902E-19         0.00000E+00
    0.29015E-07        -0.14901E-19         0.00000E+00
    0.29316E-07         0.55879E-20         0.00000E+00
    0.29634E-07        -0.11176E-19         0.00000E+00
    0.29968E-07         0.16764E-19         0.00000E+00
    0.30319E-07         0.16764E-19         0.00000E+00
    0.30684E-07         0.74506E-20         0.00000E+00
    0.31063E-07         0.16764E-19         0.00000E+00
    0.31455E-07         0.11176E-19         0.00000E+00
    0.31859E-07        -0.37253E-20         0.00000E+00
    0.32273E-07        -0.18626E-20         0.00000E+00
    0.32696E-07         0.00000E+00         0.00000E+00
    0.33127E-07         0.93132E-20         0.00000E+00
    0.33564E-07         0.74506E-20         0.00000E+00
    0.34006E-07         0.55879E-20         0.00000E+00
    0.34451E-07         0.20489E-19         0.00000E+00
    0.34896E-07         0.81997E-20         0.00000E+00
    0.35341E-07         0.24525E-19         0.00000E+00
    0.35781E-07         0.74506E-20         0.00000E+00
    0.36216E-07         0.35390E-19         0.00000E+00
    0.36643E-07         0.13039E-19         0.00000E+00
    0.37058E-07         0.30702E-19         0.00000E+00
    0.37458E-07         0.74506E-20         0.00000E+00
    0.37841E-07         0.40530E-20         0.00000E+00
    0.38203E-07         0.49153E-19         0.00000E+00
    0.38540E-07         0.23467E-19         0.00000E+00
    0.38848E-07         0.31665E-19         0.00000E+00
    0.39122E-07         0.11176E-19         0.00000E+00
    0.39359E-07         0.19023E-19         0.00000E+00
    0.39552E-07         0.13039E-19         0.00000E+00
    0.39697E-07        -0.74506E-20         0.00000E+00
    0.39788E-07         0.22352E-19         0.00000E+00
    0.39820E-07         0.00000E+00         0.00000E+00
    0.50106E-07         0.00000E+00         0.00000E+00
    0.50062E-07        -0.18626E-19         0.00000E+00
    0.49935E-07         0.37253E-19         0.00000E+00
    0.49731E-07         0.48429E-19         0.00000E+00
    0.49459E-07         0.18626E-19         0.00000E+00
    0.49125E-07         0.52154E-19         0.00000E+00
    0.48736E-07         0.22352E-19         0.00000E+00
    0.48299E-07        -0.13039E-19         0.00000E+00
    0.47818E-07         0.35390E-19         0.00000E+00
    0.47301E-07         0.22352E-19         0.00000E+00
    0.46751E-07         0.24214E-19         0.00000E+00
    0.46172E-07         0.27940E-20         0.00000E+00
    0.45571E-07         0.27940E-20         0.00000E+00
    0.44950E-07         0.26077E-19         0.00000E+00
    0.44313E-07        -0.16764E-19         0.00000E+00
    0.43664E-07         0.37253E-20         0.00000E+00
    0.43005E-07         0.13039E-19         0.00000E+00
    0.42341E-07         0.25899E-19         0.00000E+00
    0.41672E-07         0.20489E-19         0.00000E+00
    0.41003E-07        -0.22352E-19         0.00000E+00
    0.40335E-07        -0.37253E-20         0.00000E+00
    0.39671E-07         0.27940E-19         0.00000E+00
    0.39012E-07        -0.37253E-20         0.00000E+00
    0.38360E-07        -0.74506E-20         0.00000E+00
    0.37717E-07        -0.34459E-19         0.00000E+00
    0.37085E-07        -0.16226E-19         0.00000E+00
    0.36464E-07        -0.93132E-20         0.00000E+00
    0.35856E-07         0.24214E-19         0.00000E+00
    0.35263E-07         0.00000E+00         0.00000E+00
    0.34685E-07         0.55879E-20         0.00000E+00
    0.34123E-07        -0.14901E-19         0.00000E+00
    0.33579E-07         0.32721E-20         0.00000E+00
    0.33052E-07         0.14901E-19         0.00000E+00
    0.32545E-07         0.14901E-19         0.00000E+00
    0.32056E-07         0.24914E-19         0.00000E+00
    0.31588E-07         0.14901E-19         0.00000E+00
    0.31140E-07         0.93132E-20         0.00000E+00
    0.30713E-07         0.74506E-20         0.00000E+00
    0.30308E-07        -0.20489E-19         0.00000E+00
    0.29924E-07        -0.14901E-19         0.00000E+00
    0.29562E-07         0.27940E-20         0.00000E+00
    0.29223E-07        -0.22352E-19         0.00000E+00
    0.28906E-07        -0.74506E-20         0.00000E+00
    0.28613E-07        -0.74506E-20         0.00000E+00
    0.28342E-07        -0.32596E-19         0.00000E+00
    0.28094E-07        -0.21420E-19         0.00000E+00
    0.27870E-07        -0.18626E-19         0.00000E+00
    0.27669E-07        -0.31665E-19         0.00000E+00
    0.27492E-07        -0.35390E-19         0.00000E+00
    0.27338E-07        -0.93132E-20         0.00000E+00
    0.27207E-07        -0.91691E-20         0.00000E+00
    0.27100E-07         0.00000E+00         0.00000E+00
    0.27017E-07        -0.20489E-19         0.00000E+00
    0.26956E-07        -0.18626E-20         0.00000E+00
    0.26919E-07        -0.33528E-19         0.00000E+00
    0.26905E-07        -0.27940E-19         0.00000E+00
    0.26914E-07        -0.42841E-19         0.00000E+00
    0.26946E-07        -0.55879E-20         0.00000E+00
    0.27001E-07        -0.13039E-19         0.00000E+00
    0.27078E-07        -0.44703E-19         0.00000E+00
    0.27177E-07        -0.43597E-19         0.00000E+00
    0.27298E-07        -0.59605E-19         0.00000E+00
    0.27441E-07        -0.30400E-19         0.00000E+00
    0.27605E-07        -0.31665E-19         0.00000E+00
    0.27790E-07        -0.13039E-19         0.00000E+00
    0.27996E-07        -0.28871E-19         0.00000E+00
    0.28222E-07         0.18626E-19         0.00000E+00
    0.28467E-07        -0.44703E-19         0.00000E+00
    0.28732E-07        -0.16939E-19         0.00000E+00
    0.29015E-07        -0.55879E-20         0.00000E+00
    0.29316E-07        -0.55879E-20         0.00000E+00
    0.29634E-07        -0.18626E-20         0.00000E+00
    0.29968E-07        -0.18626E-20         0.00000E+00
    0.30319E-07         0.00000E+00         0.00000E+00
    0.30684E-07         0.55879E-20         0.00000E+00
    0.31063E-07         0.18626E-19         0.00000E+00
    0.31455E-07         0.11176E-19         0.00000E+00
    0.31859E-07         0.93132E-20         0.00000E+00
    0.32273E-07        -0.16764E-19         0.00000E+00
    0.32696E-07        -0.13039E-19         0.00000E+00
    0.33127E-07         0.27940E-19         0.00000E+00
    0.33564E-07         0.18626E-20         0.00000E+00
    0.34006E-07         0.16764E-19         0.00000E+00
    0.34451E-07         0.20489E-19         0.00000E+00
    0.34896E-07         0.85641E-20         0.00000E+00
    0.35341E-07         0.14901E-19         0.00000E+00
    0.35781E-07         0.10245E-19         0.00000E+00
    0.36216E-07         0.33911E-19         0.00000E+00
    0.36643E-07         0.10245E-19         0.00000E+00
    0.37058E-07         0.22833E-19         0.00000E+00
    0.37458E-07         0.19558E-19         0.00000E+00
    0.37841E-07         0.18626E-19         0.00000E+00
    0.38203E-07         0.35390E-19         0.00000E+00
    0.38540E-07         0.10245E-19         0.00000E+00
    0.38848E-07         0.29802E-19         0.00000E+00
    0.39122E-07         0.31684E-19         0.00000E+00
    0.39359E-07         0.23283E-19         0.00000E+00
    0.39552E-07         0.55879E-20         0.00000E+00
    0.39697E-07        -0.16764E-19         0.00000E+00
    0.39788E-07         0.16764E-19         0.00000E+00
    0.39820E-07         0.00000E+00         0.00000E+00
    0.50106E-07         0.00000E+00         0.00000E+00
    0.50062E-07        -0.18626E-19         0.00000E+00
    0.49935E-07         0.27940E-19         0.00000E+00
    0.49731E-07         0.19288E-19         0.00000E+00
    0.49459E-07         0.55879E-19         0.00000E+00
    0.49125E-07         0.33528E-19         0.00000E+00
    0.48736E-07         0.29394E-19         0.00000E+00
    0.48299E-07         0.40978E-19         0.00000E+00
    0.47818E-07        -0.10245E-19         0.00000E+00
    0.47301E-07         0.42841E-19         0.00000E+00
    0.46751E-07         0.11176E-19         0.00000E+00
    0.46172E-07         0.69092E-20         0.00000E+00
    0.45571E-07         0.20182E-19         0.00000E+00
    0.44950E-07         0.31665E-19         0.00000E+00
    0.44313E-07        -0.18626E-19         0.00000E+00
    0.43664E-07         0.18626E-20         0.00000E+00
    0.43005E-07         0.29802E-19         0.00000E+00
    0.42341E-07         0.29049E-19         0.00000E+00
    0.41672E-07         0.22352E-19         0.00000E+00
    0.41003E-07        -0.20489E-19         0.00000E+00
    0.40335E-07         0.00000E+00         0.00000E+00
    0.39671E-07        -0.16127E-21         0.00000E+00
    0.39012E-07         0.13058E-19         0.00000E+00
    0.38360E-07         0.12061E-21         0.00000E+00
    0.37717E-07        -0.10918E-19         0.00000E+00
    0.37085E-07        -0.14901E-19         0.00000E+00
    0.36464E-07        -0.37253E-20         0.00000E+00
    0.35856E-07         0.74506E-20         0.00000E+00
    0.35263E-07         0.00000E+00         0.00000E+00
    0.34685E-07         0.00000E+00         0.00000E+00
    0.34123E-07        -0.13039E-19         0.00000E+00
    0.33579E-07        -0.37253E-20         0.00000E+00
    0.33052E-07         0.10245E-19         0.00000E+00
    0.32545E-07        -0.74506E-20         0.00000E+00
    0.32056E-07         0.14202E-19         0.00000E+00
    0.31588E-07         0.22352E-19         0.00000E+00
    0.31140E-07         0.74506E-20         0.00000E+00
    0.30713E-07        -0.93132E-20         0.00000E+00
    0.30308E-07        -0.93132E-20         0.00000E+00
    0.29924E-07        -0.16764E-19         0.00000E+00
    0.29562E-07        -0.29173E-19         0.00000E+00
    0.29223E-07        -0.12107E-19         0.00000E+00
    0.28906E-07        -0.34459E-19         0.00000E+00
    0.28613E-07        -0.18302E-19         0.00000E+00
    0.28342E-07        -0.37782E-19         0.00000E+00
    0.28094E-07        -0.29602E-19         0.00000E+00
    0.27870E-07        -0.22352E-19         0.00000E+00
    0.27669E-07        -0.61667E-19         0.00000E+00
    0.27492E-07        -0.33131E-19         0.00000E+00
    0.27338E-07        -0.29802E-19         0.00000E+00
    0.27207E-07         0.54438E-20         0.00000E+00
    0.27100E-07        -0.20489E-19         0.00000E+00
    0.27017E-07        -0.20489E-19         0.00000E+00
    0.26956E-07        -0.37253E-19         0.00000E+00
    0.26919E-07        -0.33528E-19         0.00000E+00
    0.26905E-07        -0.33528E-19         0.00000E+00
    0.26914E-07        -0.46566E-19         0.00000E+00
    0.26946E-07        -0.18626E-19         0.00000E+00
    0.27001E-07        -0.14901E-19         0.00000E+00
    0.27078E-07        -0.52154E-19         0.00000E+00
    0.27177E-07        -0.44703E-19         0.00000E+00
    0.27298E-07        -0.53085E-19         0.00000E+00
    0.27441E-07        -0.30136E-19         0.00000E+00
    0.27605E-07        -0.16764E-19         0.00000E+00
    0.27790E-07        -0.74506E-20         0.00000E+00
    0.27996E-07        -0.28031E-19         0.00000E+00
    0.28222E-07         0.18626E-19         0.00000E+00
    0.28467E-07        -0.24214E-19         0.00000E+00
    0.28732E-07        -0.23108E-19         0.00000E+00
    0.29015E-07         0.46566E-20         0.00000E+00
    0.29316E-07         0.00000E+00         0.00000E+00
    0.29634E-07         0.37253E-20         0.00000E+00
    0.29968E-07        -0.37253E-20         0.00000E+00
    0.30319E-07        -0.93132E-21         0.00000E+00
    0.30684E-07         0.18626E-20         0.00000E+00
    0.31063E-07        -0.55879E-20         0.00000E+00
    0.31455E-07         0.93132E-20         0.00000E+00
    0.31859E-07        -0.18626E-20         0.00000E+00
    0.32273E-07        -0.18626E-20         0.00000E+00
    0.32696E-07        -0.18626E-19         0.00000E+00
    0.33127E-07         0.26077E-19         0.00000E+00
    0.33564E-07        -0.22352E-19         0.00000E+00
    0.34006E-07         0.35390E-19         0.00000E+00
    0.34451E-07         0.18626E-19         0.00000E+00
    0.34896E-07         0.14719E-19         0.00000E+00
    0.35341E-07        -0.40358E-20         0.00000E+00
    0.35781E-07         0.25024E-19         0.00000E+00
    0.36216E-07         0.24214E-19         0.00000E+00
    0.36643E-07         0.46927E-20         0.00000E+00
    0.37058E-07         0.13970E-19         0.00000E+00
    0.37458E-07         0.30660E-19         0.00000E+00
    0.37841E-07         0.83819E-20         0.00000E+00
    0.38203E-07         0.15832E-19         0.00000E+00
    0.38540E-07         0.22168E-19         0.00000E+00
    0.38848E-07         0.31303E-19         0.00000E+00
    0.39122E-07         0.29802E-19         0.00000E+00
    0.39359E-07         0.79852E-20         0.00000E+00
    0.39552E-07         0.14901E-19         0.00000E+00
    0.39697E-07        -0.55879E-20         0.00000E+00
    0.39788E-07         0.11176E-19         0.00000E+00
    0.39820E-07         0.00000E+00         0.00000E+00
    0.50106E-07         0.00000E+00         0.00000E+00
    0.50062E-07        -0.58963E-20         0.00000E+00
    0.49935E-07         0.21713E-19         0.00000E+00
    0.49731E-07         0.16103E-19         0.00000E+00
    0.49459E-07         0.60101E-19         0.00000E+00
    0.49125E-07         0.14901E-19         0.00000E+00
    0.48736E-07         0.50700E-19         0.00000E+00
    0.48299E-07         0.44703E-19         0.00000E+00
    0.47818E-07         0.64336E-21         0.00000E+00
    0.47301E-07         0.54017E-19         0.00000E+00
    0.46751E-07        -0.55879E-20         0.00000E+00
    0.46172E-07         0.38184E-19         0.00000E+00
    0.45571E-07         0.20796E-19         0.00000E+00
    0.44950E-07         0.55879E-20         0.00000E+00
    0.44313E-07         0.18626E-19         0.00000E+00
    0.43664E-07         0.33528E-19         0.00000E+00
    0.43005E-07         0.26053E-19         0.00000E+00
    0.42341E-07         0.74506E-20         0.00000E+00
    0.41672E-07         0.74506E-20         0.00000E+00
    0.41003E-07        -0.20489E-19         0.00000E+00
    0.40335E-07        -0.74506E-20         0.00000E+00
    0.39671E-07        -0.12877E-19         0.00000E+00
    0.39012E-07         0.45635E-19         0.00000E+00
    0.38360E-07        -0.10365E-19         0.00000E+00
    0.37717E-07         0.10918E-19         0.00000E+00
    0.37085E-07        -0.12107E-19         0.00000E+00
    0.36464E-07         0.13039E-19         0.00000E+00
    0.35856E-07        -0.29802E-19         0.00000E+00
    0.35263E-07         0.13039E-19         0.00000E+00
    0.34685E-07        -0.13039E-19         0.00000E+00
    0.34123E-07        -0.27940E-20         0.00000E+00
    0.33579E-07        -0.51348E-20         0.00000E+00
    0.33052E-07         0.95509E-20         0.00000E+00
    0.32545E-07        -0.83809E-20         0.00000E+00
    0.32056E-07         0.00000E+00         0.00000E+00
    0.31588E-07         0.22822E-19         0.00000E+00
    0.31140E-07        -0.13039E-19         0.00000E+00
    0.30713E-07        -0.26987E-19         0.00000E+00
    0.30308E-07        -0.13039E-19         0.00000E+00
    0.29924E-07         0.18626E-20         0.00000E+00
    0.29562E-07        -0.19256E-19         0.00000E+00
    0.29223E-07        -0.18536E-19         0.00000E+00
    0.28906E-07        -0.35509E-19         0.00000E+00
    0.28613E-07        -0.30127E-19         0.00000E+00
    0.28342E-07        -0.28871E-19         0.00000E+00
    0.28094E-07        -0.37984E-19         0.00000E+00
    0.27870E-07        -0.30734E-19         0.00000E+00
    0.27669E-07        -0.59605E-19         0.00000E+00
    0.27492E-07        -0.40443E-19         0.00000E+00
    0.27338E-07        -0.39116E-19         0.00000E+00
    0.27207E-07        -0.19414E-19         0.00000E+00
    0.27100E-07        -0.36371E-19         0.00000E+00
    0.27017E-07        -0.33528E-19         0.00000E+00
    0.26956E-07        -0.55879E-19         0.00000E+00
    0.26919E-07        -0.29802E-19         0.00000E+00
    0.26905E-07        -0.42841E-19         0.00000E+00
    0.26914E-07        -0.26077E-19         0.00000E+00
    0.26946E-07        -0.37253E-19         0.00000E+00
    0.27001E-07        -0.38184E-19         0.00000E+00
    0.27078E-07        -0.54948E-19         0.00000E+00
    0.27177E-07        -0.42841E-19         0.00000E+00
    0.27298E-07        -0.24425E-19         0.00000E+00
    0.27441E-07        -0.25743E-19         0.00000E+00
    0.27605E-07        -0.24214E-19         0.00000E+00
    0.27790E-07        -0.27940E-20         0.00000E+00
    0.27996E-07        -0.13878E-19         0.00000E+00
    0.28222E-07         0.99399E-20         0.00000E+00
    0.28467E-07        -0.32707E-20         0.00000E+00
    0.28732E-07        -0.14901E-19         0.00000E+00
    0.29015E-07         0.50061E-20         0.00000E+00
    0.29316E-07         0.11115E-19         0.00000E+00
    0.29634E-07         0.93132E-20         0.00000E+00
    0.29968E-07         0.37253E-20         0.00000E+00
    0.30319E-07         0.14766E-20         0.00000E+00
    0.30684E-07         0.38423E-20         0.00000E+00
    0.31063E-07        -0.18626E-19         0.00000E+00
    0.31455E-07        -0.74506E-20         0.00000E+00
    0.31859E-07        -0.74506E-20         0.00000E+00
    0.32273E-07         0.18626E-20         0.00000E+00
    0.32696E-07        -0.11176E-19         0.00000E+00
    0.33127E-07         0.11176E-19         0.00000E+00
    0.33564E-07         0.00000E+00         0.00000E+00
    0.34006E-07         0.26077E-19         0.00000E+00
    0.34451E-07         0.27940E-20         0.00000E+00
    0.34896E-07         0.28122E-19         0.00000E+00
    0.35341E-07         0.93132E-21         0.00000E+00
    0.35781E-07         0.16886E-19         0.00000E+00
    0.36216E-07         0.33528E-19         0.00000E+00
    0.36643E-07         0.22352E-19         0.00000E+00
    0.37058E-07         0.14420E-19         0.00000E+00
    0.37458E-07         0.23209E-19         0.00000E+00
    0.37841E-07         0.10572E-19         0.00000E+00
    0.38203E-07         0.11900E-19         0.00000E+00
    0.38540E-07         0.48612E-19         0.00000E+00
    0.38848E-07         0.27940E-19         0.00000E+00
    0.39122E-07         0.21420E-19         0.00000E+00
    0.39359E-07         0.16229E-19         0.00000E+00
    0.39552E-07         0.33528E-19         0.00000E+00
    0.39697E-07         0.55879E-20         0.00000E+00
    0.39788E-07        -0.74506E-20         0.00000E+00
    0.39820E-07         0.00000E+00         0.00000E+00
    0.50106E-07         0.00000E+00         0.00000E+00
    0.50062E-07        -0.12460E-20         0.00000E+00
    0.49935E-07         0.10591E-19         0.00000E+00
    0.49731E-07         0.58403E-19         0.00000E+00
    0.49459E-07         0.21360E-19         0.00000E+00
    0.49125E-07         0.33528E-19         0.00000E+00
    0.48736E-07         0.34982E-19         0.00000E+00
    0.48299E-07         0.46566E-19         0.00000E+00
    0.47818E-07         0.21996E-19         0.00000E+00
    0.47301E-07         0.42841E-19         0.00000E+00
    0.46751E-07         0.37253E-20         0.00000E+00
    0.46172E-07         0.56031E-19         0.00000E+00
    0.45571E-07         0.34179E-20         0.00000E+00
    0.44950E-07         0.55879E-20         0.00000E+00
    0.44313E-07         0.27940E-19         0.00000E+00
    0.43664E-07         0.18494E-19         0.00000E+00
    0.43005E-07         0.32644E-19         0.00000E+00
    0.42341E-07        -0.37253E-20         0.00000E+00
    0.41672E-07         0.18626E-19         0.00000E+00
    0.41003E-07        -0.33528E-19         0.00000E+00
    0.40335E-07        -0.27940E-19         0.00000E+00
    0.39671E-07         0.18626E-20         0.00000E+00
    0.39012E-07         0.33489E-19         0.00000E+00
    0.38360E-07        -0.16214E-20         0.00000E+00
    0.37717E-07         0.13297E-19         0.00000E+00
    0.37085E-07        -0.61261E-20         0.00000E+00
    0.36464E-07         0.27940E-19         0.00000E+00
    0.35856E-07        -0.37253E-19         0.00000E+00
    0.35263E-07         0.55879E-20         0.00000E+00
    0.34685E-07        -0.14901E-19         0.00000E+00
    0.34123E-07        -0.25852E-20         0.00000E+00
    0.33579E-07        -0.37253E-20         0.00000E+00
    0.33052E-07         0.15357E-19         0.00000E+00
    0.32545E-07        -0.93152E-20         0.00000E+00
    0.32056E-07         0.00000E+00         0.00000E+00
    0.31588E-07         0.12569E-19         0.00000E+00
    0.31140E-07        -0.10245E-19         0.00000E+00
    0.30713E-07        -0.18647E-19         0.00000E+00
    0.30308E-07        -0.13039E-19         0.00000E+00
    0.29924E-07        -0.74506E-20         0.00000E+00
    0.29562E-07        -0.13340E-19         0.00000E+00
    0.29223E-07        -0.43863E-19         0.00000E+00
    0.28906E-07        -0.30615E-19         0.00000E+00
    0.28613E-07        -0.38791E-19         0.00000E+00
    0.28342E-07        -0.42714E-19         0.00000E+00
    0.28094E-07        -0.46966E-19         0.00000E+00
    0.27870E-07        -0.48428E-19         0.00000E+00
    0.27669E-07        -0.43573E-19         0.00000E+00
    0.27492E-07        -0.41513E-19         0.00000E+00
    0.27338E-07        -0.22352E-19         0.00000E+00
    0.27207E-07        -0.41122E-19         0.00000E+00
    0.27100E-07        -0.39997E-19         0.00000E+00
    0.27017E-07        -0.26077E-19         0.00000E+00
    0.26956E-07        -0.29802E-19         0.00000E+00
    0.26919E-07        -0.20489E-19         0.00000E+00
    0.26905E-07        -0.35390E-19         0.00000E+00
    0.26914E-07        -0.22352E-19         0.00000E+00
    0.26946E-07        -0.93132E-20         0.00000E+00
    0.27001E-07        -0.46577E-19         0.00000E+00
    0.27078E-07        -0.21979E-19         0.00000E+00
    0.27177E-07        -0.29977E-19         0.00000E+00
    0.27298E-07        -0.25834E-20         0.00000E+00
    0.27441E-07        -0.26411E-19         0.00000E+00
    0.27605E-07        -0.92582E-20         0.00000E+00
    0.27790E-07        -0.79358E-20         0.00000E+00
    0.27996E-07         0.83966E-21         0.00000E+00
    0.28222E-07         0.89912E-20         0.00000E+00
    0.28467E-07         0.88586E-20         0.00000E+00
    0.28732E-07        -0.18626E-20         0.00000E+00
    0.29015E-07        -0.17113E-19         0.00000E+00
    0.29316E-07         0.11237E-19         0.00000E+00
    0.29634E-07         0.16764E-19         0.00000E+00
    0.29968E-07         0.93132E-20         0.00000E+00
    0.30319E-07        -0.33392E-20         0.00000E+00
    0.30684E-07         0.12922E-19         0.00000E+00
    0.31063E-07        -0.18626E-20         0.00000E+00
    0.31455E-07        -0.11176E-19         0.00000E+00
    0.31859E-07         0.11176E-19         0.00000E+00
    0.32273E-07        -0.74506E-20         0.00000E+00
    0.32696E-07         0.16764E-19         0.00000E+00
    0.33127E-07         0.00000E+00         0.00000E+00
    0.33564E-07         0.29802E-19         0.00000E+00
    0.34006E-07         0.20489E-19         0.00000E+00
    0.34451E-07         0.13301E-19         0.00000E+00
    0.34896E-07         0.16582E-19         0.00000E+00
    0.35341E-07         0.14280E-19         0.00000E+00
    0.35781E-07         0.18505E-19         0.00000E+00
    0.36216E-07         0.22352E-19         0.00000E+00
    0.36643E-07         0.39975E-19         0.00000E+00
    0.37058E-07         0.24246E-19         0.00000E+00
    0.37458E-07         0.13187E-19         0.00000E+00
    0.37841E-07         0.17040E-19         0.00000E+00
    0.38203E-07         0.87966E-20         0.00000E+00
    0.38540E-07         0.31481E-19         0.00000E+00
    0.38848E-07         0.17126E-19         0.00000E+00
    0.39122E-07         0.22332E-19         0.00000E+00
    0.39359E-07         0.37788E-19         0.00000E+00
    0.39552E-07         0.19558E-19         0.00000E+00
    0.39697E-07         0.13039E-19         0.00000E+00
    0.39788E-07        -0.22352E-19         0.00000E+00
    0.39820E-07         0.00000E+00         0.00000E+00
    0.50106E-07         0.00000E+00         0.00000E+00
    0.50062E-07         0.68339E-20         0.00000E+00
    0.49935E-07        -0.68658E-20         0.00000E+00
    0.49731E-07         0.34729E-19         0.00000E+00
    0.49459E-07        -0.27331E-20         0.00000E+00
    0.49125E-07         0.55879E-19         0.00000E+00
    0.48736E-07         0.39524E-19         0.00000E+00
    0.48299E-07         0.67055E-19         0.00000E+00
    0.47818E-07         0.87373E-20         0.00000E+00
    0.47301E-07         0.31292E-19         0.00000E+00
    0.46751E-07         0.27940E-19         0.00000E+00
    0.46172E-07         0.31513E-19         0.00000E+00
    0.45571E-07         0.13346E-19         0.00000E+00
    0.44950E-07         0.11176E-19         0.00000E+00
    0.44313E-07         0.13039E-19         0.00000E+00
    0.43664E-07         0.20621E-19         0.00000E+00
    0.43005E-07         0.10197E-19         0.00000E+00
    0.42341E-07        -0.27940E-20         0.00000E+00
    0.41672E-07         0.60185E-21         0.00000E+00
    0.41003E-07        -0.39116E-19         0.00000E+00
    0.40335E-07        -0.13039E-19         0.00000E+00
    0.39671E-07         0.11176E-19         0.00000E+00
    0.39012E-07         0.18665E-19         0.00000E+00
    0.38360E-07         0.62780E-20         0.00000E+00
    0.37717E-07        -0.39833E-20         0.00000E+00
    0.37085E-07         0.83819E-20         0.00000E+00
    0.36464E-07         0.55879E-20         0.00000E+00
    0.35856E-07         0.00000E+00         0.00000E+00
    0.35263E-07        -0.16764E-19         0.00000E+00
    0.34685E-07        -0.37253E-20         0.00000E+00
    0.34123E-07        -0.20873E-21         0.00000E+00
    0.33579E-07        -0.17217E-19         0.00000E+00
    0.33052E-07        -0.41813E-20         0.00000E+00
    0.32545E-07        -0.12105E-19         0.00000E+00
    0.32056E-07         0.29802E-19         0.00000E+00
    0.31588E-07         0.14901E-19         0.00000E+00
    0.31140E-07         0.58317E-20         0.00000E+00
    0.30713E-07        -0.17674E-19         0.00000E+00
    0.30308E-07        -0.13039E-19         0.00000E+00
    0.29924E-07        -0.27940E-19         0.00000E+00
    0.29562E-07        -0.31993E-19         0.00000E+00
    0.29223E-07        -0.42841E-19         0.00000E+00
    0.28906E-07        -0.40978E-19         0.00000E+00
    0.28613E-07        -0.39440E-19         0.00000E+00
    0.28342E-07        -0.54143E-19         0.00000E+00
    0.28094E-07        -0.55479E-19         0.00000E+00
    0.27870E-07        -0.70781E-19         0.00000E+00
    0.27669E-07        -0.38383E-19         0.00000E+00
    0.27492E-07        -0.61467E-19         0.00000E+00
    0.27338E-07        -0.24214E-19         0.00000E+00
    0.27207E-07        -0.40978E-19         0.00000E+00
    0.27100E-07        -0.31665E-19         0.00000E+00
    0.27017E-07        -0.18626E-19         0.00000E+00
    0.26956E-07        -0.93132E-20         0.00000E+00
    0.26919E-07        -0.26077E-19         0.00000E+00
    0.26905E-07        -0.27940E-19         0.00000E+00
    0.26914E-07        -0.31665E-19         0.00000E+00
    0.26946E-07        -0.55879E-20         0.00000E+00
    0.27001E-07        -0.28860E-19         0.00000E+00
    0.27078E-07        -0.87542E-20         0.00000E+00
    0.27177E-07        -0.16589E-19         0.00000E+00
    0.27298E-07        -0.37253E-20         0.00000E+00
    0.27441E-07        -0.13636E-19         0.00000E+00
    0.27605E-07         0.36702E-20         0.00000E+00
    0.27790E-07         0.37644E-20         0.00000E+00
    0.27996E-07         0.16947E-19         0.00000E+00
    0.28222E-07         0.24536E-19         0.00000E+00
    0.28467E-07         0.30213E-20         0.00000E+00
    0.28732E-07        -0.74506E-20         0.00000E+00
    0.29015E-07        -0.24444E-20         0.00000E+00
    0.29316E-07         0.00000E+00         0.00000E+00
    0.29634E-07         0.11176E-19         0.00000E+00
    0.29968E-07         0.46940E-20         0.00000E+00
    0.30319E-07        -0.38604E-21         0.00000E+00
    0.30684E-07         0.24331E-19         0.00000E+00
    0.31063E-07         0.74506E-20         0.00000E+00
    0.31455E-07         0.37253E-20         0.00000E+00
    0.31859E-07         0.13039E-19         0.00000E+00
    0.32273E-07        -0.74506E-20         0.00000E+00
    0.32696E-07         0.22352E-19         0.00000E+00
    0.33127E-07        -0.74506E-20         0.00000E+00
    0.33564E-07         0.37253E-19         0.00000E+00
    0.34006E-07         0.27940E-19         0.00000E+00
    0.34451E-07         0.19295E-19         0.00000E+00
    0.34896E-07         0.22534E-19         0.00000E+00
    0.35341E-07         0.90027E-20         0.00000E+00
    0.35781E-07         0.23405E-19         0.00000E+00
    0.36216E-07         0.89296E-20         0.00000E+00
    0.36643E-07         0.39188E-19         0.00000E+00
    0.37058E-07         0.32115E-19         0.00000E+00
    0.37458E-07         0.25929E-19         0.00000E+00
    0.37841E-07         0.26733E-19         0.00000E+00
    0.38203E-07         0.79672E-20         0.00000E+00
    0.38540E-07         0.17879E-19         0.00000E+00
    0.38848E-07         0.89514E-20         0.00000E+00
    0.39122E-07         0.33547E-19         0.00000E+00
    0.39359E-07         0.33528E-19         0.00000E+00
    0.39552E-07         0.20328E-19         0.00000E+00
    0.39697E-07         0.18626E-19         0.00000E+00
    0.39788E-07        -0.16764E-19         0.00000E+00
    0.39820E-07         0.00000E+00         0.00000E+00
    0.50106E-07         0.00000E+00         0.00000E+00
    0.50062E-07         0.30833E-21         0.00000E+00
    0.49935E-07         0.25016E-20         0.00000E+00
    0.49731E-07         0.17425E-19         0.00000E+00
    0.49459E-07         0.32292E-20         0.00000E+00
    0.49125E-07         0.52154E-19         0.00000E+00
    0.48736E-07         0.46158E-19         0.00000E+00
    0.48299E-07         0.48429E-19         0.00000E+00
    0.47818E-07         0.19846E-19         0.00000E+00
    0.47301E-07         0.96866E-20         0.00000E+00
    0.46751E-07         0.31665E-19         0.00000E+00
    0.46172E-07         0.26618E-19         0.00000E+00
    0.45571E-07        -0.30738E-21         0.00000E+00
    0.44950E-07        -0.55879E-20         0.00000E+00
    0.44313E-07         0.74506E-20         0.00000E+00
    0.43664E-07         0.29802E-19         0.00000E+00
    0.43005E-07         0.18865E-20         0.00000E+00
    0.42341E-07         0.54101E-20         0.00000E+00
    0.41672E-07        -0.13640E-19         0.00000E+00
    0.41003E-07        -0.74506E-20         0.00000E+00
    0.40335E-07        -0.74506E-20         0.00000E+00
    0.39671E-07         0.13039E-19         0.00000E+00
    0.39012E-07         0.21401E-19         0.00000E+00
    0.38360E-07         0.75712E-20         0.00000E+00
    0.37717E-07        -0.14643E-19         0.00000E+00
    0.37085E-07         0.98514E-20         0.00000E+00
    0.36464E-07         0.00000E+00         0.00000E+00
    0.35856E-07         0.55879E-20         0.00000E+00
    0.35263E-07        -0.55879E-20         0.00000E+00
    0.34685E-07        -0.18626E-20         0.00000E+00
    0.34123E-07        -0.37253E-20         0.00000E+00
    0.33579E-07        -0.55879E-20         0.00000E+00
    0.33052E-07         0.44189E-20         0.00000E+00
    0.32545E-07         0.74496E-20         0.00000E+00
    0.32056E-07         0.38884E-19         0.00000E+00
    0.31588E-07         0.74506E-20         0.00000E+00
    0.31140E-07         0.62755E-20         0.00000E+00
    0.30713E-07        -0.11197E-19         0.00000E+00
    0.30308E-07        -0.18626E-20         0.00000E+00
    0.29924E-07        -0.26077E-19         0.00000E+00
    0.29562E-07        -0.45307E-19         0.00000E+00
    0.29223E-07        -0.26077E-19         0.00000E+00
    0.28906E-07        -0.31665E-19         0.00000E+00
    0.28613E-07        -0.36928E-19         0.00000E+00
    0.28342E-07        -0.44174E-19         0.00000E+00
    0.28094E-07        -0.47897E-19         0.00000E+00
    0.27870E-07        -0.65192E-19         0.00000E+00
    0.27669E-07        -0.29802E-19         0.00000E+00
    0.27492E-07        -0.74506E-19         0.00000E+00
    0.27338E-07        -0.22352E-19         0.00000E+00
    0.27207E-07        -0.41910E-19         0.00000E+00
    0.27100E-07        -0.27940E-19         0.00000E+00
    0.27017E-07        -0.22352E-19         0.00000E+00
    0.26956E-07        -0.14901E-19         0.00000E+00
    0.26919E-07        -0.48429E-19         0.00000E+00
    0.26905E-07        -0.40978E-19         0.00000E+00
    0.26914E-07        -0.63330E-19         0.00000E+00
    0.26946E-07        -0.48429E-19         0.00000E+00
    0.27001E-07        -0.29802E-19         0.00000E+00
    0.27078E-07        -0.27008E-19         0.00000E+00
    0.27177E-07        -0.18626E-19         0.00000E+00
    0.27298E-07        -0.93132E-20         0.00000E+00
    0.27441E-07        -0.13039E-19         0.00000E+00
    0.27605E-07        -0.74506E-20         0.00000E+00
    0.27790E-07         0.19073E-19         0.00000E+00
    0.27996E-07         0.64276E-20         0.00000E+00
    0.28222E-07         0.30986E-20         0.00000E+00
    0.28467E-07        -0.48839E-20         0.00000E+00
    0.28732E-07        -0.22352E-19         0.00000E+00
    0.29015E-07        -0.31435E-20         0.00000E+00
    0.29316E-07         0.37253E-20         0.00000E+00
    0.29634E-07        -0.14901E-19         0.00000E+00
    0.29968E-07         0.46192E-20         0.00000E+00
    0.30319E-07         0.69053E-20         0.00000E+00
    0.30684E-07         0.54710E-20         0.00000E+00
    0.31063E-07        -0.18626E-20         0.00000E+00
    0.31455E-07         0.16764E-19         0.00000E+00
    0.31859E-07         0.55879E-20         0.00000E+00
    0.32273E-07         0.13039E-19         0.00000E+00
    0.32696E-07         0.93132E-20         0.00000E+00
    0.33127E-07        -0.11176E-19         0.00000E+00
    0.33564E-07         0.16764E-19         0.00000E+00
    0.34006E-07         0.29802E-19         0.00000E+00
    0.34451E-07         0.55879E-20         0.00000E+00
    0.34896E-07         0.20489E-19         0.00000E+00
    0.35341E-07         0.37253E-20         0.00000E+00
    0.35781E-07         0.26887E-19         0.00000E+00
    0.36216E-07         0.78342E-20         0.00000E+00
    0.36643E-07         0.17659E-19         0.00000E+00
    0.37058E-07         0.31665E-19         0.00000E+00
    0.37458E-07         0.34607E-19         0.00000E+00
    0.37841E-07         0.28543E-19         0.00000E+00
    0.38203E-07         0.12522E-19         0.00000E+00
    0.38540E-07         0.19558E-19         0.00000E+00
    0.38848E-07         0.20489E-19         0.00000E+00
    0.39122E-07         0.33508E-19         0.00000E+00
    0.39359E-07         0.12107E-19         0.00000E+00
    0.39552E-07         0.17856E-19         0.00000E+00
    0.39697E-07         0.26077E-19         0.00000E+00
    0.39788E-07        -0.16764E-19         0.00000E+00
    0.39820E-07         0.00000E+00         0.00000E+00
    0.50106E-07         0.00000E+00         0.00000E+00
    0.50062E-07         0.18626E-19         0.00000E+00
    0.49935E-07         0.48429E-19         0.00000E+00
    0.49731E-07         0.17965E-19         0.00000E+00
    0.49459E-07         0.18626E-19         0.00000E+00
    0.49125E-07         0.63330E-19         0.00000E+00
    0.48736E-07         0.61876E-19         0.00000E+00
    0.48299E-07         0.18626E-20         0.00000E+00
    0.47818E-07         0.48429E-19         0.00000E+00
    0.47301E-07         0.27940E-19         0.00000E+00
    0.46751E-07         0.29802E-19         0.00000E+00
    0.46172E-07         0.14901E-19         0.00000E+00
    0.45571E-07        -0.43492E-20         0.00000E+00
    0.44950E-07        -0.18626E-19         0.00000E+00
    0.44313E-07         0.31665E-19         0.00000E+00
    0.43664E-07         0.18626E-19         0.00000E+00
    0.43005E-07         0.31665E-19         0.00000E+00
    0.42341E-07         0.14148E-19         0.00000E+00
    0.41672E-07         0.37253E-20         0.00000E+00
    0.41003E-07         0.27940E-19         0.00000E+00
    0.40335E-07        -0.18626E-20         0.00000E+00
    0.39671E-07         0.00000E+00         0.00000E+00
    0.39012E-07         0.55879E-20         0.00000E+00
    0.38360E-07         0.16884E-19         0.00000E+00
    0.37717E-07        -0.17953E-19         0.00000E+00
    0.37085E-07         0.21420E-19         0.00000E+00
    0.36464E-07         0.11176E-19         0.00000E+00
    0.35856E-07         0.16764E-19         0.00000E+00
    0.35263E-07         0.14901E-19         0.00000E+00
    0.34685E-07         0.55879E-20         0.00000E+00
    0.34123E-07         0.93132E-20         0.00000E+00
    0.33579E-07         0.13492E-19         0.00000E+00
    0.33052E-07         0.20489E-19         0.00000E+00
    0.32545E-07         0.16764E-19         0.00000E+00
    0.32056E-07         0.20721E-19         0.00000E+00
    0.31588E-07         0.13039E-19         0.00000E+00
    0.31140E-07        -0.18626E-20         0.00000E+00
    0.30713E-07         0.00000E+00         0.00000E+00
    0.30308E-07        -0.37253E-20         0.00000E+00
    0.29924E-07        -0.74506E-20         0.00000E+00
    0.29562E-07        -0.45635E-19         0.00000E+00
    0.29223E-07        -0.33528E-19         0.00000E+00
    0.28906E-07        -0.35390E-19         0.00000E+00
    0.28613E-07        -0.31665E-19         0.00000E+00
    0.28342E-07        -0.34459E-19         0.00000E+00
    0.28094E-07        -0.48229E-19         0.00000E+00
    0.27870E-07        -0.49361E-19         0.00000E+00
    0.27669E-07        -0.48230E-19         0.00000E+00
    0.27492E-07        -0.54413E-19         0.00000E+00
    0.27338E-07        -0.48429E-19         0.00000E+00
    0.27207E-07        -0.29658E-19         0.00000E+00
    0.27100E-07        -0.35390E-19         0.00000E+00
    0.27017E-07        -0.14901E-19         0.00000E+00
    0.26956E-07        -0.18626E-19         0.00000E+00
    0.26919E-07        -0.40978E-19         0.00000E+00
    0.26905E-07        -0.48429E-19         0.00000E+00
    0.26914E-07        -0.76368E-19         0.00000E+00
    0.26946E-07        -0.61467E-19         0.00000E+00
    0.27001E-07        -0.57742E-19         0.00000E+00
    0.27078E-07        -0.21979E-19         0.00000E+00
    0.27177E-07        -0.27940E-19         0.00000E+00
    0.27298E-07        -0.24214E-19         0.00000E+00
    0.27441E-07        -0.40591E-20         0.00000E+00
    0.27605E-07        -0.16764E-19         0.00000E+00
    0.27790E-07         0.55879E-20         0.00000E+00
    0.27996E-07         0.17710E-20         0.00000E+00
    0.28222E-07        -0.29802E-19         0.00000E+00
    0.28467E-07        -0.19558E-19         0.00000E+00
    0.28732E-07        -0.11176E-19         0.00000E+00
    0.29015E-07        -0.22352E-19         0.00000E+00
    0.29316E-07         0.93132E-20         0.00000E+00
    0.29634E-07        -0.18626E-19         0.00000E+00
    0.29968E-07        -0.18626E-20         0.00000E+00
    0.30319E-07         0.74506E-20         0.00000E+00
    0.30684E-07         0.11176E-19         0.00000E+00
    0.31063E-07         0.37253E-20         0.00000E+00
    0.31455E-07         0.13039E-19         0.00000E+00
    0.31859E-07         0.27940E-19         0.00000E+00
    0.32273E-07         0.18626E-19         0.00000E+00
    0.32696E-07         0.24214E-19         0.00000E+00
    0.33127E-07        -0.13039E-19         0.00000E+00
    0.33564E-07         0.13039E-19         0.00000E+00
    0.34006E-07         0.13039E-19         0.00000E+00
    0.34451E-07         0.74506E-20         0.00000E+00
    0.34896E-07         0.74506E-20         0.00000E+00
    0.35341E-07         0.15832E-19         0.00000E+00
    0.35781E-07         0.16764E-19         0.00000E+00
    0.36216E-07         0.20105E-19         0.00000E+00
    0.36643E-07         0.12107E-19         0.00000E+00
    0.37058E-07         0.34459E-19         0.00000E+00
    0.37458E-07         0.35316E-19         0.00000E+00
    0.37841E-07         0.23283E-19         0.00000E+00
    0.38203E-07         0.12624E-19         0.00000E+00
    0.38540E-07         0.21237E-19         0.00000E+00
    0.38848E-07         0.26439E-19         0.00000E+00
    0.39122E-07         0.21440E-19         0.00000E+00
    0.39359E-07         0.14367E-19         0.00000E+00
    0.39552E-07         0.13039E-19         0.00000E+00
    0.39697E-07         0.93132E-20         0.00000E+00
    0.39788E-07         0.00000E+00         0.00000E+00
    0.39820E-07         0.00000E+00         0.00000E+00
    0.50106E-07         0.00000E+00         0.00000E+00
    0.50062E-07         0.44703E-19         0.00000E+00
    0.49935E-07         0.33528E-19         0.00000E+00
    0.49731E-07         0.33528E-19         0.00000E+00
    0.49459E-07         0.22352E-19         0.00000E+00
    0.49125E-07         0.44703E-19         0.00000E+00
    0.48736E-07         0.68918E-19         0.00000E+00
    0.48299E-07         0.27940E-19         0.00000E+00
    0.47818E-07         0.44703E-19         0.00000E+00
    0.47301E-07         0.33528E-19         0.00000E+00
    0.46751E-07         0.26077E-19         0.00000E+00
    0.46172E-07         0.93132E-21         0.00000E+00
    0.45571E-07        -0.12107E-19         0.00000E+00
    0.44950E-07        -0.26077E-19         0.00000E+00
    0.44313E-07         0.18626E-19         0.00000E+00
    0.43664E-07         0.26077E-19         0.00000E+00
    0.43005E-07         0.27940E-19         0.00000E+00
    0.42341E-07         0.30734E-19         0.00000E+00
    0.41672E-07         0.55879E-20         0.00000E+00
    0.41003E-07         0.14901E-19         0.00000E+00
    0.40335E-07         0.93132E-20         0.00000E+00
    0.39671E-07        -0.13039E-19         0.00000E+00
    0.39012E-07        -0.65193E-20         0.00000E+00
    0.38360E-07         0.73300E-20         0.00000E+00
    0.37717E-07        -0.27940E-20         0.00000E+00
    0.37085E-07         0.38577E-19         0.00000E+00
    0.36464E-07         0.55879E-20         0.00000E+00
    0.35856E-07         0.16764E-19         0.00000E+00
    0.35263E-07         0.27940E-19         0.00000E+00
    0.34685E-07         0.33488E-19         0.00000E+00
    0.34123E-07         0.12107E-19         0.00000E+00
    0.33579E-07         0.16764E-19         0.00000E+00
    0.33052E-07         0.13039E-19         0.00000E+00
    0.32545E-07         0.27940E-19         0.00000E+00
    0.32056E-07        -0.37253E-20         0.00000E+00
    0.31588E-07         0.21420E-19         0.00000E+00
    0.31140E-07        -0.11176E-19         0.00000E+00
    0.30713E-07        -0.18626E-20         0.00000E+00
    0.30308E-07        -0.14901E-19         0.00000E+00
    0.29924E-07        -0.16764E-19         0.00000E+00
    0.29562E-07        -0.28569E-19         0.00000E+00
    0.29223E-07        -0.39116E-19         0.00000E+00
    0.28906E-07        -0.35390E-19         0.00000E+00
    0.28613E-07        -0.22352E-19         0.00000E+00
    0.28342E-07        -0.45106E-19         0.00000E+00
    0.28094E-07        -0.54748E-19         0.00000E+00
    0.27870E-07        -0.54016E-19         0.00000E+00
    0.27669E-07        -0.66124E-19         0.00000E+00
    0.27492E-07        -0.23818E-19         0.00000E+00
    0.27338E-07        -0.59605E-19         0.00000E+00
    0.27207E-07        -0.25290E-19         0.00000E+00
    0.27100E-07        -0.24214E-19         0.00000E+00
    0.27017E-07        -0.11176E-19         0.00000E+00
    0.26956E-07        -0.83819E-20         0.00000E+00
    0.26919E-07        -0.18626E-19         0.00000E+00
    0.26905E-07        -0.44703E-19         0.00000E+00
    0.26914E-07        -0.54017E-19         0.00000E+00
    0.26946E-07        -0.66518E-19         0.00000E+00
    0.27001E-07        -0.61467E-19         0.00000E+00
    0.27078E-07        -0.18999E-19         0.00000E+00
    0.27177E-07        -0.14901E-19         0.00000E+00
    0.27298E-07        -0.24214E-19         0.00000E+00
    0.27441E-07        -0.55879E-20         0.00000E+00
    0.27605E-07        -0.18626E-20         0.00000E+00
    0.27790E-07         0.74506E-20         0.00000E+00
    0.27996E-07         0.19543E-20         0.00000E+00
    0.28222E-07        -0.18626E-19         0.00000E+00
    0.28467E-07        -0.24918E-19         0.00000E+00
    0.28732E-07         0.15832E-19         0.00000E+00
    0.29015E-07        -0.27940E-20         0.00000E+00
    0.29316E-07        -0.18626E-20         0.00000E+00
    0.29634E-07        -0.13039E-19         0.00000E+00
    0.29968E-07         0.27940E-19         0.00000E+00
    0.30319E-07         0.93132E-20         0.00000E+00
    0.30684E-07         0.40978E-19         0.00000E+00
    0.31063E-07         0.18626E-19         0.00000E+00
    0.31455E-07         0.11176E-19         0.00000E+00
    0.31859E-07         0.27940E-19         0.00000E+00
    0.32273E-07         0.20489E-19         0.00000E+00
    0.32696E-07         0.18626E-19         0.00000E+00
    0.33127E-07         0.13039E-19         0.00000E+00
    0.33564E-07         0.14901E-19         0.00000E+00
    0.34006E-07        -0.11176E-19         0.00000E+00
    0.34451E-07         0.93132E-20         0.00000E+00
    0.34896E-07         0.11176E-19         0.00000E+00
    0.35341E-07         0.23594E-19         0.00000E+00
    0.35781E-07        -0.37253E-20         0.00000E+00
    0.36216E-07         0.31665E-19         0.00000E+00
    0.36643E-07         0.26041E-19         0.00000E+00
    0.37058E-07         0.25595E-19         0.00000E+00
    0.37458E-07         0.37179E-19         0.00000E+00
    0.37841E-07         0.15505E-19         0.00000E+00
    0.38203E-07         0.20696E-19         0.00000E+00
    0.38540E-07         0.27940E-19         0.00000E+00
    0.38848E-07         0.26077E-19         0.00000E+00
    0.39122E-07         0.18646E-19         0.00000E+00
    0.39359E-07         0.21955E-19         0.00000E+00
    0.39552E-07         0.18626E-19         0.00000E+00
    0.39697E-07         0.00000E+00         0.00000E+00
    0.39788E-07         0.55879E-20         0.00000E+00
    0.39820E-07         0.00000E+00         0.00000E+00
    0.50106E-07         0.00000E+00         0.00000E+00
    0.50062E-07         0.44703E-19         0.00000E+00
    0.49935E-07        -0.18626E-19         0.00000E+00
    0.49731E-07         0.45365E-19         0.00000E+00
    0.49459E-07         0.22352E-19         0.00000E+00
    0.49125E-07         0.37253E-19         0.00000E+00
    0.48736E-07         0.51746E-19         0.00000E+00
    0.48299E-07         0.63330E-19         0.00000E+00
    0.47818E-07         0.57742E-19         0.00000E+00
    0.47301E-07        -0.11176E-19         0.00000E+00
    0.46751E-07         0.20489E-19         0.00000E+00
    0.46172E-07        -0.59779E-20         0.00000E+00
    0.45571E-07        -0.14277E-19         0.00000E+00
    0.44950E-07        -0.18626E-19         0.00000E+00
    0.44313E-07        -0.20489E-19         0.00000E+00
    0.43664E-07         0.50159E-19         0.00000E+00
    0.43005E-07         0.14901E-19         0.00000E+00
    0.42341E-07         0.25899E-19         0.00000E+00
    0.41672E-07        -0.74506E-20         0.00000E+00
    0.41003E-07        -0.55879E-20         0.00000E+00
    0.40335E-07         0.37253E-20         0.00000E+00
    0.39671E-07        -0.76118E-20         0.00000E+00
    0.39012E-07        -0.11195E-19         0.00000E+00
    0.38360E-07        -0.36047E-20         0.00000E+00
    0.37717E-07         0.49147E-20         0.00000E+00
    0.37085E-07         0.16764E-19         0.00000E+00
    0.36464E-07         0.11176E-19         0.00000E+00
    0.35856E-07         0.00000E+00         0.00000E+00
    0.35263E-07         0.42841E-19         0.00000E+00
    0.34685E-07         0.33567E-19         0.00000E+00
    0.34123E-07         0.19767E-19         0.00000E+00
    0.33579E-07        -0.74506E-20         0.00000E+00
    0.33052E-07         0.55879E-20         0.00000E+00
    0.32545E-07         0.24214E-19         0.00000E+00
    0.32056E-07         0.81499E-20         0.00000E+00
    0.31588E-07        -0.23241E-20         0.00000E+00
    0.31140E-07         0.00000E+00         0.00000E+00
    0.30713E-07        -0.93132E-20         0.00000E+00
    0.30308E-07        -0.31665E-19         0.00000E+00
    0.29924E-07        -0.20489E-19         0.00000E+00
    0.29562E-07        -0.13039E-19         0.00000E+00
    0.29223E-07        -0.45635E-19         0.00000E+00
    0.28906E-07        -0.37253E-19         0.00000E+00
    0.28613E-07        -0.30127E-19         0.00000E+00
    0.28342E-07        -0.60663E-19         0.00000E+00
    0.28094E-07        -0.50291E-19         0.00000E+00
    0.27870E-07        -0.55880E-19         0.00000E+00
    0.27669E-07        -0.70248E-19         0.00000E+00
    0.27492E-07         0.00000E+00         0.00000E+00
    0.27338E-07        -0.31665E-19         0.00000E+00
    0.27207E-07        -0.29802E-19         0.00000E+00
    0.27100E-07        -0.26077E-19         0.00000E+00
    0.27017E-07        -0.60342E-20         0.00000E+00
    0.26956E-07        -0.36383E-19         0.00000E+00
    0.26919E-07         0.00000E+00         0.00000E+00
    0.26905E-07        -0.46566E-19         0.00000E+00
    0.26914E-07        -0.50291E-19         0.00000E+00
    0.26946E-07        -0.62005E-19         0.00000E+00
    0.27001E-07        -0.68918E-19         0.00000E+00
    0.27078E-07        -0.42469E-19         0.00000E+00
    0.27177E-07        -0.57628E-20         0.00000E+00
    0.27298E-07        -0.35390E-19         0.00000E+00
    0.27441E-07        -0.14901E-19         0.00000E+00
    0.27605E-07        -0.93132E-20         0.00000E+00
    0.27790E-07         0.20489E-19         0.00000E+00
    0.27996E-07         0.37253E-20         0.00000E+00
    0.28222E-07        -0.18626E-20         0.00000E+00
    0.28467E-07        -0.13039E-19         0.00000E+00
    0.28732E-07         0.72751E-20         0.00000E+00
    0.29015E-07         0.11525E-19         0.00000E+00
    0.29316E-07        -0.11176E-19         0.00000E+00
    0.29634E-07        -0.11176E-19         0.00000E+00
    0.29968E-07         0.20489E-19         0.00000E+00
    0.30319E-07         0.93132E-20         0.00000E+00
    0.30684E-07         0.16764E-19         0.00000E+00
    0.31063E-07         0.18626E-19         0.00000E+00
    0.31455E-07         0.13039E-19         0.00000E+00
    0.31859E-07        -0.74506E-20         0.00000E+00
    0.32273E-07         0.26077E-19         0.00000E+00
    0.32696E-07        -0.13039E-19         0.00000E+00
    0.33127E-07         0.22352E-19         0.00000E+00
    0.33564E-07        -0.46566E-20         0.00000E+00
    0.34006E-07        -0.74506E-20         0.00000E+00
    0.34451E-07         0.74506E-20         0.00000E+00
    0.34896E-07         0.65193E-20         0.00000E+00
    0.35341E-07        -0.21732E-20         0.00000E+00
    0.35781E-07         0.57097E-20         0.00000E+00
    0.36216E-07         0.20489E-19         0.00000E+00
    0.36643E-07         0.36394E-19         0.00000E+00
    0.37058E-07         0.16764E-19         0.00000E+00
    0.37458E-07         0.24214E-19         0.00000E+00
    0.37841E-07        -0.21385E-20         0.00000E+00
    0.38203E-07         0.27732E-19         0.00000E+00
    0.38540E-07         0.30169E-19         0.00000E+00
    0.38848E-07         0.28147E-19         0.00000E+00
    0.39122E-07         0.16725E-19         0.00000E+00
    0.39359E-07         0.11176E-19         0.00000E+00
    0.39552E-07         0.65193E-20         0.00000E+00
    0.39697E-07         0.93132E-20         0.00000E+00
    0.39788E-07         0.55879E-20         0.00000E+00
    0.39820E-07         0.00000E+00         0.00000E+00
    0.50106E-07         0.00000E+00         0.00000E+00
    0.50062E-07         0.26077E-19         0.00000E+00
    0.49935E-07        -0.74506E-20         0.00000E+00
    0.49731E-07         0.26077E-19         0.00000E+00
    0.49459E-07         0.63330E-19         0.00000E+00
    0.49125E-07         0.52154E-19         0.00000E+00
    0.48736E-07         0.65193E-19         0.00000E+00
    0.48299E-07         0.27940E-19         0.00000E+00
    0.47818E-07         0.63330E-19         0.00000E+00
    0.47301E-07         0.18626E-20         0.00000E+00
    0.46751E-07        -0.18626E-20         0.00000E+00
    0.46172E-07        -0.14121E-19         0.00000E+00
    0.45571E-07        -0.65193E-20         0.00000E+00
    0.44950E-07         0.18626E-19         0.00000E+00
    0.44313E-07        -0.18626E-20         0.00000E+00
    0.43664E-07         0.28072E-19         0.00000E+00
    0.43005E-07         0.24214E-19         0.00000E+00
    0.42341E-07         0.57658E-20         0.00000E+00
    0.41672E-07         0.27940E-20         0.00000E+00
    0.41003E-07        -0.37253E-20         0.00000E+00
    0.40335E-07         0.18626E-19         0.00000E+00
    0.39671E-07        -0.12877E-19         0.00000E+00
    0.39012E-07        -0.26970E-19         0.00000E+00
    0.38360E-07         0.17420E-20         0.00000E+00
    0.37717E-07         0.46566E-20         0.00000E+00
    0.37085E-07         0.74506E-20         0.00000E+00
    0.36464E-07         0.93132E-20         0.00000E+00
    0.35856E-07         0.24214E-19         0.00000E+00
    0.35263E-07         0.37253E-20         0.00000E+00
    0.34685E-07         0.22352E-19         0.00000E+00
    0.34123E-07         0.33319E-19         0.00000E+00
    0.33579E-07         0.93132E-20         0.00000E+00
    0.33052E-07         0.55879E-20         0.00000E+00
    0.32545E-07         0.36322E-19         0.00000E+00
    0.32056E-07        -0.34933E-20         0.00000E+00
    0.31588E-07         0.16294E-19         0.00000E+00
    0.31140E-07         0.13970E-19         0.00000E+00
    0.30713E-07        -0.93132E-20         0.00000E+00
    0.30308E-07         0.18626E-20         0.00000E+00
    0.29924E-07        -0.14901E-19         0.00000E+00
    0.29562E-07        -0.27310E-19         0.00000E+00
    0.29223E-07        -0.51132E-19         0.00000E+00
    0.28906E-07        -0.43772E-19         0.00000E+00
    0.28613E-07        -0.56161E-19         0.00000E+00
    0.28342E-07        -0.67055E-19         0.00000E+00
    0.28094E-07        -0.56079E-19         0.00000E+00
    0.27870E-07        -0.42840E-19         0.00000E+00
    0.27669E-07        -0.55680E-19         0.00000E+00
    0.27492E-07        -0.18626E-20         0.00000E+00
    0.27338E-07        -0.35390E-19         0.00000E+00
    0.27207E-07        -0.40978E-19         0.00000E+00
    0.27100E-07        -0.11176E-19         0.00000E+00
    0.27017E-07        -0.93132E-20         0.00000E+00
    0.26956E-07        -0.40047E-19         0.00000E+00
    0.26919E-07         0.18626E-20         0.00000E+00
    0.26905E-07        -0.40978E-19         0.00000E+00
    0.26914E-07        -0.40978E-19         0.00000E+00
    0.26946E-07        -0.51616E-19         0.00000E+00
    0.27001E-07        -0.68918E-19         0.00000E+00
    0.27078E-07        -0.46007E-19         0.00000E+00
    0.27177E-07        -0.18626E-19         0.00000E+00
    0.27298E-07        -0.35390E-19         0.00000E+00
    0.27441E-07        -0.15832E-19         0.00000E+00
    0.27605E-07        -0.18626E-19         0.00000E+00
    0.27790E-07         0.22352E-19         0.00000E+00
    0.27996E-07         0.24214E-19         0.00000E+00
    0.28222E-07        -0.74506E-20         0.00000E+00
    0.28467E-07         0.13039E-19         0.00000E+00
    0.28732E-07        -0.35498E-20         0.00000E+00
    0.29015E-07         0.98950E-20         0.00000E+00
    0.29316E-07        -0.93132E-20         0.00000E+00
    0.29634E-07        -0.74506E-20         0.00000E+00
    0.29968E-07        -0.74506E-20         0.00000E+00
    0.30319E-07         0.18626E-19         0.00000E+00
    0.30684E-07        -0.18626E-20         0.00000E+00
    0.31063E-07         0.93132E-20         0.00000E+00
    0.31455E-07         0.18626E-20         0.00000E+00
    0.31859E-07         0.18626E-20         0.00000E+00
    0.32273E-07         0.13039E-19         0.00000E+00
    0.32696E-07        -0.13039E-19         0.00000E+00
    0.33127E-07         0.18626E-19         0.00000E+00
    0.33564E-07        -0.12798E-19         0.00000E+00
    0.34006E-07        -0.18626E-20         0.00000E+00
    0.34451E-07         0.11176E-19         0.00000E+00
    0.34896E-07         0.44744E-20         0.00000E+00
    0.35341E-07        -0.18626E-20         0.00000E+00
    0.35781E-07         0.72071E-20         0.00000E+00
    0.36216E-07         0.13422E-19         0.00000E+00
    0.36643E-07         0.29802E-19         0.00000E+00
    0.37058E-07         0.29802E-19         0.00000E+00
    0.37458E-07         0.25220E-19         0.00000E+00
    0.37841E-07         0.15177E-19         0.00000E+00
    0.38203E-07         0.42117E-19         0.00000E+00
    0.38540E-07         0.19191E-19         0.00000E+00
    0.38848E-07         0.15263E-19         0.00000E+00
    0.39122E-07         0.13970E-19         0.00000E+00
    0.39359E-07        -0.74506E-20         0.00000E+00
    0.39552E-07         0.63582E-20         0.00000E+00
    0.39697E-07         0.16764E-19         0.00000E+00
    0.39788E-07         0.93132E-21         0.00000E+00
    0.39820E-07         0.00000E+00         0.00000E+00
    0.50106E-07         0.00000E+00         0.00000E+00
    0.50062E-07        -0.11176E-19         0.00000E+00
    0.49935E-07         0.26077E-19         0.00000E+00
    0.49731E-07         0.10515E-19         0.00000E+00
    0.49459E-07         0.81956E-19         0.00000E+00
    0.49125E-07         0.33528E-19         0.00000E+00
    0.48736E-07         0.61876E-19         0.00000E+00
    0.48299E-07         0.35390E-19         0.00000E+00
    0.47818E-07         0.29802E-19         0.00000E+00
    0.47301E-07         0.36880E-19         0.00000E+00
    0.46751E-07        -0.27940E-19         0.00000E+00
    0.46172E-07        -0.21420E-19         0.00000E+00
    0.45571E-07         0.40327E-20         0.00000E+00
    0.44950E-07         0.40978E-19         0.00000E+00
    0.44313E-07        -0.18626E-20         0.00000E+00
    0.43664E-07         0.13039E-19         0.00000E+00
    0.43005E-07         0.26077E-19         0.00000E+00
    0.42341E-07         0.11929E-19         0.00000E+00
    0.41672E-07        -0.13368E-19         0.00000E+00
    0.41003E-07         0.11176E-19         0.00000E+00
    0.40335E-07         0.20489E-19         0.00000E+00
    0.39671E-07        -0.22352E-19         0.00000E+00
    0.39012E-07        -0.40978E-19         0.00000E+00
    0.38360E-07         0.73300E-20         0.00000E+00
    0.37717E-07         0.22094E-19         0.00000E+00
    0.37085E-07         0.15832E-19         0.00000E+00
    0.36464E-07         0.74506E-20         0.00000E+00
    0.35856E-07         0.40978E-19         0.00000E+00
    0.35263E-07        -0.20489E-19         0.00000E+00
    0.34685E-07         0.18626E-19         0.00000E+00
    0.34123E-07         0.16764E-19         0.00000E+00
    0.33579E-07         0.16311E-19         0.00000E+00
    0.33052E-07         0.93132E-20         0.00000E+00
    0.32545E-07         0.41911E-19         0.00000E+00
    0.32056E-07        -0.21652E-19         0.00000E+00
    0.31588E-07         0.29802E-19         0.00000E+00
    0.31140E-07         0.21064E-20         0.00000E+00
    0.30713E-07         0.00000E+00         0.00000E+00
    0.30308E-07         0.13039E-19         0.00000E+00
    0.29924E-07        -0.18626E-19         0.00000E+00
    0.29562E-07        -0.32294E-19         0.00000E+00
    0.29223E-07        -0.44703E-19         0.00000E+00
    0.28906E-07        -0.39352E-19         0.00000E+00
    0.28613E-07        -0.53735E-19         0.00000E+00
    0.28342E-07        -0.58673E-19         0.00000E+00
    0.28094E-07        -0.48229E-19         0.00000E+00
    0.27870E-07        -0.42841E-19         0.00000E+00
    0.27669E-07        -0.31864E-19         0.00000E+00
    0.27492E-07        -0.37253E-19         0.00000E+00
    0.27338E-07        -0.34120E-19         0.00000E+00
    0.27207E-07        -0.31665E-19         0.00000E+00
    0.27100E-07         0.37253E-20         0.00000E+00
    0.27017E-07        -0.20528E-19         0.00000E+00
    0.26956E-07        -0.10121E-19         0.00000E+00
    0.26919E-07        -0.18626E-19         0.00000E+00
    0.26905E-07        -0.20489E-19         0.00000E+00
    0.26914E-07        -0.31665E-19         0.00000E+00
    0.26946E-07        -0.76906E-19         0.00000E+00
    0.27001E-07        -0.20489E-19         0.00000E+00
    0.27078E-07        -0.34459E-19         0.00000E+00
    0.27177E-07        -0.45460E-19         0.00000E+00
    0.27298E-07        -0.55879E-20         0.00000E+00
    0.27441E-07        -0.13636E-19         0.00000E+00
    0.27605E-07         0.73955E-20         0.00000E+00
    0.27790E-07        -0.13039E-19         0.00000E+00
    0.27996E-07         0.31665E-19         0.00000E+00
    0.28222E-07        -0.11176E-19         0.00000E+00
    0.28467E-07         0.55879E-20         0.00000E+00
    0.28732E-07         0.91378E-20         0.00000E+00
    0.29015E-07         0.68688E-20         0.00000E+00
    0.29316E-07        -0.19234E-20         0.00000E+00
    0.29634E-07         0.41815E-20         0.00000E+00
    0.29968E-07         0.55879E-20         0.00000E+00
    0.30319E-07         0.16378E-19         0.00000E+00
    0.30684E-07         0.74506E-20         0.00000E+00
    0.31063E-07         0.14901E-19         0.00000E+00
    0.31455E-07        -0.13039E-19         0.00000E+00
    0.31859E-07         0.14901E-19         0.00000E+00
    0.32273E-07         0.11176E-19         0.00000E+00
    0.32696E-07        -0.18626E-20         0.00000E+00
    0.33127E-07         0.14901E-19         0.00000E+00
    0.33564E-07        -0.27248E-19         0.00000E+00
    0.34006E-07        -0.93132E-21         0.00000E+00
    0.34451E-07         0.18626E-20         0.00000E+00
    0.34896E-07         0.13221E-19         0.00000E+00
    0.35341E-07         0.93132E-20         0.00000E+00
    0.35781E-07        -0.16192E-20         0.00000E+00
    0.36216E-07        -0.38365E-21         0.00000E+00
    0.36643E-07         0.26077E-19         0.00000E+00
    0.37058E-07         0.27940E-19         0.00000E+00
    0.37458E-07         0.27866E-19         0.00000E+00
    0.37841E-07         0.26733E-19         0.00000E+00
    0.38203E-07         0.27940E-19         0.00000E+00
    0.38540E-07         0.94968E-20         0.00000E+00
    0.38848E-07         0.20127E-19         0.00000E+00
    0.39122E-07         0.26097E-19         0.00000E+00
    0.39359E-07         0.00000E+00         0.00000E+00
    0.39552E-07         0.16764E-19         0.00000E+00
    0.39697E-07         0.16973E-19         0.00000E+00
    0.39788E-07         0.14193E-19         0.00000E+00
    0.39820E-07         0.00000E+00         0.00000E+00
    0.50106E-07         0.00000E+00         0.00000E+00
    0.50062E-07        -0.14901E-19         0.00000E+00
    0.49935E-07         0.11176E-19         0.00000E+00
    0.49731E-07         0.81117E-20         0.00000E+00
    0.49459E-07         0.55879E-19         0.00000E+00
    0.49125E-07         0.14901E-19         0.00000E+00
    0.48736E-07         0.31257E-19         0.00000E+00
    0.48299E-07         0.72643E-19         0.00000E+00
    0.47818E-07         0.44703E-19         0.00000E+00
    0.47301E-07         0.26450E-19         0.00000E+00
    0.46751E-07         0.13039E-19         0.00000E+00
    0.46172E-07         0.79920E-20         0.00000E+00
    0.45571E-07         0.62394E-21         0.00000E+00
    0.44950E-07         0.27940E-19         0.00000E+00
    0.44313E-07         0.18626E-20         0.00000E+00
    0.43664E-07         0.35258E-19         0.00000E+00
    0.43005E-07        -0.55879E-20         0.00000E+00
    0.42341E-07         0.83819E-20         0.00000E+00
    0.41672E-07        -0.17366E-19         0.00000E+00
    0.41003E-07         0.26077E-19         0.00000E+00
    0.40335E-07        -0.13039E-19         0.00000E+00
    0.39671E-07        -0.14901E-19         0.00000E+00
    0.39012E-07        -0.39135E-19         0.00000E+00
    0.38360E-07        -0.13039E-19         0.00000E+00
    0.37717E-07         0.44030E-19         0.00000E+00
    0.37085E-07         0.98514E-20         0.00000E+00
    0.36464E-07         0.13039E-19         0.00000E+00
    0.35856E-07         0.24214E-19         0.00000E+00
    0.35263E-07         0.00000E+00         0.00000E+00
    0.34685E-07         0.20489E-19         0.00000E+00
    0.34123E-07         0.13247E-19         0.00000E+00
    0.33579E-07        -0.27487E-19         0.00000E+00
    0.33052E-07         0.00000E+00         0.00000E+00
    0.32545E-07        -0.98444E-24         0.00000E+00
    0.32056E-07        -0.93132E-21         0.00000E+00
    0.31588E-07         0.37253E-20         0.00000E+00
    0.31140E-07        -0.86257E-20         0.00000E+00
    0.30713E-07        -0.93132E-20         0.00000E+00
    0.30308E-07        -0.20489E-19         0.00000E+00
    0.29924E-07        -0.13039E-19         0.00000E+00
    0.29562E-07         0.40271E-20         0.00000E+00
    0.29223E-07        -0.50382E-19         0.00000E+00
    0.28906E-07        -0.30497E-19         0.00000E+00
    0.28613E-07        -0.50291E-19         0.00000E+00
    0.28342E-07        -0.44577E-19         0.00000E+00
    0.28094E-07        -0.33928E-19         0.00000E+00
    0.27870E-07        -0.52154E-19         0.00000E+00
    0.27669E-07        -0.33328E-19         0.00000E+00
    0.27492E-07        -0.59605E-19         0.00000E+00
    0.27338E-07        -0.15240E-19         0.00000E+00
    0.27207E-07        -0.16764E-19         0.00000E+00
    0.27100E-07        -0.19558E-19         0.00000E+00
    0.27017E-07         0.32791E-20         0.00000E+00
    0.26956E-07        -0.10368E-19         0.00000E+00
    0.26919E-07        -0.35390E-19         0.00000E+00
    0.26905E-07        -0.18626E-19         0.00000E+00
    0.26914E-07        -0.11176E-19         0.00000E+00
    0.26946E-07        -0.71174E-19         0.00000E+00
    0.27001E-07         0.27940E-20         0.00000E+00
    0.27078E-07        -0.35018E-19         0.00000E+00
    0.27177E-07        -0.28115E-19         0.00000E+00
    0.27298E-07         0.55879E-20         0.00000E+00
    0.27441E-07        -0.18626E-19         0.00000E+00
    0.27605E-07         0.14956E-19         0.00000E+00
    0.27790E-07        -0.23283E-19         0.00000E+00
    0.27996E-07         0.22352E-19         0.00000E+00
    0.28222E-07         0.00000E+00         0.00000E+00
    0.28467E-07        -0.55879E-20         0.00000E+00
    0.28732E-07         0.48321E-20         0.00000E+00
    0.29015E-07        -0.68688E-20         0.00000E+00
    0.29316E-07        -0.92525E-20         0.00000E+00
    0.29634E-07         0.20033E-19         0.00000E+00
    0.29968E-07         0.74506E-20         0.00000E+00
    0.30319E-07         0.96993E-20         0.00000E+00
    0.30684E-07         0.14901E-19         0.00000E+00
    0.31063E-07         0.16764E-19         0.00000E+00
    0.31455E-07        -0.11176E-19         0.00000E+00
    0.31859E-07         0.18626E-20         0.00000E+00
    0.32273E-07        -0.37253E-20         0.00000E+00
    0.32696E-07         0.26077E-19         0.00000E+00
    0.33127E-07        -0.11176E-19         0.00000E+00
    0.33564E-07        -0.46566E-20         0.00000E+00
    0.34006E-07         0.90958E-20         0.00000E+00
    0.34451E-07         0.21254E-20         0.00000E+00
    0.34896E-07        -0.18626E-20         0.00000E+00
    0.35341E-07        -0.65193E-20         0.00000E+00
    0.35781E-07         0.16764E-19         0.00000E+00
    0.36216E-07         0.22463E-20         0.00000E+00
    0.36643E-07         0.13898E-19         0.00000E+00
    0.37058E-07         0.19558E-19         0.00000E+00
    0.37458E-07         0.17843E-19         0.00000E+00
    0.37841E-07         0.32269E-19         0.00000E+00
    0.38203E-07         0.65193E-20         0.00000E+00
    0.38540E-07         0.10992E-19         0.00000E+00
    0.38848E-07         0.26439E-19         0.00000E+00
    0.39122E-07         0.19538E-19         0.00000E+00
    0.39359E-07         0.16764E-19         0.00000E+00
    0.39552E-07         0.12107E-19         0.00000E+00
    0.39697E-07         0.53785E-20         0.00000E+00
    0.39788E-07         0.14678E-19         0.00000E+00
    0.39820E-07         0.00000E+00         0.00000E+00
    0.50106E-07         0.00000E+00         0.00000E+00
    0.50062E-07         0.18626E-19         0.00000E+00
    0.49935E-07        -0.74506E-20         0.00000E+00
    0.49731E-07         0.14901E-19         0.00000E+00
    0.49459E-07         0.33528E-19         0.00000E+00
    0.49125E-07         0.26077E-19         0.00000E+00
    0.48736E-07         0.00000E+00         0.00000E+00
    0.48299E-07         0.59605E-19         0.00000E+00
    0.47818E-07         0.63330E-19         0.00000E+00
    0.47301E-07         0.29802E-19         0.00000E+00
    0.46751E-07         0.31665E-19         0.00000E+00
    0.46172E-07         0.13970E-19         0.00000E+00
    0.45571E-07        -0.18626E-20         0.00000E+00
    0.44950E-07         0.22352E-19         0.00000E+00
    0.44313E-07         0.27940E-19         0.00000E+00
    0.43664E-07         0.29802E-19         0.00000E+00
    0.43005E-07         0.55879E-20         0.00000E+00
    0.42341E-07        -0.16848E-20         0.00000E+00
    0.41672E-07         0.74506E-20         0.00000E+00
    0.41003E-07         0.37253E-20         0.00000E+00
    0.40335E-07        -0.31665E-19         0.00000E+00
    0.39671E-07        -0.55879E-20         0.00000E+00
    0.39012E-07        -0.37253E-19         0.00000E+00
    0.38360E-07        -0.11055E-19         0.00000E+00
    0.37717E-07         0.26077E-19         0.00000E+00
    0.37085E-07        -0.12107E-19         0.00000E+00
    0.36464E-07         0.18626E-19         0.00000E+00
    0.35856E-07         0.11176E-19         0.00000E+00
    0.35263E-07         0.13039E-19         0.00000E+00
    0.34685E-07         0.27940E-19         0.00000E+00
    0.34123E-07         0.55879E-20         0.00000E+00
    0.33579E-07        -0.16764E-19         0.00000E+00
    0.33052E-07         0.37253E-20         0.00000E+00
    0.32545E-07        -0.93132E-20         0.00000E+00
    0.32056E-07        -0.53559E-20         0.00000E+00
    0.31588E-07        -0.20019E-19         0.00000E+00
    0.31140E-07        -0.13039E-19         0.00000E+00
    0.30713E-07        -0.24214E-19         0.00000E+00
    0.30308E-07        -0.16764E-19         0.00000E+00
    0.29924E-07        -0.10760E-19         0.00000E+00
    0.29562E-07         0.13970E-19         0.00000E+00
    0.29223E-07        -0.52154E-19         0.00000E+00
    0.28906E-07        -0.27940E-19         0.00000E+00
    0.28613E-07        -0.64868E-19         0.00000E+00
    0.28342E-07        -0.24341E-19         0.00000E+00
    0.28094E-07        -0.40978E-19         0.00000E+00
    0.27870E-07        -0.60535E-19         0.00000E+00
    0.27669E-07        -0.31665E-19         0.00000E+00
    0.27492E-07        -0.48429E-19         0.00000E+00
    0.27338E-07        -0.24807E-19         0.00000E+00
    0.27207E-07        -0.14901E-19         0.00000E+00
    0.27100E-07        -0.18577E-19         0.00000E+00
    0.27017E-07         0.55879E-20         0.00000E+00
    0.26956E-07        -0.45948E-20         0.00000E+00
    0.26919E-07        -0.26077E-19         0.00000E+00
    0.26905E-07        -0.40978E-19         0.00000E+00
    0.26914E-07         0.00000E+00         0.00000E+00
    0.26946E-07        -0.29409E-19         0.00000E+00
    0.27001E-07        -0.55989E-20         0.00000E+00
    0.27078E-07        -0.31106E-19         0.00000E+00
    0.27177E-07        -0.20314E-19         0.00000E+00
    0.27298E-07        -0.55879E-20         0.00000E+00
    0.27441E-07        -0.96470E-20         0.00000E+00
    0.27605E-07        -0.18626E-20         0.00000E+00
    0.27790E-07        -0.10730E-19         0.00000E+00
    0.27996E-07         0.18626E-20         0.00000E+00
    0.28222E-07         0.16764E-19         0.00000E+00
    0.28467E-07         0.18626E-19         0.00000E+00
    0.28732E-07        -0.17695E-19         0.00000E+00
    0.29015E-07        -0.11176E-19         0.00000E+00
    0.29316E-07        -0.17756E-19         0.00000E+00
    0.29634E-07         0.24214E-19         0.00000E+00
    0.29968E-07         0.74506E-20         0.00000E+00
    0.30319E-07         0.20489E-19         0.00000E+00
    0.30684E-07         0.55879E-20         0.00000E+00
    0.31063E-07         0.14901E-19         0.00000E+00
    0.31455E-07        -0.48328E-20         0.00000E+00
    0.31859E-07         0.00000E+00         0.00000E+00
    0.32273E-07        -0.13039E-19         0.00000E+00
    0.32696E-07         0.31665E-19         0.00000E+00
    0.33127E-07        -0.93132E-20         0.00000E+00
    0.33564E-07         0.13279E-19         0.00000E+00
    0.34006E-07         0.67367E-20         0.00000E+00
    0.34451E-07        -0.21254E-20         0.00000E+00
    0.34896E-07        -0.22352E-19         0.00000E+00
    0.35341E-07        -0.99340E-20         0.00000E+00
    0.35781E-07        -0.19844E-20         0.00000E+00
    0.36216E-07         0.16380E-19         0.00000E+00
    0.36643E-07         0.72149E-22         0.00000E+00
    0.37058E-07         0.15383E-19         0.00000E+00
    0.37458E-07         0.15832E-19         0.00000E+00
    0.37841E-07         0.45963E-19         0.00000E+00
    0.38203E-07         0.39326E-20         0.00000E+00
    0.38540E-07         0.67028E-20         0.00000E+00
    0.38848E-07         0.37253E-20         0.00000E+00
    0.39122E-07         0.55879E-20         0.00000E+00
    0.39359E-07         0.55879E-20         0.00000E+00
    0.39552E-07         0.17856E-19         0.00000E+00
    0.39697E-07        -0.14692E-19         0.00000E+00
    0.39788E-07         0.00000E+00         0.00000E+00
    0.39820E-07         0.00000E+00         0.00000E+00
    0.50106E-07         0.00000E+00         0.00000E+00
    0.50062E-07         0.18626E-19         0.00000E+00
    0.49935E-07         0.18626E-19         0.00000E+00
    0.49731E-07        -0.11176E-19         0.00000E+00
    0.49459E-07         0.14901E-19         0.00000E+00
    0.49125E-07         0.48429E-19         0.00000E+00
    0.48736E-07         0.74506E-20         0.00000E+00
    0.48299E-07         0.20489E-19         0.00000E+00
    0.47818E-07         0.29802E-19         0.00000E+00
    0.47301E-07         0.44703E-19         0.00000E+00
    0.46751E-07         0.13039E-19         0.00000E+00
    0.46172E-07        -0.70607E-20         0.00000E+00
    0.45571E-07         0.11176E-19         0.00000E+00
    0.44950E-07         0.24214E-19         0.00000E+00
    0.44313E-07         0.29802E-19         0.00000E+00
    0.43664E-07         0.14901E-19         0.00000E+00
    0.43005E-07         0.27940E-19         0.00000E+00
    0.42341E-07        -0.94911E-20         0.00000E+00
    0.41672E-07         0.00000E+00         0.00000E+00
    0.41003E-07        -0.15832E-19         0.00000E+00
    0.40335E-07        -0.20489E-19         0.00000E+00
    0.39671E-07        -0.11176E-19         0.00000E+00
    0.39012E-07        -0.42822E-19         0.00000E+00
    0.38360E-07         0.81071E-21         0.00000E+00
    0.37717E-07        -0.24214E-19         0.00000E+00
    0.37085E-07        -0.98514E-20         0.00000E+00
    0.36464E-07         0.00000E+00         0.00000E+00
    0.35856E-07         0.18626E-19         0.00000E+00
    0.35263E-07         0.24214E-19         0.00000E+00
    0.34685E-07         0.19558E-19         0.00000E+00
    0.34123E-07         0.18626E-19         0.00000E+00
    0.33579E-07        -0.18626E-20         0.00000E+00
    0.33052E-07         0.37253E-20         0.00000E+00
    0.32545E-07        -0.93132E-21         0.00000E+00
    0.32056E-07         0.69929E-21         0.00000E+00
    0.31588E-07        -0.60578E-20         0.00000E+00
    0.31140E-07        -0.14901E-19         0.00000E+00
    0.30713E-07        -0.18626E-19         0.00000E+00
    0.30308E-07        -0.13039E-19         0.00000E+00
    0.29924E-07        -0.28355E-19         0.00000E+00
    0.29562E-07        -0.24663E-20         0.00000E+00
    0.29223E-07        -0.23283E-19         0.00000E+00
    0.28906E-07        -0.55879E-19         0.00000E+00
    0.28613E-07        -0.54017E-19         0.00000E+00
    0.28342E-07        -0.13441E-19         0.00000E+00
    0.28094E-07        -0.47297E-19         0.00000E+00
    0.27870E-07        -0.40047E-19         0.00000E+00
    0.27669E-07        -0.31665E-19         0.00000E+00
    0.27492E-07        -0.26077E-19         0.00000E+00
    0.27338E-07        -0.37592E-19         0.00000E+00
    0.27207E-07        -0.93132E-20         0.00000E+00
    0.27100E-07        -0.27058E-19         0.00000E+00
    0.27017E-07        -0.13039E-19         0.00000E+00
    0.26956E-07        -0.46566E-20         0.00000E+00
    0.26919E-07        -0.11176E-19         0.00000E+00
    0.26905E-07        -0.44703E-19         0.00000E+00
    0.26914E-07        -0.93132E-20         0.00000E+00
    0.26946E-07        -0.14901E-19         0.00000E+00
    0.27001E-07        -0.92034E-21         0.00000E+00
    0.27078E-07        -0.21420E-19         0.00000E+00
    0.27177E-07        -0.38359E-19         0.00000E+00
    0.27298E-07        -0.13970E-19         0.00000E+00
    0.27441E-07         0.14901E-19         0.00000E+00
    0.27605E-07        -0.11176E-19         0.00000E+00
    0.27790E-07        -0.14416E-19         0.00000E+00
    0.27996E-07        -0.93132E-20         0.00000E+00
    0.28222E-07         0.21420E-19         0.00000E+00
    0.28467E-07         0.26077E-19         0.00000E+00
    0.28732E-07        -0.39007E-20         0.00000E+00
    0.29015E-07        -0.13039E-19         0.00000E+00
    0.29316E-07        -0.19497E-19         0.00000E+00
    0.29634E-07         0.14901E-19         0.00000E+00
    0.29968E-07         0.93132E-20         0.00000E+00
    0.30319E-07         0.11176E-19         0.00000E+00
    0.30684E-07         0.46566E-20         0.00000E+00
    0.31063E-07         0.18626E-19         0.00000E+00
    0.31455E-07        -0.10068E-19         0.00000E+00
    0.31859E-07         0.74506E-20         0.00000E+00
    0.32273E-07         0.65193E-20         0.00000E+00
    0.32696E-07        -0.46566E-20         0.00000E+00
    0.33127E-07        -0.18626E-20         0.00000E+00
    0.33564E-07         0.34852E-20         0.00000E+00
    0.34006E-07         0.11176E-19         0.00000E+00
    0.34451E-07        -0.26746E-19         0.00000E+00
    0.34896E-07        -0.24397E-19         0.00000E+00
    0.35341E-07        -0.55879E-20         0.00000E+00
    0.35781E-07        -0.26077E-19         0.00000E+00
    0.36216E-07         0.41089E-20         0.00000E+00
    0.36643E-07         0.74145E-20         0.00000E+00
    0.37058E-07         0.15832E-19         0.00000E+00
    0.37458E-07         0.14827E-19         0.00000E+00
    0.37841E-07         0.49032E-19         0.00000E+00
    0.38203E-07         0.72432E-20         0.00000E+00
    0.38540E-07        -0.46566E-20         0.00000E+00
    0.38848E-07        -0.27940E-20         0.00000E+00
    0.39122E-07        -0.93132E-21         0.00000E+00
    0.39359E-07         0.00000E+00         0.00000E+00
    0.39552E-07         0.11176E-19         0.00000E+00
    0.39697E-07        -0.95226E-20         0.00000E+00
    0.39788E-07        -0.55879E-20         0.00000E+00
    0.39820E-07         0.00000E+00         0.00000E+00
    0.50106E-07         0.00000E+00         0.00000E+00
    0.50062E-07         0.14901E-19         0.00000E+00
    0.49935E-07         0.18626E-19         0.00000E+00
    0.49731E-07        -0.11176E-19         0.00000E+00
    0.49459E-07         0.33528E-19         0.00000E+00
    0.49125E-07         0.37253E-19         0.00000E+00
    0.48736E-07         0.48429E-19         0.00000E+00
    0.48299E-07         0.40978E-19         0.00000E+00
    0.47818E-07         0.00000E+00         0.00000E+00
    0.47301E-07         0.27940E-19         0.00000E+00
    0.46751E-07         0.93132E-20         0.00000E+00
    0.46172E-07         0.14727E-20         0.00000E+00
    0.45571E-07        -0.27940E-20         0.00000E+00
    0.44950E-07         0.37253E-19         0.00000E+00
    0.44313E-07         0.13039E-19         0.00000E+00
    0.43664E-07         0.37253E-20         0.00000E+00
    0.43005E-07        -0.16764E-19         0.00000E+00
    0.42341E-07         0.29718E-20         0.00000E+00
    0.41672E-07        -0.74506E-20         0.00000E+00
    0.41003E-07        -0.17216E-19         0.00000E+00
    0.40335E-07         0.93132E-21         0.00000E+00
    0.39671E-07        -0.22352E-19         0.00000E+00
    0.39012E-07        -0.42860E-19         0.00000E+00
    0.38360E-07        -0.62780E-20         0.00000E+00
    0.37717E-07        -0.14901E-19         0.00000E+00
    0.37085E-07         0.18626E-20         0.00000E+00
    0.36464E-07        -0.18626E-19         0.00000E+00
    0.35856E-07         0.13039E-19         0.00000E+00
    0.35263E-07         0.22352E-19         0.00000E+00
    0.34685E-07         0.18229E-20         0.00000E+00
    0.34123E-07         0.44703E-19         0.00000E+00
    0.33579E-07        -0.18626E-20         0.00000E+00
    0.33052E-07        -0.22352E-19         0.00000E+00
    0.32545E-07        -0.13040E-19         0.00000E+00
    0.32056E-07         0.31897E-19         0.00000E+00
    0.31588E-07         0.74506E-20         0.00000E+00
    0.31140E-07        -0.93132E-20         0.00000E+00
    0.30713E-07        -0.27940E-20         0.00000E+00
    0.30308E-07        -0.10046E-19         0.00000E+00
    0.29924E-07        -0.19142E-19         0.00000E+00
    0.29562E-07        -0.14901E-19         0.00000E+00
    0.29223E-07         0.84725E-20         0.00000E+00
    0.28906E-07        -0.70781E-19         0.00000E+00
    0.28613E-07        -0.40978E-19         0.00000E+00
    0.28342E-07        -0.32067E-19         0.00000E+00
    0.28094E-07        -0.32796E-19         0.00000E+00
    0.27870E-07        -0.19557E-19         0.00000E+00
    0.27669E-07        -0.31466E-19         0.00000E+00
    0.27492E-07        -0.14901E-19         0.00000E+00
    0.27338E-07        -0.35390E-19         0.00000E+00
    0.27207E-07        -0.16764E-19         0.00000E+00
    0.27100E-07        -0.27840E-19         0.00000E+00
    0.27017E-07        -0.13039E-19         0.00000E+00
    0.26956E-07        -0.37871E-20         0.00000E+00
    0.26919E-07        -0.20489E-19         0.00000E+00
    0.26905E-07        -0.11176E-19         0.00000E+00
    0.26914E-07        -0.14901E-19         0.00000E+00
    0.26946E-07        -0.59815E-20         0.00000E+00
    0.27001E-07         0.18626E-20         0.00000E+00
    0.27078E-07        -0.23842E-19         0.00000E+00
    0.27177E-07        -0.33528E-19         0.00000E+00
    0.27298E-07        -0.12828E-19         0.00000E+00
    0.27441E-07         0.00000E+00         0.00000E+00
    0.27605E-07        -0.55879E-20         0.00000E+00
    0.27790E-07        -0.14901E-19         0.00000E+00
    0.27996E-07        -0.55879E-20         0.00000E+00
    0.28222E-07         0.19862E-19         0.00000E+00
    0.28467E-07         0.27712E-19         0.00000E+00
    0.28732E-07         0.13214E-19         0.00000E+00
    0.29015E-07        -0.14901E-19         0.00000E+00
    0.29316E-07        -0.20489E-19         0.00000E+00
    0.29634E-07        -0.37253E-20         0.00000E+00
    0.29968E-07        -0.93132E-20         0.00000E+00
    0.30319E-07        -0.74506E-20         0.00000E+00
    0.30684E-07         0.81436E-21         0.00000E+00
    0.31063E-07         0.13970E-19         0.00000E+00
    0.31455E-07        -0.11176E-19         0.00000E+00
    0.31859E-07         0.00000E+00         0.00000E+00
    0.32273E-07         0.17482E-19         0.00000E+00
    0.32696E-07        -0.23041E-19         0.00000E+00
    0.33127E-07        -0.93132E-20         0.00000E+00
    0.33564E-07        -0.16524E-19         0.00000E+00
    0.34006E-07         0.16764E-19         0.00000E+00
    0.34451E-07        -0.21158E-19         0.00000E+00
    0.34896E-07        -0.93132E-20         0.00000E+00
    0.35341E-07        -0.15832E-19         0.00000E+00
    0.35781E-07        -0.13039E-19         0.00000E+00
    0.36216E-07         0.22352E-19         0.00000E+00
    0.36643E-07         0.92772E-20         0.00000E+00
    0.37058E-07         0.18177E-19         0.00000E+00
    0.37458E-07        -0.73765E-20         0.00000E+00
    0.37841E-07         0.38788E-19         0.00000E+00
    0.38203E-07         0.57953E-20         0.00000E+00
    0.38540E-07         0.21237E-19         0.00000E+00
    0.38848E-07         0.18057E-19         0.00000E+00
    0.39122E-07         0.18822E-20         0.00000E+00
    0.39359E-07         0.13039E-19         0.00000E+00
    0.39552E-07        -0.18626E-20         0.00000E+00
    0.39697E-07         0.18626E-20         0.00000E+00
    0.39788E-07        -0.11176E-19         0.00000E+00
    0.39820E-07         0.00000E+00         0.00000E+00
    0.50106E-07         0.00000E+00         0.00000E+00
    0.50062E-07         0.37253E-19         0.00000E+00
    0.49935E-07         0.00000E+00         0.00000E+00
    0.49731E-07         0.67895E-20         0.00000E+00
    0.49459E-07         0.22352E-19         0.00000E+00
    0.49125E-07         0.25625E-19         0.00000E+00
    0.48736E-07         0.50700E-19         0.00000E+00
    0.48299E-07         0.54017E-19         0.00000E+00
    0.47818E-07        -0.22352E-19         0.00000E+00
    0.47301E-07         0.31665E-19         0.00000E+00
    0.46751E-07         0.24672E-19         0.00000E+00
    0.46172E-07         0.78405E-20         0.00000E+00
    0.45571E-07        -0.71432E-20         0.00000E+00
    0.44950E-07         0.44703E-19         0.00000E+00
    0.44313E-07         0.18626E-20         0.00000E+00
    0.43664E-07        -0.93132E-20         0.00000E+00
    0.43005E-07        -0.13039E-19         0.00000E+00
    0.42341E-07         0.18626E-19         0.00000E+00
    0.41672E-07         0.00000E+00         0.00000E+00
    0.41003E-07        -0.22830E-19         0.00000E+00
    0.40335E-07        -0.12371E-20         0.00000E+00
    0.39671E-07        -0.18626E-19         0.00000E+00
    0.39012E-07        -0.31646E-19         0.00000E+00
    0.38360E-07        -0.14901E-19         0.00000E+00
    0.37717E-07        -0.58460E-20         0.00000E+00
    0.37085E-07         0.74506E-20         0.00000E+00
    0.36464E-07         0.00000E+00         0.00000E+00
    0.35856E-07        -0.37253E-20         0.00000E+00
    0.35263E-07         0.20489E-19         0.00000E+00
    0.34685E-07        -0.46169E-20         0.00000E+00
    0.34123E-07         0.33528E-19         0.00000E+00
    0.33579E-07         0.14901E-19         0.00000E+00
    0.33052E-07        -0.33528E-19         0.00000E+00
    0.32545E-07        -0.65183E-20         0.00000E+00
    0.32056E-07         0.14901E-19         0.00000E+00
    0.31588E-07        -0.16764E-19         0.00000E+00
    0.31140E-07        -0.18626E-19         0.00000E+00
    0.30713E-07        -0.46357E-20         0.00000E+00
    0.30308E-07         0.25952E-20         0.00000E+00
    0.29924E-07        -0.10660E-19         0.00000E+00
    0.29562E-07        -0.24214E-19         0.00000E+00
    0.29223E-07         0.93132E-20         0.00000E+00
    0.28906E-07        -0.48429E-19         0.00000E+00
    0.28613E-07        -0.48429E-19         0.00000E+00
    0.28342E-07        -0.35919E-19         0.00000E+00
    0.28094E-07        -0.16364E-19         0.00000E+00
    0.27870E-07        -0.27009E-19         0.00000E+00
    0.27669E-07        -0.29802E-19         0.00000E+00
    0.27492E-07        -0.22352E-19         0.00000E+00
    0.27338E-07        -0.27008E-19         0.00000E+00
    0.27207E-07        -0.31665E-19         0.00000E+00
    0.27100E-07        -0.11275E-19         0.00000E+00
    0.27017E-07        -0.22352E-19         0.00000E+00
    0.26956E-07        -0.21359E-19         0.00000E+00
    0.26919E-07        -0.22352E-19         0.00000E+00
    0.26905E-07         0.18626E-20         0.00000E+00
    0.26914E-07        -0.27940E-19         0.00000E+00
    0.26946E-07         0.11176E-19         0.00000E+00
    0.27001E-07         0.14890E-19         0.00000E+00
    0.27078E-07        -0.20861E-19         0.00000E+00
    0.27177E-07        -0.29802E-19         0.00000E+00
    0.27298E-07        -0.10455E-19         0.00000E+00
    0.27441E-07        -0.22352E-19         0.00000E+00
    0.27605E-07        -0.55879E-20         0.00000E+00
    0.27790E-07        -0.14901E-19         0.00000E+00
    0.27996E-07        -0.55879E-20         0.00000E+00
    0.28222E-07         0.23910E-19         0.00000E+00
    0.28467E-07         0.13266E-19         0.00000E+00
    0.28732E-07         0.91378E-20         0.00000E+00
    0.29015E-07        -0.20489E-19         0.00000E+00
    0.29316E-07        -0.56487E-20         0.00000E+00
    0.29634E-07        -0.14901E-19         0.00000E+00
    0.29968E-07        -0.26077E-19         0.00000E+00
    0.30319E-07        -0.14901E-19         0.00000E+00
    0.30684E-07        -0.17457E-20         0.00000E+00
    0.31063E-07         0.24775E-20         0.00000E+00
    0.31455E-07         0.00000E+00         0.00000E+00
    0.31859E-07        -0.22352E-19         0.00000E+00
    0.32273E-07         0.58015E-20         0.00000E+00
    0.32696E-07        -0.74506E-20         0.00000E+00
    0.33127E-07        -0.11176E-19         0.00000E+00
    0.33564E-07        -0.21660E-19         0.00000E+00
    0.34006E-07         0.46566E-20         0.00000E+00
    0.34451E-07        -0.52541E-21         0.00000E+00
    0.34896E-07        -0.44744E-20         0.00000E+00
    0.35341E-07        -0.31045E-20         0.00000E+00
    0.35781E-07        -0.11176E-19         0.00000E+00
    0.36216E-07         0.40978E-19         0.00000E+00
    0.36643E-07         0.10281E-19         0.00000E+00
    0.37058E-07         0.10694E-19         0.00000E+00
    0.37458E-07        -0.29421E-20         0.00000E+00
    0.37841E-07         0.17092E-19         0.00000E+00
    0.38203E-07         0.53806E-20         0.00000E+00
    0.38540E-07         0.25146E-19         0.00000E+00
    0.38848E-07         0.29802E-19         0.00000E+00
    0.39122E-07         0.13950E-19         0.00000E+00
    0.39359E-07         0.16764E-19         0.00000E+00
    0.39552E-07         0.74506E-20         0.00000E+00
    0.39697E-07         0.55879E-20         0.00000E+00
    0.39788E-07         0.37253E-20         0.00000E+00
    0.39820E-07         0.00000E+00         0.00000E+00
    0.50106E-07         0.00000E+00         0.00000E+00
    0.50062E-07         0.26077E-19         0.00000E+00
    0.49935E-07        -0.37253E-20         0.00000E+00
    0.49731E-07         0.34189E-19         0.00000E+00
    0.49459E-07         0.74506E-20         0.00000E+00
    0.49125E-07         0.26077E-19         0.00000E+00
    0.48736E-07         0.12630E-19         0.00000E+00
    0.48299E-07         0.16764E-19         0.00000E+00
    0.47818E-07        -0.55879E-20         0.00000E+00
    0.47301E-07         0.20489E-19         0.00000E+00
    0.46751E-07         0.18626E-19         0.00000E+00
    0.46172E-07         0.51980E-20         0.00000E+00
    0.45571E-07        -0.30738E-21         0.00000E+00
    0.44950E-07         0.11176E-19         0.00000E+00
    0.44313E-07         0.37253E-19         0.00000E+00
    0.43664E-07        -0.24082E-19         0.00000E+00
    0.43005E-07         0.24214E-19         0.00000E+00
    0.42341E-07         0.46566E-20         0.00000E+00
    0.41672E-07        -0.55879E-20         0.00000E+00
    0.41003E-07        -0.11176E-19         0.00000E+00
    0.40335E-07        -0.11176E-19         0.00000E+00
    0.39671E-07        -0.25146E-19         0.00000E+00
    0.39012E-07         0.55688E-20         0.00000E+00
    0.38360E-07        -0.20610E-19         0.00000E+00
    0.37717E-07         0.77086E-20         0.00000E+00
    0.37085E-07         0.74506E-20         0.00000E+00
    0.36464E-07         0.22352E-19         0.00000E+00
    0.35856E-07         0.74506E-20         0.00000E+00
    0.35263E-07         0.14901E-19         0.00000E+00
    0.34685E-07         0.13970E-19         0.00000E+00
    0.34123E-07         0.16555E-19         0.00000E+00
    0.33579E-07         0.24214E-19         0.00000E+00
    0.33052E-07        -0.11176E-19         0.00000E+00
    0.32545E-07         0.18626E-20         0.00000E+00
    0.32056E-07        -0.93132E-20         0.00000E+00
    0.31588E-07        -0.26077E-19         0.00000E+00
    0.31140E-07        -0.26077E-19         0.00000E+00
    0.30713E-07        -0.55879E-20         0.00000E+00
    0.30308E-07         0.55879E-20         0.00000E+00
    0.29924E-07        -0.16764E-19         0.00000E+00
    0.29562E-07        -0.27940E-19         0.00000E+00
    0.29223E-07         0.27940E-20         0.00000E+00
    0.28906E-07        -0.20489E-19         0.00000E+00
    0.28613E-07        -0.43166E-19         0.00000E+00
    0.28342E-07        -0.37253E-19         0.00000E+00
    0.28094E-07        -0.13970E-19         0.00000E+00
    0.27870E-07        -0.26077E-19         0.00000E+00
    0.27669E-07        -0.31864E-19         0.00000E+00
    0.27492E-07        -0.25146E-19         0.00000E+00
    0.27338E-07        -0.33864E-20         0.00000E+00
    0.27207E-07        -0.35390E-19         0.00000E+00
    0.27100E-07         0.11176E-19         0.00000E+00
    0.27017E-07        -0.16764E-19         0.00000E+00
    0.26956E-07        -0.44703E-19         0.00000E+00
    0.26919E-07        -0.27940E-19         0.00000E+00
    0.26905E-07        -0.26077E-19         0.00000E+00
    0.26914E-07        -0.31665E-19         0.00000E+00
    0.26946E-07         0.37253E-20         0.00000E+00
    0.27001E-07         0.11187E-19         0.00000E+00
    0.27078E-07         0.12479E-19         0.00000E+00
    0.27177E-07        -0.31490E-19         0.00000E+00
    0.27298E-07        -0.18626E-19         0.00000E+00
    0.27441E-07        -0.22352E-19         0.00000E+00
    0.27605E-07        -0.16764E-19         0.00000E+00
    0.27790E-07        -0.55879E-20         0.00000E+00
    0.27996E-07        -0.74506E-20         0.00000E+00
    0.28222E-07         0.13039E-19         0.00000E+00
    0.28467E-07         0.37253E-20         0.00000E+00
    0.28732E-07         0.10420E-19         0.00000E+00
    0.29015E-07        -0.12107E-19         0.00000E+00
    0.29316E-07        -0.37253E-20         0.00000E+00
    0.29634E-07        -0.14901E-19         0.00000E+00
    0.29968E-07        -0.26077E-19         0.00000E+00
    0.30319E-07         0.26077E-19         0.00000E+00
    0.30684E-07         0.55879E-20         0.00000E+00
    0.31063E-07         0.93132E-21         0.00000E+00
    0.31455E-07         0.14901E-19         0.00000E+00
    0.31859E-07        -0.27940E-19         0.00000E+00
    0.32273E-07        -0.93132E-21         0.00000E+00
    0.32696E-07         0.65193E-20         0.00000E+00
    0.33127E-07        -0.18626E-19         0.00000E+00
    0.33564E-07         0.74506E-20         0.00000E+00
    0.34006E-07        -0.95306E-20         0.00000E+00
    0.34451E-07         0.67820E-20         0.00000E+00
    0.34896E-07        -0.10427E-19         0.00000E+00
    0.35341E-07         0.11176E-19         0.00000E+00
    0.35781E-07        -0.91915E-20         0.00000E+00
    0.36216E-07         0.15285E-19         0.00000E+00
    0.36643E-07         0.18626E-19         0.00000E+00
    0.37058E-07         0.17695E-19         0.00000E+00
    0.37458E-07         0.23283E-19         0.00000E+00
    0.37841E-07         0.43289E-20         0.00000E+00
    0.38203E-07         0.20696E-19         0.00000E+00
    0.38540E-07         0.11149E-20         0.00000E+00
    0.38848E-07         0.22921E-19         0.00000E+00
    0.39122E-07         0.37253E-20         0.00000E+00
    0.39359E-07         0.14901E-19         0.00000E+00
    0.39552E-07         0.19558E-19         0.00000E+00
    0.39697E-07         0.15111E-19         0.00000E+00
    0.39788E-07         0.14901E-19         0.00000E+00
    0.39820E-07         0.00000E+00         0.00000E+00
    0.50106E-07         0.00000E+00         0.00000E+00
    0.50062E-07         0.00000E+00         0.00000E+00
    0.49935E-07         0.14901E-19         0.00000E+00
    0.49731E-07         0.55218E-19         0.00000E+00
    0.49459E-07         0.55879E-19         0.00000E+00
    0.49125E-07         0.45204E-21         0.00000E+00
    0.48736E-07         0.97215E-20         0.00000E+00
    0.48299E-07         0.27940E-20         0.00000E+00
    0.47818E-07         0.27940E-19         0.00000E+00
    0.47301E-07        -0.13039E-19         0.00000E+00
    0.46751E-07        -0.11634E-19         0.00000E+00
    0.46172E-07         0.23673E-19         0.00000E+00
    0.45571E-07         0.10552E-19         0.00000E+00
    0.44950E-07         0.14901E-19         0.00000E+00
    0.44313E-07         0.33528E-19         0.00000E+00
    0.43664E-07        -0.27940E-19         0.00000E+00
    0.43005E-07         0.18626E-19         0.00000E+00
    0.42341E-07        -0.14148E-19         0.00000E+00
    0.41672E-07        -0.14901E-19         0.00000E+00
    0.41003E-07        -0.18626E-20         0.00000E+00
    0.40335E-07        -0.25771E-19         0.00000E+00
    0.39671E-07        -0.11337E-19         0.00000E+00
    0.39012E-07         0.18646E-19         0.00000E+00
    0.38360E-07        -0.16643E-19         0.00000E+00
    0.37717E-07        -0.26335E-19         0.00000E+00
    0.37085E-07         0.15832E-19         0.00000E+00
    0.36464E-07         0.24214E-19         0.00000E+00
    0.35856E-07         0.74506E-20         0.00000E+00
    0.35263E-07         0.20489E-19         0.00000E+00
    0.34685E-07         0.30694E-19         0.00000E+00
    0.34123E-07        -0.93132E-20         0.00000E+00
    0.33579E-07         0.22352E-19         0.00000E+00
    0.33052E-07         0.37253E-20         0.00000E+00
    0.32545E-07        -0.21421E-19         0.00000E+00
    0.32056E-07        -0.76826E-20         0.00000E+00
    0.31588E-07        -0.47497E-19         0.00000E+00
    0.31140E-07        -0.13970E-19         0.00000E+00
    0.30713E-07         0.55670E-20         0.00000E+00
    0.30308E-07        -0.74506E-20         0.00000E+00
    0.29924E-07        -0.14901E-19         0.00000E+00
    0.29562E-07        -0.10874E-19         0.00000E+00
    0.29223E-07        -0.94038E-20         0.00000E+00
    0.28906E-07        -0.93132E-20         0.00000E+00
    0.28613E-07        -0.25752E-19         0.00000E+00
    0.28342E-07        -0.45635E-19         0.00000E+00
    0.28094E-07        -0.16964E-19         0.00000E+00
    0.27870E-07        -0.14902E-19         0.00000E+00
    0.27669E-07        -0.27740E-19         0.00000E+00
    0.27492E-07        -0.22213E-19         0.00000E+00
    0.27338E-07         0.24551E-20         0.00000E+00
    0.27207E-07        -0.26077E-19         0.00000E+00
    0.27100E-07         0.88168E-21         0.00000E+00
    0.27017E-07        -0.93132E-20         0.00000E+00
    0.26956E-07        -0.11176E-19         0.00000E+00
    0.26919E-07        -0.50291E-19         0.00000E+00
    0.26905E-07        -0.18626E-19         0.00000E+00
    0.26914E-07        -0.29802E-19         0.00000E+00
    0.26946E-07         0.13432E-19         0.00000E+00
    0.27001E-07        -0.23294E-19         0.00000E+00
    0.27078E-07         0.19558E-19         0.00000E+00
    0.27177E-07        -0.17695E-19         0.00000E+00
    0.27298E-07        -0.42841E-19         0.00000E+00
    0.27441E-07        -0.24214E-19         0.00000E+00
    0.27605E-07        -0.27940E-19         0.00000E+00
    0.27790E-07         0.18626E-20         0.00000E+00
    0.27996E-07        -0.13039E-19         0.00000E+00
    0.28222E-07         0.21673E-20         0.00000E+00
    0.28467E-07         0.00000E+00         0.00000E+00
    0.28732E-07         0.15832E-19         0.00000E+00
    0.29015E-07         0.31435E-20         0.00000E+00
    0.29316E-07        -0.14901E-19         0.00000E+00
    0.29634E-07        -0.13039E-19         0.00000E+00
    0.29968E-07        -0.20489E-19         0.00000E+00
    0.30319E-07         0.29802E-19         0.00000E+00
    0.30684E-07         0.55879E-20         0.00000E+00
    0.31063E-07        -0.61489E-21         0.00000E+00
    0.31455E-07         0.18626E-19         0.00000E+00
    0.31859E-07        -0.24214E-19         0.00000E+00
    0.32273E-07        -0.18840E-19         0.00000E+00
    0.32696E-07         0.14659E-19         0.00000E+00
    0.33127E-07        -0.11176E-19         0.00000E+00
    0.33564E-07         0.19558E-19         0.00000E+00
    0.34006E-07        -0.18409E-19         0.00000E+00
    0.34451E-07         0.14901E-19         0.00000E+00
    0.34896E-07        -0.55879E-20         0.00000E+00
    0.35341E-07        -0.93132E-21         0.00000E+00
    0.35781E-07        -0.38470E-20         0.00000E+00
    0.36216E-07         0.52043E-20         0.00000E+00
    0.36643E-07         0.25146E-19         0.00000E+00
    0.37058E-07         0.28421E-19         0.00000E+00
    0.37458E-07         0.26151E-19         0.00000E+00
    0.37841E-07        -0.11779E-19         0.00000E+00
    0.38203E-07         0.27732E-19         0.00000E+00
    0.38540E-07         0.10245E-19         0.00000E+00
    0.38848E-07         0.50184E-20         0.00000E+00
    0.39122E-07        -0.37253E-20         0.00000E+00
    0.39359E-07         0.11038E-19         0.00000E+00
    0.39552E-07         0.35229E-19         0.00000E+00
    0.39697E-07         0.31456E-19         0.00000E+00
    0.39788E-07        -0.37253E-20         0.00000E+00
    0.39820E-07         0.18626E-20         0.00000E+00
    0.50106E-07         0.00000E+00         0.00000E+00
    0.50062E-07        -0.74506E-20         0.00000E+00
    0.49935E-07         0.37253E-19         0.00000E+00
    0.49731E-07         0.37253E-19         0.00000E+00
    0.49459E-07         0.70781E-19         0.00000E+00
    0.49125E-07         0.14901E-19         0.00000E+00
    0.48736E-07         0.40978E-19         0.00000E+00
    0.48299E-07        -0.53862E-20         0.00000E+00
    0.47818E-07         0.27008E-19         0.00000E+00
    0.47301E-07        -0.26450E-19         0.00000E+00
    0.46751E-07        -0.37253E-20         0.00000E+00
    0.46172E-07         0.23283E-19         0.00000E+00
    0.45571E-07         0.23283E-19         0.00000E+00
    0.44950E-07         0.14901E-19         0.00000E+00
    0.44313E-07         0.90223E-20         0.00000E+00
    0.43664E-07         0.11043E-19         0.00000E+00
    0.43005E-07         0.10245E-19         0.00000E+00
    0.42341E-07        -0.17695E-19         0.00000E+00
    0.41672E-07        -0.16162E-19         0.00000E+00
    0.41003E-07         0.13039E-19         0.00000E+00
    0.40335E-07        -0.24214E-19         0.00000E+00
    0.39671E-07         0.10926E-20         0.00000E+00
    0.39012E-07         0.37253E-20         0.00000E+00
    0.38360E-07        -0.16884E-19         0.00000E+00
    0.37717E-07        -0.48429E-19         0.00000E+00
    0.37085E-07         0.16371E-19         0.00000E+00
    0.36464E-07         0.11176E-19         0.00000E+00
    0.35856E-07         0.19940E-19         0.00000E+00
    0.35263E-07         0.22059E-19         0.00000E+00
    0.34685E-07         0.11176E-19         0.00000E+00
    0.34123E-07        -0.10967E-19         0.00000E+00
    0.33579E-07        -0.24214E-19         0.00000E+00
    0.33052E-07         0.21420E-19         0.00000E+00
    0.32545E-07        -0.38183E-19         0.00000E+00
    0.32056E-07        -0.11176E-19         0.00000E+00
    0.31588E-07        -0.64723E-19         0.00000E+00
    0.31140E-07         0.39690E-20         0.00000E+00
    0.30713E-07        -0.18626E-20         0.00000E+00
    0.30308E-07         0.74506E-20         0.00000E+00
    0.29924E-07        -0.16764E-19         0.00000E+00
    0.29562E-07         0.14901E-19         0.00000E+00
    0.29223E-07        -0.19467E-19         0.00000E+00
    0.28906E-07        -0.38435E-20         0.00000E+00
    0.28613E-07        -0.31665E-19         0.00000E+00
    0.28342E-07        -0.30205E-19         0.00000E+00
    0.28094E-07        -0.47697E-19         0.00000E+00
    0.27870E-07        -0.12107E-19         0.00000E+00
    0.27669E-07        -0.27940E-19         0.00000E+00
    0.27492E-07        -0.12245E-19         0.00000E+00
    0.27338E-07        -0.74506E-20         0.00000E+00
    0.27207E-07        -0.18626E-20         0.00000E+00
    0.27100E-07        -0.32547E-19         0.00000E+00
    0.27017E-07        -0.55879E-20         0.00000E+00
    0.26956E-07         0.55879E-20         0.00000E+00
    0.26919E-07        -0.50291E-19         0.00000E+00
    0.26905E-07         0.00000E+00         0.00000E+00
    0.26914E-07        -0.26077E-19         0.00000E+00
    0.26946E-07         0.20489E-19         0.00000E+00
    0.27001E-07        -0.26997E-19         0.00000E+00
    0.27078E-07        -0.15273E-19         0.00000E+00
    0.27177E-07         0.11932E-19         0.00000E+00
    0.27298E-07        -0.56811E-19         0.00000E+00
    0.27441E-07        -0.11176E-19         0.00000E+00
    0.27605E-07        -0.39116E-19         0.00000E+00
    0.27790E-07         0.18626E-20         0.00000E+00
    0.27996E-07        -0.13039E-19         0.00000E+00
    0.28222E-07        -0.15206E-19         0.00000E+00
    0.28467E-07         0.11176E-19         0.00000E+00
    0.28732E-07        -0.57634E-20         0.00000E+00
    0.29015E-07        -0.74506E-20         0.00000E+00
    0.29316E-07        -0.65193E-20         0.00000E+00
    0.29634E-07        -0.16308E-19         0.00000E+00
    0.29968E-07        -0.65193E-20         0.00000E+00
    0.30319E-07         0.18626E-20         0.00000E+00
    0.30684E-07        -0.27940E-20         0.00000E+00
    0.31063E-07         0.11176E-19         0.00000E+00
    0.31455E-07         0.74506E-20         0.00000E+00
    0.31859E-07        -0.74506E-20         0.00000E+00
    0.32273E-07        -0.30520E-19         0.00000E+00
    0.32696E-07         0.58301E-20         0.00000E+00
    0.33127E-07         0.14674E-19         0.00000E+00
    0.33564E-07         0.67593E-20         0.00000E+00
    0.34006E-07        -0.13256E-19         0.00000E+00
    0.34451E-07         0.37253E-20         0.00000E+00
    0.34896E-07        -0.74506E-20         0.00000E+00
    0.35341E-07         0.77611E-20         0.00000E+00
    0.35781E-07         0.13039E-19         0.00000E+00
    0.36216E-07        -0.18626E-20         0.00000E+00
    0.36643E-07         0.26041E-19         0.00000E+00
    0.37058E-07         0.16764E-19         0.00000E+00
    0.37458E-07        -0.27199E-20         0.00000E+00
    0.37841E-07        -0.17092E-19         0.00000E+00
    0.38203E-07         0.30010E-19         0.00000E+00
    0.38540E-07         0.22168E-19         0.00000E+00
    0.38848E-07        -0.18626E-20         0.00000E+00
    0.39122E-07        -0.16764E-19         0.00000E+00
    0.39359E-07         0.20627E-19         0.00000E+00
    0.39552E-07         0.24375E-19         0.00000E+00
    0.39697E-07         0.16764E-19         0.00000E+00
    0.39788E-07        -0.74506E-20         0.00000E+00
    0.39820E-07         0.18875E-20         0.00000E+00
    0.50106E-07         0.00000E+00         0.00000E+00
    0.50062E-07        -0.10868E-19         0.00000E+00
    0.49935E-07         0.28579E-19         0.00000E+00
    0.49731E-07         0.19288E-19         0.00000E+00
    0.49459E-07         0.40482E-19         0.00000E+00
    0.49125E-07         0.44703E-19         0.00000E+00
    0.48736E-07         0.34982E-19         0.00000E+00
    0.48299E-07        -0.25347E-19         0.00000E+00
    0.47818E-07         0.34747E-19         0.00000E+00
    0.47301E-07        -0.31292E-19         0.00000E+00
    0.46751E-07         0.74506E-20         0.00000E+00
    0.46172E-07        -0.50465E-20         0.00000E+00
    0.45571E-07         0.37877E-19         0.00000E+00
    0.44950E-07        -0.27940E-19         0.00000E+00
    0.44313E-07         0.15192E-19         0.00000E+00
    0.43664E-07         0.40978E-19         0.00000E+00
    0.43005E-07         0.18865E-20         0.00000E+00
    0.42341E-07        -0.10998E-19         0.00000E+00
    0.41672E-07        -0.25748E-19         0.00000E+00
    0.41003E-07        -0.47871E-21         0.00000E+00
    0.40335E-07        -0.11176E-19         0.00000E+00
    0.39671E-07        -0.23283E-19         0.00000E+00
    0.39012E-07        -0.22371E-19         0.00000E+00
    0.38360E-07        -0.16643E-19         0.00000E+00
    0.37717E-07        -0.34672E-20         0.00000E+00
    0.37085E-07         0.31871E-20         0.00000E+00
    0.36464E-07        -0.14901E-19         0.00000E+00
    0.35856E-07         0.17313E-19         0.00000E+00
    0.35263E-07         0.33820E-19         0.00000E+00
    0.34685E-07        -0.93132E-21         0.00000E+00
    0.34123E-07        -0.14901E-19         0.00000E+00
    0.33579E-07        -0.54017E-19         0.00000E+00
    0.33052E-07         0.22114E-19         0.00000E+00
    0.32545E-07        -0.25146E-19         0.00000E+00
    0.32056E-07        -0.46334E-19         0.00000E+00
    0.31588E-07        -0.26077E-19         0.00000E+00
    0.31140E-07        -0.58317E-20         0.00000E+00
    0.30713E-07         0.18626E-20         0.00000E+00
    0.30308E-07        -0.48554E-20         0.00000E+00
    0.29924E-07        -0.93132E-20         0.00000E+00
    0.29562E-07         0.16764E-19         0.00000E+00
    0.29223E-07        -0.28845E-20         0.00000E+00
    0.28906E-07        -0.37253E-20         0.00000E+00
    0.28613E-07        -0.13039E-19         0.00000E+00
    0.28342E-07        -0.30331E-19         0.00000E+00
    0.28094E-07        -0.44703E-19         0.00000E+00
    0.27870E-07        -0.19558E-19         0.00000E+00
    0.27669E-07        -0.20489E-19         0.00000E+00
    0.27492E-07         0.37253E-20         0.00000E+00
    0.27338E-07         0.33885E-21         0.00000E+00
    0.27207E-07         0.11176E-19         0.00000E+00
    0.27100E-07        -0.39116E-19         0.00000E+00
    0.27017E-07        -0.13039E-19         0.00000E+00
    0.26956E-07        -0.28871E-19         0.00000E+00
    0.26919E-07        -0.10245E-19         0.00000E+00
    0.26905E-07        -0.16764E-19         0.00000E+00
    0.26914E-07        -0.55879E-20         0.00000E+00
    0.26946E-07        -0.93132E-20         0.00000E+00
    0.27001E-07        -0.13981E-19         0.00000E+00
    0.27078E-07        -0.22911E-19         0.00000E+00
    0.27177E-07         0.17695E-19         0.00000E+00
    0.27298E-07        -0.44493E-19         0.00000E+00
    0.27441E-07        -0.11176E-19         0.00000E+00
    0.27605E-07        -0.43772E-19         0.00000E+00
    0.27790E-07        -0.13039E-19         0.00000E+00
    0.27996E-07        -0.26077E-19         0.00000E+00
    0.28222E-07        -0.28566E-19         0.00000E+00
    0.28467E-07         0.13039E-19         0.00000E+00
    0.28732E-07        -0.32421E-19         0.00000E+00
    0.29015E-07        -0.18626E-19         0.00000E+00
    0.29316E-07        -0.45959E-20         0.00000E+00
    0.29634E-07        -0.20945E-19         0.00000E+00
    0.29968E-07        -0.27566E-20         0.00000E+00
    0.30319E-07        -0.55879E-20         0.00000E+00
    0.30684E-07        -0.81436E-21         0.00000E+00
    0.31063E-07         0.14901E-19         0.00000E+00
    0.31455E-07         0.93132E-20         0.00000E+00
    0.31859E-07        -0.18626E-20         0.00000E+00
    0.32273E-07        -0.28871E-19         0.00000E+00
    0.32696E-07        -0.30361E-20         0.00000E+00
    0.33127E-07         0.55879E-20         0.00000E+00
    0.33564E-07        -0.65193E-20         0.00000E+00
    0.34006E-07        -0.71393E-21         0.00000E+00
    0.34451E-07        -0.55879E-20         0.00000E+00
    0.34896E-07        -0.18444E-19         0.00000E+00
    0.35341E-07         0.15521E-20         0.00000E+00
    0.35781E-07         0.17695E-19         0.00000E+00
    0.36216E-07        -0.59716E-20         0.00000E+00
    0.36643E-07         0.17731E-19         0.00000E+00
    0.37058E-07        -0.48165E-21         0.00000E+00
    0.37458E-07         0.37253E-20         0.00000E+00
    0.37841E-07        -0.20161E-19         0.00000E+00
    0.38203E-07         0.29595E-19         0.00000E+00
    0.38540E-07         0.29986E-19         0.00000E+00
    0.38848E-07         0.13039E-19         0.00000E+00
    0.39122E-07        -0.65193E-20         0.00000E+00
    0.39359E-07         0.25146E-19         0.00000E+00
    0.39552E-07         0.91521E-20         0.00000E+00
    0.39697E-07         0.95226E-20         0.00000E+00
    0.39788E-07         0.14901E-19         0.00000E+00
    0.39820E-07        -0.18626E-20         0.00000E+00
    0.50106E-07         0.00000E+00         0.00000E+00
    0.50062E-07         0.34170E-20         0.00000E+00
    0.49935E-07         0.12400E-19         0.00000E+00
    0.49731E-07         0.74506E-20         0.00000E+00
    0.49459E-07         0.26573E-19         0.00000E+00
    0.49125E-07         0.14901E-19         0.00000E+00
    0.48736E-07        -0.24214E-19         0.00000E+00
    0.48299E-07        -0.20489E-19         0.00000E+00
    0.47818E-07         0.29514E-19         0.00000E+00
    0.47301E-07        -0.24588E-19         0.00000E+00
    0.46751E-07        -0.93132E-20         0.00000E+00
    0.46172E-07         0.27940E-20         0.00000E+00
    0.45571E-07         0.39116E-19         0.00000E+00
    0.44950E-07        -0.26077E-19         0.00000E+00
    0.44313E-07         0.27940E-19         0.00000E+00
    0.43664E-07         0.27940E-19         0.00000E+00
    0.43005E-07        -0.12131E-19         0.00000E+00
    0.42341E-07        -0.12285E-19         0.00000E+00
    0.41672E-07        -0.35720E-19         0.00000E+00
    0.41003E-07        -0.23736E-19         0.00000E+00
    0.40335E-07        -0.55879E-20         0.00000E+00
    0.39671E-07        -0.30895E-19         0.00000E+00
    0.39012E-07        -0.40978E-19         0.00000E+00
    0.38360E-07        -0.57085E-20         0.00000E+00
    0.37717E-07        -0.13039E-19         0.00000E+00
    0.37085E-07         0.18626E-20         0.00000E+00
    0.36464E-07        -0.16764E-19         0.00000E+00
    0.35856E-07         0.37253E-20         0.00000E+00
    0.35263E-07         0.14901E-19         0.00000E+00
    0.34685E-07         0.46964E-20         0.00000E+00
    0.34123E-07        -0.42841E-19         0.00000E+00
    0.33579E-07        -0.35390E-19         0.00000E+00
    0.33052E-07         0.30316E-20         0.00000E+00
    0.32545E-07        -0.10246E-19         0.00000E+00
    0.32056E-07        -0.57974E-19         0.00000E+00
    0.31588E-07        -0.14011E-20         0.00000E+00
    0.31140E-07        -0.34815E-20         0.00000E+00
    0.30713E-07         0.18626E-19         0.00000E+00
    0.30308E-07        -0.34260E-19         0.00000E+00
    0.29924E-07         0.37253E-20         0.00000E+00
    0.29562E-07         0.11805E-19         0.00000E+00
    0.29223E-07        -0.82913E-20         0.00000E+00
    0.28906E-07        -0.12920E-19         0.00000E+00
    0.28613E-07         0.34006E-20         0.00000E+00
    0.28342E-07        -0.42841E-19         0.00000E+00
    0.28094E-07        -0.11176E-19         0.00000E+00
    0.27870E-07        -0.11175E-19         0.00000E+00
    0.27669E-07         0.93132E-20         0.00000E+00
    0.27492E-07        -0.78471E-20         0.00000E+00
    0.27338E-07        -0.22015E-20         0.00000E+00
    0.27207E-07        -0.37253E-20         0.00000E+00
    0.27100E-07        -0.33528E-19         0.00000E+00
    0.27017E-07        -0.27940E-19         0.00000E+00
    0.26956E-07        -0.39177E-19         0.00000E+00
    0.26919E-07        -0.15410E-20         0.00000E+00
    0.26905E-07        -0.35390E-19         0.00000E+00
    0.26914E-07         0.13970E-19         0.00000E+00
    0.26946E-07        -0.14901E-19         0.00000E+00
    0.27001E-07        -0.23272E-19         0.00000E+00
    0.27078E-07         0.18626E-20         0.00000E+00
    0.27177E-07        -0.75643E-21         0.00000E+00
    0.27298E-07        -0.11386E-19         0.00000E+00
    0.27441E-07        -0.22352E-19         0.00000E+00
    0.27605E-07        -0.33473E-19         0.00000E+00
    0.27790E-07        -0.29802E-19         0.00000E+00
    0.27996E-07        -0.31573E-19         0.00000E+00
    0.28222E-07        -0.68239E-20         0.00000E+00
    0.28467E-07        -0.15832E-19         0.00000E+00
    0.28732E-07        -0.10245E-19         0.00000E+00
    0.29015E-07        -0.21770E-19         0.00000E+00
    0.29316E-07        -0.93132E-20         0.00000E+00
    0.29634E-07        -0.16308E-19         0.00000E+00
    0.29968E-07         0.65193E-20         0.00000E+00
    0.30319E-07        -0.20489E-19         0.00000E+00
    0.30684E-07         0.54710E-20         0.00000E+00
    0.31063E-07        -0.37253E-20         0.00000E+00
    0.31455E-07        -0.46566E-20         0.00000E+00
    0.31859E-07        -0.65193E-20         0.00000E+00
    0.32273E-07        -0.14183E-19         0.00000E+00
    0.32696E-07        -0.55879E-20         0.00000E+00
    0.33127E-07        -0.90856E-20         0.00000E+00
    0.33564E-07        -0.11714E-20         0.00000E+00
    0.34006E-07        -0.14187E-19         0.00000E+00
    0.34451E-07        -0.18626E-20         0.00000E+00
    0.34896E-07        -0.12289E-19         0.00000E+00
    0.35341E-07        -0.11797E-19         0.00000E+00
    0.35781E-07        -0.80960E-21         0.00000E+00
    0.36216E-07        -0.14790E-20         0.00000E+00
    0.36643E-07         0.27940E-20         0.00000E+00
    0.37058E-07        -0.51383E-20         0.00000E+00
    0.37458E-07         0.27008E-19         0.00000E+00
    0.37841E-07        -0.29802E-19         0.00000E+00
    0.38203E-07         0.34666E-19         0.00000E+00
    0.38540E-07         0.21237E-19         0.00000E+00
    0.38848E-07         0.12107E-19         0.00000E+00
    0.39122E-07         0.19577E-19         0.00000E+00
    0.39359E-07         0.39671E-21         0.00000E+00
    0.39552E-07         0.14131E-19         0.00000E+00
    0.39697E-07         0.24005E-19         0.00000E+00
    0.39788E-07         0.14901E-19         0.00000E+00
    0.39820E-07        -0.18875E-20         0.00000E+00
    0.50106E-07         0.00000E+00         0.00000E+00
    0.50062E-07         0.37253E-19         0.00000E+00
    0.49935E-07         0.31665E-19         0.00000E+00
    0.49731E-07         0.14901E-19         0.00000E+00
    0.49459E-07         0.22352E-19         0.00000E+00
    0.49125E-07         0.11176E-19         0.00000E+00
    0.48736E-07        -0.40978E-19         0.00000E+00
    0.48299E-07        -0.29802E-19         0.00000E+00
    0.47818E-07         0.93132E-20         0.00000E+00
    0.47301E-07        -0.70772E-20         0.00000E+00
    0.46751E-07        -0.16764E-19         0.00000E+00
    0.46172E-07         0.41152E-20         0.00000E+00
    0.45571E-07         0.33528E-19         0.00000E+00
    0.44950E-07         0.27940E-19         0.00000E+00
    0.44313E-07         0.20489E-19         0.00000E+00
    0.43664E-07         0.20621E-19         0.00000E+00
    0.43005E-07        -0.83819E-20         0.00000E+00
    0.42341E-07        -0.13039E-19         0.00000E+00
    0.41672E-07        -0.33958E-20         0.00000E+00
    0.41003E-07         0.00000E+00         0.00000E+00
    0.40335E-07        -0.55879E-20         0.00000E+00
    0.39671E-07        -0.18465E-19         0.00000E+00
    0.39012E-07        -0.37234E-19         0.00000E+00
    0.38360E-07        -0.82613E-20         0.00000E+00
    0.37717E-07        -0.18626E-19         0.00000E+00
    0.37085E-07        -0.74506E-20         0.00000E+00
    0.36464E-07        -0.37253E-20         0.00000E+00
    0.35856E-07         0.14901E-19         0.00000E+00
    0.35263E-07        -0.55879E-20         0.00000E+00
    0.34685E-07        -0.20529E-19         0.00000E+00
    0.34123E-07        -0.44912E-19         0.00000E+00
    0.33579E-07        -0.17695E-19         0.00000E+00
    0.33052E-07         0.93132E-21         0.00000E+00
    0.32545E-07        -0.22352E-19         0.00000E+00
    0.32056E-07        -0.26077E-19         0.00000E+00
    0.31588E-07        -0.97747E-20         0.00000E+00
    0.31140E-07         0.10932E-19         0.00000E+00
    0.30713E-07         0.37253E-20         0.00000E+00
    0.30308E-07        -0.55879E-20         0.00000E+00
    0.29924E-07         0.20489E-19         0.00000E+00
    0.29562E-07        -0.17393E-19         0.00000E+00
    0.29223E-07        -0.10219E-20         0.00000E+00
    0.28906E-07        -0.57062E-20         0.00000E+00
    0.28613E-07        -0.19558E-19         0.00000E+00
    0.28342E-07        -0.19960E-19         0.00000E+00
    0.28094E-07        -0.91132E-20         0.00000E+00
    0.27870E-07        -0.16764E-19         0.00000E+00
    0.27669E-07         0.25878E-19         0.00000E+00
    0.27492E-07        -0.18230E-19         0.00000E+00
    0.27338E-07        -0.22352E-19         0.00000E+00
    0.27207E-07        -0.18626E-19         0.00000E+00
    0.27100E-07        -0.16813E-19         0.00000E+00
    0.27017E-07        -0.40978E-19         0.00000E+00
    0.26956E-07        -0.32534E-19         0.00000E+00
    0.26919E-07        -0.16154E-19         0.00000E+00
    0.26905E-07        -0.27940E-19         0.00000E+00
    0.26914E-07         0.15057E-19         0.00000E+00
    0.26946E-07        -0.18626E-20         0.00000E+00
    0.27001E-07        -0.13970E-19         0.00000E+00
    0.27078E-07         0.65193E-20         0.00000E+00
    0.27177E-07        -0.93132E-20         0.00000E+00
    0.27298E-07        -0.20732E-20         0.00000E+00
    0.27441E-07        -0.31067E-19         0.00000E+00
    0.27605E-07        -0.84370E-20         0.00000E+00
    0.27790E-07        -0.28871E-19         0.00000E+00
    0.27996E-07        -0.28031E-19         0.00000E+00
    0.28222E-07        -0.37253E-20         0.00000E+00
    0.28467E-07        -0.18854E-19         0.00000E+00
    0.28732E-07         0.44812E-20         0.00000E+00
    0.29015E-07        -0.17346E-19         0.00000E+00
    0.29316E-07        -0.74506E-20         0.00000E+00
    0.29634E-07        -0.18626E-19         0.00000E+00
    0.29968E-07         0.18252E-20         0.00000E+00
    0.30319E-07        -0.16764E-19         0.00000E+00
    0.30684E-07        -0.12107E-19         0.00000E+00
    0.31063E-07        -0.93132E-20         0.00000E+00
    0.31455E-07        -0.16588E-19         0.00000E+00
    0.31859E-07        -0.14633E-19         0.00000E+00
    0.32273E-07        -0.27940E-20         0.00000E+00
    0.32696E-07        -0.11176E-19         0.00000E+00
    0.33127E-07        -0.83819E-20         0.00000E+00
    0.33564E-07         0.00000E+00         0.00000E+00
    0.34006E-07        -0.53705E-20         0.00000E+00
    0.34451E-07         0.37253E-20         0.00000E+00
    0.34896E-07         0.29762E-20         0.00000E+00
    0.35341E-07        -0.74506E-20         0.00000E+00
    0.35781E-07         0.00000E+00         0.00000E+00
    0.36216E-07        -0.22463E-20         0.00000E+00
    0.36643E-07        -0.18987E-20         0.00000E+00
    0.37058E-07         0.11658E-19         0.00000E+00
    0.37458E-07         0.13896E-19         0.00000E+00
    0.37841E-07        -0.37253E-20         0.00000E+00
    0.38203E-07         0.16764E-19         0.00000E+00
    0.38540E-07         0.13039E-19         0.00000E+00
    0.38848E-07         0.80201E-20         0.00000E+00
    0.39122E-07         0.15832E-19         0.00000E+00
    0.39359E-07        -0.41220E-20         0.00000E+00
    0.39552E-07         0.29802E-19         0.00000E+00
    0.39697E-07         0.24214E-19         0.00000E+00
    0.39788E-07         0.00000E+00         0.00000E+00
    0.39820E-07         0.00000E+00         0.00000E+00
    0.50106E-07         0.00000E+00         0.00000E+00
    0.50062E-07         0.13347E-19         0.00000E+00
    0.49935E-07         0.39754E-19         0.00000E+00
    0.49731E-07         0.29802E-19         0.00000E+00
    0.49459E-07        -0.49611E-21         0.00000E+00
    0.49125E-07         0.29802E-19         0.00000E+00
    0.48736E-07        -0.14901E-19         0.00000E+00
    0.48299E-07        -0.42841E-19         0.00000E+00
    0.47818E-07        -0.71626E-20         0.00000E+00
    0.47301E-07         0.40605E-19         0.00000E+00
    0.46751E-07         0.18626E-20         0.00000E+00
    0.46172E-07         0.24040E-20         0.00000E+00
    0.45571E-07         0.22352E-19         0.00000E+00
    0.44950E-07         0.46566E-19         0.00000E+00
    0.44313E-07         0.20489E-19         0.00000E+00
    0.43664E-07         0.93132E-20         0.00000E+00
    0.43005E-07         0.46805E-20         0.00000E+00
    0.42341E-07        -0.11176E-19         0.00000E+00
    0.41672E-07         0.16434E-19         0.00000E+00
    0.41003E-07         0.14901E-19         0.00000E+00
    0.40335E-07        -0.11176E-19         0.00000E+00
    0.39671E-07        -0.20489E-19         0.00000E+00
    0.39012E-07        -0.31684E-19         0.00000E+00
    0.38360E-07        -0.36563E-19         0.00000E+00
    0.37717E-07         0.14901E-19         0.00000E+00
    0.37085E-07        -0.93132E-20         0.00000E+00
    0.36464E-07        -0.11176E-19         0.00000E+00
    0.35856E-07         0.11176E-19         0.00000E+00
    0.35263E-07        -0.93132E-20         0.00000E+00
    0.34685E-07        -0.18626E-20         0.00000E+00
    0.34123E-07        -0.55879E-19         0.00000E+00
    0.33579E-07         0.23408E-20         0.00000E+00
    0.33052E-07        -0.39630E-20         0.00000E+00
    0.32545E-07        -0.18625E-19         0.00000E+00
    0.32056E-07        -0.11176E-19         0.00000E+00
    0.31588E-07        -0.10245E-19         0.00000E+00
    0.31140E-07         0.21064E-20         0.00000E+00
    0.30713E-07        -0.20489E-19         0.00000E+00
    0.30308E-07         0.14901E-19         0.00000E+00
    0.29924E-07         0.14901E-19         0.00000E+00
    0.29562E-07        -0.46566E-20         0.00000E+00
    0.29223E-07         0.14060E-19         0.00000E+00
    0.28906E-07        -0.37253E-20         0.00000E+00
    0.28613E-07        -0.32878E-19         0.00000E+00
    0.28342E-07         0.50589E-20         0.00000E+00
    0.28094E-07        -0.74506E-20         0.00000E+00
    0.27870E-07        -0.23283E-19         0.00000E+00
    0.27669E-07         0.13039E-19         0.00000E+00
    0.27492E-07         0.33287E-20         0.00000E+00
    0.27338E-07        -0.18626E-19         0.00000E+00
    0.27207E-07        -0.11176E-19         0.00000E+00
    0.27100E-07        -0.11126E-19         0.00000E+00
    0.27017E-07        -0.43287E-19         0.00000E+00
    0.26956E-07        -0.24214E-19         0.00000E+00
    0.26919E-07        -0.83819E-20         0.00000E+00
    0.26905E-07        -0.25373E-19         0.00000E+00
    0.26914E-07         0.15677E-19         0.00000E+00
    0.26946E-07        -0.55879E-20         0.00000E+00
    0.27001E-07         0.55770E-20         0.00000E+00
    0.27078E-07        -0.87542E-20         0.00000E+00
    0.27177E-07        -0.93132E-20         0.00000E+00
    0.27298E-07        -0.19347E-19         0.00000E+00
    0.27441E-07        -0.27272E-19         0.00000E+00
    0.27605E-07        -0.55879E-20         0.00000E+00
    0.27790E-07        -0.25631E-19         0.00000E+00
    0.27996E-07        -0.27008E-19         0.00000E+00
    0.28222E-07        -0.18626E-19         0.00000E+00
    0.28467E-07        -0.10949E-19         0.00000E+00
    0.28732E-07        -0.13970E-19         0.00000E+00
    0.29015E-07        -0.83819E-20         0.00000E+00
    0.29316E-07        -0.29802E-19         0.00000E+00
    0.29634E-07        -0.18626E-19         0.00000E+00
    0.29968E-07        -0.14864E-19         0.00000E+00
    0.30319E-07        -0.11176E-19         0.00000E+00
    0.30684E-07        -0.91963E-20         0.00000E+00
    0.31063E-07        -0.74506E-20         0.00000E+00
    0.31455E-07        -0.25322E-19         0.00000E+00
    0.31859E-07        -0.12375E-19         0.00000E+00
    0.32273E-07        -0.13756E-19         0.00000E+00
    0.32696E-07        -0.17695E-19         0.00000E+00
    0.33127E-07        -0.48842E-20         0.00000E+00
    0.33564E-07        -0.10245E-19         0.00000E+00
    0.34006E-07         0.63019E-20         0.00000E+00
    0.34451E-07        -0.20489E-19         0.00000E+00
    0.34896E-07         0.19558E-19         0.00000E+00
    0.35341E-07        -0.37253E-20         0.00000E+00
    0.35781E-07         0.10001E-19         0.00000E+00
    0.36216E-07        -0.12655E-19         0.00000E+00
    0.36643E-07         0.84180E-20         0.00000E+00
    0.37058E-07         0.93132E-20         0.00000E+00
    0.37458E-07         0.37253E-20         0.00000E+00
    0.37841E-07         0.21420E-19         0.00000E+00
    0.38203E-07        -0.93132E-20         0.00000E+00
    0.38540E-07         0.31665E-19         0.00000E+00
    0.38848E-07         0.93132E-20         0.00000E+00
    0.39122E-07         0.19538E-19         0.00000E+00
    0.39359E-07         0.15298E-19         0.00000E+00
    0.39552E-07         0.31665E-19         0.00000E+00
    0.39697E-07         0.93132E-20         0.00000E+00
    0.39788E-07        -0.35390E-21         0.00000E+00
    0.39820E-07         0.00000E+00         0.00000E+00
    0.50106E-07         0.00000E+00         0.00000E+00
    0.50062E-07         0.12460E-20         0.00000E+00
    0.49935E-07         0.37838E-19         0.00000E+00
    0.49731E-07         0.11176E-19         0.00000E+00
    0.49459E-07         0.17756E-19         0.00000E+00
    0.49125E-07         0.18174E-19         0.00000E+00
    0.48736E-07        -0.11176E-19         0.00000E+00
    0.48299E-07        -0.24214E-19         0.00000E+00
    0.47818E-07        -0.18271E-19         0.00000E+00
    0.47301E-07         0.65566E-19         0.00000E+00
    0.46751E-07         0.30260E-19         0.00000E+00
    0.46172E-07        -0.37253E-20         0.00000E+00
    0.45571E-07         0.21420E-19         0.00000E+00
    0.44950E-07         0.24214E-19         0.00000E+00
    0.44313E-07         0.16764E-19         0.00000E+00
    0.43664E-07        -0.55879E-20         0.00000E+00
    0.43005E-07         0.18579E-19         0.00000E+00
    0.42341E-07        -0.13039E-19         0.00000E+00
    0.41672E-07         0.23613E-19         0.00000E+00
    0.41003E-07        -0.11176E-19         0.00000E+00
    0.40335E-07         0.52822E-20         0.00000E+00
    0.39671E-07        -0.18788E-19         0.00000E+00
    0.39012E-07        -0.33528E-19         0.00000E+00
    0.38360E-07        -0.44583E-19         0.00000E+00
    0.37717E-07         0.35390E-19         0.00000E+00
    0.37085E-07        -0.23283E-19         0.00000E+00
    0.36464E-07        -0.13039E-19         0.00000E+00
    0.35856E-07        -0.18626E-20         0.00000E+00
    0.35263E-07        -0.93132E-20         0.00000E+00
    0.34685E-07         0.16804E-19         0.00000E+00
    0.34123E-07        -0.33528E-19         0.00000E+00
    0.33579E-07        -0.12107E-19         0.00000E+00
    0.33052E-07        -0.21876E-19         0.00000E+00
    0.32545E-07         0.00000E+00         0.00000E+00
    0.32056E-07        -0.18626E-19         0.00000E+00
    0.31588E-07         0.69808E-20         0.00000E+00
    0.31140E-07        -0.16076E-19         0.00000E+00
    0.30713E-07        -0.27940E-19         0.00000E+00
    0.30308E-07        -0.18626E-20         0.00000E+00
    0.29924E-07        -0.37253E-20         0.00000E+00
    0.29562E-07         0.21119E-19         0.00000E+00
    0.29223E-07         0.13879E-19         0.00000E+00
    0.28906E-07        -0.18508E-19         0.00000E+00
    0.28613E-07        -0.22676E-19         0.00000E+00
    0.28342E-07         0.13970E-19         0.00000E+00
    0.28094E-07        -0.13970E-19         0.00000E+00
    0.27870E-07        -0.83829E-20         0.00000E+00
    0.27669E-07         0.95125E-20         0.00000E+00
    0.27492E-07         0.11572E-19         0.00000E+00
    0.27338E-07        -0.10245E-19         0.00000E+00
    0.27207E-07        -0.20489E-19         0.00000E+00
    0.27100E-07        -0.13088E-19         0.00000E+00
    0.27017E-07        -0.14455E-19         0.00000E+00
    0.26956E-07        -0.14901E-19         0.00000E+00
    0.26919E-07        -0.12717E-19         0.00000E+00
    0.26905E-07        -0.17468E-19         0.00000E+00
    0.26914E-07         0.00000E+00         0.00000E+00
    0.26946E-07         0.13039E-19         0.00000E+00
    0.27001E-07        -0.26997E-19         0.00000E+00
    0.27078E-07        -0.20489E-19         0.00000E+00
    0.27177E-07        -0.17489E-21         0.00000E+00
    0.27298E-07        -0.93132E-20         0.00000E+00
    0.27441E-07        -0.31999E-19         0.00000E+00
    0.27605E-07        -0.14901E-19         0.00000E+00
    0.27790E-07        -0.26523E-19         0.00000E+00
    0.27996E-07        -0.30825E-19         0.00000E+00
    0.28222E-07        -0.29498E-19         0.00000E+00
    0.28467E-07        -0.14197E-19         0.00000E+00
    0.28732E-07        -0.33352E-19         0.00000E+00
    0.29015E-07        -0.10594E-19         0.00000E+00
    0.29316E-07        -0.33528E-19         0.00000E+00
    0.29634E-07        -0.20945E-19         0.00000E+00
    0.29968E-07        -0.74880E-20         0.00000E+00
    0.30319E-07        -0.13970E-19         0.00000E+00
    0.30684E-07         0.10128E-19         0.00000E+00
    0.31063E-07        -0.16764E-19         0.00000E+00
    0.31455E-07        -0.33528E-19         0.00000E+00
    0.31859E-07        -0.65193E-20         0.00000E+00
    0.32273E-07        -0.12107E-19         0.00000E+00
    0.32696E-07        -0.29560E-19         0.00000E+00
    0.33127E-07        -0.18626E-20         0.00000E+00
    0.33564E-07        -0.10936E-19         0.00000E+00
    0.34006E-07         0.83819E-20         0.00000E+00
    0.34451E-07        -0.27940E-19         0.00000E+00
    0.34896E-07         0.11925E-19         0.00000E+00
    0.35341E-07        -0.13970E-19         0.00000E+00
    0.35781E-07        -0.80960E-21         0.00000E+00
    0.36216E-07        -0.37253E-20         0.00000E+00
    0.36643E-07         0.12107E-19         0.00000E+00
    0.37058E-07         0.18626E-19         0.00000E+00
    0.37458E-07        -0.46566E-20         0.00000E+00
    0.37841E-07         0.20817E-19         0.00000E+00
    0.38203E-07        -0.13460E-20         0.00000E+00
    0.38540E-07         0.31665E-19         0.00000E+00
    0.38848E-07         0.11538E-19         0.00000E+00
    0.39122E-07         0.27940E-20         0.00000E+00
    0.39359E-07         0.98478E-20         0.00000E+00
    0.39552E-07         0.11176E-19         0.00000E+00
    0.39697E-07         0.74506E-20         0.00000E+00
    0.39788E-07         0.78045E-20         0.00000E+00
    0.39820E-07         0.00000E+00         0.00000E+00
    0.50106E-07         0.00000E+00         0.00000E+00
    0.50062E-07         0.22352E-19         0.00000E+00
    0.49935E-07         0.44703E-19         0.00000E+00
    0.49731E-07         0.30642E-20         0.00000E+00
    0.49459E-07        -0.74506E-20         0.00000E+00
    0.49125E-07         0.14901E-19         0.00000E+00
    0.48736E-07        -0.29394E-19         0.00000E+00
    0.48299E-07        -0.38184E-19         0.00000E+00
    0.47818E-07        -0.34459E-19         0.00000E+00
    0.47301E-07         0.24214E-19         0.00000E+00
    0.46751E-07         0.31665E-19         0.00000E+00
    0.46172E-07        -0.74506E-20         0.00000E+00
    0.45571E-07        -0.16456E-19         0.00000E+00
    0.44950E-07         0.93132E-20         0.00000E+00
    0.44313E-07         0.74506E-20         0.00000E+00
    0.43664E-07        -0.74506E-20         0.00000E+00
    0.43005E-07         0.45635E-19         0.00000E+00
    0.42341E-07         0.55879E-20         0.00000E+00
    0.41672E-07         0.22352E-19         0.00000E+00
    0.41003E-07        -0.13039E-19         0.00000E+00
    0.40335E-07         0.16764E-19         0.00000E+00
    0.39671E-07        -0.18626E-19         0.00000E+00
    0.39012E-07        -0.20489E-19         0.00000E+00
    0.38360E-07        -0.33528E-19         0.00000E+00
    0.37717E-07         0.39789E-19         0.00000E+00
    0.37085E-07        -0.24608E-19         0.00000E+00
    0.36464E-07        -0.18626E-20         0.00000E+00
    0.35856E-07        -0.22352E-19         0.00000E+00
    0.35263E-07        -0.46566E-20         0.00000E+00
    0.34685E-07        -0.37253E-20         0.00000E+00
    0.34123E-07         0.29802E-19         0.00000E+00
    0.33579E-07        -0.20967E-19         0.00000E+00
    0.33052E-07        -0.23283E-19         0.00000E+00
    0.32545E-07        -0.93132E-20         0.00000E+00
    0.32056E-07        -0.13039E-19         0.00000E+00
    0.31588E-07         0.93132E-20         0.00000E+00
    0.31140E-07         0.00000E+00         0.00000E+00
    0.30713E-07        -0.74506E-20         0.00000E+00
    0.30308E-07        -0.29802E-19         0.00000E+00
    0.29924E-07         0.22352E-19         0.00000E+00
    0.29562E-07        -0.65193E-20         0.00000E+00
    0.29223E-07         0.11266E-19         0.00000E+00
    0.28906E-07        -0.33528E-19         0.00000E+00
    0.28613E-07         0.37253E-20         0.00000E+00
    0.28342E-07         0.13568E-19         0.00000E+00
    0.28094E-07        -0.18426E-19         0.00000E+00
    0.27870E-07        -0.37248E-20         0.00000E+00
    0.27669E-07         0.12839E-19         0.00000E+00
    0.27492E-07        -0.37253E-20         0.00000E+00
    0.27338E-07        -0.16425E-19         0.00000E+00
    0.27207E-07        -0.29802E-19         0.00000E+00
    0.27100E-07        -0.12989E-19         0.00000E+00
    0.27017E-07         0.37253E-20         0.00000E+00
    0.26956E-07        -0.18626E-19         0.00000E+00
    0.26919E-07        -0.16154E-19         0.00000E+00
    0.26905E-07        -0.93132E-21         0.00000E+00
    0.26914E-07         0.65193E-20         0.00000E+00
    0.26946E-07         0.16370E-19         0.00000E+00
    0.27001E-07        -0.15832E-19         0.00000E+00
    0.27078E-07        -0.25146E-19         0.00000E+00
    0.27177E-07         0.37253E-20         0.00000E+00
    0.27298E-07        -0.46566E-20         0.00000E+00
    0.27441E-07        -0.35390E-19         0.00000E+00
    0.27605E-07        -0.13039E-19         0.00000E+00
    0.27790E-07        -0.22798E-19         0.00000E+00
    0.27996E-07        -0.14901E-19         0.00000E+00
    0.28222E-07        -0.30107E-19         0.00000E+00
    0.28467E-07        -0.14901E-19         0.00000E+00
    0.28732E-07        -0.29046E-19         0.00000E+00
    0.29015E-07        -0.33528E-19         0.00000E+00
    0.29316E-07        -0.20489E-19         0.00000E+00
    0.29634E-07        -0.16764E-19         0.00000E+00
    0.29968E-07         0.37400E-22         0.00000E+00
    0.30319E-07        -0.41113E-20         0.00000E+00
    0.30684E-07         0.13039E-19         0.00000E+00
    0.31063E-07        -0.14901E-19         0.00000E+00
    0.31455E-07        -0.41910E-19         0.00000E+00
    0.31859E-07        -0.58559E-20         0.00000E+00
    0.32273E-07        -0.13252E-19         0.00000E+00
    0.32696E-07        -0.22594E-19         0.00000E+00
    0.33127E-07         0.74506E-20         0.00000E+00
    0.33564E-07        -0.76907E-20         0.00000E+00
    0.34006E-07         0.20800E-20         0.00000E+00
    0.34451E-07        -0.37253E-20         0.00000E+00
    0.34896E-07         0.74506E-20         0.00000E+00
    0.35341E-07        -0.19868E-19         0.00000E+00
    0.35781E-07        -0.93132E-20         0.00000E+00
    0.36216E-07         0.18626E-20         0.00000E+00
    0.36643E-07         0.17659E-19         0.00000E+00
    0.37058E-07         0.14901E-19         0.00000E+00
    0.37458E-07        -0.74047E-22         0.00000E+00
    0.37841E-07         0.49324E-20         0.00000E+00
    0.38203E-07         0.12315E-19         0.00000E+00
    0.38540E-07         0.13970E-19         0.00000E+00
    0.38848E-07         0.18265E-19         0.00000E+00
    0.39122E-07        -0.37058E-20         0.00000E+00
    0.39359E-07        -0.18626E-20         0.00000E+00
    0.39552E-07         0.13039E-19         0.00000E+00
    0.39697E-07         0.10454E-19         0.00000E+00
    0.39788E-07         0.55879E-20         0.00000E+00
    0.39820E-07         0.00000E+00         0.00000E+00
    0.50106E-07         0.00000E+00         0.00000E+00
    0.50062E-07         0.22660E-19         0.00000E+00
    0.49935E-07         0.37892E-19         0.00000E+00
    0.49731E-07         0.19288E-19         0.00000E+00
    0.49459E-07        -0.30298E-19         0.00000E+00
    0.49125E-07        -0.69985E-20         0.00000E+00
    0.48736E-07        -0.30211E-19         0.00000E+00
    0.48299E-07        -0.29601E-19         0.00000E+00
    0.47818E-07         0.49446E-20         0.00000E+00
    0.47301E-07         0.11176E-19         0.00000E+00
    0.46751E-07         0.34932E-19         0.00000E+00
    0.46172E-07         0.11176E-19         0.00000E+00
    0.45571E-07        -0.18934E-19         0.00000E+00
    0.44950E-07        -0.37253E-20         0.00000E+00
    0.44313E-07         0.71596E-20         0.00000E+00
    0.43664E-07         0.73182E-20         0.00000E+00
    0.43005E-07         0.15856E-19         0.00000E+00
    0.42341E-07         0.23283E-19         0.00000E+00
    0.41672E-07        -0.14901E-19         0.00000E+00
    0.41003E-07         0.45261E-21         0.00000E+00
    0.40335E-07         0.15207E-19         0.00000E+00
    0.39671E-07        -0.11176E-19         0.00000E+00
    0.39012E-07        -0.11176E-19         0.00000E+00
    0.38360E-07        -0.13039E-19         0.00000E+00
    0.37717E-07         0.26335E-19         0.00000E+00
    0.37085E-07         0.69124E-20         0.00000E+00
    0.36464E-07        -0.18626E-20         0.00000E+00
    0.35856E-07        -0.24214E-19         0.00000E+00
    0.35263E-07        -0.28232E-19         0.00000E+00
    0.34685E-07         0.92735E-20         0.00000E+00
    0.34123E-07         0.26286E-19         0.00000E+00
    0.33579E-07         0.20036E-19         0.00000E+00
    0.33052E-07        -0.48943E-20         0.00000E+00
    0.32545E-07        -0.33529E-19         0.00000E+00
    0.32056E-07         0.13039E-19         0.00000E+00
    0.31588E-07         0.55879E-20         0.00000E+00
    0.31140E-07         0.26077E-19         0.00000E+00
    0.30713E-07         0.74506E-20         0.00000E+00
    0.30308E-07        -0.20688E-19         0.00000E+00
    0.29924E-07         0.27940E-19         0.00000E+00
    0.29562E-07        -0.26707E-19         0.00000E+00
    0.29223E-07         0.15742E-19         0.00000E+00
    0.28906E-07        -0.18626E-19         0.00000E+00
    0.28613E-07         0.18626E-20         0.00000E+00
    0.28342E-07         0.27940E-20         0.00000E+00
    0.28094E-07         0.81819E-20         0.00000E+00
    0.27870E-07         0.00000E+00         0.00000E+00
    0.27669E-07        -0.55879E-20         0.00000E+00
    0.27492E-07        -0.93132E-20         0.00000E+00
    0.27338E-07        -0.25485E-19         0.00000E+00
    0.27207E-07        -0.16764E-19         0.00000E+00
    0.27100E-07        -0.13088E-19         0.00000E+00
    0.27017E-07        -0.55879E-20         0.00000E+00
    0.26956E-07        -0.14901E-19         0.00000E+00
    0.26919E-07        -0.55879E-20         0.00000E+00
    0.26905E-07        -0.30209E-20         0.00000E+00
    0.26914E-07         0.20644E-19         0.00000E+00
    0.26946E-07        -0.14508E-19         0.00000E+00
    0.27001E-07         0.18615E-19         0.00000E+00
    0.27078E-07        -0.27567E-19         0.00000E+00
    0.27177E-07        -0.93132E-20         0.00000E+00
    0.27298E-07        -0.76611E-20         0.00000E+00
    0.27441E-07        -0.27606E-19         0.00000E+00
    0.27605E-07        -0.55879E-20         0.00000E+00
    0.27790E-07        -0.24700E-19         0.00000E+00
    0.27996E-07         0.19558E-19         0.00000E+00
    0.28222E-07        -0.55879E-20         0.00000E+00
    0.28467E-07        -0.27940E-19         0.00000E+00
    0.28732E-07        -0.65193E-20         0.00000E+00
    0.29015E-07        -0.29453E-19         0.00000E+00
    0.29316E-07        -0.23283E-19         0.00000E+00
    0.29634E-07        -0.12582E-19         0.00000E+00
    0.29968E-07        -0.28314E-20         0.00000E+00
    0.30319E-07         0.87679E-20         0.00000E+00
    0.30684E-07         0.54710E-20         0.00000E+00
    0.31063E-07        -0.26077E-19         0.00000E+00
    0.31455E-07        -0.31489E-19         0.00000E+00
    0.31859E-07        -0.25260E-20         0.00000E+00
    0.32273E-07        -0.21207E-19         0.00000E+00
    0.32696E-07        -0.10002E-19         0.00000E+00
    0.33127E-07         0.13266E-19         0.00000E+00
    0.33564E-07        -0.72105E-20         0.00000E+00
    0.34006E-07         0.16452E-20         0.00000E+00
    0.34451E-07         0.14901E-19         0.00000E+00
    0.34896E-07         0.76328E-20         0.00000E+00
    0.35341E-07        -0.16764E-19         0.00000E+00
    0.35781E-07        -0.18626E-20         0.00000E+00
    0.36216E-07        -0.16764E-19         0.00000E+00
    0.36643E-07         0.83819E-20         0.00000E+00
    0.37058E-07        -0.18626E-20         0.00000E+00
    0.37458E-07         0.84559E-20         0.00000E+00
    0.37841E-07        -0.15349E-20         0.00000E+00
    0.38203E-07         0.93132E-20         0.00000E+00
    0.38540E-07         0.10428E-19         0.00000E+00
    0.38848E-07         0.14901E-19         0.00000E+00
    0.39122E-07         0.91180E-21         0.00000E+00
    0.39359E-07         0.10245E-19         0.00000E+00
    0.39552E-07         0.11176E-19         0.00000E+00
    0.39697E-07         0.10035E-19         0.00000E+00
    0.39788E-07         0.52340E-20         0.00000E+00
    0.39820E-07        -0.18626E-20         0.00000E+00
    0.50106E-07         0.00000E+00         0.00000E+00
    0.50062E-07         0.14901E-19         0.00000E+00
    0.49935E-07         0.18626E-19         0.00000E+00
    0.49731E-07         0.67895E-20         0.00000E+00
    0.49459E-07        -0.18626E-19         0.00000E+00
    0.49125E-07        -0.29802E-19         0.00000E+00
    0.48736E-07         0.11584E-19         0.00000E+00
    0.48299E-07        -0.19760E-19         0.00000E+00
    0.47818E-07         0.48429E-19         0.00000E+00
    0.47301E-07         0.18626E-20         0.00000E+00
    0.46751E-07        -0.18626E-20         0.00000E+00
    0.46172E-07         0.30734E-19         0.00000E+00
    0.45571E-07        -0.71432E-20         0.00000E+00
    0.44950E-07         0.37253E-20         0.00000E+00
    0.44313E-07         0.58789E-20         0.00000E+00
    0.43664E-07         0.24214E-19         0.00000E+00
    0.43005E-07         0.00000E+00         0.00000E+00
    0.42341E-07         0.22530E-19         0.00000E+00
    0.41672E-07        -0.27940E-19         0.00000E+00
    0.41003E-07        -0.23153E-20         0.00000E+00
    0.40335E-07         0.93132E-20         0.00000E+00
    0.39671E-07        -0.11176E-19         0.00000E+00
    0.39012E-07        -0.11176E-19         0.00000E+00
    0.38360E-07        -0.55879E-20         0.00000E+00
    0.37717E-07         0.90552E-20         0.00000E+00
    0.37085E-07         0.20489E-19         0.00000E+00
    0.36464E-07        -0.74506E-20         0.00000E+00
    0.35856E-07        -0.10794E-19         0.00000E+00
    0.35263E-07        -0.43642E-20         0.00000E+00
    0.34685E-07        -0.92735E-20         0.00000E+00
    0.34123E-07         0.29802E-19         0.00000E+00
    0.33579E-07         0.11629E-19         0.00000E+00
    0.33052E-07         0.18626E-19         0.00000E+00
    0.32545E-07        -0.31664E-19         0.00000E+00
    0.32056E-07         0.20721E-19         0.00000E+00
    0.31588E-07        -0.60494E-20         0.00000E+00
    0.31140E-07         0.22352E-19         0.00000E+00
    0.30713E-07        -0.74296E-20         0.00000E+00
    0.30308E-07        -0.53892E-20         0.00000E+00
    0.29924E-07        -0.37253E-20         0.00000E+00
    0.29562E-07        -0.24214E-19         0.00000E+00
    0.29223E-07        -0.65193E-20         0.00000E+00
    0.28906E-07        -0.18626E-20         0.00000E+00
    0.28613E-07        -0.93132E-20         0.00000E+00
    0.28342E-07        -0.15028E-19         0.00000E+00
    0.28094E-07         0.21420E-19         0.00000E+00
    0.27870E-07        -0.93132E-20         0.00000E+00
    0.27669E-07        -0.27740E-19         0.00000E+00
    0.27492E-07        -0.15298E-19         0.00000E+00
    0.27338E-07        -0.30734E-19         0.00000E+00
    0.27207E-07        -0.11176E-19         0.00000E+00
    0.27100E-07        -0.55383E-20         0.00000E+00
    0.27017E-07        -0.16764E-19         0.00000E+00
    0.26956E-07        -0.13039E-19         0.00000E+00
    0.26919E-07        -0.93132E-21         0.00000E+00
    0.26905E-07        -0.16764E-19         0.00000E+00
    0.26914E-07         0.45012E-20         0.00000E+00
    0.26946E-07        -0.78442E-20         0.00000E+00
    0.27001E-07        -0.65083E-20         0.00000E+00
    0.27078E-07        -0.28312E-19         0.00000E+00
    0.27177E-07        -0.24214E-19         0.00000E+00
    0.27298E-07        -0.63087E-20         0.00000E+00
    0.27441E-07        -0.26411E-19         0.00000E+00
    0.27605E-07         0.37253E-20         0.00000E+00
    0.27790E-07        -0.24214E-19         0.00000E+00
    0.27996E-07         0.10336E-19         0.00000E+00
    0.28222E-07         0.27940E-20         0.00000E+00
    0.28467E-07        -0.38888E-19         0.00000E+00
    0.28732E-07         0.57634E-20         0.00000E+00
    0.29015E-07        -0.37253E-20         0.00000E+00
    0.29316E-07        -0.23344E-19         0.00000E+00
    0.29634E-07        -0.97694E-20         0.00000E+00
    0.29968E-07        -0.13039E-19         0.00000E+00
    0.30319E-07         0.74506E-20         0.00000E+00
    0.30684E-07         0.11410E-19         0.00000E+00
    0.31063E-07        -0.27940E-19         0.00000E+00
    0.31455E-07        -0.14146E-19         0.00000E+00
    0.31859E-07        -0.26077E-19         0.00000E+00
    0.32273E-07        -0.83819E-20         0.00000E+00
    0.32696E-07        -0.46566E-20         0.00000E+00
    0.33127E-07         0.14901E-19         0.00000E+00
    0.33564E-07        -0.48967E-20         0.00000E+00
    0.34006E-07         0.21638E-19         0.00000E+00
    0.34451E-07         0.13039E-19         0.00000E+00
    0.34896E-07        -0.13221E-19         0.00000E+00
    0.35341E-07        -0.10245E-19         0.00000E+00
    0.35781E-07         0.12107E-19         0.00000E+00
    0.36216E-07        -0.20489E-19         0.00000E+00
    0.36643E-07        -0.73784E-20         0.00000E+00
    0.37058E-07         0.74506E-20         0.00000E+00
    0.37458E-07        -0.83819E-20         0.00000E+00
    0.37841E-07         0.00000E+00         0.00000E+00
    0.38203E-07        -0.18626E-20         0.00000E+00
    0.38540E-07         0.00000E+00         0.00000E+00
    0.38848E-07        -0.89514E-20         0.00000E+00
    0.39122E-07        -0.10245E-19         0.00000E+00
    0.39359E-07         0.13435E-19         0.00000E+00
    0.39552E-07        -0.13039E-19         0.00000E+00
    0.39697E-07         0.16764E-19         0.00000E+00
    0.39788E-07         0.74506E-20         0.00000E+00
    0.39820E-07        -0.24885E-22         0.00000E+00
    0.50106E-07         0.00000E+00         0.00000E+00
    0.50062E-07         0.00000E+00         0.00000E+00
    0.49935E-07         0.24214E-19         0.00000E+00
    0.49731E-07        -0.14240E-19         0.00000E+00
    0.49459E-07        -0.14901E-19         0.00000E+00
    0.49125E-07        -0.18626E-19         0.00000E+00
    0.48736E-07         0.10768E-19         0.00000E+00
    0.48299E-07        -0.37253E-19         0.00000E+00
    0.47818E-07         0.37253E-20         0.00000E+00
    0.47301E-07         0.93132E-21         0.00000E+00
    0.46751E-07        -0.27008E-19         0.00000E+00
    0.46172E-07         0.22742E-19         0.00000E+00
    0.45571E-07         0.80745E-20         0.00000E+00
    0.44950E-07         0.93132E-20         0.00000E+00
    0.44313E-07         0.18626E-19         0.00000E+00
    0.43664E-07         0.11176E-19         0.00000E+00
    0.43005E-07        -0.65193E-20         0.00000E+00
    0.42341E-07         0.10998E-19         0.00000E+00
    0.41672E-07        -0.25146E-19         0.00000E+00
    0.41003E-07        -0.15832E-19         0.00000E+00
    0.40335E-07         0.83819E-20         0.00000E+00
    0.39671E-07        -0.22352E-19         0.00000E+00
    0.39012E-07        -0.65001E-20         0.00000E+00
    0.38360E-07        -0.93132E-20         0.00000E+00
    0.37717E-07        -0.25359E-20         0.00000E+00
    0.37085E-07         0.10245E-19         0.00000E+00
    0.36464E-07        -0.93132E-20         0.00000E+00
    0.35856E-07        -0.96953E-20         0.00000E+00
    0.35263E-07         0.93132E-20         0.00000E+00
    0.34685E-07        -0.22352E-19         0.00000E+00
    0.34123E-07         0.13039E-19         0.00000E+00
    0.33579E-07        -0.18626E-20         0.00000E+00
    0.33052E-07         0.18626E-19         0.00000E+00
    0.32545E-07        -0.74516E-20         0.00000E+00
    0.32056E-07        -0.20947E-20         0.00000E+00
    0.31588E-07        -0.46566E-20         0.00000E+00
    0.31140E-07        -0.55879E-20         0.00000E+00
    0.30713E-07        -0.26077E-19         0.00000E+00
    0.30308E-07        -0.74506E-20         0.00000E+00
    0.29924E-07        -0.33098E-20         0.00000E+00
    0.29562E-07        -0.21420E-19         0.00000E+00
    0.29223E-07        -0.14811E-19         0.00000E+00
    0.28906E-07        -0.18626E-19         0.00000E+00
    0.28613E-07        -0.32473E-21         0.00000E+00
    0.28342E-07        -0.87842E-20         0.00000E+00
    0.28094E-07         0.25940E-20         0.00000E+00
    0.27870E-07        -0.10245E-19         0.00000E+00
    0.27669E-07        -0.18626E-19         0.00000E+00
    0.27492E-07        -0.21955E-19         0.00000E+00
    0.27338E-07        -0.18288E-19         0.00000E+00
    0.27207E-07        -0.83819E-20         0.00000E+00
    0.27100E-07         0.12107E-19         0.00000E+00
    0.27017E-07        -0.16764E-19         0.00000E+00
    0.26956E-07         0.00000E+00         0.00000E+00
    0.26919E-07        -0.12717E-19         0.00000E+00
    0.26905E-07        -0.22352E-19         0.00000E+00
    0.26914E-07         0.18626E-20         0.00000E+00
    0.26946E-07         0.37253E-20         0.00000E+00
    0.27001E-07        -0.19558E-19         0.00000E+00
    0.27078E-07        -0.13598E-19         0.00000E+00
    0.27177E-07        -0.27940E-19         0.00000E+00
    0.27298E-07        -0.18626E-20         0.00000E+00
    0.27441E-07        -0.11176E-19         0.00000E+00
    0.27605E-07        -0.74506E-20         0.00000E+00
    0.27790E-07        -0.10245E-19         0.00000E+00
    0.27996E-07        -0.13039E-19         0.00000E+00
    0.28222E-07        -0.15528E-19         0.00000E+00
    0.28467E-07        -0.30734E-19         0.00000E+00
    0.28732E-07         0.54125E-20         0.00000E+00
    0.29015E-07         0.52384E-20         0.00000E+00
    0.29316E-07        -0.46566E-20         0.00000E+00
    0.29634E-07         0.00000E+00         0.00000E+00
    0.29968E-07        -0.12107E-19         0.00000E+00
    0.30319E-07         0.55879E-20         0.00000E+00
    0.30684E-07        -0.65193E-20         0.00000E+00
    0.31063E-07        -0.12107E-19         0.00000E+00
    0.31455E-07        -0.22352E-19         0.00000E+00
    0.31859E-07        -0.12107E-19         0.00000E+00
    0.32273E-07         0.63057E-20         0.00000E+00
    0.32696E-07        -0.42095E-20         0.00000E+00
    0.33127E-07         0.00000E+00         0.00000E+00
    0.33564E-07         0.13970E-19         0.00000E+00
    0.34006E-07         0.55879E-20         0.00000E+00
    0.34451E-07        -0.18626E-20         0.00000E+00
    0.34896E-07        -0.11176E-19         0.00000E+00
    0.35341E-07         0.11486E-19         0.00000E+00
    0.35781E-07         0.47783E-20         0.00000E+00
    0.36216E-07        -0.11176E-19         0.00000E+00
    0.36643E-07        -0.14006E-19         0.00000E+00
    0.37058E-07        -0.37253E-20         0.00000E+00
    0.37458E-07        -0.17621E-19         0.00000E+00
    0.37841E-07        -0.18626E-20         0.00000E+00
    0.38203E-07         0.46566E-20         0.00000E+00
    0.38540E-07         0.93132E-21         0.00000E+00
    0.38848E-07        -0.29802E-19         0.00000E+00
    0.39122E-07         0.56075E-20         0.00000E+00
    0.39359E-07         0.23973E-20         0.00000E+00
    0.39552E-07        -0.93132E-21         0.00000E+00
    0.39697E-07         0.67286E-20         0.00000E+00
    0.39788E-07         0.78045E-20         0.00000E+00
    0.39820E-07         0.24885E-22         0.00000E+00
    0.50106E-07         0.00000E+00         0.00000E+00
    0.50062E-07        -0.14284E-19         0.00000E+00
    0.49935E-07         0.27355E-19         0.00000E+00
    0.49731E-07        -0.29802E-19         0.00000E+00
    0.49459E-07        -0.99222E-21         0.00000E+00
    0.49125E-07        -0.83547E-20         0.00000E+00
    0.48736E-07        -0.74506E-20         0.00000E+00
    0.48299E-07        -0.33528E-19         0.00000E+00
    0.47818E-07        -0.29226E-19         0.00000E+00
    0.47301E-07         0.13785E-19         0.00000E+00
    0.46751E-07        -0.12123E-19         0.00000E+00
    0.46172E-07        -0.90103E-20         0.00000E+00
    0.45571E-07         0.37253E-19         0.00000E+00
    0.44950E-07         0.14901E-19         0.00000E+00
    0.44313E-07         0.14901E-19         0.00000E+00
    0.43664E-07        -0.37253E-20         0.00000E+00
    0.43005E-07        -0.20441E-19         0.00000E+00
    0.42341E-07        -0.52322E-20         0.00000E+00
    0.41672E-07        -0.27281E-19         0.00000E+00
    0.41003E-07        -0.25120E-19         0.00000E+00
    0.40335E-07         0.49764E-20         0.00000E+00
    0.39671E-07        -0.22352E-19         0.00000E+00
    0.39012E-07        -0.56645E-20         0.00000E+00
    0.38360E-07        -0.10935E-19         0.00000E+00
    0.37717E-07        -0.74506E-20         0.00000E+00
    0.37085E-07        -0.10763E-20         0.00000E+00
    0.36464E-07        -0.74506E-20         0.00000E+00
    0.35856E-07        -0.22352E-19         0.00000E+00
    0.35263E-07        -0.37253E-20         0.00000E+00
    0.34685E-07        -0.11176E-19         0.00000E+00
    0.34123E-07        -0.22352E-19         0.00000E+00
    0.33579E-07         0.18626E-19         0.00000E+00
    0.33052E-07        -0.47535E-21         0.00000E+00
    0.32545E-07         0.14901E-19         0.00000E+00
    0.32056E-07        -0.21888E-19         0.00000E+00
    0.31588E-07         0.13962E-19         0.00000E+00
    0.31140E-07        -0.22839E-19         0.00000E+00
    0.30713E-07        -0.22435E-19         0.00000E+00
    0.30308E-07         0.39755E-21         0.00000E+00
    0.29924E-07         0.00000E+00         0.00000E+00
    0.29562E-07        -0.21093E-19         0.00000E+00
    0.29223E-07         0.54068E-20         0.00000E+00
    0.28906E-07        -0.33291E-19         0.00000E+00
    0.28613E-07         0.64946E-21         0.00000E+00
    0.28342E-07         0.10371E-19         0.00000E+00
    0.28094E-07        -0.37253E-20         0.00000E+00
    0.27870E-07         0.18636E-20         0.00000E+00
    0.27669E-07        -0.74506E-20         0.00000E+00
    0.27492E-07        -0.22352E-19         0.00000E+00
    0.27338E-07        -0.50807E-20         0.00000E+00
    0.27207E-07        -0.13327E-19         0.00000E+00
    0.27100E-07         0.28039E-19         0.00000E+00
    0.27017E-07        -0.14901E-19         0.00000E+00
    0.26956E-07         0.22352E-19         0.00000E+00
    0.26919E-07        -0.28583E-19         0.00000E+00
    0.26905E-07        -0.14447E-19         0.00000E+00
    0.26914E-07         0.00000E+00         0.00000E+00
    0.26946E-07        -0.66634E-20         0.00000E+00
    0.27001E-07        -0.93352E-20         0.00000E+00
    0.27078E-07        -0.37253E-20         0.00000E+00
    0.27177E-07        -0.22352E-19         0.00000E+00
    0.27298E-07         0.37253E-20         0.00000E+00
    0.27441E-07         0.37253E-20         0.00000E+00
    0.27605E-07        -0.25967E-19         0.00000E+00
    0.27790E-07         0.27549E-20         0.00000E+00
    0.27996E-07        -0.18810E-19         0.00000E+00
    0.28222E-07        -0.14901E-19         0.00000E+00
    0.28467E-07        -0.20944E-19         0.00000E+00
    0.28732E-07         0.22135E-20         0.00000E+00
    0.29015E-07         0.74506E-20         0.00000E+00
    0.29316E-07         0.13160E-19         0.00000E+00
    0.29634E-07        -0.46377E-20         0.00000E+00
    0.29968E-07        -0.56627E-20         0.00000E+00
    0.30319E-07         0.15673E-19         0.00000E+00
    0.30684E-07        -0.28408E-19         0.00000E+00
    0.31063E-07        -0.19856E-19         0.00000E+00
    0.31455E-07        -0.26429E-19         0.00000E+00
    0.31859E-07         0.17300E-19         0.00000E+00
    0.32273E-07         0.74506E-20         0.00000E+00
    0.32696E-07        -0.83447E-20         0.00000E+00
    0.33127E-07        -0.26532E-19         0.00000E+00
    0.33564E-07         0.32145E-19         0.00000E+00
    0.34006E-07        -0.19061E-19         0.00000E+00
    0.34451E-07        -0.37253E-20         0.00000E+00
    0.34896E-07        -0.36441E-21         0.00000E+00
    0.35341E-07         0.24835E-19         0.00000E+00
    0.35781E-07        -0.76940E-20         0.00000E+00
    0.36216E-07         0.37253E-20         0.00000E+00
    0.36643E-07        -0.22424E-19         0.00000E+00
    0.37058E-07        -0.12075E-19         0.00000E+00
    0.37458E-07        -0.11176E-19         0.00000E+00
    0.37841E-07         0.30698E-20         0.00000E+00
    0.38203E-07         0.13453E-19         0.00000E+00
    0.38540E-07         0.12671E-19         0.00000E+00
    0.38848E-07        -0.29802E-19         0.00000E+00
    0.39122E-07         0.20450E-19         0.00000E+00
    0.39359E-07         0.37253E-20         0.00000E+00
    0.39552E-07         0.20811E-19         0.00000E+00
    0.39697E-07        -0.27002E-20         0.00000E+00
    0.39788E-07         0.11884E-19         0.00000E+00
    0.39820E-07        -0.49770E-22         0.00000E+00
CELL_DATA       5000
TENSORS stressef double 
   -0.14512E+08         0.32721E+06         0.00000E+00
    0.32721E+06        -0.27198E+08         0.00000E+00
    0.00000E+00         0.00000E+00        -0.14646E+08
 
   -0.14568E+08         0.84783E+06         0.00000E+00
    0.84783E+06        -0.27438E+08         0.00000E+00
    0.00000E+00         0.00000E+00        -0.14646E+08
 
   -0.14585E+08         0.11902E+07         0.00000E+00
    0.11902E+07        -0.27811E+08         0.00000E+00
    0.00000E+00         0.00000E+00        -0.14646E+08
 
   -0.14598E+08         0.14571E+07         0.00000E+00
    0.14571E+07        -0.28265E+08         0.00000E+00
    0.00000E+00         0.00000E+00        -0.14646E+08
 
   -0.14607E+08         0.16700E+07         0.00000E+00
    0.16700E+07        -0.28786E+08         0.00000E+00
    0.00000E+00         0.00000E+00        -0.14646E+08
 
   -0.14616E+08         0.18399E+07         0.00000E+00
    0.18399E+07        -0.29359E+08         0.00000E+00
    0.00000E+00         0.00000E+00        -0.14646E+08
 
   -0.14623E+08         0.19703E+07         0.00000E+00
    0.19703E+07        -0.29974E+08         0.00000E+00
    0.00000E+00         0.00000E+00        -0.14646E+08
 
   -0.14633E+08         0.20576E+07         0.00000E+00
    0.20576E+07        -0.30624E+08         0.00000E+00
    0.00000E+00         0.00000E+00        -0.14646E+08
 
   -0.14667E+08         0.20739E+07         0.00000E+00
    0.20739E+07        -0.31308E+08         0.00000E+00
    0.00000E+00         0.00000E+00        -0.14664E+08
 
   -0.14835E+08         0.20227E+07         0.00000E+00
    0.20227E+07        -0.31849E+08         0.00000E+00
    0.00000E+00         0.00000E+00        -0.14840E+08
 
   -0.15071E+08         0.19942E+07         0.00000E+00
    0.19942E+07        -0.32299E+08         0.00000E+00
    0.00000E+00         0.00000E+00        -0.15086E+08
 
   -0.15305E+08         0.20049E+07         0.00000E+00
    0.20049E+07        -0.32762E+08         0.00000E+00
    0.00000E+00         0.00000E+00        -0.15323E+08
 
   -0.15529E+08         0.20334E+07         0.00000E+00
    0.20334E+07        -0.33237E+08         0.00000E+00
    0.00000E+00         0.00000E+00        -0.15549E+08
 
   -0.15744E+08         0.20713E+07         0.00000E+00
    0.20713E+07        -0.33717E+08         0.00000E+00
    0.00000E+00         0.00000E+00        -0.15763E+08
 
   -0.15947E+08         0.21132E+07         0.00000E+00
    0.21132E+07        -0.34195E+08         0.00000E+00
    0.00000E+00         0.00000E+00        -0.15966E+08
 
   -0.16139E+08         0.21556E+07         0.00000E+00
    0.21556E+07        -0.34669E+08         0.00000E+00
    0.00000E+00         0.00000E+00        -0.16157E+08
 
   -0.16320E+08         0.21966E+07         0.00000E+00
    0.21966E+07        -0.35137E+08         0.00000E+00
    0.00000E+00         0.00000E+00        -0.16336E+08
 
   -0.16491E+08         0.22347E+07         0.00000E+00
    0.22347E+07        -0.35597E+08         0.00000E+00
    0.00000E+00         0.00000E+00        -0.16505E+08
 
   -0.16651E+08         0.22691E+07         0.00000E+00
    0.22691E+07        -0.36048E+08         0.00000E+00
    0.00000E+00         0.00000E+00        -0.16664E+08
 
   -0.16801E+08         0.22994E+07         0.00000E+00
    0.22994E+07        -0.36489E+08         0.00000E+00
    0.00000E+00         0.00000E+00        -0.16812E+08
 
   -0.16942E+08         0.23254E+07         0.00000E+00
    0.23254E+07        -0.36922E+08         0.00000E+00
    0.00000E+00         0.00000E+00        -0.16952E+08
 
   -0.17074E+08         0.23471E+07         0.00000E+00
    0.23471E+07        -0.37344E+08         0.00000E+00
    0.00000E+00         0.00000E+00        -0.17083E+08
 
   -0.17199E+08         0.23646E+07         0.00000E+00
    0.23646E+07        -0.37758E+08         0.00000E+00
    0.00000E+00         0.00000E+00        -0.17206E+08
 
   -0.17316E+08         0.23781E+07         0.00000E+00
    0.23781E+07        -0.38162E+08         0.00000E+00
    0.00000E+00         0.00000E+00        -0.17322E+08
 
   -0.17427E+08         0.23879E+07         0.00000E+00
    0.23879E+07        -0.38557E+08         0.00000E+00
    0.00000E+00         0.00000E+00        -0.17432E+08
 
   -0.17532E+08         0.23944E+07         0.00000E+00
    0.23944E+07        -0.38943E+08         0.00000E+00
    0.00000E+00         0.00000E+00        -0.17535E+08
 
   -0.17649E+08         0.23937E+07         0.00000E+00
    0.23937E+07        -0.39303E+08         0.00000E+00
    0.00000E+00         0.00000E+00        -0.17652E+08
 
   -0.17801E+08         0.23814E+07         0.00000E+00
    0.23814E+07        -0.39612E+08         0.00000E+00
    0.00000E+00         0.00000E+00        -0.17803E+08
 
   -0.17953E+08         0.23659E+07         0.00000E+00
    0.23659E+07        -0.39908E+08         0.00000E+00
    0.00000E+00         0.00000E+00        -0.17954E+08
 
   -0.18101E+08         0.23488E+07         0.00000E+00
    0.23488E+07        -0.40197E+08         0.00000E+00
    0.00000E+00         0.00000E+00        -0.18102E+08
 
   -0.18245E+08         0.23302E+07         0.00000E+00
    0.23302E+07        -0.40479E+08         0.00000E+00
    0.00000E+00         0.00000E+00        -0.18245E+08
 
   -0.18385E+08         0.23106E+07         0.00000E+00
    0.23106E+07        -0.40755E+08         0.00000E+00
    0.00000E+00         0.00000E+00        -0.18385E+08
 
   -0.18522E+08         0.22901E+07         0.00000E+00
    0.22901E+07        -0.41024E+08         0.00000E+00
    0.00000E+00         0.00000E+00        -0.18522E+08
 
   -0.18656E+08         0.22691E+07         0.00000E+00
    0.22691E+07        -0.41287E+08         0.00000E+00
    0.00000E+00         0.00000E+00        -0.18655E+08
 
   -0.18787E+08         0.22476E+07         0.00000E+00
    0.22476E+07        -0.41545E+08         0.00000E+00
    0.00000E+00         0.00000E+00        -0.18786E+08
 
   -0.18915E+08         0.22260E+07         0.00000E+00
    0.22260E+07        -0.41797E+08         0.00000E+00
    0.00000E+00         0.00000E+00        -0.18914E+08
 
   -0.19041E+08         0.22043E+07         0.00000E+00
    0.22043E+07        -0.42045E+08         0.00000E+00
    0.00000E+00         0.00000E+00        -0.19040E+08
 
   -0.19164E+08         0.21827E+07         0.00000E+00
    0.21827E+07        -0.42288E+08         0.00000E+00
    0.00000E+00         0.00000E+00        -0.19163E+08
 
   -0.19286E+08         0.21613E+07         0.00000E+00
    0.21613E+07        -0.42527E+08         0.00000E+00
    0.00000E+00         0.00000E+00        -0.19284E+08
 
   -0.19405E+08         0.21402E+07         0.00000E+00
    0.21402E+07        -0.42761E+08         0.00000E+00
    0.00000E+00         0.00000E+00        -0.19404E+08
 
   -0.19522E+08         0.21196E+07         0.00000E+00
    0.21196E+07        -0.42992E+08         0.00000E+00
    0.00000E+00         0.00000E+00        -0.19521E+08
 
   -0.19638E+08         0.20994E+07         0.00000E+00
    0.20994E+07        -0.43220E+08         0.00000E+00
    0.00000E+00         0.00000E+00        -0.19637E+08
 
   -0.19752E+08         0.20797E+07         0.00000E+00
    0.20797E+07        -0.43444E+08         0.00000E+00
    0.00000E+00         0.00000E+00        -0.19751E+08
 
   -0.19865E+08         0.20607E+07         0.00000E+00
    0.20607E+07        -0.43665E+08         0.00000E+00
    0.00000E+00         0.00000E+00        -0.19864E+08
 
   -0.19977E+08         0.20423E+07         0.00000E+00
    0.20423E+07        -0.43884E+08         0.00000E+00
    0.00000E+00         0.00000E+00        -0.19976E+08
 
   -0.20088E+08         0.20245E+07         0.00000E+00
    0.20245E+07        -0.44100E+08         0.00000E+00
    0.00000E+00         0.00000E+00        -0.20086E+08
 
   -0.20197E+08         0.20075E+07         0.00000E+00
    0.20075E+07        -0.44314E+08         0.00000E+00
    0.00000E+00         0.00000E+00        -0.20196E+08
 
   -0.20306E+08         0.19911E+07         0.00000E+00
    0.19911E+07        -0.44526E+08         0.00000E+00
    0.00000E+00         0.00000E+00        -0.20305E+08
 
   -0.20414E+08         0.19755E+07         0.00000E+00
    0.19755E+07        -0.44737E+08         0.00000E+00
    0.00000E+00         0.00000E+00        -0.20413E+08
 
   -0.20522E+08         0.19606E+07         0.00000E+00
    0.19606E+07        -0.44946E+08         0.00000E+00
    0.00000E+00         0.00000E+00        -0.20521E+08
 
   -0.20629E+08         0.19465E+07         0.00000E+00
    0.19465E+07        -0.45154E+08         0.00000E+00
    0.00000E+00         0.00000E+00        -0.20628E+08
 
   -0.20736E+08         0.19330E+07         0.00000E+00
    0.19330E+07        -0.45361E+08         0.00000E+00
    0.00000E+00         0.00000E+00        -0.20735E+08
 
   -0.20842E+08         0.19202E+07         0.00000E+00
    0.19202E+07        -0.45568E+08         0.00000E+00
    0.00000E+00         0.00000E+00        -0.20842E+08
 
   -0.20949E+08         0.19081E+07         0.00000E+00
    0.19081E+07        -0.45774E+08         0.00000E+00
    0.00000E+00         0.00000E+00        -0.20949E+08
 
   -0.21056E+08         0.18967E+07         0.00000E+00
    0.18967E+07        -0.45981E+08         0.00000E+00
    0.00000E+00         0.00000E+00        -0.21056E+08
 
   -0.21163E+08         0.18858E+07         0.00000E+00
    0.18858E+07        -0.46187E+08         0.00000E+00
    0.00000E+00         0.00000E+00        -0.21163E+08
 
   -0.21270E+08         0.18756E+07         0.00000E+00
    0.18756E+07        -0.46394E+08         0.00000E+00
    0.00000E+00         0.00000E+00        -0.21270E+08
 
   -0.21378E+08         0.18658E+07         0.00000E+00
    0.18658E+07        -0.46602E+08         0.00000E+00
    0.00000E+00         0.00000E+00        -0.21378E+08
 
   -0.21487E+08         0.18565E+07         0.00000E+00
    0.18565E+07        -0.46811E+08         0.00000E+00
    0.00000E+00         0.00000E+00        -0.21487E+08
 
   -0.21596E+08         0.18477E+07         0.00000E+00
    0.18477E+07        -0.47021E+08         0.00000E+00
    0.00000E+00         0.00000E+00        -0.21596E+08
 
   -0.21706E+08         0.18392E+07         0.00000E+00
    0.18392E+07        -0.47232E+08         0.00000E+00
    0.00000E+00         0.00000E+00        -0.21706E+08
 
   -0.21817E+08         0.18310E+07         0.00000E+00
    0.18310E+07        -0.47446E+08         0.00000E+00
    0.00000E+00         0.00000E+00        -0.21818E+08
 
   -0.21930E+08         0.18229E+07         0.00000E+00
    0.18229E+07        -0.47661E+08         0.00000E+00
    0.00000E+00         0.00000E+00        -0.21930E+08
 
   -0.22044E+08         0.18150E+07         0.00000E+00
    0.18150E+07        -0.47879E+08         0.00000E+00
    0.00000E+00         0.00000E+00        -0.22044E+08
 
   -0.22159E+08         0.18071E+07         0.00000E+00
    0.18071E+07        -0.48100E+08         0.00000E+00
    0.00000E+00         0.00000E+00        -0.22159E+08
 
   -0.22276E+08         0.17991E+07         0.00000E+00
    0.17991E+07        -0.48324E+08         0.00000E+00
    0.00000E+00         0.00000E+00        -0.22276E+08
 
   -0.22394E+08         0.17909E+07         0.00000E+00
    0.17909E+07        -0.48551E+08         0.00000E+00
    0.00000E+00         0.00000E+00        -0.22394E+08
 
   -0.22515E+08         0.17823E+07         0.00000E+00
    0.17823E+07        -0.48782E+08         0.00000E+00
    0.00000E+00         0.00000E+00        -0.22515E+08
 
   -0.22637E+08         0.17733E+07         0.00000E+00
    0.17733E+07        -0.49017E+08         0.00000E+00
    0.00000E+00         0.00000E+00        -0.22637E+08
 
   -0.22762E+08         0.17636E+07         0.00000E+00
    0.17636E+07        -0.49256E+08         0.00000E+00
    0.00000E+00         0.00000E+00        -0.22762E+08
 
   -0.22889E+08         0.17532E+07         0.00000E+00
    0.17532E+07        -0.49500E+08         0.00000E+00
    0.00000E+00         0.00000E+00        -0.22889E+08
 
   -0.23019E+08         0.17418E+07         0.00000E+00
    0.17418E+07        -0.49748E+08         0.00000E+00
    0.00000E+00         0.00000E+00        -0.23018E+08
 
   -0.23152E+08         0.17292E+07         0.00000E+00
    0.17292E+07        -0.50003E+08         0.00000E+00
    0.00000E+00         0.00000E+00        -0.23151E+08
 
   -0.23287E+08         0.17153E+07         0.00000E+00
    0.17153E+07        -0.50263E+08         0.00000E+00
    0.00000E+00         0.00000E+00        -0.23286E+08
 
   -0.23426E+08         0.16998E+07         0.00000E+00
    0.16998E+07        -0.50529E+08         0.00000E+00
    0.00000E+00         0.00000E+00        -0.23424E+08
 
   -0.23568E+08         0.16824E+07         0.00000E+00
    0.16824E+07        -0.50802E+08         0.00000E+00
    0.00000E+00         0.00000E+00        -0.23566E+08
 
   -0.23713E+08         0.16630E+07         0.00000E+00
    0.16630E+07        -0.51082E+08         0.00000E+00
    0.00000E+00         0.00000E+00        -0.23711E+08
 
   -0.23862E+08         0.16413E+07         0.00000E+00
    0.16413E+07        -0.51370E+08         0.00000E+00
    0.00000E+00         0.00000E+00        -0.23860E+08
 
   -0.24016E+08         0.16170E+07         0.00000E+00
    0.16170E+07        -0.51665E+08         0.00000E+00
    0.00000E+00         0.00000E+00        -0.24012E+08
 
   -0.24173E+08         0.15899E+07         0.00000E+00
    0.15899E+07        -0.51969E+08         0.00000E+00
    0.00000E+00         0.00000E+00        -0.24169E+08
 
   -0.24335E+08         0.15598E+07         0.00000E+00
    0.15598E+07        -0.52282E+08         0.00000E+00
    0.00000E+00         0.00000E+00        -0.24331E+08
 
   -0.24501E+08         0.15264E+07         0.00000E+00
    0.15264E+07        -0.52604E+08         0.00000E+00
    0.00000E+00         0.00000E+00        -0.24496E+08
 
   -0.24673E+08         0.14895E+07         0.00000E+00
    0.14895E+07        -0.52935E+08         0.00000E+00
    0.00000E+00         0.00000E+00        -0.24667E+08
 
   -0.24849E+08         0.14492E+07         0.00000E+00
    0.14492E+07        -0.53276E+08         0.00000E+00
    0.00000E+00         0.00000E+00        -0.24842E+08
 
   -0.25030E+08         0.14052E+07         0.00000E+00
    0.14052E+07        -0.53627E+08         0.00000E+00
    0.00000E+00         0.00000E+00        -0.25022E+08
 
   -0.25216E+08         0.13578E+07         0.00000E+00
    0.13578E+07        -0.53986E+08         0.00000E+00
    0.00000E+00         0.00000E+00        -0.25208E+08
 
   -0.25406E+08         0.13072E+07         0.00000E+00
    0.13072E+07        -0.54355E+08         0.00000E+00
    0.00000E+00         0.00000E+00        -0.25397E+08
 
   -0.25601E+08         0.12536E+07         0.00000E+00
    0.12536E+07        -0.54733E+08         0.00000E+00
    0.00000E+00         0.00000E+00        -0.25591E+08
 
   -0.25799E+08         0.11975E+07         0.00000E+00
    0.11975E+07        -0.55117E+08         0.00000E+00
    0.00000E+00         0.00000E+00        -0.25789E+08
 
   -0.26001E+08         0.11395E+07         0.00000E+00
    0.11395E+07        -0.55506E+08         0.00000E+00
    0.00000E+00         0.00000E+00        -0.25990E+08
 
   -0.26204E+08         0.10803E+07         0.00000E+00
    0.10803E+07        -0.55899E+08         0.00000E+00
    0.00000E+00         0.00000E+00        -0.26193E+08
 
   -0.26407E+08         0.10204E+07         0.00000E+00
    0.10204E+07        -0.56291E+08         0.00000E+00
    0.00000E+00         0.00000E+00        -0.26396E+08
 
   -0.26609E+08         0.95992E+06         0.00000E+00
    0.95992E+06        -0.56680E+08         0.00000E+00
    0.00000E+00         0.00000E+00        -0.26598E+08
 
   -0.26807E+08         0.89854E+06         0.00000E+00
    0.89854E+06        -0.57062E+08         0.00000E+00
    0.00000E+00         0.00000E+00        -0.26796E+08
 
   -0.27000E+08         0.83459E+06         0.00000E+00
    0.83459E+06        -0.57432E+08         0.00000E+00
    0.00000E+00         0.00000E+00        -0.26987E+08
 
   -0.27184E+08         0.76467E+06         0.00000E+00
    0.76467E+06        -0.57787E+08         0.00000E+00
    0.00000E+00         0.00000E+00        -0.27170E+08
 
   -0.27360E+08         0.68235E+06         0.00000E+00
    0.68235E+06        -0.58124E+08         0.00000E+00
    0.00000E+00         0.00000E+00        -0.27343E+08
 
   -0.27525E+08         0.57658E+06         0.00000E+00
    0.57658E+06        -0.58437E+08         0.00000E+00
    0.00000E+00         0.00000E+00        -0.27501E+08
 
   -0.27681E+08         0.42933E+06         0.00000E+00
    0.42933E+06        -0.58733E+08         0.00000E+00
    0.00000E+00         0.00000E+00        -0.27648E+08
 
   -0.27825E+08         0.17146E+06         0.00000E+00
    0.17146E+06        -0.58978E+08         0.00000E+00
    0.00000E+00         0.00000E+00        -0.27754E+08
 
   -0.14259E+08         0.27816E+06         0.00000E+00
    0.27816E+06        -0.27315E+08         0.00000E+00
    0.00000E+00         0.00000E+00        -0.14646E+08
 
   -0.14408E+08         0.75340E+06         0.00000E+00
    0.75340E+06        -0.27519E+08         0.00000E+00
    0.00000E+00         0.00000E+00        -0.14646E+08
 
   -0.14464E+08         0.10971E+07         0.00000E+00
    0.10971E+07        -0.27870E+08         0.00000E+00
    0.00000E+00         0.00000E+00        -0.14646E+08
 
   -0.14501E+08         0.13618E+07         0.00000E+00
    0.13618E+07        -0.28313E+08         0.00000E+00
    0.00000E+00         0.00000E+00        -0.14646E+08
 
   -0.14529E+08         0.15748E+07         0.00000E+00
    0.15748E+07        -0.28824E+08         0.00000E+00
    0.00000E+00         0.00000E+00        -0.14646E+08
 
   -0.14554E+08         0.17450E+07         0.00000E+00
    0.17450E+07        -0.29389E+08         0.00000E+00
    0.00000E+00         0.00000E+00        -0.14646E+08
 
   -0.14577E+08         0.18763E+07         0.00000E+00
    0.18763E+07        -0.29996E+08         0.00000E+00
    0.00000E+00         0.00000E+00        -0.14646E+08
 
   -0.14605E+08         0.19664E+07         0.00000E+00
    0.19664E+07        -0.30637E+08         0.00000E+00
    0.00000E+00         0.00000E+00        -0.14646E+08
 
   -0.14662E+08         0.19969E+07         0.00000E+00
    0.19969E+07        -0.31305E+08         0.00000E+00
    0.00000E+00         0.00000E+00        -0.14661E+08
 
   -0.14814E+08         0.19703E+07         0.00000E+00
    0.19703E+07        -0.31839E+08         0.00000E+00
    0.00000E+00         0.00000E+00        -0.14831E+08
 
   -0.15030E+08         0.19480E+07         0.00000E+00
    0.19480E+07        -0.32298E+08         0.00000E+00
    0.00000E+00         0.00000E+00        -0.15076E+08
 
   -0.15256E+08         0.19582E+07         0.00000E+00
    0.19582E+07        -0.32766E+08         0.00000E+00
    0.00000E+00         0.00000E+00        -0.15311E+08
 
   -0.15477E+08         0.19866E+07         0.00000E+00
    0.19866E+07        -0.33244E+08         0.00000E+00
    0.00000E+00         0.00000E+00        -0.15535E+08
 
   -0.15691E+08         0.20238E+07         0.00000E+00
    0.20238E+07        -0.33725E+08         0.00000E+00
    0.00000E+00         0.00000E+00        -0.15749E+08
 
   -0.15895E+08         0.20649E+07         0.00000E+00
    0.20649E+07        -0.34204E+08         0.00000E+00
    0.00000E+00         0.00000E+00        -0.15950E+08
 
   -0.16089E+08         0.21065E+07         0.00000E+00
    0.21065E+07        -0.34678E+08         0.00000E+00
    0.00000E+00         0.00000E+00        -0.16141E+08
 
   -0.16273E+08         0.21466E+07         0.00000E+00
    0.21466E+07        -0.35145E+08         0.00000E+00
    0.00000E+00         0.00000E+00        -0.16320E+08
 
   -0.16445E+08         0.21840E+07         0.00000E+00
    0.21840E+07        -0.35604E+08         0.00000E+00
    0.00000E+00         0.00000E+00        -0.16488E+08
 
   -0.16608E+08         0.22177E+07         0.00000E+00
    0.22177E+07        -0.36054E+08         0.00000E+00
    0.00000E+00         0.00000E+00        -0.16646E+08
 
   -0.16761E+08         0.22475E+07         0.00000E+00
    0.22475E+07        -0.36495E+08         0.00000E+00
    0.00000E+00         0.00000E+00        -0.16794E+08
 
   -0.16905E+08         0.22731E+07         0.00000E+00
    0.22731E+07        -0.36926E+08         0.00000E+00
    0.00000E+00         0.00000E+00        -0.16934E+08
 
   -0.17040E+08         0.22944E+07         0.00000E+00
    0.22944E+07        -0.37348E+08         0.00000E+00
    0.00000E+00         0.00000E+00        -0.17065E+08
 
   -0.17167E+08         0.23117E+07         0.00000E+00
    0.23117E+07        -0.37761E+08         0.00000E+00
    0.00000E+00         0.00000E+00        -0.17188E+08
 
   -0.17287E+08         0.23251E+07         0.00000E+00
    0.23251E+07        -0.38164E+08         0.00000E+00
    0.00000E+00         0.00000E+00        -0.17305E+08
 
   -0.17400E+08         0.23349E+07         0.00000E+00
    0.23349E+07        -0.38559E+08         0.00000E+00
    0.00000E+00         0.00000E+00        -0.17415E+08
 
   -0.17507E+08         0.23414E+07         0.00000E+00
    0.23414E+07        -0.38944E+08         0.00000E+00
    0.00000E+00         0.00000E+00        -0.17518E+08
 
   -0.17629E+08         0.23403E+07         0.00000E+00
    0.23403E+07        -0.39300E+08         0.00000E+00
    0.00000E+00         0.00000E+00        -0.17637E+08
 
   -0.17784E+08         0.23282E+07         0.00000E+00
    0.23282E+07        -0.39607E+08         0.00000E+00
    0.00000E+00         0.00000E+00        -0.17791E+08
 
   -0.17937E+08         0.23135E+07         0.00000E+00
    0.23135E+07        -0.39904E+08         0.00000E+00
    0.00000E+00         0.00000E+00        -0.17942E+08
 
   -0.18086E+08         0.22970E+07         0.00000E+00
    0.22970E+07        -0.40193E+08         0.00000E+00
    0.00000E+00         0.00000E+00        -0.18089E+08
 
   -0.18231E+08         0.22793E+07         0.00000E+00
    0.22793E+07        -0.40475E+08         0.00000E+00
    0.00000E+00         0.00000E+00        -0.18233E+08
 
   -0.18373E+08         0.22604E+07         0.00000E+00
    0.22604E+07        -0.40751E+08         0.00000E+00
    0.00000E+00         0.00000E+00        -0.18373E+08
 
   -0.18510E+08         0.22407E+07         0.00000E+00
    0.22407E+07        -0.41021E+08         0.00000E+00
    0.00000E+00         0.00000E+00        -0.18510E+08
 
   -0.18645E+08         0.22204E+07         0.00000E+00
    0.22204E+07        -0.41284E+08         0.00000E+00
    0.00000E+00         0.00000E+00        -0.18643E+08
 
   -0.18777E+08         0.21997E+07         0.00000E+00
    0.21997E+07        -0.41542E+08         0.00000E+00
    0.00000E+00         0.00000E+00        -0.18774E+08
 
   -0.18905E+08         0.21787E+07         0.00000E+00
    0.21787E+07        -0.41795E+08         0.00000E+00
    0.00000E+00         0.00000E+00        -0.18903E+08
 
   -0.19032E+08         0.21577E+07         0.00000E+00
    0.21577E+07        -0.42043E+08         0.00000E+00
    0.00000E+00         0.00000E+00        -0.19029E+08
 
   -0.19156E+08         0.21368E+07         0.00000E+00
    0.21368E+07        -0.42286E+08         0.00000E+00
    0.00000E+00         0.00000E+00        -0.19152E+08
 
   -0.19277E+08         0.21161E+07         0.00000E+00
    0.21161E+07        -0.42525E+08         0.00000E+00
    0.00000E+00         0.00000E+00        -0.19274E+08
 
   -0.19397E+08         0.20957E+07         0.00000E+00
    0.20957E+07        -0.42760E+08         0.00000E+00
    0.00000E+00         0.00000E+00        -0.19393E+08
 
   -0.19515E+08         0.20756E+07         0.00000E+00
    0.20756E+07        -0.42991E+08         0.00000E+00
    0.00000E+00         0.00000E+00        -0.19511E+08
 
   -0.19631E+08         0.20560E+07         0.00000E+00
    0.20560E+07        -0.43219E+08         0.00000E+00
    0.00000E+00         0.00000E+00        -0.19627E+08
 
   -0.19746E+08         0.20370E+07         0.00000E+00
    0.20370E+07        -0.43443E+08         0.00000E+00
    0.00000E+00         0.00000E+00        -0.19742E+08
 
   -0.19859E+08         0.20185E+07         0.00000E+00
    0.20185E+07        -0.43665E+08         0.00000E+00
    0.00000E+00         0.00000E+00        -0.19855E+08
 
   -0.19971E+08         0.20006E+07         0.00000E+00
    0.20006E+07        -0.43884E+08         0.00000E+00
    0.00000E+00         0.00000E+00        -0.19967E+08
 
   -0.20082E+08         0.19833E+07         0.00000E+00
    0.19833E+07        -0.44100E+08         0.00000E+00
    0.00000E+00         0.00000E+00        -0.20078E+08
 
   -0.20191E+08         0.19667E+07         0.00000E+00
    0.19667E+07        -0.44314E+08         0.00000E+00
    0.00000E+00         0.00000E+00        -0.20188E+08
 
   -0.20301E+08         0.19508E+07         0.00000E+00
    0.19508E+07        -0.44527E+08         0.00000E+00
    0.00000E+00         0.00000E+00        -0.20298E+08
 
   -0.20409E+08         0.19356E+07         0.00000E+00
    0.19356E+07        -0.44738E+08         0.00000E+00
    0.00000E+00         0.00000E+00        -0.20406E+08
 
   -0.20517E+08         0.19211E+07         0.00000E+00
    0.19211E+07        -0.44947E+08         0.00000E+00
    0.00000E+00         0.00000E+00        -0.20514E+08
 
   -0.20624E+08         0.19073E+07         0.00000E+00
    0.19073E+07        -0.45155E+08         0.00000E+00
    0.00000E+00         0.00000E+00        -0.20622E+08
 
   -0.20731E+08         0.18941E+07         0.00000E+00
    0.18941E+07        -0.45363E+08         0.00000E+00
    0.00000E+00         0.00000E+00        -0.20729E+08
 
   -0.20838E+08         0.18817E+07         0.00000E+00
    0.18817E+07        -0.45570E+08         0.00000E+00
    0.00000E+00         0.00000E+00        -0.20836E+08
 
   -0.20944E+08         0.18699E+07         0.00000E+00
    0.18699E+07        -0.45776E+08         0.00000E+00
    0.00000E+00         0.00000E+00        -0.20943E+08
 
   -0.21051E+08         0.18587E+07         0.00000E+00
    0.18587E+07        -0.45983E+08         0.00000E+00
    0.00000E+00         0.00000E+00        -0.21051E+08
 
   -0.21159E+08         0.18481E+07         0.00000E+00
    0.18481E+07        -0.46190E+08         0.00000E+00
    0.00000E+00         0.00000E+00        -0.21158E+08
 
   -0.21266E+08         0.18380E+07         0.00000E+00
    0.18380E+07        -0.46397E+08         0.00000E+00
    0.00000E+00         0.00000E+00        -0.21266E+08
 
   -0.21374E+08         0.18285E+07         0.00000E+00
    0.18285E+07        -0.46605E+08         0.00000E+00
    0.00000E+00         0.00000E+00        -0.21374E+08
 
   -0.21483E+08         0.18194E+07         0.00000E+00
    0.18194E+07        -0.46814E+08         0.00000E+00
    0.00000E+00         0.00000E+00        -0.21483E+08
 
   -0.21592E+08         0.18107E+07         0.00000E+00
    0.18107E+07        -0.47024E+08         0.00000E+00
    0.00000E+00         0.00000E+00        -0.21592E+08
 
   -0.21702E+08         0.18023E+07         0.00000E+00
    0.18023E+07        -0.47236E+08         0.00000E+00
    0.00000E+00         0.00000E+00        -0.21703E+08
 
   -0.21814E+08         0.17942E+07         0.00000E+00
    0.17942E+07        -0.47449E+08         0.00000E+00
    0.00000E+00         0.00000E+00        -0.21814E+08
 
   -0.21926E+08         0.17863E+07         0.00000E+00
    0.17863E+07        -0.47665E+08         0.00000E+00
    0.00000E+00         0.00000E+00        -0.21927E+08
 
   -0.22040E+08         0.17785E+07         0.00000E+00
    0.17785E+07        -0.47883E+08         0.00000E+00
    0.00000E+00         0.00000E+00        -0.22041E+08
 
   -0.22155E+08         0.17707E+07         0.00000E+00
    0.17707E+07        -0.48104E+08         0.00000E+00
    0.00000E+00         0.00000E+00        -0.22156E+08
 
   -0.22272E+08         0.17628E+07         0.00000E+00
    0.17628E+07        -0.48328E+08         0.00000E+00
    0.00000E+00         0.00000E+00        -0.22273E+08
 
   -0.22391E+08         0.17547E+07         0.00000E+00
    0.17547E+07        -0.48555E+08         0.00000E+00
    0.00000E+00         0.00000E+00        -0.22392E+08
 
   -0.22512E+08         0.17462E+07         0.00000E+00
    0.17462E+07        -0.48786E+08         0.00000E+00
    0.00000E+00         0.00000E+00        -0.22512E+08
 
   -0.22634E+08         0.17373E+07         0.00000E+00
    0.17373E+07        -0.49021E+08         0.00000E+00
    0.00000E+00         0.00000E+00        -0.22635E+08
 
   -0.22759E+08         0.17278E+07         0.00000E+00
    0.17278E+07        -0.49260E+08         0.00000E+00
    0.00000E+00         0.00000E+00        -0.22759E+08
 
   -0.22887E+08         0.17174E+07         0.00000E+00
    0.17174E+07        -0.49504E+08         0.00000E+00
    0.00000E+00         0.00000E+00        -0.22886E+08
 
   -0.23017E+08         0.17061E+07         0.00000E+00
    0.17061E+07        -0.49753E+08         0.00000E+00
    0.00000E+00         0.00000E+00        -0.23015E+08
 
   -0.23150E+08         0.16937E+07         0.00000E+00
    0.16937E+07        -0.50007E+08         0.00000E+00
    0.00000E+00         0.00000E+00        -0.23147E+08
 
   -0.23285E+08         0.16799E+07         0.00000E+00
    0.16799E+07        -0.50267E+08         0.00000E+00
    0.00000E+00         0.00000E+00        -0.23282E+08
 
   -0.23424E+08         0.16646E+07         0.00000E+00
    0.16646E+07        -0.50533E+08         0.00000E+00
    0.00000E+00         0.00000E+00        -0.23420E+08
 
   -0.23567E+08         0.16474E+07         0.00000E+00
    0.16474E+07        -0.50805E+08         0.00000E+00
    0.00000E+00         0.00000E+00        -0.23561E+08
 
   -0.23712E+08         0.16283E+07         0.00000E+00
    0.16283E+07        -0.51085E+08         0.00000E+00
    0.00000E+00         0.00000E+00        -0.23706E+08
 
   -0.23862E+08         0.16068E+07         0.00000E+00
    0.16068E+07        -0.51372E+08         0.00000E+00
    0.00000E+00         0.00000E+00        -0.23854E+08
 
   -0.24016E+08         0.15828E+07         0.00000E+00
    0.15828E+07        -0.51667E+08         0.00000E+00
    0.00000E+00         0.00000E+00        -0.24006E+08
 
   -0.24174E+08         0.15560E+07         0.00000E+00
    0.15560E+07        -0.51971E+08         0.00000E+00
    0.00000E+00         0.00000E+00        -0.24162E+08
 
   -0.24336E+08         0.15262E+07         0.00000E+00
    0.15262E+07        -0.52283E+08         0.00000E+00
    0.00000E+00         0.00000E+00        -0.24323E+08
 
   -0.24503E+08         0.14932E+07         0.00000E+00
    0.14932E+07        -0.52604E+08         0.00000E+00
    0.00000E+00         0.00000E+00        -0.24488E+08
 
   -0.24675E+08         0.14568E+07         0.00000E+00
    0.14568E+07        -0.52934E+08         0.00000E+00
    0.00000E+00         0.00000E+00        -0.24657E+08
 
   -0.24851E+08         0.14169E+07         0.00000E+00
    0.14169E+07        -0.53275E+08         0.00000E+00
    0.00000E+00         0.00000E+00        -0.24832E+08
 
   -0.25033E+08         0.13735E+07         0.00000E+00
    0.13735E+07        -0.53624E+08         0.00000E+00
    0.00000E+00         0.00000E+00        -0.25011E+08
 
   -0.25219E+08         0.13265E+07         0.00000E+00
    0.13265E+07        -0.53983E+08         0.00000E+00
    0.00000E+00         0.00000E+00        -0.25195E+08
 
   -0.25410E+08         0.12763E+07         0.00000E+00
    0.12763E+07        -0.54351E+08         0.00000E+00
    0.00000E+00         0.00000E+00        -0.25384E+08
 
   -0.25605E+08         0.12231E+07         0.00000E+00
    0.12231E+07        -0.54727E+08         0.00000E+00
    0.00000E+00         0.00000E+00        -0.25577E+08
 
   -0.25803E+08         0.11673E+07         0.00000E+00
    0.11673E+07        -0.55111E+08         0.00000E+00
    0.00000E+00         0.00000E+00        -0.25774E+08
 
   -0.26005E+08         0.11095E+07         0.00000E+00
    0.11095E+07        -0.55499E+08         0.00000E+00
    0.00000E+00         0.00000E+00        -0.25974E+08
 
   -0.26208E+08         0.10502E+07         0.00000E+00
    0.10502E+07        -0.55890E+08         0.00000E+00
    0.00000E+00         0.00000E+00        -0.26176E+08
 
   -0.26411E+08         0.98989E+06         0.00000E+00
    0.98989E+06        -0.56282E+08         0.00000E+00
    0.00000E+00         0.00000E+00        -0.26378E+08
 
   -0.26612E+08         0.92876E+06         0.00000E+00
    0.92876E+06        -0.56670E+08         0.00000E+00
    0.00000E+00         0.00000E+00        -0.26579E+08
 
   -0.26810E+08         0.86628E+06         0.00000E+00
    0.86628E+06        -0.57050E+08         0.00000E+00
    0.00000E+00         0.00000E+00        -0.26776E+08
 
   -0.27003E+08         0.80074E+06         0.00000E+00
    0.80074E+06        -0.57419E+08         0.00000E+00
    0.00000E+00         0.00000E+00        -0.26965E+08
 
   -0.27189E+08         0.72884E+06         0.00000E+00
    0.72884E+06        -0.57771E+08         0.00000E+00
    0.00000E+00         0.00000E+00        -0.27146E+08
 
   -0.27366E+08         0.64368E+06         0.00000E+00
    0.64368E+06        -0.58103E+08         0.00000E+00
    0.00000E+00         0.00000E+00        -0.27312E+08
 
   -0.27535E+08         0.53634E+06         0.00000E+00
    0.53634E+06        -0.58413E+08         0.00000E+00
    0.00000E+00         0.00000E+00        -0.27462E+08
 
   -0.27695E+08         0.38186E+06         0.00000E+00
    0.38186E+06        -0.58693E+08         0.00000E+00
    0.00000E+00         0.00000E+00        -0.27590E+08
 
   -0.27868E+08         0.14417E+06         0.00000E+00
    0.14417E+06        -0.58930E+08         0.00000E+00
    0.00000E+00         0.00000E+00        -0.27660E+08
 
   -0.14031E+08         0.24095E+06         0.00000E+00
    0.24095E+06        -0.27417E+08         0.00000E+00
    0.00000E+00         0.00000E+00        -0.14646E+08
 
   -0.14244E+08         0.67277E+06         0.00000E+00
    0.67277E+06        -0.27598E+08         0.00000E+00
    0.00000E+00         0.00000E+00        -0.14646E+08
 
   -0.14340E+08         0.10087E+07         0.00000E+00
    0.10087E+07        -0.27928E+08         0.00000E+00
    0.00000E+00         0.00000E+00        -0.14646E+08
 
   -0.14402E+08         0.12710E+07         0.00000E+00
    0.12710E+07        -0.28360E+08         0.00000E+00
    0.00000E+00         0.00000E+00        -0.14646E+08
 
   -0.14449E+08         0.14830E+07         0.00000E+00
    0.14830E+07        -0.28862E+08         0.00000E+00
    0.00000E+00         0.00000E+00        -0.14646E+08
 
   -0.14490E+08         0.16534E+07         0.00000E+00
    0.16534E+07        -0.29419E+08         0.00000E+00
    0.00000E+00         0.00000E+00        -0.14646E+08
 
   -0.14529E+08         0.17856E+07         0.00000E+00
    0.17856E+07        -0.30018E+08         0.00000E+00
    0.00000E+00         0.00000E+00        -0.14646E+08
 
   -0.14575E+08         0.18792E+07         0.00000E+00
    0.18792E+07        -0.30652E+08         0.00000E+00
    0.00000E+00         0.00000E+00        -0.14646E+08
 
   -0.14648E+08         0.19218E+07         0.00000E+00
    0.19218E+07        -0.31305E+08         0.00000E+00
    0.00000E+00         0.00000E+00        -0.14659E+08
 
   -0.14791E+08         0.19132E+07         0.00000E+00
    0.19132E+07        -0.31833E+08         0.00000E+00
    0.00000E+00         0.00000E+00        -0.14825E+08
 
   -0.14992E+08         0.18994E+07         0.00000E+00
    0.18994E+07        -0.32298E+08         0.00000E+00
    0.00000E+00         0.00000E+00        -0.15067E+08
 
   -0.15210E+08         0.19108E+07         0.00000E+00
    0.19108E+07        -0.32771E+08         0.00000E+00
    0.00000E+00         0.00000E+00        -0.15300E+08
 
   -0.15428E+08         0.19394E+07         0.00000E+00
    0.19394E+07        -0.33251E+08         0.00000E+00
    0.00000E+00         0.00000E+00        -0.15523E+08
 
   -0.15641E+08         0.19764E+07         0.00000E+00
    0.19764E+07        -0.33733E+08         0.00000E+00
    0.00000E+00         0.00000E+00        -0.15735E+08
 
   -0.15846E+08         0.20169E+07         0.00000E+00
    0.20169E+07        -0.34212E+08         0.00000E+00
    0.00000E+00         0.00000E+00        -0.15936E+08
 
   -0.16041E+08         0.20577E+07         0.00000E+00
    0.20577E+07        -0.34686E+08         0.00000E+00
    0.00000E+00         0.00000E+00        -0.16125E+08
 
   -0.16227E+08         0.20971E+07         0.00000E+00
    0.20971E+07        -0.35152E+08         0.00000E+00
    0.00000E+00         0.00000E+00        -0.16304E+08
 
   -0.16402E+08         0.21337E+07         0.00000E+00
    0.21337E+07        -0.35611E+08         0.00000E+00
    0.00000E+00         0.00000E+00        -0.16471E+08
 
   -0.16567E+08         0.21669E+07         0.00000E+00
    0.21669E+07        -0.36060E+08         0.00000E+00
    0.00000E+00         0.00000E+00        -0.16629E+08
 
   -0.16723E+08         0.21961E+07         0.00000E+00
    0.21961E+07        -0.36501E+08         0.00000E+00
    0.00000E+00         0.00000E+00        -0.16777E+08
 
   -0.16869E+08         0.22212E+07         0.00000E+00
    0.22212E+07        -0.36931E+08         0.00000E+00
    0.00000E+00         0.00000E+00        -0.16916E+08
 
   -0.17007E+08         0.22422E+07         0.00000E+00
    0.22422E+07        -0.37352E+08         0.00000E+00
    0.00000E+00         0.00000E+00        -0.17047E+08
 
   -0.17137E+08         0.22593E+07         0.00000E+00
    0.22593E+07        -0.37764E+08         0.00000E+00
    0.00000E+00         0.00000E+00        -0.17171E+08
 
   -0.17259E+08         0.22725E+07         0.00000E+00
    0.22725E+07        -0.38166E+08         0.00000E+00
    0.00000E+00         0.00000E+00        -0.17287E+08
 
   -0.17374E+08         0.22823E+07         0.00000E+00
    0.22823E+07        -0.38560E+08         0.00000E+00
    0.00000E+00         0.00000E+00        -0.17398E+08
 
   -0.17483E+08         0.22888E+07         0.00000E+00
    0.22888E+07        -0.38945E+08         0.00000E+00
    0.00000E+00         0.00000E+00        -0.17502E+08
 
   -0.17610E+08         0.22874E+07         0.00000E+00
    0.22874E+07        -0.39298E+08         0.00000E+00
    0.00000E+00         0.00000E+00        -0.17624E+08
 
   -0.17768E+08         0.22754E+07         0.00000E+00
    0.22754E+07        -0.39603E+08         0.00000E+00
    0.00000E+00         0.00000E+00        -0.17779E+08
 
   -0.17923E+08         0.22614E+07         0.00000E+00
    0.22614E+07        -0.39900E+08         0.00000E+00
    0.00000E+00         0.00000E+00        -0.17930E+08
 
   -0.18073E+08         0.22456E+07         0.00000E+00
    0.22456E+07        -0.40189E+08         0.00000E+00
    0.00000E+00         0.00000E+00        -0.18077E+08
 
   -0.18219E+08         0.22286E+07         0.00000E+00
    0.22286E+07        -0.40472E+08         0.00000E+00
    0.00000E+00         0.00000E+00        -0.18221E+08
 
   -0.18361E+08         0.22104E+07         0.00000E+00
    0.22104E+07        -0.40748E+08         0.00000E+00
    0.00000E+00         0.00000E+00        -0.18361E+08
 
   -0.18499E+08         0.21915E+07         0.00000E+00
    0.21915E+07        -0.41017E+08         0.00000E+00
    0.00000E+00         0.00000E+00        -0.18498E+08
 
   -0.18634E+08         0.21719E+07         0.00000E+00
    0.21719E+07        -0.41281E+08         0.00000E+00
    0.00000E+00         0.00000E+00        -0.18632E+08
 
   -0.18767E+08         0.21519E+07         0.00000E+00
    0.21519E+07        -0.41540E+08         0.00000E+00
    0.00000E+00         0.00000E+00        -0.18763E+08
 
   -0.18896E+08         0.21317E+07         0.00000E+00
    0.21317E+07        -0.41793E+08         0.00000E+00
    0.00000E+00         0.00000E+00        -0.18891E+08
 
   -0.19023E+08         0.21114E+07         0.00000E+00
    0.21114E+07        -0.42041E+08         0.00000E+00
    0.00000E+00         0.00000E+00        -0.19018E+08
 
   -0.19147E+08         0.20911E+07         0.00000E+00
    0.20911E+07        -0.42284E+08         0.00000E+00
    0.00000E+00         0.00000E+00        -0.19141E+08
 
   -0.19270E+08         0.20710E+07         0.00000E+00
    0.20710E+07        -0.42523E+08         0.00000E+00
    0.00000E+00         0.00000E+00        -0.19263E+08
 
   -0.19390E+08         0.20512E+07         0.00000E+00
    0.20512E+07        -0.42759E+08         0.00000E+00
    0.00000E+00         0.00000E+00        -0.19383E+08
 
   -0.19508E+08         0.20318E+07         0.00000E+00
    0.20318E+07        -0.42990E+08         0.00000E+00
    0.00000E+00         0.00000E+00        -0.19501E+08
 
   -0.19624E+08         0.20128E+07         0.00000E+00
    0.20128E+07        -0.43218E+08         0.00000E+00
    0.00000E+00         0.00000E+00        -0.19618E+08
 
   -0.19739E+08         0.19943E+07         0.00000E+00
    0.19943E+07        -0.43443E+08         0.00000E+00
    0.00000E+00         0.00000E+00        -0.19733E+08
 
   -0.19853E+08         0.19763E+07         0.00000E+00
    0.19763E+07        -0.43665E+08         0.00000E+00
    0.00000E+00         0.00000E+00        -0.19847E+08
 
   -0.19965E+08         0.19589E+07         0.00000E+00
    0.19589E+07        -0.43884E+08         0.00000E+00
    0.00000E+00         0.00000E+00        -0.19959E+08
 
   -0.20076E+08         0.19421E+07         0.00000E+00
    0.19421E+07        -0.44100E+08         0.00000E+00
    0.00000E+00         0.00000E+00        -0.20070E+08
 
   -0.20186E+08         0.19260E+07         0.00000E+00
    0.19260E+07        -0.44315E+08         0.00000E+00
    0.00000E+00         0.00000E+00        -0.20181E+08
 
   -0.20295E+08         0.19105E+07         0.00000E+00
    0.19105E+07        -0.44528E+08         0.00000E+00
    0.00000E+00         0.00000E+00        -0.20291E+08
 
   -0.20404E+08         0.18957E+07         0.00000E+00
    0.18957E+07        -0.44739E+08         0.00000E+00
    0.00000E+00         0.00000E+00        -0.20400E+08
 
   -0.20512E+08         0.18816E+07         0.00000E+00
    0.18816E+07        -0.44948E+08         0.00000E+00
    0.00000E+00         0.00000E+00        -0.20508E+08
 
   -0.20619E+08         0.18681E+07         0.00000E+00
    0.18681E+07        -0.45157E+08         0.00000E+00
    0.00000E+00         0.00000E+00        -0.20616E+08
 
   -0.20726E+08         0.18553E+07         0.00000E+00
    0.18553E+07        -0.45365E+08         0.00000E+00
    0.00000E+00         0.00000E+00        -0.20723E+08
 
   -0.20833E+08         0.18431E+07         0.00000E+00
    0.18431E+07        -0.45572E+08         0.00000E+00
    0.00000E+00         0.00000E+00        -0.20831E+08
 
   -0.20940E+08         0.18316E+07         0.00000E+00
    0.18316E+07        -0.45778E+08         0.00000E+00
    0.00000E+00         0.00000E+00        -0.20938E+08
 
   -0.21047E+08         0.18207E+07         0.00000E+00
    0.18207E+07        -0.45985E+08         0.00000E+00
    0.00000E+00         0.00000E+00        -0.21046E+08
 
   -0.21154E+08         0.18103E+07         0.00000E+00
    0.18103E+07        -0.46192E+08         0.00000E+00
    0.00000E+00         0.00000E+00        -0.21154E+08
 
   -0.21262E+08         0.18005E+07         0.00000E+00
    0.18005E+07        -0.46400E+08         0.00000E+00
    0.00000E+00         0.00000E+00        -0.21262E+08
 
   -0.21370E+08         0.17911E+07         0.00000E+00
    0.17911E+07        -0.46608E+08         0.00000E+00
    0.00000E+00         0.00000E+00        -0.21370E+08
 
   -0.21479E+08         0.17822E+07         0.00000E+00
    0.17822E+07        -0.46817E+08         0.00000E+00
    0.00000E+00         0.00000E+00        -0.21479E+08
 
   -0.21588E+08         0.17737E+07         0.00000E+00
    0.17737E+07        -0.47027E+08         0.00000E+00
    0.00000E+00         0.00000E+00        -0.21589E+08
 
   -0.21699E+08         0.17655E+07         0.00000E+00
    0.17655E+07        -0.47239E+08         0.00000E+00
    0.00000E+00         0.00000E+00        -0.21700E+08
 
   -0.21810E+08         0.17575E+07         0.00000E+00
    0.17575E+07        -0.47453E+08         0.00000E+00
    0.00000E+00         0.00000E+00        -0.21811E+08
 
   -0.21923E+08         0.17497E+07         0.00000E+00
    0.17497E+07        -0.47669E+08         0.00000E+00
    0.00000E+00         0.00000E+00        -0.21924E+08
 
   -0.22037E+08         0.17420E+07         0.00000E+00
    0.17420E+07        -0.47887E+08         0.00000E+00
    0.00000E+00         0.00000E+00        -0.22038E+08
 
   -0.22152E+08         0.17343E+07         0.00000E+00
    0.17343E+07        -0.48108E+08         0.00000E+00
    0.00000E+00         0.00000E+00        -0.22154E+08
 
   -0.22269E+08         0.17265E+07         0.00000E+00
    0.17265E+07        -0.48332E+08         0.00000E+00
    0.00000E+00         0.00000E+00        -0.22270E+08
 
   -0.22388E+08         0.17185E+07         0.00000E+00
    0.17185E+07        -0.48559E+08         0.00000E+00
    0.00000E+00         0.00000E+00        -0.22389E+08
 
   -0.22509E+08         0.17102E+07         0.00000E+00
    0.17102E+07        -0.48790E+08         0.00000E+00
    0.00000E+00         0.00000E+00        -0.22510E+08
 
   -0.22632E+08         0.17013E+07         0.00000E+00
    0.17013E+07        -0.49025E+08         0.00000E+00
    0.00000E+00         0.00000E+00        -0.22632E+08
 
   -0.22757E+08         0.16919E+07         0.00000E+00
    0.16919E+07        -0.49264E+08         0.00000E+00
    0.00000E+00         0.00000E+00        -0.22756E+08
 
   -0.22884E+08         0.16817E+07         0.00000E+00
    0.16817E+07        -0.49508E+08         0.00000E+00
    0.00000E+00         0.00000E+00        -0.22883E+08
 
   -0.23015E+08         0.16705E+07         0.00000E+00
    0.16705E+07        -0.49756E+08         0.00000E+00
    0.00000E+00         0.00000E+00        -0.23012E+08
 
   -0.23148E+08         0.16582E+07         0.00000E+00
    0.16582E+07        -0.50010E+08         0.00000E+00
    0.00000E+00         0.00000E+00        -0.23144E+08
 
   -0.23284E+08         0.16446E+07         0.00000E+00
    0.16446E+07        -0.50270E+08         0.00000E+00
    0.00000E+00         0.00000E+00        -0.23279E+08
 
   -0.23423E+08         0.16294E+07         0.00000E+00
    0.16294E+07        -0.50536E+08         0.00000E+00
    0.00000E+00         0.00000E+00        -0.23416E+08
 
   -0.23566E+08         0.16125E+07         0.00000E+00
    0.16125E+07        -0.50808E+08         0.00000E+00
    0.00000E+00         0.00000E+00        -0.23557E+08
 
   -0.23712E+08         0.15936E+07         0.00000E+00
    0.15936E+07        -0.51088E+08         0.00000E+00
    0.00000E+00         0.00000E+00        -0.23701E+08
 
   -0.23862E+08         0.15724E+07         0.00000E+00
    0.15724E+07        -0.51374E+08         0.00000E+00
    0.00000E+00         0.00000E+00        -0.23849E+08
 
   -0.24016E+08         0.15487E+07         0.00000E+00
    0.15487E+07        -0.51669E+08         0.00000E+00
    0.00000E+00         0.00000E+00        -0.24000E+08
 
   -0.24174E+08         0.15222E+07         0.00000E+00
    0.15222E+07        -0.51972E+08         0.00000E+00
    0.00000E+00         0.00000E+00        -0.24156E+08
 
   -0.24337E+08         0.14928E+07         0.00000E+00
    0.14928E+07        -0.52283E+08         0.00000E+00
    0.00000E+00         0.00000E+00        -0.24315E+08
 
   -0.24504E+08         0.14602E+07         0.00000E+00
    0.14602E+07        -0.52604E+08         0.00000E+00
    0.00000E+00         0.00000E+00        -0.24479E+08
 
   -0.24676E+08         0.14242E+07         0.00000E+00
    0.14242E+07        -0.52934E+08         0.00000E+00
    0.00000E+00         0.00000E+00        -0.24648E+08
 
   -0.24853E+08         0.13847E+07         0.00000E+00
    0.13847E+07        -0.53273E+08         0.00000E+00
    0.00000E+00         0.00000E+00        -0.24821E+08
 
   -0.25035E+08         0.13417E+07         0.00000E+00
    0.13417E+07        -0.53622E+08         0.00000E+00
    0.00000E+00         0.00000E+00        -0.24999E+08
 
   -0.25222E+08         0.12952E+07         0.00000E+00
    0.12952E+07        -0.53980E+08         0.00000E+00
    0.00000E+00         0.00000E+00        -0.25182E+08
 
   -0.25413E+08         0.12454E+07         0.00000E+00
    0.12454E+07        -0.54347E+08         0.00000E+00
    0.00000E+00         0.00000E+00        -0.25370E+08
 
   -0.25608E+08         0.11926E+07         0.00000E+00
    0.11926E+07        -0.54722E+08         0.00000E+00
    0.00000E+00         0.00000E+00        -0.25562E+08
 
   -0.25807E+08         0.11370E+07         0.00000E+00
    0.11370E+07        -0.55104E+08         0.00000E+00
    0.00000E+00         0.00000E+00        -0.25758E+08
 
   -0.26009E+08         0.10793E+07         0.00000E+00
    0.10793E+07        -0.55492E+08         0.00000E+00
    0.00000E+00         0.00000E+00        -0.25957E+08
 
   -0.26212E+08         0.10199E+07         0.00000E+00
    0.10199E+07        -0.55882E+08         0.00000E+00
    0.00000E+00         0.00000E+00        -0.26159E+08
 
   -0.26415E+08         0.95924E+06         0.00000E+00
    0.95924E+06        -0.56272E+08         0.00000E+00
    0.00000E+00         0.00000E+00        -0.26360E+08
 
   -0.26616E+08         0.89743E+06         0.00000E+00
    0.89743E+06        -0.56659E+08         0.00000E+00
    0.00000E+00         0.00000E+00        -0.26560E+08
 
   -0.26814E+08         0.83390E+06         0.00000E+00
    0.83390E+06        -0.57038E+08         0.00000E+00
    0.00000E+00         0.00000E+00        -0.26755E+08
 
   -0.27007E+08         0.76698E+06         0.00000E+00
    0.76698E+06        -0.57405E+08         0.00000E+00
    0.00000E+00         0.00000E+00        -0.26943E+08
 
   -0.27194E+08         0.69318E+06         0.00000E+00
    0.69318E+06        -0.57755E+08         0.00000E+00
    0.00000E+00         0.00000E+00        -0.27120E+08
 
   -0.27373E+08         0.60622E+06         0.00000E+00
    0.60622E+06        -0.58084E+08         0.00000E+00
    0.00000E+00         0.00000E+00        -0.27281E+08
 
   -0.27546E+08         0.49647E+06         0.00000E+00
    0.49647E+06        -0.58389E+08         0.00000E+00
    0.00000E+00         0.00000E+00        -0.27423E+08
 
   -0.27713E+08         0.34035E+06         0.00000E+00
    0.34035E+06        -0.58657E+08         0.00000E+00
    0.00000E+00         0.00000E+00        -0.27532E+08
 
   -0.27911E+08         0.12340E+06         0.00000E+00
    0.12340E+06        -0.58890E+08         0.00000E+00
    0.00000E+00         0.00000E+00        -0.27576E+08
 
   -0.13821E+08         0.21137E+06         0.00000E+00
    0.21137E+06        -0.27506E+08         0.00000E+00
    0.00000E+00         0.00000E+00        -0.14646E+08
 
   -0.14081E+08         0.60309E+06         0.00000E+00
    0.60309E+06        -0.27673E+08         0.00000E+00
    0.00000E+00         0.00000E+00        -0.14646E+08
 
   -0.14214E+08         0.92605E+06         0.00000E+00
    0.92605E+06        -0.27986E+08         0.00000E+00
    0.00000E+00         0.00000E+00        -0.14646E+08
 
   -0.14301E+08         0.11844E+07         0.00000E+00
    0.11844E+07        -0.28407E+08         0.00000E+00
    0.00000E+00         0.00000E+00        -0.14646E+08
 
   -0.14367E+08         0.13946E+07         0.00000E+00
    0.13946E+07        -0.28900E+08         0.00000E+00
    0.00000E+00         0.00000E+00        -0.14646E+08
 
   -0.14425E+08         0.15648E+07         0.00000E+00
    0.15648E+07        -0.29449E+08         0.00000E+00
    0.00000E+00         0.00000E+00        -0.14646E+08
 
   -0.14480E+08         0.16982E+07         0.00000E+00
    0.16982E+07        -0.30041E+08         0.00000E+00
    0.00000E+00         0.00000E+00        -0.14646E+08
 
   -0.14541E+08         0.17954E+07         0.00000E+00
    0.17954E+07        -0.30667E+08         0.00000E+00
    0.00000E+00         0.00000E+00        -0.14646E+08
 
   -0.14628E+08         0.18483E+07         0.00000E+00
    0.18483E+07        -0.31308E+08         0.00000E+00
    0.00000E+00         0.00000E+00        -0.14658E+08
 
   -0.14766E+08         0.18530E+07         0.00000E+00
    0.18530E+07        -0.31830E+08         0.00000E+00
    0.00000E+00         0.00000E+00        -0.14820E+08
 
   -0.14955E+08         0.18484E+07         0.00000E+00
    0.18484E+07        -0.32298E+08         0.00000E+00
    0.00000E+00         0.00000E+00        -0.15060E+08
 
   -0.15166E+08         0.18624E+07         0.00000E+00
    0.18624E+07        -0.32775E+08         0.00000E+00
    0.00000E+00         0.00000E+00        -0.15291E+08
 
   -0.15381E+08         0.18919E+07         0.00000E+00
    0.18919E+07        -0.33258E+08         0.00000E+00
    0.00000E+00         0.00000E+00        -0.15512E+08
 
   -0.15593E+08         0.19290E+07         0.00000E+00
    0.19290E+07        -0.33741E+08         0.00000E+00
    0.00000E+00         0.00000E+00        -0.15723E+08
 
   -0.15799E+08         0.19690E+07         0.00000E+00
    0.19690E+07        -0.34220E+08         0.00000E+00
    0.00000E+00         0.00000E+00        -0.15922E+08
 
   -0.15996E+08         0.20093E+07         0.00000E+00
    0.20093E+07        -0.34694E+08         0.00000E+00
    0.00000E+00         0.00000E+00        -0.16111E+08
 
   -0.16183E+08         0.20480E+07         0.00000E+00
    0.20480E+07        -0.35160E+08         0.00000E+00
    0.00000E+00         0.00000E+00        -0.16288E+08
 
   -0.16361E+08         0.20840E+07         0.00000E+00
    0.20840E+07        -0.35618E+08         0.00000E+00
    0.00000E+00         0.00000E+00        -0.16455E+08
 
   -0.16528E+08         0.21165E+07         0.00000E+00
    0.21165E+07        -0.36067E+08         0.00000E+00
    0.00000E+00         0.00000E+00        -0.16613E+08
 
   -0.16686E+08         0.21452E+07         0.00000E+00
    0.21452E+07        -0.36506E+08         0.00000E+00
    0.00000E+00         0.00000E+00        -0.16760E+08
 
   -0.16835E+08         0.21699E+07         0.00000E+00
    0.21699E+07        -0.36936E+08         0.00000E+00
    0.00000E+00         0.00000E+00        -0.16899E+08
 
   -0.16976E+08         0.21905E+07         0.00000E+00
    0.21905E+07        -0.37356E+08         0.00000E+00
    0.00000E+00         0.00000E+00        -0.17030E+08
 
   -0.17108E+08         0.22073E+07         0.00000E+00
    0.22073E+07        -0.37767E+08         0.00000E+00
    0.00000E+00         0.00000E+00        -0.17154E+08
 
   -0.17232E+08         0.22204E+07         0.00000E+00
    0.22204E+07        -0.38169E+08         0.00000E+00
    0.00000E+00         0.00000E+00        -0.17271E+08
 
   -0.17349E+08         0.22301E+07         0.00000E+00
    0.22301E+07        -0.38562E+08         0.00000E+00
    0.00000E+00         0.00000E+00        -0.17381E+08
 
   -0.17460E+08         0.22366E+07         0.00000E+00
    0.22366E+07        -0.38946E+08         0.00000E+00
    0.00000E+00         0.00000E+00        -0.17485E+08
 
   -0.17593E+08         0.22344E+07         0.00000E+00
    0.22344E+07        -0.39293E+08         0.00000E+00
    0.00000E+00         0.00000E+00        -0.17613E+08
 
   -0.17753E+08         0.22230E+07         0.00000E+00
    0.22230E+07        -0.39598E+08         0.00000E+00
    0.00000E+00         0.00000E+00        -0.17768E+08
 
   -0.17909E+08         0.22096E+07         0.00000E+00
    0.22096E+07        -0.39896E+08         0.00000E+00
    0.00000E+00         0.00000E+00        -0.17918E+08
 
   -0.18059E+08         0.21946E+07         0.00000E+00
    0.21946E+07        -0.40185E+08         0.00000E+00
    0.00000E+00         0.00000E+00        -0.18065E+08
 
   -0.18206E+08         0.21782E+07         0.00000E+00
    0.21782E+07        -0.40468E+08         0.00000E+00
    0.00000E+00         0.00000E+00        -0.18209E+08
 
   -0.18349E+08         0.21607E+07         0.00000E+00
    0.21607E+07        -0.40744E+08         0.00000E+00
    0.00000E+00         0.00000E+00        -0.18349E+08
 
   -0.18488E+08         0.21425E+07         0.00000E+00
    0.21425E+07        -0.41014E+08         0.00000E+00
    0.00000E+00         0.00000E+00        -0.18486E+08
 
   -0.18624E+08         0.21236E+07         0.00000E+00
    0.21236E+07        -0.41278E+08         0.00000E+00
    0.00000E+00         0.00000E+00        -0.18620E+08
 
   -0.18757E+08         0.21043E+07         0.00000E+00
    0.21043E+07        -0.41537E+08         0.00000E+00
    0.00000E+00         0.00000E+00        -0.18751E+08
 
   -0.18887E+08         0.20847E+07         0.00000E+00
    0.20847E+07        -0.41790E+08         0.00000E+00
    0.00000E+00         0.00000E+00        -0.18880E+08
 
   -0.19014E+08         0.20651E+07         0.00000E+00
    0.20651E+07        -0.42039E+08         0.00000E+00
    0.00000E+00         0.00000E+00        -0.19007E+08
 
   -0.19139E+08         0.20455E+07         0.00000E+00
    0.20455E+07        -0.42282E+08         0.00000E+00
    0.00000E+00         0.00000E+00        -0.19131E+08
 
   -0.19262E+08         0.20261E+07         0.00000E+00
    0.20261E+07        -0.42522E+08         0.00000E+00
    0.00000E+00         0.00000E+00        -0.19253E+08
 
   -0.19382E+08         0.20069E+07         0.00000E+00
    0.20069E+07        -0.42757E+08         0.00000E+00
    0.00000E+00         0.00000E+00        -0.19373E+08
 
   -0.19501E+08         0.19880E+07         0.00000E+00
    0.19880E+07        -0.42989E+08         0.00000E+00
    0.00000E+00         0.00000E+00        -0.19492E+08
 
   -0.19618E+08         0.19696E+07         0.00000E+00
    0.19696E+07        -0.43217E+08         0.00000E+00
    0.00000E+00         0.00000E+00        -0.19609E+08
 
   -0.19733E+08         0.19516E+07         0.00000E+00
    0.19516E+07        -0.43442E+08         0.00000E+00
    0.00000E+00         0.00000E+00        -0.19724E+08
 
   -0.19847E+08         0.19342E+07         0.00000E+00
    0.19342E+07        -0.43664E+08         0.00000E+00
    0.00000E+00         0.00000E+00        -0.19838E+08
 
   -0.19959E+08         0.19173E+07         0.00000E+00
    0.19173E+07        -0.43884E+08         0.00000E+00
    0.00000E+00         0.00000E+00        -0.19951E+08
 
   -0.20070E+08         0.19010E+07         0.00000E+00
    0.19010E+07        -0.44100E+08         0.00000E+00
    0.00000E+00         0.00000E+00        -0.20063E+08
 
   -0.20181E+08         0.18853E+07         0.00000E+00
    0.18853E+07        -0.44315E+08         0.00000E+00
    0.00000E+00         0.00000E+00        -0.20174E+08
 
   -0.20290E+08         0.18702E+07         0.00000E+00
    0.18702E+07        -0.44528E+08         0.00000E+00
    0.00000E+00         0.00000E+00        -0.20284E+08
 
   -0.20399E+08         0.18558E+07         0.00000E+00
    0.18558E+07        -0.44739E+08         0.00000E+00
    0.00000E+00         0.00000E+00        -0.20393E+08
 
   -0.20507E+08         0.18421E+07         0.00000E+00
    0.18421E+07        -0.44949E+08         0.00000E+00
    0.00000E+00         0.00000E+00        -0.20502E+08
 
   -0.20614E+08         0.18290E+07         0.00000E+00
    0.18290E+07        -0.45158E+08         0.00000E+00
    0.00000E+00         0.00000E+00        -0.20610E+08
 
   -0.20722E+08         0.18165E+07         0.00000E+00
    0.18165E+07        -0.45366E+08         0.00000E+00
    0.00000E+00         0.00000E+00        -0.20718E+08
 
   -0.20829E+08         0.18046E+07         0.00000E+00
    0.18046E+07        -0.45573E+08         0.00000E+00
    0.00000E+00         0.00000E+00        -0.20826E+08
 
   -0.20936E+08         0.17934E+07         0.00000E+00
    0.17934E+07        -0.45780E+08         0.00000E+00
    0.00000E+00         0.00000E+00        -0.20933E+08
 
   -0.21043E+08         0.17827E+07         0.00000E+00
    0.17827E+07        -0.45987E+08         0.00000E+00
    0.00000E+00         0.00000E+00        -0.21041E+08
 
   -0.21150E+08         0.17725E+07         0.00000E+00
    0.17725E+07        -0.46195E+08         0.00000E+00
    0.00000E+00         0.00000E+00        -0.21149E+08
 
   -0.21258E+08         0.17629E+07         0.00000E+00
    0.17629E+07        -0.46402E+08         0.00000E+00
    0.00000E+00         0.00000E+00        -0.21257E+08
 
   -0.21366E+08         0.17538E+07         0.00000E+00
    0.17538E+07        -0.46610E+08         0.00000E+00
    0.00000E+00         0.00000E+00        -0.21366E+08
 
   -0.21475E+08         0.17450E+07         0.00000E+00
    0.17450E+07        -0.46820E+08         0.00000E+00
    0.00000E+00         0.00000E+00        -0.21476E+08
 
   -0.21584E+08         0.17367E+07         0.00000E+00
    0.17367E+07        -0.47030E+08         0.00000E+00
    0.00000E+00         0.00000E+00        -0.21586E+08
 
   -0.21695E+08         0.17286E+07         0.00000E+00
    0.17286E+07        -0.47242E+08         0.00000E+00
    0.00000E+00         0.00000E+00        -0.21696E+08
 
   -0.21806E+08         0.17208E+07         0.00000E+00
    0.17208E+07        -0.47456E+08         0.00000E+00
    0.00000E+00         0.00000E+00        -0.21808E+08
 
   -0.21919E+08         0.17131E+07         0.00000E+00
    0.17131E+07        -0.47672E+08         0.00000E+00
    0.00000E+00         0.00000E+00        -0.21921E+08
 
   -0.22033E+08         0.17056E+07         0.00000E+00
    0.17056E+07        -0.47891E+08         0.00000E+00
    0.00000E+00         0.00000E+00        -0.22035E+08
 
   -0.22149E+08         0.16980E+07         0.00000E+00
    0.16980E+07        -0.48112E+08         0.00000E+00
    0.00000E+00         0.00000E+00        -0.22151E+08
 
   -0.22266E+08         0.16903E+07         0.00000E+00
    0.16903E+07        -0.48336E+08         0.00000E+00
    0.00000E+00         0.00000E+00        -0.22268E+08
 
   -0.22385E+08         0.16824E+07         0.00000E+00
    0.16824E+07        -0.48563E+08         0.00000E+00
    0.00000E+00         0.00000E+00        -0.22387E+08
 
   -0.22506E+08         0.16741E+07         0.00000E+00
    0.16741E+07        -0.48794E+08         0.00000E+00
    0.00000E+00         0.00000E+00        -0.22507E+08
 
   -0.22629E+08         0.16654E+07         0.00000E+00
    0.16654E+07        -0.49029E+08         0.00000E+00
    0.00000E+00         0.00000E+00        -0.22629E+08
 
   -0.22754E+08         0.16561E+07         0.00000E+00
    0.16561E+07        -0.49268E+08         0.00000E+00
    0.00000E+00         0.00000E+00        -0.22754E+08
 
   -0.22882E+08         0.16460E+07         0.00000E+00
    0.16460E+07        -0.49511E+08         0.00000E+00
    0.00000E+00         0.00000E+00        -0.22880E+08
 
   -0.23012E+08         0.16349E+07         0.00000E+00
    0.16349E+07        -0.49760E+08         0.00000E+00
    0.00000E+00         0.00000E+00        -0.23009E+08
 
   -0.23146E+08         0.16228E+07         0.00000E+00
    0.16228E+07        -0.50014E+08         0.00000E+00
    0.00000E+00         0.00000E+00        -0.23141E+08
 
   -0.23282E+08         0.16093E+07         0.00000E+00
    0.16093E+07        -0.50273E+08         0.00000E+00
    0.00000E+00         0.00000E+00        -0.23275E+08
 
   -0.23421E+08         0.15943E+07         0.00000E+00
    0.15943E+07        -0.50539E+08         0.00000E+00
    0.00000E+00         0.00000E+00        -0.23413E+08
 
   -0.23564E+08         0.15776E+07         0.00000E+00
    0.15776E+07        -0.50811E+08         0.00000E+00
    0.00000E+00         0.00000E+00        -0.23553E+08
 
   -0.23711E+08         0.15589E+07         0.00000E+00
    0.15589E+07        -0.51090E+08         0.00000E+00
    0.00000E+00         0.00000E+00        -0.23696E+08
 
   -0.23861E+08         0.15380E+07         0.00000E+00
    0.15380E+07        -0.51377E+08         0.00000E+00
    0.00000E+00         0.00000E+00        -0.23843E+08
 
   -0.24016E+08         0.15146E+07         0.00000E+00
    0.15146E+07        -0.51671E+08         0.00000E+00
    0.00000E+00         0.00000E+00        -0.23994E+08
 
   -0.24174E+08         0.14885E+07         0.00000E+00
    0.14885E+07        -0.51973E+08         0.00000E+00
    0.00000E+00         0.00000E+00        -0.24149E+08
 
   -0.24338E+08         0.14594E+07         0.00000E+00
    0.14594E+07        -0.52284E+08         0.00000E+00
    0.00000E+00         0.00000E+00        -0.24308E+08
 
   -0.24505E+08         0.14272E+07         0.00000E+00
    0.14272E+07        -0.52604E+08         0.00000E+00
    0.00000E+00         0.00000E+00        -0.24471E+08
 
   -0.24678E+08         0.13916E+07         0.00000E+00
    0.13916E+07        -0.52933E+08         0.00000E+00
    0.00000E+00         0.00000E+00        -0.24639E+08
 
   -0.24856E+08         0.13526E+07         0.00000E+00
    0.13526E+07        -0.53271E+08         0.00000E+00
    0.00000E+00         0.00000E+00        -0.24811E+08
 
   -0.25038E+08         0.13101E+07         0.00000E+00
    0.13101E+07        -0.53619E+08         0.00000E+00
    0.00000E+00         0.00000E+00        -0.24988E+08
 
   -0.25225E+08         0.12640E+07         0.00000E+00
    0.12640E+07        -0.53976E+08         0.00000E+00
    0.00000E+00         0.00000E+00        -0.25170E+08
 
   -0.25417E+08         0.12146E+07         0.00000E+00
    0.12146E+07        -0.54343E+08         0.00000E+00
    0.00000E+00         0.00000E+00        -0.25357E+08
 
   -0.25612E+08         0.11620E+07         0.00000E+00
    0.11620E+07        -0.54717E+08         0.00000E+00
    0.00000E+00         0.00000E+00        -0.25548E+08
 
   -0.25811E+08         0.11067E+07         0.00000E+00
    0.11067E+07        -0.55098E+08         0.00000E+00
    0.00000E+00         0.00000E+00        -0.25743E+08
 
   -0.26013E+08         0.10490E+07         0.00000E+00
    0.10490E+07        -0.55484E+08         0.00000E+00
    0.00000E+00         0.00000E+00        -0.25941E+08
 
   -0.26216E+08         0.98949E+06         0.00000E+00
    0.98949E+06        -0.55874E+08         0.00000E+00
    0.00000E+00         0.00000E+00        -0.26141E+08
 
   -0.26419E+08         0.92845E+06         0.00000E+00
    0.92845E+06        -0.56263E+08         0.00000E+00
    0.00000E+00         0.00000E+00        -0.26342E+08
 
   -0.26621E+08         0.86598E+06         0.00000E+00
    0.86598E+06        -0.56648E+08         0.00000E+00
    0.00000E+00         0.00000E+00        -0.26540E+08
 
   -0.26819E+08         0.80148E+06         0.00000E+00
    0.80148E+06        -0.57026E+08         0.00000E+00
    0.00000E+00         0.00000E+00        -0.26734E+08
 
   -0.27013E+08         0.73330E+06         0.00000E+00
    0.73330E+06        -0.57391E+08         0.00000E+00
    0.00000E+00         0.00000E+00        -0.26920E+08
 
   -0.27200E+08         0.65794E+06         0.00000E+00
    0.65794E+06        -0.57739E+08         0.00000E+00
    0.00000E+00         0.00000E+00        -0.27094E+08
 
   -0.27382E+08         0.56961E+06         0.00000E+00
    0.56961E+06        -0.58065E+08         0.00000E+00
    0.00000E+00         0.00000E+00        -0.27250E+08
 
   -0.27558E+08         0.45794E+06         0.00000E+00
    0.45794E+06        -0.58364E+08         0.00000E+00
    0.00000E+00         0.00000E+00        -0.27382E+08
 
   -0.27735E+08         0.30422E+06         0.00000E+00
    0.30422E+06        -0.58625E+08         0.00000E+00
    0.00000E+00         0.00000E+00        -0.27475E+08
 
   -0.27952E+08         0.10713E+06         0.00000E+00
    0.10713E+06        -0.58857E+08         0.00000E+00
    0.00000E+00         0.00000E+00        -0.27501E+08
 
   -0.13627E+08         0.18694E+06         0.00000E+00
    0.18694E+06        -0.27585E+08         0.00000E+00
    0.00000E+00         0.00000E+00        -0.14646E+08
 
   -0.13920E+08         0.54210E+06         0.00000E+00
    0.54210E+06        -0.27742E+08         0.00000E+00
    0.00000E+00         0.00000E+00        -0.14646E+08
 
   -0.14087E+08         0.84916E+06         0.00000E+00
    0.84916E+06        -0.28043E+08         0.00000E+00
    0.00000E+00         0.00000E+00        -0.14646E+08
 
   -0.14198E+08         0.11020E+07         0.00000E+00
    0.11020E+07        -0.28453E+08         0.00000E+00
    0.00000E+00         0.00000E+00        -0.14646E+08
 
   -0.14284E+08         0.13098E+07         0.00000E+00
    0.13098E+07        -0.28938E+08         0.00000E+00
    0.00000E+00         0.00000E+00        -0.14646E+08
 
   -0.14357E+08         0.14794E+07         0.00000E+00
    0.14794E+07        -0.29480E+08         0.00000E+00
    0.00000E+00         0.00000E+00        -0.14646E+08
 
   -0.14428E+08         0.16138E+07         0.00000E+00
    0.16138E+07        -0.30065E+08         0.00000E+00
    0.00000E+00         0.00000E+00        -0.14646E+08
 
   -0.14503E+08         0.17145E+07         0.00000E+00
    0.17145E+07        -0.30683E+08         0.00000E+00
    0.00000E+00         0.00000E+00        -0.14646E+08
 
   -0.14602E+08         0.17762E+07         0.00000E+00
    0.17762E+07        -0.31314E+08         0.00000E+00
    0.00000E+00         0.00000E+00        -0.14658E+08
 
   -0.14739E+08         0.17910E+07         0.00000E+00
    0.17910E+07        -0.31829E+08         0.00000E+00
    0.00000E+00         0.00000E+00        -0.14817E+08
 
   -0.14919E+08         0.17955E+07         0.00000E+00
    0.17955E+07        -0.32299E+08         0.00000E+00
    0.00000E+00         0.00000E+00        -0.15054E+08
 
   -0.15124E+08         0.18133E+07         0.00000E+00
    0.18133E+07        -0.32780E+08         0.00000E+00
    0.00000E+00         0.00000E+00        -0.15283E+08
 
   -0.15337E+08         0.18441E+07         0.00000E+00
    0.18441E+07        -0.33265E+08         0.00000E+00
    0.00000E+00         0.00000E+00        -0.15503E+08
 
   -0.15548E+08         0.18815E+07         0.00000E+00
    0.18815E+07        -0.33748E+08         0.00000E+00
    0.00000E+00         0.00000E+00        -0.15712E+08
 
   -0.15754E+08         0.19214E+07         0.00000E+00
    0.19214E+07        -0.34228E+08         0.00000E+00
    0.00000E+00         0.00000E+00        -0.15910E+08
 
   -0.15952E+08         0.19613E+07         0.00000E+00
    0.19613E+07        -0.34702E+08         0.00000E+00
    0.00000E+00         0.00000E+00        -0.16097E+08
 
   -0.16141E+08         0.19994E+07         0.00000E+00
    0.19994E+07        -0.35167E+08         0.00000E+00
    0.00000E+00         0.00000E+00        -0.16274E+08
 
   -0.16321E+08         0.20347E+07         0.00000E+00
    0.20347E+07        -0.35625E+08         0.00000E+00
    0.00000E+00         0.00000E+00        -0.16440E+08
 
   -0.16491E+08         0.20666E+07         0.00000E+00
    0.20666E+07        -0.36073E+08         0.00000E+00
    0.00000E+00         0.00000E+00        -0.16597E+08
 
   -0.16651E+08         0.20948E+07         0.00000E+00
    0.20948E+07        -0.36511E+08         0.00000E+00
    0.00000E+00         0.00000E+00        -0.16744E+08
 
   -0.16803E+08         0.21190E+07         0.00000E+00
    0.21190E+07        -0.36940E+08         0.00000E+00
    0.00000E+00         0.00000E+00        -0.16883E+08
 
   -0.16945E+08         0.21393E+07         0.00000E+00
    0.21393E+07        -0.37360E+08         0.00000E+00
    0.00000E+00         0.00000E+00        -0.17014E+08
 
   -0.17079E+08         0.21558E+07         0.00000E+00
    0.21558E+07        -0.37770E+08         0.00000E+00
    0.00000E+00         0.00000E+00        -0.17137E+08
 
   -0.17206E+08         0.21687E+07         0.00000E+00
    0.21687E+07        -0.38171E+08         0.00000E+00
    0.00000E+00         0.00000E+00        -0.17254E+08
 
   -0.17325E+08         0.21783E+07         0.00000E+00
    0.21783E+07        -0.38563E+08         0.00000E+00
    0.00000E+00         0.00000E+00        -0.17365E+08
 
   -0.17438E+08         0.21848E+07         0.00000E+00
    0.21848E+07        -0.38947E+08         0.00000E+00
    0.00000E+00         0.00000E+00        -0.17469E+08
 
   -0.17578E+08         0.21818E+07         0.00000E+00
    0.21818E+07        -0.39289E+08         0.00000E+00
    0.00000E+00         0.00000E+00        -0.17602E+08
 
   -0.17739E+08         0.21710E+07         0.00000E+00
    0.21710E+07        -0.39594E+08         0.00000E+00
    0.00000E+00         0.00000E+00        -0.17756E+08
 
   -0.17895E+08         0.21582E+07         0.00000E+00
    0.21582E+07        -0.39891E+08         0.00000E+00
    0.00000E+00         0.00000E+00        -0.17907E+08
 
   -0.18047E+08         0.21438E+07         0.00000E+00
    0.21438E+07        -0.40182E+08         0.00000E+00
    0.00000E+00         0.00000E+00        -0.18054E+08
 
   -0.18194E+08         0.21281E+07         0.00000E+00
    0.21281E+07        -0.40465E+08         0.00000E+00
    0.00000E+00         0.00000E+00        -0.18197E+08
 
   -0.18338E+08         0.21113E+07         0.00000E+00
    0.21113E+07        -0.40741E+08         0.00000E+00
    0.00000E+00         0.00000E+00        -0.18337E+08
 
   -0.18478E+08         0.20937E+07         0.00000E+00
    0.20937E+07        -0.41011E+08         0.00000E+00
    0.00000E+00         0.00000E+00        -0.18475E+08
 
   -0.18614E+08         0.20755E+07         0.00000E+00
    0.20755E+07        -0.41276E+08         0.00000E+00
    0.00000E+00         0.00000E+00        -0.18609E+08
 
   -0.18748E+08         0.20568E+07         0.00000E+00
    0.20568E+07        -0.41534E+08         0.00000E+00
    0.00000E+00         0.00000E+00        -0.18740E+08
 
   -0.18878E+08         0.20380E+07         0.00000E+00
    0.20380E+07        -0.41788E+08         0.00000E+00
    0.00000E+00         0.00000E+00        -0.18869E+08
 
   -0.19006E+08         0.20190E+07         0.00000E+00
    0.20190E+07        -0.42037E+08         0.00000E+00
    0.00000E+00         0.00000E+00        -0.18996E+08
 
   -0.19131E+08         0.20000E+07         0.00000E+00
    0.20000E+07        -0.42281E+08         0.00000E+00
    0.00000E+00         0.00000E+00        -0.19121E+08
 
   -0.19254E+08         0.19812E+07         0.00000E+00
    0.19812E+07        -0.42520E+08         0.00000E+00
    0.00000E+00         0.00000E+00        -0.19243E+08
 
   -0.19375E+08         0.19626E+07         0.00000E+00
    0.19626E+07        -0.42756E+08         0.00000E+00
    0.00000E+00         0.00000E+00        -0.19364E+08
 
   -0.19494E+08         0.19444E+07         0.00000E+00
    0.19444E+07        -0.42988E+08         0.00000E+00
    0.00000E+00         0.00000E+00        -0.19482E+08
 
   -0.19611E+08         0.19265E+07         0.00000E+00
    0.19265E+07        -0.43216E+08         0.00000E+00
    0.00000E+00         0.00000E+00        -0.19600E+08
 
   -0.19727E+08         0.19091E+07         0.00000E+00
    0.19091E+07        -0.43442E+08         0.00000E+00
    0.00000E+00         0.00000E+00        -0.19715E+08
 
   -0.19841E+08         0.18921E+07         0.00000E+00
    0.18921E+07        -0.43664E+08         0.00000E+00
    0.00000E+00         0.00000E+00        -0.19830E+08
 
   -0.19953E+08         0.18757E+07         0.00000E+00
    0.18757E+07        -0.43883E+08         0.00000E+00
    0.00000E+00         0.00000E+00        -0.19943E+08
 
   -0.20065E+08         0.18599E+07         0.00000E+00
    0.18599E+07        -0.44101E+08         0.00000E+00
    0.00000E+00         0.00000E+00        -0.20055E+08
 
   -0.20175E+08         0.18446E+07         0.00000E+00
    0.18446E+07        -0.44316E+08         0.00000E+00
    0.00000E+00         0.00000E+00        -0.20166E+08
 
   -0.20285E+08         0.18300E+07         0.00000E+00
    0.18300E+07        -0.44529E+08         0.00000E+00
    0.00000E+00         0.00000E+00        -0.20277E+08
 
   -0.20394E+08         0.18160E+07         0.00000E+00
    0.18160E+07        -0.44740E+08         0.00000E+00
    0.00000E+00         0.00000E+00        -0.20386E+08
 
   -0.20502E+08         0.18026E+07         0.00000E+00
    0.18026E+07        -0.44950E+08         0.00000E+00
    0.00000E+00         0.00000E+00        -0.20495E+08
 
   -0.20610E+08         0.17898E+07         0.00000E+00
    0.17898E+07        -0.45159E+08         0.00000E+00
    0.00000E+00         0.00000E+00        -0.20604E+08
 
   -0.20717E+08         0.17776E+07         0.00000E+00
    0.17776E+07        -0.45368E+08         0.00000E+00
    0.00000E+00         0.00000E+00        -0.20712E+08
 
   -0.20824E+08         0.17661E+07         0.00000E+00
    0.17661E+07        -0.45575E+08         0.00000E+00
    0.00000E+00         0.00000E+00        -0.20820E+08
 
   -0.20931E+08         0.17551E+07         0.00000E+00
    0.17551E+07        -0.45782E+08         0.00000E+00
    0.00000E+00         0.00000E+00        -0.20929E+08
 
   -0.21039E+08         0.17447E+07         0.00000E+00
    0.17447E+07        -0.45990E+08         0.00000E+00
    0.00000E+00         0.00000E+00        -0.21037E+08
 
   -0.21146E+08         0.17348E+07         0.00000E+00
    0.17348E+07        -0.46197E+08         0.00000E+00
    0.00000E+00         0.00000E+00        -0.21145E+08
 
   -0.21254E+08         0.17254E+07         0.00000E+00
    0.17254E+07        -0.46405E+08         0.00000E+00
    0.00000E+00         0.00000E+00        -0.21253E+08
 
   -0.21362E+08         0.17164E+07         0.00000E+00
    0.17164E+07        -0.46613E+08         0.00000E+00
    0.00000E+00         0.00000E+00        -0.21362E+08
 
   -0.21471E+08         0.17079E+07         0.00000E+00
    0.17079E+07        -0.46823E+08         0.00000E+00
    0.00000E+00         0.00000E+00        -0.21472E+08
 
   -0.21581E+08         0.16997E+07         0.00000E+00
    0.16997E+07        -0.47033E+08         0.00000E+00
    0.00000E+00         0.00000E+00        -0.21582E+08
 
   -0.21691E+08         0.16918E+07         0.00000E+00
    0.16918E+07        -0.47246E+08         0.00000E+00
    0.00000E+00         0.00000E+00        -0.21693E+08
 
   -0.21803E+08         0.16841E+07         0.00000E+00
    0.16841E+07        -0.47460E+08         0.00000E+00
    0.00000E+00         0.00000E+00        -0.21805E+08
 
   -0.21916E+08         0.16766E+07         0.00000E+00
    0.16766E+07        -0.47676E+08         0.00000E+00
    0.00000E+00         0.00000E+00        -0.21918E+08
 
   -0.22030E+08         0.16691E+07         0.00000E+00
    0.16691E+07        -0.47894E+08         0.00000E+00
    0.00000E+00         0.00000E+00        -0.22033E+08
 
   -0.22145E+08         0.16616E+07         0.00000E+00
    0.16616E+07        -0.48115E+08         0.00000E+00
    0.00000E+00         0.00000E+00        -0.22148E+08
 
   -0.22263E+08         0.16540E+07         0.00000E+00
    0.16540E+07        -0.48340E+08         0.00000E+00
    0.00000E+00         0.00000E+00        -0.22265E+08
 
   -0.22382E+08         0.16462E+07         0.00000E+00
    0.16462E+07        -0.48567E+08         0.00000E+00
    0.00000E+00         0.00000E+00        -0.22384E+08
 
   -0.22503E+08         0.16381E+07         0.00000E+00
    0.16381E+07        -0.48798E+08         0.00000E+00
    0.00000E+00         0.00000E+00        -0.22505E+08
 
   -0.22626E+08         0.16295E+07         0.00000E+00
    0.16295E+07        -0.49033E+08         0.00000E+00
    0.00000E+00         0.00000E+00        -0.22627E+08
 
   -0.22752E+08         0.16202E+07         0.00000E+00
    0.16202E+07        -0.49272E+08         0.00000E+00
    0.00000E+00         0.00000E+00        -0.22751E+08
 
   -0.22880E+08         0.16103E+07         0.00000E+00
    0.16103E+07        -0.49515E+08         0.00000E+00
    0.00000E+00         0.00000E+00        -0.22878E+08
 
   -0.23010E+08         0.15994E+07         0.00000E+00
    0.15994E+07        -0.49764E+08         0.00000E+00
    0.00000E+00         0.00000E+00        -0.23007E+08
 
   -0.23144E+08         0.15874E+07         0.00000E+00
    0.15874E+07        -0.50017E+08         0.00000E+00
    0.00000E+00         0.00000E+00        -0.23138E+08
 
   -0.23280E+08         0.15741E+07         0.00000E+00
    0.15741E+07        -0.50277E+08         0.00000E+00
    0.00000E+00         0.00000E+00        -0.23272E+08
 
   -0.23420E+08         0.15593E+07         0.00000E+00
    0.15593E+07        -0.50542E+08         0.00000E+00
    0.00000E+00         0.00000E+00        -0.23409E+08
 
   -0.23563E+08         0.15428E+07         0.00000E+00
    0.15428E+07        -0.50814E+08         0.00000E+00
    0.00000E+00         0.00000E+00        -0.23549E+08
 
   -0.23710E+08         0.15243E+07         0.00000E+00
    0.15243E+07        -0.51093E+08         0.00000E+00
    0.00000E+00         0.00000E+00        -0.23692E+08
 
   -0.23861E+08         0.15037E+07         0.00000E+00
    0.15037E+07        -0.51378E+08         0.00000E+00
    0.00000E+00         0.00000E+00        -0.23838E+08
 
   -0.24015E+08         0.14806E+07         0.00000E+00
    0.14806E+07        -0.51672E+08         0.00000E+00
    0.00000E+00         0.00000E+00        -0.23988E+08
 
   -0.24175E+08         0.14548E+07         0.00000E+00
    0.14548E+07        -0.51974E+08         0.00000E+00
    0.00000E+00         0.00000E+00        -0.24142E+08
 
   -0.24338E+08         0.14261E+07         0.00000E+00
    0.14261E+07        -0.52284E+08         0.00000E+00
    0.00000E+00         0.00000E+00        -0.24300E+08
 
   -0.24507E+08         0.13943E+07         0.00000E+00
    0.13943E+07        -0.52603E+08         0.00000E+00
    0.00000E+00         0.00000E+00        -0.24463E+08
 
   -0.24680E+08         0.13592E+07         0.00000E+00
    0.13592E+07        -0.52932E+08         0.00000E+00
    0.00000E+00         0.00000E+00        -0.24629E+08
 
   -0.24858E+08         0.13206E+07         0.00000E+00
    0.13206E+07        -0.53269E+08         0.00000E+00
    0.00000E+00         0.00000E+00        -0.24801E+08
 
   -0.25040E+08         0.12785E+07         0.00000E+00
    0.12785E+07        -0.53616E+08         0.00000E+00
    0.00000E+00         0.00000E+00        -0.24977E+08
 
   -0.25228E+08         0.12328E+07         0.00000E+00
    0.12328E+07        -0.53973E+08         0.00000E+00
    0.00000E+00         0.00000E+00        -0.25158E+08
 
   -0.25420E+08         0.11838E+07         0.00000E+00
    0.11838E+07        -0.54338E+08         0.00000E+00
    0.00000E+00         0.00000E+00        -0.25343E+08
 
   -0.25616E+08         0.11315E+07         0.00000E+00
    0.11315E+07        -0.54711E+08         0.00000E+00
    0.00000E+00         0.00000E+00        -0.25533E+08
 
   -0.25816E+08         0.10763E+07         0.00000E+00
    0.10763E+07        -0.55092E+08         0.00000E+00
    0.00000E+00         0.00000E+00        -0.25727E+08
 
   -0.26018E+08         0.10187E+07         0.00000E+00
    0.10187E+07        -0.55477E+08         0.00000E+00
    0.00000E+00         0.00000E+00        -0.25924E+08
 
   -0.26221E+08         0.95901E+06         0.00000E+00
    0.95901E+06        -0.55865E+08         0.00000E+00
    0.00000E+00         0.00000E+00        -0.26123E+08
 
   -0.26424E+08         0.89759E+06         0.00000E+00
    0.89759E+06        -0.56253E+08         0.00000E+00
    0.00000E+00         0.00000E+00        -0.26323E+08
 
   -0.26626E+08         0.83447E+06         0.00000E+00
    0.83447E+06        -0.56638E+08         0.00000E+00
    0.00000E+00         0.00000E+00        -0.26520E+08
 
   -0.26825E+08         0.76907E+06         0.00000E+00
    0.76907E+06        -0.57014E+08         0.00000E+00
    0.00000E+00         0.00000E+00        -0.26713E+08
 
   -0.27019E+08         0.69977E+06         0.00000E+00
    0.69977E+06        -0.57378E+08         0.00000E+00
    0.00000E+00         0.00000E+00        -0.26897E+08
 
   -0.27208E+08         0.62318E+06         0.00000E+00
    0.62318E+06        -0.57724E+08         0.00000E+00
    0.00000E+00         0.00000E+00        -0.27067E+08
 
   -0.27392E+08         0.53380E+06         0.00000E+00
    0.53380E+06        -0.58046E+08         0.00000E+00
    0.00000E+00         0.00000E+00        -0.27218E+08
 
   -0.27573E+08         0.42134E+06         0.00000E+00
    0.42134E+06        -0.58340E+08         0.00000E+00
    0.00000E+00         0.00000E+00        -0.27341E+08
 
   -0.27760E+08         0.27272E+06         0.00000E+00
    0.27272E+06        -0.58597E+08         0.00000E+00
    0.00000E+00         0.00000E+00        -0.27420E+08
 
   -0.27993E+08         0.94045E+05         0.00000E+00
    0.94045E+05        -0.58830E+08         0.00000E+00
    0.00000E+00         0.00000E+00        -0.27432E+08
 
   -0.13444E+08         0.16613E+06         0.00000E+00
    0.16613E+06        -0.27655E+08         0.00000E+00
    0.00000E+00         0.00000E+00        -0.14646E+08
 
   -0.13763E+08         0.48804E+06         0.00000E+00
    0.48804E+06        -0.27807E+08         0.00000E+00
    0.00000E+00         0.00000E+00        -0.14646E+08
 
   -0.13959E+08         0.77785E+06         0.00000E+00
    0.77785E+06        -0.28098E+08         0.00000E+00
    0.00000E+00         0.00000E+00        -0.14646E+08
 
   -0.14094E+08         0.10238E+07         0.00000E+00
    0.10238E+07        -0.28498E+08         0.00000E+00
    0.00000E+00         0.00000E+00        -0.14646E+08
 
   -0.14198E+08         0.12285E+07         0.00000E+00
    0.12285E+07        -0.28975E+08         0.00000E+00
    0.00000E+00         0.00000E+00        -0.14646E+08
 
   -0.14289E+08         0.13971E+07         0.00000E+00
    0.13971E+07        -0.29510E+08         0.00000E+00
    0.00000E+00         0.00000E+00        -0.14646E+08
 
   -0.14374E+08         0.15323E+07         0.00000E+00
    0.15323E+07        -0.30088E+08         0.00000E+00
    0.00000E+00         0.00000E+00        -0.14646E+08
 
   -0.14463E+08         0.16362E+07         0.00000E+00
    0.16362E+07        -0.30700E+08         0.00000E+00
    0.00000E+00         0.00000E+00        -0.14646E+08
 
   -0.14572E+08         0.17055E+07         0.00000E+00
    0.17055E+07        -0.31322E+08         0.00000E+00
    0.00000E+00         0.00000E+00        -0.14659E+08
 
   -0.14709E+08         0.17278E+07         0.00000E+00
    0.17278E+07        -0.31831E+08         0.00000E+00
    0.00000E+00         0.00000E+00        -0.14817E+08
 
   -0.14883E+08         0.17411E+07         0.00000E+00
    0.17411E+07        -0.32301E+08         0.00000E+00
    0.00000E+00         0.00000E+00        -0.15050E+08
 
   -0.15084E+08         0.17634E+07         0.00000E+00
    0.17634E+07        -0.32786E+08         0.00000E+00
    0.00000E+00         0.00000E+00        -0.15277E+08
 
   -0.15294E+08         0.17960E+07         0.00000E+00
    0.17960E+07        -0.33272E+08         0.00000E+00
    0.00000E+00         0.00000E+00        -0.15494E+08
 
   -0.15505E+08         0.18341E+07         0.00000E+00
    0.18341E+07        -0.33756E+08         0.00000E+00
    0.00000E+00         0.00000E+00        -0.15702E+08
 
   -0.15712E+08         0.18740E+07         0.00000E+00
    0.18740E+07        -0.34236E+08         0.00000E+00
    0.00000E+00         0.00000E+00        -0.15898E+08
 
   -0.15911E+08         0.19135E+07         0.00000E+00
    0.19135E+07        -0.34709E+08         0.00000E+00
    0.00000E+00         0.00000E+00        -0.16084E+08
 
   -0.16102E+08         0.19511E+07         0.00000E+00
    0.19511E+07        -0.35175E+08         0.00000E+00
    0.00000E+00         0.00000E+00        -0.16260E+08
 
   -0.16283E+08         0.19858E+07         0.00000E+00
    0.19858E+07        -0.35631E+08         0.00000E+00
    0.00000E+00         0.00000E+00        -0.16425E+08
 
   -0.16455E+08         0.20172E+07         0.00000E+00
    0.20172E+07        -0.36079E+08         0.00000E+00
    0.00000E+00         0.00000E+00        -0.16581E+08
 
   -0.16618E+08         0.20448E+07         0.00000E+00
    0.20448E+07        -0.36516E+08         0.00000E+00
    0.00000E+00         0.00000E+00        -0.16728E+08
 
   -0.16771E+08         0.20686E+07         0.00000E+00
    0.20686E+07        -0.36945E+08         0.00000E+00
    0.00000E+00         0.00000E+00        -0.16867E+08
 
   -0.16916E+08         0.20885E+07         0.00000E+00
    0.20885E+07        -0.37363E+08         0.00000E+00
    0.00000E+00         0.00000E+00        -0.16998E+08
 
   -0.17052E+08         0.21047E+07         0.00000E+00
    0.21047E+07        -0.37773E+08         0.00000E+00
    0.00000E+00         0.00000E+00        -0.17121E+08
 
   -0.17181E+08         0.21174E+07         0.00000E+00
    0.21174E+07        -0.38173E+08         0.00000E+00
    0.00000E+00         0.00000E+00        -0.17238E+08
 
   -0.17302E+08         0.21269E+07         0.00000E+00
    0.21269E+07        -0.38565E+08         0.00000E+00
    0.00000E+00         0.00000E+00        -0.17348E+08
 
   -0.17417E+08         0.21333E+07         0.00000E+00
    0.21333E+07        -0.38948E+08         0.00000E+00
    0.00000E+00         0.00000E+00        -0.17454E+08
 
   -0.17563E+08         0.21297E+07         0.00000E+00
    0.21297E+07        -0.39285E+08         0.00000E+00
    0.00000E+00         0.00000E+00        -0.17591E+08
 
   -0.17725E+08         0.21193E+07         0.00000E+00
    0.21193E+07        -0.39590E+08         0.00000E+00
    0.00000E+00         0.00000E+00        -0.17745E+08
 
   -0.17882E+08         0.21071E+07         0.00000E+00
    0.21071E+07        -0.39888E+08         0.00000E+00
    0.00000E+00         0.00000E+00        -0.17896E+08
 
   -0.18034E+08         0.20933E+07         0.00000E+00
    0.20933E+07        -0.40178E+08         0.00000E+00
    0.00000E+00         0.00000E+00        -0.18042E+08
 
   -0.18183E+08         0.20782E+07         0.00000E+00
    0.20782E+07        -0.40461E+08         0.00000E+00
    0.00000E+00         0.00000E+00        -0.18186E+08
 
   -0.18327E+08         0.20621E+07         0.00000E+00
    0.20621E+07        -0.40738E+08         0.00000E+00
    0.00000E+00         0.00000E+00        -0.18326E+08
 
   -0.18467E+08         0.20451E+07         0.00000E+00
    0.20451E+07        -0.41008E+08         0.00000E+00
    0.00000E+00         0.00000E+00        -0.18463E+08
 
   -0.18605E+08         0.20276E+07         0.00000E+00
    0.20276E+07        -0.41273E+08         0.00000E+00
    0.00000E+00         0.00000E+00        -0.18598E+08
 
   -0.18739E+08         0.20096E+07         0.00000E+00
    0.20096E+07        -0.41532E+08         0.00000E+00
    0.00000E+00         0.00000E+00        -0.18729E+08
 
   -0.18870E+08         0.19914E+07         0.00000E+00
    0.19914E+07        -0.41786E+08         0.00000E+00
    0.00000E+00         0.00000E+00        -0.18859E+08
 
   -0.18998E+08         0.19730E+07         0.00000E+00
    0.19730E+07        -0.42034E+08         0.00000E+00
    0.00000E+00         0.00000E+00        -0.18986E+08
 
   -0.19124E+08         0.19547E+07         0.00000E+00
    0.19547E+07        -0.42279E+08         0.00000E+00
    0.00000E+00         0.00000E+00        -0.19110E+08
 
   -0.19247E+08         0.19365E+07         0.00000E+00
    0.19365E+07        -0.42519E+08         0.00000E+00
    0.00000E+00         0.00000E+00        -0.19233E+08
 
   -0.19368E+08         0.19185E+07         0.00000E+00
    0.19185E+07        -0.42755E+08         0.00000E+00
    0.00000E+00         0.00000E+00        -0.19354E+08
 
   -0.19488E+08         0.19008E+07         0.00000E+00
    0.19008E+07        -0.42987E+08         0.00000E+00
    0.00000E+00         0.00000E+00        -0.19473E+08
 
   -0.19605E+08         0.18835E+07         0.00000E+00
    0.18835E+07        -0.43216E+08         0.00000E+00
    0.00000E+00         0.00000E+00        -0.19591E+08
 
   -0.19721E+08         0.18666E+07         0.00000E+00
    0.18666E+07        -0.43441E+08         0.00000E+00
    0.00000E+00         0.00000E+00        -0.19707E+08
 
   -0.19835E+08         0.18501E+07         0.00000E+00
    0.18501E+07        -0.43664E+08         0.00000E+00
    0.00000E+00         0.00000E+00        -0.19822E+08
 
   -0.19948E+08         0.18342E+07         0.00000E+00
    0.18342E+07        -0.43883E+08         0.00000E+00
    0.00000E+00         0.00000E+00        -0.19935E+08
 
   -0.20060E+08         0.18188E+07         0.00000E+00
    0.18188E+07        -0.44101E+08         0.00000E+00
    0.00000E+00         0.00000E+00        -0.20048E+08
 
   -0.20170E+08         0.18040E+07         0.00000E+00
    0.18040E+07        -0.44316E+08         0.00000E+00
    0.00000E+00         0.00000E+00        -0.20159E+08
 
   -0.20280E+08         0.17898E+07         0.00000E+00
    0.17898E+07        -0.44529E+08         0.00000E+00
    0.00000E+00         0.00000E+00        -0.20270E+08
 
   -0.20389E+08         0.17761E+07         0.00000E+00
    0.17761E+07        -0.44741E+08         0.00000E+00
    0.00000E+00         0.00000E+00        -0.20380E+08
 
   -0.20497E+08         0.17631E+07         0.00000E+00
    0.17631E+07        -0.44951E+08         0.00000E+00
    0.00000E+00         0.00000E+00        -0.20489E+08
 
   -0.20605E+08         0.17507E+07         0.00000E+00
    0.17507E+07        -0.45161E+08         0.00000E+00
    0.00000E+00         0.00000E+00        -0.20598E+08
 
   -0.20713E+08         0.17388E+07         0.00000E+00
    0.17388E+07        -0.45369E+08         0.00000E+00
    0.00000E+00         0.00000E+00        -0.20707E+08
 
   -0.20820E+08         0.17276E+07         0.00000E+00
    0.17276E+07        -0.45577E+08         0.00000E+00
    0.00000E+00         0.00000E+00        -0.20815E+08
 
   -0.20927E+08         0.17169E+07         0.00000E+00
    0.17169E+07        -0.45784E+08         0.00000E+00
    0.00000E+00         0.00000E+00        -0.20924E+08
 
   -0.21034E+08         0.17067E+07         0.00000E+00
    0.17067E+07        -0.45992E+08         0.00000E+00
    0.00000E+00         0.00000E+00        -0.21032E+08
 
   -0.21142E+08         0.16970E+07         0.00000E+00
    0.16970E+07        -0.46199E+08         0.00000E+00
    0.00000E+00         0.00000E+00        -0.21141E+08
 
   -0.21250E+08         0.16878E+07         0.00000E+00
    0.16878E+07        -0.46407E+08         0.00000E+00
    0.00000E+00         0.00000E+00        -0.21250E+08
 
   -0.21358E+08         0.16791E+07         0.00000E+00
    0.16791E+07        -0.46616E+08         0.00000E+00
    0.00000E+00         0.00000E+00        -0.21359E+08
 
   -0.21467E+08         0.16707E+07         0.00000E+00
    0.16707E+07        -0.46825E+08         0.00000E+00
    0.00000E+00         0.00000E+00        -0.21469E+08
 
   -0.21577E+08         0.16627E+07         0.00000E+00
    0.16627E+07        -0.47036E+08         0.00000E+00
    0.00000E+00         0.00000E+00        -0.21579E+08
 
   -0.21687E+08         0.16549E+07         0.00000E+00
    0.16549E+07        -0.47249E+08         0.00000E+00
    0.00000E+00         0.00000E+00        -0.21690E+08
 
   -0.21799E+08         0.16474E+07         0.00000E+00
    0.16474E+07        -0.47463E+08         0.00000E+00
    0.00000E+00         0.00000E+00        -0.21803E+08
 
   -0.21912E+08         0.16400E+07         0.00000E+00
    0.16400E+07        -0.47679E+08         0.00000E+00
    0.00000E+00         0.00000E+00        -0.21916E+08
 
   -0.22026E+08         0.16326E+07         0.00000E+00
    0.16326E+07        -0.47898E+08         0.00000E+00
    0.00000E+00         0.00000E+00        -0.22030E+08
 
   -0.22142E+08         0.16253E+07         0.00000E+00
    0.16253E+07        -0.48119E+08         0.00000E+00
    0.00000E+00         0.00000E+00        -0.22146E+08
 
   -0.22260E+08         0.16178E+07         0.00000E+00
    0.16178E+07        -0.48343E+08         0.00000E+00
    0.00000E+00         0.00000E+00        -0.22263E+08
 
   -0.22379E+08         0.16101E+07         0.00000E+00
    0.16101E+07        -0.48570E+08         0.00000E+00
    0.00000E+00         0.00000E+00        -0.22382E+08
 
   -0.22500E+08         0.16020E+07         0.00000E+00
    0.16020E+07        -0.48801E+08         0.00000E+00
    0.00000E+00         0.00000E+00        -0.22502E+08
 
   -0.22623E+08         0.15935E+07         0.00000E+00
    0.15935E+07        -0.49036E+08         0.00000E+00
    0.00000E+00         0.00000E+00        -0.22625E+08
 
   -0.22749E+08         0.15844E+07         0.00000E+00
    0.15844E+07        -0.49275E+08         0.00000E+00
    0.00000E+00         0.00000E+00        -0.22749E+08
 
   -0.22877E+08         0.15746E+07         0.00000E+00
    0.15746E+07        -0.49519E+08         0.00000E+00
    0.00000E+00         0.00000E+00        -0.22875E+08
 
   -0.23008E+08         0.15638E+07         0.00000E+00
    0.15638E+07        -0.49767E+08         0.00000E+00
    0.00000E+00         0.00000E+00        -0.23004E+08
 
   -0.23142E+08         0.15520E+07         0.00000E+00
    0.15520E+07        -0.50021E+08         0.00000E+00
    0.00000E+00         0.00000E+00        -0.23135E+08
 
   -0.23278E+08         0.15389E+07         0.00000E+00
    0.15389E+07        -0.50280E+08         0.00000E+00
    0.00000E+00         0.00000E+00        -0.23269E+08
 
   -0.23418E+08         0.15243E+07         0.00000E+00
    0.15243E+07        -0.50545E+08         0.00000E+00
    0.00000E+00         0.00000E+00        -0.23405E+08
 
   -0.23562E+08         0.15080E+07         0.00000E+00
    0.15080E+07        -0.50816E+08         0.00000E+00
    0.00000E+00         0.00000E+00        -0.23545E+08
 
   -0.23709E+08         0.14898E+07         0.00000E+00
    0.14898E+07        -0.51095E+08         0.00000E+00
    0.00000E+00         0.00000E+00        -0.23687E+08
 
   -0.23860E+08         0.14694E+07         0.00000E+00
    0.14694E+07        -0.51380E+08         0.00000E+00
    0.00000E+00         0.00000E+00        -0.23833E+08
 
   -0.24015E+08         0.14466E+07         0.00000E+00
    0.14466E+07        -0.51673E+08         0.00000E+00
    0.00000E+00         0.00000E+00        -0.23983E+08
 
   -0.24175E+08         0.14212E+07         0.00000E+00
    0.14212E+07        -0.51975E+08         0.00000E+00
    0.00000E+00         0.00000E+00        -0.24136E+08
 
   -0.24339E+08         0.13929E+07         0.00000E+00
    0.13929E+07        -0.52284E+08         0.00000E+00
    0.00000E+00         0.00000E+00        -0.24293E+08
 
   -0.24507E+08         0.13615E+07         0.00000E+00
    0.13615E+07        -0.52603E+08         0.00000E+00
    0.00000E+00         0.00000E+00        -0.24455E+08
 
   -0.24681E+08         0.13268E+07         0.00000E+00
    0.13268E+07        -0.52930E+08         0.00000E+00
    0.00000E+00         0.00000E+00        -0.24620E+08
 
   -0.24859E+08         0.12886E+07         0.00000E+00
    0.12886E+07        -0.53267E+08         0.00000E+00
    0.00000E+00         0.00000E+00        -0.24791E+08
 
   -0.25043E+08         0.12469E+07         0.00000E+00
    0.12469E+07        -0.53614E+08         0.00000E+00
    0.00000E+00         0.00000E+00        -0.24966E+08
 
   -0.25231E+08         0.12017E+07         0.00000E+00
    0.12017E+07        -0.53969E+08         0.00000E+00
    0.00000E+00         0.00000E+00        -0.25145E+08
 
   -0.25423E+08         0.11530E+07         0.00000E+00
    0.11530E+07        -0.54333E+08         0.00000E+00
    0.00000E+00         0.00000E+00        -0.25330E+08
 
   -0.25620E+08         0.11010E+07         0.00000E+00
    0.11010E+07        -0.54706E+08         0.00000E+00
    0.00000E+00         0.00000E+00        -0.25519E+08
 
   -0.25820E+08         0.10460E+07         0.00000E+00
    0.10460E+07        -0.55085E+08         0.00000E+00
    0.00000E+00         0.00000E+00        -0.25712E+08
 
   -0.26022E+08         0.98838E+06         0.00000E+00
    0.98838E+06        -0.55469E+08         0.00000E+00
    0.00000E+00         0.00000E+00        -0.25908E+08
 
   -0.26226E+08         0.92850E+06         0.00000E+00
    0.92850E+06        -0.55857E+08         0.00000E+00
    0.00000E+00         0.00000E+00        -0.26106E+08
 
   -0.26429E+08         0.86668E+06         0.00000E+00
    0.86668E+06        -0.56244E+08         0.00000E+00
    0.00000E+00         0.00000E+00        -0.26304E+08
 
   -0.26632E+08         0.80294E+06         0.00000E+00
    0.80294E+06        -0.56627E+08         0.00000E+00
    0.00000E+00         0.00000E+00        -0.26500E+08
 
   -0.26831E+08         0.73673E+06         0.00000E+00
    0.73673E+06        -0.57003E+08         0.00000E+00
    0.00000E+00         0.00000E+00        -0.26691E+08
 
   -0.27026E+08         0.66646E+06         0.00000E+00
    0.66646E+06        -0.57365E+08         0.00000E+00
    0.00000E+00         0.00000E+00        -0.26873E+08
 
   -0.27216E+08         0.58896E+06         0.00000E+00
    0.58896E+06        -0.57709E+08         0.00000E+00
    0.00000E+00         0.00000E+00        -0.27039E+08
 
   -0.27403E+08         0.49891E+06         0.00000E+00
    0.49891E+06        -0.58029E+08         0.00000E+00
    0.00000E+00         0.00000E+00        -0.27185E+08
 
   -0.27589E+08         0.38693E+06         0.00000E+00
    0.38693E+06        -0.58318E+08         0.00000E+00
    0.00000E+00         0.00000E+00        -0.27300E+08
 
   -0.27787E+08         0.24514E+06         0.00000E+00
    0.24514E+06        -0.58572E+08         0.00000E+00
    0.00000E+00         0.00000E+00        -0.27367E+08
 
   -0.28032E+08         0.83249E+05         0.00000E+00
    0.83249E+05        -0.58806E+08         0.00000E+00
    0.00000E+00         0.00000E+00        -0.27370E+08
 
   -0.13271E+08         0.14795E+06         0.00000E+00
    0.14795E+06        -0.27718E+08         0.00000E+00
    0.00000E+00         0.00000E+00        -0.14646E+08
 
   -0.13610E+08         0.43956E+06         0.00000E+00
    0.43956E+06        -0.27866E+08         0.00000E+00
    0.00000E+00         0.00000E+00        -0.14646E+08
 
   -0.13832E+08         0.71174E+06         0.00000E+00
    0.71174E+06        -0.28150E+08         0.00000E+00
    0.00000E+00         0.00000E+00        -0.14646E+08
 
   -0.13988E+08         0.94960E+06         0.00000E+00
    0.94960E+06        -0.28542E+08         0.00000E+00
    0.00000E+00         0.00000E+00        -0.14646E+08
 
   -0.14112E+08         0.11506E+07         0.00000E+00
    0.11506E+07        -0.29012E+08         0.00000E+00
    0.00000E+00         0.00000E+00        -0.14646E+08
 
   -0.14218E+08         0.13178E+07         0.00000E+00
    0.13178E+07        -0.29540E+08         0.00000E+00
    0.00000E+00         0.00000E+00        -0.14646E+08
 
   -0.14318E+08         0.14538E+07         0.00000E+00
    0.14538E+07        -0.30112E+08         0.00000E+00
    0.00000E+00         0.00000E+00        -0.14646E+08
 
   -0.14420E+08         0.15602E+07         0.00000E+00
    0.15602E+07        -0.30718E+08         0.00000E+00
    0.00000E+00         0.00000E+00        -0.14646E+08
 
   -0.14539E+08         0.16361E+07         0.00000E+00
    0.16361E+07        -0.31330E+08         0.00000E+00
    0.00000E+00         0.00000E+00        -0.14661E+08
 
   -0.14678E+08         0.16641E+07         0.00000E+00
    0.16641E+07        -0.31835E+08         0.00000E+00
    0.00000E+00         0.00000E+00        -0.14818E+08
 
   -0.14848E+08         0.16855E+07         0.00000E+00
    0.16855E+07        -0.32305E+08         0.00000E+00
    0.00000E+00         0.00000E+00        -0.15048E+08
 
   -0.15045E+08         0.17129E+07         0.00000E+00
    0.17129E+07        -0.32792E+08         0.00000E+00
    0.00000E+00         0.00000E+00        -0.15272E+08
 
   -0.15254E+08         0.17478E+07         0.00000E+00
    0.17478E+07        -0.33279E+08         0.00000E+00
    0.00000E+00         0.00000E+00        -0.15487E+08
 
   -0.15464E+08         0.17867E+07         0.00000E+00
    0.17867E+07        -0.33764E+08         0.00000E+00
    0.00000E+00         0.00000E+00        -0.15692E+08
 
   -0.15671E+08         0.18267E+07         0.00000E+00
    0.18267E+07        -0.34244E+08         0.00000E+00
    0.00000E+00         0.00000E+00        -0.15887E+08
 
   -0.15872E+08         0.18660E+07         0.00000E+00
    0.18660E+07        -0.34717E+08         0.00000E+00
    0.00000E+00         0.00000E+00        -0.16072E+08
 
   -0.16064E+08         0.19031E+07         0.00000E+00
    0.19031E+07        -0.35182E+08         0.00000E+00
    0.00000E+00         0.00000E+00        -0.16247E+08
 
   -0.16247E+08         0.19374E+07         0.00000E+00
    0.19374E+07        -0.35638E+08         0.00000E+00
    0.00000E+00         0.00000E+00        -0.16411E+08
 
   -0.16421E+08         0.19682E+07         0.00000E+00
    0.19682E+07        -0.36085E+08         0.00000E+00
    0.00000E+00         0.00000E+00        -0.16567E+08
 
   -0.16586E+08         0.19953E+07         0.00000E+00
    0.19953E+07        -0.36522E+08         0.00000E+00
    0.00000E+00         0.00000E+00        -0.16713E+08
 
   -0.16741E+08         0.20186E+07         0.00000E+00
    0.20186E+07        -0.36949E+08         0.00000E+00
    0.00000E+00         0.00000E+00        -0.16851E+08
 
   -0.16888E+08         0.20381E+07         0.00000E+00
    0.20381E+07        -0.37367E+08         0.00000E+00
    0.00000E+00         0.00000E+00        -0.16982E+08
 
   -0.17026E+08         0.20540E+07         0.00000E+00
    0.20540E+07        -0.37776E+08         0.00000E+00
    0.00000E+00         0.00000E+00        -0.17105E+08
 
   -0.17157E+08         0.20665E+07         0.00000E+00
    0.20665E+07        -0.38175E+08         0.00000E+00
    0.00000E+00         0.00000E+00        -0.17222E+08
 
   -0.17280E+08         0.20758E+07         0.00000E+00
    0.20758E+07        -0.38567E+08         0.00000E+00
    0.00000E+00         0.00000E+00        -0.17333E+08
 
   -0.17399E+08         0.20817E+07         0.00000E+00
    0.20817E+07        -0.38946E+08         0.00000E+00
    0.00000E+00         0.00000E+00        -0.17441E+08
 
   -0.17548E+08         0.20779E+07         0.00000E+00
    0.20779E+07        -0.39280E+08         0.00000E+00
    0.00000E+00         0.00000E+00        -0.17580E+08
 
   -0.17711E+08         0.20681E+07         0.00000E+00
    0.20681E+07        -0.39586E+08         0.00000E+00
    0.00000E+00         0.00000E+00        -0.17734E+08
 
   -0.17869E+08         0.20564E+07         0.00000E+00
    0.20564E+07        -0.39884E+08         0.00000E+00
    0.00000E+00         0.00000E+00        -0.17884E+08
 
   -0.18022E+08         0.20432E+07         0.00000E+00
    0.20432E+07        -0.40174E+08         0.00000E+00
    0.00000E+00         0.00000E+00        -0.18031E+08
 
   -0.18171E+08         0.20287E+07         0.00000E+00
    0.20287E+07        -0.40458E+08         0.00000E+00
    0.00000E+00         0.00000E+00        -0.18175E+08
 
   -0.18316E+08         0.20131E+07         0.00000E+00
    0.20131E+07        -0.40734E+08         0.00000E+00
    0.00000E+00         0.00000E+00        -0.18315E+08
 
   -0.18458E+08         0.19968E+07         0.00000E+00
    0.19968E+07        -0.41005E+08         0.00000E+00
    0.00000E+00         0.00000E+00        -0.18452E+08
 
   -0.18595E+08         0.19799E+07         0.00000E+00
    0.19799E+07        -0.41270E+08         0.00000E+00
    0.00000E+00         0.00000E+00        -0.18587E+08
 
   -0.18730E+08         0.19625E+07         0.00000E+00
    0.19625E+07        -0.41529E+08         0.00000E+00
    0.00000E+00         0.00000E+00        -0.18719E+08
 
   -0.18861E+08         0.19449E+07         0.00000E+00
    0.19449E+07        -0.41783E+08         0.00000E+00
    0.00000E+00         0.00000E+00        -0.18848E+08
 
   -0.18990E+08         0.19272E+07         0.00000E+00
    0.19272E+07        -0.42032E+08         0.00000E+00
    0.00000E+00         0.00000E+00        -0.18975E+08
 
   -0.19116E+08         0.19094E+07         0.00000E+00
    0.19094E+07        -0.42277E+08         0.00000E+00
    0.00000E+00         0.00000E+00        -0.19100E+08
 
   -0.19240E+08         0.18918E+07         0.00000E+00
    0.18918E+07        -0.42517E+08         0.00000E+00
    0.00000E+00         0.00000E+00        -0.19224E+08
 
   -0.19362E+08         0.18744E+07         0.00000E+00
    0.18744E+07        -0.42753E+08         0.00000E+00
    0.00000E+00         0.00000E+00        -0.19345E+08
 
   -0.19481E+08         0.18573E+07         0.00000E+00
    0.18573E+07        -0.42986E+08         0.00000E+00
    0.00000E+00         0.00000E+00        -0.19464E+08
 
   -0.19599E+08         0.18405E+07         0.00000E+00
    0.18405E+07        -0.43215E+08         0.00000E+00
    0.00000E+00         0.00000E+00        -0.19582E+08
 
   -0.19715E+08         0.18241E+07         0.00000E+00
    0.18241E+07        -0.43440E+08         0.00000E+00
    0.00000E+00         0.00000E+00        -0.19699E+08
 
   -0.19829E+08         0.18082E+07         0.00000E+00
    0.18082E+07        -0.43663E+08         0.00000E+00
    0.00000E+00         0.00000E+00        -0.19814E+08
 
   -0.19943E+08         0.17927E+07         0.00000E+00
    0.17927E+07        -0.43883E+08         0.00000E+00
    0.00000E+00         0.00000E+00        -0.19928E+08
 
   -0.20054E+08         0.17778E+07         0.00000E+00
    0.17778E+07        -0.44101E+08         0.00000E+00
    0.00000E+00         0.00000E+00        -0.20040E+08
 
   -0.20165E+08         0.17634E+07         0.00000E+00
    0.17634E+07        -0.44316E+08         0.00000E+00
    0.00000E+00         0.00000E+00        -0.20152E+08
 
   -0.20275E+08         0.17496E+07         0.00000E+00
    0.17496E+07        -0.44530E+08         0.00000E+00
    0.00000E+00         0.00000E+00        -0.20263E+08
 
   -0.20384E+08         0.17363E+07         0.00000E+00
    0.17363E+07        -0.44742E+08         0.00000E+00
    0.00000E+00         0.00000E+00        -0.20374E+08
 
   -0.20493E+08         0.17237E+07         0.00000E+00
    0.17237E+07        -0.44952E+08         0.00000E+00
    0.00000E+00         0.00000E+00        -0.20483E+08
 
   -0.20601E+08         0.17116E+07         0.00000E+00
    0.17116E+07        -0.45162E+08         0.00000E+00
    0.00000E+00         0.00000E+00        -0.20593E+08
 
   -0.20708E+08         0.17000E+07         0.00000E+00
    0.17000E+07        -0.45370E+08         0.00000E+00
    0.00000E+00         0.00000E+00        -0.20702E+08
 
   -0.20816E+08         0.16891E+07         0.00000E+00
    0.16891E+07        -0.45578E+08         0.00000E+00
    0.00000E+00         0.00000E+00        -0.20810E+08
 
   -0.20923E+08         0.16786E+07         0.00000E+00
    0.16786E+07        -0.45786E+08         0.00000E+00
    0.00000E+00         0.00000E+00        -0.20919E+08
 
   -0.21030E+08         0.16687E+07         0.00000E+00
    0.16687E+07        -0.45994E+08         0.00000E+00
    0.00000E+00         0.00000E+00        -0.21028E+08
 
   -0.21138E+08         0.16593E+07         0.00000E+00
    0.16593E+07        -0.46201E+08         0.00000E+00
    0.00000E+00         0.00000E+00        -0.21137E+08
 
   -0.21246E+08         0.16503E+07         0.00000E+00
    0.16503E+07        -0.46409E+08         0.00000E+00
    0.00000E+00         0.00000E+00        -0.21246E+08
 
   -0.21354E+08         0.16417E+07         0.00000E+00
    0.16417E+07        -0.46618E+08         0.00000E+00
    0.00000E+00         0.00000E+00        -0.21355E+08
 
   -0.21463E+08         0.16335E+07         0.00000E+00
    0.16335E+07        -0.46828E+08         0.00000E+00
    0.00000E+00         0.00000E+00        -0.21465E+08
 
   -0.21573E+08         0.16257E+07         0.00000E+00
    0.16257E+07        -0.47039E+08         0.00000E+00
    0.00000E+00         0.00000E+00        -0.21576E+08
 
   -0.21684E+08         0.16180E+07         0.00000E+00
    0.16180E+07        -0.47252E+08         0.00000E+00
    0.00000E+00         0.00000E+00        -0.21687E+08
 
   -0.21796E+08         0.16106E+07         0.00000E+00
    0.16106E+07        -0.47466E+08         0.00000E+00
    0.00000E+00         0.00000E+00        -0.21800E+08
 
   -0.21909E+08         0.16034E+07         0.00000E+00
    0.16034E+07        -0.47682E+08         0.00000E+00
    0.00000E+00         0.00000E+00        -0.21913E+08
 
   -0.22023E+08         0.15962E+07         0.00000E+00
    0.15962E+07        -0.47901E+08         0.00000E+00
    0.00000E+00         0.00000E+00        -0.22028E+08
 
   -0.22139E+08         0.15889E+07         0.00000E+00
    0.15889E+07        -0.48122E+08         0.00000E+00
    0.00000E+00         0.00000E+00        -0.22144E+08
 
   -0.22256E+08         0.15815E+07         0.00000E+00
    0.15815E+07        -0.48346E+08         0.00000E+00
    0.00000E+00         0.00000E+00        -0.22261E+08
 
   -0.22376E+08         0.15739E+07         0.00000E+00
    0.15739E+07        -0.48574E+08         0.00000E+00
    0.00000E+00         0.00000E+00        -0.22380E+08
 
   -0.22497E+08         0.15660E+07         0.00000E+00
    0.15660E+07        -0.48805E+08         0.00000E+00
    0.00000E+00         0.00000E+00        -0.22500E+08
 
   -0.22620E+08         0.15576E+07         0.00000E+00
    0.15576E+07        -0.49040E+08         0.00000E+00
    0.00000E+00         0.00000E+00        -0.22622E+08
 
   -0.22746E+08         0.15486E+07         0.00000E+00
    0.15486E+07        -0.49279E+08         0.00000E+00
    0.00000E+00         0.00000E+00        -0.22746E+08
 
   -0.22875E+08         0.15389E+07         0.00000E+00
    0.15389E+07        -0.49522E+08         0.00000E+00
    0.00000E+00         0.00000E+00        -0.22873E+08
 
   -0.23006E+08         0.15283E+07         0.00000E+00
    0.15283E+07        -0.49770E+08         0.00000E+00
    0.00000E+00         0.00000E+00        -0.23001E+08
 
   -0.23139E+08         0.15166E+07         0.00000E+00
    0.15166E+07        -0.50024E+08         0.00000E+00
    0.00000E+00         0.00000E+00        -0.23132E+08
 
   -0.23276E+08         0.15037E+07         0.00000E+00
    0.15037E+07        -0.50283E+08         0.00000E+00
    0.00000E+00         0.00000E+00        -0.23266E+08
 
   -0.23417E+08         0.14893E+07         0.00000E+00
    0.14893E+07        -0.50548E+08         0.00000E+00
    0.00000E+00         0.00000E+00        -0.23402E+08
 
   -0.23560E+08         0.14732E+07         0.00000E+00
    0.14732E+07        -0.50819E+08         0.00000E+00
    0.00000E+00         0.00000E+00        -0.23541E+08
 
   -0.23708E+08         0.14553E+07         0.00000E+00
    0.14553E+07        -0.51097E+08         0.00000E+00
    0.00000E+00         0.00000E+00        -0.23683E+08
 
   -0.23859E+08         0.14352E+07         0.00000E+00
    0.14352E+07        -0.51382E+08         0.00000E+00
    0.00000E+00         0.00000E+00        -0.23828E+08
 
   -0.24015E+08         0.14127E+07         0.00000E+00
    0.14127E+07        -0.51675E+08         0.00000E+00
    0.00000E+00         0.00000E+00        -0.23977E+08
 
   -0.24175E+08         0.13877E+07         0.00000E+00
    0.13877E+07        -0.51975E+08         0.00000E+00
    0.00000E+00         0.00000E+00        -0.24130E+08
 
   -0.24339E+08         0.13598E+07         0.00000E+00
    0.13598E+07        -0.52284E+08         0.00000E+00
    0.00000E+00         0.00000E+00        -0.24286E+08
 
   -0.24508E+08         0.13288E+07         0.00000E+00
    0.13288E+07        -0.52602E+08         0.00000E+00
    0.00000E+00         0.00000E+00        -0.24447E+08
 
   -0.24682E+08         0.12945E+07         0.00000E+00
    0.12945E+07        -0.52929E+08         0.00000E+00
    0.00000E+00         0.00000E+00        -0.24611E+08
 
   -0.24861E+08         0.12568E+07         0.00000E+00
    0.12568E+07        -0.53265E+08         0.00000E+00
    0.00000E+00         0.00000E+00        -0.24781E+08
 
   -0.25045E+08         0.12155E+07         0.00000E+00
    0.12155E+07        -0.53611E+08         0.00000E+00
    0.00000E+00         0.00000E+00        -0.24955E+08
 
   -0.25234E+08         0.11707E+07         0.00000E+00
    0.11707E+07        -0.53965E+08         0.00000E+00
    0.00000E+00         0.00000E+00        -0.25133E+08
 
   -0.25427E+08         0.11223E+07         0.00000E+00
    0.11223E+07        -0.54329E+08         0.00000E+00
    0.00000E+00         0.00000E+00        -0.25317E+08
 
   -0.25624E+08         0.10706E+07         0.00000E+00
    0.10706E+07        -0.54700E+08         0.00000E+00
    0.00000E+00         0.00000E+00        -0.25504E+08
 
   -0.25824E+08         0.10157E+07         0.00000E+00
    0.10157E+07        -0.55078E+08         0.00000E+00
    0.00000E+00         0.00000E+00        -0.25696E+08
 
   -0.26027E+08         0.95806E+06         0.00000E+00
    0.95806E+06        -0.55462E+08         0.00000E+00
    0.00000E+00         0.00000E+00        -0.25891E+08
 
   -0.26231E+08         0.89799E+06         0.00000E+00
    0.89799E+06        -0.55848E+08         0.00000E+00
    0.00000E+00         0.00000E+00        -0.26088E+08
 
   -0.26435E+08         0.83578E+06         0.00000E+00
    0.83578E+06        -0.56235E+08         0.00000E+00
    0.00000E+00         0.00000E+00        -0.26285E+08
 
   -0.26638E+08         0.77145E+06         0.00000E+00
    0.77145E+06        -0.56617E+08         0.00000E+00
    0.00000E+00         0.00000E+00        -0.26480E+08
 
   -0.26838E+08         0.70450E+06         0.00000E+00
    0.70450E+06        -0.56991E+08         0.00000E+00
    0.00000E+00         0.00000E+00        -0.26669E+08
 
   -0.27034E+08         0.63343E+06         0.00000E+00
    0.63343E+06        -0.57352E+08         0.00000E+00
    0.00000E+00         0.00000E+00        -0.26848E+08
 
   -0.27226E+08         0.55530E+06         0.00000E+00
    0.55530E+06        -0.57694E+08         0.00000E+00
    0.00000E+00         0.00000E+00        -0.27012E+08
 
   -0.27416E+08         0.46506E+06         0.00000E+00
    0.46506E+06        -0.58011E+08         0.00000E+00
    0.00000E+00         0.00000E+00        -0.27153E+08
 
   -0.27607E+08         0.35477E+06         0.00000E+00
    0.35477E+06        -0.58298E+08         0.00000E+00
    0.00000E+00         0.00000E+00        -0.27259E+08
 
   -0.27815E+08         0.22081E+06         0.00000E+00
    0.22081E+06        -0.58550E+08         0.00000E+00
    0.00000E+00         0.00000E+00        -0.27316E+08
 
   -0.28071E+08         0.74144E+05         0.00000E+00
    0.74144E+05        -0.58787E+08         0.00000E+00
    0.00000E+00         0.00000E+00        -0.27313E+08
 
   -0.13106E+08         0.13175E+06         0.00000E+00
    0.13175E+06        -0.27774E+08         0.00000E+00
    0.00000E+00         0.00000E+00        -0.14646E+08
 
   -0.13460E+08         0.39564E+06         0.00000E+00
    0.39564E+06        -0.27921E+08         0.00000E+00
    0.00000E+00         0.00000E+00        -0.14646E+08
 
   -0.13704E+08         0.65040E+06         0.00000E+00
    0.65040E+06        -0.28200E+08         0.00000E+00
    0.00000E+00         0.00000E+00        -0.14646E+08
 
   -0.13882E+08         0.87945E+06         0.00000E+00
    0.87945E+06        -0.28586E+08         0.00000E+00
    0.00000E+00         0.00000E+00        -0.14646E+08
 
   -0.14024E+08         0.10761E+07         0.00000E+00
    0.10761E+07        -0.29049E+08         0.00000E+00
    0.00000E+00         0.00000E+00        -0.14646E+08
 
   -0.14146E+08         0.12416E+07         0.00000E+00
    0.12416E+07        -0.29570E+08         0.00000E+00
    0.00000E+00         0.00000E+00        -0.14646E+08
 
   -0.14260E+08         0.13779E+07         0.00000E+00
    0.13779E+07        -0.30136E+08         0.00000E+00
    0.00000E+00         0.00000E+00        -0.14646E+08
 
   -0.14375E+08         0.14865E+07         0.00000E+00
    0.14865E+07        -0.30737E+08         0.00000E+00
    0.00000E+00         0.00000E+00        -0.14646E+08
 
   -0.14502E+08         0.15679E+07         0.00000E+00
    0.15679E+07        -0.31340E+08         0.00000E+00
    0.00000E+00         0.00000E+00        -0.14665E+08
 
   -0.14644E+08         0.16003E+07         0.00000E+00
    0.16003E+07        -0.31840E+08         0.00000E+00
    0.00000E+00         0.00000E+00        -0.14820E+08
 
   -0.14813E+08         0.16293E+07         0.00000E+00
    0.16293E+07        -0.32311E+08         0.00000E+00
    0.00000E+00         0.00000E+00        -0.15047E+08
 
   -0.15008E+08         0.16619E+07         0.00000E+00
    0.16619E+07        -0.32799E+08         0.00000E+00
    0.00000E+00         0.00000E+00        -0.15268E+08
 
   -0.15215E+08         0.16993E+07         0.00000E+00
    0.16993E+07        -0.33287E+08         0.00000E+00
    0.00000E+00         0.00000E+00        -0.15481E+08
 
   -0.15426E+08         0.17393E+07         0.00000E+00
    0.17393E+07        -0.33772E+08         0.00000E+00
    0.00000E+00         0.00000E+00        -0.15684E+08
 
   -0.15633E+08         0.17796E+07         0.00000E+00
    0.17796E+07        -0.34252E+08         0.00000E+00
    0.00000E+00         0.00000E+00        -0.15877E+08
 
   -0.15835E+08         0.18187E+07         0.00000E+00
    0.18187E+07        -0.34725E+08         0.00000E+00
    0.00000E+00         0.00000E+00        -0.16061E+08
 
   -0.16028E+08         0.18555E+07         0.00000E+00
    0.18555E+07        -0.35189E+08         0.00000E+00
    0.00000E+00         0.00000E+00        -0.16234E+08
 
   -0.16213E+08         0.18892E+07         0.00000E+00
    0.18892E+07        -0.35644E+08         0.00000E+00
    0.00000E+00         0.00000E+00        -0.16398E+08
 
   -0.16389E+08         0.19195E+07         0.00000E+00
    0.19195E+07        -0.36090E+08         0.00000E+00
    0.00000E+00         0.00000E+00        -0.16552E+08
 
   -0.16555E+08         0.19461E+07         0.00000E+00
    0.19461E+07        -0.36527E+08         0.00000E+00
    0.00000E+00         0.00000E+00        -0.16698E+08
 
   -0.16713E+08         0.19690E+07         0.00000E+00
    0.19690E+07        -0.36953E+08         0.00000E+00
    0.00000E+00         0.00000E+00        -0.16836E+08
 
   -0.16861E+08         0.19881E+07         0.00000E+00
    0.19881E+07        -0.37370E+08         0.00000E+00
    0.00000E+00         0.00000E+00        -0.16966E+08
 
   -0.17001E+08         0.20037E+07         0.00000E+00
    0.20037E+07        -0.37778E+08         0.00000E+00
    0.00000E+00         0.00000E+00        -0.17090E+08
 
   -0.17134E+08         0.20160E+07         0.00000E+00
    0.20160E+07        -0.38178E+08         0.00000E+00
    0.00000E+00         0.00000E+00        -0.17206E+08
 
   -0.17259E+08         0.20252E+07         0.00000E+00
    0.20252E+07        -0.38568E+08         0.00000E+00
    0.00000E+00         0.00000E+00        -0.17317E+08
 
   -0.17382E+08         0.20305E+07         0.00000E+00
    0.20305E+07        -0.38945E+08         0.00000E+00
    0.00000E+00         0.00000E+00        -0.17428E+08
 
   -0.17535E+08         0.20265E+07         0.00000E+00
    0.20265E+07        -0.39276E+08         0.00000E+00
    0.00000E+00         0.00000E+00        -0.17569E+08
 
   -0.17698E+08         0.20171E+07         0.00000E+00
    0.20171E+07        -0.39582E+08         0.00000E+00
    0.00000E+00         0.00000E+00        -0.17723E+08
 
   -0.17857E+08         0.20060E+07         0.00000E+00
    0.20060E+07        -0.39880E+08         0.00000E+00
    0.00000E+00         0.00000E+00        -0.17873E+08
 
   -0.18011E+08         0.19933E+07         0.00000E+00
    0.19933E+07        -0.40170E+08         0.00000E+00
    0.00000E+00         0.00000E+00        -0.18020E+08
 
   -0.18161E+08         0.19793E+07         0.00000E+00
    0.19793E+07        -0.40454E+08         0.00000E+00
    0.00000E+00         0.00000E+00        -0.18163E+08
 
   -0.18306E+08         0.19644E+07         0.00000E+00
    0.19644E+07        -0.40731E+08         0.00000E+00
    0.00000E+00         0.00000E+00        -0.18304E+08
 
   -0.18448E+08         0.19486E+07         0.00000E+00
    0.19486E+07        -0.41002E+08         0.00000E+00
    0.00000E+00         0.00000E+00        -0.18441E+08
 
   -0.18586E+08         0.19323E+07         0.00000E+00
    0.19323E+07        -0.41267E+08         0.00000E+00
    0.00000E+00         0.00000E+00        -0.18576E+08
 
   -0.18722E+08         0.19156E+07         0.00000E+00
    0.19156E+07        -0.41527E+08         0.00000E+00
    0.00000E+00         0.00000E+00        -0.18708E+08
 
   -0.18853E+08         0.18986E+07         0.00000E+00
    0.18986E+07        -0.41781E+08         0.00000E+00
    0.00000E+00         0.00000E+00        -0.18838E+08
 
   -0.18983E+08         0.18815E+07         0.00000E+00
    0.18815E+07        -0.42030E+08         0.00000E+00
    0.00000E+00         0.00000E+00        -0.18965E+08
 
   -0.19109E+08         0.18643E+07         0.00000E+00
    0.18643E+07        -0.42275E+08         0.00000E+00
    0.00000E+00         0.00000E+00        -0.19091E+08
 
   -0.19233E+08         0.18473E+07         0.00000E+00
    0.18473E+07        -0.42516E+08         0.00000E+00
    0.00000E+00         0.00000E+00        -0.19214E+08
 
   -0.19355E+08         0.18304E+07         0.00000E+00
    0.18304E+07        -0.42752E+08         0.00000E+00
    0.00000E+00         0.00000E+00        -0.19336E+08
 
   -0.19475E+08         0.18138E+07         0.00000E+00
    0.18138E+07        -0.42985E+08         0.00000E+00
    0.00000E+00         0.00000E+00        -0.19455E+08
 
   -0.19593E+08         0.17976E+07         0.00000E+00
    0.17976E+07        -0.43214E+08         0.00000E+00
    0.00000E+00         0.00000E+00        -0.19574E+08
 
   -0.19709E+08         0.17817E+07         0.00000E+00
    0.17817E+07        -0.43440E+08         0.00000E+00
    0.00000E+00         0.00000E+00        -0.19690E+08
 
   -0.19824E+08         0.17663E+07         0.00000E+00
    0.17663E+07        -0.43663E+08         0.00000E+00
    0.00000E+00         0.00000E+00        -0.19806E+08
 
   -0.19937E+08         0.17513E+07         0.00000E+00
    0.17513E+07        -0.43883E+08         0.00000E+00
    0.00000E+00         0.00000E+00        -0.19920E+08
 
   -0.20049E+08         0.17368E+07         0.00000E+00
    0.17368E+07        -0.44101E+08         0.00000E+00
    0.00000E+00         0.00000E+00        -0.20033E+08
 
   -0.20160E+08         0.17228E+07         0.00000E+00
    0.17228E+07        -0.44317E+08         0.00000E+00
    0.00000E+00         0.00000E+00        -0.20146E+08
 
   -0.20270E+08         0.17094E+07         0.00000E+00
    0.17094E+07        -0.44531E+08         0.00000E+00
    0.00000E+00         0.00000E+00        -0.20257E+08
 
   -0.20380E+08         0.16965E+07         0.00000E+00
    0.16965E+07        -0.44743E+08         0.00000E+00
    0.00000E+00         0.00000E+00        -0.20368E+08
 
   -0.20488E+08         0.16842E+07         0.00000E+00
    0.16842E+07        -0.44953E+08         0.00000E+00
    0.00000E+00         0.00000E+00        -0.20478E+08
 
   -0.20596E+08         0.16724E+07         0.00000E+00
    0.16724E+07        -0.45163E+08         0.00000E+00
    0.00000E+00         0.00000E+00        -0.20587E+08
 
   -0.20704E+08         0.16612E+07         0.00000E+00
    0.16612E+07        -0.45372E+08         0.00000E+00
    0.00000E+00         0.00000E+00        -0.20697E+08
 
   -0.20811E+08         0.16505E+07         0.00000E+00
    0.16505E+07        -0.45580E+08         0.00000E+00
    0.00000E+00         0.00000E+00        -0.20806E+08
 
   -0.20919E+08         0.16404E+07         0.00000E+00
    0.16404E+07        -0.45788E+08         0.00000E+00
    0.00000E+00         0.00000E+00        -0.20915E+08
 
   -0.21026E+08         0.16307E+07         0.00000E+00
    0.16307E+07        -0.45995E+08         0.00000E+00
    0.00000E+00         0.00000E+00        -0.21023E+08
 
   -0.21134E+08         0.16215E+07         0.00000E+00
    0.16215E+07        -0.46203E+08         0.00000E+00
    0.00000E+00         0.00000E+00        -0.21133E+08
 
   -0.21242E+08         0.16127E+07         0.00000E+00
    0.16127E+07        -0.46412E+08         0.00000E+00
    0.00000E+00         0.00000E+00        -0.21242E+08
 
   -0.21350E+08         0.16044E+07         0.00000E+00
    0.16044E+07        -0.46621E+08         0.00000E+00
    0.00000E+00         0.00000E+00        -0.21352E+08
 
   -0.21460E+08         0.15963E+07         0.00000E+00
    0.15963E+07        -0.46831E+08         0.00000E+00
    0.00000E+00         0.00000E+00        -0.21462E+08
 
   -0.21569E+08         0.15886E+07         0.00000E+00
    0.15886E+07        -0.47042E+08         0.00000E+00
    0.00000E+00         0.00000E+00        -0.21573E+08
 
   -0.21680E+08         0.15812E+07         0.00000E+00
    0.15812E+07        -0.47254E+08         0.00000E+00
    0.00000E+00         0.00000E+00        -0.21685E+08
 
   -0.21792E+08         0.15739E+07         0.00000E+00
    0.15739E+07        -0.47469E+08         0.00000E+00
    0.00000E+00         0.00000E+00        -0.21797E+08
 
   -0.21905E+08         0.15668E+07         0.00000E+00
    0.15668E+07        -0.47685E+08         0.00000E+00
    0.00000E+00         0.00000E+00        -0.21911E+08
 
   -0.22020E+08         0.15597E+07         0.00000E+00
    0.15597E+07        -0.47904E+08         0.00000E+00
    0.00000E+00         0.00000E+00        -0.22025E+08
 
   -0.22136E+08         0.15526E+07         0.00000E+00
    0.15526E+07        -0.48126E+08         0.00000E+00
    0.00000E+00         0.00000E+00        -0.22141E+08
 
   -0.22253E+08         0.15453E+07         0.00000E+00
    0.15453E+07        -0.48350E+08         0.00000E+00
    0.00000E+00         0.00000E+00        -0.22259E+08
 
   -0.22373E+08         0.15378E+07         0.00000E+00
    0.15378E+07        -0.48577E+08         0.00000E+00
    0.00000E+00         0.00000E+00        -0.22377E+08
 
   -0.22494E+08         0.15300E+07         0.00000E+00
    0.15300E+07        -0.48808E+08         0.00000E+00
    0.00000E+00         0.00000E+00        -0.22498E+08
 
   -0.22618E+08         0.15217E+07         0.00000E+00
    0.15217E+07        -0.49043E+08         0.00000E+00
    0.00000E+00         0.00000E+00        -0.22620E+08
 
   -0.22744E+08         0.15129E+07         0.00000E+00
    0.15129E+07        -0.49282E+08         0.00000E+00
    0.00000E+00         0.00000E+00        -0.22744E+08
 
   -0.22872E+08         0.15033E+07         0.00000E+00
    0.15033E+07        -0.49525E+08         0.00000E+00
    0.00000E+00         0.00000E+00        -0.22870E+08
 
   -0.23003E+08         0.14928E+07         0.00000E+00
    0.14928E+07        -0.49773E+08         0.00000E+00
    0.00000E+00         0.00000E+00        -0.22999E+08
 
   -0.23137E+08         0.14813E+07         0.00000E+00
    0.14813E+07        -0.50027E+08         0.00000E+00
    0.00000E+00         0.00000E+00        -0.23129E+08
 
   -0.23275E+08         0.14685E+07         0.00000E+00
    0.14685E+07        -0.50285E+08         0.00000E+00
    0.00000E+00         0.00000E+00        -0.23263E+08
 
   -0.23415E+08         0.14544E+07         0.00000E+00
    0.14544E+07        -0.50550E+08         0.00000E+00
    0.00000E+00         0.00000E+00        -0.23398E+08
 
   -0.23559E+08         0.14385E+07         0.00000E+00
    0.14385E+07        -0.50821E+08         0.00000E+00
    0.00000E+00         0.00000E+00        -0.23537E+08
 
   -0.23707E+08         0.14208E+07         0.00000E+00
    0.14208E+07        -0.51099E+08         0.00000E+00
    0.00000E+00         0.00000E+00        -0.23679E+08
 
   -0.23858E+08         0.14011E+07         0.00000E+00
    0.14011E+07        -0.51383E+08         0.00000E+00
    0.00000E+00         0.00000E+00        -0.23824E+08
 
   -0.24014E+08         0.13789E+07         0.00000E+00
    0.13789E+07        -0.51676E+08         0.00000E+00
    0.00000E+00         0.00000E+00        -0.23972E+08
 
   -0.24175E+08         0.13542E+07         0.00000E+00
    0.13542E+07        -0.51976E+08         0.00000E+00
    0.00000E+00         0.00000E+00        -0.24124E+08
 
   -0.24340E+08         0.13267E+07         0.00000E+00
    0.13267E+07        -0.52284E+08         0.00000E+00
    0.00000E+00         0.00000E+00        -0.24279E+08
 
   -0.24509E+08         0.12961E+07         0.00000E+00
    0.12961E+07        -0.52602E+08         0.00000E+00
    0.00000E+00         0.00000E+00        -0.24439E+08
 
   -0.24684E+08         0.12623E+07         0.00000E+00
    0.12623E+07        -0.52928E+08         0.00000E+00
    0.00000E+00         0.00000E+00        -0.24603E+08
 
   -0.24863E+08         0.12250E+07         0.00000E+00
    0.12250E+07        -0.53263E+08         0.00000E+00
    0.00000E+00         0.00000E+00        -0.24771E+08
 
   -0.25047E+08         0.11841E+07         0.00000E+00
    0.11841E+07        -0.53608E+08         0.00000E+00
    0.00000E+00         0.00000E+00        -0.24944E+08
 
   -0.25236E+08         0.11397E+07         0.00000E+00
    0.11397E+07        -0.53961E+08         0.00000E+00
    0.00000E+00         0.00000E+00        -0.25121E+08
 
   -0.25430E+08         0.10917E+07         0.00000E+00
    0.10917E+07        -0.54324E+08         0.00000E+00
    0.00000E+00         0.00000E+00        -0.25304E+08
 
   -0.25628E+08         0.10402E+07         0.00000E+00
    0.10402E+07        -0.54694E+08         0.00000E+00
    0.00000E+00         0.00000E+00        -0.25490E+08
 
   -0.25829E+08         0.98545E+06         0.00000E+00
    0.98545E+06        -0.55072E+08         0.00000E+00
    0.00000E+00         0.00000E+00        -0.25680E+08
 
   -0.26032E+08         0.92779E+06         0.00000E+00
    0.92779E+06        -0.55454E+08         0.00000E+00
    0.00000E+00         0.00000E+00        -0.25874E+08
 
   -0.26237E+08         0.86752E+06         0.00000E+00
    0.86752E+06        -0.55840E+08         0.00000E+00
    0.00000E+00         0.00000E+00        -0.26070E+08
 
   -0.26441E+08         0.80493E+06         0.00000E+00
    0.80493E+06        -0.56225E+08         0.00000E+00
    0.00000E+00         0.00000E+00        -0.26266E+08
 
   -0.26645E+08         0.74006E+06         0.00000E+00
    0.74006E+06        -0.56607E+08         0.00000E+00
    0.00000E+00         0.00000E+00        -0.26459E+08
 
   -0.26846E+08         0.67245E+06         0.00000E+00
    0.67245E+06        -0.56980E+08         0.00000E+00
    0.00000E+00         0.00000E+00        -0.26647E+08
 
   -0.27043E+08         0.60075E+06         0.00000E+00
    0.60075E+06        -0.57340E+08         0.00000E+00
    0.00000E+00         0.00000E+00        -0.26824E+08
 
   -0.27237E+08         0.52227E+06         0.00000E+00
    0.52227E+06        -0.57680E+08         0.00000E+00
    0.00000E+00         0.00000E+00        -0.26984E+08
 
   -0.27430E+08         0.43237E+06         0.00000E+00
    0.43237E+06        -0.57995E+08         0.00000E+00
    0.00000E+00         0.00000E+00        -0.27120E+08
 
   -0.27627E+08         0.32482E+06         0.00000E+00
    0.32482E+06        -0.58280E+08         0.00000E+00
    0.00000E+00         0.00000E+00        -0.27219E+08
 
   -0.27844E+08         0.19919E+06         0.00000E+00
    0.19919E+06        -0.58532E+08         0.00000E+00
    0.00000E+00         0.00000E+00        -0.27268E+08
 
   -0.28109E+08         0.66313E+05         0.00000E+00
    0.66313E+05        -0.58770E+08         0.00000E+00
    0.00000E+00         0.00000E+00        -0.27260E+08
 
   -0.12947E+08         0.11706E+06         0.00000E+00
    0.11706E+06        -0.27824E+08         0.00000E+00
    0.00000E+00         0.00000E+00        -0.14646E+08
 
   -0.13314E+08         0.35549E+06         0.00000E+00
    0.35549E+06        -0.27971E+08         0.00000E+00
    0.00000E+00         0.00000E+00        -0.14646E+08
 
   -0.13578E+08         0.59343E+06         0.00000E+00
    0.59343E+06        -0.28248E+08         0.00000E+00
    0.00000E+00         0.00000E+00        -0.14646E+08
 
   -0.13776E+08         0.81318E+06         0.00000E+00
    0.81318E+06        -0.28627E+08         0.00000E+00
    0.00000E+00         0.00000E+00        -0.14646E+08
 
   -0.13935E+08         0.10049E+07         0.00000E+00
    0.10049E+07        -0.29085E+08         0.00000E+00
    0.00000E+00         0.00000E+00        -0.14646E+08
 
   -0.14072E+08         0.11684E+07         0.00000E+00
    0.11684E+07        -0.29601E+08         0.00000E+00
    0.00000E+00         0.00000E+00        -0.14646E+08
 
   -0.14200E+08         0.13048E+07         0.00000E+00
    0.13048E+07        -0.30161E+08         0.00000E+00
    0.00000E+00         0.00000E+00        -0.14646E+08
 
   -0.14327E+08         0.14151E+07         0.00000E+00
    0.14151E+07        -0.30757E+08         0.00000E+00
    0.00000E+00         0.00000E+00        -0.14646E+08
 
   -0.14463E+08         0.15010E+07         0.00000E+00
    0.15010E+07        -0.31351E+08         0.00000E+00
    0.00000E+00         0.00000E+00        -0.14669E+08
 
   -0.14609E+08         0.15367E+07         0.00000E+00
    0.15367E+07        -0.31846E+08         0.00000E+00
    0.00000E+00         0.00000E+00        -0.14825E+08
 
   -0.14778E+08         0.15727E+07         0.00000E+00
    0.15727E+07        -0.32317E+08         0.00000E+00
    0.00000E+00         0.00000E+00        -0.15048E+08
 
   -0.14972E+08         0.16106E+07         0.00000E+00
    0.16106E+07        -0.32806E+08         0.00000E+00
    0.00000E+00         0.00000E+00        -0.15266E+08
 
   -0.15178E+08         0.16508E+07         0.00000E+00
    0.16508E+07        -0.33295E+08         0.00000E+00
    0.00000E+00         0.00000E+00        -0.15476E+08
 
   -0.15389E+08         0.16920E+07         0.00000E+00
    0.16920E+07        -0.33781E+08         0.00000E+00
    0.00000E+00         0.00000E+00        -0.15677E+08
 
   -0.15597E+08         0.17327E+07         0.00000E+00
    0.17327E+07        -0.34260E+08         0.00000E+00
    0.00000E+00         0.00000E+00        -0.15868E+08
 
   -0.15799E+08         0.17717E+07         0.00000E+00
    0.17717E+07        -0.34732E+08         0.00000E+00
    0.00000E+00         0.00000E+00        -0.16050E+08
 
   -0.15994E+08         0.18082E+07         0.00000E+00
    0.18082E+07        -0.35196E+08         0.00000E+00
    0.00000E+00         0.00000E+00        -0.16222E+08
 
   -0.16181E+08         0.18415E+07         0.00000E+00
    0.18415E+07        -0.35651E+08         0.00000E+00
    0.00000E+00         0.00000E+00        -0.16385E+08
 
   -0.16358E+08         0.18712E+07         0.00000E+00
    0.18712E+07        -0.36096E+08         0.00000E+00
    0.00000E+00         0.00000E+00        -0.16539E+08
 
   -0.16526E+08         0.18973E+07         0.00000E+00
    0.18973E+07        -0.36531E+08         0.00000E+00
    0.00000E+00         0.00000E+00        -0.16684E+08
 
   -0.16685E+08         0.19197E+07         0.00000E+00
    0.19197E+07        -0.36957E+08         0.00000E+00
    0.00000E+00         0.00000E+00        -0.16821E+08
 
   -0.16836E+08         0.19385E+07         0.00000E+00
    0.19385E+07        -0.37374E+08         0.00000E+00
    0.00000E+00         0.00000E+00        -0.16951E+08
 
   -0.16978E+08         0.19538E+07         0.00000E+00
    0.19538E+07        -0.37781E+08         0.00000E+00
    0.00000E+00         0.00000E+00        -0.17074E+08
 
   -0.17112E+08         0.19658E+07         0.00000E+00
    0.19658E+07        -0.38180E+08         0.00000E+00
    0.00000E+00         0.00000E+00        -0.17191E+08
 
   -0.17238E+08         0.19748E+07         0.00000E+00
    0.19748E+07        -0.38570E+08         0.00000E+00
    0.00000E+00         0.00000E+00        -0.17302E+08
 
   -0.17366E+08         0.19796E+07         0.00000E+00
    0.19796E+07        -0.38943E+08         0.00000E+00
    0.00000E+00         0.00000E+00        -0.17416E+08
 
   -0.17521E+08         0.19754E+07         0.00000E+00
    0.19754E+07        -0.39272E+08         0.00000E+00
    0.00000E+00         0.00000E+00        -0.17559E+08
 
   -0.17686E+08         0.19665E+07         0.00000E+00
    0.19665E+07        -0.39578E+08         0.00000E+00
    0.00000E+00         0.00000E+00        -0.17713E+08
 
   -0.17845E+08         0.19558E+07         0.00000E+00
    0.19558E+07        -0.39876E+08         0.00000E+00
    0.00000E+00         0.00000E+00        -0.17863E+08
 
   -0.18000E+08         0.19436E+07         0.00000E+00
    0.19436E+07        -0.40167E+08         0.00000E+00
    0.00000E+00         0.00000E+00        -0.18009E+08
 
   -0.18151E+08         0.19302E+07         0.00000E+00
    0.19302E+07        -0.40451E+08         0.00000E+00
    0.00000E+00         0.00000E+00        -0.18153E+08
 
   -0.18297E+08         0.19159E+07         0.00000E+00
    0.19159E+07        -0.40728E+08         0.00000E+00
    0.00000E+00         0.00000E+00        -0.18293E+08
 
   -0.18439E+08         0.19007E+07         0.00000E+00
    0.19007E+07        -0.40999E+08         0.00000E+00
    0.00000E+00         0.00000E+00        -0.18431E+08
 
   -0.18578E+08         0.18850E+07         0.00000E+00
    0.18850E+07        -0.41265E+08         0.00000E+00
    0.00000E+00         0.00000E+00        -0.18565E+08
 
   -0.18713E+08         0.18688E+07         0.00000E+00
    0.18688E+07        -0.41524E+08         0.00000E+00
    0.00000E+00         0.00000E+00        -0.18698E+08
 
   -0.18846E+08         0.18524E+07         0.00000E+00
    0.18524E+07        -0.41779E+08         0.00000E+00
    0.00000E+00         0.00000E+00        -0.18828E+08
 
   -0.18975E+08         0.18359E+07         0.00000E+00
    0.18359E+07        -0.42029E+08         0.00000E+00
    0.00000E+00         0.00000E+00        -0.18955E+08
 
   -0.19102E+08         0.18193E+07         0.00000E+00
    0.18193E+07        -0.42274E+08         0.00000E+00
    0.00000E+00         0.00000E+00        -0.19081E+08
 
   -0.19227E+08         0.18028E+07         0.00000E+00
    0.18028E+07        -0.42514E+08         0.00000E+00
    0.00000E+00         0.00000E+00        -0.19205E+08
 
   -0.19349E+08         0.17865E+07         0.00000E+00
    0.17865E+07        -0.42751E+08         0.00000E+00
    0.00000E+00         0.00000E+00        -0.19327E+08
 
   -0.19469E+08         0.17705E+07         0.00000E+00
    0.17705E+07        -0.42984E+08         0.00000E+00
    0.00000E+00         0.00000E+00        -0.19447E+08
 
   -0.19587E+08         0.17547E+07         0.00000E+00
    0.17547E+07        -0.43213E+08         0.00000E+00
    0.00000E+00         0.00000E+00        -0.19565E+08
 
   -0.19704E+08         0.17394E+07         0.00000E+00
    0.17394E+07        -0.43439E+08         0.00000E+00
    0.00000E+00         0.00000E+00        -0.19682E+08
 
   -0.19819E+08         0.17244E+07         0.00000E+00
    0.17244E+07        -0.43663E+08         0.00000E+00
    0.00000E+00         0.00000E+00        -0.19798E+08
 
   -0.19932E+08         0.17099E+07         0.00000E+00
    0.17099E+07        -0.43883E+08         0.00000E+00
    0.00000E+00         0.00000E+00        -0.19913E+08
 
   -0.20044E+08         0.16958E+07         0.00000E+00
    0.16958E+07        -0.44101E+08         0.00000E+00
    0.00000E+00         0.00000E+00        -0.20026E+08
 
   -0.20156E+08         0.16823E+07         0.00000E+00
    0.16823E+07        -0.44317E+08         0.00000E+00
    0.00000E+00         0.00000E+00        -0.20139E+08
 
   -0.20266E+08         0.16693E+07         0.00000E+00
    0.16693E+07        -0.44531E+08         0.00000E+00
    0.00000E+00         0.00000E+00        -0.20251E+08
 
   -0.20375E+08         0.16568E+07         0.00000E+00
    0.16568E+07        -0.44743E+08         0.00000E+00
    0.00000E+00         0.00000E+00        -0.20362E+08
 
   -0.20484E+08         0.16448E+07         0.00000E+00
    0.16448E+07        -0.44954E+08         0.00000E+00
    0.00000E+00         0.00000E+00        -0.20472E+08
 
   -0.20592E+08         0.16333E+07         0.00000E+00
    0.16333E+07        -0.45164E+08         0.00000E+00
    0.00000E+00         0.00000E+00        -0.20582E+08
 
   -0.20700E+08         0.16224E+07         0.00000E+00
    0.16224E+07        -0.45373E+08         0.00000E+00
    0.00000E+00         0.00000E+00        -0.20691E+08
 
   -0.20807E+08         0.16120E+07         0.00000E+00
    0.16120E+07        -0.45581E+08         0.00000E+00
    0.00000E+00         0.00000E+00        -0.20801E+08
 
   -0.20915E+08         0.16021E+07         0.00000E+00
    0.16021E+07        -0.45789E+08         0.00000E+00
    0.00000E+00         0.00000E+00        -0.20910E+08
 
   -0.21022E+08         0.15927E+07         0.00000E+00
    0.15927E+07        -0.45997E+08         0.00000E+00
    0.00000E+00         0.00000E+00        -0.21019E+08
 
   -0.21130E+08         0.15837E+07         0.00000E+00
    0.15837E+07        -0.46205E+08         0.00000E+00
    0.00000E+00         0.00000E+00        -0.21129E+08
 
   -0.21238E+08         0.15752E+07         0.00000E+00
    0.15752E+07        -0.46414E+08         0.00000E+00
    0.00000E+00         0.00000E+00        -0.21238E+08
 
   -0.21347E+08         0.15670E+07         0.00000E+00
    0.15670E+07        -0.46623E+08         0.00000E+00
    0.00000E+00         0.00000E+00        -0.21348E+08
 
   -0.21456E+08         0.15592E+07         0.00000E+00
    0.15592E+07        -0.46833E+08         0.00000E+00
    0.00000E+00         0.00000E+00        -0.21459E+08
 
   -0.21566E+08         0.15516E+07         0.00000E+00
    0.15516E+07        -0.47044E+08         0.00000E+00
    0.00000E+00         0.00000E+00        -0.21570E+08
 
   -0.21677E+08         0.15443E+07         0.00000E+00
    0.15443E+07        -0.47257E+08         0.00000E+00
    0.00000E+00         0.00000E+00        -0.21682E+08
 
   -0.21789E+08         0.15372E+07         0.00000E+00
    0.15372E+07        -0.47472E+08         0.00000E+00
    0.00000E+00         0.00000E+00        -0.21795E+08
 
   -0.21902E+08         0.15302E+07         0.00000E+00
    0.15302E+07        -0.47688E+08         0.00000E+00
    0.00000E+00         0.00000E+00        -0.21908E+08
 
   -0.22016E+08         0.15232E+07         0.00000E+00
    0.15232E+07        -0.47907E+08         0.00000E+00
    0.00000E+00         0.00000E+00        -0.22023E+08
 
   -0.22132E+08         0.15162E+07         0.00000E+00
    0.15162E+07        -0.48129E+08         0.00000E+00
    0.00000E+00         0.00000E+00        -0.22139E+08
 
   -0.22250E+08         0.15091E+07         0.00000E+00
    0.15091E+07        -0.48353E+08         0.00000E+00
    0.00000E+00         0.00000E+00        -0.22256E+08
 
   -0.22369E+08         0.15017E+07         0.00000E+00
    0.15017E+07        -0.48581E+08         0.00000E+00
    0.00000E+00         0.00000E+00        -0.22375E+08
 
   -0.22491E+08         0.14940E+07         0.00000E+00
    0.14940E+07        -0.48812E+08         0.00000E+00
    0.00000E+00         0.00000E+00        -0.22496E+08
 
   -0.22615E+08         0.14858E+07         0.00000E+00
    0.14858E+07        -0.49046E+08         0.00000E+00
    0.00000E+00         0.00000E+00        -0.22618E+08
 
   -0.22741E+08         0.14771E+07         0.00000E+00
    0.14771E+07        -0.49285E+08         0.00000E+00
    0.00000E+00         0.00000E+00        -0.22742E+08
 
   -0.22869E+08         0.14677E+07         0.00000E+00
    0.14677E+07        -0.49528E+08         0.00000E+00
    0.00000E+00         0.00000E+00        -0.22868E+08
 
   -0.23001E+08         0.14573E+07         0.00000E+00
    0.14573E+07        -0.49776E+08         0.00000E+00
    0.00000E+00         0.00000E+00        -0.22996E+08
 
   -0.23135E+08         0.14460E+07         0.00000E+00
    0.14460E+07        -0.50030E+08         0.00000E+00
    0.00000E+00         0.00000E+00        -0.23127E+08
 
   -0.23273E+08         0.14334E+07         0.00000E+00
    0.14334E+07        -0.50288E+08         0.00000E+00
    0.00000E+00         0.00000E+00        -0.23260E+08
 
   -0.23413E+08         0.14195E+07         0.00000E+00
    0.14195E+07        -0.50553E+08         0.00000E+00
    0.00000E+00         0.00000E+00        -0.23395E+08
 
   -0.23558E+08         0.14039E+07         0.00000E+00
    0.14039E+07        -0.50823E+08         0.00000E+00
    0.00000E+00         0.00000E+00        -0.23533E+08
 
   -0.23706E+08         0.13865E+07         0.00000E+00
    0.13865E+07        -0.51101E+08         0.00000E+00
    0.00000E+00         0.00000E+00        -0.23675E+08
 
   -0.23858E+08         0.13670E+07         0.00000E+00
    0.13670E+07        -0.51385E+08         0.00000E+00
    0.00000E+00         0.00000E+00        -0.23819E+08
 
   -0.24014E+08         0.13452E+07         0.00000E+00
    0.13452E+07        -0.51677E+08         0.00000E+00
    0.00000E+00         0.00000E+00        -0.23966E+08
 
   -0.24174E+08         0.13209E+07         0.00000E+00
    0.13209E+07        -0.51976E+08         0.00000E+00
    0.00000E+00         0.00000E+00        -0.24118E+08
 
   -0.24340E+08         0.12937E+07         0.00000E+00
    0.12937E+07        -0.52284E+08         0.00000E+00
    0.00000E+00         0.00000E+00        -0.24272E+08
 
   -0.24510E+08         0.12635E+07         0.00000E+00
    0.12635E+07        -0.52601E+08         0.00000E+00
    0.00000E+00         0.00000E+00        -0.24431E+08
 
   -0.24685E+08         0.12301E+07         0.00000E+00
    0.12301E+07        -0.52926E+08         0.00000E+00
    0.00000E+00         0.00000E+00        -0.24594E+08
 
   -0.24865E+08         0.11933E+07         0.00000E+00
    0.11933E+07        -0.53261E+08         0.00000E+00
    0.00000E+00         0.00000E+00        -0.24761E+08
 
   -0.25050E+08         0.11529E+07         0.00000E+00
    0.11529E+07        -0.53605E+08         0.00000E+00
    0.00000E+00         0.00000E+00        -0.24933E+08
 
   -0.25239E+08         0.11088E+07         0.00000E+00
    0.11088E+07        -0.53957E+08         0.00000E+00
    0.00000E+00         0.00000E+00        -0.25110E+08
 
   -0.25433E+08         0.10611E+07         0.00000E+00
    0.10611E+07        -0.54319E+08         0.00000E+00
    0.00000E+00         0.00000E+00        -0.25290E+08
 
   -0.25631E+08         0.10099E+07         0.00000E+00
    0.10099E+07        -0.54689E+08         0.00000E+00
    0.00000E+00         0.00000E+00        -0.25476E+08
 
   -0.25833E+08         0.95528E+06         0.00000E+00
    0.95528E+06        -0.55065E+08         0.00000E+00
    0.00000E+00         0.00000E+00        -0.25665E+08
 
   -0.26037E+08         0.89759E+06         0.00000E+00
    0.89759E+06        -0.55447E+08         0.00000E+00
    0.00000E+00         0.00000E+00        -0.25857E+08
 
   -0.26242E+08         0.83714E+06         0.00000E+00
    0.83714E+06        -0.55832E+08         0.00000E+00
    0.00000E+00         0.00000E+00        -0.26052E+08
 
   -0.26448E+08         0.77418E+06         0.00000E+00
    0.77418E+06        -0.56216E+08         0.00000E+00
    0.00000E+00         0.00000E+00        -0.26246E+08
 
   -0.26652E+08         0.70880E+06         0.00000E+00
    0.70880E+06        -0.56597E+08         0.00000E+00
    0.00000E+00         0.00000E+00        -0.26438E+08
 
   -0.26854E+08         0.64063E+06         0.00000E+00
    0.64063E+06        -0.56969E+08         0.00000E+00
    0.00000E+00         0.00000E+00        -0.26624E+08
 
   -0.27053E+08         0.56848E+06         0.00000E+00
    0.56848E+06        -0.57328E+08         0.00000E+00
    0.00000E+00         0.00000E+00        -0.26799E+08
 
   -0.27250E+08         0.48993E+06         0.00000E+00
    0.48993E+06        -0.57667E+08         0.00000E+00
    0.00000E+00         0.00000E+00        -0.26956E+08
 
   -0.27446E+08         0.40091E+06         0.00000E+00
    0.40091E+06        -0.57980E+08         0.00000E+00
    0.00000E+00         0.00000E+00        -0.27087E+08
 
   -0.27649E+08         0.29693E+06         0.00000E+00
    0.29693E+06        -0.58263E+08         0.00000E+00
    0.00000E+00         0.00000E+00        -0.27180E+08
 
   -0.27874E+08         0.17980E+06         0.00000E+00
    0.17980E+06        -0.58516E+08         0.00000E+00
    0.00000E+00         0.00000E+00        -0.27222E+08
 
   -0.28146E+08         0.59464E+05         0.00000E+00
    0.59464E+05        -0.58756E+08         0.00000E+00
    0.00000E+00         0.00000E+00        -0.27210E+08
 
   -0.12793E+08         0.10356E+06         0.00000E+00
    0.10356E+06        -0.27868E+08         0.00000E+00
    0.00000E+00         0.00000E+00        -0.14646E+08
 
   -0.13171E+08         0.31852E+06         0.00000E+00
    0.31852E+06        -0.28017E+08         0.00000E+00
    0.00000E+00         0.00000E+00        -0.14646E+08
 
   -0.13452E+08         0.54047E+06         0.00000E+00
    0.54047E+06        -0.28293E+08         0.00000E+00
    0.00000E+00         0.00000E+00        -0.14646E+08
 
   -0.13669E+08         0.75066E+06         0.00000E+00
    0.75066E+06        -0.28668E+08         0.00000E+00
    0.00000E+00         0.00000E+00        -0.14646E+08
 
   -0.13845E+08         0.93700E+06         0.00000E+00
    0.93700E+06        -0.29120E+08         0.00000E+00
    0.00000E+00         0.00000E+00        -0.14646E+08
 
   -0.13997E+08         0.10980E+07         0.00000E+00
    0.10980E+07        -0.29630E+08         0.00000E+00
    0.00000E+00         0.00000E+00        -0.14646E+08
 
   -0.14139E+08         0.12342E+07         0.00000E+00
    0.12342E+07        -0.30186E+08         0.00000E+00
    0.00000E+00         0.00000E+00        -0.14646E+08
 
   -0.14277E+08         0.13457E+07         0.00000E+00
    0.13457E+07        -0.30776E+08         0.00000E+00
    0.00000E+00         0.00000E+00        -0.14646E+08
 
   -0.14422E+08         0.14352E+07         0.00000E+00
    0.14352E+07        -0.31363E+08         0.00000E+00
    0.00000E+00         0.00000E+00        -0.14674E+08
 
   -0.14572E+08         0.14736E+07         0.00000E+00
    0.14736E+07        -0.31854E+08         0.00000E+00
    0.00000E+00         0.00000E+00        -0.14831E+08
 
   -0.14743E+08         0.15161E+07         0.00000E+00
    0.15161E+07        -0.32325E+08         0.00000E+00
    0.00000E+00         0.00000E+00        -0.15050E+08
 
   -0.14937E+08         0.15592E+07         0.00000E+00
    0.15592E+07        -0.32814E+08         0.00000E+00
    0.00000E+00         0.00000E+00        -0.15265E+08
 
   -0.15143E+08         0.16022E+07         0.00000E+00
    0.16022E+07        -0.33303E+08         0.00000E+00
    0.00000E+00         0.00000E+00        -0.15472E+08
 
   -0.15354E+08         0.16447E+07         0.00000E+00
    0.16447E+07        -0.33789E+08         0.00000E+00
    0.00000E+00         0.00000E+00        -0.15671E+08
 
   -0.15563E+08         0.16859E+07         0.00000E+00
    0.16859E+07        -0.34268E+08         0.00000E+00
    0.00000E+00         0.00000E+00        -0.15860E+08
 
   -0.15766E+08         0.17250E+07         0.00000E+00
    0.17250E+07        -0.34740E+08         0.00000E+00
    0.00000E+00         0.00000E+00        -0.16040E+08
 
   -0.15962E+08         0.17611E+07         0.00000E+00
    0.17611E+07        -0.35203E+08         0.00000E+00
    0.00000E+00         0.00000E+00        -0.16211E+08
 
   -0.16150E+08         0.17940E+07         0.00000E+00
    0.17940E+07        -0.35657E+08         0.00000E+00
    0.00000E+00         0.00000E+00        -0.16372E+08
 
   -0.16329E+08         0.18233E+07         0.00000E+00
    0.18233E+07        -0.36101E+08         0.00000E+00
    0.00000E+00         0.00000E+00        -0.16525E+08
 
   -0.16499E+08         0.18489E+07         0.00000E+00
    0.18489E+07        -0.36536E+08         0.00000E+00
    0.00000E+00         0.00000E+00        -0.16670E+08
 
   -0.16659E+08         0.18708E+07         0.00000E+00
    0.18708E+07        -0.36961E+08         0.00000E+00
    0.00000E+00         0.00000E+00        -0.16807E+08
 
   -0.16811E+08         0.18892E+07         0.00000E+00
    0.18892E+07        -0.37377E+08         0.00000E+00
    0.00000E+00         0.00000E+00        -0.16937E+08
 
   -0.16955E+08         0.19041E+07         0.00000E+00
    0.19041E+07        -0.37784E+08         0.00000E+00
    0.00000E+00         0.00000E+00        -0.17059E+08
 
   -0.17090E+08         0.19159E+07         0.00000E+00
    0.19159E+07        -0.38182E+08         0.00000E+00
    0.00000E+00         0.00000E+00        -0.17176E+08
 
   -0.17218E+08         0.19247E+07         0.00000E+00
    0.19247E+07        -0.38571E+08         0.00000E+00
    0.00000E+00         0.00000E+00        -0.17287E+08
 
   -0.17350E+08         0.19290E+07         0.00000E+00
    0.19290E+07        -0.38942E+08         0.00000E+00
    0.00000E+00         0.00000E+00        -0.17403E+08
 
   -0.17509E+08         0.19247E+07         0.00000E+00
    0.19247E+07        -0.39268E+08         0.00000E+00
    0.00000E+00         0.00000E+00        -0.17549E+08
 
   -0.17674E+08         0.19162E+07         0.00000E+00
    0.19162E+07        -0.39574E+08         0.00000E+00
    0.00000E+00         0.00000E+00        -0.17702E+08
 
   -0.17834E+08         0.19059E+07         0.00000E+00
    0.19059E+07        -0.39873E+08         0.00000E+00
    0.00000E+00         0.00000E+00        -0.17852E+08
 
   -0.17990E+08         0.18943E+07         0.00000E+00
    0.18943E+07        -0.40164E+08         0.00000E+00
    0.00000E+00         0.00000E+00        -0.17999E+08
 
   -0.18141E+08         0.18814E+07         0.00000E+00
    0.18814E+07        -0.40448E+08         0.00000E+00
    0.00000E+00         0.00000E+00        -0.18142E+08
 
   -0.18287E+08         0.18675E+07         0.00000E+00
    0.18675E+07        -0.40725E+08         0.00000E+00
    0.00000E+00         0.00000E+00        -0.18282E+08
 
   -0.18430E+08         0.18529E+07         0.00000E+00
    0.18529E+07        -0.40997E+08         0.00000E+00
    0.00000E+00         0.00000E+00        -0.18420E+08
 
   -0.18570E+08         0.18378E+07         0.00000E+00
    0.18378E+07        -0.41262E+08         0.00000E+00
    0.00000E+00         0.00000E+00        -0.18555E+08
 
   -0.18706E+08         0.18222E+07         0.00000E+00
    0.18222E+07        -0.41522E+08         0.00000E+00
    0.00000E+00         0.00000E+00        -0.18688E+08
 
   -0.18838E+08         0.18064E+07         0.00000E+00
    0.18064E+07        -0.41777E+08         0.00000E+00
    0.00000E+00         0.00000E+00        -0.18818E+08
 
   -0.18968E+08         0.17904E+07         0.00000E+00
    0.17904E+07        -0.42027E+08         0.00000E+00
    0.00000E+00         0.00000E+00        -0.18946E+08
 
   -0.19096E+08         0.17744E+07         0.00000E+00
    0.17744E+07        -0.42272E+08         0.00000E+00
    0.00000E+00         0.00000E+00        -0.19072E+08
 
   -0.19220E+08         0.17585E+07         0.00000E+00
    0.17585E+07        -0.42513E+08         0.00000E+00
    0.00000E+00         0.00000E+00        -0.19196E+08
 
   -0.19343E+08         0.17427E+07         0.00000E+00
    0.17427E+07        -0.42750E+08         0.00000E+00
    0.00000E+00         0.00000E+00        -0.19318E+08
 
   -0.19463E+08         0.17272E+07         0.00000E+00
    0.17272E+07        -0.42983E+08         0.00000E+00
    0.00000E+00         0.00000E+00        -0.19438E+08
 
   -0.19582E+08         0.17120E+07         0.00000E+00
    0.17120E+07        -0.43212E+08         0.00000E+00
    0.00000E+00         0.00000E+00        -0.19557E+08
 
   -0.19699E+08         0.16971E+07         0.00000E+00
    0.16971E+07        -0.43439E+08         0.00000E+00
    0.00000E+00         0.00000E+00        -0.19675E+08
 
   -0.19814E+08         0.16826E+07         0.00000E+00
    0.16826E+07        -0.43662E+08         0.00000E+00
    0.00000E+00         0.00000E+00        -0.19791E+08
 
   -0.19927E+08         0.16685E+07         0.00000E+00
    0.16685E+07        -0.43883E+08         0.00000E+00
    0.00000E+00         0.00000E+00        -0.19906E+08
 
   -0.20040E+08         0.16549E+07         0.00000E+00
    0.16549E+07        -0.44101E+08         0.00000E+00
    0.00000E+00         0.00000E+00        -0.20019E+08
 
   -0.20151E+08         0.16418E+07         0.00000E+00
    0.16418E+07        -0.44317E+08         0.00000E+00
    0.00000E+00         0.00000E+00        -0.20132E+08
 
   -0.20261E+08         0.16291E+07         0.00000E+00
    0.16291E+07        -0.44532E+08         0.00000E+00
    0.00000E+00         0.00000E+00        -0.20244E+08
 
   -0.20371E+08         0.16170E+07         0.00000E+00
    0.16170E+07        -0.44744E+08         0.00000E+00
    0.00000E+00         0.00000E+00        -0.20356E+08
 
   -0.20480E+08         0.16054E+07         0.00000E+00
    0.16054E+07        -0.44955E+08         0.00000E+00
    0.00000E+00         0.00000E+00        -0.20466E+08
 
   -0.20588E+08         0.15943E+07         0.00000E+00
    0.15943E+07        -0.45165E+08         0.00000E+00
    0.00000E+00         0.00000E+00        -0.20577E+08
 
   -0.20696E+08         0.15836E+07         0.00000E+00
    0.15836E+07        -0.45374E+08         0.00000E+00
    0.00000E+00         0.00000E+00        -0.20687E+08
 
   -0.20803E+08         0.15735E+07         0.00000E+00
    0.15735E+07        -0.45583E+08         0.00000E+00
    0.00000E+00         0.00000E+00        -0.20796E+08
 
   -0.20911E+08         0.15639E+07         0.00000E+00
    0.15639E+07        -0.45791E+08         0.00000E+00
    0.00000E+00         0.00000E+00        -0.20906E+08
 
   -0.21018E+08         0.15547E+07         0.00000E+00
    0.15547E+07        -0.45999E+08         0.00000E+00
    0.00000E+00         0.00000E+00        -0.21015E+08
 
   -0.21126E+08         0.15460E+07         0.00000E+00
    0.15460E+07        -0.46207E+08         0.00000E+00
    0.00000E+00         0.00000E+00        -0.21125E+08
 
   -0.21234E+08         0.15376E+07         0.00000E+00
    0.15376E+07        -0.46416E+08         0.00000E+00
    0.00000E+00         0.00000E+00        -0.21235E+08
 
   -0.21343E+08         0.15296E+07         0.00000E+00
    0.15296E+07        -0.46625E+08         0.00000E+00
    0.00000E+00         0.00000E+00        -0.21345E+08
 
   -0.21452E+08         0.15220E+07         0.00000E+00
    0.15220E+07        -0.46835E+08         0.00000E+00
    0.00000E+00         0.00000E+00        -0.21456E+08
 
   -0.21562E+08         0.15146E+07         0.00000E+00
    0.15146E+07        -0.47047E+08         0.00000E+00
    0.00000E+00         0.00000E+00        -0.21567E+08
 
   -0.21673E+08         0.15074E+07         0.00000E+00
    0.15074E+07        -0.47260E+08         0.00000E+00
    0.00000E+00         0.00000E+00        -0.21679E+08
 
   -0.21785E+08         0.15005E+07         0.00000E+00
    0.15005E+07        -0.47474E+08         0.00000E+00
    0.00000E+00         0.00000E+00        -0.21792E+08
 
   -0.21898E+08         0.14936E+07         0.00000E+00
    0.14936E+07        -0.47691E+08         0.00000E+00
    0.00000E+00         0.00000E+00        -0.21906E+08
 
   -0.22013E+08         0.14867E+07         0.00000E+00
    0.14867E+07        -0.47910E+08         0.00000E+00
    0.00000E+00         0.00000E+00        -0.22021E+08
 
   -0.22129E+08         0.14798E+07         0.00000E+00
    0.14798E+07        -0.48132E+08         0.00000E+00
    0.00000E+00         0.00000E+00        -0.22137E+08
 
   -0.22247E+08         0.14728E+07         0.00000E+00
    0.14728E+07        -0.48356E+08         0.00000E+00
    0.00000E+00         0.00000E+00        -0.22254E+08
 
   -0.22366E+08         0.14656E+07         0.00000E+00
    0.14656E+07        -0.48584E+08         0.00000E+00
    0.00000E+00         0.00000E+00        -0.22373E+08
 
   -0.22488E+08         0.14580E+07         0.00000E+00
    0.14580E+07        -0.48815E+08         0.00000E+00
    0.00000E+00         0.00000E+00        -0.22494E+08
 
   -0.22612E+08         0.14500E+07         0.00000E+00
    0.14500E+07        -0.49049E+08         0.00000E+00
    0.00000E+00         0.00000E+00        -0.22616E+08
 
   -0.22738E+08         0.14414E+07         0.00000E+00
    0.14414E+07        -0.49288E+08         0.00000E+00
    0.00000E+00         0.00000E+00        -0.22740E+08
 
   -0.22867E+08         0.14321E+07         0.00000E+00
    0.14321E+07        -0.49531E+08         0.00000E+00
    0.00000E+00         0.00000E+00        -0.22866E+08
 
   -0.22998E+08         0.14219E+07         0.00000E+00
    0.14219E+07        -0.49779E+08         0.00000E+00
    0.00000E+00         0.00000E+00        -0.22994E+08
 
   -0.23133E+08         0.14107E+07         0.00000E+00
    0.14107E+07        -0.50032E+08         0.00000E+00
    0.00000E+00         0.00000E+00        -0.23124E+08
 
   -0.23270E+08         0.13984E+07         0.00000E+00
    0.13984E+07        -0.50291E+08         0.00000E+00
    0.00000E+00         0.00000E+00        -0.23257E+08
 
   -0.23411E+08         0.13846E+07         0.00000E+00
    0.13846E+07        -0.50555E+08         0.00000E+00
    0.00000E+00         0.00000E+00        -0.23392E+08
 
   -0.23556E+08         0.13693E+07         0.00000E+00
    0.13693E+07        -0.50825E+08         0.00000E+00
    0.00000E+00         0.00000E+00        -0.23530E+08
 
   -0.23704E+08         0.13521E+07         0.00000E+00
    0.13521E+07        -0.51102E+08         0.00000E+00
    0.00000E+00         0.00000E+00        -0.23671E+08
 
   -0.23857E+08         0.13330E+07         0.00000E+00
    0.13330E+07        -0.51386E+08         0.00000E+00
    0.00000E+00         0.00000E+00        -0.23814E+08
 
   -0.24013E+08         0.13115E+07         0.00000E+00
    0.13115E+07        -0.51677E+08         0.00000E+00
    0.00000E+00         0.00000E+00        -0.23961E+08
 
   -0.24174E+08         0.12875E+07         0.00000E+00
    0.12875E+07        -0.51977E+08         0.00000E+00
    0.00000E+00         0.00000E+00        -0.24112E+08
 
   -0.24340E+08         0.12608E+07         0.00000E+00
    0.12608E+07        -0.52284E+08         0.00000E+00
    0.00000E+00         0.00000E+00        -0.24266E+08
 
   -0.24510E+08         0.12311E+07         0.00000E+00
    0.12311E+07        -0.52600E+08         0.00000E+00
    0.00000E+00         0.00000E+00        -0.24424E+08
 
   -0.24686E+08         0.11981E+07         0.00000E+00
    0.11981E+07        -0.52925E+08         0.00000E+00
    0.00000E+00         0.00000E+00        -0.24586E+08
 
   -0.24866E+08         0.11617E+07         0.00000E+00
    0.11617E+07        -0.53258E+08         0.00000E+00
    0.00000E+00         0.00000E+00        -0.24752E+08
 
   -0.25052E+08         0.11217E+07         0.00000E+00
    0.11217E+07        -0.53601E+08         0.00000E+00
    0.00000E+00         0.00000E+00        -0.24923E+08
 
   -0.25242E+08         0.10780E+07         0.00000E+00
    0.10780E+07        -0.53953E+08         0.00000E+00
    0.00000E+00         0.00000E+00        -0.25098E+08
 
   -0.25437E+08         0.10307E+07         0.00000E+00
    0.10307E+07        -0.54314E+08         0.00000E+00
    0.00000E+00         0.00000E+00        -0.25278E+08
 
   -0.25635E+08         0.97968E+06         0.00000E+00
    0.97968E+06        -0.54683E+08         0.00000E+00
    0.00000E+00         0.00000E+00        -0.25462E+08
 
   -0.25838E+08         0.92521E+06         0.00000E+00
    0.92521E+06        -0.55058E+08         0.00000E+00
    0.00000E+00         0.00000E+00        -0.25649E+08
 
   -0.26042E+08         0.86751E+06         0.00000E+00
    0.86751E+06        -0.55439E+08         0.00000E+00
    0.00000E+00         0.00000E+00        -0.25840E+08
 
   -0.26249E+08         0.80687E+06         0.00000E+00
    0.80687E+06        -0.55823E+08         0.00000E+00
    0.00000E+00         0.00000E+00        -0.26033E+08
 
   -0.26455E+08         0.74357E+06         0.00000E+00
    0.74357E+06        -0.56207E+08         0.00000E+00
    0.00000E+00         0.00000E+00        -0.26226E+08
 
   -0.26660E+08         0.67774E+06         0.00000E+00
    0.67774E+06        -0.56587E+08         0.00000E+00
    0.00000E+00         0.00000E+00        -0.26417E+08
 
   -0.26864E+08         0.60910E+06         0.00000E+00
    0.60910E+06        -0.56959E+08         0.00000E+00
    0.00000E+00         0.00000E+00        -0.26601E+08
 
   -0.27064E+08         0.53666E+06         0.00000E+00
    0.53666E+06        -0.57316E+08         0.00000E+00
    0.00000E+00         0.00000E+00        -0.26773E+08
 
   -0.27263E+08         0.45833E+06         0.00000E+00
    0.45833E+06        -0.57654E+08         0.00000E+00
    0.00000E+00         0.00000E+00        -0.26927E+08
 
   -0.27463E+08         0.37071E+06         0.00000E+00
    0.37071E+06        -0.57967E+08         0.00000E+00
    0.00000E+00         0.00000E+00        -0.27054E+08
 
   -0.27672E+08         0.27095E+06         0.00000E+00
    0.27095E+06        -0.58249E+08         0.00000E+00
    0.00000E+00         0.00000E+00        -0.27142E+08
 
   -0.27904E+08         0.16228E+06         0.00000E+00
    0.16228E+06        -0.58503E+08         0.00000E+00
    0.00000E+00         0.00000E+00        -0.27179E+08
 
   -0.28183E+08         0.53384E+05         0.00000E+00
    0.53384E+05        -0.58745E+08         0.00000E+00
    0.00000E+00         0.00000E+00        -0.27164E+08
 
   -0.12643E+08         0.91014E+05         0.00000E+00
    0.91014E+05        -0.27907E+08         0.00000E+00
    0.00000E+00         0.00000E+00        -0.14646E+08
 
   -0.13030E+08         0.28428E+06         0.00000E+00
    0.28428E+06        -0.28060E+08         0.00000E+00
    0.00000E+00         0.00000E+00        -0.14646E+08
 
   -0.13327E+08         0.49119E+06         0.00000E+00
    0.49119E+06        -0.28336E+08         0.00000E+00
    0.00000E+00         0.00000E+00        -0.14646E+08
 
   -0.13561E+08         0.69173E+06         0.00000E+00
    0.69173E+06        -0.28707E+08         0.00000E+00
    0.00000E+00         0.00000E+00        -0.14646E+08
 
   -0.13754E+08         0.87222E+06         0.00000E+00
    0.87222E+06        -0.29154E+08         0.00000E+00
    0.00000E+00         0.00000E+00        -0.14646E+08
 
   -0.13921E+08         0.10303E+07         0.00000E+00
    0.10303E+07        -0.29660E+08         0.00000E+00
    0.00000E+00         0.00000E+00        -0.14646E+08
 
   -0.14076E+08         0.11662E+07         0.00000E+00
    0.11662E+07        -0.30210E+08         0.00000E+00
    0.00000E+00         0.00000E+00        -0.14646E+08
 
   -0.14226E+08         0.12785E+07         0.00000E+00
    0.12785E+07        -0.30796E+08         0.00000E+00
    0.00000E+00         0.00000E+00        -0.14646E+08
 
   -0.14379E+08         0.13706E+07         0.00000E+00
    0.13706E+07        -0.31374E+08         0.00000E+00
    0.00000E+00         0.00000E+00        -0.14680E+08
 
   -0.14534E+08         0.14112E+07         0.00000E+00
    0.14112E+07        -0.31863E+08         0.00000E+00
    0.00000E+00         0.00000E+00        -0.14839E+08
 
   -0.14708E+08         0.14598E+07         0.00000E+00
    0.14598E+07        -0.32335E+08         0.00000E+00
    0.00000E+00         0.00000E+00        -0.15054E+08
 
   -0.14903E+08         0.15078E+07         0.00000E+00
    0.15078E+07        -0.32823E+08         0.00000E+00
    0.00000E+00         0.00000E+00        -0.15265E+08
 
   -0.15110E+08         0.15536E+07         0.00000E+00
    0.15536E+07        -0.33312E+08         0.00000E+00
    0.00000E+00         0.00000E+00        -0.15469E+08
 
   -0.15321E+08         0.15976E+07         0.00000E+00
    0.15976E+07        -0.33797E+08         0.00000E+00
    0.00000E+00         0.00000E+00        -0.15665E+08
 
   -0.15530E+08         0.16393E+07         0.00000E+00
    0.16393E+07        -0.34276E+08         0.00000E+00
    0.00000E+00         0.00000E+00        -0.15853E+08
 
   -0.15735E+08         0.16784E+07         0.00000E+00
    0.16784E+07        -0.34748E+08         0.00000E+00
    0.00000E+00         0.00000E+00        -0.16031E+08
 
   -0.15932E+08         0.17143E+07         0.00000E+00
    0.17143E+07        -0.35210E+08         0.00000E+00
    0.00000E+00         0.00000E+00        -0.16200E+08
 
   -0.16121E+08         0.17468E+07         0.00000E+00
    0.17468E+07        -0.35663E+08         0.00000E+00
    0.00000E+00         0.00000E+00        -0.16361E+08
 
   -0.16301E+08         0.17756E+07         0.00000E+00
    0.17756E+07        -0.36107E+08         0.00000E+00
    0.00000E+00         0.00000E+00        -0.16513E+08
 
   -0.16472E+08         0.18008E+07         0.00000E+00
    0.18008E+07        -0.36541E+08         0.00000E+00
    0.00000E+00         0.00000E+00        -0.16656E+08
 
   -0.16635E+08         0.18222E+07         0.00000E+00
    0.18222E+07        -0.36965E+08         0.00000E+00
    0.00000E+00         0.00000E+00        -0.16793E+08
 
   -0.16788E+08         0.18402E+07         0.00000E+00
    0.18402E+07        -0.37380E+08         0.00000E+00
    0.00000E+00         0.00000E+00        -0.16922E+08
 
   -0.16933E+08         0.18548E+07         0.00000E+00
    0.18548E+07        -0.37786E+08         0.00000E+00
    0.00000E+00         0.00000E+00        -0.17045E+08
 
   -0.17070E+08         0.18663E+07         0.00000E+00
    0.18663E+07        -0.38184E+08         0.00000E+00
    0.00000E+00         0.00000E+00        -0.17162E+08
 
   -0.17200E+08         0.18750E+07         0.00000E+00
    0.18750E+07        -0.38573E+08         0.00000E+00
    0.00000E+00         0.00000E+00        -0.17273E+08
 
   -0.17335E+08         0.18788E+07         0.00000E+00
    0.18788E+07        -0.38940E+08         0.00000E+00
    0.00000E+00         0.00000E+00        -0.17391E+08
 
   -0.17497E+08         0.18743E+07         0.00000E+00
    0.18743E+07        -0.39264E+08         0.00000E+00
    0.00000E+00         0.00000E+00        -0.17539E+08
 
   -0.17663E+08         0.18661E+07         0.00000E+00
    0.18661E+07        -0.39571E+08         0.00000E+00
    0.00000E+00         0.00000E+00        -0.17692E+08
 
   -0.17824E+08         0.18563E+07         0.00000E+00
    0.18563E+07        -0.39869E+08         0.00000E+00
    0.00000E+00         0.00000E+00        -0.17842E+08
 
   -0.17980E+08         0.18451E+07         0.00000E+00
    0.18451E+07        -0.40160E+08         0.00000E+00
    0.00000E+00         0.00000E+00        -0.17988E+08
 
   -0.18131E+08         0.18327E+07         0.00000E+00
    0.18327E+07        -0.40445E+08         0.00000E+00
    0.00000E+00         0.00000E+00        -0.18131E+08
 
   -0.18279E+08         0.18194E+07         0.00000E+00
    0.18194E+07        -0.40722E+08         0.00000E+00
    0.00000E+00         0.00000E+00        -0.18272E+08
 
   -0.18422E+08         0.18054E+07         0.00000E+00
    0.18054E+07        -0.40994E+08         0.00000E+00
    0.00000E+00         0.00000E+00        -0.18410E+08
 
   -0.18562E+08         0.17908E+07         0.00000E+00
    0.17908E+07        -0.41260E+08         0.00000E+00
    0.00000E+00         0.00000E+00        -0.18545E+08
 
   -0.18698E+08         0.17757E+07         0.00000E+00
    0.17757E+07        -0.41520E+08         0.00000E+00
    0.00000E+00         0.00000E+00        -0.18678E+08
 
   -0.18831E+08         0.17605E+07         0.00000E+00
    0.17605E+07        -0.41775E+08         0.00000E+00
    0.00000E+00         0.00000E+00        -0.18808E+08
 
   -0.18962E+08         0.17450E+07         0.00000E+00
    0.17450E+07        -0.42025E+08         0.00000E+00
    0.00000E+00         0.00000E+00        -0.18936E+08
 
   -0.19089E+08         0.17296E+07         0.00000E+00
    0.17296E+07        -0.42270E+08         0.00000E+00
    0.00000E+00         0.00000E+00        -0.19062E+08
 
   -0.19214E+08         0.17142E+07         0.00000E+00
    0.17142E+07        -0.42511E+08         0.00000E+00
    0.00000E+00         0.00000E+00        -0.19187E+08
 
   -0.19337E+08         0.16990E+07         0.00000E+00
    0.16990E+07        -0.42748E+08         0.00000E+00
    0.00000E+00         0.00000E+00        -0.19309E+08
 
   -0.19458E+08         0.16840E+07         0.00000E+00
    0.16840E+07        -0.42982E+08         0.00000E+00
    0.00000E+00         0.00000E+00        -0.19430E+08
 
   -0.19577E+08         0.16693E+07         0.00000E+00
    0.16693E+07        -0.43212E+08         0.00000E+00
    0.00000E+00         0.00000E+00        -0.19549E+08
 
   -0.19693E+08         0.16549E+07         0.00000E+00
    0.16549E+07        -0.43438E+08         0.00000E+00
    0.00000E+00         0.00000E+00        -0.19667E+08
 
   -0.19809E+08         0.16408E+07         0.00000E+00
    0.16408E+07        -0.43662E+08         0.00000E+00
    0.00000E+00         0.00000E+00        -0.19783E+08
 
   -0.19923E+08         0.16272E+07         0.00000E+00
    0.16272E+07        -0.43883E+08         0.00000E+00
    0.00000E+00         0.00000E+00        -0.19899E+08
 
   -0.20035E+08         0.16140E+07         0.00000E+00
    0.16140E+07        -0.44101E+08         0.00000E+00
    0.00000E+00         0.00000E+00        -0.20013E+08
 
   -0.20147E+08         0.16013E+07         0.00000E+00
    0.16013E+07        -0.44318E+08         0.00000E+00
    0.00000E+00         0.00000E+00        -0.20126E+08
 
   -0.20257E+08         0.15890E+07         0.00000E+00
    0.15890E+07        -0.44532E+08         0.00000E+00
    0.00000E+00         0.00000E+00        -0.20238E+08
 
   -0.20367E+08         0.15772E+07         0.00000E+00
    0.15772E+07        -0.44745E+08         0.00000E+00
    0.00000E+00         0.00000E+00        -0.20350E+08
 
   -0.20475E+08         0.15660E+07         0.00000E+00
    0.15660E+07        -0.44956E+08         0.00000E+00
    0.00000E+00         0.00000E+00        -0.20461E+08
 
   -0.20584E+08         0.15552E+07         0.00000E+00
    0.15552E+07        -0.45166E+08         0.00000E+00
    0.00000E+00         0.00000E+00        -0.20572E+08
 
   -0.20692E+08         0.15449E+07         0.00000E+00
    0.15449E+07        -0.45376E+08         0.00000E+00
    0.00000E+00         0.00000E+00        -0.20682E+08
 
   -0.20799E+08         0.15350E+07         0.00000E+00
    0.15350E+07        -0.45584E+08         0.00000E+00
    0.00000E+00         0.00000E+00        -0.20792E+08
 
   -0.20907E+08         0.15256E+07         0.00000E+00
    0.15256E+07        -0.45793E+08         0.00000E+00
    0.00000E+00         0.00000E+00        -0.20901E+08
 
   -0.21015E+08         0.15167E+07         0.00000E+00
    0.15167E+07        -0.46001E+08         0.00000E+00
    0.00000E+00         0.00000E+00        -0.21011E+08
 
   -0.21122E+08         0.15082E+07         0.00000E+00
    0.15082E+07        -0.46209E+08         0.00000E+00
    0.00000E+00         0.00000E+00        -0.21121E+08
 
   -0.21231E+08         0.15000E+07         0.00000E+00
    0.15000E+07        -0.46418E+08         0.00000E+00
    0.00000E+00         0.00000E+00        -0.21231E+08
 
   -0.21339E+08         0.14923E+07         0.00000E+00
    0.14923E+07        -0.46627E+08         0.00000E+00
    0.00000E+00         0.00000E+00        -0.21342E+08
 
   -0.21449E+08         0.14848E+07         0.00000E+00
    0.14848E+07        -0.46838E+08         0.00000E+00
    0.00000E+00         0.00000E+00        -0.21453E+08
 
   -0.21559E+08         0.14776E+07         0.00000E+00
    0.14776E+07        -0.47049E+08         0.00000E+00
    0.00000E+00         0.00000E+00        -0.21564E+08
 
   -0.21670E+08         0.14706E+07         0.00000E+00
    0.14706E+07        -0.47262E+08         0.00000E+00
    0.00000E+00         0.00000E+00        -0.21677E+08
 
   -0.21782E+08         0.14637E+07         0.00000E+00
    0.14637E+07        -0.47477E+08         0.00000E+00
    0.00000E+00         0.00000E+00        -0.21790E+08
 
   -0.21895E+08         0.14570E+07         0.00000E+00
    0.14570E+07        -0.47694E+08         0.00000E+00
    0.00000E+00         0.00000E+00        -0.21904E+08
 
   -0.22009E+08         0.14503E+07         0.00000E+00
    0.14503E+07        -0.47913E+08         0.00000E+00
    0.00000E+00         0.00000E+00        -0.22019E+08
 
   -0.22126E+08         0.14435E+07         0.00000E+00
    0.14435E+07        -0.48135E+08         0.00000E+00
    0.00000E+00         0.00000E+00        -0.22135E+08
 
   -0.22244E+08         0.14366E+07         0.00000E+00
    0.14366E+07        -0.48359E+08         0.00000E+00
    0.00000E+00         0.00000E+00        -0.22252E+08
 
   -0.22363E+08         0.14295E+07         0.00000E+00
    0.14295E+07        -0.48587E+08         0.00000E+00
    0.00000E+00         0.00000E+00        -0.22371E+08
 
   -0.22485E+08         0.14220E+07         0.00000E+00
    0.14220E+07        -0.48818E+08         0.00000E+00
    0.00000E+00         0.00000E+00        -0.22492E+08
 
   -0.22609E+08         0.14141E+07         0.00000E+00
    0.14141E+07        -0.49052E+08         0.00000E+00
    0.00000E+00         0.00000E+00        -0.22614E+08
 
   -0.22735E+08         0.14056E+07         0.00000E+00
    0.14056E+07        -0.49291E+08         0.00000E+00
    0.00000E+00         0.00000E+00        -0.22738E+08
 
   -0.22864E+08         0.13965E+07         0.00000E+00
    0.13965E+07        -0.49534E+08         0.00000E+00
    0.00000E+00         0.00000E+00        -0.22864E+08
 
   -0.22996E+08         0.13865E+07         0.00000E+00
    0.13865E+07        -0.49782E+08         0.00000E+00
    0.00000E+00         0.00000E+00        -0.22992E+08
 
   -0.23131E+08         0.13755E+07         0.00000E+00
    0.13755E+07        -0.50035E+08         0.00000E+00
    0.00000E+00         0.00000E+00        -0.23122E+08
 
   -0.23268E+08         0.13633E+07         0.00000E+00
    0.13633E+07        -0.50293E+08         0.00000E+00
    0.00000E+00         0.00000E+00        -0.23254E+08
 
   -0.23410E+08         0.13498E+07         0.00000E+00
    0.13498E+07        -0.50557E+08         0.00000E+00
    0.00000E+00         0.00000E+00        -0.23389E+08
 
   -0.23554E+08         0.13347E+07         0.00000E+00
    0.13347E+07        -0.50827E+08         0.00000E+00
    0.00000E+00         0.00000E+00        -0.23526E+08
 
   -0.23703E+08         0.13179E+07         0.00000E+00
    0.13179E+07        -0.51104E+08         0.00000E+00
    0.00000E+00         0.00000E+00        -0.23667E+08
 
   -0.23856E+08         0.12990E+07         0.00000E+00
    0.12990E+07        -0.51387E+08         0.00000E+00
    0.00000E+00         0.00000E+00        -0.23810E+08
 
   -0.24012E+08         0.12779E+07         0.00000E+00
    0.12779E+07        -0.51678E+08         0.00000E+00
    0.00000E+00         0.00000E+00        -0.23956E+08
 
   -0.24174E+08         0.12543E+07         0.00000E+00
    0.12543E+07        -0.51977E+08         0.00000E+00
    0.00000E+00         0.00000E+00        -0.24106E+08
 
   -0.24340E+08         0.12280E+07         0.00000E+00
    0.12280E+07        -0.52284E+08         0.00000E+00
    0.00000E+00         0.00000E+00        -0.24259E+08
 
   -0.24511E+08         0.11987E+07         0.00000E+00
    0.11987E+07        -0.52599E+08         0.00000E+00
    0.00000E+00         0.00000E+00        -0.24417E+08
 
   -0.24687E+08         0.11661E+07         0.00000E+00
    0.11661E+07        -0.52923E+08         0.00000E+00
    0.00000E+00         0.00000E+00        -0.24578E+08
 
   -0.24868E+08         0.11302E+07         0.00000E+00
    0.11302E+07        -0.53256E+08         0.00000E+00
    0.00000E+00         0.00000E+00        -0.24743E+08
 
   -0.25054E+08         0.10906E+07         0.00000E+00
    0.10906E+07        -0.53598E+08         0.00000E+00
    0.00000E+00         0.00000E+00        -0.24912E+08
 
   -0.25244E+08         0.10474E+07         0.00000E+00
    0.10474E+07        -0.53949E+08         0.00000E+00
    0.00000E+00         0.00000E+00        -0.25086E+08
 
   -0.25440E+08         0.10003E+07         0.00000E+00
    0.10003E+07        -0.54309E+08         0.00000E+00
    0.00000E+00         0.00000E+00        -0.25265E+08
 
   -0.25639E+08         0.94960E+06         0.00000E+00
    0.94960E+06        -0.54677E+08         0.00000E+00
    0.00000E+00         0.00000E+00        -0.25447E+08
 
   -0.25842E+08         0.89527E+06         0.00000E+00
    0.89527E+06        -0.55052E+08         0.00000E+00
    0.00000E+00         0.00000E+00        -0.25634E+08
 
   -0.26048E+08         0.83756E+06         0.00000E+00
    0.83756E+06        -0.55432E+08         0.00000E+00
    0.00000E+00         0.00000E+00        -0.25823E+08
 
   -0.26255E+08         0.77675E+06         0.00000E+00
    0.77675E+06        -0.55815E+08         0.00000E+00
    0.00000E+00         0.00000E+00        -0.26015E+08
 
   -0.26462E+08         0.71315E+06         0.00000E+00
    0.71315E+06        -0.56198E+08         0.00000E+00
    0.00000E+00         0.00000E+00        -0.26207E+08
 
   -0.26669E+08         0.64693E+06         0.00000E+00
    0.64693E+06        -0.56577E+08         0.00000E+00
    0.00000E+00         0.00000E+00        -0.26395E+08
 
   -0.26874E+08         0.57792E+06         0.00000E+00
    0.57792E+06        -0.56948E+08         0.00000E+00
    0.00000E+00         0.00000E+00        -0.26577E+08
 
   -0.27077E+08         0.50535E+06         0.00000E+00
    0.50535E+06        -0.57305E+08         0.00000E+00
    0.00000E+00         0.00000E+00        -0.26748E+08
 
   -0.27278E+08         0.42752E+06         0.00000E+00
    0.42752E+06        -0.57643E+08         0.00000E+00
    0.00000E+00         0.00000E+00        -0.26899E+08
 
   -0.27482E+08         0.34178E+06         0.00000E+00
    0.34178E+06        -0.57954E+08         0.00000E+00
    0.00000E+00         0.00000E+00        -0.27022E+08
 
   -0.27696E+08         0.24670E+06         0.00000E+00
    0.24670E+06        -0.58236E+08         0.00000E+00
    0.00000E+00         0.00000E+00        -0.27105E+08
 
   -0.27936E+08         0.14632E+06         0.00000E+00
    0.14632E+06        -0.58492E+08         0.00000E+00
    0.00000E+00         0.00000E+00        -0.27138E+08
 
   -0.28219E+08         0.47918E+05         0.00000E+00
    0.47918E+05        -0.58736E+08         0.00000E+00
    0.00000E+00         0.00000E+00        -0.27121E+08
 
   -0.12497E+08         0.79256E+05         0.00000E+00
    0.79256E+05        -0.27942E+08         0.00000E+00
    0.00000E+00         0.00000E+00        -0.14646E+08
 
   -0.12891E+08         0.25245E+06         0.00000E+00
    0.25245E+06        -0.28099E+08         0.00000E+00
    0.00000E+00         0.00000E+00        -0.14646E+08
 
   -0.13203E+08         0.44538E+06         0.00000E+00
    0.44538E+06        -0.28376E+08         0.00000E+00
    0.00000E+00         0.00000E+00        -0.14646E+08
 
   -0.13454E+08         0.63624E+06         0.00000E+00
    0.63624E+06        -0.28745E+08         0.00000E+00
    0.00000E+00         0.00000E+00        -0.14646E+08
 
   -0.13663E+08         0.81049E+06         0.00000E+00
    0.81049E+06        -0.29187E+08         0.00000E+00
    0.00000E+00         0.00000E+00        -0.14646E+08
 
   -0.13844E+08         0.96537E+06         0.00000E+00
    0.96537E+06        -0.29689E+08         0.00000E+00
    0.00000E+00         0.00000E+00        -0.14646E+08
 
   -0.14011E+08         0.11006E+07         0.00000E+00
    0.11006E+07        -0.30235E+08         0.00000E+00
    0.00000E+00         0.00000E+00        -0.14646E+08
 
   -0.14173E+08         0.12135E+07         0.00000E+00
    0.12135E+07        -0.30817E+08         0.00000E+00
    0.00000E+00         0.00000E+00        -0.14646E+08
 
   -0.14334E+08         0.13072E+07         0.00000E+00
    0.13072E+07        -0.31387E+08         0.00000E+00
    0.00000E+00         0.00000E+00        -0.14687E+08
 
   -0.14495E+08         0.13497E+07         0.00000E+00
    0.13497E+07        -0.31872E+08         0.00000E+00
    0.00000E+00         0.00000E+00        -0.14848E+08
 
   -0.14673E+08         0.14040E+07         0.00000E+00
    0.14040E+07        -0.32345E+08         0.00000E+00
    0.00000E+00         0.00000E+00        -0.15059E+08
 
   -0.14870E+08         0.14567E+07         0.00000E+00
    0.14567E+07        -0.32833E+08         0.00000E+00
    0.00000E+00         0.00000E+00        -0.15266E+08
 
   -0.15078E+08         0.15052E+07         0.00000E+00
    0.15052E+07        -0.33321E+08         0.00000E+00
    0.00000E+00         0.00000E+00        -0.15467E+08
 
   -0.15290E+08         0.15505E+07         0.00000E+00
    0.15505E+07        -0.33806E+08         0.00000E+00
    0.00000E+00         0.00000E+00        -0.15660E+08
 
   -0.15500E+08         0.15929E+07         0.00000E+00
    0.15929E+07        -0.34284E+08         0.00000E+00
    0.00000E+00         0.00000E+00        -0.15846E+08
 
   -0.15705E+08         0.16320E+07         0.00000E+00
    0.16320E+07        -0.34755E+08         0.00000E+00
    0.00000E+00         0.00000E+00        -0.16022E+08
 
   -0.15903E+08         0.16677E+07         0.00000E+00
    0.16677E+07        -0.35217E+08         0.00000E+00
    0.00000E+00         0.00000E+00        -0.16190E+08
 
   -0.16094E+08         0.16998E+07         0.00000E+00
    0.16998E+07        -0.35669E+08         0.00000E+00
    0.00000E+00         0.00000E+00        -0.16349E+08
 
   -0.16275E+08         0.17282E+07         0.00000E+00
    0.17282E+07        -0.36112E+08         0.00000E+00
    0.00000E+00         0.00000E+00        -0.16500E+08
 
   -0.16448E+08         0.17529E+07         0.00000E+00
    0.17529E+07        -0.36546E+08         0.00000E+00
    0.00000E+00         0.00000E+00        -0.16643E+08
 
   -0.16611E+08         0.17740E+07         0.00000E+00
    0.17740E+07        -0.36969E+08         0.00000E+00
    0.00000E+00         0.00000E+00        -0.16779E+08
 
   -0.16766E+08         0.17915E+07         0.00000E+00
    0.17915E+07        -0.37384E+08         0.00000E+00
    0.00000E+00         0.00000E+00        -0.16908E+08
 
   -0.16913E+08         0.18058E+07         0.00000E+00
    0.18058E+07        -0.37789E+08         0.00000E+00
    0.00000E+00         0.00000E+00        -0.17031E+08
 
   -0.17051E+08         0.18170E+07         0.00000E+00
    0.18170E+07        -0.38186E+08         0.00000E+00
    0.00000E+00         0.00000E+00        -0.17147E+08
 
   -0.17182E+08         0.18254E+07         0.00000E+00
    0.18254E+07        -0.38574E+08         0.00000E+00
    0.00000E+00         0.00000E+00        -0.17258E+08
 
   -0.17320E+08         0.18288E+07         0.00000E+00
    0.18288E+07        -0.38939E+08         0.00000E+00
    0.00000E+00         0.00000E+00        -0.17379E+08
 
   -0.17486E+08         0.18242E+07         0.00000E+00
    0.18242E+07        -0.39261E+08         0.00000E+00
    0.00000E+00         0.00000E+00        -0.17529E+08
 
   -0.17652E+08         0.18164E+07         0.00000E+00
    0.18164E+07        -0.39567E+08         0.00000E+00
    0.00000E+00         0.00000E+00        -0.17682E+08
 
   -0.17814E+08         0.18070E+07         0.00000E+00
    0.18070E+07        -0.39866E+08         0.00000E+00
    0.00000E+00         0.00000E+00        -0.17831E+08
 
   -0.17970E+08         0.17962E+07         0.00000E+00
    0.17962E+07        -0.40157E+08         0.00000E+00
    0.00000E+00         0.00000E+00        -0.17978E+08
 
   -0.18122E+08         0.17843E+07         0.00000E+00
    0.17843E+07        -0.40441E+08         0.00000E+00
    0.00000E+00         0.00000E+00        -0.18121E+08
 
   -0.18270E+08         0.17715E+07         0.00000E+00
    0.17715E+07        -0.40719E+08         0.00000E+00
    0.00000E+00         0.00000E+00        -0.18262E+08
 
   -0.18414E+08         0.17580E+07         0.00000E+00
    0.17580E+07        -0.40991E+08         0.00000E+00
    0.00000E+00         0.00000E+00        -0.18399E+08
 
   -0.18554E+08         0.17439E+07         0.00000E+00
    0.17439E+07        -0.41257E+08         0.00000E+00
    0.00000E+00         0.00000E+00        -0.18535E+08
 
   -0.18691E+08         0.17294E+07         0.00000E+00
    0.17294E+07        -0.41517E+08         0.00000E+00
    0.00000E+00         0.00000E+00        -0.18668E+08
 
   -0.18825E+08         0.17147E+07         0.00000E+00
    0.17147E+07        -0.41773E+08         0.00000E+00
    0.00000E+00         0.00000E+00        -0.18798E+08
 
   -0.18955E+08         0.16998E+07         0.00000E+00
    0.16998E+07        -0.42023E+08         0.00000E+00
    0.00000E+00         0.00000E+00        -0.18927E+08
 
   -0.19083E+08         0.16849E+07         0.00000E+00
    0.16849E+07        -0.42269E+08         0.00000E+00
    0.00000E+00         0.00000E+00        -0.19053E+08
 
   -0.19209E+08         0.16701E+07         0.00000E+00
    0.16701E+07        -0.42510E+08         0.00000E+00
    0.00000E+00         0.00000E+00        -0.19178E+08
 
   -0.19332E+08         0.16554E+07         0.00000E+00
    0.16554E+07        -0.42747E+08         0.00000E+00
    0.00000E+00         0.00000E+00        -0.19301E+08
 
   -0.19453E+08         0.16409E+07         0.00000E+00
    0.16409E+07        -0.42981E+08         0.00000E+00
    0.00000E+00         0.00000E+00        -0.19422E+08
 
   -0.19571E+08         0.16266E+07         0.00000E+00
    0.16266E+07        -0.43211E+08         0.00000E+00
    0.00000E+00         0.00000E+00        -0.19541E+08
 
   -0.19689E+08         0.16127E+07         0.00000E+00
    0.16127E+07        -0.43438E+08         0.00000E+00
    0.00000E+00         0.00000E+00        -0.19659E+08
 
   -0.19804E+08         0.15991E+07         0.00000E+00
    0.15991E+07        -0.43662E+08         0.00000E+00
    0.00000E+00         0.00000E+00        -0.19776E+08
 
   -0.19918E+08         0.15859E+07         0.00000E+00
    0.15859E+07        -0.43883E+08         0.00000E+00
    0.00000E+00         0.00000E+00        -0.19892E+08
 
   -0.20031E+08         0.15731E+07         0.00000E+00
    0.15731E+07        -0.44101E+08         0.00000E+00
    0.00000E+00         0.00000E+00        -0.20006E+08
 
   -0.20142E+08         0.15608E+07         0.00000E+00
    0.15608E+07        -0.44318E+08         0.00000E+00
    0.00000E+00         0.00000E+00        -0.20120E+08
 
   -0.20253E+08         0.15489E+07         0.00000E+00
    0.15489E+07        -0.44533E+08         0.00000E+00
    0.00000E+00         0.00000E+00        -0.20232E+08
 
   -0.20362E+08         0.15375E+07         0.00000E+00
    0.15375E+07        -0.44745E+08         0.00000E+00
    0.00000E+00         0.00000E+00        -0.20344E+08
 
   -0.20471E+08         0.15266E+07         0.00000E+00
    0.15266E+07        -0.44957E+08         0.00000E+00
    0.00000E+00         0.00000E+00        -0.20456E+08
 
   -0.20580E+08         0.15161E+07         0.00000E+00
    0.15161E+07        -0.45167E+08         0.00000E+00
    0.00000E+00         0.00000E+00        -0.20567E+08
 
   -0.20688E+08         0.15061E+07         0.00000E+00
    0.15061E+07        -0.45377E+08         0.00000E+00
    0.00000E+00         0.00000E+00        -0.20677E+08
 
   -0.20796E+08         0.14965E+07         0.00000E+00
    0.14965E+07        -0.45586E+08         0.00000E+00
    0.00000E+00         0.00000E+00        -0.20787E+08
 
   -0.20903E+08         0.14874E+07         0.00000E+00
    0.14874E+07        -0.45794E+08         0.00000E+00
    0.00000E+00         0.00000E+00        -0.20897E+08
 
   -0.21011E+08         0.14787E+07         0.00000E+00
    0.14787E+07        -0.46003E+08         0.00000E+00
    0.00000E+00         0.00000E+00        -0.21007E+08
 
   -0.21119E+08         0.14704E+07         0.00000E+00
    0.14704E+07        -0.46211E+08         0.00000E+00
    0.00000E+00         0.00000E+00        -0.21118E+08
 
   -0.21227E+08         0.14625E+07         0.00000E+00
    0.14625E+07        -0.46420E+08         0.00000E+00
    0.00000E+00         0.00000E+00        -0.21228E+08
 
   -0.21336E+08         0.14549E+07         0.00000E+00
    0.14549E+07        -0.46630E+08         0.00000E+00
    0.00000E+00         0.00000E+00        -0.21339E+08
 
   -0.21445E+08         0.14476E+07         0.00000E+00
    0.14476E+07        -0.46840E+08         0.00000E+00
    0.00000E+00         0.00000E+00        -0.21450E+08
 
   -0.21555E+08         0.14405E+07         0.00000E+00
    0.14405E+07        -0.47052E+08         0.00000E+00
    0.00000E+00         0.00000E+00        -0.21562E+08
 
   -0.21666E+08         0.14337E+07         0.00000E+00
    0.14337E+07        -0.47265E+08         0.00000E+00
    0.00000E+00         0.00000E+00        -0.21674E+08
 
   -0.21778E+08         0.14270E+07         0.00000E+00
    0.14270E+07        -0.47480E+08         0.00000E+00
    0.00000E+00         0.00000E+00        -0.21787E+08
 
   -0.21891E+08         0.14204E+07         0.00000E+00
    0.14204E+07        -0.47697E+08         0.00000E+00
    0.00000E+00         0.00000E+00        -0.21901E+08
 
   -0.22006E+08         0.14138E+07         0.00000E+00
    0.14138E+07        -0.47916E+08         0.00000E+00
    0.00000E+00         0.00000E+00        -0.22017E+08
 
   -0.22122E+08         0.14071E+07         0.00000E+00
    0.14071E+07        -0.48137E+08         0.00000E+00
    0.00000E+00         0.00000E+00        -0.22133E+08
 
   -0.22240E+08         0.14004E+07         0.00000E+00
    0.14004E+07        -0.48362E+08         0.00000E+00
    0.00000E+00         0.00000E+00        -0.22250E+08
 
   -0.22360E+08         0.13934E+07         0.00000E+00
    0.13934E+07        -0.48589E+08         0.00000E+00
    0.00000E+00         0.00000E+00        -0.22369E+08
 
   -0.22482E+08         0.13860E+07         0.00000E+00
    0.13860E+07        -0.48820E+08         0.00000E+00
    0.00000E+00         0.00000E+00        -0.22490E+08
 
   -0.22606E+08         0.13782E+07         0.00000E+00
    0.13782E+07        -0.49055E+08         0.00000E+00
    0.00000E+00         0.00000E+00        -0.22612E+08
 
   -0.22733E+08         0.13699E+07         0.00000E+00
    0.13699E+07        -0.49294E+08         0.00000E+00
    0.00000E+00         0.00000E+00        -0.22736E+08
 
   -0.22862E+08         0.13609E+07         0.00000E+00
    0.13609E+07        -0.49537E+08         0.00000E+00
    0.00000E+00         0.00000E+00        -0.22862E+08
 
   -0.22993E+08         0.13511E+07         0.00000E+00
    0.13511E+07        -0.49785E+08         0.00000E+00
    0.00000E+00         0.00000E+00        -0.22989E+08
 
   -0.23128E+08         0.13403E+07         0.00000E+00
    0.13403E+07        -0.50037E+08         0.00000E+00
    0.00000E+00         0.00000E+00        -0.23119E+08
 
   -0.23266E+08         0.13283E+07         0.00000E+00
    0.13283E+07        -0.50295E+08         0.00000E+00
    0.00000E+00         0.00000E+00        -0.23251E+08
 
   -0.23408E+08         0.13150E+07         0.00000E+00
    0.13150E+07        -0.50559E+08         0.00000E+00
    0.00000E+00         0.00000E+00        -0.23386E+08
 
   -0.23553E+08         0.13002E+07         0.00000E+00
    0.13002E+07        -0.50829E+08         0.00000E+00
    0.00000E+00         0.00000E+00        -0.23523E+08
 
   -0.23702E+08         0.12836E+07         0.00000E+00
    0.12836E+07        -0.51105E+08         0.00000E+00
    0.00000E+00         0.00000E+00        -0.23663E+08
 
   -0.23854E+08         0.12651E+07         0.00000E+00
    0.12651E+07        -0.51388E+08         0.00000E+00
    0.00000E+00         0.00000E+00        -0.23806E+08
 
   -0.24012E+08         0.12444E+07         0.00000E+00
    0.12444E+07        -0.51679E+08         0.00000E+00
    0.00000E+00         0.00000E+00        -0.23952E+08
 
   -0.24173E+08         0.12212E+07         0.00000E+00
    0.12212E+07        -0.51977E+08         0.00000E+00
    0.00000E+00         0.00000E+00        -0.24101E+08
 
   -0.24340E+08         0.11952E+07         0.00000E+00
    0.11952E+07        -0.52283E+08         0.00000E+00
    0.00000E+00         0.00000E+00        -0.24253E+08
 
   -0.24511E+08         0.11664E+07         0.00000E+00
    0.11664E+07        -0.52598E+08         0.00000E+00
    0.00000E+00         0.00000E+00        -0.24409E+08
 
   -0.24688E+08         0.11343E+07         0.00000E+00
    0.11343E+07        -0.52921E+08         0.00000E+00
    0.00000E+00         0.00000E+00        -0.24569E+08
 
   -0.24869E+08         0.10988E+07         0.00000E+00
    0.10988E+07        -0.53253E+08         0.00000E+00
    0.00000E+00         0.00000E+00        -0.24734E+08
 
   -0.25056E+08         0.10597E+07         0.00000E+00
    0.10597E+07        -0.53595E+08         0.00000E+00
    0.00000E+00         0.00000E+00        -0.24902E+08
 
   -0.25247E+08         0.10168E+07         0.00000E+00
    0.10168E+07        -0.53945E+08         0.00000E+00
    0.00000E+00         0.00000E+00        -0.25075E+08
 
   -0.25443E+08         0.97015E+06         0.00000E+00
    0.97015E+06        -0.54304E+08         0.00000E+00
    0.00000E+00         0.00000E+00        -0.25252E+08
 
   -0.25643E+08         0.91967E+06         0.00000E+00
    0.91967E+06        -0.54671E+08         0.00000E+00
    0.00000E+00         0.00000E+00        -0.25433E+08
 
   -0.25847E+08         0.86548E+06         0.00000E+00
    0.86548E+06        -0.55045E+08         0.00000E+00
    0.00000E+00         0.00000E+00        -0.25618E+08
 
   -0.26054E+08         0.80777E+06         0.00000E+00
    0.80777E+06        -0.55424E+08         0.00000E+00
    0.00000E+00         0.00000E+00        -0.25806E+08
 
   -0.26262E+08         0.74683E+06         0.00000E+00
    0.74683E+06        -0.55807E+08         0.00000E+00
    0.00000E+00         0.00000E+00        -0.25996E+08
 
   -0.26470E+08         0.68296E+06         0.00000E+00
    0.68296E+06        -0.56189E+08         0.00000E+00
    0.00000E+00         0.00000E+00        -0.26186E+08
 
   -0.26678E+08         0.61640E+06         0.00000E+00
    0.61640E+06        -0.56568E+08         0.00000E+00
    0.00000E+00         0.00000E+00        -0.26374E+08
 
   -0.26885E+08         0.54712E+06         0.00000E+00
    0.54712E+06        -0.56938E+08         0.00000E+00
    0.00000E+00         0.00000E+00        -0.26554E+08
 
   -0.27090E+08         0.47461E+06         0.00000E+00
    0.47461E+06        -0.57295E+08         0.00000E+00
    0.00000E+00         0.00000E+00        -0.26722E+08
 
   -0.27294E+08         0.39755E+06         0.00000E+00
    0.39755E+06        -0.57632E+08         0.00000E+00
    0.00000E+00         0.00000E+00        -0.26870E+08
 
   -0.27502E+08         0.31409E+06         0.00000E+00
    0.31409E+06        -0.57943E+08         0.00000E+00
    0.00000E+00         0.00000E+00        -0.26990E+08
 
   -0.27722E+08         0.22400E+06         0.00000E+00
    0.22400E+06        -0.58226E+08         0.00000E+00
    0.00000E+00         0.00000E+00        -0.27069E+08
 
   -0.27967E+08         0.13168E+06         0.00000E+00
    0.13168E+06        -0.58483E+08         0.00000E+00
    0.00000E+00         0.00000E+00        -0.27099E+08
 
   -0.28255E+08         0.42948E+05         0.00000E+00
    0.42948E+05        -0.58729E+08         0.00000E+00
    0.00000E+00         0.00000E+00        -0.27080E+08
 
   -0.12352E+08         0.68179E+05         0.00000E+00
    0.68179E+05        -0.27972E+08         0.00000E+00
    0.00000E+00         0.00000E+00        -0.14646E+08
 
   -0.12755E+08         0.22283E+06         0.00000E+00
    0.22283E+06        -0.28134E+08         0.00000E+00
    0.00000E+00         0.00000E+00        -0.14646E+08
 
   -0.13080E+08         0.40284E+06         0.00000E+00
    0.40284E+06        -0.28415E+08         0.00000E+00
    0.00000E+00         0.00000E+00        -0.14646E+08
 
   -0.13348E+08         0.58402E+06         0.00000E+00
    0.58402E+06        -0.28781E+08         0.00000E+00
    0.00000E+00         0.00000E+00        -0.14646E+08
 
   -0.13571E+08         0.75170E+06         0.00000E+00
    0.75170E+06        -0.29220E+08         0.00000E+00
    0.00000E+00         0.00000E+00        -0.14646E+08
 
   -0.13766E+08         0.90298E+06         0.00000E+00
    0.90298E+06        -0.29718E+08         0.00000E+00
    0.00000E+00         0.00000E+00        -0.14646E+08
 
   -0.13945E+08         0.10374E+07         0.00000E+00
    0.10374E+07        -0.30260E+08         0.00000E+00
    0.00000E+00         0.00000E+00        -0.14646E+08
 
   -0.14118E+08         0.11506E+07         0.00000E+00
    0.11506E+07        -0.30837E+08         0.00000E+00
    0.00000E+00         0.00000E+00        -0.14646E+08
 
   -0.14288E+08         0.12448E+07         0.00000E+00
    0.12448E+07        -0.31399E+08         0.00000E+00
    0.00000E+00         0.00000E+00        -0.14695E+08
 
   -0.14454E+08         0.12894E+07         0.00000E+00
    0.12894E+07        -0.31883E+08         0.00000E+00
    0.00000E+00         0.00000E+00        -0.14858E+08
 
   -0.14638E+08         0.13491E+07         0.00000E+00
    0.13491E+07        -0.32357E+08         0.00000E+00
    0.00000E+00         0.00000E+00        -0.15065E+08
 
   -0.14838E+08         0.14058E+07         0.00000E+00
    0.14058E+07        -0.32843E+08         0.00000E+00
    0.00000E+00         0.00000E+00        -0.15268E+08
 
   -0.15048E+08         0.14569E+07         0.00000E+00
    0.14569E+07        -0.33331E+08         0.00000E+00
    0.00000E+00         0.00000E+00        -0.15466E+08
 
   -0.15260E+08         0.15036E+07         0.00000E+00
    0.15036E+07        -0.33815E+08         0.00000E+00
    0.00000E+00         0.00000E+00        -0.15657E+08
 
   -0.15471E+08         0.15466E+07         0.00000E+00
    0.15466E+07        -0.34293E+08         0.00000E+00
    0.00000E+00         0.00000E+00        -0.15840E+08
 
   -0.15677E+08         0.15859E+07         0.00000E+00
    0.15859E+07        -0.34763E+08         0.00000E+00
    0.00000E+00         0.00000E+00        -0.16014E+08
 
   -0.15877E+08         0.16214E+07         0.00000E+00
    0.16214E+07        -0.35224E+08         0.00000E+00
    0.00000E+00         0.00000E+00        -0.16180E+08
 
   -0.16068E+08         0.16531E+07         0.00000E+00
    0.16531E+07        -0.35675E+08         0.00000E+00
    0.00000E+00         0.00000E+00        -0.16338E+08
 
   -0.16251E+08         0.16811E+07         0.00000E+00
    0.16811E+07        -0.36118E+08         0.00000E+00
    0.00000E+00         0.00000E+00        -0.16488E+08
 
   -0.16424E+08         0.17053E+07         0.00000E+00
    0.17053E+07        -0.36550E+08         0.00000E+00
    0.00000E+00         0.00000E+00        -0.16631E+08
 
   -0.16589E+08         0.17259E+07         0.00000E+00
    0.17259E+07        -0.36973E+08         0.00000E+00
    0.00000E+00         0.00000E+00        -0.16766E+08
 
   -0.16746E+08         0.17431E+07         0.00000E+00
    0.17431E+07        -0.37387E+08         0.00000E+00
    0.00000E+00         0.00000E+00        -0.16894E+08
 
   -0.16893E+08         0.17570E+07         0.00000E+00
    0.17570E+07        -0.37792E+08         0.00000E+00
    0.00000E+00         0.00000E+00        -0.17017E+08
 
   -0.17033E+08         0.17680E+07         0.00000E+00
    0.17680E+07        -0.38188E+08         0.00000E+00
    0.00000E+00         0.00000E+00        -0.17133E+08
 
   -0.17165E+08         0.17762E+07         0.00000E+00
    0.17762E+07        -0.38575E+08         0.00000E+00
    0.00000E+00         0.00000E+00        -0.17244E+08
 
   -0.17307E+08         0.17791E+07         0.00000E+00
    0.17791E+07        -0.38937E+08         0.00000E+00
    0.00000E+00         0.00000E+00        -0.17368E+08
 
   -0.17475E+08         0.17744E+07         0.00000E+00
    0.17744E+07        -0.39257E+08         0.00000E+00
    0.00000E+00         0.00000E+00        -0.17519E+08
 
   -0.17642E+08         0.17669E+07         0.00000E+00
    0.17669E+07        -0.39564E+08         0.00000E+00
    0.00000E+00         0.00000E+00        -0.17672E+08
 
   -0.17804E+08         0.17579E+07         0.00000E+00
    0.17579E+07        -0.39862E+08         0.00000E+00
    0.00000E+00         0.00000E+00        -0.17821E+08
 
   -0.17961E+08         0.17476E+07         0.00000E+00
    0.17476E+07        -0.40154E+08         0.00000E+00
    0.00000E+00         0.00000E+00        -0.17967E+08
 
   -0.18114E+08         0.17361E+07         0.00000E+00
    0.17361E+07        -0.40438E+08         0.00000E+00
    0.00000E+00         0.00000E+00        -0.18111E+08
 
   -0.18262E+08         0.17238E+07         0.00000E+00
    0.17238E+07        -0.40717E+08         0.00000E+00
    0.00000E+00         0.00000E+00        -0.18251E+08
 
   -0.18406E+08         0.17107E+07         0.00000E+00
    0.17107E+07        -0.40989E+08         0.00000E+00
    0.00000E+00         0.00000E+00        -0.18389E+08
 
   -0.18547E+08         0.16972E+07         0.00000E+00
    0.16972E+07        -0.41255E+08         0.00000E+00
    0.00000E+00         0.00000E+00        -0.18525E+08
 
   -0.18684E+08         0.16832E+07         0.00000E+00
    0.16832E+07        -0.41515E+08         0.00000E+00
    0.00000E+00         0.00000E+00        -0.18658E+08
 
   -0.18818E+08         0.16690E+07         0.00000E+00
    0.16690E+07        -0.41771E+08         0.00000E+00
    0.00000E+00         0.00000E+00        -0.18789E+08
 
   -0.18949E+08         0.16547E+07         0.00000E+00
    0.16547E+07        -0.42021E+08         0.00000E+00
    0.00000E+00         0.00000E+00        -0.18918E+08
 
   -0.19077E+08         0.16403E+07         0.00000E+00
    0.16403E+07        -0.42267E+08         0.00000E+00
    0.00000E+00         0.00000E+00        -0.19044E+08
 
   -0.19203E+08         0.16260E+07         0.00000E+00
    0.16260E+07        -0.42509E+08         0.00000E+00
    0.00000E+00         0.00000E+00        -0.19169E+08
 
   -0.19326E+08         0.16118E+07         0.00000E+00
    0.16118E+07        -0.42746E+08         0.00000E+00
    0.00000E+00         0.00000E+00        -0.19292E+08
 
   -0.19447E+08         0.15978E+07         0.00000E+00
    0.15978E+07        -0.42980E+08         0.00000E+00
    0.00000E+00         0.00000E+00        -0.19414E+08
 
   -0.19567E+08         0.15840E+07         0.00000E+00
    0.15840E+07        -0.43210E+08         0.00000E+00
    0.00000E+00         0.00000E+00        -0.19533E+08
 
   -0.19684E+08         0.15706E+07         0.00000E+00
    0.15706E+07        -0.43437E+08         0.00000E+00
    0.00000E+00         0.00000E+00        -0.19652E+08
 
   -0.19799E+08         0.15574E+07         0.00000E+00
    0.15574E+07        -0.43661E+08         0.00000E+00
    0.00000E+00         0.00000E+00        -0.19769E+08
 
   -0.19914E+08         0.15447E+07         0.00000E+00
    0.15447E+07        -0.43883E+08         0.00000E+00
    0.00000E+00         0.00000E+00        -0.19885E+08
 
   -0.20026E+08         0.15323E+07         0.00000E+00
    0.15323E+07        -0.44101E+08         0.00000E+00
    0.00000E+00         0.00000E+00        -0.20000E+08
 
   -0.20138E+08         0.15204E+07         0.00000E+00
    0.15204E+07        -0.44318E+08         0.00000E+00
    0.00000E+00         0.00000E+00        -0.20114E+08
 
   -0.20249E+08         0.15089E+07         0.00000E+00
    0.15089E+07        -0.44533E+08         0.00000E+00
    0.00000E+00         0.00000E+00        -0.20227E+08
 
   -0.20358E+08         0.14978E+07         0.00000E+00
    0.14978E+07        -0.44746E+08         0.00000E+00
    0.00000E+00         0.00000E+00        -0.20339E+08
 
   -0.20467E+08         0.14872E+07         0.00000E+00
    0.14872E+07        -0.44958E+08         0.00000E+00
    0.00000E+00         0.00000E+00        -0.20450E+08
 
   -0.20576E+08         0.14770E+07         0.00000E+00
    0.14770E+07        -0.45168E+08         0.00000E+00
    0.00000E+00         0.00000E+00        -0.20562E+08
 
   -0.20684E+08         0.14673E+07         0.00000E+00
    0.14673E+07        -0.45378E+08         0.00000E+00
    0.00000E+00         0.00000E+00        -0.20672E+08
 
   -0.20792E+08         0.14580E+07         0.00000E+00
    0.14580E+07        -0.45587E+08         0.00000E+00
    0.00000E+00         0.00000E+00        -0.20783E+08
 
   -0.20900E+08         0.14492E+07         0.00000E+00
    0.14492E+07        -0.45796E+08         0.00000E+00
    0.00000E+00         0.00000E+00        -0.20893E+08
 
   -0.21007E+08         0.14407E+07         0.00000E+00
    0.14407E+07        -0.46004E+08         0.00000E+00
    0.00000E+00         0.00000E+00        -0.21004E+08
 
   -0.21115E+08         0.14326E+07         0.00000E+00
    0.14326E+07        -0.46213E+08         0.00000E+00
    0.00000E+00         0.00000E+00        -0.21114E+08
 
   -0.21223E+08         0.14249E+07         0.00000E+00
    0.14249E+07        -0.46422E+08         0.00000E+00
    0.00000E+00         0.00000E+00        -0.21225E+08
 
   -0.21332E+08         0.14175E+07         0.00000E+00
    0.14175E+07        -0.46632E+08         0.00000E+00
    0.00000E+00         0.00000E+00        -0.21336E+08
 
   -0.21441E+08         0.14104E+07         0.00000E+00
    0.14104E+07        -0.46842E+08         0.00000E+00
    0.00000E+00         0.00000E+00        -0.21447E+08
 
   -0.21552E+08         0.14035E+07         0.00000E+00
    0.14035E+07        -0.47054E+08         0.00000E+00
    0.00000E+00         0.00000E+00        -0.21559E+08
 
   -0.21663E+08         0.13968E+07         0.00000E+00
    0.13968E+07        -0.47267E+08         0.00000E+00
    0.00000E+00         0.00000E+00        -0.21672E+08
 
   -0.21775E+08         0.13902E+07         0.00000E+00
    0.13902E+07        -0.47482E+08         0.00000E+00
    0.00000E+00         0.00000E+00        -0.21785E+08
 
   -0.21888E+08         0.13838E+07         0.00000E+00
    0.13838E+07        -0.47699E+08         0.00000E+00
    0.00000E+00         0.00000E+00        -0.21899E+08
 
   -0.22003E+08         0.13773E+07         0.00000E+00
    0.13773E+07        -0.47918E+08         0.00000E+00
    0.00000E+00         0.00000E+00        -0.22015E+08
 
   -0.22119E+08         0.13708E+07         0.00000E+00
    0.13708E+07        -0.48140E+08         0.00000E+00
    0.00000E+00         0.00000E+00        -0.22131E+08
 
   -0.22237E+08         0.13641E+07         0.00000E+00
    0.13641E+07        -0.48365E+08         0.00000E+00
    0.00000E+00         0.00000E+00        -0.22249E+08
 
   -0.22357E+08         0.13572E+07         0.00000E+00
    0.13572E+07        -0.48592E+08         0.00000E+00
    0.00000E+00         0.00000E+00        -0.22368E+08
 
   -0.22479E+08         0.13500E+07         0.00000E+00
    0.13500E+07        -0.48823E+08         0.00000E+00
    0.00000E+00         0.00000E+00        -0.22488E+08
 
   -0.22603E+08         0.13424E+07         0.00000E+00
    0.13424E+07        -0.49058E+08         0.00000E+00
    0.00000E+00         0.00000E+00        -0.22610E+08
 
   -0.22730E+08         0.13342E+07         0.00000E+00
    0.13342E+07        -0.49297E+08         0.00000E+00
    0.00000E+00         0.00000E+00        -0.22734E+08
 
   -0.22859E+08         0.13254E+07         0.00000E+00
    0.13254E+07        -0.49540E+08         0.00000E+00
    0.00000E+00         0.00000E+00        -0.22860E+08
 
   -0.22991E+08         0.13157E+07         0.00000E+00
    0.13157E+07        -0.49787E+08         0.00000E+00
    0.00000E+00         0.00000E+00        -0.22987E+08
 
   -0.23126E+08         0.13051E+07         0.00000E+00
    0.13051E+07        -0.50040E+08         0.00000E+00
    0.00000E+00         0.00000E+00        -0.23117E+08
 
   -0.23264E+08         0.12933E+07         0.00000E+00
    0.12933E+07        -0.50298E+08         0.00000E+00
    0.00000E+00         0.00000E+00        -0.23249E+08
 
   -0.23406E+08         0.12803E+07         0.00000E+00
    0.12803E+07        -0.50561E+08         0.00000E+00
    0.00000E+00         0.00000E+00        -0.23383E+08
 
   -0.23551E+08         0.12657E+07         0.00000E+00
    0.12657E+07        -0.50831E+08         0.00000E+00
    0.00000E+00         0.00000E+00        -0.23520E+08
 
   -0.23700E+08         0.12495E+07         0.00000E+00
    0.12495E+07        -0.51107E+08         0.00000E+00
    0.00000E+00         0.00000E+00        -0.23659E+08
 
   -0.23853E+08         0.12313E+07         0.00000E+00
    0.12313E+07        -0.51389E+08         0.00000E+00
    0.00000E+00         0.00000E+00        -0.23802E+08
 
   -0.24011E+08         0.12109E+07         0.00000E+00
    0.12109E+07        -0.51679E+08         0.00000E+00
    0.00000E+00         0.00000E+00        -0.23947E+08
 
   -0.24173E+08         0.11881E+07         0.00000E+00
    0.11881E+07        -0.51977E+08         0.00000E+00
    0.00000E+00         0.00000E+00        -0.24095E+08
 
   -0.24340E+08         0.11626E+07         0.00000E+00
    0.11626E+07        -0.52283E+08         0.00000E+00
    0.00000E+00         0.00000E+00        -0.24247E+08
 
   -0.24512E+08         0.11341E+07         0.00000E+00
    0.11341E+07        -0.52597E+08         0.00000E+00
    0.00000E+00         0.00000E+00        -0.24402E+08
 
   -0.24688E+08         0.11025E+07         0.00000E+00
    0.11025E+07        -0.52919E+08         0.00000E+00
    0.00000E+00         0.00000E+00        -0.24562E+08
 
   -0.24870E+08         0.10675E+07         0.00000E+00
    0.10675E+07        -0.53251E+08         0.00000E+00
    0.00000E+00         0.00000E+00        -0.24725E+08
 
   -0.25058E+08         0.10288E+07         0.00000E+00
    0.10288E+07        -0.53591E+08         0.00000E+00
    0.00000E+00         0.00000E+00        -0.24892E+08
 
   -0.25250E+08         0.98641E+06         0.00000E+00
    0.98641E+06        -0.53941E+08         0.00000E+00
    0.00000E+00         0.00000E+00        -0.25064E+08
 
   -0.25446E+08         0.94009E+06         0.00000E+00
    0.94009E+06        -0.54299E+08         0.00000E+00
    0.00000E+00         0.00000E+00        -0.25239E+08
 
   -0.25647E+08         0.88989E+06         0.00000E+00
    0.88989E+06        -0.54665E+08         0.00000E+00
    0.00000E+00         0.00000E+00        -0.25419E+08
 
   -0.25852E+08         0.83586E+06         0.00000E+00
    0.83586E+06        -0.55038E+08         0.00000E+00
    0.00000E+00         0.00000E+00        -0.25603E+08
 
   -0.26059E+08         0.77819E+06         0.00000E+00
    0.77819E+06        -0.55417E+08         0.00000E+00
    0.00000E+00         0.00000E+00        -0.25789E+08
 
   -0.26269E+08         0.71714E+06         0.00000E+00
    0.71714E+06        -0.55798E+08         0.00000E+00
    0.00000E+00         0.00000E+00        -0.25978E+08
 
   -0.26479E+08         0.65305E+06         0.00000E+00
    0.65305E+06        -0.56180E+08         0.00000E+00
    0.00000E+00         0.00000E+00        -0.26166E+08
 
   -0.26688E+08         0.58622E+06         0.00000E+00
    0.58622E+06        -0.56558E+08         0.00000E+00
    0.00000E+00         0.00000E+00        -0.26352E+08
 
   -0.26897E+08         0.51678E+06         0.00000E+00
    0.51678E+06        -0.56929E+08         0.00000E+00
    0.00000E+00         0.00000E+00        -0.26530E+08
 
   -0.27104E+08         0.44447E+06         0.00000E+00
    0.44447E+06        -0.57285E+08         0.00000E+00
    0.00000E+00         0.00000E+00        -0.26696E+08
 
   -0.27311E+08         0.36843E+06         0.00000E+00
    0.36843E+06        -0.57622E+08         0.00000E+00
    0.00000E+00         0.00000E+00        -0.26842E+08
 
   -0.27523E+08         0.28761E+06         0.00000E+00
    0.28761E+06        -0.57934E+08         0.00000E+00
    0.00000E+00         0.00000E+00        -0.26958E+08
 
   -0.27748E+08         0.20270E+06         0.00000E+00
    0.20270E+06        -0.58217E+08         0.00000E+00
    0.00000E+00         0.00000E+00        -0.27034E+08
 
   -0.27999E+08         0.11813E+06         0.00000E+00
    0.11813E+06        -0.58477E+08         0.00000E+00
    0.00000E+00         0.00000E+00        -0.27062E+08
 
   -0.28291E+08         0.38383E+05         0.00000E+00
    0.38383E+05        -0.58725E+08         0.00000E+00
    0.00000E+00         0.00000E+00        -0.27042E+08
 
   -0.12209E+08         0.57736E+05         0.00000E+00
    0.57736E+05        -0.27998E+08         0.00000E+00
    0.00000E+00         0.00000E+00        -0.14646E+08
 
   -0.12619E+08         0.19533E+06         0.00000E+00
    0.19533E+06        -0.28167E+08         0.00000E+00
    0.00000E+00         0.00000E+00        -0.14646E+08
 
   -0.12958E+08         0.36346E+06         0.00000E+00
    0.36346E+06        -0.28451E+08         0.00000E+00
    0.00000E+00         0.00000E+00        -0.14646E+08
 
   -0.13241E+08         0.53490E+06         0.00000E+00
    0.53490E+06        -0.28815E+08         0.00000E+00
    0.00000E+00         0.00000E+00        -0.14646E+08
 
   -0.13479E+08         0.69576E+06         0.00000E+00
    0.69576E+06        -0.29251E+08         0.00000E+00
    0.00000E+00         0.00000E+00        -0.14646E+08
 
   -0.13687E+08         0.84310E+06         0.00000E+00
    0.84310E+06        -0.29746E+08         0.00000E+00
    0.00000E+00         0.00000E+00        -0.14646E+08
 
   -0.13878E+08         0.97637E+06         0.00000E+00
    0.97637E+06        -0.30285E+08         0.00000E+00
    0.00000E+00         0.00000E+00        -0.14646E+08
 
   -0.14062E+08         0.10901E+07         0.00000E+00
    0.10901E+07        -0.30857E+08         0.00000E+00
    0.00000E+00         0.00000E+00        -0.14646E+08
 
   -0.14240E+08         0.11835E+07         0.00000E+00
    0.11835E+07        -0.31411E+08         0.00000E+00
    0.00000E+00         0.00000E+00        -0.14703E+08
 
   -0.14413E+08         0.12305E+07         0.00000E+00
    0.12305E+07        -0.31895E+08         0.00000E+00
    0.00000E+00         0.00000E+00        -0.14870E+08
 
   -0.14604E+08         0.12952E+07         0.00000E+00
    0.12952E+07        -0.32369E+08         0.00000E+00
    0.00000E+00         0.00000E+00        -0.15072E+08
 
   -0.14808E+08         0.13554E+07         0.00000E+00
    0.13554E+07        -0.32854E+08         0.00000E+00
    0.00000E+00         0.00000E+00        -0.15271E+08
 
   -0.15019E+08         0.14088E+07         0.00000E+00
    0.14088E+07        -0.33341E+08         0.00000E+00
    0.00000E+00         0.00000E+00        -0.15466E+08
 
   -0.15232E+08         0.14569E+07         0.00000E+00
    0.14569E+07        -0.33824E+08         0.00000E+00
    0.00000E+00         0.00000E+00        -0.15654E+08
 
   -0.15444E+08         0.15005E+07         0.00000E+00
    0.15005E+07        -0.34301E+08         0.00000E+00
    0.00000E+00         0.00000E+00        -0.15834E+08
 
   -0.15651E+08         0.15399E+07         0.00000E+00
    0.15399E+07        -0.34770E+08         0.00000E+00
    0.00000E+00         0.00000E+00        -0.16007E+08
 
   -0.15851E+08         0.15752E+07         0.00000E+00
    0.15752E+07        -0.35230E+08         0.00000E+00
    0.00000E+00         0.00000E+00        -0.16171E+08
 
   -0.16044E+08         0.16067E+07         0.00000E+00
    0.16067E+07        -0.35681E+08         0.00000E+00
    0.00000E+00         0.00000E+00        -0.16328E+08
 
   -0.16228E+08         0.16342E+07         0.00000E+00
    0.16342E+07        -0.36123E+08         0.00000E+00
    0.00000E+00         0.00000E+00        -0.16477E+08
 
   -0.16402E+08         0.16580E+07         0.00000E+00
    0.16580E+07        -0.36555E+08         0.00000E+00
    0.00000E+00         0.00000E+00        -0.16618E+08
 
   -0.16569E+08         0.16781E+07         0.00000E+00
    0.16781E+07        -0.36977E+08         0.00000E+00
    0.00000E+00         0.00000E+00        -0.16753E+08
 
   -0.16726E+08         0.16949E+07         0.00000E+00
    0.16949E+07        -0.37390E+08         0.00000E+00
    0.00000E+00         0.00000E+00        -0.16881E+08
 
   -0.16875E+08         0.17085E+07         0.00000E+00
    0.17085E+07        -0.37794E+08         0.00000E+00
    0.00000E+00         0.00000E+00        -0.17003E+08
 
   -0.17016E+08         0.17192E+07         0.00000E+00
    0.17192E+07        -0.38190E+08         0.00000E+00
    0.00000E+00         0.00000E+00        -0.17120E+08
 
   -0.17149E+08         0.17272E+07         0.00000E+00
    0.17272E+07        -0.38577E+08         0.00000E+00
    0.00000E+00         0.00000E+00        -0.17231E+08
 
   -0.17294E+08         0.17297E+07         0.00000E+00
    0.17297E+07        -0.38936E+08         0.00000E+00
    0.00000E+00         0.00000E+00        -0.17356E+08
 
   -0.17465E+08         0.17248E+07         0.00000E+00
    0.17248E+07        -0.39254E+08         0.00000E+00
    0.00000E+00         0.00000E+00        -0.17509E+08
 
   -0.17632E+08         0.17177E+07         0.00000E+00
    0.17177E+07        -0.39560E+08         0.00000E+00
    0.00000E+00         0.00000E+00        -0.17662E+08
 
   -0.17795E+08         0.17090E+07         0.00000E+00
    0.17090E+07        -0.39859E+08         0.00000E+00
    0.00000E+00         0.00000E+00        -0.17811E+08
 
   -0.17953E+08         0.16991E+07         0.00000E+00
    0.16991E+07        -0.40151E+08         0.00000E+00
    0.00000E+00         0.00000E+00        -0.17957E+08
 
   -0.18106E+08         0.16881E+07         0.00000E+00
    0.16881E+07        -0.40436E+08         0.00000E+00
    0.00000E+00         0.00000E+00        -0.18101E+08
 
   -0.18254E+08         0.16762E+07         0.00000E+00
    0.16762E+07        -0.40714E+08         0.00000E+00
    0.00000E+00         0.00000E+00        -0.18241E+08
 
   -0.18399E+08         0.16637E+07         0.00000E+00
    0.16637E+07        -0.40986E+08         0.00000E+00
    0.00000E+00         0.00000E+00        -0.18380E+08
 
   -0.18540E+08         0.16506E+07         0.00000E+00
    0.16506E+07        -0.41252E+08         0.00000E+00
    0.00000E+00         0.00000E+00        -0.18515E+08
 
   -0.18678E+08         0.16372E+07         0.00000E+00
    0.16372E+07        -0.41513E+08         0.00000E+00
    0.00000E+00         0.00000E+00        -0.18649E+08
 
   -0.18812E+08         0.16235E+07         0.00000E+00
    0.16235E+07        -0.41769E+08         0.00000E+00
    0.00000E+00         0.00000E+00        -0.18780E+08
 
   -0.18943E+08         0.16097E+07         0.00000E+00
    0.16097E+07        -0.42019E+08         0.00000E+00
    0.00000E+00         0.00000E+00        -0.18909E+08
 
   -0.19072E+08         0.15958E+07         0.00000E+00
    0.15958E+07        -0.42266E+08         0.00000E+00
    0.00000E+00         0.00000E+00        -0.19036E+08
 
   -0.19198E+08         0.15820E+07         0.00000E+00
    0.15820E+07        -0.42507E+08         0.00000E+00
    0.00000E+00         0.00000E+00        -0.19161E+08
 
   -0.19321E+08         0.15683E+07         0.00000E+00
    0.15683E+07        -0.42745E+08         0.00000E+00
    0.00000E+00         0.00000E+00        -0.19284E+08
 
   -0.19443E+08         0.15548E+07         0.00000E+00
    0.15548E+07        -0.42979E+08         0.00000E+00
    0.00000E+00         0.00000E+00        -0.19406E+08
 
   -0.19562E+08         0.15415E+07         0.00000E+00
    0.15415E+07        -0.43209E+08         0.00000E+00
    0.00000E+00         0.00000E+00        -0.19526E+08
 
   -0.19679E+08         0.15285E+07         0.00000E+00
    0.15285E+07        -0.43437E+08         0.00000E+00
    0.00000E+00         0.00000E+00        -0.19645E+08
 
   -0.19795E+08         0.15158E+07         0.00000E+00
    0.15158E+07        -0.43661E+08         0.00000E+00
    0.00000E+00         0.00000E+00        -0.19762E+08
 
   -0.19909E+08         0.15034E+07         0.00000E+00
    0.15034E+07        -0.43882E+08         0.00000E+00
    0.00000E+00         0.00000E+00        -0.19878E+08
 
   -0.20022E+08         0.14915E+07         0.00000E+00
    0.14915E+07        -0.44102E+08         0.00000E+00
    0.00000E+00         0.00000E+00        -0.19993E+08
 
   -0.20134E+08         0.14799E+07         0.00000E+00
    0.14799E+07        -0.44318E+08         0.00000E+00
    0.00000E+00         0.00000E+00        -0.20108E+08
 
   -0.20245E+08         0.14688E+07         0.00000E+00
    0.14688E+07        -0.44533E+08         0.00000E+00
    0.00000E+00         0.00000E+00        -0.20221E+08
 
   -0.20355E+08         0.14581E+07         0.00000E+00
    0.14581E+07        -0.44747E+08         0.00000E+00
    0.00000E+00         0.00000E+00        -0.20333E+08
 
   -0.20464E+08         0.14478E+07         0.00000E+00
    0.14478E+07        -0.44959E+08         0.00000E+00
    0.00000E+00         0.00000E+00        -0.20445E+08
 
   -0.20572E+08         0.14379E+07         0.00000E+00
    0.14379E+07        -0.45169E+08         0.00000E+00
    0.00000E+00         0.00000E+00        -0.20557E+08
 
   -0.20680E+08         0.14285E+07         0.00000E+00
    0.14285E+07        -0.45379E+08         0.00000E+00
    0.00000E+00         0.00000E+00        -0.20668E+08
 
   -0.20788E+08         0.14195E+07         0.00000E+00
    0.14195E+07        -0.45588E+08         0.00000E+00
    0.00000E+00         0.00000E+00        -0.20779E+08
 
   -0.20896E+08         0.14109E+07         0.00000E+00
    0.14109E+07        -0.45797E+08         0.00000E+00
    0.00000E+00         0.00000E+00        -0.20889E+08
 
   -0.21004E+08         0.14027E+07         0.00000E+00
    0.14027E+07        -0.46006E+08         0.00000E+00
    0.00000E+00         0.00000E+00        -0.21000E+08
 
   -0.21112E+08         0.13948E+07         0.00000E+00
    0.13948E+07        -0.46215E+08         0.00000E+00
    0.00000E+00         0.00000E+00        -0.21111E+08
 
   -0.21220E+08         0.13873E+07         0.00000E+00
    0.13873E+07        -0.46424E+08         0.00000E+00
    0.00000E+00         0.00000E+00        -0.21222E+08
 
   -0.21329E+08         0.13801E+07         0.00000E+00
    0.13801E+07        -0.46634E+08         0.00000E+00
    0.00000E+00         0.00000E+00        -0.21333E+08
 
   -0.21438E+08         0.13731E+07         0.00000E+00
    0.13731E+07        -0.46844E+08         0.00000E+00
    0.00000E+00         0.00000E+00        -0.21444E+08
 
   -0.21548E+08         0.13664E+07         0.00000E+00
    0.13664E+07        -0.47056E+08         0.00000E+00
    0.00000E+00         0.00000E+00        -0.21556E+08
 
   -0.21659E+08         0.13599E+07         0.00000E+00
    0.13599E+07        -0.47270E+08         0.00000E+00
    0.00000E+00         0.00000E+00        -0.21669E+08
 
   -0.21771E+08         0.13535E+07         0.00000E+00
    0.13535E+07        -0.47485E+08         0.00000E+00
    0.00000E+00         0.00000E+00        -0.21783E+08
 
   -0.21885E+08         0.13472E+07         0.00000E+00
    0.13472E+07        -0.47702E+08         0.00000E+00
    0.00000E+00         0.00000E+00        -0.21897E+08
 
   -0.22000E+08         0.13408E+07         0.00000E+00
    0.13408E+07        -0.47921E+08         0.00000E+00
    0.00000E+00         0.00000E+00        -0.22013E+08
 
   -0.22116E+08         0.13344E+07         0.00000E+00
    0.13344E+07        -0.48143E+08         0.00000E+00
    0.00000E+00         0.00000E+00        -0.22129E+08
 
   -0.22234E+08         0.13279E+07         0.00000E+00
    0.13279E+07        -0.48367E+08         0.00000E+00
    0.00000E+00         0.00000E+00        -0.22247E+08
 
   -0.22354E+08         0.13211E+07         0.00000E+00
    0.13211E+07        -0.48595E+08         0.00000E+00
    0.00000E+00         0.00000E+00        -0.22366E+08
 
   -0.22476E+08         0.13141E+07         0.00000E+00
    0.13141E+07        -0.48826E+08         0.00000E+00
    0.00000E+00         0.00000E+00        -0.22486E+08
 
   -0.22600E+08         0.13066E+07         0.00000E+00
    0.13066E+07        -0.49061E+08         0.00000E+00
    0.00000E+00         0.00000E+00        -0.22609E+08
 
   -0.22727E+08         0.12985E+07         0.00000E+00
    0.12985E+07        -0.49299E+08         0.00000E+00
    0.00000E+00         0.00000E+00        -0.22732E+08
 
   -0.22856E+08         0.12898E+07         0.00000E+00
    0.12898E+07        -0.49542E+08         0.00000E+00
    0.00000E+00         0.00000E+00        -0.22858E+08
 
   -0.22988E+08         0.12804E+07         0.00000E+00
    0.12804E+07        -0.49790E+08         0.00000E+00
    0.00000E+00         0.00000E+00        -0.22985E+08
 
   -0.23124E+08         0.12699E+07         0.00000E+00
    0.12699E+07        -0.50042E+08         0.00000E+00
    0.00000E+00         0.00000E+00        -0.23115E+08
 
   -0.23262E+08         0.12584E+07         0.00000E+00
    0.12584E+07        -0.50300E+08         0.00000E+00
    0.00000E+00         0.00000E+00        -0.23246E+08
 
   -0.23404E+08         0.12456E+07         0.00000E+00
    0.12456E+07        -0.50563E+08         0.00000E+00
    0.00000E+00         0.00000E+00        -0.23380E+08
 
   -0.23549E+08         0.12313E+07         0.00000E+00
    0.12313E+07        -0.50832E+08         0.00000E+00
    0.00000E+00         0.00000E+00        -0.23517E+08
 
   -0.23699E+08         0.12153E+07         0.00000E+00
    0.12153E+07        -0.51108E+08         0.00000E+00
    0.00000E+00         0.00000E+00        -0.23656E+08
 
   -0.23852E+08         0.11975E+07         0.00000E+00
    0.11975E+07        -0.51390E+08         0.00000E+00
    0.00000E+00         0.00000E+00        -0.23798E+08
 
   -0.24010E+08         0.11774E+07         0.00000E+00
    0.11774E+07        -0.51680E+08         0.00000E+00
    0.00000E+00         0.00000E+00        -0.23942E+08
 
   -0.24172E+08         0.11550E+07         0.00000E+00
    0.11550E+07        -0.51977E+08         0.00000E+00
    0.00000E+00         0.00000E+00        -0.24090E+08
 
   -0.24340E+08         0.11300E+07         0.00000E+00
    0.11300E+07        -0.52282E+08         0.00000E+00
    0.00000E+00         0.00000E+00        -0.24241E+08
 
   -0.24512E+08         0.11020E+07         0.00000E+00
    0.11020E+07        -0.52595E+08         0.00000E+00
    0.00000E+00         0.00000E+00        -0.24396E+08
 
   -0.24689E+08         0.10709E+07         0.00000E+00
    0.10709E+07        -0.52917E+08         0.00000E+00
    0.00000E+00         0.00000E+00        -0.24554E+08
 
   -0.24872E+08         0.10363E+07         0.00000E+00
    0.10363E+07        -0.53248E+08         0.00000E+00
    0.00000E+00         0.00000E+00        -0.24716E+08
 
   -0.25059E+08         0.99813E+06         0.00000E+00
    0.99813E+06        -0.53588E+08         0.00000E+00
    0.00000E+00         0.00000E+00        -0.24882E+08
 
   -0.25252E+08         0.95613E+06         0.00000E+00
    0.95613E+06        -0.53936E+08         0.00000E+00
    0.00000E+00         0.00000E+00        -0.25052E+08
 
   -0.25450E+08         0.91019E+06         0.00000E+00
    0.91019E+06        -0.54294E+08         0.00000E+00
    0.00000E+00         0.00000E+00        -0.25227E+08
 
   -0.25651E+08         0.86028E+06         0.00000E+00
    0.86028E+06        -0.54659E+08         0.00000E+00
    0.00000E+00         0.00000E+00        -0.25405E+08
 
   -0.25857E+08         0.80644E+06         0.00000E+00
    0.80644E+06        -0.55031E+08         0.00000E+00
    0.00000E+00         0.00000E+00        -0.25587E+08
 
   -0.26066E+08         0.74884E+06         0.00000E+00
    0.74884E+06        -0.55409E+08         0.00000E+00
    0.00000E+00         0.00000E+00        -0.25772E+08
 
   -0.26276E+08         0.68772E+06         0.00000E+00
    0.68772E+06        -0.55790E+08         0.00000E+00
    0.00000E+00         0.00000E+00        -0.25959E+08
 
   -0.26488E+08         0.62346E+06         0.00000E+00
    0.62346E+06        -0.56171E+08         0.00000E+00
    0.00000E+00         0.00000E+00        -0.26146E+08
 
   -0.26699E+08         0.55643E+06         0.00000E+00
    0.55643E+06        -0.56549E+08         0.00000E+00
    0.00000E+00         0.00000E+00        -0.26330E+08
 
   -0.26909E+08         0.48692E+06         0.00000E+00
    0.48692E+06        -0.56919E+08         0.00000E+00
    0.00000E+00         0.00000E+00        -0.26506E+08
 
   -0.27119E+08         0.41497E+06         0.00000E+00
    0.41497E+06        -0.57276E+08         0.00000E+00
    0.00000E+00         0.00000E+00        -0.26670E+08
 
   -0.27330E+08         0.34019E+06         0.00000E+00
    0.34019E+06        -0.57613E+08         0.00000E+00
    0.00000E+00         0.00000E+00        -0.26813E+08
 
   -0.27546E+08         0.26227E+06         0.00000E+00
    0.26227E+06        -0.57925E+08         0.00000E+00
    0.00000E+00         0.00000E+00        -0.26927E+08
 
   -0.27776E+08         0.18265E+06         0.00000E+00
    0.18265E+06        -0.58210E+08         0.00000E+00
    0.00000E+00         0.00000E+00        -0.27000E+08
 
   -0.28032E+08         0.10553E+06         0.00000E+00
    0.10553E+06        -0.58472E+08         0.00000E+00
    0.00000E+00         0.00000E+00        -0.27026E+08
 
   -0.28327E+08         0.34155E+05         0.00000E+00
    0.34155E+05        -0.58722E+08         0.00000E+00
    0.00000E+00         0.00000E+00        -0.27006E+08
 
   -0.12067E+08         0.47968E+05         0.00000E+00
    0.47968E+05        -0.28020E+08         0.00000E+00
    0.00000E+00         0.00000E+00        -0.14646E+08
 
   -0.12485E+08         0.16999E+06         0.00000E+00
    0.16999E+06        -0.28197E+08         0.00000E+00
    0.00000E+00         0.00000E+00        -0.14646E+08
 
   -0.12837E+08         0.32719E+06         0.00000E+00
    0.32719E+06        -0.28485E+08         0.00000E+00
    0.00000E+00         0.00000E+00        -0.14646E+08
 
   -0.13135E+08         0.48869E+06         0.00000E+00
    0.48869E+06        -0.28848E+08         0.00000E+00
    0.00000E+00         0.00000E+00        -0.14646E+08
 
   -0.13387E+08         0.64255E+06         0.00000E+00
    0.64255E+06        -0.29281E+08         0.00000E+00
    0.00000E+00         0.00000E+00        -0.14646E+08
 
   -0.13608E+08         0.78567E+06         0.00000E+00
    0.78567E+06        -0.29774E+08         0.00000E+00
    0.00000E+00         0.00000E+00        -0.14646E+08
 
   -0.13809E+08         0.91736E+06         0.00000E+00
    0.91736E+06        -0.30311E+08         0.00000E+00
    0.00000E+00         0.00000E+00        -0.14646E+08
 
   -0.14003E+08         0.10319E+07         0.00000E+00
    0.10319E+07        -0.30877E+08         0.00000E+00
    0.00000E+00         0.00000E+00        -0.14646E+08
 
   -0.14190E+08         0.11231E+07         0.00000E+00
    0.11231E+07        -0.31424E+08         0.00000E+00
    0.00000E+00         0.00000E+00        -0.14712E+08
 
   -0.14372E+08         0.11735E+07         0.00000E+00
    0.11735E+07        -0.31908E+08         0.00000E+00
    0.00000E+00         0.00000E+00        -0.14883E+08
 
   -0.14570E+08         0.12424E+07         0.00000E+00
    0.12424E+07        -0.32383E+08         0.00000E+00
    0.00000E+00         0.00000E+00        -0.15080E+08
 
   -0.14778E+08         0.13055E+07         0.00000E+00
    0.13055E+07        -0.32866E+08         0.00000E+00
    0.00000E+00         0.00000E+00        -0.15275E+08
 
   -0.14991E+08         0.13610E+07         0.00000E+00
    0.13610E+07        -0.33351E+08         0.00000E+00
    0.00000E+00         0.00000E+00        -0.15466E+08
 
   -0.15206E+08         0.14104E+07         0.00000E+00
    0.14104E+07        -0.33833E+08         0.00000E+00
    0.00000E+00         0.00000E+00        -0.15651E+08
 
   -0.15419E+08         0.14545E+07         0.00000E+00
    0.14545E+07        -0.34309E+08         0.00000E+00
    0.00000E+00         0.00000E+00        -0.15829E+08
 
   -0.15627E+08         0.14940E+07         0.00000E+00
    0.14940E+07        -0.34778E+08         0.00000E+00
    0.00000E+00         0.00000E+00        -0.16000E+08
 
   -0.15828E+08         0.15293E+07         0.00000E+00
    0.15293E+07        -0.35237E+08         0.00000E+00
    0.00000E+00         0.00000E+00        -0.16163E+08
 
   -0.16021E+08         0.15604E+07         0.00000E+00
    0.15604E+07        -0.35687E+08         0.00000E+00
    0.00000E+00         0.00000E+00        -0.16318E+08
 
   -0.16206E+08         0.15875E+07         0.00000E+00
    0.15875E+07        -0.36128E+08         0.00000E+00
    0.00000E+00         0.00000E+00        -0.16466E+08
 
   -0.16382E+08         0.16109E+07         0.00000E+00
    0.16109E+07        -0.36559E+08         0.00000E+00
    0.00000E+00         0.00000E+00        -0.16606E+08
 
   -0.16549E+08         0.16306E+07         0.00000E+00
    0.16306E+07        -0.36980E+08         0.00000E+00
    0.00000E+00         0.00000E+00        -0.16740E+08
 
   -0.16707E+08         0.16470E+07         0.00000E+00
    0.16470E+07        -0.37393E+08         0.00000E+00
    0.00000E+00         0.00000E+00        -0.16868E+08
 
   -0.16857E+08         0.16602E+07         0.00000E+00
    0.16602E+07        -0.37796E+08         0.00000E+00
    0.00000E+00         0.00000E+00        -0.16990E+08
 
   -0.16999E+08         0.16706E+07         0.00000E+00
    0.16706E+07        -0.38191E+08         0.00000E+00
    0.00000E+00         0.00000E+00        -0.17106E+08
 
   -0.17134E+08         0.16784E+07         0.00000E+00
    0.16784E+07        -0.38578E+08         0.00000E+00
    0.00000E+00         0.00000E+00        -0.17217E+08
 
   -0.17282E+08         0.16805E+07         0.00000E+00
    0.16805E+07        -0.38935E+08         0.00000E+00
    0.00000E+00         0.00000E+00        -0.17344E+08
 
   -0.17455E+08         0.16755E+07         0.00000E+00
    0.16755E+07        -0.39250E+08         0.00000E+00
    0.00000E+00         0.00000E+00        -0.17499E+08
 
   -0.17623E+08         0.16687E+07         0.00000E+00
    0.16687E+07        -0.39557E+08         0.00000E+00
    0.00000E+00         0.00000E+00        -0.17652E+08
 
   -0.17786E+08         0.16604E+07         0.00000E+00
    0.16604E+07        -0.39856E+08         0.00000E+00
    0.00000E+00         0.00000E+00        -0.17801E+08
 
   -0.17945E+08         0.16508E+07         0.00000E+00
    0.16508E+07        -0.40148E+08         0.00000E+00
    0.00000E+00         0.00000E+00        -0.17947E+08
 
   -0.18098E+08         0.16403E+07         0.00000E+00
    0.16403E+07        -0.40433E+08         0.00000E+00
    0.00000E+00         0.00000E+00        -0.18091E+08
 
   -0.18247E+08         0.16288E+07         0.00000E+00
    0.16288E+07        -0.40711E+08         0.00000E+00
    0.00000E+00         0.00000E+00        -0.18232E+08
 
   -0.18392E+08         0.16168E+07         0.00000E+00
    0.16168E+07        -0.40984E+08         0.00000E+00
    0.00000E+00         0.00000E+00        -0.18370E+08
 
   -0.18534E+08         0.16042E+07         0.00000E+00
    0.16042E+07        -0.41250E+08         0.00000E+00
    0.00000E+00         0.00000E+00        -0.18506E+08
 
   -0.18672E+08         0.15912E+07         0.00000E+00
    0.15912E+07        -0.41511E+08         0.00000E+00
    0.00000E+00         0.00000E+00        -0.18639E+08
 
   -0.18806E+08         0.15781E+07         0.00000E+00
    0.15781E+07        -0.41767E+08         0.00000E+00
    0.00000E+00         0.00000E+00        -0.18771E+08
 
   -0.18938E+08         0.15648E+07         0.00000E+00
    0.15648E+07        -0.42018E+08         0.00000E+00
    0.00000E+00         0.00000E+00        -0.18900E+08
 
   -0.19066E+08         0.15514E+07         0.00000E+00
    0.15514E+07        -0.42264E+08         0.00000E+00
    0.00000E+00         0.00000E+00        -0.19027E+08
 
   -0.19193E+08         0.15381E+07         0.00000E+00
    0.15381E+07        -0.42506E+08         0.00000E+00
    0.00000E+00         0.00000E+00        -0.19152E+08
 
   -0.19316E+08         0.15249E+07         0.00000E+00
    0.15249E+07        -0.42744E+08         0.00000E+00
    0.00000E+00         0.00000E+00        -0.19276E+08
 
   -0.19438E+08         0.15118E+07         0.00000E+00
    0.15118E+07        -0.42978E+08         0.00000E+00
    0.00000E+00         0.00000E+00        -0.19398E+08
 
   -0.19557E+08         0.14990E+07         0.00000E+00
    0.14990E+07        -0.43209E+08         0.00000E+00
    0.00000E+00         0.00000E+00        -0.19518E+08
 
   -0.19675E+08         0.14864E+07         0.00000E+00
    0.14864E+07        -0.43436E+08         0.00000E+00
    0.00000E+00         0.00000E+00        -0.19637E+08
 
   -0.19791E+08         0.14742E+07         0.00000E+00
    0.14742E+07        -0.43661E+08         0.00000E+00
    0.00000E+00         0.00000E+00        -0.19755E+08
 
   -0.19905E+08         0.14623E+07         0.00000E+00
    0.14623E+07        -0.43882E+08         0.00000E+00
    0.00000E+00         0.00000E+00        -0.19872E+08
 
   -0.20018E+08         0.14507E+07         0.00000E+00
    0.14507E+07        -0.44102E+08         0.00000E+00
    0.00000E+00         0.00000E+00        -0.19987E+08
 
   -0.20130E+08         0.14395E+07         0.00000E+00
    0.14395E+07        -0.44319E+08         0.00000E+00
    0.00000E+00         0.00000E+00        -0.20102E+08
 
   -0.20241E+08         0.14288E+07         0.00000E+00
    0.14288E+07        -0.44534E+08         0.00000E+00
    0.00000E+00         0.00000E+00        -0.20215E+08
 
   -0.20351E+08         0.14184E+07         0.00000E+00
    0.14184E+07        -0.44747E+08         0.00000E+00
    0.00000E+00         0.00000E+00        -0.20328E+08
 
   -0.20460E+08         0.14084E+07         0.00000E+00
    0.14084E+07        -0.44959E+08         0.00000E+00
    0.00000E+00         0.00000E+00        -0.20440E+08
 
   -0.20569E+08         0.13989E+07         0.00000E+00
    0.13989E+07        -0.45170E+08         0.00000E+00
    0.00000E+00         0.00000E+00        -0.20552E+08
 
   -0.20677E+08         0.13897E+07         0.00000E+00
    0.13897E+07        -0.45380E+08         0.00000E+00
    0.00000E+00         0.00000E+00        -0.20664E+08
 
   -0.20785E+08         0.13810E+07         0.00000E+00
    0.13810E+07        -0.45590E+08         0.00000E+00
    0.00000E+00         0.00000E+00        -0.20775E+08
 
   -0.20892E+08         0.13726E+07         0.00000E+00
    0.13726E+07        -0.45798E+08         0.00000E+00
    0.00000E+00         0.00000E+00        -0.20886E+08
 
   -0.21000E+08         0.13647E+07         0.00000E+00
    0.13647E+07        -0.46007E+08         0.00000E+00
    0.00000E+00         0.00000E+00        -0.20996E+08
 
   -0.21108E+08         0.13570E+07         0.00000E+00
    0.13570E+07        -0.46216E+08         0.00000E+00
    0.00000E+00         0.00000E+00        -0.21107E+08
 
   -0.21216E+08         0.13497E+07         0.00000E+00
    0.13497E+07        -0.46425E+08         0.00000E+00
    0.00000E+00         0.00000E+00        -0.21218E+08
 
   -0.21325E+08         0.13427E+07         0.00000E+00
    0.13427E+07        -0.46635E+08         0.00000E+00
    0.00000E+00         0.00000E+00        -0.21330E+08
 
   -0.21435E+08         0.13359E+07         0.00000E+00
    0.13359E+07        -0.46846E+08         0.00000E+00
    0.00000E+00         0.00000E+00        -0.21442E+08
 
   -0.21545E+08         0.13294E+07         0.00000E+00
    0.13294E+07        -0.47058E+08         0.00000E+00
    0.00000E+00         0.00000E+00        -0.21554E+08
 
   -0.21656E+08         0.13230E+07         0.00000E+00
    0.13230E+07        -0.47272E+08         0.00000E+00
    0.00000E+00         0.00000E+00        -0.21667E+08
 
   -0.21768E+08         0.13167E+07         0.00000E+00
    0.13167E+07        -0.47487E+08         0.00000E+00
    0.00000E+00         0.00000E+00        -0.21781E+08
 
   -0.21882E+08         0.13105E+07         0.00000E+00
    0.13105E+07        -0.47704E+08         0.00000E+00
    0.00000E+00         0.00000E+00        -0.21895E+08
 
   -0.21996E+08         0.13043E+07         0.00000E+00
    0.13043E+07        -0.47923E+08         0.00000E+00
    0.00000E+00         0.00000E+00        -0.22011E+08
 
   -0.22113E+08         0.12981E+07         0.00000E+00
    0.12981E+07        -0.48145E+08         0.00000E+00
    0.00000E+00         0.00000E+00        -0.22127E+08
 
   -0.22231E+08         0.12917E+07         0.00000E+00
    0.12917E+07        -0.48370E+08         0.00000E+00
    0.00000E+00         0.00000E+00        -0.22245E+08
 
   -0.22351E+08         0.12850E+07         0.00000E+00
    0.12850E+07        -0.48597E+08         0.00000E+00
    0.00000E+00         0.00000E+00        -0.22364E+08
 
   -0.22473E+08         0.12781E+07         0.00000E+00
    0.12781E+07        -0.48828E+08         0.00000E+00
    0.00000E+00         0.00000E+00        -0.22485E+08
 
   -0.22597E+08         0.12707E+07         0.00000E+00
    0.12707E+07        -0.49063E+08         0.00000E+00
    0.00000E+00         0.00000E+00        -0.22607E+08
 
   -0.22724E+08         0.12629E+07         0.00000E+00
    0.12629E+07        -0.49302E+08         0.00000E+00
    0.00000E+00         0.00000E+00        -0.22731E+08
 
   -0.22854E+08         0.12543E+07         0.00000E+00
    0.12543E+07        -0.49544E+08         0.00000E+00
    0.00000E+00         0.00000E+00        -0.22856E+08
 
   -0.22986E+08         0.12450E+07         0.00000E+00
    0.12450E+07        -0.49792E+08         0.00000E+00
    0.00000E+00         0.00000E+00        -0.22983E+08
 
   -0.23121E+08         0.12348E+07         0.00000E+00
    0.12348E+07        -0.50044E+08         0.00000E+00
    0.00000E+00         0.00000E+00        -0.23113E+08
 
   -0.23260E+08         0.12235E+07         0.00000E+00
    0.12235E+07        -0.50302E+08         0.00000E+00
    0.00000E+00         0.00000E+00        -0.23244E+08
 
   -0.23402E+08         0.12109E+07         0.00000E+00
    0.12109E+07        -0.50565E+08         0.00000E+00
    0.00000E+00         0.00000E+00        -0.23378E+08
 
   -0.23547E+08         0.11969E+07         0.00000E+00
    0.11969E+07        -0.50834E+08         0.00000E+00
    0.00000E+00         0.00000E+00        -0.23514E+08
 
   -0.23697E+08         0.11812E+07         0.00000E+00
    0.11812E+07        -0.51109E+08         0.00000E+00
    0.00000E+00         0.00000E+00        -0.23653E+08
 
   -0.23851E+08         0.11637E+07         0.00000E+00
    0.11637E+07        -0.51391E+08         0.00000E+00
    0.00000E+00         0.00000E+00        -0.23794E+08
 
   -0.24009E+08         0.11441E+07         0.00000E+00
    0.11441E+07        -0.51680E+08         0.00000E+00
    0.00000E+00         0.00000E+00        -0.23938E+08
 
   -0.24172E+08         0.11221E+07         0.00000E+00
    0.11221E+07        -0.51977E+08         0.00000E+00
    0.00000E+00         0.00000E+00        -0.24085E+08
 
   -0.24339E+08         0.10975E+07         0.00000E+00
    0.10975E+07        -0.52281E+08         0.00000E+00
    0.00000E+00         0.00000E+00        -0.24235E+08
 
   -0.24512E+08         0.10700E+07         0.00000E+00
    0.10700E+07        -0.52594E+08         0.00000E+00
    0.00000E+00         0.00000E+00        -0.24389E+08
 
   -0.24690E+08         0.10393E+07         0.00000E+00
    0.10393E+07        -0.52915E+08         0.00000E+00
    0.00000E+00         0.00000E+00        -0.24546E+08
 
   -0.24873E+08         0.10053E+07         0.00000E+00
    0.10053E+07        -0.53245E+08         0.00000E+00
    0.00000E+00         0.00000E+00        -0.24707E+08
 
   -0.25061E+08         0.96755E+06         0.00000E+00
    0.96755E+06        -0.53584E+08         0.00000E+00
    0.00000E+00         0.00000E+00        -0.24872E+08
 
   -0.25255E+08         0.92600E+06         0.00000E+00
    0.92600E+06        -0.53932E+08         0.00000E+00
    0.00000E+00         0.00000E+00        -0.25041E+08
 
   -0.25453E+08         0.88046E+06         0.00000E+00
    0.88046E+06        -0.54288E+08         0.00000E+00
    0.00000E+00         0.00000E+00        -0.25214E+08
 
   -0.25656E+08         0.83087E+06         0.00000E+00
    0.83087E+06        -0.54653E+08         0.00000E+00
    0.00000E+00         0.00000E+00        -0.25391E+08
 
   -0.25862E+08         0.77725E+06         0.00000E+00
    0.77725E+06        -0.55024E+08         0.00000E+00
    0.00000E+00         0.00000E+00        -0.25572E+08
 
   -0.26072E+08         0.71974E+06         0.00000E+00
    0.71974E+06        -0.55401E+08         0.00000E+00
    0.00000E+00         0.00000E+00        -0.25755E+08
 
   -0.26284E+08         0.65860E+06         0.00000E+00
    0.65860E+06        -0.55782E+08         0.00000E+00
    0.00000E+00         0.00000E+00        -0.25940E+08
 
   -0.26497E+08         0.59422E+06         0.00000E+00
    0.59422E+06        -0.56163E+08         0.00000E+00
    0.00000E+00         0.00000E+00        -0.26125E+08
 
   -0.26710E+08         0.52707E+06         0.00000E+00
    0.52707E+06        -0.56541E+08         0.00000E+00
    0.00000E+00         0.00000E+00        -0.26307E+08
 
   -0.26923E+08         0.45761E+06         0.00000E+00
    0.45761E+06        -0.56911E+08         0.00000E+00
    0.00000E+00         0.00000E+00        -0.26482E+08
 
   -0.27135E+08         0.38616E+06         0.00000E+00
    0.38616E+06        -0.57267E+08         0.00000E+00
    0.00000E+00         0.00000E+00        -0.26644E+08
 
   -0.27349E+08         0.31284E+06         0.00000E+00
    0.31284E+06        -0.57605E+08         0.00000E+00
    0.00000E+00         0.00000E+00        -0.26785E+08
 
   -0.27569E+08         0.23803E+06         0.00000E+00
    0.23803E+06        -0.57918E+08         0.00000E+00
    0.00000E+00         0.00000E+00        -0.26896E+08
 
   -0.27804E+08         0.16370E+06         0.00000E+00
    0.16370E+06        -0.58205E+08         0.00000E+00
    0.00000E+00         0.00000E+00        -0.26967E+08
 
   -0.28065E+08         0.93731E+05         0.00000E+00
    0.93731E+05        -0.58469E+08         0.00000E+00
    0.00000E+00         0.00000E+00        -0.26993E+08
 
   -0.28363E+08         0.30208E+05         0.00000E+00
    0.30208E+05        -0.58720E+08         0.00000E+00
    0.00000E+00         0.00000E+00        -0.26972E+08
 
   -0.11923E+08         0.39042E+05         0.00000E+00
    0.39042E+05        -0.28038E+08         0.00000E+00
    0.00000E+00         0.00000E+00        -0.14646E+08
 
   -0.12352E+08         0.14700E+06         0.00000E+00
    0.14700E+06        -0.28225E+08         0.00000E+00
    0.00000E+00         0.00000E+00        -0.14646E+08
 
   -0.12718E+08         0.29396E+06         0.00000E+00
    0.29396E+06        -0.28516E+08         0.00000E+00
    0.00000E+00         0.00000E+00        -0.14646E+08
 
   -0.13030E+08         0.44518E+06         0.00000E+00
    0.44518E+06        -0.28878E+08         0.00000E+00
    0.00000E+00         0.00000E+00        -0.14646E+08
 
   -0.13294E+08         0.59196E+06         0.00000E+00
    0.59196E+06        -0.29311E+08         0.00000E+00
    0.00000E+00         0.00000E+00        -0.14646E+08
 
   -0.13528E+08         0.73074E+06         0.00000E+00
    0.73074E+06        -0.29801E+08         0.00000E+00
    0.00000E+00         0.00000E+00        -0.14646E+08
 
   -0.13740E+08         0.86000E+06         0.00000E+00
    0.86000E+06        -0.30336E+08         0.00000E+00
    0.00000E+00         0.00000E+00        -0.14646E+08
 
   -0.13943E+08         0.97628E+06         0.00000E+00
    0.97628E+06        -0.30896E+08         0.00000E+00
    0.00000E+00         0.00000E+00        -0.14646E+08
 
   -0.14138E+08         0.10635E+07         0.00000E+00
    0.10635E+07        -0.31436E+08         0.00000E+00
    0.00000E+00         0.00000E+00        -0.14721E+08
 
   -0.14330E+08         0.11189E+07         0.00000E+00
    0.11189E+07        -0.31922E+08         0.00000E+00
    0.00000E+00         0.00000E+00        -0.14897E+08
 
   -0.14537E+08         0.11909E+07         0.00000E+00
    0.11909E+07        -0.32396E+08         0.00000E+00
    0.00000E+00         0.00000E+00        -0.15089E+08
 
   -0.14749E+08         0.12562E+07         0.00000E+00
    0.12562E+07        -0.32878E+08         0.00000E+00
    0.00000E+00         0.00000E+00        -0.15280E+08
 
   -0.14965E+08         0.13136E+07         0.00000E+00
    0.13136E+07        -0.33362E+08         0.00000E+00
    0.00000E+00         0.00000E+00        -0.15468E+08
 
   -0.15181E+08         0.13640E+07         0.00000E+00
    0.13640E+07        -0.33843E+08         0.00000E+00
    0.00000E+00         0.00000E+00        -0.15650E+08
 
   -0.15395E+08         0.14087E+07         0.00000E+00
    0.14087E+07        -0.34318E+08         0.00000E+00
    0.00000E+00         0.00000E+00        -0.15825E+08
 
   -0.15604E+08         0.14484E+07         0.00000E+00
    0.14484E+07        -0.34785E+08         0.00000E+00
    0.00000E+00         0.00000E+00        -0.15993E+08
 
   -0.15806E+08         0.14835E+07         0.00000E+00
    0.14835E+07        -0.35244E+08         0.00000E+00
    0.00000E+00         0.00000E+00        -0.16154E+08
 
   -0.16000E+08         0.15143E+07         0.00000E+00
    0.15143E+07        -0.35693E+08         0.00000E+00
    0.00000E+00         0.00000E+00        -0.16308E+08
 
   -0.16186E+08         0.15410E+07         0.00000E+00
    0.15410E+07        -0.36133E+08         0.00000E+00
    0.00000E+00         0.00000E+00        -0.16455E+08
 
   -0.16363E+08         0.15639E+07         0.00000E+00
    0.15639E+07        -0.36563E+08         0.00000E+00
    0.00000E+00         0.00000E+00        -0.16595E+08
 
   -0.16531E+08         0.15833E+07         0.00000E+00
    0.15833E+07        -0.36984E+08         0.00000E+00
    0.00000E+00         0.00000E+00        -0.16728E+08
 
   -0.16690E+08         0.15992E+07         0.00000E+00
    0.15992E+07        -0.37396E+08         0.00000E+00
    0.00000E+00         0.00000E+00        -0.16855E+08
 
   -0.16841E+08         0.16121E+07         0.00000E+00
    0.16121E+07        -0.37799E+08         0.00000E+00
    0.00000E+00         0.00000E+00        -0.16977E+08
 
   -0.16984E+08         0.16222E+07         0.00000E+00
    0.16222E+07        -0.38193E+08         0.00000E+00
    0.00000E+00         0.00000E+00        -0.17093E+08
 
   -0.17119E+08         0.16298E+07         0.00000E+00
    0.16298E+07        -0.38579E+08         0.00000E+00
    0.00000E+00         0.00000E+00        -0.17204E+08
 
   -0.17271E+08         0.16313E+07         0.00000E+00
    0.16313E+07        -0.38932E+08         0.00000E+00
    0.00000E+00         0.00000E+00        -0.17335E+08
 
   -0.17446E+08         0.16265E+07         0.00000E+00
    0.16265E+07        -0.39247E+08         0.00000E+00
    0.00000E+00         0.00000E+00        -0.17490E+08
 
   -0.17615E+08         0.16200E+07         0.00000E+00
    0.16200E+07        -0.39554E+08         0.00000E+00
    0.00000E+00         0.00000E+00        -0.17642E+08
 
   -0.17778E+08         0.16120E+07         0.00000E+00
    0.16120E+07        -0.39853E+08         0.00000E+00
    0.00000E+00         0.00000E+00        -0.17791E+08
 
   -0.17937E+08         0.16028E+07         0.00000E+00
    0.16028E+07        -0.40145E+08         0.00000E+00
    0.00000E+00         0.00000E+00        -0.17938E+08
 
   -0.18091E+08         0.15926E+07         0.00000E+00
    0.15926E+07        -0.40430E+08         0.00000E+00
    0.00000E+00         0.00000E+00        -0.18081E+08
 
   -0.18240E+08         0.15816E+07         0.00000E+00
    0.15816E+07        -0.40709E+08         0.00000E+00
    0.00000E+00         0.00000E+00        -0.18222E+08
 
   -0.18386E+08         0.15700E+07         0.00000E+00
    0.15700E+07        -0.40981E+08         0.00000E+00
    0.00000E+00         0.00000E+00        -0.18360E+08
 
   -0.18528E+08         0.15579E+07         0.00000E+00
    0.15579E+07        -0.41248E+08         0.00000E+00
    0.00000E+00         0.00000E+00        -0.18496E+08
 
   -0.18666E+08         0.15454E+07         0.00000E+00
    0.15454E+07        -0.41509E+08         0.00000E+00
    0.00000E+00         0.00000E+00        -0.18630E+08
 
   -0.18801E+08         0.15328E+07         0.00000E+00
    0.15328E+07        -0.41765E+08         0.00000E+00
    0.00000E+00         0.00000E+00        -0.18762E+08
 
   -0.18932E+08         0.15199E+07         0.00000E+00
    0.15199E+07        -0.42016E+08         0.00000E+00
    0.00000E+00         0.00000E+00        -0.18891E+08
 
   -0.19061E+08         0.15071E+07         0.00000E+00
    0.15071E+07        -0.42263E+08         0.00000E+00
    0.00000E+00         0.00000E+00        -0.19019E+08
 
   -0.19188E+08         0.14942E+07         0.00000E+00
    0.14942E+07        -0.42505E+08         0.00000E+00
    0.00000E+00         0.00000E+00        -0.19144E+08
 
   -0.19312E+08         0.14815E+07         0.00000E+00
    0.14815E+07        -0.42743E+08         0.00000E+00
    0.00000E+00         0.00000E+00        -0.19268E+08
 
   -0.19433E+08         0.14689E+07         0.00000E+00
    0.14689E+07        -0.42977E+08         0.00000E+00
    0.00000E+00         0.00000E+00        -0.19390E+08
 
   -0.19553E+08         0.14565E+07         0.00000E+00
    0.14565E+07        -0.43208E+08         0.00000E+00
    0.00000E+00         0.00000E+00        -0.19511E+08
 
   -0.19671E+08         0.14444E+07         0.00000E+00
    0.14444E+07        -0.43436E+08         0.00000E+00
    0.00000E+00         0.00000E+00        -0.19631E+08
 
   -0.19787E+08         0.14326E+07         0.00000E+00
    0.14326E+07        -0.43660E+08         0.00000E+00
    0.00000E+00         0.00000E+00        -0.19749E+08
 
   -0.19901E+08         0.14211E+07         0.00000E+00
    0.14211E+07        -0.43882E+08         0.00000E+00
    0.00000E+00         0.00000E+00        -0.19865E+08
 
   -0.20014E+08         0.14099E+07         0.00000E+00
    0.14099E+07        -0.44102E+08         0.00000E+00
    0.00000E+00         0.00000E+00        -0.19981E+08
 
   -0.20126E+08         0.13991E+07         0.00000E+00
    0.13991E+07        -0.44319E+08         0.00000E+00
    0.00000E+00         0.00000E+00        -0.20096E+08
 
   -0.20237E+08         0.13887E+07         0.00000E+00
    0.13887E+07        -0.44534E+08         0.00000E+00
    0.00000E+00         0.00000E+00        -0.20210E+08
 
   -0.20347E+08         0.13787E+07         0.00000E+00
    0.13787E+07        -0.44748E+08         0.00000E+00
    0.00000E+00         0.00000E+00        -0.20323E+08
 
   -0.20456E+08         0.13691E+07         0.00000E+00
    0.13691E+07        -0.44960E+08         0.00000E+00
    0.00000E+00         0.00000E+00        -0.20436E+08
 
   -0.20565E+08         0.13598E+07         0.00000E+00
    0.13598E+07        -0.45171E+08         0.00000E+00
    0.00000E+00         0.00000E+00        -0.20548E+08
 
   -0.20673E+08         0.13510E+07         0.00000E+00
    0.13510E+07        -0.45381E+08         0.00000E+00
    0.00000E+00         0.00000E+00        -0.20659E+08
 
   -0.20781E+08         0.13425E+07         0.00000E+00
    0.13425E+07        -0.45591E+08         0.00000E+00
    0.00000E+00         0.00000E+00        -0.20771E+08
 
   -0.20889E+08         0.13344E+07         0.00000E+00
    0.13344E+07        -0.45800E+08         0.00000E+00
    0.00000E+00         0.00000E+00        -0.20882E+08
 
   -0.20997E+08         0.13266E+07         0.00000E+00
    0.13266E+07        -0.46009E+08         0.00000E+00
    0.00000E+00         0.00000E+00        -0.20993E+08
 
   -0.21105E+08         0.13192E+07         0.00000E+00
    0.13192E+07        -0.46218E+08         0.00000E+00
    0.00000E+00         0.00000E+00        -0.21104E+08
 
   -0.21213E+08         0.13121E+07         0.00000E+00
    0.13121E+07        -0.46427E+08         0.00000E+00
    0.00000E+00         0.00000E+00        -0.21216E+08
 
   -0.21322E+08         0.13053E+07         0.00000E+00
    0.13053E+07        -0.46637E+08         0.00000E+00
    0.00000E+00         0.00000E+00        -0.21327E+08
 
   -0.21431E+08         0.12987E+07         0.00000E+00
    0.12987E+07        -0.46848E+08         0.00000E+00
    0.00000E+00         0.00000E+00        -0.21439E+08
 
   -0.21541E+08         0.12923E+07         0.00000E+00
    0.12923E+07        -0.47060E+08         0.00000E+00
    0.00000E+00         0.00000E+00        -0.21552E+08
 
   -0.21653E+08         0.12861E+07         0.00000E+00
    0.12861E+07        -0.47274E+08         0.00000E+00
    0.00000E+00         0.00000E+00        -0.21665E+08
 
   -0.21765E+08         0.12800E+07         0.00000E+00
    0.12800E+07        -0.47489E+08         0.00000E+00
    0.00000E+00         0.00000E+00        -0.21779E+08
 
   -0.21878E+08         0.12739E+07         0.00000E+00
    0.12739E+07        -0.47706E+08         0.00000E+00
    0.00000E+00         0.00000E+00        -0.21893E+08
 
   -0.21993E+08         0.12678E+07         0.00000E+00
    0.12678E+07        -0.47926E+08         0.00000E+00
    0.00000E+00         0.00000E+00        -0.22009E+08
 
   -0.22110E+08         0.12617E+07         0.00000E+00
    0.12617E+07        -0.48148E+08         0.00000E+00
    0.00000E+00         0.00000E+00        -0.22126E+08
 
   -0.22228E+08         0.12554E+07         0.00000E+00
    0.12554E+07        -0.48372E+08         0.00000E+00
    0.00000E+00         0.00000E+00        -0.22244E+08
 
   -0.22348E+08         0.12489E+07         0.00000E+00
    0.12489E+07        -0.48600E+08         0.00000E+00
    0.00000E+00         0.00000E+00        -0.22363E+08
 
   -0.22470E+08         0.12421E+07         0.00000E+00
    0.12421E+07        -0.48831E+08         0.00000E+00
    0.00000E+00         0.00000E+00        -0.22483E+08
 
   -0.22594E+08         0.12349E+07         0.00000E+00
    0.12349E+07        -0.49065E+08         0.00000E+00
    0.00000E+00         0.00000E+00        -0.22605E+08
 
   -0.22721E+08         0.12272E+07         0.00000E+00
    0.12272E+07        -0.49304E+08         0.00000E+00
    0.00000E+00         0.00000E+00        -0.22729E+08
 
   -0.22851E+08         0.12188E+07         0.00000E+00
    0.12188E+07        -0.49547E+08         0.00000E+00
    0.00000E+00         0.00000E+00        -0.22854E+08
 
   -0.22983E+08         0.12097E+07         0.00000E+00
    0.12097E+07        -0.49794E+08         0.00000E+00
    0.00000E+00         0.00000E+00        -0.22982E+08
 
   -0.23119E+08         0.11997E+07         0.00000E+00
    0.11997E+07        -0.50046E+08         0.00000E+00
    0.00000E+00         0.00000E+00        -0.23111E+08
 
   -0.23257E+08         0.11886E+07         0.00000E+00
    0.11886E+07        -0.50303E+08         0.00000E+00
    0.00000E+00         0.00000E+00        -0.23242E+08
 
   -0.23400E+08         0.11763E+07         0.00000E+00
    0.11763E+07        -0.50566E+08         0.00000E+00
    0.00000E+00         0.00000E+00        -0.23375E+08
 
   -0.23546E+08         0.11626E+07         0.00000E+00
    0.11626E+07        -0.50835E+08         0.00000E+00
    0.00000E+00         0.00000E+00        -0.23511E+08
 
   -0.23695E+08         0.11472E+07         0.00000E+00
    0.11472E+07        -0.51110E+08         0.00000E+00
    0.00000E+00         0.00000E+00        -0.23649E+08
 
   -0.23849E+08         0.11300E+07         0.00000E+00
    0.11300E+07        -0.51392E+08         0.00000E+00
    0.00000E+00         0.00000E+00        -0.23790E+08
 
   -0.24008E+08         0.11108E+07         0.00000E+00
    0.11108E+07        -0.51680E+08         0.00000E+00
    0.00000E+00         0.00000E+00        -0.23934E+08
 
   -0.24171E+08         0.10892E+07         0.00000E+00
    0.10892E+07        -0.51977E+08         0.00000E+00
    0.00000E+00         0.00000E+00        -0.24080E+08
 
   -0.24339E+08         0.10650E+07         0.00000E+00
    0.10650E+07        -0.52280E+08         0.00000E+00
    0.00000E+00         0.00000E+00        -0.24230E+08
 
   -0.24512E+08         0.10380E+07         0.00000E+00
    0.10380E+07        -0.52593E+08         0.00000E+00
    0.00000E+00         0.00000E+00        -0.24383E+08
 
   -0.24690E+08         0.10079E+07         0.00000E+00
    0.10079E+07        -0.52913E+08         0.00000E+00
    0.00000E+00         0.00000E+00        -0.24539E+08
 
   -0.24874E+08         0.97431E+06         0.00000E+00
    0.97431E+06        -0.53242E+08         0.00000E+00
    0.00000E+00         0.00000E+00        -0.24699E+08
 
   -0.25063E+08         0.93710E+06         0.00000E+00
    0.93710E+06        -0.53581E+08         0.00000E+00
    0.00000E+00         0.00000E+00        -0.24863E+08
 
   -0.25257E+08         0.89602E+06         0.00000E+00
    0.89602E+06        -0.53928E+08         0.00000E+00
    0.00000E+00         0.00000E+00        -0.25030E+08
 
   -0.25456E+08         0.85091E+06         0.00000E+00
    0.85091E+06        -0.54283E+08         0.00000E+00
    0.00000E+00         0.00000E+00        -0.25202E+08
 
   -0.25660E+08         0.80167E+06         0.00000E+00
    0.80167E+06        -0.54647E+08         0.00000E+00
    0.00000E+00         0.00000E+00        -0.25378E+08
 
   -0.25867E+08         0.74830E+06         0.00000E+00
    0.74830E+06        -0.55018E+08         0.00000E+00
    0.00000E+00         0.00000E+00        -0.25557E+08
 
   -0.26078E+08         0.69093E+06         0.00000E+00
    0.69093E+06        -0.55394E+08         0.00000E+00
    0.00000E+00         0.00000E+00        -0.25738E+08
 
   -0.26292E+08         0.62982E+06         0.00000E+00
    0.62982E+06        -0.55774E+08         0.00000E+00
    0.00000E+00         0.00000E+00        -0.25922E+08
 
   -0.26507E+08         0.56539E+06         0.00000E+00
    0.56539E+06        -0.56154E+08         0.00000E+00
    0.00000E+00         0.00000E+00        -0.26105E+08
 
   -0.26722E+08         0.49819E+06         0.00000E+00
    0.49819E+06        -0.56532E+08         0.00000E+00
    0.00000E+00         0.00000E+00        -0.26285E+08
 
   -0.26937E+08         0.42887E+06         0.00000E+00
    0.42887E+06        -0.56902E+08         0.00000E+00
    0.00000E+00         0.00000E+00        -0.26458E+08
 
   -0.27152E+08         0.35806E+06         0.00000E+00
    0.35806E+06        -0.57259E+08         0.00000E+00
    0.00000E+00         0.00000E+00        -0.26618E+08
 
   -0.27370E+08         0.28637E+06         0.00000E+00
    0.28637E+06        -0.57598E+08         0.00000E+00
    0.00000E+00         0.00000E+00        -0.26757E+08
 
   -0.27594E+08         0.21481E+06         0.00000E+00
    0.21481E+06        -0.57913E+08         0.00000E+00
    0.00000E+00         0.00000E+00        -0.26866E+08
 
   -0.27833E+08         0.14575E+06         0.00000E+00
    0.14575E+06        -0.58202E+08         0.00000E+00
    0.00000E+00         0.00000E+00        -0.26936E+08
 
   -0.28098E+08         0.82622E+05         0.00000E+00
    0.82622E+05        -0.58468E+08         0.00000E+00
    0.00000E+00         0.00000E+00        -0.26961E+08
 
   -0.28399E+08         0.26498E+05         0.00000E+00
    0.26498E+05        -0.58721E+08         0.00000E+00
    0.00000E+00         0.00000E+00        -0.26940E+08
 
   -0.11777E+08         0.31351E+05         0.00000E+00
    0.31351E+05        -0.28053E+08         0.00000E+00
    0.00000E+00         0.00000E+00        -0.14646E+08
 
   -0.12220E+08         0.12675E+06         0.00000E+00
    0.12675E+06        -0.28250E+08         0.00000E+00
    0.00000E+00         0.00000E+00        -0.14646E+08
 
   -0.12601E+08         0.26368E+06         0.00000E+00
    0.26368E+06        -0.28546E+08         0.00000E+00
    0.00000E+00         0.00000E+00        -0.14646E+08
 
   -0.12925E+08         0.40416E+06         0.00000E+00
    0.40416E+06        -0.28907E+08         0.00000E+00
    0.00000E+00         0.00000E+00        -0.14646E+08
 
   -0.13202E+08         0.54379E+06         0.00000E+00
    0.54379E+06        -0.29339E+08         0.00000E+00
    0.00000E+00         0.00000E+00        -0.14646E+08
 
   -0.13448E+08         0.67852E+06         0.00000E+00
    0.67852E+06        -0.29827E+08         0.00000E+00
    0.00000E+00         0.00000E+00        -0.14646E+08
 
   -0.13671E+08         0.80375E+06         0.00000E+00
    0.80375E+06        -0.30362E+08         0.00000E+00
    0.00000E+00         0.00000E+00        -0.14646E+08
 
   -0.13880E+08         0.92332E+06         0.00000E+00
    0.92332E+06        -0.30914E+08         0.00000E+00
    0.00000E+00         0.00000E+00        -0.14646E+08
 
   -0.14083E+08         0.10046E+07         0.00000E+00
    0.10046E+07        -0.31448E+08         0.00000E+00
    0.00000E+00         0.00000E+00        -0.14731E+08
 
   -0.14289E+08         0.10673E+07         0.00000E+00
    0.10673E+07        -0.31938E+08         0.00000E+00
    0.00000E+00         0.00000E+00        -0.14912E+08
 
   -0.14505E+08         0.11403E+07         0.00000E+00
    0.11403E+07        -0.32410E+08         0.00000E+00
    0.00000E+00         0.00000E+00        -0.15099E+08
 
   -0.14722E+08         0.12077E+07         0.00000E+00
    0.12077E+07        -0.32891E+08         0.00000E+00
    0.00000E+00         0.00000E+00        -0.15286E+08
 
   -0.14940E+08         0.12666E+07         0.00000E+00
    0.12666E+07        -0.33373E+08         0.00000E+00
    0.00000E+00         0.00000E+00        -0.15470E+08
 
   -0.15158E+08         0.13180E+07         0.00000E+00
    0.13180E+07        -0.33852E+08         0.00000E+00
    0.00000E+00         0.00000E+00        -0.15649E+08
 
   -0.15373E+08         0.13631E+07         0.00000E+00
    0.13631E+07        -0.34326E+08         0.00000E+00
    0.00000E+00         0.00000E+00        -0.15821E+08
 
   -0.15582E+08         0.14029E+07         0.00000E+00
    0.14029E+07        -0.34792E+08         0.00000E+00
    0.00000E+00         0.00000E+00        -0.15987E+08
 
   -0.15785E+08         0.14378E+07         0.00000E+00
    0.14378E+07        -0.35250E+08         0.00000E+00
    0.00000E+00         0.00000E+00        -0.16147E+08
 
   -0.15980E+08         0.14683E+07         0.00000E+00
    0.14683E+07        -0.35699E+08         0.00000E+00
    0.00000E+00         0.00000E+00        -0.16299E+08
 
   -0.16167E+08         0.14947E+07         0.00000E+00
    0.14947E+07        -0.36138E+08         0.00000E+00
    0.00000E+00         0.00000E+00        -0.16444E+08
 
   -0.16344E+08         0.15172E+07         0.00000E+00
    0.15172E+07        -0.36567E+08         0.00000E+00
    0.00000E+00         0.00000E+00        -0.16583E+08
 
   -0.16513E+08         0.15361E+07         0.00000E+00
    0.15361E+07        -0.36988E+08         0.00000E+00
    0.00000E+00         0.00000E+00        -0.16716E+08
 
   -0.16674E+08         0.15517E+07         0.00000E+00
    0.15517E+07        -0.37399E+08         0.00000E+00
    0.00000E+00         0.00000E+00        -0.16843E+08
 
   -0.16826E+08         0.15642E+07         0.00000E+00
    0.15642E+07        -0.37801E+08         0.00000E+00
    0.00000E+00         0.00000E+00        -0.16964E+08
 
   -0.16969E+08         0.15740E+07         0.00000E+00
    0.15740E+07        -0.38195E+08         0.00000E+00
    0.00000E+00         0.00000E+00        -0.17080E+08
 
   -0.17106E+08         0.15814E+07         0.00000E+00
    0.15814E+07        -0.38581E+08         0.00000E+00
    0.00000E+00         0.00000E+00        -0.17191E+08
 
   -0.17262E+08         0.15823E+07         0.00000E+00
    0.15823E+07        -0.38929E+08         0.00000E+00
    0.00000E+00         0.00000E+00        -0.17325E+08
 
   -0.17437E+08         0.15777E+07         0.00000E+00
    0.15777E+07        -0.39244E+08         0.00000E+00
    0.00000E+00         0.00000E+00        -0.17480E+08
 
   -0.17607E+08         0.15714E+07         0.00000E+00
    0.15714E+07        -0.39551E+08         0.00000E+00
    0.00000E+00         0.00000E+00        -0.17632E+08
 
   -0.17771E+08         0.15637E+07         0.00000E+00
    0.15637E+07        -0.39850E+08         0.00000E+00
    0.00000E+00         0.00000E+00        -0.17782E+08
 
   -0.17930E+08         0.15549E+07         0.00000E+00
    0.15549E+07        -0.40142E+08         0.00000E+00
    0.00000E+00         0.00000E+00        -0.17928E+08
 
   -0.18084E+08         0.15451E+07         0.00000E+00
    0.15451E+07        -0.40427E+08         0.00000E+00
    0.00000E+00         0.00000E+00        -0.18071E+08
 
   -0.18234E+08         0.15345E+07         0.00000E+00
    0.15345E+07        -0.40706E+08         0.00000E+00
    0.00000E+00         0.00000E+00        -0.18212E+08
 
   -0.18380E+08         0.15234E+07         0.00000E+00
    0.15234E+07        -0.40979E+08         0.00000E+00
    0.00000E+00         0.00000E+00        -0.18351E+08
 
   -0.18522E+08         0.15117E+07         0.00000E+00
    0.15117E+07        -0.41246E+08         0.00000E+00
    0.00000E+00         0.00000E+00        -0.18487E+08
 
   -0.18660E+08         0.14998E+07         0.00000E+00
    0.14998E+07        -0.41507E+08         0.00000E+00
    0.00000E+00         0.00000E+00        -0.18621E+08
 
   -0.18795E+08         0.14875E+07         0.00000E+00
    0.14875E+07        -0.41763E+08         0.00000E+00
    0.00000E+00         0.00000E+00        -0.18753E+08
 
   -0.18927E+08         0.14752E+07         0.00000E+00
    0.14752E+07        -0.42015E+08         0.00000E+00
    0.00000E+00         0.00000E+00        -0.18883E+08
 
   -0.19057E+08         0.14628E+07         0.00000E+00
    0.14628E+07        -0.42261E+08         0.00000E+00
    0.00000E+00         0.00000E+00        -0.19010E+08
 
   -0.19183E+08         0.14505E+07         0.00000E+00
    0.14505E+07        -0.42504E+08         0.00000E+00
    0.00000E+00         0.00000E+00        -0.19136E+08
 
   -0.19307E+08         0.14382E+07         0.00000E+00
    0.14382E+07        -0.42742E+08         0.00000E+00
    0.00000E+00         0.00000E+00        -0.19260E+08
 
   -0.19429E+08         0.14261E+07         0.00000E+00
    0.14261E+07        -0.42977E+08         0.00000E+00
    0.00000E+00         0.00000E+00        -0.19383E+08
 
   -0.19549E+08         0.14142E+07         0.00000E+00
    0.14142E+07        -0.43208E+08         0.00000E+00
    0.00000E+00         0.00000E+00        -0.19504E+08
 
   -0.19667E+08         0.14025E+07         0.00000E+00
    0.14025E+07        -0.43435E+08         0.00000E+00
    0.00000E+00         0.00000E+00        -0.19624E+08
 
   -0.19783E+08         0.13911E+07         0.00000E+00
    0.13911E+07        -0.43660E+08         0.00000E+00
    0.00000E+00         0.00000E+00        -0.19742E+08
 
   -0.19898E+08         0.13800E+07         0.00000E+00
    0.13800E+07        -0.43882E+08         0.00000E+00
    0.00000E+00         0.00000E+00        -0.19859E+08
 
   -0.20011E+08         0.13692E+07         0.00000E+00
    0.13692E+07        -0.44102E+08         0.00000E+00
    0.00000E+00         0.00000E+00        -0.19975E+08
 
   -0.20123E+08         0.13588E+07         0.00000E+00
    0.13588E+07        -0.44319E+08         0.00000E+00
    0.00000E+00         0.00000E+00        -0.20090E+08
 
   -0.20234E+08         0.13487E+07         0.00000E+00
    0.13487E+07        -0.44535E+08         0.00000E+00
    0.00000E+00         0.00000E+00        -0.20205E+08
 
   -0.20344E+08         0.13390E+07         0.00000E+00
    0.13390E+07        -0.44748E+08         0.00000E+00
    0.00000E+00         0.00000E+00        -0.20318E+08
 
   -0.20453E+08         0.13297E+07         0.00000E+00
    0.13297E+07        -0.44961E+08         0.00000E+00
    0.00000E+00         0.00000E+00        -0.20431E+08
 
   -0.20562E+08         0.13207E+07         0.00000E+00
    0.13207E+07        -0.45172E+08         0.00000E+00
    0.00000E+00         0.00000E+00        -0.20543E+08
 
   -0.20670E+08         0.13122E+07         0.00000E+00
    0.13122E+07        -0.45382E+08         0.00000E+00
    0.00000E+00         0.00000E+00        -0.20655E+08
 
   -0.20778E+08         0.13040E+07         0.00000E+00
    0.13040E+07        -0.45592E+08         0.00000E+00
    0.00000E+00         0.00000E+00        -0.20767E+08
 
   -0.20886E+08         0.12961E+07         0.00000E+00
    0.12961E+07        -0.45801E+08         0.00000E+00
    0.00000E+00         0.00000E+00        -0.20878E+08
 
   -0.20993E+08         0.12886E+07         0.00000E+00
    0.12886E+07        -0.46010E+08         0.00000E+00
    0.00000E+00         0.00000E+00        -0.20990E+08
 
   -0.21101E+08         0.12814E+07         0.00000E+00
    0.12814E+07        -0.46219E+08         0.00000E+00
    0.00000E+00         0.00000E+00        -0.21101E+08
 
   -0.21210E+08         0.12745E+07         0.00000E+00
    0.12745E+07        -0.46429E+08         0.00000E+00
    0.00000E+00         0.00000E+00        -0.21213E+08
 
   -0.21319E+08         0.12678E+07         0.00000E+00
    0.12678E+07        -0.46639E+08         0.00000E+00
    0.00000E+00         0.00000E+00        -0.21324E+08
 
   -0.21428E+08         0.12614E+07         0.00000E+00
    0.12614E+07        -0.46850E+08         0.00000E+00
    0.00000E+00         0.00000E+00        -0.21437E+08
 
   -0.21538E+08         0.12552E+07         0.00000E+00
    0.12552E+07        -0.47062E+08         0.00000E+00
    0.00000E+00         0.00000E+00        -0.21549E+08
 
   -0.21649E+08         0.12491E+07         0.00000E+00
    0.12491E+07        -0.47276E+08         0.00000E+00
    0.00000E+00         0.00000E+00        -0.21663E+08
 
   -0.21762E+08         0.12432E+07         0.00000E+00
    0.12432E+07        -0.47491E+08         0.00000E+00
    0.00000E+00         0.00000E+00        -0.21777E+08
 
   -0.21875E+08         0.12373E+07         0.00000E+00
    0.12373E+07        -0.47708E+08         0.00000E+00
    0.00000E+00         0.00000E+00        -0.21892E+08
 
   -0.21990E+08         0.12313E+07         0.00000E+00
    0.12313E+07        -0.47928E+08         0.00000E+00
    0.00000E+00         0.00000E+00        -0.22007E+08
 
   -0.22106E+08         0.12253E+07         0.00000E+00
    0.12253E+07        -0.48150E+08         0.00000E+00
    0.00000E+00         0.00000E+00        -0.22124E+08
 
   -0.22225E+08         0.12192E+07         0.00000E+00
    0.12192E+07        -0.48374E+08         0.00000E+00
    0.00000E+00         0.00000E+00        -0.22242E+08
 
   -0.22345E+08         0.12128E+07         0.00000E+00
    0.12128E+07        -0.48602E+08         0.00000E+00
    0.00000E+00         0.00000E+00        -0.22361E+08
 
   -0.22467E+08         0.12062E+07         0.00000E+00
    0.12062E+07        -0.48833E+08         0.00000E+00
    0.00000E+00         0.00000E+00        -0.22482E+08
 
   -0.22592E+08         0.11991E+07         0.00000E+00
    0.11991E+07        -0.49068E+08         0.00000E+00
    0.00000E+00         0.00000E+00        -0.22604E+08
 
   -0.22719E+08         0.11915E+07         0.00000E+00
    0.11915E+07        -0.49306E+08         0.00000E+00
    0.00000E+00         0.00000E+00        -0.22728E+08
 
   -0.22848E+08         0.11833E+07         0.00000E+00
    0.11833E+07        -0.49549E+08         0.00000E+00
    0.00000E+00         0.00000E+00        -0.22853E+08
 
   -0.22981E+08         0.11744E+07         0.00000E+00
    0.11744E+07        -0.49796E+08         0.00000E+00
    0.00000E+00         0.00000E+00        -0.22980E+08
 
   -0.23116E+08         0.11646E+07         0.00000E+00
    0.11646E+07        -0.50048E+08         0.00000E+00
    0.00000E+00         0.00000E+00        -0.23109E+08
 
   -0.23255E+08         0.11537E+07         0.00000E+00
    0.11537E+07        -0.50305E+08         0.00000E+00
    0.00000E+00         0.00000E+00        -0.23240E+08
 
   -0.23398E+08         0.11417E+07         0.00000E+00
    0.11417E+07        -0.50568E+08         0.00000E+00
    0.00000E+00         0.00000E+00        -0.23373E+08
 
   -0.23544E+08         0.11282E+07         0.00000E+00
    0.11282E+07        -0.50836E+08         0.00000E+00
    0.00000E+00         0.00000E+00        -0.23508E+08
 
   -0.23694E+08         0.11132E+07         0.00000E+00
    0.11132E+07        -0.51111E+08         0.00000E+00
    0.00000E+00         0.00000E+00        -0.23646E+08
 
   -0.23848E+08         0.10964E+07         0.00000E+00
    0.10964E+07        -0.51392E+08         0.00000E+00
    0.00000E+00         0.00000E+00        -0.23787E+08
 
   -0.24007E+08         0.10775E+07         0.00000E+00
    0.10775E+07        -0.51681E+08         0.00000E+00
    0.00000E+00         0.00000E+00        -0.23930E+08
 
   -0.24170E+08         0.10564E+07         0.00000E+00
    0.10564E+07        -0.51976E+08         0.00000E+00
    0.00000E+00         0.00000E+00        -0.24075E+08
 
   -0.24339E+08         0.10327E+07         0.00000E+00
    0.10327E+07        -0.52280E+08         0.00000E+00
    0.00000E+00         0.00000E+00        -0.24224E+08
 
   -0.24512E+08         0.10062E+07         0.00000E+00
    0.10062E+07        -0.52591E+08         0.00000E+00
    0.00000E+00         0.00000E+00        -0.24376E+08
 
   -0.24691E+08         0.97652E+06         0.00000E+00
    0.97652E+06        -0.52911E+08         0.00000E+00
    0.00000E+00         0.00000E+00        -0.24532E+08
 
   -0.24875E+08         0.94349E+06         0.00000E+00
    0.94349E+06        -0.53240E+08         0.00000E+00
    0.00000E+00         0.00000E+00        -0.24691E+08
 
   -0.25065E+08         0.90680E+06         0.00000E+00
    0.90680E+06        -0.53577E+08         0.00000E+00
    0.00000E+00         0.00000E+00        -0.24853E+08
 
   -0.25259E+08         0.86621E+06         0.00000E+00
    0.86621E+06        -0.53923E+08         0.00000E+00
    0.00000E+00         0.00000E+00        -0.25020E+08
 
   -0.25459E+08         0.82155E+06         0.00000E+00
    0.82155E+06        -0.54278E+08         0.00000E+00
    0.00000E+00         0.00000E+00        -0.25190E+08
 
   -0.25664E+08         0.77269E+06         0.00000E+00
    0.77269E+06        -0.54641E+08         0.00000E+00
    0.00000E+00         0.00000E+00        -0.25364E+08
 
   -0.25873E+08         0.71962E+06         0.00000E+00
    0.71962E+06        -0.55011E+08         0.00000E+00
    0.00000E+00         0.00000E+00        -0.25541E+08
 
   -0.26085E+08         0.66243E+06         0.00000E+00
    0.66243E+06        -0.55386E+08         0.00000E+00
    0.00000E+00         0.00000E+00        -0.25721E+08
 
   -0.26300E+08         0.60141E+06         0.00000E+00
    0.60141E+06        -0.55766E+08         0.00000E+00
    0.00000E+00         0.00000E+00        -0.25903E+08
 
   -0.26517E+08         0.53700E+06         0.00000E+00
    0.53700E+06        -0.56146E+08         0.00000E+00
    0.00000E+00         0.00000E+00        -0.26084E+08
 
   -0.26734E+08         0.46983E+06         0.00000E+00
    0.46983E+06        -0.56524E+08         0.00000E+00
    0.00000E+00         0.00000E+00        -0.26262E+08
 
   -0.26952E+08         0.40075E+06         0.00000E+00
    0.40075E+06        -0.56894E+08         0.00000E+00
    0.00000E+00         0.00000E+00        -0.26433E+08
 
   -0.27170E+08         0.33070E+06         0.00000E+00
    0.33070E+06        -0.57252E+08         0.00000E+00
    0.00000E+00         0.00000E+00        -0.26591E+08
 
   -0.27391E+08         0.26077E+06         0.00000E+00
    0.26077E+06        -0.57592E+08         0.00000E+00
    0.00000E+00         0.00000E+00        -0.26729E+08
 
   -0.27620E+08         0.19257E+06         0.00000E+00
    0.19257E+06        -0.57908E+08         0.00000E+00
    0.00000E+00         0.00000E+00        -0.26837E+08
 
   -0.27863E+08         0.12869E+06         0.00000E+00
    0.12869E+06        -0.58200E+08         0.00000E+00
    0.00000E+00         0.00000E+00        -0.26906E+08
 
   -0.28132E+08         0.72109E+05         0.00000E+00
    0.72109E+05        -0.58469E+08         0.00000E+00
    0.00000E+00         0.00000E+00        -0.26930E+08
 
   -0.28435E+08         0.22989E+05         0.00000E+00
    0.22989E+05        -0.58723E+08         0.00000E+00
    0.00000E+00         0.00000E+00        -0.26910E+08
 
   -0.11627E+08         0.25700E+05         0.00000E+00
    0.25700E+05        -0.28066E+08         0.00000E+00
    0.00000E+00         0.00000E+00        -0.14646E+08
 
   -0.12091E+08         0.10986E+06         0.00000E+00
    0.10986E+06        -0.28274E+08         0.00000E+00
    0.00000E+00         0.00000E+00        -0.14646E+08
 
   -0.12485E+08         0.23615E+06         0.00000E+00
    0.23615E+06        -0.28574E+08         0.00000E+00
    0.00000E+00         0.00000E+00        -0.14646E+08
 
   -0.12821E+08         0.36537E+06         0.00000E+00
    0.36537E+06        -0.28934E+08         0.00000E+00
    0.00000E+00         0.00000E+00        -0.14646E+08
 
   -0.13109E+08         0.49802E+06         0.00000E+00
    0.49802E+06        -0.29366E+08         0.00000E+00
    0.00000E+00         0.00000E+00        -0.14646E+08
 
   -0.13366E+08         0.62879E+06         0.00000E+00
    0.62879E+06        -0.29853E+08         0.00000E+00
    0.00000E+00         0.00000E+00        -0.14646E+08
 
   -0.13602E+08         0.74963E+06         0.00000E+00
    0.74963E+06        -0.30385E+08         0.00000E+00
    0.00000E+00         0.00000E+00        -0.14646E+08
 
   -0.13826E+08         0.87208E+06         0.00000E+00
    0.87208E+06        -0.30934E+08         0.00000E+00
    0.00000E+00         0.00000E+00        -0.14658E+08
 
   -0.14036E+08         0.94758E+06         0.00000E+00
    0.94758E+06        -0.31464E+08         0.00000E+00
    0.00000E+00         0.00000E+00        -0.14751E+08
 
   -0.14250E+08         0.10179E+07         0.00000E+00
    0.10179E+07        -0.31952E+08         0.00000E+00
    0.00000E+00         0.00000E+00        -0.14928E+08
 
   -0.14473E+08         0.10910E+07         0.00000E+00
    0.10910E+07        -0.32425E+08         0.00000E+00
    0.00000E+00         0.00000E+00        -0.15110E+08
 
   -0.14695E+08         0.11599E+07         0.00000E+00
    0.11599E+07        -0.32903E+08         0.00000E+00
    0.00000E+00         0.00000E+00        -0.15293E+08
 
   -0.14917E+08         0.12199E+07         0.00000E+00
    0.12199E+07        -0.33384E+08         0.00000E+00
    0.00000E+00         0.00000E+00        -0.15472E+08
 
   -0.15136E+08         0.12722E+07         0.00000E+00
    0.12722E+07        -0.33862E+08         0.00000E+00
    0.00000E+00         0.00000E+00        -0.15648E+08
 
   -0.15352E+08         0.13177E+07         0.00000E+00
    0.13177E+07        -0.34335E+08         0.00000E+00
    0.00000E+00         0.00000E+00        -0.15818E+08
 
   -0.15563E+08         0.13576E+07         0.00000E+00
    0.13576E+07        -0.34800E+08         0.00000E+00
    0.00000E+00         0.00000E+00        -0.15982E+08
 
   -0.15766E+08         0.13924E+07         0.00000E+00
    0.13924E+07        -0.35257E+08         0.00000E+00
    0.00000E+00         0.00000E+00        -0.16139E+08
 
   -0.15962E+08         0.14226E+07         0.00000E+00
    0.14226E+07        -0.35704E+08         0.00000E+00
    0.00000E+00         0.00000E+00        -0.16290E+08
 
   -0.16149E+08         0.14485E+07         0.00000E+00
    0.14485E+07        -0.36143E+08         0.00000E+00
    0.00000E+00         0.00000E+00        -0.16434E+08
 
   -0.16328E+08         0.14706E+07         0.00000E+00
    0.14706E+07        -0.36571E+08         0.00000E+00
    0.00000E+00         0.00000E+00        -0.16572E+08
 
   -0.16497E+08         0.14891E+07         0.00000E+00
    0.14891E+07        -0.36991E+08         0.00000E+00
    0.00000E+00         0.00000E+00        -0.16704E+08
 
   -0.16659E+08         0.15043E+07         0.00000E+00
    0.15043E+07        -0.37401E+08         0.00000E+00
    0.00000E+00         0.00000E+00        -0.16830E+08
 
   -0.16811E+08         0.15165E+07         0.00000E+00
    0.15165E+07        -0.37803E+08         0.00000E+00
    0.00000E+00         0.00000E+00        -0.16951E+08
 
   -0.16956E+08         0.15260E+07         0.00000E+00
    0.15260E+07        -0.38197E+08         0.00000E+00
    0.00000E+00         0.00000E+00        -0.17067E+08
 
   -0.17093E+08         0.15330E+07         0.00000E+00
    0.15330E+07        -0.38581E+08         0.00000E+00
    0.00000E+00         0.00000E+00        -0.17179E+08
 
   -0.17254E+08         0.15335E+07         0.00000E+00
    0.15335E+07        -0.38926E+08         0.00000E+00
    0.00000E+00         0.00000E+00        -0.17316E+08
 
   -0.17429E+08         0.15291E+07         0.00000E+00
    0.15291E+07        -0.39241E+08         0.00000E+00
    0.00000E+00         0.00000E+00        -0.17471E+08
 
   -0.17599E+08         0.15230E+07         0.00000E+00
    0.15230E+07        -0.39548E+08         0.00000E+00
    0.00000E+00         0.00000E+00        -0.17623E+08
 
   -0.17764E+08         0.15157E+07         0.00000E+00
    0.15157E+07        -0.39847E+08         0.00000E+00
    0.00000E+00         0.00000E+00        -0.17772E+08
 
   -0.17923E+08         0.15072E+07         0.00000E+00
    0.15072E+07        -0.40139E+08         0.00000E+00
    0.00000E+00         0.00000E+00        -0.17918E+08
 
   -0.18077E+08         0.14978E+07         0.00000E+00
    0.14978E+07        -0.40425E+08         0.00000E+00
    0.00000E+00         0.00000E+00        -0.18062E+08
 
   -0.18228E+08         0.14876E+07         0.00000E+00
    0.14876E+07        -0.40704E+08         0.00000E+00
    0.00000E+00         0.00000E+00        -0.18203E+08
 
   -0.18374E+08         0.14769E+07         0.00000E+00
    0.14769E+07        -0.40977E+08         0.00000E+00
    0.00000E+00         0.00000E+00        -0.18342E+08
 
   -0.18516E+08         0.14657E+07         0.00000E+00
    0.14657E+07        -0.41244E+08         0.00000E+00
    0.00000E+00         0.00000E+00        -0.18478E+08
 
   -0.18655E+08         0.14542E+07         0.00000E+00
    0.14542E+07        -0.41505E+08         0.00000E+00
    0.00000E+00         0.00000E+00        -0.18612E+08
 
   -0.18790E+08         0.14424E+07         0.00000E+00
    0.14424E+07        -0.41762E+08         0.00000E+00
    0.00000E+00         0.00000E+00        -0.18744E+08
 
   -0.18923E+08         0.14306E+07         0.00000E+00
    0.14306E+07        -0.42013E+08         0.00000E+00
    0.00000E+00         0.00000E+00        -0.18874E+08
 
   -0.19052E+08         0.14186E+07         0.00000E+00
    0.14186E+07        -0.42260E+08         0.00000E+00
    0.00000E+00         0.00000E+00        -0.19002E+08
 
   -0.19179E+08         0.14068E+07         0.00000E+00
    0.14068E+07        -0.42503E+08         0.00000E+00
    0.00000E+00         0.00000E+00        -0.19128E+08
 
   -0.19303E+08         0.13950E+07         0.00000E+00
    0.13950E+07        -0.42741E+08         0.00000E+00
    0.00000E+00         0.00000E+00        -0.19253E+08
 
   -0.19425E+08         0.13833E+07         0.00000E+00
    0.13833E+07        -0.42976E+08         0.00000E+00
    0.00000E+00         0.00000E+00        -0.19376E+08
 
   -0.19545E+08         0.13718E+07         0.00000E+00
    0.13718E+07        -0.43207E+08         0.00000E+00
    0.00000E+00         0.00000E+00        -0.19497E+08
 
   -0.19663E+08         0.13606E+07         0.00000E+00
    0.13606E+07        -0.43435E+08         0.00000E+00
    0.00000E+00         0.00000E+00        -0.19617E+08
 
   -0.19779E+08         0.13496E+07         0.00000E+00
    0.13496E+07        -0.43660E+08         0.00000E+00
    0.00000E+00         0.00000E+00        -0.19736E+08
 
   -0.19894E+08         0.13389E+07         0.00000E+00
    0.13389E+07        -0.43882E+08         0.00000E+00
    0.00000E+00         0.00000E+00        -0.19853E+08
 
   -0.20007E+08         0.13285E+07         0.00000E+00
    0.13285E+07        -0.44102E+08         0.00000E+00
    0.00000E+00         0.00000E+00        -0.19969E+08
 
   -0.20119E+08         0.13184E+07         0.00000E+00
    0.13184E+07        -0.44319E+08         0.00000E+00
    0.00000E+00         0.00000E+00        -0.20085E+08
 
   -0.20230E+08         0.13087E+07         0.00000E+00
    0.13087E+07        -0.44535E+08         0.00000E+00
    0.00000E+00         0.00000E+00        -0.20199E+08
 
   -0.20340E+08         0.12993E+07         0.00000E+00
    0.12993E+07        -0.44749E+08         0.00000E+00
    0.00000E+00         0.00000E+00        -0.20313E+08
 
   -0.20450E+08         0.12903E+07         0.00000E+00
    0.12903E+07        -0.44961E+08         0.00000E+00
    0.00000E+00         0.00000E+00        -0.20426E+08
 
   -0.20558E+08         0.12817E+07         0.00000E+00
    0.12817E+07        -0.45173E+08         0.00000E+00
    0.00000E+00         0.00000E+00        -0.20539E+08
 
   -0.20667E+08         0.12734E+07         0.00000E+00
    0.12734E+07        -0.45383E+08         0.00000E+00
    0.00000E+00         0.00000E+00        -0.20651E+08
 
   -0.20775E+08         0.12654E+07         0.00000E+00
    0.12654E+07        -0.45593E+08         0.00000E+00
    0.00000E+00         0.00000E+00        -0.20763E+08
 
   -0.20882E+08         0.12578E+07         0.00000E+00
    0.12578E+07        -0.45802E+08         0.00000E+00
    0.00000E+00         0.00000E+00        -0.20875E+08
 
   -0.20990E+08         0.12506E+07         0.00000E+00
    0.12506E+07        -0.46011E+08         0.00000E+00
    0.00000E+00         0.00000E+00        -0.20986E+08
 
   -0.21098E+08         0.12436E+07         0.00000E+00
    0.12436E+07        -0.46221E+08         0.00000E+00
    0.00000E+00         0.00000E+00        -0.21098E+08
 
   -0.21207E+08         0.12369E+07         0.00000E+00
    0.12369E+07        -0.46430E+08         0.00000E+00
    0.00000E+00         0.00000E+00        -0.21210E+08
 
   -0.21315E+08         0.12304E+07         0.00000E+00
    0.12304E+07        -0.46641E+08         0.00000E+00
    0.00000E+00         0.00000E+00        -0.21322E+08
 
   -0.21425E+08         0.12242E+07         0.00000E+00
    0.12242E+07        -0.46852E+08         0.00000E+00
    0.00000E+00         0.00000E+00        -0.21434E+08
 
   -0.21535E+08         0.12181E+07         0.00000E+00
    0.12181E+07        -0.47064E+08         0.00000E+00
    0.00000E+00         0.00000E+00        -0.21547E+08
 
   -0.21646E+08         0.12122E+07         0.00000E+00
    0.12122E+07        -0.47278E+08         0.00000E+00
    0.00000E+00         0.00000E+00        -0.21661E+08
 
   -0.21758E+08         0.12064E+07         0.00000E+00
    0.12064E+07        -0.47493E+08         0.00000E+00
    0.00000E+00         0.00000E+00        -0.21775E+08
 
   -0.21872E+08         0.12006E+07         0.00000E+00
    0.12006E+07        -0.47711E+08         0.00000E+00
    0.00000E+00         0.00000E+00        -0.21890E+08
 
   -0.21987E+08         0.11948E+07         0.00000E+00
    0.11948E+07        -0.47930E+08         0.00000E+00
    0.00000E+00         0.00000E+00        -0.22006E+08
 
   -0.22103E+08         0.11890E+07         0.00000E+00
    0.11890E+07        -0.48152E+08         0.00000E+00
    0.00000E+00         0.00000E+00        -0.22123E+08
 
   -0.22222E+08         0.11830E+07         0.00000E+00
    0.11830E+07        -0.48377E+08         0.00000E+00
    0.00000E+00         0.00000E+00        -0.22241E+08
 
   -0.22342E+08         0.11768E+07         0.00000E+00
    0.11768E+07        -0.48604E+08         0.00000E+00
    0.00000E+00         0.00000E+00        -0.22360E+08
 
   -0.22464E+08         0.11702E+07         0.00000E+00
    0.11702E+07        -0.48835E+08         0.00000E+00
    0.00000E+00         0.00000E+00        -0.22481E+08
 
   -0.22589E+08         0.11633E+07         0.00000E+00
    0.11633E+07        -0.49070E+08         0.00000E+00
    0.00000E+00         0.00000E+00        -0.22603E+08
 
   -0.22716E+08         0.11559E+07         0.00000E+00
    0.11559E+07        -0.49308E+08         0.00000E+00
    0.00000E+00         0.00000E+00        -0.22726E+08
 
   -0.22845E+08         0.11479E+07         0.00000E+00
    0.11479E+07        -0.49551E+08         0.00000E+00
    0.00000E+00         0.00000E+00        -0.22851E+08
 
   -0.22978E+08         0.11391E+07         0.00000E+00
    0.11391E+07        -0.49798E+08         0.00000E+00
    0.00000E+00         0.00000E+00        -0.22978E+08
 
   -0.23114E+08         0.11295E+07         0.00000E+00
    0.11295E+07        -0.50050E+08         0.00000E+00
    0.00000E+00         0.00000E+00        -0.23107E+08
 
   -0.23253E+08         0.11189E+07         0.00000E+00
    0.11189E+07        -0.50307E+08         0.00000E+00
    0.00000E+00         0.00000E+00        -0.23238E+08
 
   -0.23395E+08         0.11071E+07         0.00000E+00
    0.11071E+07        -0.50569E+08         0.00000E+00
    0.00000E+00         0.00000E+00        -0.23371E+08
 
   -0.23542E+08         0.10940E+07         0.00000E+00
    0.10940E+07        -0.50837E+08         0.00000E+00
    0.00000E+00         0.00000E+00        -0.23506E+08
 
   -0.23692E+08         0.10793E+07         0.00000E+00
    0.10793E+07        -0.51112E+08         0.00000E+00
    0.00000E+00         0.00000E+00        -0.23643E+08
 
   -0.23847E+08         0.10628E+07         0.00000E+00
    0.10628E+07        -0.51393E+08         0.00000E+00
    0.00000E+00         0.00000E+00        -0.23783E+08
 
   -0.24006E+08         0.10444E+07         0.00000E+00
    0.10444E+07        -0.51681E+08         0.00000E+00
    0.00000E+00         0.00000E+00        -0.23926E+08
 
   -0.24169E+08         0.10237E+07         0.00000E+00
    0.10237E+07        -0.51976E+08         0.00000E+00
    0.00000E+00         0.00000E+00        -0.24071E+08
 
   -0.24338E+08         0.10004E+07         0.00000E+00
    0.10004E+07        -0.52279E+08         0.00000E+00
    0.00000E+00         0.00000E+00        -0.24219E+08
 
   -0.24512E+08         0.97440E+06         0.00000E+00
    0.97440E+06        -0.52590E+08         0.00000E+00
    0.00000E+00         0.00000E+00        -0.24370E+08
 
   -0.24691E+08         0.94529E+06         0.00000E+00
    0.94529E+06        -0.52909E+08         0.00000E+00
    0.00000E+00         0.00000E+00        -0.24525E+08
 
   -0.24876E+08         0.91280E+06         0.00000E+00
    0.91280E+06        -0.53237E+08         0.00000E+00
    0.00000E+00         0.00000E+00        -0.24683E+08
 
   -0.25066E+08         0.87664E+06         0.00000E+00
    0.87664E+06        -0.53573E+08         0.00000E+00
    0.00000E+00         0.00000E+00        -0.24844E+08
 
   -0.25262E+08         0.83658E+06         0.00000E+00
    0.83658E+06        -0.53919E+08         0.00000E+00
    0.00000E+00         0.00000E+00        -0.25009E+08
 
   -0.25462E+08         0.79239E+06         0.00000E+00
    0.79239E+06        -0.54273E+08         0.00000E+00
    0.00000E+00         0.00000E+00        -0.25178E+08
 
   -0.25668E+08         0.74395E+06         0.00000E+00
    0.74395E+06        -0.54635E+08         0.00000E+00
    0.00000E+00         0.00000E+00        -0.25351E+08
 
   -0.25878E+08         0.69122E+06         0.00000E+00
    0.69122E+06        -0.55004E+08         0.00000E+00
    0.00000E+00         0.00000E+00        -0.25526E+08
 
   -0.26092E+08         0.63428E+06         0.00000E+00
    0.63428E+06        -0.55379E+08         0.00000E+00
    0.00000E+00         0.00000E+00        -0.25704E+08
 
   -0.26309E+08         0.57341E+06         0.00000E+00
    0.57341E+06        -0.55758E+08         0.00000E+00
    0.00000E+00         0.00000E+00        -0.25884E+08
 
   -0.26527E+08         0.50908E+06         0.00000E+00
    0.50908E+06        -0.56138E+08         0.00000E+00
    0.00000E+00         0.00000E+00        -0.26063E+08
 
   -0.26747E+08         0.44204E+06         0.00000E+00
    0.44204E+06        -0.56515E+08         0.00000E+00
    0.00000E+00         0.00000E+00        -0.26240E+08
 
   -0.26968E+08         0.37329E+06         0.00000E+00
    0.37329E+06        -0.56886E+08         0.00000E+00
    0.00000E+00         0.00000E+00        -0.26409E+08
 
   -0.27189E+08         0.30411E+06         0.00000E+00
    0.30411E+06        -0.57245E+08         0.00000E+00
    0.00000E+00         0.00000E+00        -0.26565E+08
 
   -0.27414E+08         0.23606E+06         0.00000E+00
    0.23606E+06        -0.57587E+08         0.00000E+00
    0.00000E+00         0.00000E+00        -0.26701E+08
 
   -0.27646E+08         0.17123E+06         0.00000E+00
    0.17123E+06        -0.57905E+08         0.00000E+00
    0.00000E+00         0.00000E+00        -0.26808E+08
 
   -0.27894E+08         0.11243E+06         0.00000E+00
    0.11243E+06        -0.58199E+08         0.00000E+00
    0.00000E+00         0.00000E+00        -0.26876E+08
 
   -0.28166E+08         0.62114E+05         0.00000E+00
    0.62114E+05        -0.58471E+08         0.00000E+00
    0.00000E+00         0.00000E+00        -0.26901E+08
 
   -0.28472E+08         0.19654E+05         0.00000E+00
    0.19654E+05        -0.58727E+08         0.00000E+00
    0.00000E+00         0.00000E+00        -0.26881E+08
 
   -0.11471E+08         0.23250E+05         0.00000E+00
    0.23250E+05        -0.28076E+08         0.00000E+00
    0.00000E+00         0.00000E+00        -0.14647E+08
 
   -0.11966E+08         0.97393E+05         0.00000E+00
    0.97393E+05        -0.28296E+08         0.00000E+00
    0.00000E+00         0.00000E+00        -0.14646E+08
 
   -0.12372E+08         0.21069E+06         0.00000E+00
    0.21069E+06        -0.28598E+08         0.00000E+00
    0.00000E+00         0.00000E+00        -0.14646E+08
 
   -0.12717E+08         0.32864E+06         0.00000E+00
    0.32864E+06        -0.28959E+08         0.00000E+00
    0.00000E+00         0.00000E+00        -0.14646E+08
 
   -0.13017E+08         0.45467E+06         0.00000E+00
    0.45467E+06        -0.29392E+08         0.00000E+00
    0.00000E+00         0.00000E+00        -0.14646E+08
 
   -0.13285E+08         0.58103E+06         0.00000E+00
    0.58103E+06        -0.29878E+08         0.00000E+00
    0.00000E+00         0.00000E+00        -0.14646E+08
 
   -0.13533E+08         0.69940E+06         0.00000E+00
    0.69940E+06        -0.30407E+08         0.00000E+00
    0.00000E+00         0.00000E+00        -0.14646E+08
 
   -0.13771E+08         0.82164E+06         0.00000E+00
    0.82164E+06        -0.30953E+08         0.00000E+00
    0.00000E+00         0.00000E+00        -0.14672E+08
 
   -0.13990E+08         0.89322E+06         0.00000E+00
    0.89322E+06        -0.31481E+08         0.00000E+00
    0.00000E+00         0.00000E+00        -0.14773E+08
 
   -0.14213E+08         0.96949E+06         0.00000E+00
    0.96949E+06        -0.31966E+08         0.00000E+00
    0.00000E+00         0.00000E+00        -0.14945E+08
 
   -0.14443E+08         0.10431E+07         0.00000E+00
    0.10431E+07        -0.32440E+08         0.00000E+00
    0.00000E+00         0.00000E+00        -0.15122E+08
 
   -0.14670E+08         0.11128E+07         0.00000E+00
    0.11128E+07        -0.32916E+08         0.00000E+00
    0.00000E+00         0.00000E+00        -0.15300E+08
 
   -0.14894E+08         0.11738E+07         0.00000E+00
    0.11738E+07        -0.33395E+08         0.00000E+00
    0.00000E+00         0.00000E+00        -0.15476E+08
 
   -0.15116E+08         0.12266E+07         0.00000E+00
    0.12266E+07        -0.33872E+08         0.00000E+00
    0.00000E+00         0.00000E+00        -0.15648E+08
 
   -0.15333E+08         0.12725E+07         0.00000E+00
    0.12725E+07        -0.34343E+08         0.00000E+00
    0.00000E+00         0.00000E+00        -0.15815E+08
 
   -0.15544E+08         0.13124E+07         0.00000E+00
    0.13124E+07        -0.34807E+08         0.00000E+00
    0.00000E+00         0.00000E+00        -0.15977E+08
 
   -0.15748E+08         0.13470E+07         0.00000E+00
    0.13470E+07        -0.35263E+08         0.00000E+00
    0.00000E+00         0.00000E+00        -0.16132E+08
 
   -0.15945E+08         0.13769E+07         0.00000E+00
    0.13769E+07        -0.35710E+08         0.00000E+00
    0.00000E+00         0.00000E+00        -0.16281E+08
 
   -0.16133E+08         0.14025E+07         0.00000E+00
    0.14025E+07        -0.36147E+08         0.00000E+00
    0.00000E+00         0.00000E+00        -0.16424E+08
 
   -0.16312E+08         0.14242E+07         0.00000E+00
    0.14242E+07        -0.36575E+08         0.00000E+00
    0.00000E+00         0.00000E+00        -0.16561E+08
 
   -0.16482E+08         0.14423E+07         0.00000E+00
    0.14423E+07        -0.36994E+08         0.00000E+00
    0.00000E+00         0.00000E+00        -0.16693E+08
 
   -0.16644E+08         0.14571E+07         0.00000E+00
    0.14571E+07        -0.37404E+08         0.00000E+00
    0.00000E+00         0.00000E+00        -0.16818E+08
 
   -0.16798E+08         0.14689E+07         0.00000E+00
    0.14689E+07        -0.37805E+08         0.00000E+00
    0.00000E+00         0.00000E+00        -0.16939E+08
 
   -0.16943E+08         0.14781E+07         0.00000E+00
    0.14781E+07        -0.38198E+08         0.00000E+00
    0.00000E+00         0.00000E+00        -0.17055E+08
 
   -0.17083E+08         0.14847E+07         0.00000E+00
    0.14847E+07        -0.38581E+08         0.00000E+00
    0.00000E+00         0.00000E+00        -0.17168E+08
 
   -0.17246E+08         0.14849E+07         0.00000E+00
    0.14849E+07        -0.38924E+08         0.00000E+00
    0.00000E+00         0.00000E+00        -0.17307E+08
 
   -0.17422E+08         0.14807E+07         0.00000E+00
    0.14807E+07        -0.39238E+08         0.00000E+00
    0.00000E+00         0.00000E+00        -0.17462E+08
 
   -0.17592E+08         0.14749E+07         0.00000E+00
    0.14749E+07        -0.39545E+08         0.00000E+00
    0.00000E+00         0.00000E+00        -0.17614E+08
 
   -0.17757E+08         0.14678E+07         0.00000E+00
    0.14678E+07        -0.39845E+08         0.00000E+00
    0.00000E+00         0.00000E+00        -0.17763E+08
 
   -0.17917E+08         0.14596E+07         0.00000E+00
    0.14596E+07        -0.40137E+08         0.00000E+00
    0.00000E+00         0.00000E+00        -0.17909E+08
 
   -0.18071E+08         0.14506E+07         0.00000E+00
    0.14506E+07        -0.40422E+08         0.00000E+00
    0.00000E+00         0.00000E+00        -0.18053E+08
 
   -0.18222E+08         0.14408E+07         0.00000E+00
    0.14408E+07        -0.40702E+08         0.00000E+00
    0.00000E+00         0.00000E+00        -0.18194E+08
 
   -0.18368E+08         0.14305E+07         0.00000E+00
    0.14305E+07        -0.40975E+08         0.00000E+00
    0.00000E+00         0.00000E+00        -0.18333E+08
 
   -0.18511E+08         0.14198E+07         0.00000E+00
    0.14198E+07        -0.41242E+08         0.00000E+00
    0.00000E+00         0.00000E+00        -0.18469E+08
 
   -0.18650E+08         0.14087E+07         0.00000E+00
    0.14087E+07        -0.41503E+08         0.00000E+00
    0.00000E+00         0.00000E+00        -0.18604E+08
 
   -0.18786E+08         0.13974E+07         0.00000E+00
    0.13974E+07        -0.41760E+08         0.00000E+00
    0.00000E+00         0.00000E+00        -0.18736E+08
 
   -0.18918E+08         0.13860E+07         0.00000E+00
    0.13860E+07        -0.42012E+08         0.00000E+00
    0.00000E+00         0.00000E+00        -0.18866E+08
 
   -0.19048E+08         0.13746E+07         0.00000E+00
    0.13746E+07        -0.42259E+08         0.00000E+00
    0.00000E+00         0.00000E+00        -0.18994E+08
 
   -0.19175E+08         0.13631E+07         0.00000E+00
    0.13631E+07        -0.42501E+08         0.00000E+00
    0.00000E+00         0.00000E+00        -0.19121E+08
 
   -0.19299E+08         0.13518E+07         0.00000E+00
    0.13518E+07        -0.42740E+08         0.00000E+00
    0.00000E+00         0.00000E+00        -0.19245E+08
 
   -0.19421E+08         0.13405E+07         0.00000E+00
    0.13405E+07        -0.42975E+08         0.00000E+00
    0.00000E+00         0.00000E+00        -0.19369E+08
 
   -0.19541E+08         0.13295E+07         0.00000E+00
    0.13295E+07        -0.43206E+08         0.00000E+00
    0.00000E+00         0.00000E+00        -0.19490E+08
 
   -0.19660E+08         0.13187E+07         0.00000E+00
    0.13187E+07        -0.43435E+08         0.00000E+00
    0.00000E+00         0.00000E+00        -0.19610E+08
 
   -0.19776E+08         0.13081E+07         0.00000E+00
    0.13081E+07        -0.43660E+08         0.00000E+00
    0.00000E+00         0.00000E+00        -0.19729E+08
 
   -0.19891E+08         0.12978E+07         0.00000E+00
    0.12978E+07        -0.43882E+08         0.00000E+00
    0.00000E+00         0.00000E+00        -0.19847E+08
 
   -0.20004E+08         0.12878E+07         0.00000E+00
    0.12878E+07        -0.44102E+08         0.00000E+00
    0.00000E+00         0.00000E+00        -0.19964E+08
 
   -0.20116E+08         0.12781E+07         0.00000E+00
    0.12781E+07        -0.44320E+08         0.00000E+00
    0.00000E+00         0.00000E+00        -0.20080E+08
 
   -0.20227E+08         0.12687E+07         0.00000E+00
    0.12687E+07        -0.44535E+08         0.00000E+00
    0.00000E+00         0.00000E+00        -0.20194E+08
 
   -0.20337E+08         0.12597E+07         0.00000E+00
    0.12597E+07        -0.44750E+08         0.00000E+00
    0.00000E+00         0.00000E+00        -0.20308E+08
 
   -0.20447E+08         0.12510E+07         0.00000E+00
    0.12510E+07        -0.44962E+08         0.00000E+00
    0.00000E+00         0.00000E+00        -0.20422E+08
 
   -0.20555E+08         0.12426E+07         0.00000E+00
    0.12426E+07        -0.45174E+08         0.00000E+00
    0.00000E+00         0.00000E+00        -0.20535E+08
 
   -0.20663E+08         0.12346E+07         0.00000E+00
    0.12346E+07        -0.45384E+08         0.00000E+00
    0.00000E+00         0.00000E+00        -0.20647E+08
 
   -0.20771E+08         0.12269E+07         0.00000E+00
    0.12269E+07        -0.45594E+08         0.00000E+00
    0.00000E+00         0.00000E+00        -0.20759E+08
 
   -0.20879E+08         0.12196E+07         0.00000E+00
    0.12196E+07        -0.45803E+08         0.00000E+00
    0.00000E+00         0.00000E+00        -0.20871E+08
 
   -0.20987E+08         0.12125E+07         0.00000E+00
    0.12125E+07        -0.46013E+08         0.00000E+00
    0.00000E+00         0.00000E+00        -0.20983E+08
 
   -0.21095E+08         0.12057E+07         0.00000E+00
    0.12057E+07        -0.46222E+08         0.00000E+00
    0.00000E+00         0.00000E+00        -0.21095E+08
 
   -0.21203E+08         0.11992E+07         0.00000E+00
    0.11992E+07        -0.46432E+08         0.00000E+00
    0.00000E+00         0.00000E+00        -0.21207E+08
 
   -0.21312E+08         0.11930E+07         0.00000E+00
    0.11930E+07        -0.46642E+08         0.00000E+00
    0.00000E+00         0.00000E+00        -0.21319E+08
 
   -0.21422E+08         0.11869E+07         0.00000E+00
    0.11869E+07        -0.46854E+08         0.00000E+00
    0.00000E+00         0.00000E+00        -0.21432E+08
 
   -0.21532E+08         0.11810E+07         0.00000E+00
    0.11810E+07        -0.47066E+08         0.00000E+00
    0.00000E+00         0.00000E+00        -0.21545E+08
 
   -0.21643E+08         0.11753E+07         0.00000E+00
    0.11753E+07        -0.47280E+08         0.00000E+00
    0.00000E+00         0.00000E+00        -0.21659E+08
 
   -0.21755E+08         0.11696E+07         0.00000E+00
    0.11696E+07        -0.47495E+08         0.00000E+00
    0.00000E+00         0.00000E+00        -0.21773E+08
 
   -0.21869E+08         0.11640E+07         0.00000E+00
    0.11640E+07        -0.47713E+08         0.00000E+00
    0.00000E+00         0.00000E+00        -0.21888E+08
 
   -0.21984E+08         0.11583E+07         0.00000E+00
    0.11583E+07        -0.47932E+08         0.00000E+00
    0.00000E+00         0.00000E+00        -0.22004E+08
 
   -0.22100E+08         0.11526E+07         0.00000E+00
    0.11526E+07        -0.48154E+08         0.00000E+00
    0.00000E+00         0.00000E+00        -0.22121E+08
 
   -0.22218E+08         0.11467E+07         0.00000E+00
    0.11467E+07        -0.48379E+08         0.00000E+00
    0.00000E+00         0.00000E+00        -0.22239E+08
 
   -0.22339E+08         0.11407E+07         0.00000E+00
    0.11407E+07        -0.48607E+08         0.00000E+00
    0.00000E+00         0.00000E+00        -0.22359E+08
 
   -0.22461E+08         0.11343E+07         0.00000E+00
    0.11343E+07        -0.48838E+08         0.00000E+00
    0.00000E+00         0.00000E+00        -0.22479E+08
 
   -0.22586E+08         0.11275E+07         0.00000E+00
    0.11275E+07        -0.49072E+08         0.00000E+00
    0.00000E+00         0.00000E+00        -0.22601E+08
 
   -0.22713E+08         0.11203E+07         0.00000E+00
    0.11203E+07        -0.49310E+08         0.00000E+00
    0.00000E+00         0.00000E+00        -0.22725E+08
 
   -0.22843E+08         0.11124E+07         0.00000E+00
    0.11124E+07        -0.49553E+08         0.00000E+00
    0.00000E+00         0.00000E+00        -0.22850E+08
 
   -0.22975E+08         0.11039E+07         0.00000E+00
    0.11039E+07        -0.49800E+08         0.00000E+00
    0.00000E+00         0.00000E+00        -0.22977E+08
 
   -0.23111E+08         0.10945E+07         0.00000E+00
    0.10945E+07        -0.50052E+08         0.00000E+00
    0.00000E+00         0.00000E+00        -0.23106E+08
 
   -0.23251E+08         0.10841E+07         0.00000E+00
    0.10841E+07        -0.50308E+08         0.00000E+00
    0.00000E+00         0.00000E+00        -0.23236E+08
 
   -0.23393E+08         0.10726E+07         0.00000E+00
    0.10726E+07        -0.50571E+08         0.00000E+00
    0.00000E+00         0.00000E+00        -0.23369E+08
 
   -0.23540E+08         0.10597E+07         0.00000E+00
    0.10597E+07        -0.50839E+08         0.00000E+00
    0.00000E+00         0.00000E+00        -0.23504E+08
 
   -0.23690E+08         0.10454E+07         0.00000E+00
    0.10454E+07        -0.51113E+08         0.00000E+00
    0.00000E+00         0.00000E+00        -0.23641E+08
 
   -0.23845E+08         0.10293E+07         0.00000E+00
    0.10293E+07        -0.51393E+08         0.00000E+00
    0.00000E+00         0.00000E+00        -0.23780E+08
 
   -0.24004E+08         0.10112E+07         0.00000E+00
    0.10112E+07        -0.51681E+08         0.00000E+00
    0.00000E+00         0.00000E+00        -0.23922E+08
 
   -0.24169E+08         0.99098E+06         0.00000E+00
    0.99098E+06        -0.51975E+08         0.00000E+00
    0.00000E+00         0.00000E+00        -0.24066E+08
 
   -0.24338E+08         0.96824E+06         0.00000E+00
    0.96824E+06        -0.52278E+08         0.00000E+00
    0.00000E+00         0.00000E+00        -0.24214E+08
 
   -0.24512E+08         0.94274E+06         0.00000E+00
    0.94274E+06        -0.52588E+08         0.00000E+00
    0.00000E+00         0.00000E+00        -0.24364E+08
 
   -0.24692E+08         0.91417E+06         0.00000E+00
    0.91417E+06        -0.52907E+08         0.00000E+00
    0.00000E+00         0.00000E+00        -0.24518E+08
 
   -0.24877E+08         0.88223E+06         0.00000E+00
    0.88223E+06        -0.53234E+08         0.00000E+00
    0.00000E+00         0.00000E+00        -0.24675E+08
 
   -0.25068E+08         0.84664E+06         0.00000E+00
    0.84664E+06        -0.53570E+08         0.00000E+00
    0.00000E+00         0.00000E+00        -0.24835E+08
 
   -0.25264E+08         0.80712E+06         0.00000E+00
    0.80712E+06        -0.53914E+08         0.00000E+00
    0.00000E+00         0.00000E+00        -0.24999E+08
 
   -0.25466E+08         0.76346E+06         0.00000E+00
    0.76346E+06        -0.54267E+08         0.00000E+00
    0.00000E+00         0.00000E+00        -0.25166E+08
 
   -0.25672E+08         0.71548E+06         0.00000E+00
    0.71548E+06        -0.54629E+08         0.00000E+00
    0.00000E+00         0.00000E+00        -0.25337E+08
 
   -0.25884E+08         0.66313E+06         0.00000E+00
    0.66313E+06        -0.54997E+08         0.00000E+00
    0.00000E+00         0.00000E+00        -0.25511E+08
 
   -0.26099E+08         0.60649E+06         0.00000E+00
    0.60649E+06        -0.55371E+08         0.00000E+00
    0.00000E+00         0.00000E+00        -0.25687E+08
 
   -0.26317E+08         0.54584E+06         0.00000E+00
    0.54584E+06        -0.55750E+08         0.00000E+00
    0.00000E+00         0.00000E+00        -0.25865E+08
 
   -0.26538E+08         0.48168E+06         0.00000E+00
    0.48168E+06        -0.56130E+08         0.00000E+00
    0.00000E+00         0.00000E+00        -0.26043E+08
 
   -0.26760E+08         0.41485E+06         0.00000E+00
    0.41485E+06        -0.56508E+08         0.00000E+00
    0.00000E+00         0.00000E+00        -0.26217E+08
 
   -0.26984E+08         0.34653E+06         0.00000E+00
    0.34653E+06        -0.56879E+08         0.00000E+00
    0.00000E+00         0.00000E+00        -0.26384E+08
 
   -0.27209E+08         0.27831E+06         0.00000E+00
    0.27831E+06        -0.57239E+08         0.00000E+00
    0.00000E+00         0.00000E+00        -0.26539E+08
 
   -0.27437E+08         0.21220E+06         0.00000E+00
    0.21220E+06        -0.57582E+08         0.00000E+00
    0.00000E+00         0.00000E+00        -0.26674E+08
 
   -0.27674E+08         0.15076E+06         0.00000E+00
    0.15076E+06        -0.57903E+08         0.00000E+00
    0.00000E+00         0.00000E+00        -0.26780E+08
 
   -0.27925E+08         0.96892E+05         0.00000E+00
    0.96892E+05        -0.58200E+08         0.00000E+00
    0.00000E+00         0.00000E+00        -0.26848E+08
 
   -0.28200E+08         0.52575E+05         0.00000E+00
    0.52575E+05        -0.58475E+08         0.00000E+00
    0.00000E+00         0.00000E+00        -0.26873E+08
 
   -0.28508E+08         0.16468E+05         0.00000E+00
    0.16468E+05        -0.58732E+08         0.00000E+00
    0.00000E+00         0.00000E+00        -0.26853E+08
 
   -0.11365E+08         0.21603E+05         0.00000E+00
    0.21603E+05        -0.28078E+08         0.00000E+00
    0.00000E+00         0.00000E+00        -0.14682E+08
 
   -0.11847E+08         0.88198E+05         0.00000E+00
    0.88198E+05        -0.28326E+08         0.00000E+00
    0.00000E+00         0.00000E+00        -0.14646E+08
 
   -0.12259E+08         0.18622E+06         0.00000E+00
    0.18622E+06        -0.28617E+08         0.00000E+00
    0.00000E+00         0.00000E+00        -0.14646E+08
 
   -0.12613E+08         0.29425E+06         0.00000E+00
    0.29425E+06        -0.28984E+08         0.00000E+00
    0.00000E+00         0.00000E+00        -0.14646E+08
 
   -0.12924E+08         0.41350E+06         0.00000E+00
    0.41350E+06        -0.29417E+08         0.00000E+00
    0.00000E+00         0.00000E+00        -0.14646E+08
 
   -0.13203E+08         0.53524E+06         0.00000E+00
    0.53524E+06        -0.29903E+08         0.00000E+00
    0.00000E+00         0.00000E+00        -0.14646E+08
 
   -0.13463E+08         0.65290E+06         0.00000E+00
    0.65290E+06        -0.30429E+08         0.00000E+00
    0.00000E+00         0.00000E+00        -0.14646E+08
 
   -0.13714E+08         0.77192E+06         0.00000E+00
    0.77192E+06        -0.30971E+08         0.00000E+00
    0.00000E+00         0.00000E+00        -0.14686E+08
 
   -0.13944E+08         0.84210E+06         0.00000E+00
    0.84210E+06        -0.31499E+08         0.00000E+00
    0.00000E+00         0.00000E+00        -0.14796E+08
 
   -0.14178E+08         0.92221E+06         0.00000E+00
    0.92221E+06        -0.31980E+08         0.00000E+00
    0.00000E+00         0.00000E+00        -0.14962E+08
 
   -0.14414E+08         0.99651E+06         0.00000E+00
    0.99651E+06        -0.32454E+08         0.00000E+00
    0.00000E+00         0.00000E+00        -0.15134E+08
 
   -0.14646E+08         0.10665E+07         0.00000E+00
    0.10665E+07        -0.32929E+08         0.00000E+00
    0.00000E+00         0.00000E+00        -0.15308E+08
 
   -0.14873E+08         0.11281E+07         0.00000E+00
    0.11281E+07        -0.33407E+08         0.00000E+00
    0.00000E+00         0.00000E+00        -0.15480E+08
 
   -0.15097E+08         0.11814E+07         0.00000E+00
    0.11814E+07        -0.33882E+08         0.00000E+00
    0.00000E+00         0.00000E+00        -0.15649E+08
 
   -0.15315E+08         0.12275E+07         0.00000E+00
    0.12275E+07        -0.34352E+08         0.00000E+00
    0.00000E+00         0.00000E+00        -0.15813E+08
 
   -0.15527E+08         0.12674E+07         0.00000E+00
    0.12674E+07        -0.34815E+08         0.00000E+00
    0.00000E+00         0.00000E+00        -0.15972E+08
 
   -0.15732E+08         0.13018E+07         0.00000E+00
    0.13018E+07        -0.35270E+08         0.00000E+00
    0.00000E+00         0.00000E+00        -0.16126E+08
 
   -0.15929E+08         0.13314E+07         0.00000E+00
    0.13314E+07        -0.35715E+08         0.00000E+00
    0.00000E+00         0.00000E+00        -0.16273E+08
 
   -0.16118E+08         0.13566E+07         0.00000E+00
    0.13566E+07        -0.36152E+08         0.00000E+00
    0.00000E+00         0.00000E+00        -0.16415E+08
 
   -0.16298E+08         0.13779E+07         0.00000E+00
    0.13779E+07        -0.36579E+08         0.00000E+00
    0.00000E+00         0.00000E+00        -0.16551E+08
 
   -0.16469E+08         0.13956E+07         0.00000E+00
    0.13956E+07        -0.36997E+08         0.00000E+00
    0.00000E+00         0.00000E+00        -0.16681E+08
 
   -0.16631E+08         0.14100E+07         0.00000E+00
    0.14100E+07        -0.37407E+08         0.00000E+00
    0.00000E+00         0.00000E+00        -0.16807E+08
 
   -0.16785E+08         0.14215E+07         0.00000E+00
    0.14215E+07        -0.37807E+08         0.00000E+00
    0.00000E+00         0.00000E+00        -0.16927E+08
 
   -0.16931E+08         0.14304E+07         0.00000E+00
    0.14304E+07        -0.38200E+08         0.00000E+00
    0.00000E+00         0.00000E+00        -0.17042E+08
 
   -0.17074E+08         0.14365E+07         0.00000E+00
    0.14365E+07        -0.38580E+08         0.00000E+00
    0.00000E+00         0.00000E+00        -0.17157E+08
 
   -0.17239E+08         0.14365E+07         0.00000E+00
    0.14365E+07        -0.38921E+08         0.00000E+00
    0.00000E+00         0.00000E+00        -0.17298E+08
 
   -0.17415E+08         0.14325E+07         0.00000E+00
    0.14325E+07        -0.39236E+08         0.00000E+00
    0.00000E+00         0.00000E+00        -0.17453E+08
 
   -0.17586E+08         0.14269E+07         0.00000E+00
    0.14269E+07        -0.39543E+08         0.00000E+00
    0.00000E+00         0.00000E+00        -0.17604E+08
 
   -0.17751E+08         0.14201E+07         0.00000E+00
    0.14201E+07        -0.39842E+08         0.00000E+00
    0.00000E+00         0.00000E+00        -0.17753E+08
 
   -0.17911E+08         0.14122E+07         0.00000E+00
    0.14122E+07        -0.40134E+08         0.00000E+00
    0.00000E+00         0.00000E+00        -0.17900E+08
 
   -0.18066E+08         0.14035E+07         0.00000E+00
    0.14035E+07        -0.40420E+08         0.00000E+00
    0.00000E+00         0.00000E+00        -0.18043E+08
 
   -0.18217E+08         0.13942E+07         0.00000E+00
    0.13942E+07        -0.40699E+08         0.00000E+00
    0.00000E+00         0.00000E+00        -0.18185E+08
 
   -0.18363E+08         0.13843E+07         0.00000E+00
    0.13843E+07        -0.40972E+08         0.00000E+00
    0.00000E+00         0.00000E+00        -0.18324E+08
 
   -0.18506E+08         0.13739E+07         0.00000E+00
    0.13739E+07        -0.41240E+08         0.00000E+00
    0.00000E+00         0.00000E+00        -0.18460E+08
 
   -0.18645E+08         0.13633E+07         0.00000E+00
    0.13633E+07        -0.41502E+08         0.00000E+00
    0.00000E+00         0.00000E+00        -0.18595E+08
 
   -0.18781E+08         0.13525E+07         0.00000E+00
    0.13525E+07        -0.41758E+08         0.00000E+00
    0.00000E+00         0.00000E+00        -0.18727E+08
 
   -0.18914E+08         0.13415E+07         0.00000E+00
    0.13415E+07        -0.42010E+08         0.00000E+00
    0.00000E+00         0.00000E+00        -0.18858E+08
 
   -0.19044E+08         0.13305E+07         0.00000E+00
    0.13305E+07        -0.42258E+08         0.00000E+00
    0.00000E+00         0.00000E+00        -0.18986E+08
 
   -0.19171E+08         0.13195E+07         0.00000E+00
    0.13195E+07        -0.42500E+08         0.00000E+00
    0.00000E+00         0.00000E+00        -0.19113E+08
 
   -0.19296E+08         0.13086E+07         0.00000E+00
    0.13086E+07        -0.42739E+08         0.00000E+00
    0.00000E+00         0.00000E+00        -0.19238E+08
 
   -0.19418E+08         0.12979E+07         0.00000E+00
    0.12979E+07        -0.42974E+08         0.00000E+00
    0.00000E+00         0.00000E+00        -0.19362E+08
 
   -0.19538E+08         0.12872E+07         0.00000E+00
    0.12872E+07        -0.43206E+08         0.00000E+00
    0.00000E+00         0.00000E+00        -0.19484E+08
 
   -0.19656E+08         0.12768E+07         0.00000E+00
    0.12768E+07        -0.43434E+08         0.00000E+00
    0.00000E+00         0.00000E+00        -0.19604E+08
 
   -0.19773E+08         0.12666E+07         0.00000E+00
    0.12666E+07        -0.43659E+08         0.00000E+00
    0.00000E+00         0.00000E+00        -0.19723E+08
 
   -0.19887E+08         0.12567E+07         0.00000E+00
    0.12567E+07        -0.43882E+08         0.00000E+00
    0.00000E+00         0.00000E+00        -0.19841E+08
 
   -0.20001E+08         0.12471E+07         0.00000E+00
    0.12471E+07        -0.44102E+08         0.00000E+00
    0.00000E+00         0.00000E+00        -0.19958E+08
 
   -0.20113E+08         0.12377E+07         0.00000E+00
    0.12377E+07        -0.44320E+08         0.00000E+00
    0.00000E+00         0.00000E+00        -0.20074E+08
 
   -0.20224E+08         0.12287E+07         0.00000E+00
    0.12287E+07        -0.44536E+08         0.00000E+00
    0.00000E+00         0.00000E+00        -0.20189E+08
 
   -0.20334E+08         0.12200E+07         0.00000E+00
    0.12200E+07        -0.44750E+08         0.00000E+00
    0.00000E+00         0.00000E+00        -0.20304E+08
 
   -0.20443E+08         0.12116E+07         0.00000E+00
    0.12116E+07        -0.44963E+08         0.00000E+00
    0.00000E+00         0.00000E+00        -0.20417E+08
 
   -0.20552E+08         0.12035E+07         0.00000E+00
    0.12035E+07        -0.45174E+08         0.00000E+00
    0.00000E+00         0.00000E+00        -0.20531E+08
 
   -0.20660E+08         0.11958E+07         0.00000E+00
    0.11958E+07        -0.45385E+08         0.00000E+00
    0.00000E+00         0.00000E+00        -0.20643E+08
 
   -0.20768E+08         0.11884E+07         0.00000E+00
    0.11884E+07        -0.45595E+08         0.00000E+00
    0.00000E+00         0.00000E+00        -0.20756E+08
 
   -0.20876E+08         0.11813E+07         0.00000E+00
    0.11813E+07        -0.45805E+08         0.00000E+00
    0.00000E+00         0.00000E+00        -0.20868E+08
 
   -0.20984E+08         0.11744E+07         0.00000E+00
    0.11744E+07        -0.46014E+08         0.00000E+00
    0.00000E+00         0.00000E+00        -0.20980E+08
 
   -0.21092E+08         0.11679E+07         0.00000E+00
    0.11679E+07        -0.46224E+08         0.00000E+00
    0.00000E+00         0.00000E+00        -0.21092E+08
 
   -0.21200E+08         0.11616E+07         0.00000E+00
    0.11616E+07        -0.46433E+08         0.00000E+00
    0.00000E+00         0.00000E+00        -0.21205E+08
 
   -0.21309E+08         0.11555E+07         0.00000E+00
    0.11555E+07        -0.46644E+08         0.00000E+00
    0.00000E+00         0.00000E+00        -0.21317E+08
 
   -0.21418E+08         0.11496E+07         0.00000E+00
    0.11496E+07        -0.46855E+08         0.00000E+00
    0.00000E+00         0.00000E+00        -0.21430E+08
 
   -0.21529E+08         0.11439E+07         0.00000E+00
    0.11439E+07        -0.47068E+08         0.00000E+00
    0.00000E+00         0.00000E+00        -0.21543E+08
 
   -0.21640E+08         0.11383E+07         0.00000E+00
    0.11383E+07        -0.47282E+08         0.00000E+00
    0.00000E+00         0.00000E+00        -0.21657E+08
 
   -0.21752E+08         0.11328E+07         0.00000E+00
    0.11328E+07        -0.47497E+08         0.00000E+00
    0.00000E+00         0.00000E+00        -0.21771E+08
 
   -0.21866E+08         0.11273E+07         0.00000E+00
    0.11273E+07        -0.47714E+08         0.00000E+00
    0.00000E+00         0.00000E+00        -0.21887E+08
 
   -0.21980E+08         0.11218E+07         0.00000E+00
    0.11218E+07        -0.47934E+08         0.00000E+00
    0.00000E+00         0.00000E+00        -0.22003E+08
 
   -0.22097E+08         0.11162E+07         0.00000E+00
    0.11162E+07        -0.48156E+08         0.00000E+00
    0.00000E+00         0.00000E+00        -0.22120E+08
 
   -0.22215E+08         0.11105E+07         0.00000E+00
    0.11105E+07        -0.48381E+08         0.00000E+00
    0.00000E+00         0.00000E+00        -0.22238E+08
 
   -0.22336E+08         0.11046E+07         0.00000E+00
    0.11046E+07        -0.48609E+08         0.00000E+00
    0.00000E+00         0.00000E+00        -0.22358E+08
 
   -0.22458E+08         0.10983E+07         0.00000E+00
    0.10983E+07        -0.48840E+08         0.00000E+00
    0.00000E+00         0.00000E+00        -0.22478E+08
 
   -0.22583E+08         0.10917E+07         0.00000E+00
    0.10917E+07        -0.49074E+08         0.00000E+00
    0.00000E+00         0.00000E+00        -0.22600E+08
 
   -0.22710E+08         0.10846E+07         0.00000E+00
    0.10846E+07        -0.49312E+08         0.00000E+00
    0.00000E+00         0.00000E+00        -0.22724E+08
 
   -0.22840E+08         0.10770E+07         0.00000E+00
    0.10770E+07        -0.49555E+08         0.00000E+00
    0.00000E+00         0.00000E+00        -0.22849E+08
 
   -0.22973E+08         0.10686E+07         0.00000E+00
    0.10686E+07        -0.49802E+08         0.00000E+00
    0.00000E+00         0.00000E+00        -0.22976E+08
 
   -0.23109E+08         0.10594E+07         0.00000E+00
    0.10594E+07        -0.50053E+08         0.00000E+00
    0.00000E+00         0.00000E+00        -0.23104E+08
 
   -0.23248E+08         0.10493E+07         0.00000E+00
    0.10493E+07        -0.50310E+08         0.00000E+00
    0.00000E+00         0.00000E+00        -0.23234E+08
 
   -0.23391E+08         0.10381E+07         0.00000E+00
    0.10381E+07        -0.50572E+08         0.00000E+00
    0.00000E+00         0.00000E+00        -0.23367E+08
 
   -0.23538E+08         0.10255E+07         0.00000E+00
    0.10255E+07        -0.50840E+08         0.00000E+00
    0.00000E+00         0.00000E+00        -0.23501E+08
 
   -0.23688E+08         0.10115E+07         0.00000E+00
    0.10115E+07        -0.51113E+08         0.00000E+00
    0.00000E+00         0.00000E+00        -0.23638E+08
 
   -0.23844E+08         0.99581E+06         0.00000E+00
    0.99581E+06        -0.51394E+08         0.00000E+00
    0.00000E+00         0.00000E+00        -0.23777E+08
 
   -0.24003E+08         0.97818E+06         0.00000E+00
    0.97818E+06        -0.51681E+08         0.00000E+00
    0.00000E+00         0.00000E+00        -0.23918E+08
 
   -0.24168E+08         0.95838E+06         0.00000E+00
    0.95838E+06        -0.51975E+08         0.00000E+00
    0.00000E+00         0.00000E+00        -0.24062E+08
 
   -0.24337E+08         0.93614E+06         0.00000E+00
    0.93614E+06        -0.52277E+08         0.00000E+00
    0.00000E+00         0.00000E+00        -0.24209E+08
 
   -0.24512E+08         0.91117E+06         0.00000E+00
    0.91117E+06        -0.52587E+08         0.00000E+00
    0.00000E+00         0.00000E+00        -0.24359E+08
 
   -0.24692E+08         0.88316E+06         0.00000E+00
    0.88316E+06        -0.52905E+08         0.00000E+00
    0.00000E+00         0.00000E+00        -0.24511E+08
 
   -0.24878E+08         0.85180E+06         0.00000E+00
    0.85180E+06        -0.53231E+08         0.00000E+00
    0.00000E+00         0.00000E+00        -0.24667E+08
 
   -0.25069E+08         0.81680E+06         0.00000E+00
    0.81680E+06        -0.53566E+08         0.00000E+00
    0.00000E+00         0.00000E+00        -0.24826E+08
 
   -0.25266E+08         0.77786E+06         0.00000E+00
    0.77786E+06        -0.53910E+08         0.00000E+00
    0.00000E+00         0.00000E+00        -0.24989E+08
 
   -0.25469E+08         0.73475E+06         0.00000E+00
    0.73475E+06        -0.54262E+08         0.00000E+00
    0.00000E+00         0.00000E+00        -0.25155E+08
 
   -0.25677E+08         0.68727E+06         0.00000E+00
    0.68727E+06        -0.54623E+08         0.00000E+00
    0.00000E+00         0.00000E+00        -0.25324E+08
 
   -0.25889E+08         0.63536E+06         0.00000E+00
    0.63536E+06        -0.54990E+08         0.00000E+00
    0.00000E+00         0.00000E+00        -0.25496E+08
 
   -0.26106E+08         0.57909E+06         0.00000E+00
    0.57909E+06        -0.55364E+08         0.00000E+00
    0.00000E+00         0.00000E+00        -0.25671E+08
 
   -0.26326E+08         0.51873E+06         0.00000E+00
    0.51873E+06        -0.55742E+08         0.00000E+00
    0.00000E+00         0.00000E+00        -0.25846E+08
 
   -0.26549E+08         0.45483E+06         0.00000E+00
    0.45483E+06        -0.56122E+08         0.00000E+00
    0.00000E+00         0.00000E+00        -0.26022E+08
 
   -0.26774E+08         0.38830E+06         0.00000E+00
    0.38830E+06        -0.56500E+08         0.00000E+00
    0.00000E+00         0.00000E+00        -0.26194E+08
 
   -0.27001E+08         0.32050E+06         0.00000E+00
    0.32050E+06        -0.56872E+08         0.00000E+00
    0.00000E+00         0.00000E+00        -0.26360E+08
 
   -0.27229E+08         0.25331E+06         0.00000E+00
    0.25331E+06        -0.57234E+08         0.00000E+00
    0.00000E+00         0.00000E+00        -0.26513E+08
 
   -0.27462E+08         0.18919E+06         0.00000E+00
    0.18919E+06        -0.57579E+08         0.00000E+00
    0.00000E+00         0.00000E+00        -0.26647E+08
 
   -0.27702E+08         0.13110E+06         0.00000E+00
    0.13110E+06        -0.57903E+08         0.00000E+00
    0.00000E+00         0.00000E+00        -0.26752E+08
 
   -0.27957E+08         0.82006E+05         0.00000E+00
    0.82006E+05        -0.58203E+08         0.00000E+00
    0.00000E+00         0.00000E+00        -0.26820E+08
 
   -0.28235E+08         0.43436E+05         0.00000E+00
    0.43436E+05        -0.58480E+08         0.00000E+00
    0.00000E+00         0.00000E+00        -0.26846E+08
 
   -0.28545E+08         0.13412E+05         0.00000E+00
    0.13412E+05        -0.58739E+08         0.00000E+00
    0.00000E+00         0.00000E+00        -0.26827E+08
 
   -0.11271E+08         0.17476E+05         0.00000E+00
    0.17476E+05        -0.28079E+08         0.00000E+00
    0.00000E+00         0.00000E+00        -0.14727E+08
 
   -0.11732E+08         0.77957E+05         0.00000E+00
    0.77957E+05        -0.28351E+08         0.00000E+00
    0.00000E+00         0.00000E+00        -0.14646E+08
 
   -0.12148E+08         0.16261E+06         0.00000E+00
    0.16261E+06        -0.28633E+08         0.00000E+00
    0.00000E+00         0.00000E+00        -0.14646E+08
 
   -0.12510E+08         0.26223E+06         0.00000E+00
    0.26223E+06        -0.29007E+08         0.00000E+00
    0.00000E+00         0.00000E+00        -0.14646E+08
 
   -0.12832E+08         0.37447E+06         0.00000E+00
    0.37447E+06        -0.29440E+08         0.00000E+00
    0.00000E+00         0.00000E+00        -0.14646E+08
 
   -0.13121E+08         0.49105E+06         0.00000E+00
    0.49105E+06        -0.29928E+08         0.00000E+00
    0.00000E+00         0.00000E+00        -0.14646E+08
 
   -0.13391E+08         0.61001E+06         0.00000E+00
    0.61001E+06        -0.30450E+08         0.00000E+00
    0.00000E+00         0.00000E+00        -0.14646E+08
 
   -0.13655E+08         0.72313E+06         0.00000E+00
    0.72313E+06        -0.30989E+08         0.00000E+00
    0.00000E+00         0.00000E+00        -0.14701E+08
 
   -0.13898E+08         0.79459E+06         0.00000E+00
    0.79459E+06        -0.31517E+08         0.00000E+00
    0.00000E+00         0.00000E+00        -0.14820E+08
 
   -0.14144E+08         0.87623E+06         0.00000E+00
    0.87623E+06        -0.31995E+08         0.00000E+00
    0.00000E+00         0.00000E+00        -0.14981E+08
 
   -0.14386E+08         0.95105E+06         0.00000E+00
    0.95105E+06        -0.32469E+08         0.00000E+00
    0.00000E+00         0.00000E+00        -0.15147E+08
 
   -0.14623E+08         0.10210E+07         0.00000E+00
    0.10210E+07        -0.32943E+08         0.00000E+00
    0.00000E+00         0.00000E+00        -0.15316E+08
 
   -0.14853E+08         0.10829E+07         0.00000E+00
    0.10829E+07        -0.33418E+08         0.00000E+00
    0.00000E+00         0.00000E+00        -0.15484E+08
 
   -0.15079E+08         0.11365E+07         0.00000E+00
    0.11365E+07        -0.33892E+08         0.00000E+00
    0.00000E+00         0.00000E+00        -0.15649E+08
 
   -0.15298E+08         0.11827E+07         0.00000E+00
    0.11827E+07        -0.34360E+08         0.00000E+00
    0.00000E+00         0.00000E+00        -0.15811E+08
 
   -0.15511E+08         0.12225E+07         0.00000E+00
    0.12225E+07        -0.34822E+08         0.00000E+00
    0.00000E+00         0.00000E+00        -0.15968E+08
 
   -0.15717E+08         0.12567E+07         0.00000E+00
    0.12567E+07        -0.35276E+08         0.00000E+00
    0.00000E+00         0.00000E+00        -0.16119E+08
 
   -0.15915E+08         0.12860E+07         0.00000E+00
    0.12860E+07        -0.35721E+08         0.00000E+00
    0.00000E+00         0.00000E+00        -0.16265E+08
 
   -0.16104E+08         0.13109E+07         0.00000E+00
    0.13109E+07        -0.36157E+08         0.00000E+00
    0.00000E+00         0.00000E+00        -0.16406E+08
 
   -0.16284E+08         0.13317E+07         0.00000E+00
    0.13317E+07        -0.36583E+08         0.00000E+00
    0.00000E+00         0.00000E+00        -0.16541E+08
 
   -0.16456E+08         0.13490E+07         0.00000E+00
    0.13490E+07        -0.37001E+08         0.00000E+00
    0.00000E+00         0.00000E+00        -0.16670E+08
 
   -0.16619E+08         0.13630E+07         0.00000E+00
    0.13630E+07        -0.37409E+08         0.00000E+00
    0.00000E+00         0.00000E+00        -0.16795E+08
 
   -0.16774E+08         0.13742E+07         0.00000E+00
    0.13742E+07        -0.37809E+08         0.00000E+00
    0.00000E+00         0.00000E+00        -0.16915E+08
 
   -0.16920E+08         0.13829E+07         0.00000E+00
    0.13829E+07        -0.38201E+08         0.00000E+00
    0.00000E+00         0.00000E+00        -0.17030E+08
 
   -0.17065E+08         0.13885E+07         0.00000E+00
    0.13885E+07        -0.38579E+08         0.00000E+00
    0.00000E+00         0.00000E+00        -0.17147E+08
 
   -0.17232E+08         0.13883E+07         0.00000E+00
    0.13883E+07        -0.38918E+08         0.00000E+00
    0.00000E+00         0.00000E+00        -0.17289E+08
 
   -0.17409E+08         0.13844E+07         0.00000E+00
    0.13844E+07        -0.39233E+08         0.00000E+00
    0.00000E+00         0.00000E+00        -0.17443E+08
 
   -0.17580E+08         0.13791E+07         0.00000E+00
    0.13791E+07        -0.39540E+08         0.00000E+00
    0.00000E+00         0.00000E+00        -0.17595E+08
 
   -0.17745E+08         0.13725E+07         0.00000E+00
    0.13725E+07        -0.39840E+08         0.00000E+00
    0.00000E+00         0.00000E+00        -0.17744E+08
 
   -0.17905E+08         0.13650E+07         0.00000E+00
    0.13650E+07        -0.40132E+08         0.00000E+00
    0.00000E+00         0.00000E+00        -0.17890E+08
 
   -0.18061E+08         0.13566E+07         0.00000E+00
    0.13566E+07        -0.40418E+08         0.00000E+00
    0.00000E+00         0.00000E+00        -0.18034E+08
 
   -0.18212E+08         0.13476E+07         0.00000E+00
    0.13476E+07        -0.40697E+08         0.00000E+00
    0.00000E+00         0.00000E+00        -0.18176E+08
 
   -0.18359E+08         0.13381E+07         0.00000E+00
    0.13381E+07        -0.40970E+08         0.00000E+00
    0.00000E+00         0.00000E+00        -0.18315E+08
 
   -0.18502E+08         0.13282E+07         0.00000E+00
    0.13282E+07        -0.41238E+08         0.00000E+00
    0.00000E+00         0.00000E+00        -0.18452E+08
 
   -0.18641E+08         0.13180E+07         0.00000E+00
    0.13180E+07        -0.41500E+08         0.00000E+00
    0.00000E+00         0.00000E+00        -0.18587E+08
 
   -0.18777E+08         0.13076E+07         0.00000E+00
    0.13076E+07        -0.41757E+08         0.00000E+00
    0.00000E+00         0.00000E+00        -0.18719E+08
 
   -0.18910E+08         0.12971E+07         0.00000E+00
    0.12971E+07        -0.42009E+08         0.00000E+00
    0.00000E+00         0.00000E+00        -0.18850E+08
 
   -0.19040E+08         0.12866E+07         0.00000E+00
    0.12866E+07        -0.42256E+08         0.00000E+00
    0.00000E+00         0.00000E+00        -0.18979E+08
 
   -0.19167E+08         0.12760E+07         0.00000E+00
    0.12760E+07        -0.42499E+08         0.00000E+00
    0.00000E+00         0.00000E+00        -0.19106E+08
 
   -0.19292E+08         0.12656E+07         0.00000E+00
    0.12656E+07        -0.42738E+08         0.00000E+00
    0.00000E+00         0.00000E+00        -0.19231E+08
 
   -0.19415E+08         0.12552E+07         0.00000E+00
    0.12552E+07        -0.42974E+08         0.00000E+00
    0.00000E+00         0.00000E+00        -0.19355E+08
 
   -0.19535E+08         0.12450E+07         0.00000E+00
    0.12450E+07        -0.43205E+08         0.00000E+00
    0.00000E+00         0.00000E+00        -0.19477E+08
 
   -0.19653E+08         0.12350E+07         0.00000E+00
    0.12350E+07        -0.43434E+08         0.00000E+00
    0.00000E+00         0.00000E+00        -0.19598E+08
 
   -0.19770E+08         0.12252E+07         0.00000E+00
    0.12252E+07        -0.43659E+08         0.00000E+00
    0.00000E+00         0.00000E+00        -0.19717E+08
 
   -0.19884E+08         0.12157E+07         0.00000E+00
    0.12157E+07        -0.43882E+08         0.00000E+00
    0.00000E+00         0.00000E+00        -0.19836E+08
 
   -0.19998E+08         0.12064E+07         0.00000E+00
    0.12064E+07        -0.44102E+08         0.00000E+00
    0.00000E+00         0.00000E+00        -0.19953E+08
 
   -0.20110E+08         0.11974E+07         0.00000E+00
    0.11974E+07        -0.44320E+08         0.00000E+00
    0.00000E+00         0.00000E+00        -0.20069E+08
 
   -0.20221E+08         0.11887E+07         0.00000E+00
    0.11887E+07        -0.44536E+08         0.00000E+00
    0.00000E+00         0.00000E+00        -0.20185E+08
 
   -0.20331E+08         0.11803E+07         0.00000E+00
    0.11803E+07        -0.44751E+08         0.00000E+00
    0.00000E+00         0.00000E+00        -0.20299E+08
 
   -0.20441E+08         0.11722E+07         0.00000E+00
    0.11722E+07        -0.44963E+08         0.00000E+00
    0.00000E+00         0.00000E+00        -0.20413E+08
 
   -0.20549E+08         0.11645E+07         0.00000E+00
    0.11645E+07        -0.45175E+08         0.00000E+00
    0.00000E+00         0.00000E+00        -0.20527E+08
 
   -0.20657E+08         0.11570E+07         0.00000E+00
    0.11570E+07        -0.45386E+08         0.00000E+00
    0.00000E+00         0.00000E+00        -0.20640E+08
 
   -0.20765E+08         0.11498E+07         0.00000E+00
    0.11498E+07        -0.45596E+08         0.00000E+00
    0.00000E+00         0.00000E+00        -0.20752E+08
 
   -0.20873E+08         0.11430E+07         0.00000E+00
    0.11430E+07        -0.45806E+08         0.00000E+00
    0.00000E+00         0.00000E+00        -0.20865E+08
 
   -0.20981E+08         0.11364E+07         0.00000E+00
    0.11364E+07        -0.46015E+08         0.00000E+00
    0.00000E+00         0.00000E+00        -0.20977E+08
 
   -0.21089E+08         0.11300E+07         0.00000E+00
    0.11300E+07        -0.46225E+08         0.00000E+00
    0.00000E+00         0.00000E+00        -0.21090E+08
 
   -0.21197E+08         0.11239E+07         0.00000E+00
    0.11239E+07        -0.46435E+08         0.00000E+00
    0.00000E+00         0.00000E+00        -0.21202E+08
 
   -0.21306E+08         0.11180E+07         0.00000E+00
    0.11180E+07        -0.46645E+08         0.00000E+00
    0.00000E+00         0.00000E+00        -0.21315E+08
 
   -0.21415E+08         0.11123E+07         0.00000E+00
    0.11123E+07        -0.46857E+08         0.00000E+00
    0.00000E+00         0.00000E+00        -0.21428E+08
 
   -0.21526E+08         0.11068E+07         0.00000E+00
    0.11068E+07        -0.47069E+08         0.00000E+00
    0.00000E+00         0.00000E+00        -0.21541E+08
 
   -0.21637E+08         0.11013E+07         0.00000E+00
    0.11013E+07        -0.47283E+08         0.00000E+00
    0.00000E+00         0.00000E+00        -0.21655E+08
 
   -0.21749E+08         0.10960E+07         0.00000E+00
    0.10960E+07        -0.47499E+08         0.00000E+00
    0.00000E+00         0.00000E+00        -0.21770E+08
 
   -0.21862E+08         0.10906E+07         0.00000E+00
    0.10906E+07        -0.47716E+08         0.00000E+00
    0.00000E+00         0.00000E+00        -0.21885E+08
 
   -0.21977E+08         0.10853E+07         0.00000E+00
    0.10853E+07        -0.47936E+08         0.00000E+00
    0.00000E+00         0.00000E+00        -0.22002E+08
 
   -0.22094E+08         0.10798E+07         0.00000E+00
    0.10798E+07        -0.48158E+08         0.00000E+00
    0.00000E+00         0.00000E+00        -0.22119E+08
 
   -0.22212E+08         0.10743E+07         0.00000E+00
    0.10743E+07        -0.48383E+08         0.00000E+00
    0.00000E+00         0.00000E+00        -0.22237E+08
 
   -0.22333E+08         0.10685E+07         0.00000E+00
    0.10685E+07        -0.48610E+08         0.00000E+00
    0.00000E+00         0.00000E+00        -0.22356E+08
 
   -0.22455E+08         0.10624E+07         0.00000E+00
    0.10624E+07        -0.48841E+08         0.00000E+00
    0.00000E+00         0.00000E+00        -0.22477E+08
 
   -0.22580E+08         0.10559E+07         0.00000E+00
    0.10559E+07        -0.49076E+08         0.00000E+00
    0.00000E+00         0.00000E+00        -0.22599E+08
 
   -0.22707E+08         0.10490E+07         0.00000E+00
    0.10490E+07        -0.49314E+08         0.00000E+00
    0.00000E+00         0.00000E+00        -0.22723E+08
 
   -0.22837E+08         0.10415E+07         0.00000E+00
    0.10415E+07        -0.49557E+08         0.00000E+00
    0.00000E+00         0.00000E+00        -0.22848E+08
 
   -0.22970E+08         0.10334E+07         0.00000E+00
    0.10334E+07        -0.49803E+08         0.00000E+00
    0.00000E+00         0.00000E+00        -0.22974E+08
 
   -0.23106E+08         0.10244E+07         0.00000E+00
    0.10244E+07        -0.50055E+08         0.00000E+00
    0.00000E+00         0.00000E+00        -0.23103E+08
 
   -0.23246E+08         0.10146E+07         0.00000E+00
    0.10146E+07        -0.50311E+08         0.00000E+00
    0.00000E+00         0.00000E+00        -0.23233E+08
 
   -0.23389E+08         0.10036E+07         0.00000E+00
    0.10036E+07        -0.50573E+08         0.00000E+00
    0.00000E+00         0.00000E+00        -0.23365E+08
 
   -0.23536E+08         0.99136E+06         0.00000E+00
    0.99136E+06        -0.50841E+08         0.00000E+00
    0.00000E+00         0.00000E+00        -0.23499E+08
 
   -0.23687E+08         0.97769E+06         0.00000E+00
    0.97769E+06        -0.51114E+08         0.00000E+00
    0.00000E+00         0.00000E+00        -0.23635E+08
 
   -0.23842E+08         0.96238E+06         0.00000E+00
    0.96238E+06        -0.51394E+08         0.00000E+00
    0.00000E+00         0.00000E+00        -0.23774E+08
 
   -0.24002E+08         0.94518E+06         0.00000E+00
    0.94518E+06        -0.51681E+08         0.00000E+00
    0.00000E+00         0.00000E+00        -0.23915E+08
 
   -0.24167E+08         0.92585E+06         0.00000E+00
    0.92585E+06        -0.51975E+08         0.00000E+00
    0.00000E+00         0.00000E+00        -0.24058E+08
 
   -0.24336E+08         0.90412E+06         0.00000E+00
    0.90412E+06        -0.52276E+08         0.00000E+00
    0.00000E+00         0.00000E+00        -0.24204E+08
 
   -0.24512E+08         0.87969E+06         0.00000E+00
    0.87969E+06        -0.52585E+08         0.00000E+00
    0.00000E+00         0.00000E+00        -0.24353E+08
 
   -0.24692E+08         0.85226E+06         0.00000E+00
    0.85226E+06        -0.52902E+08         0.00000E+00
    0.00000E+00         0.00000E+00        -0.24505E+08
 
   -0.24879E+08         0.82151E+06         0.00000E+00
    0.82151E+06        -0.53228E+08         0.00000E+00
    0.00000E+00         0.00000E+00        -0.24660E+08
 
   -0.25071E+08         0.78712E+06         0.00000E+00
    0.78712E+06        -0.53562E+08         0.00000E+00
    0.00000E+00         0.00000E+00        -0.24818E+08
 
   -0.25269E+08         0.74879E+06         0.00000E+00
    0.74879E+06        -0.53906E+08         0.00000E+00
    0.00000E+00         0.00000E+00        -0.24979E+08
 
   -0.25472E+08         0.70627E+06         0.00000E+00
    0.70627E+06        -0.54257E+08         0.00000E+00
    0.00000E+00         0.00000E+00        -0.25143E+08
 
   -0.25681E+08         0.65935E+06         0.00000E+00
    0.65935E+06        -0.54617E+08         0.00000E+00
    0.00000E+00         0.00000E+00        -0.25311E+08
 
   -0.25895E+08         0.60795E+06         0.00000E+00
    0.60795E+06        -0.54984E+08         0.00000E+00
    0.00000E+00         0.00000E+00        -0.25481E+08
 
   -0.26113E+08         0.55211E+06         0.00000E+00
    0.55211E+06        -0.55357E+08         0.00000E+00
    0.00000E+00         0.00000E+00        -0.25654E+08
 
   -0.26336E+08         0.49212E+06         0.00000E+00
    0.49212E+06        -0.55735E+08         0.00000E+00
    0.00000E+00         0.00000E+00        -0.25828E+08
 
   -0.26561E+08         0.42856E+06         0.00000E+00
    0.42856E+06        -0.56114E+08         0.00000E+00
    0.00000E+00         0.00000E+00        -0.26001E+08
 
   -0.26789E+08         0.36242E+06         0.00000E+00
    0.36242E+06        -0.56493E+08         0.00000E+00
    0.00000E+00         0.00000E+00        -0.26171E+08
 
   -0.27019E+08         0.29523E+06         0.00000E+00
    0.29523E+06        -0.56866E+08         0.00000E+00
    0.00000E+00         0.00000E+00        -0.26335E+08
 
   -0.27251E+08         0.22915E+06         0.00000E+00
    0.22915E+06        -0.57229E+08         0.00000E+00
    0.00000E+00         0.00000E+00        -0.26487E+08
 
   -0.27487E+08         0.16703E+06         0.00000E+00
    0.16703E+06        -0.57576E+08         0.00000E+00
    0.00000E+00         0.00000E+00        -0.26620E+08
 
   -0.27731E+08         0.11222E+06         0.00000E+00
    0.11222E+06        -0.57903E+08         0.00000E+00
    0.00000E+00         0.00000E+00        -0.26725E+08
 
   -0.27990E+08         0.67717E+05         0.00000E+00
    0.67717E+05        -0.58207E+08         0.00000E+00
    0.00000E+00         0.00000E+00        -0.26794E+08
 
   -0.28271E+08         0.34652E+05         0.00000E+00
    0.34652E+05        -0.58487E+08         0.00000E+00
    0.00000E+00         0.00000E+00        -0.26820E+08
 
   -0.28582E+08         0.10470E+05         0.00000E+00
    0.10470E+05        -0.58747E+08         0.00000E+00
    0.00000E+00         0.00000E+00        -0.26802E+08
 
   -0.11172E+08         0.12034E+05         0.00000E+00
    0.12034E+05        -0.28080E+08         0.00000E+00
    0.00000E+00         0.00000E+00        -0.14770E+08
 
   -0.11615E+08         0.66225E+05         0.00000E+00
    0.66225E+05        -0.28375E+08         0.00000E+00
    0.00000E+00         0.00000E+00        -0.14646E+08
 
   -0.12038E+08         0.13990E+06         0.00000E+00
    0.13990E+06        -0.28648E+08         0.00000E+00
    0.00000E+00         0.00000E+00        -0.14646E+08
 
   -0.12408E+08         0.23241E+06         0.00000E+00
    0.23241E+06        -0.29029E+08         0.00000E+00
    0.00000E+00         0.00000E+00        -0.14646E+08
 
   -0.12739E+08         0.33759E+06         0.00000E+00
    0.33759E+06        -0.29462E+08         0.00000E+00
    0.00000E+00         0.00000E+00        -0.14646E+08
 
   -0.13039E+08         0.44855E+06         0.00000E+00
    0.44855E+06        -0.29952E+08         0.00000E+00
    0.00000E+00         0.00000E+00        -0.14646E+08
 
   -0.13321E+08         0.57004E+06         0.00000E+00
    0.57004E+06        -0.30468E+08         0.00000E+00
    0.00000E+00         0.00000E+00        -0.14652E+08
 
   -0.13595E+08         0.67592E+06         0.00000E+00
    0.67592E+06        -0.31010E+08         0.00000E+00
    0.00000E+00         0.00000E+00        -0.14716E+08
 
   -0.13854E+08         0.75084E+06         0.00000E+00
    0.75084E+06        -0.31535E+08         0.00000E+00
    0.00000E+00         0.00000E+00        -0.14845E+08
 
   -0.14111E+08         0.83163E+06         0.00000E+00
    0.83163E+06        -0.32011E+08         0.00000E+00
    0.00000E+00         0.00000E+00        -0.14999E+08
 
   -0.14360E+08         0.90667E+06         0.00000E+00
    0.90667E+06        -0.32484E+08         0.00000E+00
    0.00000E+00         0.00000E+00        -0.15161E+08
 
   -0.14601E+08         0.97624E+06         0.00000E+00
    0.97624E+06        -0.32956E+08         0.00000E+00
    0.00000E+00         0.00000E+00        -0.15325E+08
 
   -0.14835E+08         0.10382E+07         0.00000E+00
    0.10382E+07        -0.33430E+08         0.00000E+00
    0.00000E+00         0.00000E+00        -0.15489E+08
 
   -0.15062E+08         0.10919E+07         0.00000E+00
    0.10919E+07        -0.33902E+08         0.00000E+00
    0.00000E+00         0.00000E+00        -0.15651E+08
 
   -0.15283E+08         0.11381E+07         0.00000E+00
    0.11381E+07        -0.34369E+08         0.00000E+00
    0.00000E+00         0.00000E+00        -0.15809E+08
 
   -0.15497E+08         0.11778E+07         0.00000E+00
    0.11778E+07        -0.34830E+08         0.00000E+00
    0.00000E+00         0.00000E+00        -0.15964E+08
 
   -0.15703E+08         0.12118E+07         0.00000E+00
    0.12118E+07        -0.35282E+08         0.00000E+00
    0.00000E+00         0.00000E+00        -0.16113E+08
 
   -0.15901E+08         0.12407E+07         0.00000E+00
    0.12407E+07        -0.35726E+08         0.00000E+00
    0.00000E+00         0.00000E+00        -0.16257E+08
 
   -0.16091E+08         0.12652E+07         0.00000E+00
    0.12652E+07        -0.36161E+08         0.00000E+00
    0.00000E+00         0.00000E+00        -0.16397E+08
 
   -0.16272E+08         0.12857E+07         0.00000E+00
    0.12857E+07        -0.36587E+08         0.00000E+00
    0.00000E+00         0.00000E+00        -0.16531E+08
 
   -0.16444E+08         0.13025E+07         0.00000E+00
    0.13025E+07        -0.37004E+08         0.00000E+00
    0.00000E+00         0.00000E+00        -0.16660E+08
 
   -0.16608E+08         0.13162E+07         0.00000E+00
    0.13162E+07        -0.37412E+08         0.00000E+00
    0.00000E+00         0.00000E+00        -0.16784E+08
 
   -0.16763E+08         0.13270E+07         0.00000E+00
    0.13270E+07        -0.37811E+08         0.00000E+00
    0.00000E+00         0.00000E+00        -0.16903E+08
 
   -0.16910E+08         0.13354E+07         0.00000E+00
    0.13354E+07        -0.38203E+08         0.00000E+00
    0.00000E+00         0.00000E+00        -0.17018E+08
 
   -0.17057E+08         0.13406E+07         0.00000E+00
    0.13406E+07        -0.38579E+08         0.00000E+00
    0.00000E+00         0.00000E+00        -0.17137E+08
 
   -0.17226E+08         0.13403E+07         0.00000E+00
    0.13403E+07        -0.38916E+08         0.00000E+00
    0.00000E+00         0.00000E+00        -0.17280E+08
 
   -0.17403E+08         0.13365E+07         0.00000E+00
    0.13365E+07        -0.39231E+08         0.00000E+00
    0.00000E+00         0.00000E+00        -0.17434E+08
 
   -0.17574E+08         0.13314E+07         0.00000E+00
    0.13314E+07        -0.39538E+08         0.00000E+00
    0.00000E+00         0.00000E+00        -0.17586E+08
 
   -0.17740E+08         0.13251E+07         0.00000E+00
    0.13251E+07        -0.39837E+08         0.00000E+00
    0.00000E+00         0.00000E+00        -0.17735E+08
 
   -0.17900E+08         0.13179E+07         0.00000E+00
    0.13179E+07        -0.40130E+08         0.00000E+00
    0.00000E+00         0.00000E+00        -0.17881E+08
 
   -0.18056E+08         0.13099E+07         0.00000E+00
    0.13099E+07        -0.40416E+08         0.00000E+00
    0.00000E+00         0.00000E+00        -0.18025E+08
 
   -0.18207E+08         0.13012E+07         0.00000E+00
    0.13012E+07        -0.40695E+08         0.00000E+00
    0.00000E+00         0.00000E+00        -0.18167E+08
 
   -0.18354E+08         0.12921E+07         0.00000E+00
    0.12921E+07        -0.40969E+08         0.00000E+00
    0.00000E+00         0.00000E+00        -0.18306E+08
 
   -0.18498E+08         0.12826E+07         0.00000E+00
    0.12826E+07        -0.41236E+08         0.00000E+00
    0.00000E+00         0.00000E+00        -0.18443E+08
 
   -0.18637E+08         0.12728E+07         0.00000E+00
    0.12728E+07        -0.41499E+08         0.00000E+00
    0.00000E+00         0.00000E+00        -0.18578E+08
 
   -0.18774E+08         0.12629E+07         0.00000E+00
    0.12629E+07        -0.41756E+08         0.00000E+00
    0.00000E+00         0.00000E+00        -0.18711E+08
 
   -0.18907E+08         0.12528E+07         0.00000E+00
    0.12528E+07        -0.42008E+08         0.00000E+00
    0.00000E+00         0.00000E+00        -0.18842E+08
 
   -0.19037E+08         0.12427E+07         0.00000E+00
    0.12427E+07        -0.42255E+08         0.00000E+00
    0.00000E+00         0.00000E+00        -0.18971E+08
 
   -0.19164E+08         0.12326E+07         0.00000E+00
    0.12326E+07        -0.42499E+08         0.00000E+00
    0.00000E+00         0.00000E+00        -0.19099E+08
 
   -0.19289E+08         0.12225E+07         0.00000E+00
    0.12225E+07        -0.42738E+08         0.00000E+00
    0.00000E+00         0.00000E+00        -0.19224E+08
 
   -0.19411E+08         0.12126E+07         0.00000E+00
    0.12126E+07        -0.42973E+08         0.00000E+00
    0.00000E+00         0.00000E+00        -0.19348E+08
 
   -0.19532E+08         0.12028E+07         0.00000E+00
    0.12028E+07        -0.43205E+08         0.00000E+00
    0.00000E+00         0.00000E+00        -0.19471E+08
 
   -0.19650E+08         0.11932E+07         0.00000E+00
    0.11932E+07        -0.43434E+08         0.00000E+00
    0.00000E+00         0.00000E+00        -0.19592E+08
 
   -0.19767E+08         0.11838E+07         0.00000E+00
    0.11838E+07        -0.43659E+08         0.00000E+00
    0.00000E+00         0.00000E+00        -0.19712E+08
 
   -0.19882E+08         0.11746E+07         0.00000E+00
    0.11746E+07        -0.43882E+08         0.00000E+00
    0.00000E+00         0.00000E+00        -0.19830E+08
 
   -0.19995E+08         0.11657E+07         0.00000E+00
    0.11657E+07        -0.44102E+08         0.00000E+00
    0.00000E+00         0.00000E+00        -0.19948E+08
 
   -0.20107E+08         0.11571E+07         0.00000E+00
    0.11571E+07        -0.44320E+08         0.00000E+00
    0.00000E+00         0.00000E+00        -0.20064E+08
 
   -0.20218E+08         0.11487E+07         0.00000E+00
    0.11487E+07        -0.44537E+08         0.00000E+00
    0.00000E+00         0.00000E+00        -0.20180E+08
 
   -0.20328E+08         0.11406E+07         0.00000E+00
    0.11406E+07        -0.44751E+08         0.00000E+00
    0.00000E+00         0.00000E+00        -0.20295E+08
 
   -0.20438E+08         0.11329E+07         0.00000E+00
    0.11329E+07        -0.44964E+08         0.00000E+00
    0.00000E+00         0.00000E+00        -0.20409E+08
 
   -0.20546E+08         0.11254E+07         0.00000E+00
    0.11254E+07        -0.45176E+08         0.00000E+00
    0.00000E+00         0.00000E+00        -0.20523E+08
 
   -0.20655E+08         0.11182E+07         0.00000E+00
    0.11182E+07        -0.45387E+08         0.00000E+00
    0.00000E+00         0.00000E+00        -0.20636E+08
 
   -0.20763E+08         0.11113E+07         0.00000E+00
    0.11113E+07        -0.45597E+08         0.00000E+00
    0.00000E+00         0.00000E+00        -0.20749E+08
 
   -0.20870E+08         0.11046E+07         0.00000E+00
    0.11046E+07        -0.45807E+08         0.00000E+00
    0.00000E+00         0.00000E+00        -0.20862E+08
 
   -0.20978E+08         0.10983E+07         0.00000E+00
    0.10983E+07        -0.46016E+08         0.00000E+00
    0.00000E+00         0.00000E+00        -0.20974E+08
 
   -0.21086E+08         0.10921E+07         0.00000E+00
    0.10921E+07        -0.46226E+08         0.00000E+00
    0.00000E+00         0.00000E+00        -0.21087E+08
 
   -0.21194E+08         0.10862E+07         0.00000E+00
    0.10862E+07        -0.46436E+08         0.00000E+00
    0.00000E+00         0.00000E+00        -0.21200E+08
 
   -0.21303E+08         0.10805E+07         0.00000E+00
    0.10805E+07        -0.46647E+08         0.00000E+00
    0.00000E+00         0.00000E+00        -0.21313E+08
 
   -0.21412E+08         0.10750E+07         0.00000E+00
    0.10750E+07        -0.46858E+08         0.00000E+00
    0.00000E+00         0.00000E+00        -0.21426E+08
 
   -0.21523E+08         0.10696E+07         0.00000E+00
    0.10696E+07        -0.47071E+08         0.00000E+00
    0.00000E+00         0.00000E+00        -0.21539E+08
 
   -0.21634E+08         0.10644E+07         0.00000E+00
    0.10644E+07        -0.47285E+08         0.00000E+00
    0.00000E+00         0.00000E+00        -0.21654E+08
 
   -0.21746E+08         0.10592E+07         0.00000E+00
    0.10592E+07        -0.47501E+08         0.00000E+00
    0.00000E+00         0.00000E+00        -0.21768E+08
 
   -0.21859E+08         0.10540E+07         0.00000E+00
    0.10540E+07        -0.47718E+08         0.00000E+00
    0.00000E+00         0.00000E+00        -0.21884E+08
 
   -0.21974E+08         0.10487E+07         0.00000E+00
    0.10487E+07        -0.47938E+08         0.00000E+00
    0.00000E+00         0.00000E+00        -0.22000E+08
 
   -0.22091E+08         0.10434E+07         0.00000E+00
    0.10434E+07        -0.48160E+08         0.00000E+00
    0.00000E+00         0.00000E+00        -0.22118E+08
 
   -0.22209E+08         0.10380E+07         0.00000E+00
    0.10380E+07        -0.48385E+08         0.00000E+00
    0.00000E+00         0.00000E+00        -0.22236E+08
 
   -0.22330E+08         0.10324E+07         0.00000E+00
    0.10324E+07        -0.48612E+08         0.00000E+00
    0.00000E+00         0.00000E+00        -0.22355E+08
 
   -0.22452E+08         0.10264E+07         0.00000E+00
    0.10264E+07        -0.48843E+08         0.00000E+00
    0.00000E+00         0.00000E+00        -0.22476E+08
 
   -0.22577E+08         0.10201E+07         0.00000E+00
    0.10201E+07        -0.49078E+08         0.00000E+00
    0.00000E+00         0.00000E+00        -0.22598E+08
 
   -0.22704E+08         0.10134E+07         0.00000E+00
    0.10134E+07        -0.49316E+08         0.00000E+00
    0.00000E+00         0.00000E+00        -0.22722E+08
 
   -0.22835E+08         0.10061E+07         0.00000E+00
    0.10061E+07        -0.49558E+08         0.00000E+00
    0.00000E+00         0.00000E+00        -0.22847E+08
 
   -0.22968E+08         0.99816E+06         0.00000E+00
    0.99816E+06        -0.49805E+08         0.00000E+00
    0.00000E+00         0.00000E+00        -0.22973E+08
 
   -0.23104E+08         0.98944E+06         0.00000E+00
    0.98944E+06        -0.50056E+08         0.00000E+00
    0.00000E+00         0.00000E+00        -0.23101E+08
 
   -0.23243E+08         0.97982E+06         0.00000E+00
    0.97982E+06        -0.50313E+08         0.00000E+00
    0.00000E+00         0.00000E+00        -0.23231E+08
 
   -0.23387E+08         0.96914E+06         0.00000E+00
    0.96914E+06        -0.50574E+08         0.00000E+00
    0.00000E+00         0.00000E+00        -0.23363E+08
 
   -0.23534E+08         0.95723E+06         0.00000E+00
    0.95723E+06        -0.50841E+08         0.00000E+00
    0.00000E+00         0.00000E+00        -0.23497E+08
 
   -0.23685E+08         0.94392E+06         0.00000E+00
    0.94392E+06        -0.51115E+08         0.00000E+00
    0.00000E+00         0.00000E+00        -0.23633E+08
 
   -0.23840E+08         0.92900E+06         0.00000E+00
    0.92900E+06        -0.51394E+08         0.00000E+00
    0.00000E+00         0.00000E+00        -0.23771E+08
 
   -0.24001E+08         0.91224E+06         0.00000E+00
    0.91224E+06        -0.51681E+08         0.00000E+00
    0.00000E+00         0.00000E+00        -0.23912E+08
 
   -0.24166E+08         0.89339E+06         0.00000E+00
    0.89339E+06        -0.51974E+08         0.00000E+00
    0.00000E+00         0.00000E+00        -0.24054E+08
 
   -0.24336E+08         0.87218E+06         0.00000E+00
    0.87218E+06        -0.52275E+08         0.00000E+00
    0.00000E+00         0.00000E+00        -0.24200E+08
 
   -0.24511E+08         0.84832E+06         0.00000E+00
    0.84832E+06        -0.52583E+08         0.00000E+00
    0.00000E+00         0.00000E+00        -0.24348E+08
 
   -0.24692E+08         0.82148E+06         0.00000E+00
    0.82148E+06        -0.52900E+08         0.00000E+00
    0.00000E+00         0.00000E+00        -0.24499E+08
 
   -0.24879E+08         0.79136E+06         0.00000E+00
    0.79136E+06        -0.53225E+08         0.00000E+00
    0.00000E+00         0.00000E+00        -0.24652E+08
 
   -0.25072E+08         0.75761E+06         0.00000E+00
    0.75761E+06        -0.53559E+08         0.00000E+00
    0.00000E+00         0.00000E+00        -0.24809E+08
 
   -0.25271E+08         0.71993E+06         0.00000E+00
    0.71993E+06        -0.53901E+08         0.00000E+00
    0.00000E+00         0.00000E+00        -0.24969E+08
 
   -0.25475E+08         0.67804E+06         0.00000E+00
    0.67804E+06        -0.54252E+08         0.00000E+00
    0.00000E+00         0.00000E+00        -0.25132E+08
 
   -0.25685E+08         0.63173E+06         0.00000E+00
    0.63173E+06        -0.54611E+08         0.00000E+00
    0.00000E+00         0.00000E+00        -0.25298E+08
 
   -0.25901E+08         0.58089E+06         0.00000E+00
    0.58089E+06        -0.54977E+08         0.00000E+00
    0.00000E+00         0.00000E+00        -0.25467E+08
 
   -0.26121E+08         0.52556E+06         0.00000E+00
    0.52556E+06        -0.55350E+08         0.00000E+00
    0.00000E+00         0.00000E+00        -0.25637E+08
 
   -0.26345E+08         0.46603E+06         0.00000E+00
    0.46603E+06        -0.55727E+08         0.00000E+00
    0.00000E+00         0.00000E+00        -0.25809E+08
 
   -0.26573E+08         0.40291E+06         0.00000E+00
    0.40291E+06        -0.56107E+08         0.00000E+00
    0.00000E+00         0.00000E+00        -0.25980E+08
 
   -0.26804E+08         0.33725E+06         0.00000E+00
    0.33725E+06        -0.56486E+08         0.00000E+00
    0.00000E+00         0.00000E+00        -0.26149E+08
 
   -0.27037E+08         0.27075E+06         0.00000E+00
    0.27075E+06        -0.56860E+08         0.00000E+00
    0.00000E+00         0.00000E+00        -0.26311E+08
 
   -0.27273E+08         0.20582E+06         0.00000E+00
    0.20582E+06        -0.57225E+08         0.00000E+00
    0.00000E+00         0.00000E+00        -0.26461E+08
 
   -0.27513E+08         0.14571E+06         0.00000E+00
    0.14571E+06        -0.57575E+08         0.00000E+00
    0.00000E+00         0.00000E+00        -0.26593E+08
 
   -0.27761E+08         0.94070E+05         0.00000E+00
    0.94070E+05        -0.57905E+08         0.00000E+00
    0.00000E+00         0.00000E+00        -0.26698E+08
 
   -0.28023E+08         0.53978E+05         0.00000E+00
    0.53978E+05        -0.58212E+08         0.00000E+00
    0.00000E+00         0.00000E+00        -0.26768E+08
 
   -0.28307E+08         0.26186E+05         0.00000E+00
    0.26186E+05        -0.58495E+08         0.00000E+00
    0.00000E+00         0.00000E+00        -0.26796E+08
 
   -0.28620E+08         0.76274E+04         0.00000E+00
    0.76274E+04        -0.58757E+08         0.00000E+00
    0.00000E+00         0.00000E+00        -0.26778E+08
 
   -0.11073E+08         0.49884E+04         0.00000E+00
    0.49884E+04        -0.28078E+08         0.00000E+00
    0.00000E+00         0.00000E+00        -0.14810E+08
 
   -0.11498E+08         0.53284E+05         0.00000E+00
    0.53284E+05        -0.28395E+08         0.00000E+00
    0.00000E+00         0.00000E+00        -0.14650E+08
 
   -0.11930E+08         0.11890E+06         0.00000E+00
    0.11890E+06        -0.28664E+08         0.00000E+00
    0.00000E+00         0.00000E+00        -0.14646E+08
 
   -0.12307E+08         0.20439E+06         0.00000E+00
    0.20439E+06        -0.29049E+08         0.00000E+00
    0.00000E+00         0.00000E+00        -0.14646E+08
 
   -0.12646E+08         0.30238E+06         0.00000E+00
    0.30238E+06        -0.29483E+08         0.00000E+00
    0.00000E+00         0.00000E+00        -0.14646E+08
 
   -0.12958E+08         0.40975E+06         0.00000E+00
    0.40975E+06        -0.29974E+08         0.00000E+00
    0.00000E+00         0.00000E+00        -0.14646E+08
 
   -0.13262E+08         0.53151E+06         0.00000E+00
    0.53151E+06        -0.30483E+08         0.00000E+00
    0.00000E+00         0.00000E+00        -0.14670E+08
 
   -0.13536E+08         0.63074E+06         0.00000E+00
    0.63074E+06        -0.31037E+08         0.00000E+00
    0.00000E+00         0.00000E+00        -0.14733E+08
 
   -0.13813E+08         0.71052E+06         0.00000E+00
    0.71052E+06        -0.31550E+08         0.00000E+00
    0.00000E+00         0.00000E+00        -0.14870E+08
 
   -0.14080E+08         0.78844E+06         0.00000E+00
    0.78844E+06        -0.32027E+08         0.00000E+00
    0.00000E+00         0.00000E+00        -0.15018E+08
 
   -0.14334E+08         0.86332E+06         0.00000E+00
    0.86332E+06        -0.32498E+08         0.00000E+00
    0.00000E+00         0.00000E+00        -0.15174E+08
 
   -0.14580E+08         0.93227E+06         0.00000E+00
    0.93227E+06        -0.32969E+08         0.00000E+00
    0.00000E+00         0.00000E+00        -0.15334E+08
 
   -0.14817E+08         0.99398E+06         0.00000E+00
    0.99398E+06        -0.33441E+08         0.00000E+00
    0.00000E+00         0.00000E+00        -0.15494E+08
 
   -0.15047E+08         0.10476E+07         0.00000E+00
    0.10476E+07        -0.33912E+08         0.00000E+00
    0.00000E+00         0.00000E+00        -0.15652E+08
 
   -0.15269E+08         0.10937E+07         0.00000E+00
    0.10937E+07        -0.34377E+08         0.00000E+00
    0.00000E+00         0.00000E+00        -0.15808E+08
 
   -0.15484E+08         0.11332E+07         0.00000E+00
    0.11332E+07        -0.34837E+08         0.00000E+00
    0.00000E+00         0.00000E+00        -0.15960E+08
 
   -0.15691E+08         0.11669E+07         0.00000E+00
    0.11669E+07        -0.35288E+08         0.00000E+00
    0.00000E+00         0.00000E+00        -0.16107E+08
 
   -0.15889E+08         0.11956E+07         0.00000E+00
    0.11956E+07        -0.35731E+08         0.00000E+00
    0.00000E+00         0.00000E+00        -0.16250E+08
 
   -0.16079E+08         0.12196E+07         0.00000E+00
    0.12196E+07        -0.36166E+08         0.00000E+00
    0.00000E+00         0.00000E+00        -0.16388E+08
 
   -0.16261E+08         0.12397E+07         0.00000E+00
    0.12397E+07        -0.36591E+08         0.00000E+00
    0.00000E+00         0.00000E+00        -0.16521E+08
 
   -0.16433E+08         0.12561E+07         0.00000E+00
    0.12561E+07        -0.37007E+08         0.00000E+00
    0.00000E+00         0.00000E+00        -0.16649E+08
 
   -0.16598E+08         0.12694E+07         0.00000E+00
    0.12694E+07        -0.37414E+08         0.00000E+00
    0.00000E+00         0.00000E+00        -0.16773E+08
 
   -0.16753E+08         0.12800E+07         0.00000E+00
    0.12800E+07        -0.37813E+08         0.00000E+00
    0.00000E+00         0.00000E+00        -0.16892E+08
 
   -0.16901E+08         0.12880E+07         0.00000E+00
    0.12880E+07        -0.38204E+08         0.00000E+00
    0.00000E+00         0.00000E+00        -0.17007E+08
 
   -0.17050E+08         0.12929E+07         0.00000E+00
    0.12929E+07        -0.38578E+08         0.00000E+00
    0.00000E+00         0.00000E+00        -0.17126E+08
 
   -0.17221E+08         0.12924E+07         0.00000E+00
    0.12924E+07        -0.38914E+08         0.00000E+00
    0.00000E+00         0.00000E+00        -0.17271E+08
 
   -0.17398E+08         0.12888E+07         0.00000E+00
    0.12888E+07        -0.39228E+08         0.00000E+00
    0.00000E+00         0.00000E+00        -0.17425E+08
 
   -0.17569E+08         0.12838E+07         0.00000E+00
    0.12838E+07        -0.39535E+08         0.00000E+00
    0.00000E+00         0.00000E+00        -0.17577E+08
 
   -0.17735E+08         0.12778E+07         0.00000E+00
    0.12778E+07        -0.39835E+08         0.00000E+00
    0.00000E+00         0.00000E+00        -0.17726E+08
 
   -0.17896E+08         0.12709E+07         0.00000E+00
    0.12709E+07        -0.40128E+08         0.00000E+00
    0.00000E+00         0.00000E+00        -0.17872E+08
 
   -0.18052E+08         0.12632E+07         0.00000E+00
    0.12632E+07        -0.40414E+08         0.00000E+00
    0.00000E+00         0.00000E+00        -0.18017E+08
 
   -0.18203E+08         0.12549E+07         0.00000E+00
    0.12549E+07        -0.40693E+08         0.00000E+00
    0.00000E+00         0.00000E+00        -0.18158E+08
 
   -0.18350E+08         0.12462E+07         0.00000E+00
    0.12462E+07        -0.40967E+08         0.00000E+00
    0.00000E+00         0.00000E+00        -0.18298E+08
 
   -0.18494E+08         0.12371E+07         0.00000E+00
    0.12371E+07        -0.41235E+08         0.00000E+00
    0.00000E+00         0.00000E+00        -0.18435E+08
 
   -0.18634E+08         0.12277E+07         0.00000E+00
    0.12277E+07        -0.41497E+08         0.00000E+00
    0.00000E+00         0.00000E+00        -0.18570E+08
 
   -0.18770E+08         0.12182E+07         0.00000E+00
    0.12182E+07        -0.41754E+08         0.00000E+00
    0.00000E+00         0.00000E+00        -0.18703E+08
 
   -0.18903E+08         0.12085E+07         0.00000E+00
    0.12085E+07        -0.42007E+08         0.00000E+00
    0.00000E+00         0.00000E+00        -0.18835E+08
 
   -0.19034E+08         0.11988E+07         0.00000E+00
    0.11988E+07        -0.42254E+08         0.00000E+00
    0.00000E+00         0.00000E+00        -0.18964E+08
 
   -0.19161E+08         0.11892E+07         0.00000E+00
    0.11892E+07        -0.42498E+08         0.00000E+00
    0.00000E+00         0.00000E+00        -0.19091E+08
 
   -0.19286E+08         0.11795E+07         0.00000E+00
    0.11795E+07        -0.42737E+08         0.00000E+00
    0.00000E+00         0.00000E+00        -0.19217E+08
 
   -0.19409E+08         0.11700E+07         0.00000E+00
    0.11700E+07        -0.42973E+08         0.00000E+00
    0.00000E+00         0.00000E+00        -0.19342E+08
 
   -0.19529E+08         0.11606E+07         0.00000E+00
    0.11606E+07        -0.43205E+08         0.00000E+00
    0.00000E+00         0.00000E+00        -0.19464E+08
 
   -0.19647E+08         0.11514E+07         0.00000E+00
    0.11514E+07        -0.43433E+08         0.00000E+00
    0.00000E+00         0.00000E+00        -0.19586E+08
 
   -0.19764E+08         0.11424E+07         0.00000E+00
    0.11424E+07        -0.43659E+08         0.00000E+00
    0.00000E+00         0.00000E+00        -0.19706E+08
 
   -0.19879E+08         0.11336E+07         0.00000E+00
    0.11336E+07        -0.43882E+08         0.00000E+00
    0.00000E+00         0.00000E+00        -0.19825E+08
 
   -0.19992E+08         0.11251E+07         0.00000E+00
    0.11251E+07        -0.44102E+08         0.00000E+00
    0.00000E+00         0.00000E+00        -0.19943E+08
 
   -0.20105E+08         0.11168E+07         0.00000E+00
    0.11168E+07        -0.44321E+08         0.00000E+00
    0.00000E+00         0.00000E+00        -0.20059E+08
 
   -0.20216E+08         0.11087E+07         0.00000E+00
    0.11087E+07        -0.44537E+08         0.00000E+00
    0.00000E+00         0.00000E+00        -0.20175E+08
 
   -0.20326E+08         0.11010E+07         0.00000E+00
    0.11010E+07        -0.44752E+08         0.00000E+00
    0.00000E+00         0.00000E+00        -0.20291E+08
 
   -0.20435E+08         0.10935E+07         0.00000E+00
    0.10935E+07        -0.44965E+08         0.00000E+00
    0.00000E+00         0.00000E+00        -0.20405E+08
 
   -0.20544E+08         0.10863E+07         0.00000E+00
    0.10863E+07        -0.45177E+08         0.00000E+00
    0.00000E+00         0.00000E+00        -0.20519E+08
 
   -0.20652E+08         0.10794E+07         0.00000E+00
    0.10794E+07        -0.45388E+08         0.00000E+00
    0.00000E+00         0.00000E+00        -0.20633E+08
 
   -0.20760E+08         0.10727E+07         0.00000E+00
    0.10727E+07        -0.45598E+08         0.00000E+00
    0.00000E+00         0.00000E+00        -0.20746E+08
 
   -0.20868E+08         0.10663E+07         0.00000E+00
    0.10663E+07        -0.45808E+08         0.00000E+00
    0.00000E+00         0.00000E+00        -0.20859E+08
 
   -0.20975E+08         0.10602E+07         0.00000E+00
    0.10602E+07        -0.46018E+08         0.00000E+00
    0.00000E+00         0.00000E+00        -0.20972E+08
 
   -0.21083E+08         0.10542E+07         0.00000E+00
    0.10542E+07        -0.46227E+08         0.00000E+00
    0.00000E+00         0.00000E+00        -0.21084E+08
 
   -0.21191E+08         0.10485E+07         0.00000E+00
    0.10485E+07        -0.46437E+08         0.00000E+00
    0.00000E+00         0.00000E+00        -0.21197E+08
 
   -0.21300E+08         0.10430E+07         0.00000E+00
    0.10430E+07        -0.46648E+08         0.00000E+00
    0.00000E+00         0.00000E+00        -0.21310E+08
 
   -0.21409E+08         0.10377E+07         0.00000E+00
    0.10377E+07        -0.46860E+08         0.00000E+00
    0.00000E+00         0.00000E+00        -0.21424E+08
 
   -0.21520E+08         0.10325E+07         0.00000E+00
    0.10325E+07        -0.47072E+08         0.00000E+00
    0.00000E+00         0.00000E+00        -0.21538E+08
 
   -0.21631E+08         0.10274E+07         0.00000E+00
    0.10274E+07        -0.47286E+08         0.00000E+00
    0.00000E+00         0.00000E+00        -0.21652E+08
 
   -0.21743E+08         0.10223E+07         0.00000E+00
    0.10223E+07        -0.47502E+08         0.00000E+00
    0.00000E+00         0.00000E+00        -0.21767E+08
 
   -0.21856E+08         0.10173E+07         0.00000E+00
    0.10173E+07        -0.47720E+08         0.00000E+00
    0.00000E+00         0.00000E+00        -0.21883E+08
 
   -0.21971E+08         0.10122E+07         0.00000E+00
    0.10122E+07        -0.47939E+08         0.00000E+00
    0.00000E+00         0.00000E+00        -0.21999E+08
 
   -0.22088E+08         0.10070E+07         0.00000E+00
    0.10070E+07        -0.48162E+08         0.00000E+00
    0.00000E+00         0.00000E+00        -0.22117E+08
 
   -0.22206E+08         0.10018E+07         0.00000E+00
    0.10018E+07        -0.48386E+08         0.00000E+00
    0.00000E+00         0.00000E+00        -0.22235E+08
 
   -0.22327E+08         0.99625E+06         0.00000E+00
    0.99625E+06        -0.48614E+08         0.00000E+00
    0.00000E+00         0.00000E+00        -0.22355E+08
 
   -0.22449E+08         0.99048E+06         0.00000E+00
    0.99048E+06        -0.48845E+08         0.00000E+00
    0.00000E+00         0.00000E+00        -0.22475E+08
 
   -0.22574E+08         0.98435E+06         0.00000E+00
    0.98435E+06        -0.49079E+08         0.00000E+00
    0.00000E+00         0.00000E+00        -0.22597E+08
 
   -0.22702E+08         0.97779E+06         0.00000E+00
    0.97779E+06        -0.49318E+08         0.00000E+00
    0.00000E+00         0.00000E+00        -0.22721E+08
 
   -0.22832E+08         0.97069E+06         0.00000E+00
    0.97069E+06        -0.49560E+08         0.00000E+00
    0.00000E+00         0.00000E+00        -0.22846E+08
 
   -0.22965E+08         0.96296E+06         0.00000E+00
    0.96296E+06        -0.49806E+08         0.00000E+00
    0.00000E+00         0.00000E+00        -0.22972E+08
 
   -0.23101E+08         0.95448E+06         0.00000E+00
    0.95448E+06        -0.50058E+08         0.00000E+00
    0.00000E+00         0.00000E+00        -0.23100E+08
 
   -0.23241E+08         0.94511E+06         0.00000E+00
    0.94511E+06        -0.50314E+08         0.00000E+00
    0.00000E+00         0.00000E+00        -0.23230E+08
 
   -0.23384E+08         0.93472E+06         0.00000E+00
    0.93472E+06        -0.50575E+08         0.00000E+00
    0.00000E+00         0.00000E+00        -0.23362E+08
 
   -0.23532E+08         0.92314E+06         0.00000E+00
    0.92314E+06        -0.50842E+08         0.00000E+00
    0.00000E+00         0.00000E+00        -0.23495E+08
 
   -0.23683E+08         0.91019E+06         0.00000E+00
    0.91019E+06        -0.51115E+08         0.00000E+00
    0.00000E+00         0.00000E+00        -0.23631E+08
 
   -0.23839E+08         0.89567E+06         0.00000E+00
    0.89567E+06        -0.51395E+08         0.00000E+00
    0.00000E+00         0.00000E+00        -0.23769E+08
 
   -0.23999E+08         0.87936E+06         0.00000E+00
    0.87936E+06        -0.51681E+08         0.00000E+00
    0.00000E+00         0.00000E+00        -0.23908E+08
 
   -0.24164E+08         0.86100E+06         0.00000E+00
    0.86100E+06        -0.51973E+08         0.00000E+00
    0.00000E+00         0.00000E+00        -0.24051E+08
 
   -0.24335E+08         0.84033E+06         0.00000E+00
    0.84033E+06        -0.52274E+08         0.00000E+00
    0.00000E+00         0.00000E+00        -0.24195E+08
 
   -0.24511E+08         0.81704E+06         0.00000E+00
    0.81704E+06        -0.52582E+08         0.00000E+00
    0.00000E+00         0.00000E+00        -0.24343E+08
 
   -0.24693E+08         0.79082E+06         0.00000E+00
    0.79082E+06        -0.52898E+08         0.00000E+00
    0.00000E+00         0.00000E+00        -0.24493E+08
 
   -0.24880E+08         0.76135E+06         0.00000E+00
    0.76135E+06        -0.53222E+08         0.00000E+00
    0.00000E+00         0.00000E+00        -0.24645E+08
 
   -0.25074E+08         0.72827E+06         0.00000E+00
    0.72827E+06        -0.53555E+08         0.00000E+00
    0.00000E+00         0.00000E+00        -0.24801E+08
 
   -0.25273E+08         0.69128E+06         0.00000E+00
    0.69128E+06        -0.53897E+08         0.00000E+00
    0.00000E+00         0.00000E+00        -0.24959E+08
 
   -0.25478E+08         0.65007E+06         0.00000E+00
    0.65007E+06        -0.54247E+08         0.00000E+00
    0.00000E+00         0.00000E+00        -0.25121E+08
 
   -0.25690E+08         0.60443E+06         0.00000E+00
    0.60443E+06        -0.54605E+08         0.00000E+00
    0.00000E+00         0.00000E+00        -0.25285E+08
 
   -0.25907E+08         0.55421E+06         0.00000E+00
    0.55421E+06        -0.54971E+08         0.00000E+00
    0.00000E+00         0.00000E+00        -0.25452E+08
 
   -0.26129E+08         0.49947E+06         0.00000E+00
    0.49947E+06        -0.55343E+08         0.00000E+00
    0.00000E+00         0.00000E+00        -0.25621E+08
 
   -0.26355E+08         0.44049E+06         0.00000E+00
    0.44049E+06        -0.55720E+08         0.00000E+00
    0.00000E+00         0.00000E+00        -0.25790E+08
 
   -0.26586E+08         0.37790E+06         0.00000E+00
    0.37790E+06        -0.56100E+08         0.00000E+00
    0.00000E+00         0.00000E+00        -0.25960E+08
 
   -0.26819E+08         0.31283E+06         0.00000E+00
    0.31283E+06        -0.56479E+08         0.00000E+00
    0.00000E+00         0.00000E+00        -0.26126E+08
 
   -0.27056E+08         0.24709E+06         0.00000E+00
    0.24709E+06        -0.56854E+08         0.00000E+00
    0.00000E+00         0.00000E+00        -0.26286E+08
 
   -0.27296E+08         0.18337E+06         0.00000E+00
    0.18337E+06        -0.57221E+08         0.00000E+00
    0.00000E+00         0.00000E+00        -0.26435E+08
 
   -0.27540E+08         0.12522E+06         0.00000E+00
    0.12522E+06        -0.57574E+08         0.00000E+00
    0.00000E+00         0.00000E+00        -0.26566E+08
 
   -0.27792E+08         0.76635E+05         0.00000E+00
    0.76635E+05        -0.57907E+08         0.00000E+00
    0.00000E+00         0.00000E+00        -0.26672E+08
 
   -0.28057E+08         0.40749E+05         0.00000E+00
    0.40749E+05        -0.58218E+08         0.00000E+00
    0.00000E+00         0.00000E+00        -0.26743E+08
 
   -0.28344E+08         0.18007E+05         0.00000E+00
    0.18007E+05        -0.58504E+08         0.00000E+00
    0.00000E+00         0.00000E+00        -0.26772E+08
 
   -0.28658E+08         0.48741E+04         0.00000E+00
    0.48741E+04        -0.58768E+08         0.00000E+00
    0.00000E+00         0.00000E+00        -0.26756E+08
 
   -0.10978E+08        -0.51587E+03         0.00000E+00
   -0.51587E+03        -0.28074E+08         0.00000E+00
    0.00000E+00         0.00000E+00        -0.14848E+08
 
   -0.11404E+08         0.37069E+05         0.00000E+00
    0.37069E+05        -0.28404E+08         0.00000E+00
    0.00000E+00         0.00000E+00        -0.14675E+08
 
   -0.11823E+08         0.99927E+05         0.00000E+00
    0.99927E+05        -0.28692E+08         0.00000E+00
    0.00000E+00         0.00000E+00        -0.14646E+08
 
   -0.12207E+08         0.17716E+06         0.00000E+00
    0.17716E+06        -0.29061E+08         0.00000E+00
    0.00000E+00         0.00000E+00        -0.14646E+08
 
   -0.12554E+08         0.26861E+06         0.00000E+00
    0.26861E+06        -0.29506E+08         0.00000E+00
    0.00000E+00         0.00000E+00        -0.14646E+08
 
   -0.12876E+08         0.37587E+06         0.00000E+00
    0.37587E+06        -0.29992E+08         0.00000E+00
    0.00000E+00         0.00000E+00        -0.14646E+08
 
   -0.13201E+08         0.49457E+06         0.00000E+00
    0.49457E+06        -0.30505E+08         0.00000E+00
    0.00000E+00         0.00000E+00        -0.14689E+08
 
   -0.13492E+08         0.58860E+06         0.00000E+00
    0.58860E+06        -0.31060E+08         0.00000E+00
    0.00000E+00         0.00000E+00        -0.14764E+08
 
   -0.13776E+08         0.67165E+06         0.00000E+00
    0.67165E+06        -0.31564E+08         0.00000E+00
    0.00000E+00         0.00000E+00        -0.14895E+08
 
   -0.14050E+08         0.74702E+06         0.00000E+00
    0.74702E+06        -0.32042E+08         0.00000E+00
    0.00000E+00         0.00000E+00        -0.15038E+08
 
   -0.14311E+08         0.82087E+06         0.00000E+00
    0.82087E+06        -0.32512E+08         0.00000E+00
    0.00000E+00         0.00000E+00        -0.15188E+08
 
   -0.14560E+08         0.88909E+06         0.00000E+00
    0.88909E+06        -0.32982E+08         0.00000E+00
    0.00000E+00         0.00000E+00        -0.15343E+08
 
   -0.14800E+08         0.95029E+06         0.00000E+00
    0.95029E+06        -0.33453E+08         0.00000E+00
    0.00000E+00         0.00000E+00        -0.15499E+08
 
   -0.15032E+08         0.10036E+07         0.00000E+00
    0.10036E+07        -0.33921E+08         0.00000E+00
    0.00000E+00         0.00000E+00        -0.15654E+08
 
   -0.15256E+08         0.10495E+07         0.00000E+00
    0.10495E+07        -0.34386E+08         0.00000E+00
    0.00000E+00         0.00000E+00        -0.15807E+08
 
   -0.15471E+08         0.10888E+07         0.00000E+00
    0.10888E+07        -0.34844E+08         0.00000E+00
    0.00000E+00         0.00000E+00        -0.15956E+08
 
   -0.15679E+08         0.11222E+07         0.00000E+00
    0.11222E+07        -0.35295E+08         0.00000E+00
    0.00000E+00         0.00000E+00        -0.16101E+08
 
   -0.15878E+08         0.11505E+07         0.00000E+00
    0.11505E+07        -0.35737E+08         0.00000E+00
    0.00000E+00         0.00000E+00        -0.16242E+08
 
   -0.16069E+08         0.11742E+07         0.00000E+00
    0.11742E+07        -0.36170E+08         0.00000E+00
    0.00000E+00         0.00000E+00        -0.16379E+08
 
   -0.16251E+08         0.11938E+07         0.00000E+00
    0.11938E+07        -0.36594E+08         0.00000E+00
    0.00000E+00         0.00000E+00        -0.16511E+08
 
   -0.16424E+08         0.12099E+07         0.00000E+00
    0.12099E+07        -0.37010E+08         0.00000E+00
    0.00000E+00         0.00000E+00        -0.16639E+08
 
   -0.16588E+08         0.12228E+07         0.00000E+00
    0.12228E+07        -0.37416E+08         0.00000E+00
    0.00000E+00         0.00000E+00        -0.16762E+08
 
   -0.16744E+08         0.12330E+07         0.00000E+00
    0.12330E+07        -0.37815E+08         0.00000E+00
    0.00000E+00         0.00000E+00        -0.16881E+08
 
   -0.16893E+08         0.12408E+07         0.00000E+00
    0.12408E+07        -0.38206E+08         0.00000E+00
    0.00000E+00         0.00000E+00        -0.16995E+08
 
   -0.17043E+08         0.12453E+07         0.00000E+00
    0.12453E+07        -0.38578E+08         0.00000E+00
    0.00000E+00         0.00000E+00        -0.17116E+08
 
   -0.17216E+08         0.12446E+07         0.00000E+00
    0.12446E+07        -0.38912E+08         0.00000E+00
    0.00000E+00         0.00000E+00        -0.17262E+08
 
   -0.17393E+08         0.12412E+07         0.00000E+00
    0.12412E+07        -0.39226E+08         0.00000E+00
    0.00000E+00         0.00000E+00        -0.17416E+08
 
   -0.17565E+08         0.12364E+07         0.00000E+00
    0.12364E+07        -0.39533E+08         0.00000E+00
    0.00000E+00         0.00000E+00        -0.17568E+08
 
   -0.17731E+08         0.12306E+07         0.00000E+00
    0.12306E+07        -0.39833E+08         0.00000E+00
    0.00000E+00         0.00000E+00        -0.17717E+08
 
   -0.17891E+08         0.12240E+07         0.00000E+00
    0.12240E+07        -0.40126E+08         0.00000E+00
    0.00000E+00         0.00000E+00        -0.17864E+08
 
   -0.18048E+08         0.12166E+07         0.00000E+00
    0.12166E+07        -0.40412E+08         0.00000E+00
    0.00000E+00         0.00000E+00        -0.18008E+08
 
   -0.18199E+08         0.12087E+07         0.00000E+00
    0.12087E+07        -0.40691E+08         0.00000E+00
    0.00000E+00         0.00000E+00        -0.18150E+08
 
   -0.18347E+08         0.12004E+07         0.00000E+00
    0.12004E+07        -0.40965E+08         0.00000E+00
    0.00000E+00         0.00000E+00        -0.18289E+08
 
   -0.18491E+08         0.11917E+07         0.00000E+00
    0.11917E+07        -0.41233E+08         0.00000E+00
    0.00000E+00         0.00000E+00        -0.18427E+08
 
   -0.18630E+08         0.11827E+07         0.00000E+00
    0.11827E+07        -0.41496E+08         0.00000E+00
    0.00000E+00         0.00000E+00        -0.18562E+08
 
   -0.18767E+08         0.11736E+07         0.00000E+00
    0.11736E+07        -0.41753E+08         0.00000E+00
    0.00000E+00         0.00000E+00        -0.18696E+08
 
   -0.18900E+08         0.11643E+07         0.00000E+00
    0.11643E+07        -0.42005E+08         0.00000E+00
    0.00000E+00         0.00000E+00        -0.18827E+08
 
   -0.19031E+08         0.11551E+07         0.00000E+00
    0.11551E+07        -0.42253E+08         0.00000E+00
    0.00000E+00         0.00000E+00        -0.18957E+08
 
   -0.19158E+08         0.11458E+07         0.00000E+00
    0.11458E+07        -0.42497E+08         0.00000E+00
    0.00000E+00         0.00000E+00        -0.19084E+08
 
   -0.19283E+08         0.11366E+07         0.00000E+00
    0.11366E+07        -0.42736E+08         0.00000E+00
    0.00000E+00         0.00000E+00        -0.19211E+08
 
   -0.19406E+08         0.11275E+07         0.00000E+00
    0.11275E+07        -0.42972E+08         0.00000E+00
    0.00000E+00         0.00000E+00        -0.19335E+08
 
   -0.19526E+08         0.11185E+07         0.00000E+00
    0.11185E+07        -0.43204E+08         0.00000E+00
    0.00000E+00         0.00000E+00        -0.19458E+08
 
   -0.19645E+08         0.11097E+07         0.00000E+00
    0.11097E+07        -0.43433E+08         0.00000E+00
    0.00000E+00         0.00000E+00        -0.19580E+08
 
   -0.19761E+08         0.11010E+07         0.00000E+00
    0.11010E+07        -0.43659E+08         0.00000E+00
    0.00000E+00         0.00000E+00        -0.19700E+08
 
   -0.19876E+08         0.10926E+07         0.00000E+00
    0.10926E+07        -0.43882E+08         0.00000E+00
    0.00000E+00         0.00000E+00        -0.19819E+08
 
   -0.19990E+08         0.10844E+07         0.00000E+00
    0.10844E+07        -0.44103E+08         0.00000E+00
    0.00000E+00         0.00000E+00        -0.19938E+08
 
   -0.20102E+08         0.10764E+07         0.00000E+00
    0.10764E+07        -0.44321E+08         0.00000E+00
    0.00000E+00         0.00000E+00        -0.20055E+08
 
   -0.20213E+08         0.10687E+07         0.00000E+00
    0.10687E+07        -0.44537E+08         0.00000E+00
    0.00000E+00         0.00000E+00        -0.20171E+08
 
   -0.20323E+08         0.10613E+07         0.00000E+00
    0.10613E+07        -0.44752E+08         0.00000E+00
    0.00000E+00         0.00000E+00        -0.20286E+08
 
   -0.20433E+08         0.10541E+07         0.00000E+00
    0.10541E+07        -0.44965E+08         0.00000E+00
    0.00000E+00         0.00000E+00        -0.20401E+08
 
   -0.20541E+08         0.10472E+07         0.00000E+00
    0.10472E+07        -0.45177E+08         0.00000E+00
    0.00000E+00         0.00000E+00        -0.20515E+08
 
   -0.20649E+08         0.10405E+07         0.00000E+00
    0.10405E+07        -0.45388E+08         0.00000E+00
    0.00000E+00         0.00000E+00        -0.20629E+08
 
   -0.20757E+08         0.10341E+07         0.00000E+00
    0.10341E+07        -0.45599E+08         0.00000E+00
    0.00000E+00         0.00000E+00        -0.20743E+08
 
   -0.20865E+08         0.10280E+07         0.00000E+00
    0.10280E+07        -0.45809E+08         0.00000E+00
    0.00000E+00         0.00000E+00        -0.20856E+08
 
   -0.20973E+08         0.10220E+07         0.00000E+00
    0.10220E+07        -0.46019E+08         0.00000E+00
    0.00000E+00         0.00000E+00        -0.20969E+08
 
   -0.21080E+08         0.10163E+07         0.00000E+00
    0.10163E+07        -0.46228E+08         0.00000E+00
    0.00000E+00         0.00000E+00        -0.21082E+08
 
   -0.21189E+08         0.10108E+07         0.00000E+00
    0.10108E+07        -0.46439E+08         0.00000E+00
    0.00000E+00         0.00000E+00        -0.21195E+08
 
   -0.21297E+08         0.10055E+07         0.00000E+00
    0.10055E+07        -0.46649E+08         0.00000E+00
    0.00000E+00         0.00000E+00        -0.21308E+08
 
   -0.21407E+08         0.10003E+07         0.00000E+00
    0.10003E+07        -0.46861E+08         0.00000E+00
    0.00000E+00         0.00000E+00        -0.21422E+08
 
   -0.21517E+08         0.99531E+06         0.00000E+00
    0.99531E+06        -0.47074E+08         0.00000E+00
    0.00000E+00         0.00000E+00        -0.21536E+08
 
   -0.21628E+08         0.99035E+06         0.00000E+00
    0.99035E+06        -0.47288E+08         0.00000E+00
    0.00000E+00         0.00000E+00        -0.21651E+08
 
   -0.21740E+08         0.98545E+06         0.00000E+00
    0.98545E+06        -0.47504E+08         0.00000E+00
    0.00000E+00         0.00000E+00        -0.21766E+08
 
   -0.21853E+08         0.98057E+06         0.00000E+00
    0.98057E+06        -0.47721E+08         0.00000E+00
    0.00000E+00         0.00000E+00        -0.21881E+08
 
   -0.21968E+08         0.97565E+06         0.00000E+00
    0.97565E+06        -0.47941E+08         0.00000E+00
    0.00000E+00         0.00000E+00        -0.21998E+08
 
   -0.22085E+08         0.97064E+06         0.00000E+00
    0.97064E+06        -0.48163E+08         0.00000E+00
    0.00000E+00         0.00000E+00        -0.22116E+08
 
   -0.22203E+08         0.96549E+06         0.00000E+00
    0.96549E+06        -0.48388E+08         0.00000E+00
    0.00000E+00         0.00000E+00        -0.22234E+08
 
   -0.22324E+08         0.96015E+06         0.00000E+00
    0.96015E+06        -0.48616E+08         0.00000E+00
    0.00000E+00         0.00000E+00        -0.22354E+08
 
   -0.22446E+08         0.95453E+06         0.00000E+00
    0.95453E+06        -0.48847E+08         0.00000E+00
    0.00000E+00         0.00000E+00        -0.22474E+08
 
   -0.22571E+08         0.94857E+06         0.00000E+00
    0.94857E+06        -0.49081E+08         0.00000E+00
    0.00000E+00         0.00000E+00        -0.22597E+08
 
   -0.22699E+08         0.94219E+06         0.00000E+00
    0.94219E+06        -0.49319E+08         0.00000E+00
    0.00000E+00         0.00000E+00        -0.22720E+08
 
   -0.22829E+08         0.93529E+06         0.00000E+00
    0.93529E+06        -0.49561E+08         0.00000E+00
    0.00000E+00         0.00000E+00        -0.22845E+08
 
   -0.22962E+08         0.92777E+06         0.00000E+00
    0.92777E+06        -0.49808E+08         0.00000E+00
    0.00000E+00         0.00000E+00        -0.22971E+08
 
   -0.23099E+08         0.91953E+06         0.00000E+00
    0.91953E+06        -0.50059E+08         0.00000E+00
    0.00000E+00         0.00000E+00        -0.23099E+08
 
   -0.23239E+08         0.91043E+06         0.00000E+00
    0.91043E+06        -0.50315E+08         0.00000E+00
    0.00000E+00         0.00000E+00        -0.23229E+08
 
   -0.23382E+08         0.90033E+06         0.00000E+00
    0.90033E+06        -0.50576E+08         0.00000E+00
    0.00000E+00         0.00000E+00        -0.23360E+08
 
   -0.23529E+08         0.88908E+06         0.00000E+00
    0.88908E+06        -0.50843E+08         0.00000E+00
    0.00000E+00         0.00000E+00        -0.23494E+08
 
   -0.23681E+08         0.87650E+06         0.00000E+00
    0.87650E+06        -0.51116E+08         0.00000E+00
    0.00000E+00         0.00000E+00        -0.23629E+08
 
   -0.23837E+08         0.86239E+06         0.00000E+00
    0.86239E+06        -0.51395E+08         0.00000E+00
    0.00000E+00         0.00000E+00        -0.23766E+08
 
   -0.23998E+08         0.84654E+06         0.00000E+00
    0.84654E+06        -0.51680E+08         0.00000E+00
    0.00000E+00         0.00000E+00        -0.23906E+08
 
   -0.24163E+08         0.82868E+06         0.00000E+00
    0.82868E+06        -0.51973E+08         0.00000E+00
    0.00000E+00         0.00000E+00        -0.24047E+08
 
   -0.24334E+08         0.80856E+06         0.00000E+00
    0.80856E+06        -0.52273E+08         0.00000E+00
    0.00000E+00         0.00000E+00        -0.24191E+08
 
   -0.24511E+08         0.78586E+06         0.00000E+00
    0.78586E+06        -0.52580E+08         0.00000E+00
    0.00000E+00         0.00000E+00        -0.24338E+08
 
   -0.24693E+08         0.76028E+06         0.00000E+00
    0.76028E+06        -0.52896E+08         0.00000E+00
    0.00000E+00         0.00000E+00        -0.24487E+08
 
   -0.24881E+08         0.73148E+06         0.00000E+00
    0.73148E+06        -0.53220E+08         0.00000E+00
    0.00000E+00         0.00000E+00        -0.24638E+08
 
   -0.25075E+08         0.69911E+06         0.00000E+00
    0.69911E+06        -0.53552E+08         0.00000E+00
    0.00000E+00         0.00000E+00        -0.24793E+08
 
   -0.25275E+08         0.66284E+06         0.00000E+00
    0.66284E+06        -0.53893E+08         0.00000E+00
    0.00000E+00         0.00000E+00        -0.24950E+08
 
   -0.25482E+08         0.62237E+06         0.00000E+00
    0.62237E+06        -0.54242E+08         0.00000E+00
    0.00000E+00         0.00000E+00        -0.25110E+08
 
   -0.25694E+08         0.57744E+06         0.00000E+00
    0.57744E+06        -0.54599E+08         0.00000E+00
    0.00000E+00         0.00000E+00        -0.25273E+08
 
   -0.25913E+08         0.52793E+06         0.00000E+00
    0.52793E+06        -0.54964E+08         0.00000E+00
    0.00000E+00         0.00000E+00        -0.25438E+08
 
   -0.26136E+08         0.47386E+06         0.00000E+00
    0.47386E+06        -0.55336E+08         0.00000E+00
    0.00000E+00         0.00000E+00        -0.25604E+08
 
   -0.26365E+08         0.41552E+06         0.00000E+00
    0.41552E+06        -0.55713E+08         0.00000E+00
    0.00000E+00         0.00000E+00        -0.25772E+08
 
   -0.26598E+08         0.35356E+06         0.00000E+00
    0.35356E+06        -0.56093E+08         0.00000E+00
    0.00000E+00         0.00000E+00        -0.25939E+08
 
   -0.26835E+08         0.28917E+06         0.00000E+00
    0.28917E+06        -0.56473E+08         0.00000E+00
    0.00000E+00         0.00000E+00        -0.26103E+08
 
   -0.27076E+08         0.22429E+06         0.00000E+00
    0.22429E+06        -0.56849E+08         0.00000E+00
    0.00000E+00         0.00000E+00        -0.26262E+08
 
   -0.27319E+08         0.16179E+06         0.00000E+00
    0.16179E+06        -0.57218E+08         0.00000E+00
    0.00000E+00         0.00000E+00        -0.26409E+08
 
   -0.27568E+08         0.10557E+06         0.00000E+00
    0.10557E+06        -0.57574E+08         0.00000E+00
    0.00000E+00         0.00000E+00        -0.26540E+08
 
   -0.27824E+08         0.59891E+05         0.00000E+00
    0.59891E+05        -0.57911E+08         0.00000E+00
    0.00000E+00         0.00000E+00        -0.26646E+08
 
   -0.28092E+08         0.27999E+05         0.00000E+00
    0.27999E+05        -0.58225E+08         0.00000E+00
    0.00000E+00         0.00000E+00        -0.26718E+08
 
   -0.28381E+08         0.10088E+05         0.00000E+00
    0.10088E+05        -0.58515E+08         0.00000E+00
    0.00000E+00         0.00000E+00        -0.26749E+08
 
   -0.28696E+08         0.22003E+04         0.00000E+00
    0.22003E+04        -0.58780E+08         0.00000E+00
    0.00000E+00         0.00000E+00        -0.26734E+08
 
   -0.10888E+08        -0.34119E+04         0.00000E+00
   -0.34119E+04        -0.28076E+08         0.00000E+00
    0.00000E+00         0.00000E+00        -0.14885E+08
 
   -0.11327E+08         0.17889E+05         0.00000E+00
    0.17889E+05        -0.28406E+08         0.00000E+00
    0.00000E+00         0.00000E+00        -0.14714E+08
 
   -0.11719E+08         0.80491E+05         0.00000E+00
    0.80491E+05        -0.28714E+08         0.00000E+00
    0.00000E+00         0.00000E+00        -0.14648E+08
 
   -0.12106E+08         0.15030E+06         0.00000E+00
    0.15030E+06        -0.29076E+08         0.00000E+00
    0.00000E+00         0.00000E+00        -0.14646E+08
 
   -0.12461E+08         0.23816E+06         0.00000E+00
    0.23816E+06        -0.29526E+08         0.00000E+00
    0.00000E+00         0.00000E+00        -0.14646E+08
 
   -0.12811E+08         0.34545E+06         0.00000E+00
    0.34545E+06        -0.30003E+08         0.00000E+00
    0.00000E+00         0.00000E+00        -0.14664E+08
 
   -0.13140E+08         0.45943E+06         0.00000E+00
    0.45943E+06        -0.30537E+08         0.00000E+00
    0.00000E+00         0.00000E+00        -0.14707E+08
 
   -0.13448E+08         0.55054E+06         0.00000E+00
    0.55054E+06        -0.31078E+08         0.00000E+00
    0.00000E+00         0.00000E+00        -0.14795E+08
 
   -0.13741E+08         0.63336E+06         0.00000E+00
    0.63336E+06        -0.31579E+08         0.00000E+00
    0.00000E+00         0.00000E+00        -0.14920E+08
 
   -0.14021E+08         0.70717E+06         0.00000E+00
    0.70717E+06        -0.32057E+08         0.00000E+00
    0.00000E+00         0.00000E+00        -0.15057E+08
 
   -0.14288E+08         0.77935E+06         0.00000E+00
    0.77935E+06        -0.32526E+08         0.00000E+00
    0.00000E+00         0.00000E+00        -0.15203E+08
 
   -0.14542E+08         0.84662E+06         0.00000E+00
    0.84662E+06        -0.32995E+08         0.00000E+00
    0.00000E+00         0.00000E+00        -0.15353E+08
 
   -0.14785E+08         0.90710E+06         0.00000E+00
    0.90710E+06        -0.33464E+08         0.00000E+00
    0.00000E+00         0.00000E+00        -0.15505E+08
 
   -0.15019E+08         0.96002E+06         0.00000E+00
    0.96002E+06        -0.33931E+08         0.00000E+00
    0.00000E+00         0.00000E+00        -0.15656E+08
 
   -0.15244E+08         0.10056E+07         0.00000E+00
    0.10056E+07        -0.34394E+08         0.00000E+00
    0.00000E+00         0.00000E+00        -0.15806E+08
 
   -0.15460E+08         0.10445E+07         0.00000E+00
    0.10445E+07        -0.34851E+08         0.00000E+00
    0.00000E+00         0.00000E+00        -0.15953E+08
 
   -0.15669E+08         0.10776E+07         0.00000E+00
    0.10776E+07        -0.35301E+08         0.00000E+00
    0.00000E+00         0.00000E+00        -0.16096E+08
 
   -0.15868E+08         0.11055E+07         0.00000E+00
    0.11055E+07        -0.35742E+08         0.00000E+00
    0.00000E+00         0.00000E+00        -0.16235E+08
 
   -0.16059E+08         0.11287E+07         0.00000E+00
    0.11287E+07        -0.36174E+08         0.00000E+00
    0.00000E+00         0.00000E+00        -0.16371E+08
 
   -0.16242E+08         0.11480E+07         0.00000E+00
    0.11480E+07        -0.36598E+08         0.00000E+00
    0.00000E+00         0.00000E+00        -0.16502E+08
 
   -0.16415E+08         0.11636E+07         0.00000E+00
    0.11636E+07        -0.37012E+08         0.00000E+00
    0.00000E+00         0.00000E+00        -0.16628E+08
 
   -0.16580E+08         0.11762E+07         0.00000E+00
    0.11762E+07        -0.37419E+08         0.00000E+00
    0.00000E+00         0.00000E+00        -0.16751E+08
 
   -0.16736E+08         0.11861E+07         0.00000E+00
    0.11861E+07        -0.37817E+08         0.00000E+00
    0.00000E+00         0.00000E+00        -0.16870E+08
 
   -0.16885E+08         0.11936E+07         0.00000E+00
    0.11936E+07        -0.38207E+08         0.00000E+00
    0.00000E+00         0.00000E+00        -0.16984E+08
 
   -0.17037E+08         0.11978E+07         0.00000E+00
    0.11978E+07        -0.38577E+08         0.00000E+00
    0.00000E+00         0.00000E+00        -0.17106E+08
 
   -0.17212E+08         0.11970E+07         0.00000E+00
    0.11970E+07        -0.38910E+08         0.00000E+00
    0.00000E+00         0.00000E+00        -0.17254E+08
 
   -0.17389E+08         0.11937E+07         0.00000E+00
    0.11937E+07        -0.39224E+08         0.00000E+00
    0.00000E+00         0.00000E+00        -0.17408E+08
 
   -0.17560E+08         0.11891E+07         0.00000E+00
    0.11891E+07        -0.39531E+08         0.00000E+00
    0.00000E+00         0.00000E+00        -0.17559E+08
 
   -0.17727E+08         0.11836E+07         0.00000E+00
    0.11836E+07        -0.39831E+08         0.00000E+00
    0.00000E+00         0.00000E+00        -0.17708E+08
 
   -0.17888E+08         0.11772E+07         0.00000E+00
    0.11772E+07        -0.40124E+08         0.00000E+00
    0.00000E+00         0.00000E+00        -0.17855E+08
 
   -0.18044E+08         0.11702E+07         0.00000E+00
    0.11702E+07        -0.40410E+08         0.00000E+00
    0.00000E+00         0.00000E+00        -0.17999E+08
 
   -0.18196E+08         0.11626E+07         0.00000E+00
    0.11626E+07        -0.40690E+08         0.00000E+00
    0.00000E+00         0.00000E+00        -0.18141E+08
 
   -0.18344E+08         0.11546E+07         0.00000E+00
    0.11546E+07        -0.40963E+08         0.00000E+00
    0.00000E+00         0.00000E+00        -0.18281E+08
 
   -0.18487E+08         0.11463E+07         0.00000E+00
    0.11463E+07        -0.41232E+08         0.00000E+00
    0.00000E+00         0.00000E+00        -0.18419E+08
 
   -0.18628E+08         0.11377E+07         0.00000E+00
    0.11377E+07        -0.41494E+08         0.00000E+00
    0.00000E+00         0.00000E+00        -0.18554E+08
 
   -0.18764E+08         0.11290E+07         0.00000E+00
    0.11290E+07        -0.41752E+08         0.00000E+00
    0.00000E+00         0.00000E+00        -0.18688E+08
 
   -0.18898E+08         0.11202E+07         0.00000E+00
    0.11202E+07        -0.42004E+08         0.00000E+00
    0.00000E+00         0.00000E+00        -0.18820E+08
 
   -0.19028E+08         0.11113E+07         0.00000E+00
    0.11113E+07        -0.42252E+08         0.00000E+00
    0.00000E+00         0.00000E+00        -0.18950E+08
 
   -0.19156E+08         0.11025E+07         0.00000E+00
    0.11025E+07        -0.42496E+08         0.00000E+00
    0.00000E+00         0.00000E+00        -0.19078E+08
 
   -0.19281E+08         0.10937E+07         0.00000E+00
    0.10937E+07        -0.42736E+08         0.00000E+00
    0.00000E+00         0.00000E+00        -0.19204E+08
 
   -0.19403E+08         0.10850E+07         0.00000E+00
    0.10850E+07        -0.42972E+08         0.00000E+00
    0.00000E+00         0.00000E+00        -0.19329E+08
 
   -0.19524E+08         0.10764E+07         0.00000E+00
    0.10764E+07        -0.43204E+08         0.00000E+00
    0.00000E+00         0.00000E+00        -0.19452E+08
 
   -0.19642E+08         0.10679E+07         0.00000E+00
    0.10679E+07        -0.43433E+08         0.00000E+00
    0.00000E+00         0.00000E+00        -0.19574E+08
 
   -0.19759E+08         0.10597E+07         0.00000E+00
    0.10597E+07        -0.43659E+08         0.00000E+00
    0.00000E+00         0.00000E+00        -0.19695E+08
 
   -0.19874E+08         0.10516E+07         0.00000E+00
    0.10516E+07        -0.43882E+08         0.00000E+00
    0.00000E+00         0.00000E+00        -0.19814E+08
 
   -0.19988E+08         0.10438E+07         0.00000E+00
    0.10438E+07        -0.44103E+08         0.00000E+00
    0.00000E+00         0.00000E+00        -0.19933E+08
 
   -0.20100E+08         0.10361E+07         0.00000E+00
    0.10361E+07        -0.44321E+08         0.00000E+00
    0.00000E+00         0.00000E+00        -0.20050E+08
 
   -0.20211E+08         0.10287E+07         0.00000E+00
    0.10287E+07        -0.44538E+08         0.00000E+00
    0.00000E+00         0.00000E+00        -0.20167E+08
 
   -0.20321E+08         0.10216E+07         0.00000E+00
    0.10216E+07        -0.44753E+08         0.00000E+00
    0.00000E+00         0.00000E+00        -0.20282E+08
 
   -0.20430E+08         0.10147E+07         0.00000E+00
    0.10147E+07        -0.44966E+08         0.00000E+00
    0.00000E+00         0.00000E+00        -0.20397E+08
 
   -0.20539E+08         0.10081E+07         0.00000E+00
    0.10081E+07        -0.45178E+08         0.00000E+00
    0.00000E+00         0.00000E+00        -0.20512E+08
 
   -0.20647E+08         0.10017E+07         0.00000E+00
    0.10017E+07        -0.45389E+08         0.00000E+00
    0.00000E+00         0.00000E+00        -0.20626E+08
 
   -0.20755E+08         0.99551E+06         0.00000E+00
    0.99551E+06        -0.45600E+08         0.00000E+00
    0.00000E+00         0.00000E+00        -0.20740E+08
 
   -0.20862E+08         0.98959E+06         0.00000E+00
    0.98959E+06        -0.45810E+08         0.00000E+00
    0.00000E+00         0.00000E+00        -0.20853E+08
 
   -0.20970E+08         0.98389E+06         0.00000E+00
    0.98389E+06        -0.46020E+08         0.00000E+00
    0.00000E+00         0.00000E+00        -0.20966E+08
 
   -0.21078E+08         0.97840E+06         0.00000E+00
    0.97840E+06        -0.46230E+08         0.00000E+00
    0.00000E+00         0.00000E+00        -0.21080E+08
 
   -0.21186E+08         0.97311E+06         0.00000E+00
    0.97311E+06        -0.46440E+08         0.00000E+00
    0.00000E+00         0.00000E+00        -0.21193E+08
 
   -0.21295E+08         0.96797E+06         0.00000E+00
    0.96797E+06        -0.46651E+08         0.00000E+00
    0.00000E+00         0.00000E+00        -0.21306E+08
 
   -0.21404E+08         0.96299E+06         0.00000E+00
    0.96299E+06        -0.46862E+08         0.00000E+00
    0.00000E+00         0.00000E+00        -0.21420E+08
 
   -0.21514E+08         0.95811E+06         0.00000E+00
    0.95811E+06        -0.47075E+08         0.00000E+00
    0.00000E+00         0.00000E+00        -0.21534E+08
 
   -0.21625E+08         0.95332E+06         0.00000E+00
    0.95332E+06        -0.47289E+08         0.00000E+00
    0.00000E+00         0.00000E+00        -0.21649E+08
 
   -0.21737E+08         0.94858E+06         0.00000E+00
    0.94858E+06        -0.47505E+08         0.00000E+00
    0.00000E+00         0.00000E+00        -0.21764E+08
 
   -0.21850E+08         0.94385E+06         0.00000E+00
    0.94385E+06        -0.47723E+08         0.00000E+00
    0.00000E+00         0.00000E+00        -0.21880E+08
 
   -0.21965E+08         0.93908E+06         0.00000E+00
    0.93908E+06        -0.47943E+08         0.00000E+00
    0.00000E+00         0.00000E+00        -0.21997E+08
 
   -0.22082E+08         0.93422E+06         0.00000E+00
    0.93422E+06        -0.48165E+08         0.00000E+00
    0.00000E+00         0.00000E+00        -0.22115E+08
 
   -0.22200E+08         0.92923E+06         0.00000E+00
    0.92923E+06        -0.48390E+08         0.00000E+00
    0.00000E+00         0.00000E+00        -0.22233E+08
 
   -0.22321E+08         0.92404E+06         0.00000E+00
    0.92404E+06        -0.48617E+08         0.00000E+00
    0.00000E+00         0.00000E+00        -0.22353E+08
 
   -0.22443E+08         0.91858E+06         0.00000E+00
    0.91858E+06        -0.48848E+08         0.00000E+00
    0.00000E+00         0.00000E+00        -0.22474E+08
 
   -0.22568E+08         0.91280E+06         0.00000E+00
    0.91280E+06        -0.49083E+08         0.00000E+00
    0.00000E+00         0.00000E+00        -0.22596E+08
 
   -0.22696E+08         0.90660E+06         0.00000E+00
    0.90660E+06        -0.49321E+08         0.00000E+00
    0.00000E+00         0.00000E+00        -0.22719E+08
 
   -0.22826E+08         0.89990E+06         0.00000E+00
    0.89990E+06        -0.49563E+08         0.00000E+00
    0.00000E+00         0.00000E+00        -0.22844E+08
 
   -0.22960E+08         0.89260E+06         0.00000E+00
    0.89260E+06        -0.49809E+08         0.00000E+00
    0.00000E+00         0.00000E+00        -0.22970E+08
 
   -0.23096E+08         0.88460E+06         0.00000E+00
    0.88460E+06        -0.50060E+08         0.00000E+00
    0.00000E+00         0.00000E+00        -0.23098E+08
 
   -0.23236E+08         0.87577E+06         0.00000E+00
    0.87577E+06        -0.50316E+08         0.00000E+00
    0.00000E+00         0.00000E+00        -0.23228E+08
 
   -0.23380E+08         0.86597E+06         0.00000E+00
    0.86597E+06        -0.50577E+08         0.00000E+00
    0.00000E+00         0.00000E+00        -0.23359E+08
 
   -0.23527E+08         0.85506E+06         0.00000E+00
    0.85506E+06        -0.50844E+08         0.00000E+00
    0.00000E+00         0.00000E+00        -0.23492E+08
 
   -0.23679E+08         0.84286E+06         0.00000E+00
    0.84286E+06        -0.51116E+08         0.00000E+00
    0.00000E+00         0.00000E+00        -0.23627E+08
 
   -0.23835E+08         0.82917E+06         0.00000E+00
    0.82917E+06        -0.51395E+08         0.00000E+00
    0.00000E+00         0.00000E+00        -0.23764E+08
 
   -0.23996E+08         0.81377E+06         0.00000E+00
    0.81377E+06        -0.51680E+08         0.00000E+00
    0.00000E+00         0.00000E+00        -0.23903E+08
 
   -0.24162E+08         0.79643E+06         0.00000E+00
    0.79643E+06        -0.51972E+08         0.00000E+00
    0.00000E+00         0.00000E+00        -0.24044E+08
 
   -0.24333E+08         0.77687E+06         0.00000E+00
    0.77687E+06        -0.52272E+08         0.00000E+00
    0.00000E+00         0.00000E+00        -0.24187E+08
 
   -0.24510E+08         0.75479E+06         0.00000E+00
    0.75479E+06        -0.52579E+08         0.00000E+00
    0.00000E+00         0.00000E+00        -0.24333E+08
 
   -0.24693E+08         0.72987E+06         0.00000E+00
    0.72987E+06        -0.52894E+08         0.00000E+00
    0.00000E+00         0.00000E+00        -0.24481E+08
 
   -0.24881E+08         0.70177E+06         0.00000E+00
    0.70177E+06        -0.53217E+08         0.00000E+00
    0.00000E+00         0.00000E+00        -0.24632E+08
 
   -0.25076E+08         0.67014E+06         0.00000E+00
    0.67014E+06        -0.53548E+08         0.00000E+00
    0.00000E+00         0.00000E+00        -0.24785E+08
 
   -0.25277E+08         0.63463E+06         0.00000E+00
    0.63463E+06        -0.53888E+08         0.00000E+00
    0.00000E+00         0.00000E+00        -0.24941E+08
 
   -0.25485E+08         0.59493E+06         0.00000E+00
    0.59493E+06        -0.54237E+08         0.00000E+00
    0.00000E+00         0.00000E+00        -0.25100E+08
 
   -0.25699E+08         0.55079E+06         0.00000E+00
    0.55079E+06        -0.54594E+08         0.00000E+00
    0.00000E+00         0.00000E+00        -0.25260E+08
 
   -0.25919E+08         0.50205E+06         0.00000E+00
    0.50205E+06        -0.54958E+08         0.00000E+00
    0.00000E+00         0.00000E+00        -0.25424E+08
 
   -0.26144E+08         0.44874E+06         0.00000E+00
    0.44874E+06        -0.55329E+08         0.00000E+00
    0.00000E+00         0.00000E+00        -0.25588E+08
 
   -0.26375E+08         0.39113E+06         0.00000E+00
    0.39113E+06        -0.55706E+08         0.00000E+00
    0.00000E+00         0.00000E+00        -0.25754E+08
 
   -0.26611E+08         0.32991E+06         0.00000E+00
    0.32991E+06        -0.56086E+08         0.00000E+00
    0.00000E+00         0.00000E+00        -0.25918E+08
 
   -0.26851E+08         0.26631E+06         0.00000E+00
    0.26631E+06        -0.56466E+08         0.00000E+00
    0.00000E+00         0.00000E+00        -0.26081E+08
 
   -0.27096E+08         0.20236E+06         0.00000E+00
    0.20236E+06        -0.56844E+08         0.00000E+00
    0.00000E+00         0.00000E+00        -0.26237E+08
 
   -0.27343E+08         0.14113E+06         0.00000E+00
    0.14113E+06        -0.57215E+08         0.00000E+00
    0.00000E+00         0.00000E+00        -0.26383E+08
 
   -0.27596E+08         0.86753E+05         0.00000E+00
    0.86753E+05        -0.57574E+08         0.00000E+00
    0.00000E+00         0.00000E+00        -0.26514E+08
 
   -0.27856E+08         0.43826E+05         0.00000E+00
    0.43826E+05        -0.57915E+08         0.00000E+00
    0.00000E+00         0.00000E+00        -0.26621E+08
 
   -0.28128E+08         0.15705E+05         0.00000E+00
    0.15705E+05        -0.58234E+08         0.00000E+00
    0.00000E+00         0.00000E+00        -0.26695E+08
 
   -0.28419E+08         0.24098E+04         0.00000E+00
    0.24098E+04        -0.58527E+08         0.00000E+00
    0.00000E+00         0.00000E+00        -0.26727E+08
 
   -0.28735E+08        -0.40190E+03         0.00000E+00
   -0.40190E+03        -0.58794E+08         0.00000E+00
    0.00000E+00         0.00000E+00        -0.26713E+08
 
   -0.10801E+08        -0.66682E+04         0.00000E+00
   -0.66682E+04        -0.28077E+08         0.00000E+00
    0.00000E+00         0.00000E+00        -0.14920E+08
 
   -0.11249E+08         0.35322E+03         0.00000E+00
    0.35322E+03        -0.28401E+08         0.00000E+00
    0.00000E+00         0.00000E+00        -0.14754E+08
 
   -0.11637E+08         0.56873E+05         0.00000E+00
    0.56873E+05        -0.28728E+08         0.00000E+00
    0.00000E+00         0.00000E+00        -0.14668E+08
 
   -0.12013E+08         0.12486E+06         0.00000E+00
    0.12486E+06        -0.29099E+08         0.00000E+00
    0.00000E+00         0.00000E+00        -0.14652E+08
 
   -0.12386E+08         0.21180E+06         0.00000E+00
    0.21180E+06        -0.29538E+08         0.00000E+00
    0.00000E+00         0.00000E+00        -0.14659E+08
 
   -0.12749E+08         0.31738E+06         0.00000E+00
    0.31738E+06        -0.30023E+08         0.00000E+00
    0.00000E+00         0.00000E+00        -0.14685E+08
 
   -0.13080E+08         0.42531E+06         0.00000E+00
    0.42531E+06        -0.30568E+08         0.00000E+00
    0.00000E+00         0.00000E+00        -0.14727E+08
 
   -0.13406E+08         0.51643E+06         0.00000E+00
    0.51643E+06        -0.31096E+08         0.00000E+00
    0.00000E+00         0.00000E+00        -0.14826E+08
 
   -0.13708E+08         0.59606E+06         0.00000E+00
    0.59606E+06        -0.31594E+08         0.00000E+00
    0.00000E+00         0.00000E+00        -0.14945E+08
 
   -0.13994E+08         0.66852E+06         0.00000E+00
    0.66852E+06        -0.32072E+08         0.00000E+00
    0.00000E+00         0.00000E+00        -0.15077E+08
 
   -0.14266E+08         0.73883E+06         0.00000E+00
    0.73883E+06        -0.32540E+08         0.00000E+00
    0.00000E+00         0.00000E+00        -0.15217E+08
 
   -0.14524E+08         0.80485E+06         0.00000E+00
    0.80485E+06        -0.33008E+08         0.00000E+00
    0.00000E+00         0.00000E+00        -0.15363E+08
 
   -0.14770E+08         0.86443E+06         0.00000E+00
    0.86443E+06        -0.33475E+08         0.00000E+00
    0.00000E+00         0.00000E+00        -0.15510E+08
 
   -0.15006E+08         0.91675E+06         0.00000E+00
    0.91675E+06        -0.33941E+08         0.00000E+00
    0.00000E+00         0.00000E+00        -0.15658E+08
 
   -0.15233E+08         0.96190E+06         0.00000E+00
    0.96190E+06        -0.34403E+08         0.00000E+00
    0.00000E+00         0.00000E+00        -0.15805E+08
 
   -0.15450E+08         0.10005E+07         0.00000E+00
    0.10005E+07        -0.34859E+08         0.00000E+00
    0.00000E+00         0.00000E+00        -0.15949E+08
 
   -0.15659E+08         0.10331E+07         0.00000E+00
    0.10331E+07        -0.35307E+08         0.00000E+00
    0.00000E+00         0.00000E+00        -0.16090E+08
 
   -0.15859E+08         0.10606E+07         0.00000E+00
    0.10606E+07        -0.35747E+08         0.00000E+00
    0.00000E+00         0.00000E+00        -0.16228E+08
 
   -0.16051E+08         0.10834E+07         0.00000E+00
    0.10834E+07        -0.36178E+08         0.00000E+00
    0.00000E+00         0.00000E+00        -0.16362E+08
 
   -0.16233E+08         0.11022E+07         0.00000E+00
    0.11022E+07        -0.36601E+08         0.00000E+00
    0.00000E+00         0.00000E+00        -0.16492E+08
 
   -0.16407E+08         0.11175E+07         0.00000E+00
    0.11175E+07        -0.37015E+08         0.00000E+00
    0.00000E+00         0.00000E+00        -0.16618E+08
 
   -0.16572E+08         0.11297E+07         0.00000E+00
    0.11297E+07        -0.37421E+08         0.00000E+00
    0.00000E+00         0.00000E+00        -0.16740E+08
 
   -0.16729E+08         0.11392E+07         0.00000E+00
    0.11392E+07        -0.37818E+08         0.00000E+00
    0.00000E+00         0.00000E+00        -0.16859E+08
 
   -0.16878E+08         0.11465E+07         0.00000E+00
    0.11465E+07        -0.38208E+08         0.00000E+00
    0.00000E+00         0.00000E+00        -0.16973E+08
 
   -0.17032E+08         0.11504E+07         0.00000E+00
    0.11504E+07        -0.38577E+08         0.00000E+00
    0.00000E+00         0.00000E+00        -0.17096E+08
 
   -0.17208E+08         0.11495E+07         0.00000E+00
    0.11495E+07        -0.38908E+08         0.00000E+00
    0.00000E+00         0.00000E+00        -0.17245E+08
 
   -0.17385E+08         0.11463E+07         0.00000E+00
    0.11463E+07        -0.39222E+08         0.00000E+00
    0.00000E+00         0.00000E+00        -0.17399E+08
 
   -0.17557E+08         0.11420E+07         0.00000E+00
    0.11420E+07        -0.39529E+08         0.00000E+00
    0.00000E+00         0.00000E+00        -0.17550E+08
 
   -0.17723E+08         0.11367E+07         0.00000E+00
    0.11367E+07        -0.39829E+08         0.00000E+00
    0.00000E+00         0.00000E+00        -0.17699E+08
 
   -0.17885E+08         0.11306E+07         0.00000E+00
    0.11306E+07        -0.40122E+08         0.00000E+00
    0.00000E+00         0.00000E+00        -0.17846E+08
 
   -0.18041E+08         0.11238E+07         0.00000E+00
    0.11238E+07        -0.40408E+08         0.00000E+00
    0.00000E+00         0.00000E+00        -0.17991E+08
 
   -0.18193E+08         0.11166E+07         0.00000E+00
    0.11166E+07        -0.40688E+08         0.00000E+00
    0.00000E+00         0.00000E+00        -0.18133E+08
 
   -0.18341E+08         0.11090E+07         0.00000E+00
    0.11090E+07        -0.40962E+08         0.00000E+00
    0.00000E+00         0.00000E+00        -0.18273E+08
 
   -0.18485E+08         0.11010E+07         0.00000E+00
    0.11010E+07        -0.41230E+08         0.00000E+00
    0.00000E+00         0.00000E+00        -0.18411E+08
 
   -0.18625E+08         0.10928E+07         0.00000E+00
    0.10928E+07        -0.41493E+08         0.00000E+00
    0.00000E+00         0.00000E+00        -0.18547E+08
 
   -0.18762E+08         0.10845E+07         0.00000E+00
    0.10845E+07        -0.41751E+08         0.00000E+00
    0.00000E+00         0.00000E+00        -0.18681E+08
 
   -0.18895E+08         0.10761E+07         0.00000E+00
    0.10761E+07        -0.42003E+08         0.00000E+00
    0.00000E+00         0.00000E+00        -0.18813E+08
 
   -0.19026E+08         0.10677E+07         0.00000E+00
    0.10677E+07        -0.42252E+08         0.00000E+00
    0.00000E+00         0.00000E+00        -0.18943E+08
 
   -0.19153E+08         0.10592E+07         0.00000E+00
    0.10592E+07        -0.42495E+08         0.00000E+00
    0.00000E+00         0.00000E+00        -0.19071E+08
 
   -0.19279E+08         0.10508E+07         0.00000E+00
    0.10508E+07        -0.42735E+08         0.00000E+00
    0.00000E+00         0.00000E+00        -0.19198E+08
 
   -0.19401E+08         0.10425E+07         0.00000E+00
    0.10425E+07        -0.42971E+08         0.00000E+00
    0.00000E+00         0.00000E+00        -0.19323E+08
 
   -0.19522E+08         0.10343E+07         0.00000E+00
    0.10343E+07        -0.43204E+08         0.00000E+00
    0.00000E+00         0.00000E+00        -0.19446E+08
 
   -0.19640E+08         0.10262E+07         0.00000E+00
    0.10262E+07        -0.43433E+08         0.00000E+00
    0.00000E+00         0.00000E+00        -0.19569E+08
 
   -0.19757E+08         0.10183E+07         0.00000E+00
    0.10183E+07        -0.43659E+08         0.00000E+00
    0.00000E+00         0.00000E+00        -0.19690E+08
 
   -0.19872E+08         0.10106E+07         0.00000E+00
    0.10106E+07        -0.43882E+08         0.00000E+00
    0.00000E+00         0.00000E+00        -0.19809E+08
 
   -0.19985E+08         0.10031E+07         0.00000E+00
    0.10031E+07        -0.44103E+08         0.00000E+00
    0.00000E+00         0.00000E+00        -0.19928E+08
 
   -0.20098E+08         0.99582E+06         0.00000E+00
    0.99582E+06        -0.44322E+08         0.00000E+00
    0.00000E+00         0.00000E+00        -0.20046E+08
 
   -0.20209E+08         0.98874E+06         0.00000E+00
    0.98874E+06        -0.44538E+08         0.00000E+00
    0.00000E+00         0.00000E+00        -0.20162E+08
 
   -0.20319E+08         0.98190E+06         0.00000E+00
    0.98190E+06        -0.44753E+08         0.00000E+00
    0.00000E+00         0.00000E+00        -0.20278E+08
 
   -0.20428E+08         0.97530E+06         0.00000E+00
    0.97530E+06        -0.44967E+08         0.00000E+00
    0.00000E+00         0.00000E+00        -0.20394E+08
 
   -0.20536E+08         0.96893E+06         0.00000E+00
    0.96893E+06        -0.45179E+08         0.00000E+00
    0.00000E+00         0.00000E+00        -0.20508E+08
 
   -0.20645E+08         0.96280E+06         0.00000E+00
    0.96280E+06        -0.45390E+08         0.00000E+00
    0.00000E+00         0.00000E+00        -0.20623E+08
 
   -0.20752E+08         0.95689E+06         0.00000E+00
    0.95689E+06        -0.45601E+08         0.00000E+00
    0.00000E+00         0.00000E+00        -0.20737E+08
 
   -0.20860E+08         0.95121E+06         0.00000E+00
    0.95121E+06        -0.45811E+08         0.00000E+00
    0.00000E+00         0.00000E+00        -0.20850E+08
 
   -0.20967E+08         0.94573E+06         0.00000E+00
    0.94573E+06        -0.46021E+08         0.00000E+00
    0.00000E+00         0.00000E+00        -0.20964E+08
 
   -0.21075E+08         0.94045E+06         0.00000E+00
    0.94045E+06        -0.46231E+08         0.00000E+00
    0.00000E+00         0.00000E+00        -0.21077E+08
 
   -0.21183E+08         0.93535E+06         0.00000E+00
    0.93535E+06        -0.46441E+08         0.00000E+00
    0.00000E+00         0.00000E+00        -0.21191E+08
 
   -0.21292E+08         0.93041E+06         0.00000E+00
    0.93041E+06        -0.46652E+08         0.00000E+00
    0.00000E+00         0.00000E+00        -0.21305E+08
 
   -0.21401E+08         0.92560E+06         0.00000E+00
    0.92560E+06        -0.46864E+08         0.00000E+00
    0.00000E+00         0.00000E+00        -0.21419E+08
 
   -0.21511E+08         0.92090E+06         0.00000E+00
    0.92090E+06        -0.47077E+08         0.00000E+00
    0.00000E+00         0.00000E+00        -0.21533E+08
 
   -0.21622E+08         0.91628E+06         0.00000E+00
    0.91628E+06        -0.47291E+08         0.00000E+00
    0.00000E+00         0.00000E+00        -0.21648E+08
 
   -0.21734E+08         0.91170E+06         0.00000E+00
    0.91170E+06        -0.47507E+08         0.00000E+00
    0.00000E+00         0.00000E+00        -0.21763E+08
 
   -0.21848E+08         0.90712E+06         0.00000E+00
    0.90712E+06        -0.47724E+08         0.00000E+00
    0.00000E+00         0.00000E+00        -0.21879E+08
 
   -0.21962E+08         0.90250E+06         0.00000E+00
    0.90250E+06        -0.47944E+08         0.00000E+00
    0.00000E+00         0.00000E+00        -0.21996E+08
 
   -0.22079E+08         0.89779E+06         0.00000E+00
    0.89779E+06        -0.48166E+08         0.00000E+00
    0.00000E+00         0.00000E+00        -0.22114E+08
 
   -0.22197E+08         0.89295E+06         0.00000E+00
    0.89295E+06        -0.48391E+08         0.00000E+00
    0.00000E+00         0.00000E+00        -0.22233E+08
 
   -0.22318E+08         0.88792E+06         0.00000E+00
    0.88792E+06        -0.48619E+08         0.00000E+00
    0.00000E+00         0.00000E+00        -0.22352E+08
 
   -0.22440E+08         0.88263E+06         0.00000E+00
    0.88263E+06        -0.48850E+08         0.00000E+00
    0.00000E+00         0.00000E+00        -0.22473E+08
 
   -0.22565E+08         0.87702E+06         0.00000E+00
    0.87702E+06        -0.49084E+08         0.00000E+00
    0.00000E+00         0.00000E+00        -0.22595E+08
 
   -0.22693E+08         0.87101E+06         0.00000E+00
    0.87101E+06        -0.49322E+08         0.00000E+00
    0.00000E+00         0.00000E+00        -0.22719E+08
 
   -0.22823E+08         0.86451E+06         0.00000E+00
    0.86451E+06        -0.49564E+08         0.00000E+00
    0.00000E+00         0.00000E+00        -0.22843E+08
 
   -0.22957E+08         0.85744E+06         0.00000E+00
    0.85744E+06        -0.49810E+08         0.00000E+00
    0.00000E+00         0.00000E+00        -0.22970E+08
 
   -0.23094E+08         0.84969E+06         0.00000E+00
    0.84969E+06        -0.50061E+08         0.00000E+00
    0.00000E+00         0.00000E+00        -0.23097E+08
 
   -0.23234E+08         0.84113E+06         0.00000E+00
    0.84113E+06        -0.50317E+08         0.00000E+00
    0.00000E+00         0.00000E+00        -0.23227E+08
 
   -0.23377E+08         0.83164E+06         0.00000E+00
    0.83164E+06        -0.50578E+08         0.00000E+00
    0.00000E+00         0.00000E+00        -0.23358E+08
 
   -0.23525E+08         0.82107E+06         0.00000E+00
    0.82107E+06        -0.50844E+08         0.00000E+00
    0.00000E+00         0.00000E+00        -0.23491E+08
 
   -0.23677E+08         0.80925E+06         0.00000E+00
    0.80925E+06        -0.51117E+08         0.00000E+00
    0.00000E+00         0.00000E+00        -0.23625E+08
 
   -0.23834E+08         0.79599E+06         0.00000E+00
    0.79599E+06        -0.51395E+08         0.00000E+00
    0.00000E+00         0.00000E+00        -0.23762E+08
 
   -0.23995E+08         0.78107E+06         0.00000E+00
    0.78107E+06        -0.51680E+08         0.00000E+00
    0.00000E+00         0.00000E+00        -0.23900E+08
 
   -0.24161E+08         0.76425E+06         0.00000E+00
    0.76425E+06        -0.51972E+08         0.00000E+00
    0.00000E+00         0.00000E+00        -0.24041E+08
 
   -0.24333E+08         0.74527E+06         0.00000E+00
    0.74527E+06        -0.52271E+08         0.00000E+00
    0.00000E+00         0.00000E+00        -0.24184E+08
 
   -0.24510E+08         0.72382E+06         0.00000E+00
    0.72382E+06        -0.52577E+08         0.00000E+00
    0.00000E+00         0.00000E+00        -0.24329E+08
 
   -0.24693E+08         0.69958E+06         0.00000E+00
    0.69958E+06        -0.52892E+08         0.00000E+00
    0.00000E+00         0.00000E+00        -0.24476E+08
 
   -0.24882E+08         0.67220E+06         0.00000E+00
    0.67220E+06        -0.53214E+08         0.00000E+00
    0.00000E+00         0.00000E+00        -0.24626E+08
 
   -0.25078E+08         0.64134E+06         0.00000E+00
    0.64134E+06        -0.53545E+08         0.00000E+00
    0.00000E+00         0.00000E+00        -0.24778E+08
 
   -0.25280E+08         0.60664E+06         0.00000E+00
    0.60664E+06        -0.53884E+08         0.00000E+00
    0.00000E+00         0.00000E+00        -0.24932E+08
 
   -0.25488E+08         0.56778E+06         0.00000E+00
    0.56778E+06        -0.54232E+08         0.00000E+00
    0.00000E+00         0.00000E+00        -0.25089E+08
 
   -0.25703E+08         0.52448E+06         0.00000E+00
    0.52448E+06        -0.54588E+08         0.00000E+00
    0.00000E+00         0.00000E+00        -0.25248E+08
 
   -0.25925E+08         0.47659E+06         0.00000E+00
    0.47659E+06        -0.54952E+08         0.00000E+00
    0.00000E+00         0.00000E+00        -0.25410E+08
 
   -0.26152E+08         0.42412E+06         0.00000E+00
    0.42412E+06        -0.55323E+08         0.00000E+00
    0.00000E+00         0.00000E+00        -0.25572E+08
 
   -0.26386E+08         0.36736E+06         0.00000E+00
    0.36736E+06        -0.55699E+08         0.00000E+00
    0.00000E+00         0.00000E+00        -0.25736E+08
 
   -0.26625E+08         0.30699E+06         0.00000E+00
    0.30699E+06        -0.56079E+08         0.00000E+00
    0.00000E+00         0.00000E+00        -0.25898E+08
 
   -0.26868E+08         0.24428E+06         0.00000E+00
    0.24428E+06        -0.56461E+08         0.00000E+00
    0.00000E+00         0.00000E+00        -0.26058E+08
 
   -0.27116E+08         0.18134E+06         0.00000E+00
    0.18134E+06        -0.56840E+08         0.00000E+00
    0.00000E+00         0.00000E+00        -0.26213E+08
 
   -0.27368E+08         0.12138E+06         0.00000E+00
    0.12138E+06        -0.57213E+08         0.00000E+00
    0.00000E+00         0.00000E+00        -0.26358E+08
 
   -0.27625E+08         0.68792E+05         0.00000E+00
    0.68792E+05        -0.57575E+08         0.00000E+00
    0.00000E+00         0.00000E+00        -0.26488E+08
 
   -0.27889E+08         0.28433E+05         0.00000E+00
    0.28433E+05        -0.57921E+08         0.00000E+00
    0.00000E+00         0.00000E+00        -0.26595E+08
 
   -0.28165E+08         0.38483E+04         0.00000E+00
    0.38483E+04        -0.58244E+08         0.00000E+00
    0.00000E+00         0.00000E+00        -0.26671E+08
 
   -0.28457E+08        -0.50456E+04         0.00000E+00
   -0.50456E+04        -0.58540E+08         0.00000E+00
    0.00000E+00         0.00000E+00        -0.26706E+08
 
   -0.28775E+08        -0.29391E+04         0.00000E+00
   -0.29391E+04        -0.58809E+08         0.00000E+00
    0.00000E+00         0.00000E+00        -0.26693E+08
 
   -0.10717E+08        -0.11371E+05         0.00000E+00
   -0.11371E+05        -0.28076E+08         0.00000E+00
    0.00000E+00         0.00000E+00        -0.14954E+08
 
   -0.11170E+08        -0.14392E+05         0.00000E+00
   -0.14392E+05        -0.28398E+08         0.00000E+00
    0.00000E+00         0.00000E+00        -0.14793E+08
 
   -0.11557E+08         0.31152E+05         0.00000E+00
    0.31152E+05        -0.28736E+08         0.00000E+00
    0.00000E+00         0.00000E+00        -0.14693E+08
 
   -0.11944E+08         0.10193E+06         0.00000E+00
    0.10193E+06        -0.29116E+08         0.00000E+00
    0.00000E+00         0.00000E+00        -0.14674E+08
 
   -0.12321E+08         0.18679E+06         0.00000E+00
    0.18679E+06        -0.29555E+08         0.00000E+00
    0.00000E+00         0.00000E+00        -0.14681E+08
 
   -0.12686E+08         0.29087E+06         0.00000E+00
    0.29087E+06        -0.30055E+08         0.00000E+00
    0.00000E+00         0.00000E+00        -0.14705E+08
 
   -0.13037E+08         0.39367E+06         0.00000E+00
    0.39367E+06        -0.30590E+08         0.00000E+00
    0.00000E+00         0.00000E+00        -0.14763E+08
 
   -0.13368E+08         0.48429E+06         0.00000E+00
    0.48429E+06        -0.31112E+08         0.00000E+00
    0.00000E+00         0.00000E+00        -0.14858E+08
 
   -0.13677E+08         0.56009E+06         0.00000E+00
    0.56009E+06        -0.31609E+08         0.00000E+00
    0.00000E+00         0.00000E+00        -0.14970E+08
 
   -0.13969E+08         0.63091E+06         0.00000E+00
    0.63091E+06        -0.32086E+08         0.00000E+00
    0.00000E+00         0.00000E+00        -0.15097E+08
 
   -0.14246E+08         0.69923E+06         0.00000E+00
    0.69923E+06        -0.32554E+08         0.00000E+00
    0.00000E+00         0.00000E+00        -0.15232E+08
 
   -0.14507E+08         0.76375E+06         0.00000E+00
    0.76375E+06        -0.33020E+08         0.00000E+00
    0.00000E+00         0.00000E+00        -0.15372E+08
 
   -0.14756E+08         0.82226E+06         0.00000E+00
    0.82226E+06        -0.33487E+08         0.00000E+00
    0.00000E+00         0.00000E+00        -0.15516E+08
 
   -0.14994E+08         0.87384E+06         0.00000E+00
    0.87384E+06        -0.33951E+08         0.00000E+00
    0.00000E+00         0.00000E+00        -0.15660E+08
 
   -0.15222E+08         0.91843E+06         0.00000E+00
    0.91843E+06        -0.34411E+08         0.00000E+00
    0.00000E+00         0.00000E+00        -0.15804E+08
 
   -0.15441E+08         0.95652E+06         0.00000E+00
    0.95652E+06        -0.34866E+08         0.00000E+00
    0.00000E+00         0.00000E+00        -0.15946E+08
 
   -0.15651E+08         0.98875E+06         0.00000E+00
    0.98875E+06        -0.35313E+08         0.00000E+00
    0.00000E+00         0.00000E+00        -0.16085E+08
 
   -0.15851E+08         0.10158E+07         0.00000E+00
    0.10158E+07        -0.35752E+08         0.00000E+00
    0.00000E+00         0.00000E+00        -0.16221E+08
 
   -0.16043E+08         0.10382E+07         0.00000E+00
    0.10382E+07        -0.36182E+08         0.00000E+00
    0.00000E+00         0.00000E+00        -0.16354E+08
 
   -0.16226E+08         0.10565E+07         0.00000E+00
    0.10565E+07        -0.36604E+08         0.00000E+00
    0.00000E+00         0.00000E+00        -0.16483E+08
 
   -0.16400E+08         0.10714E+07         0.00000E+00
    0.10714E+07        -0.37018E+08         0.00000E+00
    0.00000E+00         0.00000E+00        -0.16608E+08
 
   -0.16566E+08         0.10832E+07         0.00000E+00
    0.10832E+07        -0.37423E+08         0.00000E+00
    0.00000E+00         0.00000E+00        -0.16730E+08
 
   -0.16723E+08         0.10924E+07         0.00000E+00
    0.10924E+07        -0.37820E+08         0.00000E+00
    0.00000E+00         0.00000E+00        -0.16848E+08
 
   -0.16872E+08         0.10994E+07         0.00000E+00
    0.10994E+07        -0.38209E+08         0.00000E+00
    0.00000E+00         0.00000E+00        -0.16962E+08
 
   -0.17028E+08         0.11030E+07         0.00000E+00
    0.11030E+07        -0.38576E+08         0.00000E+00
    0.00000E+00         0.00000E+00        -0.17087E+08
 
   -0.17204E+08         0.11021E+07         0.00000E+00
    0.11021E+07        -0.38906E+08         0.00000E+00
    0.00000E+00         0.00000E+00        -0.17236E+08
 
   -0.17382E+08         0.10990E+07         0.00000E+00
    0.10990E+07        -0.39220E+08         0.00000E+00
    0.00000E+00         0.00000E+00        -0.17390E+08
 
   -0.17554E+08         0.10949E+07         0.00000E+00
    0.10949E+07        -0.39527E+08         0.00000E+00
    0.00000E+00         0.00000E+00        -0.17542E+08
 
   -0.17720E+08         0.10898E+07         0.00000E+00
    0.10898E+07        -0.39827E+08         0.00000E+00
    0.00000E+00         0.00000E+00        -0.17691E+08
 
   -0.17882E+08         0.10840E+07         0.00000E+00
    0.10840E+07        -0.40120E+08         0.00000E+00
    0.00000E+00         0.00000E+00        -0.17838E+08
 
   -0.18038E+08         0.10776E+07         0.00000E+00
    0.10776E+07        -0.40406E+08         0.00000E+00
    0.00000E+00         0.00000E+00        -0.17982E+08
 
   -0.18190E+08         0.10707E+07         0.00000E+00
    0.10707E+07        -0.40686E+08         0.00000E+00
    0.00000E+00         0.00000E+00        -0.18125E+08
 
   -0.18338E+08         0.10634E+07         0.00000E+00
    0.10634E+07        -0.40961E+08         0.00000E+00
    0.00000E+00         0.00000E+00        -0.18265E+08
 
   -0.18482E+08         0.10558E+07         0.00000E+00
    0.10558E+07        -0.41229E+08         0.00000E+00
    0.00000E+00         0.00000E+00        -0.18403E+08
 
   -0.18623E+08         0.10480E+07         0.00000E+00
    0.10480E+07        -0.41492E+08         0.00000E+00
    0.00000E+00         0.00000E+00        -0.18539E+08
 
   -0.18759E+08         0.10401E+07         0.00000E+00
    0.10401E+07        -0.41750E+08         0.00000E+00
    0.00000E+00         0.00000E+00        -0.18673E+08
 
   -0.18893E+08         0.10321E+07         0.00000E+00
    0.10321E+07        -0.42003E+08         0.00000E+00
    0.00000E+00         0.00000E+00        -0.18805E+08
 
   -0.19024E+08         0.10240E+07         0.00000E+00
    0.10240E+07        -0.42251E+08         0.00000E+00
    0.00000E+00         0.00000E+00        -0.18936E+08
 
   -0.19151E+08         0.10160E+07         0.00000E+00
    0.10160E+07        -0.42495E+08         0.00000E+00
    0.00000E+00         0.00000E+00        -0.19064E+08
 
   -0.19277E+08         0.10080E+07         0.00000E+00
    0.10080E+07        -0.42735E+08         0.00000E+00
    0.00000E+00         0.00000E+00        -0.19191E+08
 
   -0.19399E+08         0.10000E+07         0.00000E+00
    0.10000E+07        -0.42971E+08         0.00000E+00
    0.00000E+00         0.00000E+00        -0.19317E+08
 
   -0.19520E+08         0.99222E+06         0.00000E+00
    0.99222E+06        -0.43203E+08         0.00000E+00
    0.00000E+00         0.00000E+00        -0.19441E+08
 
   -0.19638E+08         0.98453E+06         0.00000E+00
    0.98453E+06        -0.43433E+08         0.00000E+00
    0.00000E+00         0.00000E+00        -0.19563E+08
 
   -0.19755E+08         0.97700E+06         0.00000E+00
    0.97700E+06        -0.43659E+08         0.00000E+00
    0.00000E+00         0.00000E+00        -0.19684E+08
 
   -0.19870E+08         0.96964E+06         0.00000E+00
    0.96964E+06        -0.43882E+08         0.00000E+00
    0.00000E+00         0.00000E+00        -0.19804E+08
 
   -0.19983E+08         0.96246E+06         0.00000E+00
    0.96246E+06        -0.44103E+08         0.00000E+00
    0.00000E+00         0.00000E+00        -0.19923E+08
 
   -0.20096E+08         0.95550E+06         0.00000E+00
    0.95550E+06        -0.44322E+08         0.00000E+00
    0.00000E+00         0.00000E+00        -0.20041E+08
 
   -0.20207E+08         0.94874E+06         0.00000E+00
    0.94874E+06        -0.44539E+08         0.00000E+00
    0.00000E+00         0.00000E+00        -0.20158E+08
 
   -0.20317E+08         0.94220E+06         0.00000E+00
    0.94220E+06        -0.44754E+08         0.00000E+00
    0.00000E+00         0.00000E+00        -0.20274E+08
 
   -0.20426E+08         0.93588E+06         0.00000E+00
    0.93588E+06        -0.44967E+08         0.00000E+00
    0.00000E+00         0.00000E+00        -0.20390E+08
 
   -0.20534E+08         0.92978E+06         0.00000E+00
    0.92978E+06        -0.45179E+08         0.00000E+00
    0.00000E+00         0.00000E+00        -0.20505E+08
 
   -0.20642E+08         0.92391E+06         0.00000E+00
    0.92391E+06        -0.45391E+08         0.00000E+00
    0.00000E+00         0.00000E+00        -0.20620E+08
 
   -0.20750E+08         0.91825E+06         0.00000E+00
    0.91825E+06        -0.45601E+08         0.00000E+00
    0.00000E+00         0.00000E+00        -0.20734E+08
 
   -0.20858E+08         0.91280E+06         0.00000E+00
    0.91280E+06        -0.45812E+08         0.00000E+00
    0.00000E+00         0.00000E+00        -0.20848E+08
 
   -0.20965E+08         0.90755E+06         0.00000E+00
    0.90755E+06        -0.46022E+08         0.00000E+00
    0.00000E+00         0.00000E+00        -0.20961E+08
 
   -0.21073E+08         0.90248E+06         0.00000E+00
    0.90248E+06        -0.46232E+08         0.00000E+00
    0.00000E+00         0.00000E+00        -0.21075E+08
 
   -0.21181E+08         0.89758E+06         0.00000E+00
    0.89758E+06        -0.46442E+08         0.00000E+00
    0.00000E+00         0.00000E+00        -0.21189E+08
 
   -0.21289E+08         0.89283E+06         0.00000E+00
    0.89283E+06        -0.46653E+08         0.00000E+00
    0.00000E+00         0.00000E+00        -0.21303E+08
 
   -0.21398E+08         0.88820E+06         0.00000E+00
    0.88820E+06        -0.46865E+08         0.00000E+00
    0.00000E+00         0.00000E+00        -0.21417E+08
 
   -0.21508E+08         0.88367E+06         0.00000E+00
    0.88367E+06        -0.47078E+08         0.00000E+00
    0.00000E+00         0.00000E+00        -0.21532E+08
 
   -0.21619E+08         0.87921E+06         0.00000E+00
    0.87921E+06        -0.47292E+08         0.00000E+00
    0.00000E+00         0.00000E+00        -0.21647E+08
 
   -0.21731E+08         0.87479E+06         0.00000E+00
    0.87479E+06        -0.47508E+08         0.00000E+00
    0.00000E+00         0.00000E+00        -0.21762E+08
 
   -0.21845E+08         0.87037E+06         0.00000E+00
    0.87037E+06        -0.47726E+08         0.00000E+00
    0.00000E+00         0.00000E+00        -0.21878E+08
 
   -0.21960E+08         0.86590E+06         0.00000E+00
    0.86590E+06        -0.47945E+08         0.00000E+00
    0.00000E+00         0.00000E+00        -0.21995E+08
 
   -0.22076E+08         0.86136E+06         0.00000E+00
    0.86136E+06        -0.48168E+08         0.00000E+00
    0.00000E+00         0.00000E+00        -0.22113E+08
 
   -0.22195E+08         0.85667E+06         0.00000E+00
    0.85667E+06        -0.48392E+08         0.00000E+00
    0.00000E+00         0.00000E+00        -0.22232E+08
 
   -0.22315E+08         0.85180E+06         0.00000E+00
    0.85180E+06        -0.48620E+08         0.00000E+00
    0.00000E+00         0.00000E+00        -0.22352E+08
 
   -0.22438E+08         0.84668E+06         0.00000E+00
    0.84668E+06        -0.48851E+08         0.00000E+00
    0.00000E+00         0.00000E+00        -0.22473E+08
 
   -0.22563E+08         0.84125E+06         0.00000E+00
    0.84125E+06        -0.49085E+08         0.00000E+00
    0.00000E+00         0.00000E+00        -0.22595E+08
 
   -0.22690E+08         0.83543E+06         0.00000E+00
    0.83543E+06        -0.49323E+08         0.00000E+00
    0.00000E+00         0.00000E+00        -0.22718E+08
 
   -0.22821E+08         0.82914E+06         0.00000E+00
    0.82914E+06        -0.49565E+08         0.00000E+00
    0.00000E+00         0.00000E+00        -0.22843E+08
 
   -0.22954E+08         0.82229E+06         0.00000E+00
    0.82229E+06        -0.49812E+08         0.00000E+00
    0.00000E+00         0.00000E+00        -0.22969E+08
 
   -0.23091E+08         0.81479E+06         0.00000E+00
    0.81479E+06        -0.50062E+08         0.00000E+00
    0.00000E+00         0.00000E+00        -0.23097E+08
 
   -0.23231E+08         0.80652E+06         0.00000E+00
    0.80652E+06        -0.50318E+08         0.00000E+00
    0.00000E+00         0.00000E+00        -0.23226E+08
 
   -0.23375E+08         0.79734E+06         0.00000E+00
    0.79734E+06        -0.50579E+08         0.00000E+00
    0.00000E+00         0.00000E+00        -0.23357E+08
 
   -0.23523E+08         0.78712E+06         0.00000E+00
    0.78712E+06        -0.50845E+08         0.00000E+00
    0.00000E+00         0.00000E+00        -0.23489E+08
 
   -0.23675E+08         0.77569E+06         0.00000E+00
    0.77569E+06        -0.51117E+08         0.00000E+00
    0.00000E+00         0.00000E+00        -0.23624E+08
 
   -0.23832E+08         0.76286E+06         0.00000E+00
    0.76286E+06        -0.51395E+08         0.00000E+00
    0.00000E+00         0.00000E+00        -0.23760E+08
 
   -0.23993E+08         0.74843E+06         0.00000E+00
    0.74843E+06        -0.51680E+08         0.00000E+00
    0.00000E+00         0.00000E+00        -0.23898E+08
 
   -0.24160E+08         0.73214E+06         0.00000E+00
    0.73214E+06        -0.51971E+08         0.00000E+00
    0.00000E+00         0.00000E+00        -0.24038E+08
 
   -0.24332E+08         0.71375E+06         0.00000E+00
    0.71375E+06        -0.52270E+08         0.00000E+00
    0.00000E+00         0.00000E+00        -0.24180E+08
 
   -0.24509E+08         0.69295E+06         0.00000E+00
    0.69295E+06        -0.52576E+08         0.00000E+00
    0.00000E+00         0.00000E+00        -0.24324E+08
 
   -0.24693E+08         0.66941E+06         0.00000E+00
    0.66941E+06        -0.52890E+08         0.00000E+00
    0.00000E+00         0.00000E+00        -0.24471E+08
 
   -0.24883E+08         0.64279E+06         0.00000E+00
    0.64279E+06        -0.53211E+08         0.00000E+00
    0.00000E+00         0.00000E+00        -0.24619E+08
 
   -0.25079E+08         0.61274E+06         0.00000E+00
    0.61274E+06        -0.53542E+08         0.00000E+00
    0.00000E+00         0.00000E+00        -0.24770E+08
 
   -0.25282E+08         0.57889E+06         0.00000E+00
    0.57889E+06        -0.53880E+08         0.00000E+00
    0.00000E+00         0.00000E+00        -0.24924E+08
 
   -0.25491E+08         0.54091E+06         0.00000E+00
    0.54091E+06        -0.54227E+08         0.00000E+00
    0.00000E+00         0.00000E+00        -0.25079E+08
 
   -0.25708E+08         0.49852E+06         0.00000E+00
    0.49852E+06        -0.54583E+08         0.00000E+00
    0.00000E+00         0.00000E+00        -0.25237E+08
 
   -0.25931E+08         0.45156E+06         0.00000E+00
    0.45156E+06        -0.54946E+08         0.00000E+00
    0.00000E+00         0.00000E+00        -0.25396E+08
 
   -0.26160E+08         0.40004E+06         0.00000E+00
    0.40004E+06        -0.55316E+08         0.00000E+00
    0.00000E+00         0.00000E+00        -0.25557E+08
 
   -0.26396E+08         0.34422E+06         0.00000E+00
    0.34422E+06        -0.55693E+08         0.00000E+00
    0.00000E+00         0.00000E+00        -0.25718E+08
 
   -0.26638E+08         0.28481E+06         0.00000E+00
    0.28481E+06        -0.56073E+08         0.00000E+00
    0.00000E+00         0.00000E+00        -0.25878E+08
 
   -0.26885E+08         0.22310E+06         0.00000E+00
    0.22310E+06        -0.56455E+08         0.00000E+00
    0.00000E+00         0.00000E+00        -0.26036E+08
 
   -0.27137E+08         0.16125E+06         0.00000E+00
    0.16125E+06        -0.56836E+08         0.00000E+00
    0.00000E+00         0.00000E+00        -0.26188E+08
 
   -0.27394E+08         0.10259E+06         0.00000E+00
    0.10259E+06        -0.57212E+08         0.00000E+00
    0.00000E+00         0.00000E+00        -0.26332E+08
 
   -0.27655E+08         0.51699E+05         0.00000E+00
    0.51699E+05        -0.57577E+08         0.00000E+00
    0.00000E+00         0.00000E+00        -0.26462E+08
 
   -0.27923E+08         0.13715E+05         0.00000E+00
    0.13715E+05        -0.57927E+08         0.00000E+00
    0.00000E+00         0.00000E+00        -0.26571E+08
 
   -0.28202E+08        -0.75806E+04         0.00000E+00
   -0.75806E+04        -0.58254E+08         0.00000E+00
    0.00000E+00         0.00000E+00        -0.26648E+08
 
   -0.28497E+08        -0.12291E+05         0.00000E+00
   -0.12291E+05        -0.58555E+08         0.00000E+00
    0.00000E+00         0.00000E+00        -0.26686E+08
 
   -0.28816E+08        -0.54166E+04         0.00000E+00
   -0.54166E+04        -0.58825E+08         0.00000E+00
    0.00000E+00         0.00000E+00        -0.26674E+08
 
   -0.10634E+08        -0.15897E+05         0.00000E+00
   -0.15897E+05        -0.28070E+08         0.00000E+00
    0.00000E+00         0.00000E+00        -0.14986E+08
 
   -0.11092E+08        -0.27910E+05         0.00000E+00
   -0.27910E+05        -0.28404E+08         0.00000E+00
    0.00000E+00         0.00000E+00        -0.14830E+08
 
   -0.11497E+08         0.73358E+04         0.00000E+00
    0.73358E+04        -0.28737E+08         0.00000E+00
    0.00000E+00         0.00000E+00        -0.14734E+08
 
   -0.11871E+08         0.78223E+05         0.00000E+00
    0.78223E+05        -0.29129E+08         0.00000E+00
    0.00000E+00         0.00000E+00        -0.14697E+08
 
   -0.12254E+08         0.16374E+06         0.00000E+00
    0.16374E+06        -0.29578E+08         0.00000E+00
    0.00000E+00         0.00000E+00        -0.14703E+08
 
   -0.12631E+08         0.26558E+06         0.00000E+00
    0.26558E+06        -0.30084E+08         0.00000E+00
    0.00000E+00         0.00000E+00        -0.14732E+08
 
   -0.12997E+08         0.36580E+06         0.00000E+00
    0.36580E+06        -0.30611E+08         0.00000E+00
    0.00000E+00         0.00000E+00        -0.14799E+08
 
   -0.13333E+08         0.45237E+06         0.00000E+00
    0.45237E+06        -0.31128E+08         0.00000E+00
    0.00000E+00         0.00000E+00        -0.14888E+08
 
   -0.13648E+08         0.52567E+06         0.00000E+00
    0.52567E+06        -0.31623E+08         0.00000E+00
    0.00000E+00         0.00000E+00        -0.14996E+08
 
   -0.13945E+08         0.59422E+06         0.00000E+00
    0.59422E+06        -0.32100E+08         0.00000E+00
    0.00000E+00         0.00000E+00        -0.15116E+08
 
   -0.14226E+08         0.66052E+06         0.00000E+00
    0.66052E+06        -0.32567E+08         0.00000E+00
    0.00000E+00         0.00000E+00        -0.15246E+08
 
   -0.14492E+08         0.72331E+06         0.00000E+00
    0.72331E+06        -0.33033E+08         0.00000E+00
    0.00000E+00         0.00000E+00        -0.15382E+08
 
   -0.14744E+08         0.78059E+06         0.00000E+00
    0.78059E+06        -0.33497E+08         0.00000E+00
    0.00000E+00         0.00000E+00        -0.15522E+08
 
   -0.14984E+08         0.83128E+06         0.00000E+00
    0.83128E+06        -0.33960E+08         0.00000E+00
    0.00000E+00         0.00000E+00        -0.15662E+08
 
   -0.15213E+08         0.87521E+06         0.00000E+00
    0.87521E+06        -0.34419E+08         0.00000E+00
    0.00000E+00         0.00000E+00        -0.15803E+08
 
   -0.15433E+08         0.91276E+06         0.00000E+00
    0.91276E+06        -0.34873E+08         0.00000E+00
    0.00000E+00         0.00000E+00        -0.15942E+08
 
   -0.15643E+08         0.94449E+06         0.00000E+00
    0.94449E+06        -0.35319E+08         0.00000E+00
    0.00000E+00         0.00000E+00        -0.16080E+08
 
   -0.15844E+08         0.97103E+06         0.00000E+00
    0.97103E+06        -0.35757E+08         0.00000E+00
    0.00000E+00         0.00000E+00        -0.16214E+08
 
   -0.16037E+08         0.99298E+06         0.00000E+00
    0.99298E+06        -0.36186E+08         0.00000E+00
    0.00000E+00         0.00000E+00        -0.16346E+08
 
   -0.16220E+08         0.10109E+07         0.00000E+00
    0.10109E+07        -0.36608E+08         0.00000E+00
    0.00000E+00         0.00000E+00        -0.16474E+08
 
   -0.16394E+08         0.10254E+07         0.00000E+00
    0.10254E+07        -0.37021E+08         0.00000E+00
    0.00000E+00         0.00000E+00        -0.16599E+08
 
   -0.16560E+08         0.10368E+07         0.00000E+00
    0.10368E+07        -0.37425E+08         0.00000E+00
    0.00000E+00         0.00000E+00        -0.16720E+08
 
   -0.16717E+08         0.10457E+07         0.00000E+00
    0.10457E+07        -0.37822E+08         0.00000E+00
    0.00000E+00         0.00000E+00        -0.16837E+08
 
   -0.16867E+08         0.10524E+07         0.00000E+00
    0.10524E+07        -0.38211E+08         0.00000E+00
    0.00000E+00         0.00000E+00        -0.16951E+08
 
   -0.17024E+08         0.10558E+07         0.00000E+00
    0.10558E+07        -0.38576E+08         0.00000E+00
    0.00000E+00         0.00000E+00        -0.17077E+08
 
   -0.17202E+08         0.10548E+07         0.00000E+00
    0.10548E+07        -0.38904E+08         0.00000E+00
    0.00000E+00         0.00000E+00        -0.17227E+08
 
   -0.17379E+08         0.10519E+07         0.00000E+00
    0.10519E+07        -0.39219E+08         0.00000E+00
    0.00000E+00         0.00000E+00        -0.17381E+08
 
   -0.17551E+08         0.10479E+07         0.00000E+00
    0.10479E+07        -0.39526E+08         0.00000E+00
    0.00000E+00         0.00000E+00        -0.17533E+08
 
   -0.17718E+08         0.10430E+07         0.00000E+00
    0.10430E+07        -0.39826E+08         0.00000E+00
    0.00000E+00         0.00000E+00        -0.17682E+08
 
   -0.17879E+08         0.10375E+07         0.00000E+00
    0.10375E+07        -0.40118E+08         0.00000E+00
    0.00000E+00         0.00000E+00        -0.17829E+08
 
   -0.18036E+08         0.10314E+07         0.00000E+00
    0.10314E+07        -0.40405E+08         0.00000E+00
    0.00000E+00         0.00000E+00        -0.17974E+08
 
   -0.18188E+08         0.10248E+07         0.00000E+00
    0.10248E+07        -0.40685E+08         0.00000E+00
    0.00000E+00         0.00000E+00        -0.18117E+08
 
   -0.18336E+08         0.10179E+07         0.00000E+00
    0.10179E+07        -0.40959E+08         0.00000E+00
    0.00000E+00         0.00000E+00        -0.18257E+08
 
   -0.18480E+08         0.10106E+07         0.00000E+00
    0.10106E+07        -0.41228E+08         0.00000E+00
    0.00000E+00         0.00000E+00        -0.18395E+08
 
   -0.18621E+08         0.10032E+07         0.00000E+00
    0.10032E+07        -0.41491E+08         0.00000E+00
    0.00000E+00         0.00000E+00        -0.18532E+08
 
   -0.18758E+08         0.99571E+06         0.00000E+00
    0.99571E+06        -0.41749E+08         0.00000E+00
    0.00000E+00         0.00000E+00        -0.18666E+08
 
   -0.18891E+08         0.98808E+06         0.00000E+00
    0.98808E+06        -0.42002E+08         0.00000E+00
    0.00000E+00         0.00000E+00        -0.18799E+08
 
   -0.19022E+08         0.98042E+06         0.00000E+00
    0.98042E+06        -0.42250E+08         0.00000E+00
    0.00000E+00         0.00000E+00        -0.18929E+08
 
   -0.19150E+08         0.97276E+06         0.00000E+00
    0.97276E+06        -0.42494E+08         0.00000E+00
    0.00000E+00         0.00000E+00        -0.19058E+08
 
   -0.19275E+08         0.96515E+06         0.00000E+00
    0.96515E+06        -0.42734E+08         0.00000E+00
    0.00000E+00         0.00000E+00        -0.19185E+08
 
   -0.19398E+08         0.95760E+06         0.00000E+00
    0.95760E+06        -0.42970E+08         0.00000E+00
    0.00000E+00         0.00000E+00        -0.19311E+08
 
   -0.19518E+08         0.95016E+06         0.00000E+00
    0.95016E+06        -0.43203E+08         0.00000E+00
    0.00000E+00         0.00000E+00        -0.19435E+08
 
   -0.19637E+08         0.94284E+06         0.00000E+00
    0.94284E+06        -0.43432E+08         0.00000E+00
    0.00000E+00         0.00000E+00        -0.19558E+08
 
   -0.19753E+08         0.93566E+06         0.00000E+00
    0.93566E+06        -0.43659E+08         0.00000E+00
    0.00000E+00         0.00000E+00        -0.19679E+08
 
   -0.19868E+08         0.92865E+06         0.00000E+00
    0.92865E+06        -0.43882E+08         0.00000E+00
    0.00000E+00         0.00000E+00        -0.19800E+08
 
   -0.19982E+08         0.92181E+06         0.00000E+00
    0.92181E+06        -0.44103E+08         0.00000E+00
    0.00000E+00         0.00000E+00        -0.19919E+08
 
   -0.20094E+08         0.91517E+06         0.00000E+00
    0.91517E+06        -0.44322E+08         0.00000E+00
    0.00000E+00         0.00000E+00        -0.20037E+08
 
   -0.20205E+08         0.90872E+06         0.00000E+00
    0.90872E+06        -0.44539E+08         0.00000E+00
    0.00000E+00         0.00000E+00        -0.20154E+08
 
   -0.20315E+08         0.90248E+06         0.00000E+00
    0.90248E+06        -0.44754E+08         0.00000E+00
    0.00000E+00         0.00000E+00        -0.20271E+08
 
   -0.20424E+08         0.89645E+06         0.00000E+00
    0.89645E+06        -0.44968E+08         0.00000E+00
    0.00000E+00         0.00000E+00        -0.20387E+08
 
   -0.20532E+08         0.89062E+06         0.00000E+00
    0.89062E+06        -0.45180E+08         0.00000E+00
    0.00000E+00         0.00000E+00        -0.20502E+08
 
   -0.20640E+08         0.88501E+06         0.00000E+00
    0.88501E+06        -0.45391E+08         0.00000E+00
    0.00000E+00         0.00000E+00        -0.20617E+08
 
   -0.20748E+08         0.87959E+06         0.00000E+00
    0.87959E+06        -0.45602E+08         0.00000E+00
    0.00000E+00         0.00000E+00        -0.20731E+08
 
   -0.20855E+08         0.87438E+06         0.00000E+00
    0.87438E+06        -0.45812E+08         0.00000E+00
    0.00000E+00         0.00000E+00        -0.20845E+08
 
   -0.20963E+08         0.86935E+06         0.00000E+00
    0.86935E+06        -0.46023E+08         0.00000E+00
    0.00000E+00         0.00000E+00        -0.20959E+08
 
   -0.21070E+08         0.86449E+06         0.00000E+00
    0.86449E+06        -0.46233E+08         0.00000E+00
    0.00000E+00         0.00000E+00        -0.21073E+08
 
   -0.21178E+08         0.85979E+06         0.00000E+00
    0.85979E+06        -0.46443E+08         0.00000E+00
    0.00000E+00         0.00000E+00        -0.21187E+08
 
   -0.21287E+08         0.85523E+06         0.00000E+00
    0.85523E+06        -0.46654E+08         0.00000E+00
    0.00000E+00         0.00000E+00        -0.21301E+08
 
   -0.21396E+08         0.85078E+06         0.00000E+00
    0.85078E+06        -0.46866E+08         0.00000E+00
    0.00000E+00         0.00000E+00        -0.21416E+08
 
   -0.21506E+08         0.84642E+06         0.00000E+00
    0.84642E+06        -0.47079E+08         0.00000E+00
    0.00000E+00         0.00000E+00        -0.21530E+08
 
   -0.21616E+08         0.84213E+06         0.00000E+00
    0.84213E+06        -0.47293E+08         0.00000E+00
    0.00000E+00         0.00000E+00        -0.21645E+08
 
   -0.21729E+08         0.83787E+06         0.00000E+00
    0.83787E+06        -0.47509E+08         0.00000E+00
    0.00000E+00         0.00000E+00        -0.21761E+08
 
   -0.21842E+08         0.83360E+06         0.00000E+00
    0.83360E+06        -0.47727E+08         0.00000E+00
    0.00000E+00         0.00000E+00        -0.21878E+08
 
   -0.21957E+08         0.82930E+06         0.00000E+00
    0.82930E+06        -0.47947E+08         0.00000E+00
    0.00000E+00         0.00000E+00        -0.21995E+08
 
   -0.22073E+08         0.82491E+06         0.00000E+00
    0.82491E+06        -0.48169E+08         0.00000E+00
    0.00000E+00         0.00000E+00        -0.22113E+08
 
   -0.22192E+08         0.82038E+06         0.00000E+00
    0.82038E+06        -0.48394E+08         0.00000E+00
    0.00000E+00         0.00000E+00        -0.22231E+08
 
   -0.22312E+08         0.81567E+06         0.00000E+00
    0.81567E+06        -0.48621E+08         0.00000E+00
    0.00000E+00         0.00000E+00        -0.22351E+08
 
   -0.22435E+08         0.81073E+06         0.00000E+00
    0.81073E+06        -0.48852E+08         0.00000E+00
    0.00000E+00         0.00000E+00        -0.22472E+08
 
   -0.22560E+08         0.80548E+06         0.00000E+00
    0.80548E+06        -0.49087E+08         0.00000E+00
    0.00000E+00         0.00000E+00        -0.22594E+08
 
   -0.22687E+08         0.79985E+06         0.00000E+00
    0.79985E+06        -0.49325E+08         0.00000E+00
    0.00000E+00         0.00000E+00        -0.22718E+08
 
   -0.22818E+08         0.79377E+06         0.00000E+00
    0.79377E+06        -0.49566E+08         0.00000E+00
    0.00000E+00         0.00000E+00        -0.22842E+08
 
   -0.22952E+08         0.78716E+06         0.00000E+00
    0.78716E+06        -0.49813E+08         0.00000E+00
    0.00000E+00         0.00000E+00        -0.22968E+08
 
   -0.23088E+08         0.77991E+06         0.00000E+00
    0.77991E+06        -0.50063E+08         0.00000E+00
    0.00000E+00         0.00000E+00        -0.23096E+08
 
   -0.23229E+08         0.77192E+06         0.00000E+00
    0.77192E+06        -0.50319E+08         0.00000E+00
    0.00000E+00         0.00000E+00        -0.23225E+08
 
   -0.23373E+08         0.76307E+06         0.00000E+00
    0.76307E+06        -0.50580E+08         0.00000E+00
    0.00000E+00         0.00000E+00        -0.23356E+08
 
   -0.23521E+08         0.75320E+06         0.00000E+00
    0.75320E+06        -0.50846E+08         0.00000E+00
    0.00000E+00         0.00000E+00        -0.23488E+08
 
   -0.23673E+08         0.74217E+06         0.00000E+00
    0.74217E+06        -0.51117E+08         0.00000E+00
    0.00000E+00         0.00000E+00        -0.23622E+08
 
   -0.23830E+08         0.72978E+06         0.00000E+00
    0.72978E+06        -0.51395E+08         0.00000E+00
    0.00000E+00         0.00000E+00        -0.23758E+08
 
   -0.23992E+08         0.71584E+06         0.00000E+00
    0.71584E+06        -0.51680E+08         0.00000E+00
    0.00000E+00         0.00000E+00        -0.23896E+08
 
   -0.24158E+08         0.70011E+06         0.00000E+00
    0.70011E+06        -0.51971E+08         0.00000E+00
    0.00000E+00         0.00000E+00        -0.24035E+08
 
   -0.24331E+08         0.68232E+06         0.00000E+00
    0.68232E+06        -0.52269E+08         0.00000E+00
    0.00000E+00         0.00000E+00        -0.24177E+08
 
   -0.24509E+08         0.66218E+06         0.00000E+00
    0.66218E+06        -0.52574E+08         0.00000E+00
    0.00000E+00         0.00000E+00        -0.24320E+08
 
   -0.24693E+08         0.63937E+06         0.00000E+00
    0.63937E+06        -0.52888E+08         0.00000E+00
    0.00000E+00         0.00000E+00        -0.24466E+08
 
   -0.24883E+08         0.61354E+06         0.00000E+00
    0.61354E+06        -0.53209E+08         0.00000E+00
    0.00000E+00         0.00000E+00        -0.24614E+08
 
   -0.25080E+08         0.58433E+06         0.00000E+00
    0.58433E+06        -0.53538E+08         0.00000E+00
    0.00000E+00         0.00000E+00        -0.24763E+08
 
   -0.25284E+08         0.55137E+06         0.00000E+00
    0.55137E+06        -0.53877E+08         0.00000E+00
    0.00000E+00         0.00000E+00        -0.24915E+08
 
   -0.25494E+08         0.51433E+06         0.00000E+00
    0.51433E+06        -0.54223E+08         0.00000E+00
    0.00000E+00         0.00000E+00        -0.25069E+08
 
   -0.25712E+08         0.47293E+06         0.00000E+00
    0.47293E+06        -0.54578E+08         0.00000E+00
    0.00000E+00         0.00000E+00        -0.25225E+08
 
   -0.25937E+08         0.42698E+06         0.00000E+00
    0.42698E+06        -0.54940E+08         0.00000E+00
    0.00000E+00         0.00000E+00        -0.25383E+08
 
   -0.26169E+08         0.37648E+06         0.00000E+00
    0.37648E+06        -0.55310E+08         0.00000E+00
    0.00000E+00         0.00000E+00        -0.25541E+08
 
   -0.26407E+08         0.32172E+06         0.00000E+00
    0.32172E+06        -0.55686E+08         0.00000E+00
    0.00000E+00         0.00000E+00        -0.25700E+08
 
   -0.26652E+08         0.26339E+06         0.00000E+00
    0.26339E+06        -0.56067E+08         0.00000E+00
    0.00000E+00         0.00000E+00        -0.25858E+08
 
   -0.26902E+08         0.20279E+06         0.00000E+00
    0.20279E+06        -0.56450E+08         0.00000E+00
    0.00000E+00         0.00000E+00        -0.26013E+08
 
   -0.27158E+08         0.14212E+06         0.00000E+00
    0.14212E+06        -0.56832E+08         0.00000E+00
    0.00000E+00         0.00000E+00        -0.26164E+08
 
   -0.27419E+08         0.84781E+05         0.00000E+00
    0.84781E+05        -0.57211E+08         0.00000E+00
    0.00000E+00         0.00000E+00        -0.26307E+08
 
   -0.27686E+08         0.35496E+05         0.00000E+00
    0.35496E+05        -0.57580E+08         0.00000E+00
    0.00000E+00         0.00000E+00        -0.26436E+08
 
   -0.27958E+08        -0.31719E+03         0.00000E+00
   -0.31719E+03        -0.57934E+08         0.00000E+00
    0.00000E+00         0.00000E+00        -0.26546E+08
 
   -0.28240E+08        -0.18585E+05         0.00000E+00
   -0.18585E+05        -0.58266E+08         0.00000E+00
    0.00000E+00         0.00000E+00        -0.26626E+08
 
   -0.28537E+08        -0.19335E+05         0.00000E+00
   -0.19335E+05        -0.58571E+08         0.00000E+00
    0.00000E+00         0.00000E+00        -0.26666E+08
 
   -0.28857E+08        -0.78390E+04         0.00000E+00
   -0.78390E+04        -0.58843E+08         0.00000E+00
    0.00000E+00         0.00000E+00        -0.26656E+08
 
   -0.10553E+08        -0.19588E+05         0.00000E+00
   -0.19588E+05        -0.28063E+08         0.00000E+00
    0.00000E+00         0.00000E+00        -0.15017E+08
 
   -0.11016E+08        -0.39909E+05         0.00000E+00
   -0.39909E+05        -0.28405E+08         0.00000E+00
    0.00000E+00         0.00000E+00        -0.14866E+08
 
   -0.11435E+08        -0.14028E+05         0.00000E+00
   -0.14028E+05        -0.28747E+08         0.00000E+00
    0.00000E+00         0.00000E+00        -0.14775E+08
 
   -0.11820E+08         0.53756E+05         0.00000E+00
    0.53756E+05        -0.29141E+08         0.00000E+00
    0.00000E+00         0.00000E+00        -0.14736E+08
 
   -0.12205E+08         0.14267E+06         0.00000E+00
    0.14267E+06        -0.29601E+08         0.00000E+00
    0.00000E+00         0.00000E+00        -0.14738E+08
 
   -0.12592E+08         0.24239E+06         0.00000E+00
    0.24239E+06        -0.30106E+08         0.00000E+00
    0.00000E+00         0.00000E+00        -0.14773E+08
 
   -0.12958E+08         0.33915E+06         0.00000E+00
    0.33915E+06        -0.30629E+08         0.00000E+00
    0.00000E+00         0.00000E+00        -0.14835E+08
 
   -0.13299E+08         0.42149E+06         0.00000E+00
    0.42149E+06        -0.31143E+08         0.00000E+00
    0.00000E+00         0.00000E+00        -0.14919E+08
 
   -0.13620E+08         0.49236E+06         0.00000E+00
    0.49236E+06        -0.31637E+08         0.00000E+00
    0.00000E+00         0.00000E+00        -0.15021E+08
 
   -0.13922E+08         0.55851E+06         0.00000E+00
    0.55851E+06        -0.32113E+08         0.00000E+00
    0.00000E+00         0.00000E+00        -0.15136E+08
 
   -0.14208E+08         0.62261E+06         0.00000E+00
    0.62261E+06        -0.32580E+08         0.00000E+00
    0.00000E+00         0.00000E+00        -0.15260E+08
 
   -0.14477E+08         0.68353E+06         0.00000E+00
    0.68353E+06        -0.33045E+08         0.00000E+00
    0.00000E+00         0.00000E+00        -0.15392E+08
 
   -0.14731E+08         0.73940E+06         0.00000E+00
    0.73940E+06        -0.33508E+08         0.00000E+00
    0.00000E+00         0.00000E+00        -0.15527E+08
 
   -0.14974E+08         0.78907E+06         0.00000E+00
    0.78907E+06        -0.33970E+08         0.00000E+00
    0.00000E+00         0.00000E+00        -0.15664E+08
 
   -0.15205E+08         0.83224E+06         0.00000E+00
    0.83224E+06        -0.34427E+08         0.00000E+00
    0.00000E+00         0.00000E+00        -0.15802E+08
 
   -0.15425E+08         0.86917E+06         0.00000E+00
    0.86917E+06        -0.34879E+08         0.00000E+00
    0.00000E+00         0.00000E+00        -0.15939E+08
 
   -0.15637E+08         0.90035E+06         0.00000E+00
    0.90035E+06        -0.35324E+08         0.00000E+00
    0.00000E+00         0.00000E+00        -0.16074E+08
 
   -0.15838E+08         0.92638E+06         0.00000E+00
    0.92638E+06        -0.35762E+08         0.00000E+00
    0.00000E+00         0.00000E+00        -0.16207E+08
 
   -0.16031E+08         0.94785E+06         0.00000E+00
    0.94785E+06        -0.36190E+08         0.00000E+00
    0.00000E+00         0.00000E+00        -0.16338E+08
 
   -0.16214E+08         0.96535E+06         0.00000E+00
    0.96535E+06        -0.36611E+08         0.00000E+00
    0.00000E+00         0.00000E+00        -0.16465E+08
 
   -0.16389E+08         0.97939E+06         0.00000E+00
    0.97939E+06        -0.37023E+08         0.00000E+00
    0.00000E+00         0.00000E+00        -0.16589E+08
 
   -0.16555E+08         0.99048E+06         0.00000E+00
    0.99048E+06        -0.37427E+08         0.00000E+00
    0.00000E+00         0.00000E+00        -0.16710E+08
 
   -0.16712E+08         0.99905E+06         0.00000E+00
    0.99905E+06        -0.37823E+08         0.00000E+00
    0.00000E+00         0.00000E+00        -0.16827E+08
 
   -0.16862E+08         0.10055E+07         0.00000E+00
    0.10055E+07        -0.38212E+08         0.00000E+00
    0.00000E+00         0.00000E+00        -0.16941E+08
 
   -0.17020E+08         0.10086E+07         0.00000E+00
    0.10086E+07        -0.38576E+08         0.00000E+00
    0.00000E+00         0.00000E+00        -0.17067E+08
 
   -0.17199E+08         0.10075E+07         0.00000E+00
    0.10075E+07        -0.38903E+08         0.00000E+00
    0.00000E+00         0.00000E+00        -0.17219E+08
 
   -0.17377E+08         0.10048E+07         0.00000E+00
    0.10048E+07        -0.39217E+08         0.00000E+00
    0.00000E+00         0.00000E+00        -0.17373E+08
 
   -0.17549E+08         0.10010E+07         0.00000E+00
    0.10010E+07        -0.39524E+08         0.00000E+00
    0.00000E+00         0.00000E+00        -0.17524E+08
 
   -0.17716E+08         0.99636E+06         0.00000E+00
    0.99636E+06        -0.39824E+08         0.00000E+00
    0.00000E+00         0.00000E+00        -0.17674E+08
 
   -0.17877E+08         0.99107E+06         0.00000E+00
    0.99107E+06        -0.40117E+08         0.00000E+00
    0.00000E+00         0.00000E+00        -0.17821E+08
 
   -0.18034E+08         0.98525E+06         0.00000E+00
    0.98525E+06        -0.40403E+08         0.00000E+00
    0.00000E+00         0.00000E+00        -0.17966E+08
 
   -0.18186E+08         0.97899E+06         0.00000E+00
    0.97899E+06        -0.40684E+08         0.00000E+00
    0.00000E+00         0.00000E+00        -0.18109E+08
 
   -0.18335E+08         0.97240E+06         0.00000E+00
    0.97240E+06        -0.40958E+08         0.00000E+00
    0.00000E+00         0.00000E+00        -0.18249E+08
 
   -0.18479E+08         0.96556E+06         0.00000E+00
    0.96556E+06        -0.41227E+08         0.00000E+00
    0.00000E+00         0.00000E+00        -0.18388E+08
 
   -0.18619E+08         0.95853E+06         0.00000E+00
    0.95853E+06        -0.41490E+08         0.00000E+00
    0.00000E+00         0.00000E+00        -0.18524E+08
 
   -0.18756E+08         0.95137E+06         0.00000E+00
    0.95137E+06        -0.41748E+08         0.00000E+00
    0.00000E+00         0.00000E+00        -0.18659E+08
 
   -0.18890E+08         0.94413E+06         0.00000E+00
    0.94413E+06        -0.42001E+08         0.00000E+00
    0.00000E+00         0.00000E+00        -0.18792E+08
 
   -0.19020E+08         0.93685E+06         0.00000E+00
    0.93685E+06        -0.42250E+08         0.00000E+00
    0.00000E+00         0.00000E+00        -0.18923E+08
 
   -0.19148E+08         0.92958E+06         0.00000E+00
    0.92958E+06        -0.42494E+08         0.00000E+00
    0.00000E+00         0.00000E+00        -0.19052E+08
 
   -0.19273E+08         0.92235E+06         0.00000E+00
    0.92235E+06        -0.42734E+08         0.00000E+00
    0.00000E+00         0.00000E+00        -0.19179E+08
 
   -0.19396E+08         0.91518E+06         0.00000E+00
    0.91518E+06        -0.42970E+08         0.00000E+00
    0.00000E+00         0.00000E+00        -0.19305E+08
 
   -0.19517E+08         0.90811E+06         0.00000E+00
    0.90811E+06        -0.43203E+08         0.00000E+00
    0.00000E+00         0.00000E+00        -0.19430E+08
 
   -0.19635E+08         0.90115E+06         0.00000E+00
    0.90115E+06        -0.43432E+08         0.00000E+00
    0.00000E+00         0.00000E+00        -0.19553E+08
 
   -0.19752E+08         0.89433E+06         0.00000E+00
    0.89433E+06        -0.43659E+08         0.00000E+00
    0.00000E+00         0.00000E+00        -0.19674E+08
 
   -0.19867E+08         0.88766E+06         0.00000E+00
    0.88766E+06        -0.43882E+08         0.00000E+00
    0.00000E+00         0.00000E+00        -0.19795E+08
 
   -0.19980E+08         0.88116E+06         0.00000E+00
    0.88116E+06        -0.44104E+08         0.00000E+00
    0.00000E+00         0.00000E+00        -0.19914E+08
 
   -0.20092E+08         0.87483E+06         0.00000E+00
    0.87483E+06        -0.44322E+08         0.00000E+00
    0.00000E+00         0.00000E+00        -0.20033E+08
 
   -0.20203E+08         0.86869E+06         0.00000E+00
    0.86869E+06        -0.44539E+08         0.00000E+00
    0.00000E+00         0.00000E+00        -0.20150E+08
 
   -0.20313E+08         0.86275E+06         0.00000E+00
    0.86275E+06        -0.44755E+08         0.00000E+00
    0.00000E+00         0.00000E+00        -0.20267E+08
 
   -0.20422E+08         0.85699E+06         0.00000E+00
    0.85699E+06        -0.44968E+08         0.00000E+00
    0.00000E+00         0.00000E+00        -0.20383E+08
 
   -0.20530E+08         0.85144E+06         0.00000E+00
    0.85144E+06        -0.45181E+08         0.00000E+00
    0.00000E+00         0.00000E+00        -0.20499E+08
 
   -0.20638E+08         0.84608E+06         0.00000E+00
    0.84608E+06        -0.45392E+08         0.00000E+00
    0.00000E+00         0.00000E+00        -0.20614E+08
 
   -0.20746E+08         0.84091E+06         0.00000E+00
    0.84091E+06        -0.45603E+08         0.00000E+00
    0.00000E+00         0.00000E+00        -0.20728E+08
 
   -0.20853E+08         0.83593E+06         0.00000E+00
    0.83593E+06        -0.45813E+08         0.00000E+00
    0.00000E+00         0.00000E+00        -0.20843E+08
 
   -0.20960E+08         0.83112E+06         0.00000E+00
    0.83112E+06        -0.46023E+08         0.00000E+00
    0.00000E+00         0.00000E+00        -0.20957E+08
 
   -0.21068E+08         0.82647E+06         0.00000E+00
    0.82647E+06        -0.46234E+08         0.00000E+00
    0.00000E+00         0.00000E+00        -0.21071E+08
 
   -0.21176E+08         0.82197E+06         0.00000E+00
    0.82197E+06        -0.46444E+08         0.00000E+00
    0.00000E+00         0.00000E+00        -0.21185E+08
 
   -0.21284E+08         0.81760E+06         0.00000E+00
    0.81760E+06        -0.46655E+08         0.00000E+00
    0.00000E+00         0.00000E+00        -0.21300E+08
 
   -0.21393E+08         0.81333E+06         0.00000E+00
    0.81333E+06        -0.46867E+08         0.00000E+00
    0.00000E+00         0.00000E+00        -0.21414E+08
 
   -0.21503E+08         0.80915E+06         0.00000E+00
    0.80915E+06        -0.47080E+08         0.00000E+00
    0.00000E+00         0.00000E+00        -0.21529E+08
 
   -0.21614E+08         0.80503E+06         0.00000E+00
    0.80503E+06        -0.47294E+08         0.00000E+00
    0.00000E+00         0.00000E+00        -0.21644E+08
 
   -0.21726E+08         0.80093E+06         0.00000E+00
    0.80093E+06        -0.47510E+08         0.00000E+00
    0.00000E+00         0.00000E+00        -0.21760E+08
 
   -0.21839E+08         0.79682E+06         0.00000E+00
    0.79682E+06        -0.47728E+08         0.00000E+00
    0.00000E+00         0.00000E+00        -0.21877E+08
 
   -0.21954E+08         0.79268E+06         0.00000E+00
    0.79268E+06        -0.47948E+08         0.00000E+00
    0.00000E+00         0.00000E+00        -0.21994E+08
 
   -0.22070E+08         0.78844E+06         0.00000E+00
    0.78844E+06        -0.48170E+08         0.00000E+00
    0.00000E+00         0.00000E+00        -0.22112E+08
 
   -0.22189E+08         0.78408E+06         0.00000E+00
    0.78408E+06        -0.48395E+08         0.00000E+00
    0.00000E+00         0.00000E+00        -0.22231E+08
 
   -0.22309E+08         0.77954E+06         0.00000E+00
    0.77954E+06        -0.48623E+08         0.00000E+00
    0.00000E+00         0.00000E+00        -0.22351E+08
 
   -0.22432E+08         0.77477E+06         0.00000E+00
    0.77477E+06        -0.48853E+08         0.00000E+00
    0.00000E+00         0.00000E+00        -0.22472E+08
 
   -0.22557E+08         0.76970E+06         0.00000E+00
    0.76970E+06        -0.49088E+08         0.00000E+00
    0.00000E+00         0.00000E+00        -0.22594E+08
 
   -0.22685E+08         0.76428E+06         0.00000E+00
    0.76428E+06        -0.49326E+08         0.00000E+00
    0.00000E+00         0.00000E+00        -0.22717E+08
 
   -0.22815E+08         0.75842E+06         0.00000E+00
    0.75842E+06        -0.49568E+08         0.00000E+00
    0.00000E+00         0.00000E+00        -0.22842E+08
 
   -0.22949E+08         0.75204E+06         0.00000E+00
    0.75204E+06        -0.49814E+08         0.00000E+00
    0.00000E+00         0.00000E+00        -0.22968E+08
 
   -0.23086E+08         0.74506E+06         0.00000E+00
    0.74506E+06        -0.50064E+08         0.00000E+00
    0.00000E+00         0.00000E+00        -0.23096E+08
 
   -0.23226E+08         0.73736E+06         0.00000E+00
    0.73736E+06        -0.50320E+08         0.00000E+00
    0.00000E+00         0.00000E+00        -0.23224E+08
 
   -0.23370E+08         0.72882E+06         0.00000E+00
    0.72882E+06        -0.50580E+08         0.00000E+00
    0.00000E+00         0.00000E+00        -0.23355E+08
 
   -0.23519E+08         0.71932E+06         0.00000E+00
    0.71932E+06        -0.50846E+08         0.00000E+00
    0.00000E+00         0.00000E+00        -0.23487E+08
 
   -0.23671E+08         0.70869E+06         0.00000E+00
    0.70869E+06        -0.51118E+08         0.00000E+00
    0.00000E+00         0.00000E+00        -0.23621E+08
 
   -0.23828E+08         0.69675E+06         0.00000E+00
    0.69675E+06        -0.51395E+08         0.00000E+00
    0.00000E+00         0.00000E+00        -0.23756E+08
 
   -0.23990E+08         0.68332E+06         0.00000E+00
    0.68332E+06        -0.51679E+08         0.00000E+00
    0.00000E+00         0.00000E+00        -0.23894E+08
 
   -0.24157E+08         0.66814E+06         0.00000E+00
    0.66814E+06        -0.51970E+08         0.00000E+00
    0.00000E+00         0.00000E+00        -0.24033E+08
 
   -0.24330E+08         0.65098E+06         0.00000E+00
    0.65098E+06        -0.52268E+08         0.00000E+00
    0.00000E+00         0.00000E+00        -0.24174E+08
 
   -0.24508E+08         0.63152E+06         0.00000E+00
    0.63152E+06        -0.52573E+08         0.00000E+00
    0.00000E+00         0.00000E+00        -0.24316E+08
 
   -0.24693E+08         0.60946E+06         0.00000E+00
    0.60946E+06        -0.52886E+08         0.00000E+00
    0.00000E+00         0.00000E+00        -0.24461E+08
 
   -0.24884E+08         0.58444E+06         0.00000E+00
    0.58444E+06        -0.53206E+08         0.00000E+00
    0.00000E+00         0.00000E+00        -0.24608E+08
 
   -0.25081E+08         0.55611E+06         0.00000E+00
    0.55611E+06        -0.53535E+08         0.00000E+00
    0.00000E+00         0.00000E+00        -0.24757E+08
 
   -0.25286E+08         0.52410E+06         0.00000E+00
    0.52410E+06        -0.53873E+08         0.00000E+00
    0.00000E+00         0.00000E+00        -0.24907E+08
 
   -0.25498E+08         0.48805E+06         0.00000E+00
    0.48805E+06        -0.54219E+08         0.00000E+00
    0.00000E+00         0.00000E+00        -0.25060E+08
 
   -0.25717E+08         0.44770E+06         0.00000E+00
    0.44770E+06        -0.54573E+08         0.00000E+00
    0.00000E+00         0.00000E+00        -0.25214E+08
 
   -0.25943E+08         0.40284E+06         0.00000E+00
    0.40284E+06        -0.54935E+08         0.00000E+00
    0.00000E+00         0.00000E+00        -0.25370E+08
 
   -0.26177E+08         0.35348E+06         0.00000E+00
    0.35348E+06        -0.55304E+08         0.00000E+00
    0.00000E+00         0.00000E+00        -0.25526E+08
 
   -0.26418E+08         0.29988E+06         0.00000E+00
    0.29988E+06        -0.55680E+08         0.00000E+00
    0.00000E+00         0.00000E+00        -0.25683E+08
 
   -0.26666E+08         0.24274E+06         0.00000E+00
    0.24274E+06        -0.56061E+08         0.00000E+00
    0.00000E+00         0.00000E+00        -0.25838E+08
 
   -0.26920E+08         0.18337E+06         0.00000E+00
    0.18337E+06        -0.56445E+08         0.00000E+00
    0.00000E+00         0.00000E+00        -0.25991E+08
 
   -0.27180E+08         0.12398E+06         0.00000E+00
    0.12398E+06        -0.56829E+08         0.00000E+00
    0.00000E+00         0.00000E+00        -0.26140E+08
 
   -0.27446E+08         0.67977E+05         0.00000E+00
    0.67977E+05        -0.57210E+08         0.00000E+00
    0.00000E+00         0.00000E+00        -0.26281E+08
 
   -0.27717E+08         0.20211E+05         0.00000E+00
    0.20211E+05        -0.57583E+08         0.00000E+00
    0.00000E+00         0.00000E+00        -0.26411E+08
 
   -0.27994E+08        -0.13646E+05         0.00000E+00
   -0.13646E+05        -0.57942E+08         0.00000E+00
    0.00000E+00         0.00000E+00        -0.26521E+08
 
   -0.28279E+08        -0.29162E+05         0.00000E+00
   -0.29162E+05        -0.58279E+08         0.00000E+00
    0.00000E+00         0.00000E+00        -0.26604E+08
 
   -0.28578E+08        -0.26183E+05         0.00000E+00
   -0.26183E+05        -0.58588E+08         0.00000E+00
    0.00000E+00         0.00000E+00        -0.26646E+08
 
   -0.28899E+08        -0.10210E+05         0.00000E+00
   -0.10210E+05        -0.58862E+08         0.00000E+00
    0.00000E+00         0.00000E+00        -0.26638E+08
 
   -0.10472E+08        -0.22812E+05         0.00000E+00
   -0.22812E+05        -0.28054E+08         0.00000E+00
    0.00000E+00         0.00000E+00        -0.15047E+08
 
   -0.10940E+08        -0.50368E+05         0.00000E+00
   -0.50368E+05        -0.28404E+08         0.00000E+00
    0.00000E+00         0.00000E+00        -0.14901E+08
 
   -0.11370E+08        -0.32344E+05         0.00000E+00
   -0.32344E+05        -0.28756E+08         0.00000E+00
    0.00000E+00         0.00000E+00        -0.14815E+08
 
   -0.11772E+08         0.31754E+05         0.00000E+00
    0.31754E+05        -0.29157E+08         0.00000E+00
    0.00000E+00         0.00000E+00        -0.14779E+08
 
   -0.12164E+08         0.12176E+06         0.00000E+00
    0.12176E+06        -0.29620E+08         0.00000E+00
    0.00000E+00         0.00000E+00        -0.14781E+08
 
   -0.12552E+08         0.22023E+06         0.00000E+00
    0.22023E+06        -0.30126E+08         0.00000E+00
    0.00000E+00         0.00000E+00        -0.14813E+08
 
   -0.12921E+08         0.31293E+06         0.00000E+00
    0.31293E+06        -0.30646E+08         0.00000E+00
    0.00000E+00         0.00000E+00        -0.14871E+08
 
   -0.13267E+08         0.39184E+06         0.00000E+00
    0.39184E+06        -0.31158E+08         0.00000E+00
    0.00000E+00         0.00000E+00        -0.14949E+08
 
   -0.13593E+08         0.46004E+06         0.00000E+00
    0.46004E+06        -0.31650E+08         0.00000E+00
    0.00000E+00         0.00000E+00        -0.15045E+08
 
   -0.13900E+08         0.52373E+06         0.00000E+00
    0.52373E+06        -0.32126E+08         0.00000E+00
    0.00000E+00         0.00000E+00        -0.15155E+08
 
   -0.14190E+08         0.58547E+06         0.00000E+00
    0.58547E+06        -0.32592E+08         0.00000E+00
    0.00000E+00         0.00000E+00        -0.15274E+08
 
   -0.14463E+08         0.64439E+06         0.00000E+00
    0.64439E+06        -0.33056E+08         0.00000E+00
    0.00000E+00         0.00000E+00        -0.15401E+08
 
   -0.14720E+08         0.69870E+06         0.00000E+00
    0.69870E+06        -0.33519E+08         0.00000E+00
    0.00000E+00         0.00000E+00        -0.15532E+08
 
   -0.14964E+08         0.74722E+06         0.00000E+00
    0.74722E+06        -0.33979E+08         0.00000E+00
    0.00000E+00         0.00000E+00        -0.15666E+08
 
   -0.15197E+08         0.78953E+06         0.00000E+00
    0.78953E+06        -0.34435E+08         0.00000E+00
    0.00000E+00         0.00000E+00        -0.15801E+08
 
   -0.15419E+08         0.82575E+06         0.00000E+00
    0.82575E+06        -0.34886E+08         0.00000E+00
    0.00000E+00         0.00000E+00        -0.15936E+08
 
   -0.15631E+08         0.85634E+06         0.00000E+00
    0.85634E+06        -0.35330E+08         0.00000E+00
    0.00000E+00         0.00000E+00        -0.16069E+08
 
   -0.15833E+08         0.88182E+06         0.00000E+00
    0.88182E+06        -0.35766E+08         0.00000E+00
    0.00000E+00         0.00000E+00        -0.16201E+08
 
   -0.16026E+08         0.90279E+06         0.00000E+00
    0.90279E+06        -0.36194E+08         0.00000E+00
    0.00000E+00         0.00000E+00        -0.16330E+08
 
   -0.16209E+08         0.91982E+06         0.00000E+00
    0.91982E+06        -0.36614E+08         0.00000E+00
    0.00000E+00         0.00000E+00        -0.16456E+08
 
   -0.16384E+08         0.93344E+06         0.00000E+00
    0.93344E+06        -0.37026E+08         0.00000E+00
    0.00000E+00         0.00000E+00        -0.16579E+08
 
   -0.16550E+08         0.94416E+06         0.00000E+00
    0.94416E+06        -0.37429E+08         0.00000E+00
    0.00000E+00         0.00000E+00        -0.16699E+08
 
   -0.16708E+08         0.95242E+06         0.00000E+00
    0.95242E+06        -0.37825E+08         0.00000E+00
    0.00000E+00         0.00000E+00        -0.16816E+08
 
   -0.16858E+08         0.95860E+06         0.00000E+00
    0.95860E+06        -0.38213E+08         0.00000E+00
    0.00000E+00         0.00000E+00        -0.16930E+08
 
   -0.17017E+08         0.96148E+06         0.00000E+00
    0.96148E+06        -0.38575E+08         0.00000E+00
    0.00000E+00         0.00000E+00        -0.17058E+08
 
   -0.17198E+08         0.96039E+06         0.00000E+00
    0.96039E+06        -0.38901E+08         0.00000E+00
    0.00000E+00         0.00000E+00        -0.17210E+08
 
   -0.17375E+08         0.95775E+06         0.00000E+00
    0.95775E+06        -0.39216E+08         0.00000E+00
    0.00000E+00         0.00000E+00        -0.17364E+08
 
   -0.17548E+08         0.95415E+06         0.00000E+00
    0.95415E+06        -0.39523E+08         0.00000E+00
    0.00000E+00         0.00000E+00        -0.17516E+08
 
   -0.17714E+08         0.94976E+06         0.00000E+00
    0.94976E+06        -0.39823E+08         0.00000E+00
    0.00000E+00         0.00000E+00        -0.17665E+08
 
   -0.17876E+08         0.94473E+06         0.00000E+00
    0.94473E+06        -0.40116E+08         0.00000E+00
    0.00000E+00         0.00000E+00        -0.17813E+08
 
   -0.18033E+08         0.93919E+06         0.00000E+00
    0.93919E+06        -0.40402E+08         0.00000E+00
    0.00000E+00         0.00000E+00        -0.17958E+08
 
   -0.18185E+08         0.93326E+06         0.00000E+00
    0.93326E+06        -0.40682E+08         0.00000E+00
    0.00000E+00         0.00000E+00        -0.18101E+08
 
   -0.18333E+08         0.92701E+06         0.00000E+00
    0.92701E+06        -0.40957E+08         0.00000E+00
    0.00000E+00         0.00000E+00        -0.18242E+08
 
   -0.18477E+08         0.92052E+06         0.00000E+00
    0.92052E+06        -0.41226E+08         0.00000E+00
    0.00000E+00         0.00000E+00        -0.18381E+08
 
   -0.18618E+08         0.91385E+06         0.00000E+00
    0.91385E+06        -0.41489E+08         0.00000E+00
    0.00000E+00         0.00000E+00        -0.18517E+08
 
   -0.18755E+08         0.90707E+06         0.00000E+00
    0.90707E+06        -0.41747E+08         0.00000E+00
    0.00000E+00         0.00000E+00        -0.18652E+08
 
   -0.18889E+08         0.90021E+06         0.00000E+00
    0.90021E+06        -0.42000E+08         0.00000E+00
    0.00000E+00         0.00000E+00        -0.18785E+08
 
   -0.19019E+08         0.89332E+06         0.00000E+00
    0.89332E+06        -0.42249E+08         0.00000E+00
    0.00000E+00         0.00000E+00        -0.18916E+08
 
   -0.19147E+08         0.88643E+06         0.00000E+00
    0.88643E+06        -0.42493E+08         0.00000E+00
    0.00000E+00         0.00000E+00        -0.19046E+08
 
   -0.19272E+08         0.87957E+06         0.00000E+00
    0.87957E+06        -0.42734E+08         0.00000E+00
    0.00000E+00         0.00000E+00        -0.19173E+08
 
   -0.19395E+08         0.87278E+06         0.00000E+00
    0.87278E+06        -0.42970E+08         0.00000E+00
    0.00000E+00         0.00000E+00        -0.19300E+08
 
   -0.19516E+08         0.86607E+06         0.00000E+00
    0.86607E+06        -0.43203E+08         0.00000E+00
    0.00000E+00         0.00000E+00        -0.19424E+08
 
   -0.19634E+08         0.85947E+06         0.00000E+00
    0.85947E+06        -0.43432E+08         0.00000E+00
    0.00000E+00         0.00000E+00        -0.19548E+08
 
   -0.19751E+08         0.85300E+06         0.00000E+00
    0.85300E+06        -0.43659E+08         0.00000E+00
    0.00000E+00         0.00000E+00        -0.19670E+08
 
   -0.19865E+08         0.84667E+06         0.00000E+00
    0.84667E+06        -0.43883E+08         0.00000E+00
    0.00000E+00         0.00000E+00        -0.19790E+08
 
   -0.19979E+08         0.84049E+06         0.00000E+00
    0.84049E+06        -0.44104E+08         0.00000E+00
    0.00000E+00         0.00000E+00        -0.19910E+08
 
   -0.20091E+08         0.83448E+06         0.00000E+00
    0.83448E+06        -0.44323E+08         0.00000E+00
    0.00000E+00         0.00000E+00        -0.20029E+08
 
   -0.20201E+08         0.82865E+06         0.00000E+00
    0.82865E+06        -0.44540E+08         0.00000E+00
    0.00000E+00         0.00000E+00        -0.20147E+08
 
   -0.20311E+08         0.82299E+06         0.00000E+00
    0.82299E+06        -0.44755E+08         0.00000E+00
    0.00000E+00         0.00000E+00        -0.20264E+08
 
   -0.20420E+08         0.81752E+06         0.00000E+00
    0.81752E+06        -0.44969E+08         0.00000E+00
    0.00000E+00         0.00000E+00        -0.20380E+08
 
   -0.20529E+08         0.81224E+06         0.00000E+00
    0.81224E+06        -0.45181E+08         0.00000E+00
    0.00000E+00         0.00000E+00        -0.20496E+08
 
   -0.20636E+08         0.80713E+06         0.00000E+00
    0.80713E+06        -0.45393E+08         0.00000E+00
    0.00000E+00         0.00000E+00        -0.20611E+08
 
   -0.20744E+08         0.80221E+06         0.00000E+00
    0.80221E+06        -0.45604E+08         0.00000E+00
    0.00000E+00         0.00000E+00        -0.20726E+08
 
   -0.20851E+08         0.79746E+06         0.00000E+00
    0.79746E+06        -0.45814E+08         0.00000E+00
    0.00000E+00         0.00000E+00        -0.20840E+08
 
   -0.20958E+08         0.79287E+06         0.00000E+00
    0.79287E+06        -0.46024E+08         0.00000E+00
    0.00000E+00         0.00000E+00        -0.20955E+08
 
   -0.21066E+08         0.78843E+06         0.00000E+00
    0.78843E+06        -0.46234E+08         0.00000E+00
    0.00000E+00         0.00000E+00        -0.21069E+08
 
   -0.21174E+08         0.78413E+06         0.00000E+00
    0.78413E+06        -0.46445E+08         0.00000E+00
    0.00000E+00         0.00000E+00        -0.21184E+08
 
   -0.21282E+08         0.77995E+06         0.00000E+00
    0.77995E+06        -0.46656E+08         0.00000E+00
    0.00000E+00         0.00000E+00        -0.21298E+08
 
   -0.21391E+08         0.77586E+06         0.00000E+00
    0.77586E+06        -0.46868E+08         0.00000E+00
    0.00000E+00         0.00000E+00        -0.21413E+08
 
   -0.21500E+08         0.77186E+06         0.00000E+00
    0.77186E+06        -0.47081E+08         0.00000E+00
    0.00000E+00         0.00000E+00        -0.21528E+08
 
   -0.21611E+08         0.76790E+06         0.00000E+00
    0.76790E+06        -0.47295E+08         0.00000E+00
    0.00000E+00         0.00000E+00        -0.21643E+08
 
   -0.21723E+08         0.76397E+06         0.00000E+00
    0.76397E+06        -0.47511E+08         0.00000E+00
    0.00000E+00         0.00000E+00        -0.21759E+08
 
   -0.21836E+08         0.76003E+06         0.00000E+00
    0.76003E+06        -0.47729E+08         0.00000E+00
    0.00000E+00         0.00000E+00        -0.21876E+08
 
   -0.21951E+08         0.75604E+06         0.00000E+00
    0.75604E+06        -0.47949E+08         0.00000E+00
    0.00000E+00         0.00000E+00        -0.21993E+08
 
   -0.22068E+08         0.75197E+06         0.00000E+00
    0.75197E+06        -0.48171E+08         0.00000E+00
    0.00000E+00         0.00000E+00        -0.22112E+08
 
   -0.22186E+08         0.74777E+06         0.00000E+00
    0.74777E+06        -0.48396E+08         0.00000E+00
    0.00000E+00         0.00000E+00        -0.22231E+08
 
   -0.22306E+08         0.74340E+06         0.00000E+00
    0.74340E+06        -0.48624E+08         0.00000E+00
    0.00000E+00         0.00000E+00        -0.22351E+08
 
   -0.22429E+08         0.73881E+06         0.00000E+00
    0.73881E+06        -0.48855E+08         0.00000E+00
    0.00000E+00         0.00000E+00        -0.22472E+08
 
   -0.22554E+08         0.73393E+06         0.00000E+00
    0.73393E+06        -0.49089E+08         0.00000E+00
    0.00000E+00         0.00000E+00        -0.22594E+08
 
   -0.22682E+08         0.72871E+06         0.00000E+00
    0.72871E+06        -0.49327E+08         0.00000E+00
    0.00000E+00         0.00000E+00        -0.22717E+08
 
   -0.22812E+08         0.72307E+06         0.00000E+00
    0.72307E+06        -0.49569E+08         0.00000E+00
    0.00000E+00         0.00000E+00        -0.22842E+08
 
   -0.22946E+08         0.71694E+06         0.00000E+00
    0.71694E+06        -0.49815E+08         0.00000E+00
    0.00000E+00         0.00000E+00        -0.22968E+08
 
   -0.23083E+08         0.71022E+06         0.00000E+00
    0.71022E+06        -0.50065E+08         0.00000E+00
    0.00000E+00         0.00000E+00        -0.23095E+08
 
   -0.23224E+08         0.70281E+06         0.00000E+00
    0.70281E+06        -0.50320E+08         0.00000E+00
    0.00000E+00         0.00000E+00        -0.23224E+08
 
   -0.23368E+08         0.69460E+06         0.00000E+00
    0.69460E+06        -0.50581E+08         0.00000E+00
    0.00000E+00         0.00000E+00        -0.23354E+08
 
   -0.23516E+08         0.68547E+06         0.00000E+00
    0.68547E+06        -0.50847E+08         0.00000E+00
    0.00000E+00         0.00000E+00        -0.23486E+08
 
   -0.23669E+08         0.67525E+06         0.00000E+00
    0.67525E+06        -0.51118E+08         0.00000E+00
    0.00000E+00         0.00000E+00        -0.23620E+08
 
   -0.23826E+08         0.66378E+06         0.00000E+00
    0.66378E+06        -0.51395E+08         0.00000E+00
    0.00000E+00         0.00000E+00        -0.23755E+08
 
   -0.23988E+08         0.65085E+06         0.00000E+00
    0.65085E+06        -0.51679E+08         0.00000E+00
    0.00000E+00         0.00000E+00        -0.23892E+08
 
   -0.24156E+08         0.63625E+06         0.00000E+00
    0.63625E+06        -0.51970E+08         0.00000E+00
    0.00000E+00         0.00000E+00        -0.24030E+08
 
   -0.24329E+08         0.61972E+06         0.00000E+00
    0.61972E+06        -0.52267E+08         0.00000E+00
    0.00000E+00         0.00000E+00        -0.24171E+08
 
   -0.24508E+08         0.60097E+06         0.00000E+00
    0.60097E+06        -0.52572E+08         0.00000E+00
    0.00000E+00         0.00000E+00        -0.24313E+08
 
   -0.24693E+08         0.57968E+06         0.00000E+00
    0.57968E+06        -0.52884E+08         0.00000E+00
    0.00000E+00         0.00000E+00        -0.24457E+08
 
   -0.24884E+08         0.55551E+06         0.00000E+00
    0.55551E+06        -0.53204E+08         0.00000E+00
    0.00000E+00         0.00000E+00        -0.24603E+08
 
   -0.25082E+08         0.52809E+06         0.00000E+00
    0.52809E+06        -0.53532E+08         0.00000E+00
    0.00000E+00         0.00000E+00        -0.24750E+08
 
   -0.25288E+08         0.49706E+06         0.00000E+00
    0.49706E+06        -0.53869E+08         0.00000E+00
    0.00000E+00         0.00000E+00        -0.24900E+08
 
   -0.25501E+08         0.46208E+06         0.00000E+00
    0.46208E+06        -0.54214E+08         0.00000E+00
    0.00000E+00         0.00000E+00        -0.25051E+08
 
   -0.25721E+08         0.42284E+06         0.00000E+00
    0.42284E+06        -0.54568E+08         0.00000E+00
    0.00000E+00         0.00000E+00        -0.25203E+08
 
   -0.25949E+08         0.37916E+06         0.00000E+00
    0.37916E+06        -0.54930E+08         0.00000E+00
    0.00000E+00         0.00000E+00        -0.25357E+08
 
   -0.26185E+08         0.33103E+06         0.00000E+00
    0.33103E+06        -0.55299E+08         0.00000E+00
    0.00000E+00         0.00000E+00        -0.25511E+08
 
   -0.26429E+08         0.27871E+06         0.00000E+00
    0.27871E+06        -0.55675E+08         0.00000E+00
    0.00000E+00         0.00000E+00        -0.25665E+08
 
   -0.26680E+08         0.22289E+06         0.00000E+00
    0.22289E+06        -0.56056E+08         0.00000E+00
    0.00000E+00         0.00000E+00        -0.25819E+08
 
   -0.26938E+08         0.16487E+06         0.00000E+00
    0.16487E+06        -0.56440E+08         0.00000E+00
    0.00000E+00         0.00000E+00        -0.25970E+08
 
   -0.27202E+08         0.10684E+06         0.00000E+00
    0.10684E+06        -0.56826E+08         0.00000E+00
    0.00000E+00         0.00000E+00        -0.26116E+08
 
   -0.27473E+08         0.52211E+05         0.00000E+00
    0.52211E+05        -0.57209E+08         0.00000E+00
    0.00000E+00         0.00000E+00        -0.26256E+08
 
   -0.27749E+08         0.58803E+04         0.00000E+00
    0.58803E+04        -0.57586E+08         0.00000E+00
    0.00000E+00         0.00000E+00        -0.26385E+08
 
   -0.28030E+08        -0.26242E+05         0.00000E+00
   -0.26242E+05        -0.57950E+08         0.00000E+00
    0.00000E+00         0.00000E+00        -0.26497E+08
 
   -0.28319E+08        -0.39300E+05         0.00000E+00
   -0.39300E+05        -0.58292E+08         0.00000E+00
    0.00000E+00         0.00000E+00        -0.26582E+08
 
   -0.28620E+08        -0.32838E+05         0.00000E+00
   -0.32838E+05        -0.58606E+08         0.00000E+00
    0.00000E+00         0.00000E+00        -0.26627E+08
 
   -0.28943E+08        -0.12532E+05         0.00000E+00
   -0.12532E+05        -0.58882E+08         0.00000E+00
    0.00000E+00         0.00000E+00        -0.26621E+08
 
   -0.10392E+08        -0.25651E+05         0.00000E+00
   -0.25651E+05        -0.28045E+08         0.00000E+00
    0.00000E+00         0.00000E+00        -0.15076E+08
 
   -0.10864E+08        -0.59445E+05         0.00000E+00
   -0.59445E+05        -0.28402E+08         0.00000E+00
    0.00000E+00         0.00000E+00        -0.14936E+08
 
   -0.11305E+08        -0.47943E+05         0.00000E+00
   -0.47943E+05        -0.28764E+08         0.00000E+00
    0.00000E+00         0.00000E+00        -0.14855E+08
 
   -0.11719E+08         0.12386E+05         0.00000E+00
    0.12386E+05        -0.29173E+08         0.00000E+00
    0.00000E+00         0.00000E+00        -0.14821E+08
 
   -0.12121E+08         0.10178E+06         0.00000E+00
    0.10178E+06        -0.29640E+08         0.00000E+00
    0.00000E+00         0.00000E+00        -0.14823E+08
 
   -0.12513E+08         0.19850E+06         0.00000E+00
    0.19850E+06        -0.30146E+08         0.00000E+00
    0.00000E+00         0.00000E+00        -0.14853E+08
 
   -0.12886E+08         0.28762E+06         0.00000E+00
    0.28762E+06        -0.30663E+08         0.00000E+00
    0.00000E+00         0.00000E+00        -0.14906E+08
 
   -0.13237E+08         0.36323E+06         0.00000E+00
    0.36323E+06        -0.31172E+08         0.00000E+00
    0.00000E+00         0.00000E+00        -0.14979E+08
 
   -0.13568E+08         0.42871E+06         0.00000E+00
    0.42871E+06        -0.31663E+08         0.00000E+00
    0.00000E+00         0.00000E+00        -0.15070E+08
 
   -0.13880E+08         0.48981E+06         0.00000E+00
    0.48981E+06        -0.32138E+08         0.00000E+00
    0.00000E+00         0.00000E+00        -0.15174E+08
 
   -0.14173E+08         0.54908E+06         0.00000E+00
    0.54908E+06        -0.32604E+08         0.00000E+00
    0.00000E+00         0.00000E+00        -0.15288E+08
 
   -0.14449E+08         0.60586E+06         0.00000E+00
    0.60586E+06        -0.33067E+08         0.00000E+00
    0.00000E+00         0.00000E+00        -0.15410E+08
 
   -0.14709E+08         0.65850E+06         0.00000E+00
    0.65850E+06        -0.33529E+08         0.00000E+00
    0.00000E+00         0.00000E+00        -0.15538E+08
 
   -0.14956E+08         0.70574E+06         0.00000E+00
    0.70574E+06        -0.33988E+08         0.00000E+00
    0.00000E+00         0.00000E+00        -0.15668E+08
 
   -0.15190E+08         0.74708E+06         0.00000E+00
    0.74708E+06        -0.34443E+08         0.00000E+00
    0.00000E+00         0.00000E+00        -0.15800E+08
 
   -0.15413E+08         0.78253E+06         0.00000E+00
    0.78253E+06        -0.34893E+08         0.00000E+00
    0.00000E+00         0.00000E+00        -0.15932E+08
 
   -0.15625E+08         0.81245E+06         0.00000E+00
    0.81245E+06        -0.35336E+08         0.00000E+00
    0.00000E+00         0.00000E+00        -0.16064E+08
 
   -0.15828E+08         0.83735E+06         0.00000E+00
    0.83735E+06        -0.35771E+08         0.00000E+00
    0.00000E+00         0.00000E+00        -0.16194E+08
 
   -0.16022E+08         0.85779E+06         0.00000E+00
    0.85779E+06        -0.36198E+08         0.00000E+00
    0.00000E+00         0.00000E+00        -0.16322E+08
 
   -0.16206E+08         0.87434E+06         0.00000E+00
    0.87434E+06        -0.36617E+08         0.00000E+00
    0.00000E+00         0.00000E+00        -0.16447E+08
 
   -0.16381E+08         0.88754E+06         0.00000E+00
    0.88754E+06        -0.37028E+08         0.00000E+00
    0.00000E+00         0.00000E+00        -0.16570E+08
 
   -0.16547E+08         0.89788E+06         0.00000E+00
    0.89788E+06        -0.37431E+08         0.00000E+00
    0.00000E+00         0.00000E+00        -0.16689E+08
 
   -0.16705E+08         0.90581E+06         0.00000E+00
    0.90581E+06        -0.37826E+08         0.00000E+00
    0.00000E+00         0.00000E+00        -0.16806E+08
 
   -0.16855E+08         0.91173E+06         0.00000E+00
    0.91173E+06        -0.38214E+08         0.00000E+00
    0.00000E+00         0.00000E+00        -0.16920E+08
 
   -0.17015E+08         0.91441E+06         0.00000E+00
    0.91441E+06        -0.38575E+08         0.00000E+00
    0.00000E+00         0.00000E+00        -0.17048E+08
 
   -0.17196E+08         0.91330E+06         0.00000E+00
    0.91330E+06        -0.38900E+08         0.00000E+00
    0.00000E+00         0.00000E+00        -0.17202E+08
 
   -0.17374E+08         0.91081E+06         0.00000E+00
    0.91081E+06        -0.39214E+08         0.00000E+00
    0.00000E+00         0.00000E+00        -0.17356E+08
 
   -0.17546E+08         0.90738E+06         0.00000E+00
    0.90738E+06        -0.39521E+08         0.00000E+00
    0.00000E+00         0.00000E+00        -0.17508E+08
 
   -0.17713E+08         0.90321E+06         0.00000E+00
    0.90321E+06        -0.39821E+08         0.00000E+00
    0.00000E+00         0.00000E+00        -0.17657E+08
 
   -0.17875E+08         0.89845E+06         0.00000E+00
    0.89845E+06        -0.40114E+08         0.00000E+00
    0.00000E+00         0.00000E+00        -0.17805E+08
 
   -0.18032E+08         0.89320E+06         0.00000E+00
    0.89320E+06        -0.40401E+08         0.00000E+00
    0.00000E+00         0.00000E+00        -0.17950E+08
 
   -0.18184E+08         0.88758E+06         0.00000E+00
    0.88758E+06        -0.40681E+08         0.00000E+00
    0.00000E+00         0.00000E+00        -0.18093E+08
 
   -0.18332E+08         0.88166E+06         0.00000E+00
    0.88166E+06        -0.40956E+08         0.00000E+00
    0.00000E+00         0.00000E+00        -0.18234E+08
 
   -0.18476E+08         0.87552E+06         0.00000E+00
    0.87552E+06        -0.41225E+08         0.00000E+00
    0.00000E+00         0.00000E+00        -0.18373E+08
 
   -0.18617E+08         0.86922E+06         0.00000E+00
    0.86922E+06        -0.41488E+08         0.00000E+00
    0.00000E+00         0.00000E+00        -0.18510E+08
 
   -0.18754E+08         0.86281E+06         0.00000E+00
    0.86281E+06        -0.41746E+08         0.00000E+00
    0.00000E+00         0.00000E+00        -0.18645E+08
 
   -0.18888E+08         0.85632E+06         0.00000E+00
    0.85632E+06        -0.42000E+08         0.00000E+00
    0.00000E+00         0.00000E+00        -0.18779E+08
 
   -0.19018E+08         0.84980E+06         0.00000E+00
    0.84980E+06        -0.42249E+08         0.00000E+00
    0.00000E+00         0.00000E+00        -0.18910E+08
 
   -0.19146E+08         0.84329E+06         0.00000E+00
    0.84329E+06        -0.42493E+08         0.00000E+00
    0.00000E+00         0.00000E+00        -0.19040E+08
 
   -0.19271E+08         0.83681E+06         0.00000E+00
    0.83681E+06        -0.42733E+08         0.00000E+00
    0.00000E+00         0.00000E+00        -0.19168E+08
 
   -0.19394E+08         0.83038E+06         0.00000E+00
    0.83038E+06        -0.42970E+08         0.00000E+00
    0.00000E+00         0.00000E+00        -0.19294E+08
 
   -0.19515E+08         0.82404E+06         0.00000E+00
    0.82404E+06        -0.43203E+08         0.00000E+00
    0.00000E+00         0.00000E+00        -0.19419E+08
 
   -0.19633E+08         0.81779E+06         0.00000E+00
    0.81779E+06        -0.43432E+08         0.00000E+00
    0.00000E+00         0.00000E+00        -0.19543E+08
 
   -0.19749E+08         0.81166E+06         0.00000E+00
    0.81166E+06        -0.43659E+08         0.00000E+00
    0.00000E+00         0.00000E+00        -0.19665E+08
 
   -0.19864E+08         0.80567E+06         0.00000E+00
    0.80567E+06        -0.43883E+08         0.00000E+00
    0.00000E+00         0.00000E+00        -0.19786E+08
 
   -0.19977E+08         0.79982E+06         0.00000E+00
    0.79982E+06        -0.44104E+08         0.00000E+00
    0.00000E+00         0.00000E+00        -0.19906E+08
 
   -0.20089E+08         0.79412E+06         0.00000E+00
    0.79412E+06        -0.44323E+08         0.00000E+00
    0.00000E+00         0.00000E+00        -0.20025E+08
 
   -0.20200E+08         0.78859E+06         0.00000E+00
    0.78859E+06        -0.44540E+08         0.00000E+00
    0.00000E+00         0.00000E+00        -0.20143E+08
 
   -0.20310E+08         0.78322E+06         0.00000E+00
    0.78322E+06        -0.44756E+08         0.00000E+00
    0.00000E+00         0.00000E+00        -0.20260E+08
 
   -0.20419E+08         0.77803E+06         0.00000E+00
    0.77803E+06        -0.44969E+08         0.00000E+00
    0.00000E+00         0.00000E+00        -0.20377E+08
 
   -0.20527E+08         0.77301E+06         0.00000E+00
    0.77301E+06        -0.45182E+08         0.00000E+00
    0.00000E+00         0.00000E+00        -0.20493E+08
 
   -0.20635E+08         0.76816E+06         0.00000E+00
    0.76816E+06        -0.45393E+08         0.00000E+00
    0.00000E+00         0.00000E+00        -0.20608E+08
 
   -0.20742E+08         0.76348E+06         0.00000E+00
    0.76348E+06        -0.45604E+08         0.00000E+00
    0.00000E+00         0.00000E+00        -0.20723E+08
 
   -0.20849E+08         0.75896E+06         0.00000E+00
    0.75896E+06        -0.45815E+08         0.00000E+00
    0.00000E+00         0.00000E+00        -0.20838E+08
 
   -0.20956E+08         0.75459E+06         0.00000E+00
    0.75459E+06        -0.46025E+08         0.00000E+00
    0.00000E+00         0.00000E+00        -0.20953E+08
 
   -0.21064E+08         0.75036E+06         0.00000E+00
    0.75036E+06        -0.46235E+08         0.00000E+00
    0.00000E+00         0.00000E+00        -0.21067E+08
 
   -0.21171E+08         0.74626E+06         0.00000E+00
    0.74626E+06        -0.46446E+08         0.00000E+00
    0.00000E+00         0.00000E+00        -0.21182E+08
 
   -0.21279E+08         0.74227E+06         0.00000E+00
    0.74227E+06        -0.46657E+08         0.00000E+00
    0.00000E+00         0.00000E+00        -0.21297E+08
 
   -0.21388E+08         0.73837E+06         0.00000E+00
    0.73837E+06        -0.46869E+08         0.00000E+00
    0.00000E+00         0.00000E+00        -0.21412E+08
 
   -0.21498E+08         0.73454E+06         0.00000E+00
    0.73454E+06        -0.47082E+08         0.00000E+00
    0.00000E+00         0.00000E+00        -0.21527E+08
 
   -0.21609E+08         0.73075E+06         0.00000E+00
    0.73075E+06        -0.47296E+08         0.00000E+00
    0.00000E+00         0.00000E+00        -0.21643E+08
 
   -0.21721E+08         0.72699E+06         0.00000E+00
    0.72699E+06        -0.47512E+08         0.00000E+00
    0.00000E+00         0.00000E+00        -0.21759E+08
 
   -0.21834E+08         0.72321E+06         0.00000E+00
    0.72321E+06        -0.47730E+08         0.00000E+00
    0.00000E+00         0.00000E+00        -0.21876E+08
 
   -0.21948E+08         0.71939E+06         0.00000E+00
    0.71939E+06        -0.47950E+08         0.00000E+00
    0.00000E+00         0.00000E+00        -0.21993E+08
 
   -0.22065E+08         0.71548E+06         0.00000E+00
    0.71548E+06        -0.48172E+08         0.00000E+00
    0.00000E+00         0.00000E+00        -0.22111E+08
 
   -0.22183E+08         0.71145E+06         0.00000E+00
    0.71145E+06        -0.48397E+08         0.00000E+00
    0.00000E+00         0.00000E+00        -0.22230E+08
 
   -0.22304E+08         0.70726E+06         0.00000E+00
    0.70726E+06        -0.48625E+08         0.00000E+00
    0.00000E+00         0.00000E+00        -0.22350E+08
 
   -0.22426E+08         0.70285E+06         0.00000E+00
    0.70285E+06        -0.48856E+08         0.00000E+00
    0.00000E+00         0.00000E+00        -0.22472E+08
 
   -0.22551E+08         0.69816E+06         0.00000E+00
    0.69816E+06        -0.49090E+08         0.00000E+00
    0.00000E+00         0.00000E+00        -0.22594E+08
 
   -0.22679E+08         0.69315E+06         0.00000E+00
    0.69315E+06        -0.49328E+08         0.00000E+00
    0.00000E+00         0.00000E+00        -0.22717E+08
 
   -0.22810E+08         0.68773E+06         0.00000E+00
    0.68773E+06        -0.49569E+08         0.00000E+00
    0.00000E+00         0.00000E+00        -0.22842E+08
 
   -0.22943E+08         0.68184E+06         0.00000E+00
    0.68184E+06        -0.49815E+08         0.00000E+00
    0.00000E+00         0.00000E+00        -0.22968E+08
 
   -0.23081E+08         0.67539E+06         0.00000E+00
    0.67539E+06        -0.50066E+08         0.00000E+00
    0.00000E+00         0.00000E+00        -0.23095E+08
 
   -0.23221E+08         0.66829E+06         0.00000E+00
    0.66829E+06        -0.50321E+08         0.00000E+00
    0.00000E+00         0.00000E+00        -0.23224E+08
 
   -0.23366E+08         0.66042E+06         0.00000E+00
    0.66042E+06        -0.50581E+08         0.00000E+00
    0.00000E+00         0.00000E+00        -0.23354E+08
 
   -0.23514E+08         0.65165E+06         0.00000E+00
    0.65165E+06        -0.50847E+08         0.00000E+00
    0.00000E+00         0.00000E+00        -0.23486E+08
 
   -0.23667E+08         0.64185E+06         0.00000E+00
    0.64185E+06        -0.51118E+08         0.00000E+00
    0.00000E+00         0.00000E+00        -0.23619E+08
 
   -0.23824E+08         0.63085E+06         0.00000E+00
    0.63085E+06        -0.51396E+08         0.00000E+00
    0.00000E+00         0.00000E+00        -0.23754E+08
 
   -0.23987E+08         0.61845E+06         0.00000E+00
    0.61845E+06        -0.51679E+08         0.00000E+00
    0.00000E+00         0.00000E+00        -0.23890E+08
 
   -0.24154E+08         0.60443E+06         0.00000E+00
    0.60443E+06        -0.51969E+08         0.00000E+00
    0.00000E+00         0.00000E+00        -0.24028E+08
 
   -0.24328E+08         0.58855E+06         0.00000E+00
    0.58855E+06        -0.52266E+08         0.00000E+00
    0.00000E+00         0.00000E+00        -0.24168E+08
 
   -0.24507E+08         0.57052E+06         0.00000E+00
    0.57052E+06        -0.52570E+08         0.00000E+00
    0.00000E+00         0.00000E+00        -0.24310E+08
 
   -0.24692E+08         0.55003E+06         0.00000E+00
    0.55003E+06        -0.52882E+08         0.00000E+00
    0.00000E+00         0.00000E+00        -0.24453E+08
 
   -0.24885E+08         0.52673E+06         0.00000E+00
    0.52673E+06        -0.53202E+08         0.00000E+00
    0.00000E+00         0.00000E+00        -0.24598E+08
 
   -0.25084E+08         0.50027E+06         0.00000E+00
    0.50027E+06        -0.53530E+08         0.00000E+00
    0.00000E+00         0.00000E+00        -0.24744E+08
 
   -0.25290E+08         0.47028E+06         0.00000E+00
    0.47028E+06        -0.53866E+08         0.00000E+00
    0.00000E+00         0.00000E+00        -0.24892E+08
 
   -0.25504E+08         0.43641E+06         0.00000E+00
    0.43641E+06        -0.54211E+08         0.00000E+00
    0.00000E+00         0.00000E+00        -0.25042E+08
 
   -0.25726E+08         0.39836E+06         0.00000E+00
    0.39836E+06        -0.54563E+08         0.00000E+00
    0.00000E+00         0.00000E+00        -0.25193E+08
 
   -0.25956E+08         0.35595E+06         0.00000E+00
    0.35595E+06        -0.54925E+08         0.00000E+00
    0.00000E+00         0.00000E+00        -0.25344E+08
 
   -0.26194E+08         0.30915E+06         0.00000E+00
    0.30915E+06        -0.55293E+08         0.00000E+00
    0.00000E+00         0.00000E+00        -0.25497E+08
 
   -0.26440E+08         0.25822E+06         0.00000E+00
    0.25822E+06        -0.55669E+08         0.00000E+00
    0.00000E+00         0.00000E+00        -0.25649E+08
 
   -0.26694E+08         0.20385E+06         0.00000E+00
    0.20385E+06        -0.56051E+08         0.00000E+00
    0.00000E+00         0.00000E+00        -0.25800E+08
 
   -0.26956E+08         0.14730E+06         0.00000E+00
    0.14730E+06        -0.56436E+08         0.00000E+00
    0.00000E+00         0.00000E+00        -0.25948E+08
 
   -0.27224E+08         0.90729E+05         0.00000E+00
    0.90729E+05        -0.56823E+08         0.00000E+00
    0.00000E+00         0.00000E+00        -0.26093E+08
 
   -0.27500E+08         0.37515E+05         0.00000E+00
    0.37515E+05        -0.57209E+08         0.00000E+00
    0.00000E+00         0.00000E+00        -0.26231E+08
 
   -0.27781E+08        -0.74563E+04         0.00000E+00
   -0.74563E+04        -0.57590E+08         0.00000E+00
    0.00000E+00         0.00000E+00        -0.26359E+08
 
   -0.28067E+08        -0.38069E+05         0.00000E+00
   -0.38069E+05        -0.57959E+08         0.00000E+00
    0.00000E+00         0.00000E+00        -0.26472E+08
 
   -0.28360E+08        -0.48980E+05         0.00000E+00
   -0.48980E+05        -0.58307E+08         0.00000E+00
    0.00000E+00         0.00000E+00        -0.26560E+08
 
   -0.28664E+08        -0.39298E+05         0.00000E+00
   -0.39298E+05        -0.58625E+08         0.00000E+00
    0.00000E+00         0.00000E+00        -0.26609E+08
 
   -0.28987E+08        -0.14807E+05         0.00000E+00
   -0.14807E+05        -0.58904E+08         0.00000E+00
    0.00000E+00         0.00000E+00        -0.26605E+08
 
   -0.10312E+08        -0.28142E+05         0.00000E+00
   -0.28142E+05        -0.28034E+08         0.00000E+00
    0.00000E+00         0.00000E+00        -0.15104E+08
 
   -0.10788E+08        -0.67290E+05         0.00000E+00
   -0.67290E+05        -0.28398E+08         0.00000E+00
    0.00000E+00         0.00000E+00        -0.14970E+08
 
   -0.11237E+08        -0.61218E+05         0.00000E+00
   -0.61218E+05        -0.28771E+08         0.00000E+00
    0.00000E+00         0.00000E+00        -0.14895E+08
 
   -0.11664E+08        -0.45334E+04         0.00000E+00
   -0.45334E+04        -0.29189E+08         0.00000E+00
    0.00000E+00         0.00000E+00        -0.14864E+08
 
   -0.12076E+08         0.83177E+05         0.00000E+00
    0.83177E+05        -0.29659E+08         0.00000E+00
    0.00000E+00         0.00000E+00        -0.14865E+08
 
   -0.12474E+08         0.17761E+06         0.00000E+00
    0.17761E+06        -0.30164E+08         0.00000E+00
    0.00000E+00         0.00000E+00        -0.14892E+08
 
   -0.12852E+08         0.26331E+06         0.00000E+00
    0.26331E+06        -0.30680E+08         0.00000E+00
    0.00000E+00         0.00000E+00        -0.14940E+08
 
   -0.13208E+08         0.33567E+06         0.00000E+00
    0.33567E+06        -0.31186E+08         0.00000E+00
    0.00000E+00         0.00000E+00        -0.15009E+08
 
   -0.13543E+08         0.39831E+06         0.00000E+00
    0.39831E+06        -0.31675E+08         0.00000E+00
    0.00000E+00         0.00000E+00        -0.15093E+08
 
   -0.13860E+08         0.45671E+06         0.00000E+00
    0.45671E+06        -0.32150E+08         0.00000E+00
    0.00000E+00         0.00000E+00        -0.15192E+08
 
   -0.14157E+08         0.51340E+06         0.00000E+00
    0.51340E+06        -0.32616E+08         0.00000E+00
    0.00000E+00         0.00000E+00        -0.15301E+08
 
   -0.14436E+08         0.56794E+06         0.00000E+00
    0.56794E+06        -0.33078E+08         0.00000E+00
    0.00000E+00         0.00000E+00        -0.15419E+08
 
   -0.14699E+08         0.61877E+06         0.00000E+00
    0.61877E+06        -0.33539E+08         0.00000E+00
    0.00000E+00         0.00000E+00        -0.15543E+08
 
   -0.14948E+08         0.66463E+06         0.00000E+00
    0.66463E+06        -0.33997E+08         0.00000E+00
    0.00000E+00         0.00000E+00        -0.15670E+08
 
   -0.15183E+08         0.70490E+06         0.00000E+00
    0.70490E+06        -0.34451E+08         0.00000E+00
    0.00000E+00         0.00000E+00        -0.15799E+08
 
   -0.15408E+08         0.73950E+06         0.00000E+00
    0.73950E+06        -0.34899E+08         0.00000E+00
    0.00000E+00         0.00000E+00        -0.15929E+08
 
   -0.15621E+08         0.76870E+06         0.00000E+00
    0.76870E+06        -0.35341E+08         0.00000E+00
    0.00000E+00         0.00000E+00        -0.16058E+08
 
   -0.15824E+08         0.79298E+06         0.00000E+00
    0.79298E+06        -0.35775E+08         0.00000E+00
    0.00000E+00         0.00000E+00        -0.16187E+08
 
   -0.16018E+08         0.81286E+06         0.00000E+00
    0.81286E+06        -0.36202E+08         0.00000E+00
    0.00000E+00         0.00000E+00        -0.16314E+08
 
   -0.16202E+08         0.82891E+06         0.00000E+00
    0.82891E+06        -0.36620E+08         0.00000E+00
    0.00000E+00         0.00000E+00        -0.16438E+08
 
   -0.16378E+08         0.84166E+06         0.00000E+00
    0.84166E+06        -0.37030E+08         0.00000E+00
    0.00000E+00         0.00000E+00        -0.16560E+08
 
   -0.16544E+08         0.85163E+06         0.00000E+00
    0.85163E+06        -0.37433E+08         0.00000E+00
    0.00000E+00         0.00000E+00        -0.16680E+08
 
   -0.16702E+08         0.85924E+06         0.00000E+00
    0.85924E+06        -0.37827E+08         0.00000E+00
    0.00000E+00         0.00000E+00        -0.16796E+08
 
   -0.16852E+08         0.86490E+06         0.00000E+00
    0.86490E+06        -0.38215E+08         0.00000E+00
    0.00000E+00         0.00000E+00        -0.16910E+08
 
   -0.17014E+08         0.86739E+06         0.00000E+00
    0.86739E+06        -0.38575E+08         0.00000E+00
    0.00000E+00         0.00000E+00        -0.17039E+08
 
   -0.17196E+08         0.86628E+06         0.00000E+00
    0.86628E+06        -0.38899E+08         0.00000E+00
    0.00000E+00         0.00000E+00        -0.17193E+08
 
   -0.17373E+08         0.86392E+06         0.00000E+00
    0.86392E+06        -0.39213E+08         0.00000E+00
    0.00000E+00         0.00000E+00        -0.17347E+08
 
   -0.17546E+08         0.86068E+06         0.00000E+00
    0.86068E+06        -0.39520E+08         0.00000E+00
    0.00000E+00         0.00000E+00        -0.17499E+08
 
   -0.17712E+08         0.85673E+06         0.00000E+00
    0.85673E+06        -0.39820E+08         0.00000E+00
    0.00000E+00         0.00000E+00        -0.17649E+08
 
   -0.17874E+08         0.85222E+06         0.00000E+00
    0.85222E+06        -0.40113E+08         0.00000E+00
    0.00000E+00         0.00000E+00        -0.17797E+08
 
   -0.18031E+08         0.84726E+06         0.00000E+00
    0.84726E+06        -0.40400E+08         0.00000E+00
    0.00000E+00         0.00000E+00        -0.17942E+08
 
   -0.18183E+08         0.84195E+06         0.00000E+00
    0.84195E+06        -0.40680E+08         0.00000E+00
    0.00000E+00         0.00000E+00        -0.18086E+08
 
   -0.18332E+08         0.83636E+06         0.00000E+00
    0.83636E+06        -0.40955E+08         0.00000E+00
    0.00000E+00         0.00000E+00        -0.18227E+08
 
   -0.18476E+08         0.83057E+06         0.00000E+00
    0.83057E+06        -0.41224E+08         0.00000E+00
    0.00000E+00         0.00000E+00        -0.18366E+08
 
   -0.18616E+08         0.82463E+06         0.00000E+00
    0.82463E+06        -0.41487E+08         0.00000E+00
    0.00000E+00         0.00000E+00        -0.18503E+08
 
   -0.18753E+08         0.81858E+06         0.00000E+00
    0.81858E+06        -0.41746E+08         0.00000E+00
    0.00000E+00         0.00000E+00        -0.18639E+08
 
   -0.18887E+08         0.81246E+06         0.00000E+00
    0.81246E+06        -0.41999E+08         0.00000E+00
    0.00000E+00         0.00000E+00        -0.18772E+08
 
   -0.19018E+08         0.80631E+06         0.00000E+00
    0.80631E+06        -0.42248E+08         0.00000E+00
    0.00000E+00         0.00000E+00        -0.18904E+08
 
   -0.19145E+08         0.80017E+06         0.00000E+00
    0.80017E+06        -0.42493E+08         0.00000E+00
    0.00000E+00         0.00000E+00        -0.19034E+08
 
   -0.19271E+08         0.79406E+06         0.00000E+00
    0.79406E+06        -0.42733E+08         0.00000E+00
    0.00000E+00         0.00000E+00        -0.19162E+08
 
   -0.19393E+08         0.78799E+06         0.00000E+00
    0.78799E+06        -0.42970E+08         0.00000E+00
    0.00000E+00         0.00000E+00        -0.19289E+08
 
   -0.19514E+08         0.78201E+06         0.00000E+00
    0.78201E+06        -0.43203E+08         0.00000E+00
    0.00000E+00         0.00000E+00        -0.19414E+08
 
   -0.19632E+08         0.77611E+06         0.00000E+00
    0.77611E+06        -0.43433E+08         0.00000E+00
    0.00000E+00         0.00000E+00        -0.19538E+08
 
   -0.19749E+08         0.77032E+06         0.00000E+00
    0.77032E+06        -0.43659E+08         0.00000E+00
    0.00000E+00         0.00000E+00        -0.19660E+08
 
   -0.19863E+08         0.76466E+06         0.00000E+00
    0.76466E+06        -0.43883E+08         0.00000E+00
    0.00000E+00         0.00000E+00        -0.19782E+08
 
   -0.19976E+08         0.75913E+06         0.00000E+00
    0.75913E+06        -0.44104E+08         0.00000E+00
    0.00000E+00         0.00000E+00        -0.19902E+08
 
   -0.20088E+08         0.75374E+06         0.00000E+00
    0.75374E+06        -0.44324E+08         0.00000E+00
    0.00000E+00         0.00000E+00        -0.20021E+08
 
   -0.20199E+08         0.74851E+06         0.00000E+00
    0.74851E+06        -0.44541E+08         0.00000E+00
    0.00000E+00         0.00000E+00        -0.20140E+08
 
   -0.20308E+08         0.74343E+06         0.00000E+00
    0.74343E+06        -0.44756E+08         0.00000E+00
    0.00000E+00         0.00000E+00        -0.20257E+08
 
   -0.20417E+08         0.73852E+06         0.00000E+00
    0.73852E+06        -0.44970E+08         0.00000E+00
    0.00000E+00         0.00000E+00        -0.20374E+08
 
   -0.20525E+08         0.73376E+06         0.00000E+00
    0.73376E+06        -0.45182E+08         0.00000E+00
    0.00000E+00         0.00000E+00        -0.20490E+08
 
   -0.20633E+08         0.72916E+06         0.00000E+00
    0.72916E+06        -0.45394E+08         0.00000E+00
    0.00000E+00         0.00000E+00        -0.20606E+08
 
   -0.20740E+08         0.72472E+06         0.00000E+00
    0.72472E+06        -0.45605E+08         0.00000E+00
    0.00000E+00         0.00000E+00        -0.20721E+08
 
   -0.20847E+08         0.72043E+06         0.00000E+00
    0.72043E+06        -0.45816E+08         0.00000E+00
    0.00000E+00         0.00000E+00        -0.20836E+08
 
   -0.20954E+08         0.71628E+06         0.00000E+00
    0.71628E+06        -0.46026E+08         0.00000E+00
    0.00000E+00         0.00000E+00        -0.20951E+08
 
   -0.21062E+08         0.71226E+06         0.00000E+00
    0.71226E+06        -0.46236E+08         0.00000E+00
    0.00000E+00         0.00000E+00        -0.21066E+08
 
   -0.21169E+08         0.70836E+06         0.00000E+00
    0.70836E+06        -0.46447E+08         0.00000E+00
    0.00000E+00         0.00000E+00        -0.21181E+08
 
   -0.21277E+08         0.70456E+06         0.00000E+00
    0.70456E+06        -0.46658E+08         0.00000E+00
    0.00000E+00         0.00000E+00        -0.21295E+08
 
   -0.21386E+08         0.70085E+06         0.00000E+00
    0.70085E+06        -0.46870E+08         0.00000E+00
    0.00000E+00         0.00000E+00        -0.21411E+08
 
   -0.21496E+08         0.69719E+06         0.00000E+00
    0.69719E+06        -0.47083E+08         0.00000E+00
    0.00000E+00         0.00000E+00        -0.21526E+08
 
   -0.21606E+08         0.69358E+06         0.00000E+00
    0.69358E+06        -0.47297E+08         0.00000E+00
    0.00000E+00         0.00000E+00        -0.21642E+08
 
   -0.21718E+08         0.68999E+06         0.00000E+00
    0.68999E+06        -0.47513E+08         0.00000E+00
    0.00000E+00         0.00000E+00        -0.21758E+08
 
   -0.21831E+08         0.68638E+06         0.00000E+00
    0.68638E+06        -0.47731E+08         0.00000E+00
    0.00000E+00         0.00000E+00        -0.21875E+08
 
   -0.21946E+08         0.68272E+06         0.00000E+00
    0.68272E+06        -0.47951E+08         0.00000E+00
    0.00000E+00         0.00000E+00        -0.21993E+08
 
   -0.22062E+08         0.67898E+06         0.00000E+00
    0.67898E+06        -0.48173E+08         0.00000E+00
    0.00000E+00         0.00000E+00        -0.22111E+08
 
   -0.22180E+08         0.67512E+06         0.00000E+00
    0.67512E+06        -0.48398E+08         0.00000E+00
    0.00000E+00         0.00000E+00        -0.22230E+08
 
   -0.22301E+08         0.67111E+06         0.00000E+00
    0.67111E+06        -0.48626E+08         0.00000E+00
    0.00000E+00         0.00000E+00        -0.22350E+08
 
   -0.22423E+08         0.66688E+06         0.00000E+00
    0.66688E+06        -0.48857E+08         0.00000E+00
    0.00000E+00         0.00000E+00        -0.22471E+08
 
   -0.22549E+08         0.66239E+06         0.00000E+00
    0.66239E+06        -0.49091E+08         0.00000E+00
    0.00000E+00         0.00000E+00        -0.22594E+08
 
   -0.22676E+08         0.65758E+06         0.00000E+00
    0.65758E+06        -0.49329E+08         0.00000E+00
    0.00000E+00         0.00000E+00        -0.22717E+08
 
   -0.22807E+08         0.65240E+06         0.00000E+00
    0.65240E+06        -0.49570E+08         0.00000E+00
    0.00000E+00         0.00000E+00        -0.22842E+08
 
   -0.22941E+08         0.64676E+06         0.00000E+00
    0.64676E+06        -0.49816E+08         0.00000E+00
    0.00000E+00         0.00000E+00        -0.22968E+08
 
   -0.23078E+08         0.64059E+06         0.00000E+00
    0.64059E+06        -0.50067E+08         0.00000E+00
    0.00000E+00         0.00000E+00        -0.23095E+08
 
   -0.23219E+08         0.63379E+06         0.00000E+00
    0.63379E+06        -0.50322E+08         0.00000E+00
    0.00000E+00         0.00000E+00        -0.23223E+08
 
   -0.23363E+08         0.62625E+06         0.00000E+00
    0.62625E+06        -0.50582E+08         0.00000E+00
    0.00000E+00         0.00000E+00        -0.23353E+08
 
   -0.23512E+08         0.61787E+06         0.00000E+00
    0.61787E+06        -0.50847E+08         0.00000E+00
    0.00000E+00         0.00000E+00        -0.23485E+08
 
   -0.23665E+08         0.60850E+06         0.00000E+00
    0.60850E+06        -0.51119E+08         0.00000E+00
    0.00000E+00         0.00000E+00        -0.23618E+08
 
   -0.23823E+08         0.59797E+06         0.00000E+00
    0.59797E+06        -0.51396E+08         0.00000E+00
    0.00000E+00         0.00000E+00        -0.23753E+08
 
   -0.23985E+08         0.58610E+06         0.00000E+00
    0.58610E+06        -0.51679E+08         0.00000E+00
    0.00000E+00         0.00000E+00        -0.23889E+08
 
   -0.24153E+08         0.57268E+06         0.00000E+00
    0.57268E+06        -0.51969E+08         0.00000E+00
    0.00000E+00         0.00000E+00        -0.24026E+08
 
   -0.24327E+08         0.55747E+06         0.00000E+00
    0.55747E+06        -0.52265E+08         0.00000E+00
    0.00000E+00         0.00000E+00        -0.24166E+08
 
   -0.24506E+08         0.54018E+06         0.00000E+00
    0.54018E+06        -0.52569E+08         0.00000E+00
    0.00000E+00         0.00000E+00        -0.24307E+08
 
   -0.24692E+08         0.52051E+06         0.00000E+00
    0.52051E+06        -0.52881E+08         0.00000E+00
    0.00000E+00         0.00000E+00        -0.24449E+08
 
   -0.24885E+08         0.49812E+06         0.00000E+00
    0.49812E+06        -0.53200E+08         0.00000E+00
    0.00000E+00         0.00000E+00        -0.24593E+08
 
   -0.25085E+08         0.47265E+06         0.00000E+00
    0.47265E+06        -0.53527E+08         0.00000E+00
    0.00000E+00         0.00000E+00        -0.24738E+08
 
   -0.25292E+08         0.44374E+06         0.00000E+00
    0.44374E+06        -0.53863E+08         0.00000E+00
    0.00000E+00         0.00000E+00        -0.24885E+08
 
   -0.25507E+08         0.41104E+06         0.00000E+00
    0.41104E+06        -0.54207E+08         0.00000E+00
    0.00000E+00         0.00000E+00        -0.25033E+08
 
   -0.25730E+08         0.37426E+06         0.00000E+00
    0.37426E+06        -0.54559E+08         0.00000E+00
    0.00000E+00         0.00000E+00        -0.25182E+08
 
   -0.25962E+08         0.33320E+06         0.00000E+00
    0.33320E+06        -0.54920E+08         0.00000E+00
    0.00000E+00         0.00000E+00        -0.25332E+08
 
   -0.26202E+08         0.28784E+06         0.00000E+00
    0.28784E+06        -0.55288E+08         0.00000E+00
    0.00000E+00         0.00000E+00        -0.25482E+08
 
   -0.26451E+08         0.23842E+06         0.00000E+00
    0.23842E+06        -0.55664E+08         0.00000E+00
    0.00000E+00         0.00000E+00        -0.25632E+08
 
   -0.26708E+08         0.18561E+06         0.00000E+00
    0.18561E+06        -0.56046E+08         0.00000E+00
    0.00000E+00         0.00000E+00        -0.25781E+08
 
   -0.26974E+08         0.13066E+06         0.00000E+00
    0.13066E+06        -0.56432E+08         0.00000E+00
    0.00000E+00         0.00000E+00        -0.25927E+08
 
   -0.27247E+08         0.75672E+05         0.00000E+00
    0.75672E+05        -0.56821E+08         0.00000E+00
    0.00000E+00         0.00000E+00        -0.26069E+08
 
   -0.27527E+08         0.23924E+05         0.00000E+00
    0.23924E+05        -0.57210E+08         0.00000E+00
    0.00000E+00         0.00000E+00        -0.26206E+08
 
   -0.27814E+08        -0.19752E+05         0.00000E+00
   -0.19752E+05        -0.57594E+08         0.00000E+00
    0.00000E+00         0.00000E+00        -0.26334E+08
 
   -0.28105E+08        -0.49078E+05         0.00000E+00
   -0.49078E+05        -0.57968E+08         0.00000E+00
    0.00000E+00         0.00000E+00        -0.26448E+08
 
   -0.28402E+08        -0.58173E+05         0.00000E+00
   -0.58173E+05        -0.58322E+08         0.00000E+00
    0.00000E+00         0.00000E+00        -0.26538E+08
 
   -0.28708E+08        -0.45558E+05         0.00000E+00
   -0.45558E+05        -0.58645E+08         0.00000E+00
    0.00000E+00         0.00000E+00        -0.26590E+08
 
   -0.29032E+08        -0.17036E+05         0.00000E+00
   -0.17036E+05        -0.58927E+08         0.00000E+00
    0.00000E+00         0.00000E+00        -0.26589E+08
 
   -0.10232E+08        -0.30319E+05         0.00000E+00
   -0.30319E+05        -0.28023E+08         0.00000E+00
    0.00000E+00         0.00000E+00        -0.15131E+08
 
   -0.10712E+08        -0.74032E+05         0.00000E+00
   -0.74032E+05        -0.28393E+08         0.00000E+00
    0.00000E+00         0.00000E+00        -0.15004E+08
 
   -0.11169E+08        -0.72425E+05         0.00000E+00
   -0.72425E+05        -0.28777E+08         0.00000E+00
    0.00000E+00         0.00000E+00        -0.14934E+08
 
   -0.11607E+08        -0.19099E+05         0.00000E+00
   -0.19099E+05        -0.29204E+08         0.00000E+00
    0.00000E+00         0.00000E+00        -0.14905E+08
 
   -0.12029E+08         0.66244E+05         0.00000E+00
    0.66244E+05        -0.29678E+08         0.00000E+00
    0.00000E+00         0.00000E+00        -0.14906E+08
 
   -0.12434E+08         0.15786E+06         0.00000E+00
    0.15786E+06        -0.30183E+08         0.00000E+00
    0.00000E+00         0.00000E+00        -0.14930E+08
 
   -0.12818E+08         0.24008E+06         0.00000E+00
    0.24008E+06        -0.30695E+08         0.00000E+00
    0.00000E+00         0.00000E+00        -0.14974E+08
 
   -0.13179E+08         0.30912E+06         0.00000E+00
    0.30912E+06        -0.31199E+08         0.00000E+00
    0.00000E+00         0.00000E+00        -0.15037E+08
 
   -0.13520E+08         0.36882E+06         0.00000E+00
    0.36882E+06        -0.31687E+08         0.00000E+00
    0.00000E+00         0.00000E+00        -0.15116E+08
 
   -0.13840E+08         0.42441E+06         0.00000E+00
    0.42441E+06        -0.32161E+08         0.00000E+00
    0.00000E+00         0.00000E+00        -0.15210E+08
 
   -0.14141E+08         0.47843E+06         0.00000E+00
    0.47843E+06        -0.32627E+08         0.00000E+00
    0.00000E+00         0.00000E+00        -0.15314E+08
 
   -0.14424E+08         0.53062E+06         0.00000E+00
    0.53062E+06        -0.33089E+08         0.00000E+00
    0.00000E+00         0.00000E+00        -0.15428E+08
 
   -0.14689E+08         0.57954E+06         0.00000E+00
    0.57954E+06        -0.33548E+08         0.00000E+00
    0.00000E+00         0.00000E+00        -0.15547E+08
 
   -0.14940E+08         0.62391E+06         0.00000E+00
    0.62391E+06        -0.34005E+08         0.00000E+00
    0.00000E+00         0.00000E+00        -0.15671E+08
 
   -0.15177E+08         0.66301E+06         0.00000E+00
    0.66301E+06        -0.34458E+08         0.00000E+00
    0.00000E+00         0.00000E+00        -0.15797E+08
 
   -0.15403E+08         0.69668E+06         0.00000E+00
    0.69668E+06        -0.34906E+08         0.00000E+00
    0.00000E+00         0.00000E+00        -0.15925E+08
 
   -0.15617E+08         0.72510E+06         0.00000E+00
    0.72510E+06        -0.35346E+08         0.00000E+00
    0.00000E+00         0.00000E+00        -0.16053E+08
 
   -0.15821E+08         0.74870E+06         0.00000E+00
    0.74870E+06        -0.35780E+08         0.00000E+00
    0.00000E+00         0.00000E+00        -0.16180E+08
 
   -0.16015E+08         0.76799E+06         0.00000E+00
    0.76799E+06        -0.36205E+08         0.00000E+00
    0.00000E+00         0.00000E+00        -0.16305E+08
 
   -0.16200E+08         0.78352E+06         0.00000E+00
    0.78352E+06        -0.36623E+08         0.00000E+00
    0.00000E+00         0.00000E+00        -0.16429E+08
 
   -0.16375E+08         0.79583E+06         0.00000E+00
    0.79583E+06        -0.37032E+08         0.00000E+00
    0.00000E+00         0.00000E+00        -0.16551E+08
 
   -0.16542E+08         0.80540E+06         0.00000E+00
    0.80540E+06        -0.37434E+08         0.00000E+00
    0.00000E+00         0.00000E+00        -0.16670E+08
 
   -0.16700E+08         0.81269E+06         0.00000E+00
    0.81269E+06        -0.37829E+08         0.00000E+00
    0.00000E+00         0.00000E+00        -0.16786E+08
 
   -0.16850E+08         0.81809E+06         0.00000E+00
    0.81809E+06        -0.38216E+08         0.00000E+00
    0.00000E+00         0.00000E+00        -0.16900E+08
 
   -0.17013E+08         0.82040E+06         0.00000E+00
    0.82040E+06        -0.38575E+08         0.00000E+00
    0.00000E+00         0.00000E+00        -0.17030E+08
 
   -0.17195E+08         0.81931E+06         0.00000E+00
    0.81931E+06        -0.38898E+08         0.00000E+00
    0.00000E+00         0.00000E+00        -0.17185E+08
 
   -0.17373E+08         0.81708E+06         0.00000E+00
    0.81708E+06        -0.39212E+08         0.00000E+00
    0.00000E+00         0.00000E+00        -0.17339E+08
 
   -0.17545E+08         0.81402E+06         0.00000E+00
    0.81402E+06        -0.39519E+08         0.00000E+00
    0.00000E+00         0.00000E+00        -0.17491E+08
 
   -0.17712E+08         0.81030E+06         0.00000E+00
    0.81030E+06        -0.39819E+08         0.00000E+00
    0.00000E+00         0.00000E+00        -0.17641E+08
 
   -0.17874E+08         0.80604E+06         0.00000E+00
    0.80604E+06        -0.40112E+08         0.00000E+00
    0.00000E+00         0.00000E+00        -0.17789E+08
 
   -0.18031E+08         0.80137E+06         0.00000E+00
    0.80137E+06        -0.40399E+08         0.00000E+00
    0.00000E+00         0.00000E+00        -0.17934E+08
 
   -0.18183E+08         0.79636E+06         0.00000E+00
    0.79636E+06        -0.40679E+08         0.00000E+00
    0.00000E+00         0.00000E+00        -0.18078E+08
 
   -0.18331E+08         0.79111E+06         0.00000E+00
    0.79111E+06        -0.40954E+08         0.00000E+00
    0.00000E+00         0.00000E+00        -0.18220E+08
 
   -0.18476E+08         0.78566E+06         0.00000E+00
    0.78566E+06        -0.41223E+08         0.00000E+00
    0.00000E+00         0.00000E+00        -0.18359E+08
 
   -0.18616E+08         0.78006E+06         0.00000E+00
    0.78006E+06        -0.41487E+08         0.00000E+00
    0.00000E+00         0.00000E+00        -0.18497E+08
 
   -0.18753E+08         0.77437E+06         0.00000E+00
    0.77437E+06        -0.41745E+08         0.00000E+00
    0.00000E+00         0.00000E+00        -0.18632E+08
 
   -0.18887E+08         0.76862E+06         0.00000E+00
    0.76862E+06        -0.41999E+08         0.00000E+00
    0.00000E+00         0.00000E+00        -0.18766E+08
 
   -0.19017E+08         0.76284E+06         0.00000E+00
    0.76284E+06        -0.42248E+08         0.00000E+00
    0.00000E+00         0.00000E+00        -0.18898E+08
 
   -0.19145E+08         0.75706E+06         0.00000E+00
    0.75706E+06        -0.42492E+08         0.00000E+00
    0.00000E+00         0.00000E+00        -0.19028E+08
 
   -0.19270E+08         0.75131E+06         0.00000E+00
    0.75131E+06        -0.42733E+08         0.00000E+00
    0.00000E+00         0.00000E+00        -0.19157E+08
 
   -0.19393E+08         0.74561E+06         0.00000E+00
    0.74561E+06        -0.42970E+08         0.00000E+00
    0.00000E+00         0.00000E+00        -0.19284E+08
 
   -0.19513E+08         0.73997E+06         0.00000E+00
    0.73997E+06        -0.43203E+08         0.00000E+00
    0.00000E+00         0.00000E+00        -0.19409E+08
 
   -0.19631E+08         0.73442E+06         0.00000E+00
    0.73442E+06        -0.43433E+08         0.00000E+00
    0.00000E+00         0.00000E+00        -0.19533E+08
 
   -0.19748E+08         0.72897E+06         0.00000E+00
    0.72897E+06        -0.43659E+08         0.00000E+00
    0.00000E+00         0.00000E+00        -0.19656E+08
 
   -0.19862E+08         0.72363E+06         0.00000E+00
    0.72363E+06        -0.43883E+08         0.00000E+00
    0.00000E+00         0.00000E+00        -0.19778E+08
 
   -0.19976E+08         0.71842E+06         0.00000E+00
    0.71842E+06        -0.44105E+08         0.00000E+00
    0.00000E+00         0.00000E+00        -0.19898E+08
 
   -0.20087E+08         0.71334E+06         0.00000E+00
    0.71334E+06        -0.44324E+08         0.00000E+00
    0.00000E+00         0.00000E+00        -0.20018E+08
 
   -0.20198E+08         0.70841E+06         0.00000E+00
    0.70841E+06        -0.44541E+08         0.00000E+00
    0.00000E+00         0.00000E+00        -0.20136E+08
 
   -0.20307E+08         0.70362E+06         0.00000E+00
    0.70362E+06        -0.44757E+08         0.00000E+00
    0.00000E+00         0.00000E+00        -0.20254E+08
 
   -0.20416E+08         0.69897E+06         0.00000E+00
    0.69897E+06        -0.44970E+08         0.00000E+00
    0.00000E+00         0.00000E+00        -0.20371E+08
 
   -0.20524E+08         0.69448E+06         0.00000E+00
    0.69448E+06        -0.45183E+08         0.00000E+00
    0.00000E+00         0.00000E+00        -0.20487E+08
 
   -0.20631E+08         0.69014E+06         0.00000E+00
    0.69014E+06        -0.45395E+08         0.00000E+00
    0.00000E+00         0.00000E+00        -0.20603E+08
 
   -0.20739E+08         0.68593E+06         0.00000E+00
    0.68593E+06        -0.45606E+08         0.00000E+00
    0.00000E+00         0.00000E+00        -0.20719E+08
 
   -0.20846E+08         0.68187E+06         0.00000E+00
    0.68187E+06        -0.45816E+08         0.00000E+00
    0.00000E+00         0.00000E+00        -0.20834E+08
 
   -0.20953E+08         0.67794E+06         0.00000E+00
    0.67794E+06        -0.46026E+08         0.00000E+00
    0.00000E+00         0.00000E+00        -0.20949E+08
 
   -0.21060E+08         0.67413E+06         0.00000E+00
    0.67413E+06        -0.46237E+08         0.00000E+00
    0.00000E+00         0.00000E+00        -0.21064E+08
 
   -0.21167E+08         0.67043E+06         0.00000E+00
    0.67043E+06        -0.46447E+08         0.00000E+00
    0.00000E+00         0.00000E+00        -0.21179E+08
 
   -0.21275E+08         0.66683E+06         0.00000E+00
    0.66683E+06        -0.46659E+08         0.00000E+00
    0.00000E+00         0.00000E+00        -0.21294E+08
 
   -0.21384E+08         0.66330E+06         0.00000E+00
    0.66330E+06        -0.46871E+08         0.00000E+00
    0.00000E+00         0.00000E+00        -0.21410E+08
 
   -0.21493E+08         0.65982E+06         0.00000E+00
    0.65982E+06        -0.47084E+08         0.00000E+00
    0.00000E+00         0.00000E+00        -0.21525E+08
 
   -0.21604E+08         0.65639E+06         0.00000E+00
    0.65639E+06        -0.47298E+08         0.00000E+00
    0.00000E+00         0.00000E+00        -0.21641E+08
 
   -0.21715E+08         0.65296E+06         0.00000E+00
    0.65296E+06        -0.47514E+08         0.00000E+00
    0.00000E+00         0.00000E+00        -0.21758E+08
 
   -0.21828E+08         0.64952E+06         0.00000E+00
    0.64952E+06        -0.47732E+08         0.00000E+00
    0.00000E+00         0.00000E+00        -0.21875E+08
 
   -0.21943E+08         0.64603E+06         0.00000E+00
    0.64603E+06        -0.47952E+08         0.00000E+00
    0.00000E+00         0.00000E+00        -0.21992E+08
 
   -0.22059E+08         0.64246E+06         0.00000E+00
    0.64246E+06        -0.48174E+08         0.00000E+00
    0.00000E+00         0.00000E+00        -0.22111E+08
 
   -0.22178E+08         0.63878E+06         0.00000E+00
    0.63878E+06        -0.48399E+08         0.00000E+00
    0.00000E+00         0.00000E+00        -0.22230E+08
 
   -0.22298E+08         0.63494E+06         0.00000E+00
    0.63494E+06        -0.48627E+08         0.00000E+00
    0.00000E+00         0.00000E+00        -0.22350E+08
 
   -0.22421E+08         0.63090E+06         0.00000E+00
    0.63090E+06        -0.48857E+08         0.00000E+00
    0.00000E+00         0.00000E+00        -0.22472E+08
 
   -0.22546E+08         0.62662E+06         0.00000E+00
    0.62662E+06        -0.49092E+08         0.00000E+00
    0.00000E+00         0.00000E+00        -0.22594E+08
 
   -0.22674E+08         0.62203E+06         0.00000E+00
    0.62203E+06        -0.49329E+08         0.00000E+00
    0.00000E+00         0.00000E+00        -0.22717E+08
 
   -0.22804E+08         0.61707E+06         0.00000E+00
    0.61707E+06        -0.49571E+08         0.00000E+00
    0.00000E+00         0.00000E+00        -0.22842E+08
 
   -0.22938E+08         0.61169E+06         0.00000E+00
    0.61169E+06        -0.49817E+08         0.00000E+00
    0.00000E+00         0.00000E+00        -0.22968E+08
 
   -0.23075E+08         0.60580E+06         0.00000E+00
    0.60580E+06        -0.50067E+08         0.00000E+00
    0.00000E+00         0.00000E+00        -0.23095E+08
 
   -0.23216E+08         0.59931E+06         0.00000E+00
    0.59931E+06        -0.50322E+08         0.00000E+00
    0.00000E+00         0.00000E+00        -0.23223E+08
 
   -0.23361E+08         0.59212E+06         0.00000E+00
    0.59212E+06        -0.50583E+08         0.00000E+00
    0.00000E+00         0.00000E+00        -0.23353E+08
 
   -0.23510E+08         0.58413E+06         0.00000E+00
    0.58413E+06        -0.50848E+08         0.00000E+00
    0.00000E+00         0.00000E+00        -0.23485E+08
 
   -0.23663E+08         0.57519E+06         0.00000E+00
    0.57519E+06        -0.51119E+08         0.00000E+00
    0.00000E+00         0.00000E+00        -0.23617E+08
 
   -0.23821E+08         0.56514E+06         0.00000E+00
    0.56514E+06        -0.51396E+08         0.00000E+00
    0.00000E+00         0.00000E+00        -0.23752E+08
 
   -0.23983E+08         0.55382E+06         0.00000E+00
    0.55382E+06        -0.51679E+08         0.00000E+00
    0.00000E+00         0.00000E+00        -0.23887E+08
 
   -0.24152E+08         0.54101E+06         0.00000E+00
    0.54101E+06        -0.51968E+08         0.00000E+00
    0.00000E+00         0.00000E+00        -0.24025E+08
 
   -0.24326E+08         0.52648E+06         0.00000E+00
    0.52648E+06        -0.52265E+08         0.00000E+00
    0.00000E+00         0.00000E+00        -0.24164E+08
 
   -0.24506E+08         0.50995E+06         0.00000E+00
    0.50995E+06        -0.52568E+08         0.00000E+00
    0.00000E+00         0.00000E+00        -0.24304E+08
 
   -0.24692E+08         0.49112E+06         0.00000E+00
    0.49112E+06        -0.52879E+08         0.00000E+00
    0.00000E+00         0.00000E+00        -0.24445E+08
 
   -0.24885E+08         0.46967E+06         0.00000E+00
    0.46967E+06        -0.53198E+08         0.00000E+00
    0.00000E+00         0.00000E+00        -0.24589E+08
 
   -0.25086E+08         0.44523E+06         0.00000E+00
    0.44523E+06        -0.53525E+08         0.00000E+00
    0.00000E+00         0.00000E+00        -0.24733E+08
 
   -0.25294E+08         0.41746E+06         0.00000E+00
    0.41746E+06        -0.53860E+08         0.00000E+00
    0.00000E+00         0.00000E+00        -0.24879E+08
 
   -0.25510E+08         0.38599E+06         0.00000E+00
    0.38599E+06        -0.54203E+08         0.00000E+00
    0.00000E+00         0.00000E+00        -0.25025E+08
 
   -0.25735E+08         0.35055E+06         0.00000E+00
    0.35055E+06        -0.54555E+08         0.00000E+00
    0.00000E+00         0.00000E+00        -0.25173E+08
 
   -0.25968E+08         0.31093E+06         0.00000E+00
    0.31093E+06        -0.54915E+08         0.00000E+00
    0.00000E+00         0.00000E+00        -0.25321E+08
 
   -0.26211E+08         0.26710E+06         0.00000E+00
    0.26710E+06        -0.55284E+08         0.00000E+00
    0.00000E+00         0.00000E+00        -0.25469E+08
 
   -0.26462E+08         0.21932E+06         0.00000E+00
    0.21932E+06        -0.55659E+08         0.00000E+00
    0.00000E+00         0.00000E+00        -0.25616E+08
 
   -0.26723E+08         0.16821E+06         0.00000E+00
    0.16821E+06        -0.56041E+08         0.00000E+00
    0.00000E+00         0.00000E+00        -0.25762E+08
 
   -0.26992E+08         0.11499E+06         0.00000E+00
    0.11499E+06        -0.56429E+08         0.00000E+00
    0.00000E+00         0.00000E+00        -0.25906E+08
 
   -0.27270E+08         0.61685E+05         0.00000E+00
    0.61685E+05        -0.56819E+08         0.00000E+00
    0.00000E+00         0.00000E+00        -0.26046E+08
 
   -0.27555E+08         0.11469E+05         0.00000E+00
    0.11469E+05        -0.57210E+08         0.00000E+00
    0.00000E+00         0.00000E+00        -0.26181E+08
 
   -0.27847E+08        -0.30954E+05         0.00000E+00
   -0.30954E+05        -0.57598E+08         0.00000E+00
    0.00000E+00         0.00000E+00        -0.26308E+08
 
   -0.28144E+08        -0.59211E+05         0.00000E+00
   -0.59211E+05        -0.57978E+08         0.00000E+00
    0.00000E+00         0.00000E+00        -0.26423E+08
 
   -0.28445E+08        -0.66842E+05         0.00000E+00
   -0.66842E+05        -0.58338E+08         0.00000E+00
    0.00000E+00         0.00000E+00        -0.26516E+08
 
   -0.28753E+08        -0.51608E+05         0.00000E+00
   -0.51608E+05        -0.58666E+08         0.00000E+00
    0.00000E+00         0.00000E+00        -0.26572E+08
 
   -0.29078E+08        -0.19221E+05         0.00000E+00
   -0.19221E+05        -0.58951E+08         0.00000E+00
    0.00000E+00         0.00000E+00        -0.26573E+08
 
   -0.10153E+08        -0.32212E+05         0.00000E+00
   -0.32212E+05        -0.28010E+08         0.00000E+00
    0.00000E+00         0.00000E+00        -0.15158E+08
 
   -0.10635E+08        -0.79761E+05         0.00000E+00
   -0.79761E+05        -0.28388E+08         0.00000E+00
    0.00000E+00         0.00000E+00        -0.15037E+08
 
   -0.11100E+08        -0.81714E+05         0.00000E+00
   -0.81714E+05        -0.28783E+08         0.00000E+00
    0.00000E+00         0.00000E+00        -0.14973E+08
 
   -0.11549E+08        -0.31353E+05         0.00000E+00
   -0.31353E+05        -0.29219E+08         0.00000E+00
    0.00000E+00         0.00000E+00        -0.14947E+08
 
   -0.11982E+08         0.51182E+05         0.00000E+00
    0.51182E+05        -0.29696E+08         0.00000E+00
    0.00000E+00         0.00000E+00        -0.14947E+08
 
   -0.12395E+08         0.13946E+06         0.00000E+00
    0.13946E+06        -0.30200E+08         0.00000E+00
    0.00000E+00         0.00000E+00        -0.14968E+08
 
   -0.12785E+08         0.21798E+06         0.00000E+00
    0.21798E+06        -0.30710E+08         0.00000E+00
    0.00000E+00         0.00000E+00        -0.15008E+08
 
   -0.13152E+08         0.28359E+06         0.00000E+00
    0.28359E+06        -0.31211E+08         0.00000E+00
    0.00000E+00         0.00000E+00        -0.15065E+08
 
   -0.13497E+08         0.34021E+06         0.00000E+00
    0.34021E+06        -0.31698E+08         0.00000E+00
    0.00000E+00         0.00000E+00        -0.15139E+08
 
   -0.13821E+08         0.39288E+06         0.00000E+00
    0.39288E+06        -0.32172E+08         0.00000E+00
    0.00000E+00         0.00000E+00        -0.15227E+08
 
   -0.14126E+08         0.44414E+06         0.00000E+00
    0.44414E+06        -0.32637E+08         0.00000E+00
    0.00000E+00         0.00000E+00        -0.15326E+08
 
   -0.14411E+08         0.49389E+06         0.00000E+00
    0.49389E+06        -0.33099E+08         0.00000E+00
    0.00000E+00         0.00000E+00        -0.15435E+08
 
   -0.14680E+08         0.54080E+06         0.00000E+00
    0.54080E+06        -0.33558E+08         0.00000E+00
    0.00000E+00         0.00000E+00        -0.15551E+08
 
   -0.14933E+08         0.58358E+06         0.00000E+00
    0.58358E+06        -0.34014E+08         0.00000E+00
    0.00000E+00         0.00000E+00        -0.15672E+08
 
   -0.15172E+08         0.62142E+06         0.00000E+00
    0.62142E+06        -0.34465E+08         0.00000E+00
    0.00000E+00         0.00000E+00        -0.15795E+08
 
   -0.15399E+08         0.65407E+06         0.00000E+00
    0.65407E+06        -0.34912E+08         0.00000E+00
    0.00000E+00         0.00000E+00        -0.15921E+08
 
   -0.15614E+08         0.68165E+06         0.00000E+00
    0.68165E+06        -0.35351E+08         0.00000E+00
    0.00000E+00         0.00000E+00        -0.16047E+08
 
   -0.15819E+08         0.70453E+06         0.00000E+00
    0.70453E+06        -0.35784E+08         0.00000E+00
    0.00000E+00         0.00000E+00        -0.16173E+08
 
   -0.16013E+08         0.72320E+06         0.00000E+00
    0.72320E+06        -0.36209E+08         0.00000E+00
    0.00000E+00         0.00000E+00        -0.16297E+08
 
   -0.16198E+08         0.73818E+06         0.00000E+00
    0.73818E+06        -0.36625E+08         0.00000E+00
    0.00000E+00         0.00000E+00        -0.16420E+08
 
   -0.16374E+08         0.75002E+06         0.00000E+00
    0.75002E+06        -0.37035E+08         0.00000E+00
    0.00000E+00         0.00000E+00        -0.16541E+08
 
   -0.16541E+08         0.75920E+06         0.00000E+00
    0.75920E+06        -0.37436E+08         0.00000E+00
    0.00000E+00         0.00000E+00        -0.16660E+08
 
   -0.16699E+08         0.76616E+06         0.00000E+00
    0.76616E+06        -0.37830E+08         0.00000E+00
    0.00000E+00         0.00000E+00        -0.16776E+08
 
   -0.16849E+08         0.77130E+06         0.00000E+00
    0.77130E+06        -0.38217E+08         0.00000E+00
    0.00000E+00         0.00000E+00        -0.16890E+08
 
   -0.17012E+08         0.77345E+06         0.00000E+00
    0.77345E+06        -0.38574E+08         0.00000E+00
    0.00000E+00         0.00000E+00        -0.17021E+08
 
   -0.17196E+08         0.77238E+06         0.00000E+00
    0.77238E+06        -0.38897E+08         0.00000E+00
    0.00000E+00         0.00000E+00        -0.17176E+08
 
   -0.17374E+08         0.77029E+06         0.00000E+00
    0.77029E+06        -0.39211E+08         0.00000E+00
    0.00000E+00         0.00000E+00        -0.17331E+08
 
   -0.17546E+08         0.76741E+06         0.00000E+00
    0.76741E+06        -0.39518E+08         0.00000E+00
    0.00000E+00         0.00000E+00        -0.17483E+08
 
   -0.17712E+08         0.76391E+06         0.00000E+00
    0.76391E+06        -0.39818E+08         0.00000E+00
    0.00000E+00         0.00000E+00        -0.17633E+08
 
   -0.17874E+08         0.75991E+06         0.00000E+00
    0.75991E+06        -0.40111E+08         0.00000E+00
    0.00000E+00         0.00000E+00        -0.17781E+08
 
   -0.18031E+08         0.75552E+06         0.00000E+00
    0.75552E+06        -0.40398E+08         0.00000E+00
    0.00000E+00         0.00000E+00        -0.17927E+08
 
   -0.18183E+08         0.75082E+06         0.00000E+00
    0.75082E+06        -0.40679E+08         0.00000E+00
    0.00000E+00         0.00000E+00        -0.18071E+08
 
   -0.18331E+08         0.74589E+06         0.00000E+00
    0.74589E+06        -0.40953E+08         0.00000E+00
    0.00000E+00         0.00000E+00        -0.18213E+08
 
   -0.18476E+08         0.74077E+06         0.00000E+00
    0.74077E+06        -0.41223E+08         0.00000E+00
    0.00000E+00         0.00000E+00        -0.18352E+08
 
   -0.18616E+08         0.73553E+06         0.00000E+00
    0.73553E+06        -0.41486E+08         0.00000E+00
    0.00000E+00         0.00000E+00        -0.18490E+08
 
   -0.18753E+08         0.73019E+06         0.00000E+00
    0.73019E+06        -0.41745E+08         0.00000E+00
    0.00000E+00         0.00000E+00        -0.18626E+08
 
   -0.18887E+08         0.72480E+06         0.00000E+00
    0.72480E+06        -0.41999E+08         0.00000E+00
    0.00000E+00         0.00000E+00        -0.18760E+08
 
   -0.19017E+08         0.71938E+06         0.00000E+00
    0.71938E+06        -0.42248E+08         0.00000E+00
    0.00000E+00         0.00000E+00        -0.18892E+08
 
   -0.19145E+08         0.71396E+06         0.00000E+00
    0.71396E+06        -0.42492E+08         0.00000E+00
    0.00000E+00         0.00000E+00        -0.19023E+08
 
   -0.19270E+08         0.70857E+06         0.00000E+00
    0.70857E+06        -0.42733E+08         0.00000E+00
    0.00000E+00         0.00000E+00        -0.19151E+08
 
   -0.19393E+08         0.70322E+06         0.00000E+00
    0.70322E+06        -0.42970E+08         0.00000E+00
    0.00000E+00         0.00000E+00        -0.19279E+08
 
   -0.19513E+08         0.69793E+06         0.00000E+00
    0.69793E+06        -0.43203E+08         0.00000E+00
    0.00000E+00         0.00000E+00        -0.19404E+08
 
   -0.19631E+08         0.69272E+06         0.00000E+00
    0.69272E+06        -0.43433E+08         0.00000E+00
    0.00000E+00         0.00000E+00        -0.19529E+08
 
   -0.19747E+08         0.68761E+06         0.00000E+00
    0.68761E+06        -0.43660E+08         0.00000E+00
    0.00000E+00         0.00000E+00        -0.19652E+08
 
   -0.19862E+08         0.68259E+06         0.00000E+00
    0.68259E+06        -0.43884E+08         0.00000E+00
    0.00000E+00         0.00000E+00        -0.19774E+08
 
   -0.19975E+08         0.67770E+06         0.00000E+00
    0.67770E+06        -0.44105E+08         0.00000E+00
    0.00000E+00         0.00000E+00        -0.19894E+08
 
   -0.20086E+08         0.67292E+06         0.00000E+00
    0.67292E+06        -0.44324E+08         0.00000E+00
    0.00000E+00         0.00000E+00        -0.20014E+08
 
   -0.20197E+08         0.66828E+06         0.00000E+00
    0.66828E+06        -0.44542E+08         0.00000E+00
    0.00000E+00         0.00000E+00        -0.20133E+08
 
   -0.20306E+08         0.66377E+06         0.00000E+00
    0.66377E+06        -0.44757E+08         0.00000E+00
    0.00000E+00         0.00000E+00        -0.20251E+08
 
   -0.20415E+08         0.65940E+06         0.00000E+00
    0.65940E+06        -0.44971E+08         0.00000E+00
    0.00000E+00         0.00000E+00        -0.20368E+08
 
   -0.20523E+08         0.65517E+06         0.00000E+00
    0.65517E+06        -0.45184E+08         0.00000E+00
    0.00000E+00         0.00000E+00        -0.20485E+08
 
   -0.20630E+08         0.65108E+06         0.00000E+00
    0.65108E+06        -0.45395E+08         0.00000E+00
    0.00000E+00         0.00000E+00        -0.20601E+08
 
   -0.20737E+08         0.64712E+06         0.00000E+00
    0.64712E+06        -0.45606E+08         0.00000E+00
    0.00000E+00         0.00000E+00        -0.20717E+08
 
   -0.20844E+08         0.64328E+06         0.00000E+00
    0.64328E+06        -0.45817E+08         0.00000E+00
    0.00000E+00         0.00000E+00        -0.20832E+08
 
   -0.20951E+08         0.63957E+06         0.00000E+00
    0.63957E+06        -0.46027E+08         0.00000E+00
    0.00000E+00         0.00000E+00        -0.20948E+08
 
   -0.21058E+08         0.63597E+06         0.00000E+00
    0.63597E+06        -0.46238E+08         0.00000E+00
    0.00000E+00         0.00000E+00        -0.21063E+08
 
   -0.21165E+08         0.63247E+06         0.00000E+00
    0.63247E+06        -0.46448E+08         0.00000E+00
    0.00000E+00         0.00000E+00        -0.21178E+08
 
   -0.21273E+08         0.62906E+06         0.00000E+00
    0.62906E+06        -0.46659E+08         0.00000E+00
    0.00000E+00         0.00000E+00        -0.21293E+08
 
   -0.21382E+08         0.62572E+06         0.00000E+00
    0.62572E+06        -0.46871E+08         0.00000E+00
    0.00000E+00         0.00000E+00        -0.21409E+08
 
   -0.21491E+08         0.62243E+06         0.00000E+00
    0.62243E+06        -0.47084E+08         0.00000E+00
    0.00000E+00         0.00000E+00        -0.21524E+08
 
   -0.21601E+08         0.61916E+06         0.00000E+00
    0.61916E+06        -0.47299E+08         0.00000E+00
    0.00000E+00         0.00000E+00        -0.21641E+08
 
   -0.21713E+08         0.61591E+06         0.00000E+00
    0.61591E+06        -0.47515E+08         0.00000E+00
    0.00000E+00         0.00000E+00        -0.21757E+08
 
   -0.21826E+08         0.61264E+06         0.00000E+00
    0.61264E+06        -0.47733E+08         0.00000E+00
    0.00000E+00         0.00000E+00        -0.21874E+08
 
   -0.21940E+08         0.60933E+06         0.00000E+00
    0.60933E+06        -0.47953E+08         0.00000E+00
    0.00000E+00         0.00000E+00        -0.21992E+08
 
   -0.22057E+08         0.60593E+06         0.00000E+00
    0.60593E+06        -0.48175E+08         0.00000E+00
    0.00000E+00         0.00000E+00        -0.22111E+08
 
   -0.22175E+08         0.60243E+06         0.00000E+00
    0.60243E+06        -0.48400E+08         0.00000E+00
    0.00000E+00         0.00000E+00        -0.22230E+08
 
   -0.22295E+08         0.59877E+06         0.00000E+00
    0.59877E+06        -0.48627E+08         0.00000E+00
    0.00000E+00         0.00000E+00        -0.22350E+08
 
   -0.22418E+08         0.59493E+06         0.00000E+00
    0.59493E+06        -0.48858E+08         0.00000E+00
    0.00000E+00         0.00000E+00        -0.22472E+08
 
   -0.22543E+08         0.59084E+06         0.00000E+00
    0.59084E+06        -0.49092E+08         0.00000E+00
    0.00000E+00         0.00000E+00        -0.22594E+08
 
   -0.22671E+08         0.58647E+06         0.00000E+00
    0.58647E+06        -0.49330E+08         0.00000E+00
    0.00000E+00         0.00000E+00        -0.22717E+08
 
   -0.22802E+08         0.58176E+06         0.00000E+00
    0.58176E+06        -0.49572E+08         0.00000E+00
    0.00000E+00         0.00000E+00        -0.22842E+08
 
   -0.22935E+08         0.57663E+06         0.00000E+00
    0.57663E+06        -0.49818E+08         0.00000E+00
    0.00000E+00         0.00000E+00        -0.22968E+08
 
   -0.23073E+08         0.57102E+06         0.00000E+00
    0.57102E+06        -0.50068E+08         0.00000E+00
    0.00000E+00         0.00000E+00        -0.23095E+08
 
   -0.23214E+08         0.56485E+06         0.00000E+00
    0.56485E+06        -0.50323E+08         0.00000E+00
    0.00000E+00         0.00000E+00        -0.23223E+08
 
   -0.23358E+08         0.55802E+06         0.00000E+00
    0.55802E+06        -0.50583E+08         0.00000E+00
    0.00000E+00         0.00000E+00        -0.23353E+08
 
   -0.23507E+08         0.55042E+06         0.00000E+00
    0.55042E+06        -0.50848E+08         0.00000E+00
    0.00000E+00         0.00000E+00        -0.23484E+08
 
   -0.23661E+08         0.54192E+06         0.00000E+00
    0.54192E+06        -0.51119E+08         0.00000E+00
    0.00000E+00         0.00000E+00        -0.23617E+08
 
   -0.23819E+08         0.53237E+06         0.00000E+00
    0.53237E+06        -0.51396E+08         0.00000E+00
    0.00000E+00         0.00000E+00        -0.23751E+08
 
   -0.23982E+08         0.52160E+06         0.00000E+00
    0.52160E+06        -0.51678E+08         0.00000E+00
    0.00000E+00         0.00000E+00        -0.23886E+08
 
   -0.24150E+08         0.50941E+06         0.00000E+00
    0.50941E+06        -0.51968E+08         0.00000E+00
    0.00000E+00         0.00000E+00        -0.24023E+08
 
   -0.24325E+08         0.49558E+06         0.00000E+00
    0.49558E+06        -0.52264E+08         0.00000E+00
    0.00000E+00         0.00000E+00        -0.24162E+08
 
   -0.24505E+08         0.47983E+06         0.00000E+00
    0.47983E+06        -0.52567E+08         0.00000E+00
    0.00000E+00         0.00000E+00        -0.24301E+08
 
   -0.24692E+08         0.46187E+06         0.00000E+00
    0.46187E+06        -0.52878E+08         0.00000E+00
    0.00000E+00         0.00000E+00        -0.24442E+08
 
   -0.24886E+08         0.44138E+06         0.00000E+00
    0.44138E+06        -0.53196E+08         0.00000E+00
    0.00000E+00         0.00000E+00        -0.24584E+08
 
   -0.25087E+08         0.41802E+06         0.00000E+00
    0.41802E+06        -0.53522E+08         0.00000E+00
    0.00000E+00         0.00000E+00        -0.24728E+08
 
   -0.25296E+08         0.39142E+06         0.00000E+00
    0.39142E+06        -0.53857E+08         0.00000E+00
    0.00000E+00         0.00000E+00        -0.24872E+08
 
   -0.25514E+08         0.36126E+06         0.00000E+00
    0.36126E+06        -0.54200E+08         0.00000E+00
    0.00000E+00         0.00000E+00        -0.25018E+08
 
   -0.25740E+08         0.32723E+06         0.00000E+00
    0.32723E+06        -0.54552E+08         0.00000E+00
    0.00000E+00         0.00000E+00        -0.25163E+08
 
   -0.25975E+08         0.28913E+06         0.00000E+00
    0.28913E+06        -0.54911E+08         0.00000E+00
    0.00000E+00         0.00000E+00        -0.25309E+08
 
   -0.26219E+08         0.24695E+06         0.00000E+00
    0.24695E+06        -0.55279E+08         0.00000E+00
    0.00000E+00         0.00000E+00        -0.25455E+08
 
   -0.26473E+08         0.20091E+06         0.00000E+00
    0.20091E+06        -0.55655E+08         0.00000E+00
    0.00000E+00         0.00000E+00        -0.25601E+08
 
   -0.26737E+08         0.15163E+06         0.00000E+00
    0.15163E+06        -0.56037E+08         0.00000E+00
    0.00000E+00         0.00000E+00        -0.25744E+08
 
   -0.27010E+08         0.10027E+06         0.00000E+00
    0.10027E+06        -0.56425E+08         0.00000E+00
    0.00000E+00         0.00000E+00        -0.25886E+08
 
   -0.27293E+08         0.48785E+05         0.00000E+00
    0.48785E+05        -0.56817E+08         0.00000E+00
    0.00000E+00         0.00000E+00        -0.26023E+08
 
   -0.27584E+08         0.18567E+03         0.00000E+00
    0.18567E+03        -0.57211E+08         0.00000E+00
    0.00000E+00         0.00000E+00        -0.26156E+08
 
   -0.27881E+08        -0.41005E+05         0.00000E+00
   -0.41005E+05        -0.57603E+08         0.00000E+00
    0.00000E+00         0.00000E+00        -0.26283E+08
 
   -0.28183E+08        -0.68398E+05         0.00000E+00
   -0.68398E+05        -0.57988E+08         0.00000E+00
    0.00000E+00         0.00000E+00        -0.26398E+08
 
   -0.28488E+08        -0.74935E+05         0.00000E+00
   -0.74935E+05        -0.58354E+08         0.00000E+00
    0.00000E+00         0.00000E+00        -0.26494E+08
 
   -0.28800E+08        -0.57432E+05         0.00000E+00
   -0.57432E+05        -0.58688E+08         0.00000E+00
    0.00000E+00         0.00000E+00        -0.26554E+08
 
   -0.29126E+08        -0.21360E+05         0.00000E+00
   -0.21360E+05        -0.58977E+08         0.00000E+00
    0.00000E+00         0.00000E+00        -0.26558E+08
 
   -0.10073E+08        -0.33842E+05         0.00000E+00
   -0.33842E+05        -0.27997E+08         0.00000E+00
    0.00000E+00         0.00000E+00        -0.15185E+08
 
   -0.10558E+08        -0.84538E+05         0.00000E+00
   -0.84538E+05        -0.28381E+08         0.00000E+00
    0.00000E+00         0.00000E+00        -0.15071E+08
 
   -0.11030E+08        -0.89156E+05         0.00000E+00
   -0.89156E+05        -0.28788E+08         0.00000E+00
    0.00000E+00         0.00000E+00        -0.15012E+08
 
   -0.11490E+08        -0.41299E+05         0.00000E+00
   -0.41299E+05        -0.29233E+08         0.00000E+00
    0.00000E+00         0.00000E+00        -0.14989E+08
 
   -0.11934E+08         0.38113E+05         0.00000E+00
    0.38113E+05        -0.29714E+08         0.00000E+00
    0.00000E+00         0.00000E+00        -0.14988E+08
 
   -0.12356E+08         0.12254E+06         0.00000E+00
    0.12254E+06        -0.30217E+08         0.00000E+00
    0.00000E+00         0.00000E+00        -0.15005E+08
 
   -0.12752E+08         0.19706E+06         0.00000E+00
    0.19706E+06        -0.30724E+08         0.00000E+00
    0.00000E+00         0.00000E+00        -0.15040E+08
 
   -0.13124E+08         0.25906E+06         0.00000E+00
    0.25906E+06        -0.31223E+08         0.00000E+00
    0.00000E+00         0.00000E+00        -0.15092E+08
 
   -0.13474E+08         0.31246E+06         0.00000E+00
    0.31246E+06        -0.31709E+08         0.00000E+00
    0.00000E+00         0.00000E+00        -0.15160E+08
 
   -0.13803E+08         0.36210E+06         0.00000E+00
    0.36210E+06        -0.32182E+08         0.00000E+00
    0.00000E+00         0.00000E+00        -0.15243E+08
 
   -0.14111E+08         0.41053E+06         0.00000E+00
    0.41053E+06        -0.32647E+08         0.00000E+00
    0.00000E+00         0.00000E+00        -0.15338E+08
 
   -0.14400E+08         0.45776E+06         0.00000E+00
    0.45776E+06        -0.33108E+08         0.00000E+00
    0.00000E+00         0.00000E+00        -0.15443E+08
 
   -0.14671E+08         0.50257E+06         0.00000E+00
    0.50257E+06        -0.33566E+08         0.00000E+00
    0.00000E+00         0.00000E+00        -0.15555E+08
 
   -0.14926E+08         0.54366E+06         0.00000E+00
    0.54366E+06        -0.34021E+08         0.00000E+00
    0.00000E+00         0.00000E+00        -0.15672E+08
 
   -0.15167E+08         0.58015E+06         0.00000E+00
    0.58015E+06        -0.34472E+08         0.00000E+00
    0.00000E+00         0.00000E+00        -0.15793E+08
 
   -0.15395E+08         0.61170E+06         0.00000E+00
    0.61170E+06        -0.34918E+08         0.00000E+00
    0.00000E+00         0.00000E+00        -0.15917E+08
 
   -0.15612E+08         0.63837E+06         0.00000E+00
    0.63837E+06        -0.35356E+08         0.00000E+00
    0.00000E+00         0.00000E+00        -0.16041E+08
 
   -0.15817E+08         0.66047E+06         0.00000E+00
    0.66047E+06        -0.35788E+08         0.00000E+00
    0.00000E+00         0.00000E+00        -0.16165E+08
 
   -0.16012E+08         0.67848E+06         0.00000E+00
    0.67848E+06        -0.36212E+08         0.00000E+00
    0.00000E+00         0.00000E+00        -0.16289E+08
 
   -0.16197E+08         0.69289E+06         0.00000E+00
    0.69289E+06        -0.36628E+08         0.00000E+00
    0.00000E+00         0.00000E+00        -0.16411E+08
 
   -0.16373E+08         0.70424E+06         0.00000E+00
    0.70424E+06        -0.37037E+08         0.00000E+00
    0.00000E+00         0.00000E+00        -0.16532E+08
 
   -0.16540E+08         0.71301E+06         0.00000E+00
    0.71301E+06        -0.37438E+08         0.00000E+00
    0.00000E+00         0.00000E+00        -0.16650E+08
 
   -0.16698E+08         0.71965E+06         0.00000E+00
    0.71965E+06        -0.37831E+08         0.00000E+00
    0.00000E+00         0.00000E+00        -0.16766E+08
 
   -0.16849E+08         0.72452E+06         0.00000E+00
    0.72452E+06        -0.38217E+08         0.00000E+00
    0.00000E+00         0.00000E+00        -0.16880E+08
 
   -0.17013E+08         0.72651E+06         0.00000E+00
    0.72651E+06        -0.38574E+08         0.00000E+00
    0.00000E+00         0.00000E+00        -0.17012E+08
 
   -0.17197E+08         0.72550E+06         0.00000E+00
    0.72550E+06        -0.38896E+08         0.00000E+00
    0.00000E+00         0.00000E+00        -0.17168E+08
 
   -0.17374E+08         0.72354E+06         0.00000E+00
    0.72354E+06        -0.39210E+08         0.00000E+00
    0.00000E+00         0.00000E+00        -0.17322E+08
 
   -0.17546E+08         0.72085E+06         0.00000E+00
    0.72085E+06        -0.39517E+08         0.00000E+00
    0.00000E+00         0.00000E+00        -0.17475E+08
 
   -0.17713E+08         0.71756E+06         0.00000E+00
    0.71756E+06        -0.39817E+08         0.00000E+00
    0.00000E+00         0.00000E+00        -0.17625E+08
 
   -0.17874E+08         0.71381E+06         0.00000E+00
    0.71381E+06        -0.40110E+08         0.00000E+00
    0.00000E+00         0.00000E+00        -0.17773E+08
 
   -0.18031E+08         0.70970E+06         0.00000E+00
    0.70970E+06        -0.40397E+08         0.00000E+00
    0.00000E+00         0.00000E+00        -0.17919E+08
 
   -0.18184E+08         0.70531E+06         0.00000E+00
    0.70531E+06        -0.40678E+08         0.00000E+00
    0.00000E+00         0.00000E+00        -0.18063E+08
 
   -0.18332E+08         0.70069E+06         0.00000E+00
    0.70069E+06        -0.40953E+08         0.00000E+00
    0.00000E+00         0.00000E+00        -0.18206E+08
 
   -0.18476E+08         0.69591E+06         0.00000E+00
    0.69591E+06        -0.41222E+08         0.00000E+00
    0.00000E+00         0.00000E+00        -0.18346E+08
 
   -0.18616E+08         0.69101E+06         0.00000E+00
    0.69101E+06        -0.41486E+08         0.00000E+00
    0.00000E+00         0.00000E+00        -0.18484E+08
 
   -0.18753E+08         0.68603E+06         0.00000E+00
    0.68603E+06        -0.41745E+08         0.00000E+00
    0.00000E+00         0.00000E+00        -0.18620E+08
 
   -0.18887E+08         0.68099E+06         0.00000E+00
    0.68099E+06        -0.41998E+08         0.00000E+00
    0.00000E+00         0.00000E+00        -0.18754E+08
 
   -0.19018E+08         0.67593E+06         0.00000E+00
    0.67593E+06        -0.42247E+08         0.00000E+00
    0.00000E+00         0.00000E+00        -0.18886E+08
 
   -0.19145E+08         0.67087E+06         0.00000E+00
    0.67087E+06        -0.42492E+08         0.00000E+00
    0.00000E+00         0.00000E+00        -0.19017E+08
 
   -0.19270E+08         0.66583E+06         0.00000E+00
    0.66583E+06        -0.42733E+08         0.00000E+00
    0.00000E+00         0.00000E+00        -0.19146E+08
 
   -0.19393E+08         0.66083E+06         0.00000E+00
    0.66083E+06        -0.42970E+08         0.00000E+00
    0.00000E+00         0.00000E+00        -0.19274E+08
 
   -0.19513E+08         0.65588E+06         0.00000E+00
    0.65588E+06        -0.43203E+08         0.00000E+00
    0.00000E+00         0.00000E+00        -0.19400E+08
 
   -0.19631E+08         0.65101E+06         0.00000E+00
    0.65101E+06        -0.43433E+08         0.00000E+00
    0.00000E+00         0.00000E+00        -0.19524E+08
 
   -0.19747E+08         0.64622E+06         0.00000E+00
    0.64622E+06        -0.43660E+08         0.00000E+00
    0.00000E+00         0.00000E+00        -0.19648E+08
 
   -0.19862E+08         0.64153E+06         0.00000E+00
    0.64153E+06        -0.43884E+08         0.00000E+00
    0.00000E+00         0.00000E+00        -0.19770E+08
 
   -0.19974E+08         0.63695E+06         0.00000E+00
    0.63695E+06        -0.44106E+08         0.00000E+00
    0.00000E+00         0.00000E+00        -0.19891E+08
 
   -0.20086E+08         0.63248E+06         0.00000E+00
    0.63248E+06        -0.44325E+08         0.00000E+00
    0.00000E+00         0.00000E+00        -0.20011E+08
 
   -0.20196E+08         0.62813E+06         0.00000E+00
    0.62813E+06        -0.44542E+08         0.00000E+00
    0.00000E+00         0.00000E+00        -0.20130E+08
 
   -0.20305E+08         0.62390E+06         0.00000E+00
    0.62390E+06        -0.44758E+08         0.00000E+00
    0.00000E+00         0.00000E+00        -0.20248E+08
 
   -0.20414E+08         0.61980E+06         0.00000E+00
    0.61980E+06        -0.44972E+08         0.00000E+00
    0.00000E+00         0.00000E+00        -0.20365E+08
 
   -0.20522E+08         0.61583E+06         0.00000E+00
    0.61583E+06        -0.45184E+08         0.00000E+00
    0.00000E+00         0.00000E+00        -0.20482E+08
 
   -0.20629E+08         0.61198E+06         0.00000E+00
    0.61198E+06        -0.45396E+08         0.00000E+00
    0.00000E+00         0.00000E+00        -0.20599E+08
 
   -0.20736E+08         0.60826E+06         0.00000E+00
    0.60826E+06        -0.45607E+08         0.00000E+00
    0.00000E+00         0.00000E+00        -0.20715E+08
 
   -0.20842E+08         0.60466E+06         0.00000E+00
    0.60466E+06        -0.45818E+08         0.00000E+00
    0.00000E+00         0.00000E+00        -0.20830E+08
 
   -0.20949E+08         0.60117E+06         0.00000E+00
    0.60117E+06        -0.46028E+08         0.00000E+00
    0.00000E+00         0.00000E+00        -0.20946E+08
 
   -0.21056E+08         0.59778E+06         0.00000E+00
    0.59778E+06        -0.46238E+08         0.00000E+00
    0.00000E+00         0.00000E+00        -0.21061E+08
 
   -0.21163E+08         0.59448E+06         0.00000E+00
    0.59448E+06        -0.46449E+08         0.00000E+00
    0.00000E+00         0.00000E+00        -0.21177E+08
 
   -0.21271E+08         0.59126E+06         0.00000E+00
    0.59126E+06        -0.46660E+08         0.00000E+00
    0.00000E+00         0.00000E+00        -0.21292E+08
 
   -0.21379E+08         0.58811E+06         0.00000E+00
    0.58811E+06        -0.46872E+08         0.00000E+00
    0.00000E+00         0.00000E+00        -0.21408E+08
 
   -0.21489E+08         0.58500E+06         0.00000E+00
    0.58500E+06        -0.47085E+08         0.00000E+00
    0.00000E+00         0.00000E+00        -0.21524E+08
 
   -0.21599E+08         0.58192E+06         0.00000E+00
    0.58192E+06        -0.47300E+08         0.00000E+00
    0.00000E+00         0.00000E+00        -0.21640E+08
 
   -0.21711E+08         0.57884E+06         0.00000E+00
    0.57884E+06        -0.47516E+08         0.00000E+00
    0.00000E+00         0.00000E+00        -0.21757E+08
 
   -0.21823E+08         0.57574E+06         0.00000E+00
    0.57574E+06        -0.47733E+08         0.00000E+00
    0.00000E+00         0.00000E+00        -0.21874E+08
 
   -0.21938E+08         0.57260E+06         0.00000E+00
    0.57260E+06        -0.47953E+08         0.00000E+00
    0.00000E+00         0.00000E+00        -0.21992E+08
 
   -0.22054E+08         0.56938E+06         0.00000E+00
    0.56938E+06        -0.48176E+08         0.00000E+00
    0.00000E+00         0.00000E+00        -0.22111E+08
 
   -0.22172E+08         0.56606E+06         0.00000E+00
    0.56606E+06        -0.48400E+08         0.00000E+00
    0.00000E+00         0.00000E+00        -0.22230E+08
 
   -0.22293E+08         0.56259E+06         0.00000E+00
    0.56259E+06        -0.48628E+08         0.00000E+00
    0.00000E+00         0.00000E+00        -0.22351E+08
 
   -0.22415E+08         0.55894E+06         0.00000E+00
    0.55894E+06        -0.48859E+08         0.00000E+00
    0.00000E+00         0.00000E+00        -0.22472E+08
 
   -0.22540E+08         0.55507E+06         0.00000E+00
    0.55507E+06        -0.49093E+08         0.00000E+00
    0.00000E+00         0.00000E+00        -0.22594E+08
 
   -0.22668E+08         0.55092E+06         0.00000E+00
    0.55092E+06        -0.49331E+08         0.00000E+00
    0.00000E+00         0.00000E+00        -0.22718E+08
 
   -0.22799E+08         0.54645E+06         0.00000E+00
    0.54645E+06        -0.49572E+08         0.00000E+00
    0.00000E+00         0.00000E+00        -0.22842E+08
 
   -0.22933E+08         0.54159E+06         0.00000E+00
    0.54159E+06        -0.49818E+08         0.00000E+00
    0.00000E+00         0.00000E+00        -0.22968E+08
 
   -0.23070E+08         0.53627E+06         0.00000E+00
    0.53627E+06        -0.50069E+08         0.00000E+00
    0.00000E+00         0.00000E+00        -0.23095E+08
 
   -0.23211E+08         0.53042E+06         0.00000E+00
    0.53042E+06        -0.50324E+08         0.00000E+00
    0.00000E+00         0.00000E+00        -0.23224E+08
 
   -0.23356E+08         0.52395E+06         0.00000E+00
    0.52395E+06        -0.50583E+08         0.00000E+00
    0.00000E+00         0.00000E+00        -0.23353E+08
 
   -0.23505E+08         0.51674E+06         0.00000E+00
    0.51674E+06        -0.50849E+08         0.00000E+00
    0.00000E+00         0.00000E+00        -0.23484E+08
 
   -0.23659E+08         0.50869E+06         0.00000E+00
    0.50869E+06        -0.51119E+08         0.00000E+00
    0.00000E+00         0.00000E+00        -0.23617E+08
 
   -0.23817E+08         0.49965E+06         0.00000E+00
    0.49965E+06        -0.51396E+08         0.00000E+00
    0.00000E+00         0.00000E+00        -0.23750E+08
 
   -0.23980E+08         0.48944E+06         0.00000E+00
    0.48944E+06        -0.51678E+08         0.00000E+00
    0.00000E+00         0.00000E+00        -0.23886E+08
 
   -0.24149E+08         0.47789E+06         0.00000E+00
    0.47789E+06        -0.51967E+08         0.00000E+00
    0.00000E+00         0.00000E+00        -0.24022E+08
 
   -0.24324E+08         0.46477E+06         0.00000E+00
    0.46477E+06        -0.52263E+08         0.00000E+00
    0.00000E+00         0.00000E+00        -0.24160E+08
 
   -0.24504E+08         0.44982E+06         0.00000E+00
    0.44982E+06        -0.52566E+08         0.00000E+00
    0.00000E+00         0.00000E+00        -0.24299E+08
 
   -0.24692E+08         0.43275E+06         0.00000E+00
    0.43275E+06        -0.52876E+08         0.00000E+00
    0.00000E+00         0.00000E+00        -0.24439E+08
 
   -0.24886E+08         0.41327E+06         0.00000E+00
    0.41327E+06        -0.53194E+08         0.00000E+00
    0.00000E+00         0.00000E+00        -0.24581E+08
 
   -0.25088E+08         0.39101E+06         0.00000E+00
    0.39101E+06        -0.53520E+08         0.00000E+00
    0.00000E+00         0.00000E+00        -0.24723E+08
 
   -0.25298E+08         0.36565E+06         0.00000E+00
    0.36565E+06        -0.53854E+08         0.00000E+00
    0.00000E+00         0.00000E+00        -0.24866E+08
 
   -0.25517E+08         0.33684E+06         0.00000E+00
    0.33684E+06        -0.54197E+08         0.00000E+00
    0.00000E+00         0.00000E+00        -0.25010E+08
 
   -0.25744E+08         0.30429E+06         0.00000E+00
    0.30429E+06        -0.54548E+08         0.00000E+00
    0.00000E+00         0.00000E+00        -0.25154E+08
 
   -0.25981E+08         0.26782E+06         0.00000E+00
    0.26782E+06        -0.54908E+08         0.00000E+00
    0.00000E+00         0.00000E+00        -0.25299E+08
 
   -0.26228E+08         0.22738E+06         0.00000E+00
    0.22738E+06        -0.55275E+08         0.00000E+00
    0.00000E+00         0.00000E+00        -0.25443E+08
 
   -0.26485E+08         0.18321E+06         0.00000E+00
    0.18321E+06        -0.55651E+08         0.00000E+00
    0.00000E+00         0.00000E+00        -0.25585E+08
 
   -0.26752E+08         0.13588E+06         0.00000E+00
    0.13588E+06        -0.56034E+08         0.00000E+00
    0.00000E+00         0.00000E+00        -0.25727E+08
 
   -0.27029E+08         0.86529E+05         0.00000E+00
    0.86529E+05        -0.56423E+08         0.00000E+00
    0.00000E+00         0.00000E+00        -0.25865E+08
 
   -0.27316E+08         0.36987E+05         0.00000E+00
    0.36987E+05        -0.56816E+08         0.00000E+00
    0.00000E+00         0.00000E+00        -0.26001E+08
 
   -0.27612E+08        -0.98964E+04         0.00000E+00
   -0.98964E+04        -0.57212E+08         0.00000E+00
    0.00000E+00         0.00000E+00        -0.26132E+08
 
   -0.27915E+08        -0.49844E+05         0.00000E+00
   -0.49844E+05        -0.57608E+08         0.00000E+00
    0.00000E+00         0.00000E+00        -0.26257E+08
 
   -0.28223E+08        -0.76556E+05         0.00000E+00
   -0.76556E+05        -0.57998E+08         0.00000E+00
    0.00000E+00         0.00000E+00        -0.26373E+08
 
   -0.28533E+08        -0.82389E+05         0.00000E+00
   -0.82389E+05        -0.58371E+08         0.00000E+00
    0.00000E+00         0.00000E+00        -0.26471E+08
 
   -0.28848E+08        -0.63010E+05         0.00000E+00
   -0.63010E+05        -0.58712E+08         0.00000E+00
    0.00000E+00         0.00000E+00        -0.26535E+08
 
   -0.29175E+08        -0.23452E+05         0.00000E+00
   -0.23452E+05        -0.59004E+08         0.00000E+00
    0.00000E+00         0.00000E+00        -0.26542E+08
 
   -0.99924E+07        -0.35225E+05         0.00000E+00
   -0.35225E+05        -0.27983E+08         0.00000E+00
    0.00000E+00         0.00000E+00        -0.15211E+08
 
   -0.10481E+08        -0.88385E+05         0.00000E+00
   -0.88385E+05        -0.28375E+08         0.00000E+00
    0.00000E+00         0.00000E+00        -0.15104E+08
 
   -0.10961E+08        -0.94759E+05         0.00000E+00
   -0.94759E+05        -0.28792E+08         0.00000E+00
    0.00000E+00         0.00000E+00        -0.15051E+08
 
   -0.11432E+08        -0.48923E+05         0.00000E+00
   -0.48923E+05        -0.29246E+08         0.00000E+00
    0.00000E+00         0.00000E+00        -0.15030E+08
 
   -0.11886E+08         0.27094E+05         0.00000E+00
    0.27094E+05        -0.29731E+08         0.00000E+00
    0.00000E+00         0.00000E+00        -0.15028E+08
 
   -0.12317E+08         0.10716E+06         0.00000E+00
    0.10716E+06        -0.30233E+08         0.00000E+00
    0.00000E+00         0.00000E+00        -0.15041E+08
 
   -0.12720E+08         0.17734E+06         0.00000E+00
    0.17734E+06        -0.30737E+08         0.00000E+00
    0.00000E+00         0.00000E+00        -0.15071E+08
 
   -0.13097E+08         0.23552E+06         0.00000E+00
    0.23552E+06        -0.31234E+08         0.00000E+00
    0.00000E+00         0.00000E+00        -0.15118E+08
 
   -0.13452E+08         0.28556E+06         0.00000E+00
    0.28556E+06        -0.31719E+08         0.00000E+00
    0.00000E+00         0.00000E+00        -0.15181E+08
 
   -0.13784E+08         0.33207E+06         0.00000E+00
    0.33207E+06        -0.32191E+08         0.00000E+00
    0.00000E+00         0.00000E+00        -0.15259E+08
 
   -0.14096E+08         0.37759E+06         0.00000E+00
    0.37759E+06        -0.32657E+08         0.00000E+00
    0.00000E+00         0.00000E+00        -0.15349E+08
 
   -0.14388E+08         0.42223E+06         0.00000E+00
    0.42223E+06        -0.33117E+08         0.00000E+00
    0.00000E+00         0.00000E+00        -0.15449E+08
 
   -0.14662E+08         0.46486E+06         0.00000E+00
    0.46486E+06        -0.33575E+08         0.00000E+00
    0.00000E+00         0.00000E+00        -0.15558E+08
 
   -0.14920E+08         0.50416E+06         0.00000E+00
    0.50416E+06        -0.34029E+08         0.00000E+00
    0.00000E+00         0.00000E+00        -0.15672E+08
 
   -0.15163E+08         0.53920E+06         0.00000E+00
    0.53920E+06        -0.34479E+08         0.00000E+00
    0.00000E+00         0.00000E+00        -0.15791E+08
 
   -0.15392E+08         0.56957E+06         0.00000E+00
    0.56957E+06        -0.34923E+08         0.00000E+00
    0.00000E+00         0.00000E+00        -0.15912E+08
 
   -0.15610E+08         0.59526E+06         0.00000E+00
    0.59526E+06        -0.35361E+08         0.00000E+00
    0.00000E+00         0.00000E+00        -0.16035E+08
 
   -0.15816E+08         0.61654E+06         0.00000E+00
    0.61654E+06        -0.35792E+08         0.00000E+00
    0.00000E+00         0.00000E+00        -0.16158E+08
 
   -0.16012E+08         0.63383E+06         0.00000E+00
    0.63383E+06        -0.36215E+08         0.00000E+00
    0.00000E+00         0.00000E+00        -0.16281E+08
 
   -0.16197E+08         0.64765E+06         0.00000E+00
    0.64765E+06        -0.36631E+08         0.00000E+00
    0.00000E+00         0.00000E+00        -0.16402E+08
 
   -0.16373E+08         0.65850E+06         0.00000E+00
    0.65850E+06        -0.37039E+08         0.00000E+00
    0.00000E+00         0.00000E+00        -0.16523E+08
 
   -0.16540E+08         0.66685E+06         0.00000E+00
    0.66685E+06        -0.37439E+08         0.00000E+00
    0.00000E+00         0.00000E+00        -0.16641E+08
 
   -0.16698E+08         0.67315E+06         0.00000E+00
    0.67315E+06        -0.37832E+08         0.00000E+00
    0.00000E+00         0.00000E+00        -0.16757E+08
 
   -0.16849E+08         0.67776E+06         0.00000E+00
    0.67776E+06        -0.38218E+08         0.00000E+00
    0.00000E+00         0.00000E+00        -0.16870E+08
 
   -0.17014E+08         0.67958E+06         0.00000E+00
    0.67958E+06        -0.38574E+08         0.00000E+00
    0.00000E+00         0.00000E+00        -0.17003E+08
 
   -0.17198E+08         0.67864E+06         0.00000E+00
    0.67864E+06        -0.38895E+08         0.00000E+00
    0.00000E+00         0.00000E+00        -0.17160E+08
 
   -0.17375E+08         0.67683E+06         0.00000E+00
    0.67683E+06        -0.39209E+08         0.00000E+00
    0.00000E+00         0.00000E+00        -0.17314E+08
 
   -0.17547E+08         0.67431E+06         0.00000E+00
    0.67431E+06        -0.39516E+08         0.00000E+00
    0.00000E+00         0.00000E+00        -0.17467E+08
 
   -0.17714E+08         0.67125E+06         0.00000E+00
    0.67125E+06        -0.39816E+08         0.00000E+00
    0.00000E+00         0.00000E+00        -0.17617E+08
 
   -0.17876E+08         0.66775E+06         0.00000E+00
    0.66775E+06        -0.40110E+08         0.00000E+00
    0.00000E+00         0.00000E+00        -0.17766E+08
 
   -0.18032E+08         0.66392E+06         0.00000E+00
    0.66392E+06        -0.40397E+08         0.00000E+00
    0.00000E+00         0.00000E+00        -0.17912E+08
 
   -0.18185E+08         0.65982E+06         0.00000E+00
    0.65982E+06        -0.40677E+08         0.00000E+00
    0.00000E+00         0.00000E+00        -0.18056E+08
 
   -0.18333E+08         0.65553E+06         0.00000E+00
    0.65553E+06        -0.40952E+08         0.00000E+00
    0.00000E+00         0.00000E+00        -0.18199E+08
 
   -0.18477E+08         0.65108E+06         0.00000E+00
    0.65108E+06        -0.41222E+08         0.00000E+00
    0.00000E+00         0.00000E+00        -0.18339E+08
 
   -0.18617E+08         0.64652E+06         0.00000E+00
    0.64652E+06        -0.41486E+08         0.00000E+00
    0.00000E+00         0.00000E+00        -0.18477E+08
 
   -0.18754E+08         0.64188E+06         0.00000E+00
    0.64188E+06        -0.41744E+08         0.00000E+00
    0.00000E+00         0.00000E+00        -0.18614E+08
 
   -0.18888E+08         0.63719E+06         0.00000E+00
    0.63719E+06        -0.41998E+08         0.00000E+00
    0.00000E+00         0.00000E+00        -0.18748E+08
 
   -0.19018E+08         0.63248E+06         0.00000E+00
    0.63248E+06        -0.42247E+08         0.00000E+00
    0.00000E+00         0.00000E+00        -0.18881E+08
 
   -0.19146E+08         0.62777E+06         0.00000E+00
    0.62777E+06        -0.42492E+08         0.00000E+00
    0.00000E+00         0.00000E+00        -0.19012E+08
 
   -0.19271E+08         0.62308E+06         0.00000E+00
    0.62308E+06        -0.42733E+08         0.00000E+00
    0.00000E+00         0.00000E+00        -0.19141E+08
 
   -0.19393E+08         0.61843E+06         0.00000E+00
    0.61843E+06        -0.42970E+08         0.00000E+00
    0.00000E+00         0.00000E+00        -0.19269E+08
 
   -0.19513E+08         0.61382E+06         0.00000E+00
    0.61382E+06        -0.43203E+08         0.00000E+00
    0.00000E+00         0.00000E+00        -0.19395E+08
 
   -0.19631E+08         0.60929E+06         0.00000E+00
    0.60929E+06        -0.43433E+08         0.00000E+00
    0.00000E+00         0.00000E+00        -0.19520E+08
 
   -0.19747E+08         0.60482E+06         0.00000E+00
    0.60482E+06        -0.43660E+08         0.00000E+00
    0.00000E+00         0.00000E+00        -0.19643E+08
 
   -0.19861E+08         0.60045E+06         0.00000E+00
    0.60045E+06        -0.43884E+08         0.00000E+00
    0.00000E+00         0.00000E+00        -0.19766E+08
 
   -0.19974E+08         0.59618E+06         0.00000E+00
    0.59618E+06        -0.44106E+08         0.00000E+00
    0.00000E+00         0.00000E+00        -0.19887E+08
 
   -0.20085E+08         0.59201E+06         0.00000E+00
    0.59201E+06        -0.44325E+08         0.00000E+00
    0.00000E+00         0.00000E+00        -0.20007E+08
 
   -0.20196E+08         0.58794E+06         0.00000E+00
    0.58794E+06        -0.44543E+08         0.00000E+00
    0.00000E+00         0.00000E+00        -0.20127E+08
 
   -0.20305E+08         0.58400E+06         0.00000E+00
    0.58400E+06        -0.44758E+08         0.00000E+00
    0.00000E+00         0.00000E+00        -0.20245E+08
 
   -0.20413E+08         0.58017E+06         0.00000E+00
    0.58017E+06        -0.44972E+08         0.00000E+00
    0.00000E+00         0.00000E+00        -0.20363E+08
 
   -0.20521E+08         0.57645E+06         0.00000E+00
    0.57645E+06        -0.45185E+08         0.00000E+00
    0.00000E+00         0.00000E+00        -0.20480E+08
 
   -0.20628E+08         0.57286E+06         0.00000E+00
    0.57286E+06        -0.45397E+08         0.00000E+00
    0.00000E+00         0.00000E+00        -0.20597E+08
 
   -0.20734E+08         0.56937E+06         0.00000E+00
    0.56937E+06        -0.45608E+08         0.00000E+00
    0.00000E+00         0.00000E+00        -0.20713E+08
 
   -0.20841E+08         0.56600E+06         0.00000E+00
    0.56600E+06        -0.45818E+08         0.00000E+00
    0.00000E+00         0.00000E+00        -0.20829E+08
 
   -0.20948E+08         0.56273E+06         0.00000E+00
    0.56273E+06        -0.46028E+08         0.00000E+00
    0.00000E+00         0.00000E+00        -0.20944E+08
 
   -0.21054E+08         0.55955E+06         0.00000E+00
    0.55955E+06        -0.46239E+08         0.00000E+00
    0.00000E+00         0.00000E+00        -0.21060E+08
 
   -0.21161E+08         0.55645E+06         0.00000E+00
    0.55645E+06        -0.46449E+08         0.00000E+00
    0.00000E+00         0.00000E+00        -0.21176E+08
 
   -0.21269E+08         0.55343E+06         0.00000E+00
    0.55343E+06        -0.46661E+08         0.00000E+00
    0.00000E+00         0.00000E+00        -0.21291E+08
 
   -0.21377E+08         0.55047E+06         0.00000E+00
    0.55047E+06        -0.46873E+08         0.00000E+00
    0.00000E+00         0.00000E+00        -0.21407E+08
 
   -0.21487E+08         0.54754E+06         0.00000E+00
    0.54754E+06        -0.47086E+08         0.00000E+00
    0.00000E+00         0.00000E+00        -0.21523E+08
 
   -0.21597E+08         0.54464E+06         0.00000E+00
    0.54464E+06        -0.47300E+08         0.00000E+00
    0.00000E+00         0.00000E+00        -0.21640E+08
 
   -0.21708E+08         0.54174E+06         0.00000E+00
    0.54174E+06        -0.47516E+08         0.00000E+00
    0.00000E+00         0.00000E+00        -0.21757E+08
 
   -0.21821E+08         0.53882E+06         0.00000E+00
    0.53882E+06        -0.47734E+08         0.00000E+00
    0.00000E+00         0.00000E+00        -0.21874E+08
 
   -0.21935E+08         0.53585E+06         0.00000E+00
    0.53585E+06        -0.47954E+08         0.00000E+00
    0.00000E+00         0.00000E+00        -0.21992E+08
 
   -0.22052E+08         0.53282E+06         0.00000E+00
    0.53282E+06        -0.48176E+08         0.00000E+00
    0.00000E+00         0.00000E+00        -0.22111E+08
 
   -0.22170E+08         0.52968E+06         0.00000E+00
    0.52968E+06        -0.48401E+08         0.00000E+00
    0.00000E+00         0.00000E+00        -0.22230E+08
 
   -0.22290E+08         0.52640E+06         0.00000E+00
    0.52640E+06        -0.48629E+08         0.00000E+00
    0.00000E+00         0.00000E+00        -0.22351E+08
 
   -0.22412E+08         0.52295E+06         0.00000E+00
    0.52295E+06        -0.48859E+08         0.00000E+00
    0.00000E+00         0.00000E+00        -0.22472E+08
 
   -0.22538E+08         0.51929E+06         0.00000E+00
    0.51929E+06        -0.49094E+08         0.00000E+00
    0.00000E+00         0.00000E+00        -0.22595E+08
 
   -0.22665E+08         0.51537E+06         0.00000E+00
    0.51537E+06        -0.49331E+08         0.00000E+00
    0.00000E+00         0.00000E+00        -0.22718E+08
 
   -0.22796E+08         0.51115E+06         0.00000E+00
    0.51115E+06        -0.49573E+08         0.00000E+00
    0.00000E+00         0.00000E+00        -0.22843E+08
 
   -0.22930E+08         0.50655E+06         0.00000E+00
    0.50655E+06        -0.49819E+08         0.00000E+00
    0.00000E+00         0.00000E+00        -0.22969E+08
 
   -0.23068E+08         0.50153E+06         0.00000E+00
    0.50153E+06        -0.50069E+08         0.00000E+00
    0.00000E+00         0.00000E+00        -0.23096E+08
 
   -0.23209E+08         0.49601E+06         0.00000E+00
    0.49601E+06        -0.50324E+08         0.00000E+00
    0.00000E+00         0.00000E+00        -0.23224E+08
 
   -0.23354E+08         0.48990E+06         0.00000E+00
    0.48990E+06        -0.50584E+08         0.00000E+00
    0.00000E+00         0.00000E+00        -0.23353E+08
 
   -0.23503E+08         0.48311E+06         0.00000E+00
    0.48311E+06        -0.50849E+08         0.00000E+00
    0.00000E+00         0.00000E+00        -0.23484E+08
 
   -0.23656E+08         0.47551E+06         0.00000E+00
    0.47551E+06        -0.51119E+08         0.00000E+00
    0.00000E+00         0.00000E+00        -0.23617E+08
 
   -0.23815E+08         0.46698E+06         0.00000E+00
    0.46698E+06        -0.51396E+08         0.00000E+00
    0.00000E+00         0.00000E+00        -0.23750E+08
 
   -0.23978E+08         0.45735E+06         0.00000E+00
    0.45735E+06        -0.51678E+08         0.00000E+00
    0.00000E+00         0.00000E+00        -0.23885E+08
 
   -0.24148E+08         0.44644E+06         0.00000E+00
    0.44644E+06        -0.51967E+08         0.00000E+00
    0.00000E+00         0.00000E+00        -0.24021E+08
 
   -0.24322E+08         0.43405E+06         0.00000E+00
    0.43405E+06        -0.52263E+08         0.00000E+00
    0.00000E+00         0.00000E+00        -0.24158E+08
 
   -0.24504E+08         0.41992E+06         0.00000E+00
    0.41992E+06        -0.52565E+08         0.00000E+00
    0.00000E+00         0.00000E+00        -0.24297E+08
 
   -0.24692E+08         0.40378E+06         0.00000E+00
    0.40378E+06        -0.52875E+08         0.00000E+00
    0.00000E+00         0.00000E+00        -0.24437E+08
 
   -0.24887E+08         0.38532E+06         0.00000E+00
    0.38532E+06        -0.53193E+08         0.00000E+00
    0.00000E+00         0.00000E+00        -0.24577E+08
 
   -0.25089E+08         0.36421E+06         0.00000E+00
    0.36421E+06        -0.53518E+08         0.00000E+00
    0.00000E+00         0.00000E+00        -0.24719E+08
 
   -0.25300E+08         0.34013E+06         0.00000E+00
    0.34013E+06        -0.53852E+08         0.00000E+00
    0.00000E+00         0.00000E+00        -0.24861E+08
 
   -0.25520E+08         0.31274E+06         0.00000E+00
    0.31274E+06        -0.54194E+08         0.00000E+00
    0.00000E+00         0.00000E+00        -0.25003E+08
 
   -0.25749E+08         0.28175E+06         0.00000E+00
    0.28175E+06        -0.54545E+08         0.00000E+00
    0.00000E+00         0.00000E+00        -0.25146E+08
 
   -0.25988E+08         0.24699E+06         0.00000E+00
    0.24699E+06        -0.54904E+08         0.00000E+00
    0.00000E+00         0.00000E+00        -0.25288E+08
 
   -0.26236E+08         0.20840E+06         0.00000E+00
    0.20840E+06        -0.55272E+08         0.00000E+00
    0.00000E+00         0.00000E+00        -0.25430E+08
 
   -0.26496E+08         0.16621E+06         0.00000E+00
    0.16621E+06        -0.55647E+08         0.00000E+00
    0.00000E+00         0.00000E+00        -0.25571E+08
 
   -0.26766E+08         0.12098E+06         0.00000E+00
    0.12098E+06        -0.56031E+08         0.00000E+00
    0.00000E+00         0.00000E+00        -0.25710E+08
 
   -0.27047E+08         0.73761E+05         0.00000E+00
    0.73761E+05        -0.56420E+08         0.00000E+00
    0.00000E+00         0.00000E+00        -0.25846E+08
 
   -0.27339E+08         0.26301E+05         0.00000E+00
    0.26301E+05        -0.56815E+08         0.00000E+00
    0.00000E+00         0.00000E+00        -0.25979E+08
 
   -0.27641E+08        -0.18748E+05         0.00000E+00
   -0.18748E+05        -0.57214E+08         0.00000E+00
    0.00000E+00         0.00000E+00        -0.26108E+08
 
   -0.27950E+08        -0.57410E+05         0.00000E+00
   -0.57410E+05        -0.57613E+08         0.00000E+00
    0.00000E+00         0.00000E+00        -0.26231E+08
 
   -0.28264E+08        -0.83589E+05         0.00000E+00
   -0.83589E+05        -0.58008E+08         0.00000E+00
    0.00000E+00         0.00000E+00        -0.26347E+08
 
   -0.28580E+08        -0.89122E+05         0.00000E+00
   -0.89122E+05        -0.58388E+08         0.00000E+00
    0.00000E+00         0.00000E+00        -0.26448E+08
 
   -0.28897E+08        -0.68311E+05         0.00000E+00
   -0.68311E+05        -0.58736E+08         0.00000E+00
    0.00000E+00         0.00000E+00        -0.26517E+08
 
   -0.29226E+08        -0.25496E+05         0.00000E+00
   -0.25496E+05        -0.59032E+08         0.00000E+00
    0.00000E+00         0.00000E+00        -0.26527E+08
 
   -0.99122E+07        -0.36368E+05         0.00000E+00
   -0.36368E+05        -0.27968E+08         0.00000E+00
    0.00000E+00         0.00000E+00        -0.15237E+08
 
   -0.10404E+08        -0.91292E+05         0.00000E+00
   -0.91292E+05        -0.28367E+08         0.00000E+00
    0.00000E+00         0.00000E+00        -0.15137E+08
 
   -0.10891E+08        -0.98482E+05         0.00000E+00
   -0.98482E+05        -0.28796E+08         0.00000E+00
    0.00000E+00         0.00000E+00        -0.15090E+08
 
   -0.11373E+08        -0.54207E+05         0.00000E+00
   -0.54207E+05        -0.29260E+08         0.00000E+00
    0.00000E+00         0.00000E+00        -0.15071E+08
 
   -0.11839E+08         0.18130E+05         0.00000E+00
    0.18130E+05        -0.29747E+08         0.00000E+00
    0.00000E+00         0.00000E+00        -0.15067E+08
 
   -0.12278E+08         0.93321E+05         0.00000E+00
    0.93321E+05        -0.30248E+08         0.00000E+00
    0.00000E+00         0.00000E+00        -0.15077E+08
 
   -0.12688E+08         0.15881E+06         0.00000E+00
    0.15881E+06        -0.30750E+08         0.00000E+00
    0.00000E+00         0.00000E+00        -0.15102E+08
 
   -0.13071E+08         0.21296E+06         0.00000E+00
    0.21296E+06        -0.31245E+08         0.00000E+00
    0.00000E+00         0.00000E+00        -0.15143E+08
 
   -0.13429E+08         0.25948E+06         0.00000E+00
    0.25948E+06        -0.31728E+08         0.00000E+00
    0.00000E+00         0.00000E+00        -0.15201E+08
 
   -0.13766E+08         0.30279E+06         0.00000E+00
    0.30279E+06        -0.32200E+08         0.00000E+00
    0.00000E+00         0.00000E+00        -0.15273E+08
 
   -0.14081E+08         0.34534E+06         0.00000E+00
    0.34534E+06        -0.32665E+08         0.00000E+00
    0.00000E+00         0.00000E+00        -0.15359E+08
 
   -0.14376E+08         0.38733E+06         0.00000E+00
    0.38733E+06        -0.33126E+08         0.00000E+00
    0.00000E+00         0.00000E+00        -0.15455E+08
 
   -0.14653E+08         0.42768E+06         0.00000E+00
    0.42768E+06        -0.33583E+08         0.00000E+00
    0.00000E+00         0.00000E+00        -0.15560E+08
 
   -0.14913E+08         0.46511E+06         0.00000E+00
    0.46511E+06        -0.34036E+08         0.00000E+00
    0.00000E+00         0.00000E+00        -0.15671E+08
 
   -0.15158E+08         0.49861E+06         0.00000E+00
    0.49861E+06        -0.34485E+08         0.00000E+00
    0.00000E+00         0.00000E+00        -0.15788E+08
 
   -0.15390E+08         0.52771E+06         0.00000E+00
    0.52771E+06        -0.34929E+08         0.00000E+00
    0.00000E+00         0.00000E+00        -0.15907E+08
 
   -0.15608E+08         0.55234E+06         0.00000E+00
    0.55234E+06        -0.35366E+08         0.00000E+00
    0.00000E+00         0.00000E+00        -0.16028E+08
 
   -0.15815E+08         0.57273E+06         0.00000E+00
    0.57273E+06        -0.35796E+08         0.00000E+00
    0.00000E+00         0.00000E+00        -0.16150E+08
 
   -0.16011E+08         0.58928E+06         0.00000E+00
    0.58928E+06        -0.36218E+08         0.00000E+00
    0.00000E+00         0.00000E+00        -0.16272E+08
 
   -0.16197E+08         0.60246E+06         0.00000E+00
    0.60246E+06        -0.36633E+08         0.00000E+00
    0.00000E+00         0.00000E+00        -0.16393E+08
 
   -0.16373E+08         0.61279E+06         0.00000E+00
    0.61279E+06        -0.37040E+08         0.00000E+00
    0.00000E+00         0.00000E+00        -0.16513E+08
 
   -0.16541E+08         0.62071E+06         0.00000E+00
    0.62071E+06        -0.37440E+08         0.00000E+00
    0.00000E+00         0.00000E+00        -0.16631E+08
 
   -0.16699E+08         0.62667E+06         0.00000E+00
    0.62667E+06        -0.37833E+08         0.00000E+00
    0.00000E+00         0.00000E+00        -0.16747E+08
 
   -0.16850E+08         0.63101E+06         0.00000E+00
    0.63101E+06        -0.38219E+08         0.00000E+00
    0.00000E+00         0.00000E+00        -0.16861E+08
 
   -0.17016E+08         0.63267E+06         0.00000E+00
    0.63267E+06        -0.38573E+08         0.00000E+00
    0.00000E+00         0.00000E+00        -0.16995E+08
 
   -0.17200E+08         0.63182E+06         0.00000E+00
    0.63182E+06        -0.38894E+08         0.00000E+00
    0.00000E+00         0.00000E+00        -0.17152E+08
 
   -0.17377E+08         0.63014E+06         0.00000E+00
    0.63014E+06        -0.39208E+08         0.00000E+00
    0.00000E+00         0.00000E+00        -0.17306E+08
 
   -0.17549E+08         0.62780E+06         0.00000E+00
    0.62780E+06        -0.39515E+08         0.00000E+00
    0.00000E+00         0.00000E+00        -0.17459E+08
 
   -0.17715E+08         0.62496E+06         0.00000E+00
    0.62496E+06        -0.39816E+08         0.00000E+00
    0.00000E+00         0.00000E+00        -0.17609E+08
 
   -0.17877E+08         0.62171E+06         0.00000E+00
    0.62171E+06        -0.40109E+08         0.00000E+00
    0.00000E+00         0.00000E+00        -0.17758E+08
 
   -0.18034E+08         0.61816E+06         0.00000E+00
    0.61816E+06        -0.40396E+08         0.00000E+00
    0.00000E+00         0.00000E+00        -0.17905E+08
 
   -0.18186E+08         0.61436E+06         0.00000E+00
    0.61436E+06        -0.40677E+08         0.00000E+00
    0.00000E+00         0.00000E+00        -0.18049E+08
 
   -0.18334E+08         0.61038E+06         0.00000E+00
    0.61038E+06        -0.40952E+08         0.00000E+00
    0.00000E+00         0.00000E+00        -0.18192E+08
 
   -0.18478E+08         0.60626E+06         0.00000E+00
    0.60626E+06        -0.41221E+08         0.00000E+00
    0.00000E+00         0.00000E+00        -0.18332E+08
 
   -0.18618E+08         0.60203E+06         0.00000E+00
    0.60203E+06        -0.41485E+08         0.00000E+00
    0.00000E+00         0.00000E+00        -0.18471E+08
 
   -0.18755E+08         0.59774E+06         0.00000E+00
    0.59774E+06        -0.41744E+08         0.00000E+00
    0.00000E+00         0.00000E+00        -0.18608E+08
 
   -0.18889E+08         0.59340E+06         0.00000E+00
    0.59340E+06        -0.41998E+08         0.00000E+00
    0.00000E+00         0.00000E+00        -0.18742E+08
 
   -0.19019E+08         0.58904E+06         0.00000E+00
    0.58904E+06        -0.42247E+08         0.00000E+00
    0.00000E+00         0.00000E+00        -0.18875E+08
 
   -0.19146E+08         0.58467E+06         0.00000E+00
    0.58467E+06        -0.42492E+08         0.00000E+00
    0.00000E+00         0.00000E+00        -0.19007E+08
 
   -0.19271E+08         0.58033E+06         0.00000E+00
    0.58033E+06        -0.42733E+08         0.00000E+00
    0.00000E+00         0.00000E+00        -0.19136E+08
 
   -0.19393E+08         0.57601E+06         0.00000E+00
    0.57601E+06        -0.42970E+08         0.00000E+00
    0.00000E+00         0.00000E+00        -0.19264E+08
 
   -0.19513E+08         0.57175E+06         0.00000E+00
    0.57175E+06        -0.43204E+08         0.00000E+00
    0.00000E+00         0.00000E+00        -0.19391E+08
 
   -0.19631E+08         0.56754E+06         0.00000E+00
    0.56754E+06        -0.43434E+08         0.00000E+00
    0.00000E+00         0.00000E+00        -0.19516E+08
 
   -0.19747E+08         0.56340E+06         0.00000E+00
    0.56340E+06        -0.43661E+08         0.00000E+00
    0.00000E+00         0.00000E+00        -0.19640E+08
 
   -0.19861E+08         0.55934E+06         0.00000E+00
    0.55934E+06        -0.43885E+08         0.00000E+00
    0.00000E+00         0.00000E+00        -0.19762E+08
 
   -0.19974E+08         0.55537E+06         0.00000E+00
    0.55537E+06        -0.44106E+08         0.00000E+00
    0.00000E+00         0.00000E+00        -0.19884E+08
 
   -0.20085E+08         0.55150E+06         0.00000E+00
    0.55150E+06        -0.44326E+08         0.00000E+00
    0.00000E+00         0.00000E+00        -0.20004E+08
 
   -0.20195E+08         0.54773E+06         0.00000E+00
    0.54773E+06        -0.44543E+08         0.00000E+00
    0.00000E+00         0.00000E+00        -0.20124E+08
 
   -0.20304E+08         0.54406E+06         0.00000E+00
    0.54406E+06        -0.44759E+08         0.00000E+00
    0.00000E+00         0.00000E+00        -0.20242E+08
 
   -0.20412E+08         0.54050E+06         0.00000E+00
    0.54050E+06        -0.44973E+08         0.00000E+00
    0.00000E+00         0.00000E+00        -0.20360E+08
 
   -0.20520E+08         0.53704E+06         0.00000E+00
    0.53704E+06        -0.45185E+08         0.00000E+00
    0.00000E+00         0.00000E+00        -0.20478E+08
 
   -0.20627E+08         0.53369E+06         0.00000E+00
    0.53369E+06        -0.45397E+08         0.00000E+00
    0.00000E+00         0.00000E+00        -0.20595E+08
 
   -0.20733E+08         0.53045E+06         0.00000E+00
    0.53045E+06        -0.45608E+08         0.00000E+00
    0.00000E+00         0.00000E+00        -0.20711E+08
 
   -0.20840E+08         0.52730E+06         0.00000E+00
    0.52730E+06        -0.45819E+08         0.00000E+00
    0.00000E+00         0.00000E+00        -0.20827E+08
 
   -0.20946E+08         0.52425E+06         0.00000E+00
    0.52425E+06        -0.46029E+08         0.00000E+00
    0.00000E+00         0.00000E+00        -0.20943E+08
 
   -0.21053E+08         0.52128E+06         0.00000E+00
    0.52128E+06        -0.46239E+08         0.00000E+00
    0.00000E+00         0.00000E+00        -0.21059E+08
 
   -0.21160E+08         0.51839E+06         0.00000E+00
    0.51839E+06        -0.46450E+08         0.00000E+00
    0.00000E+00         0.00000E+00        -0.21175E+08
 
   -0.21267E+08         0.51557E+06         0.00000E+00
    0.51557E+06        -0.46661E+08         0.00000E+00
    0.00000E+00         0.00000E+00        -0.21290E+08
 
   -0.21375E+08         0.51279E+06         0.00000E+00
    0.51279E+06        -0.46873E+08         0.00000E+00
    0.00000E+00         0.00000E+00        -0.21406E+08
 
   -0.21484E+08         0.51005E+06         0.00000E+00
    0.51005E+06        -0.47086E+08         0.00000E+00
    0.00000E+00         0.00000E+00        -0.21523E+08
 
   -0.21595E+08         0.50733E+06         0.00000E+00
    0.50733E+06        -0.47301E+08         0.00000E+00
    0.00000E+00         0.00000E+00        -0.21639E+08
 
   -0.21706E+08         0.50461E+06         0.00000E+00
    0.50461E+06        -0.47517E+08         0.00000E+00
    0.00000E+00         0.00000E+00        -0.21756E+08
 
   -0.21819E+08         0.50187E+06         0.00000E+00
    0.50187E+06        -0.47735E+08         0.00000E+00
    0.00000E+00         0.00000E+00        -0.21874E+08
 
   -0.21933E+08         0.49909E+06         0.00000E+00
    0.49909E+06        -0.47955E+08         0.00000E+00
    0.00000E+00         0.00000E+00        -0.21992E+08
 
   -0.22049E+08         0.49623E+06         0.00000E+00
    0.49623E+06        -0.48177E+08         0.00000E+00
    0.00000E+00         0.00000E+00        -0.22111E+08
 
   -0.22167E+08         0.49328E+06         0.00000E+00
    0.49328E+06        -0.48402E+08         0.00000E+00
    0.00000E+00         0.00000E+00        -0.22231E+08
 
   -0.22287E+08         0.49020E+06         0.00000E+00
    0.49020E+06        -0.48629E+08         0.00000E+00
    0.00000E+00         0.00000E+00        -0.22351E+08
 
   -0.22410E+08         0.48695E+06         0.00000E+00
    0.48695E+06        -0.48860E+08         0.00000E+00
    0.00000E+00         0.00000E+00        -0.22473E+08
 
   -0.22535E+08         0.48351E+06         0.00000E+00
    0.48351E+06        -0.49094E+08         0.00000E+00
    0.00000E+00         0.00000E+00        -0.22595E+08
 
   -0.22663E+08         0.47982E+06         0.00000E+00
    0.47982E+06        -0.49332E+08         0.00000E+00
    0.00000E+00         0.00000E+00        -0.22719E+08
 
   -0.22793E+08         0.47585E+06         0.00000E+00
    0.47585E+06        -0.49574E+08         0.00000E+00
    0.00000E+00         0.00000E+00        -0.22843E+08
 
   -0.22927E+08         0.47153E+06         0.00000E+00
    0.47153E+06        -0.49819E+08         0.00000E+00
    0.00000E+00         0.00000E+00        -0.22969E+08
 
   -0.23065E+08         0.46682E+06         0.00000E+00
    0.46682E+06        -0.50070E+08         0.00000E+00
    0.00000E+00         0.00000E+00        -0.23096E+08
 
   -0.23206E+08         0.46163E+06         0.00000E+00
    0.46163E+06        -0.50324E+08         0.00000E+00
    0.00000E+00         0.00000E+00        -0.23224E+08
 
   -0.23351E+08         0.45589E+06         0.00000E+00
    0.45589E+06        -0.50584E+08         0.00000E+00
    0.00000E+00         0.00000E+00        -0.23354E+08
 
   -0.23501E+08         0.44951E+06         0.00000E+00
    0.44951E+06        -0.50849E+08         0.00000E+00
    0.00000E+00         0.00000E+00        -0.23485E+08
 
   -0.23654E+08         0.44238E+06         0.00000E+00
    0.44238E+06        -0.51120E+08         0.00000E+00
    0.00000E+00         0.00000E+00        -0.23617E+08
 
   -0.23813E+08         0.43436E+06         0.00000E+00
    0.43436E+06        -0.51396E+08         0.00000E+00
    0.00000E+00         0.00000E+00        -0.23750E+08
 
   -0.23977E+08         0.42532E+06         0.00000E+00
    0.42532E+06        -0.51678E+08         0.00000E+00
    0.00000E+00         0.00000E+00        -0.23884E+08
 
   -0.24146E+08         0.41508E+06         0.00000E+00
    0.41508E+06        -0.51967E+08         0.00000E+00
    0.00000E+00         0.00000E+00        -0.24020E+08
 
   -0.24321E+08         0.40342E+06         0.00000E+00
    0.40342E+06        -0.52262E+08         0.00000E+00
    0.00000E+00         0.00000E+00        -0.24157E+08
 
   -0.24503E+08         0.39013E+06         0.00000E+00
    0.39013E+06        -0.52565E+08         0.00000E+00
    0.00000E+00         0.00000E+00        -0.24295E+08
 
   -0.24691E+08         0.37493E+06         0.00000E+00
    0.37493E+06        -0.52874E+08         0.00000E+00
    0.00000E+00         0.00000E+00        -0.24434E+08
 
   -0.24887E+08         0.35754E+06         0.00000E+00
    0.35754E+06        -0.53192E+08         0.00000E+00
    0.00000E+00         0.00000E+00        -0.24574E+08
 
   -0.25090E+08         0.33762E+06         0.00000E+00
    0.33762E+06        -0.53517E+08         0.00000E+00
    0.00000E+00         0.00000E+00        -0.24715E+08
 
   -0.25302E+08         0.31487E+06         0.00000E+00
    0.31487E+06        -0.53850E+08         0.00000E+00
    0.00000E+00         0.00000E+00        -0.24856E+08
 
   -0.25523E+08         0.28895E+06         0.00000E+00
    0.28895E+06        -0.54192E+08         0.00000E+00
    0.00000E+00         0.00000E+00        -0.24997E+08
 
   -0.25753E+08         0.25961E+06         0.00000E+00
    0.25961E+06        -0.54542E+08         0.00000E+00
    0.00000E+00         0.00000E+00        -0.25138E+08
 
   -0.25994E+08         0.22664E+06         0.00000E+00
    0.22664E+06        -0.54901E+08         0.00000E+00
    0.00000E+00         0.00000E+00        -0.25279E+08
 
   -0.26245E+08         0.19001E+06         0.00000E+00
    0.19001E+06        -0.55269E+08         0.00000E+00
    0.00000E+00         0.00000E+00        -0.25418E+08
 
   -0.26507E+08         0.14992E+06         0.00000E+00
    0.14992E+06        -0.55644E+08         0.00000E+00
    0.00000E+00         0.00000E+00        -0.25557E+08
 
   -0.26781E+08         0.10691E+06         0.00000E+00
    0.10691E+06        -0.56028E+08         0.00000E+00
    0.00000E+00         0.00000E+00        -0.25693E+08
 
   -0.27066E+08         0.61973E+05         0.00000E+00
    0.61973E+05        -0.56418E+08         0.00000E+00
    0.00000E+00         0.00000E+00        -0.25827E+08
 
   -0.27362E+08         0.16737E+05         0.00000E+00
    0.16737E+05        -0.56815E+08         0.00000E+00
    0.00000E+00         0.00000E+00        -0.25957E+08
 
   -0.27669E+08        -0.26346E+05         0.00000E+00
   -0.26346E+05        -0.57216E+08         0.00000E+00
    0.00000E+00         0.00000E+00        -0.26084E+08
 
   -0.27985E+08        -0.63640E+05         0.00000E+00
   -0.63640E+05        -0.57619E+08         0.00000E+00
    0.00000E+00         0.00000E+00        -0.26206E+08
 
   -0.28305E+08        -0.89392E+05         0.00000E+00
   -0.89392E+05        -0.58019E+08         0.00000E+00
    0.00000E+00         0.00000E+00        -0.26321E+08
 
   -0.28627E+08        -0.95034E+05         0.00000E+00
   -0.95034E+05        -0.58406E+08         0.00000E+00
    0.00000E+00         0.00000E+00        -0.26425E+08
 
   -0.28948E+08        -0.73298E+05         0.00000E+00
   -0.73298E+05        -0.58760E+08         0.00000E+00
    0.00000E+00         0.00000E+00        -0.26498E+08
 
   -0.29279E+08        -0.27488E+05         0.00000E+00
   -0.27488E+05        -0.59061E+08         0.00000E+00
    0.00000E+00         0.00000E+00        -0.26512E+08
 
   -0.98321E+07        -0.37272E+05         0.00000E+00
   -0.37272E+05        -0.27953E+08         0.00000E+00
    0.00000E+00         0.00000E+00        -0.15264E+08
 
   -0.10327E+08        -0.93218E+05         0.00000E+00
   -0.93218E+05        -0.28360E+08         0.00000E+00
    0.00000E+00         0.00000E+00        -0.15171E+08
 
   -0.10823E+08        -0.10025E+06         0.00000E+00
   -0.10025E+06        -0.28801E+08         0.00000E+00
    0.00000E+00         0.00000E+00        -0.15130E+08
 
   -0.11316E+08        -0.57143E+05         0.00000E+00
   -0.57143E+05        -0.29272E+08         0.00000E+00
    0.00000E+00         0.00000E+00        -0.15112E+08
 
   -0.11792E+08         0.11164E+05         0.00000E+00
    0.11164E+05        -0.29762E+08         0.00000E+00
    0.00000E+00         0.00000E+00        -0.15106E+08
 
   -0.12239E+08         0.80982E+05         0.00000E+00
    0.80982E+05        -0.30261E+08         0.00000E+00
    0.00000E+00         0.00000E+00        -0.15111E+08
 
   -0.12656E+08         0.14144E+06         0.00000E+00
    0.14144E+06        -0.30761E+08         0.00000E+00
    0.00000E+00         0.00000E+00        -0.15131E+08
 
   -0.13043E+08         0.19135E+06         0.00000E+00
    0.19135E+06        -0.31254E+08         0.00000E+00
    0.00000E+00         0.00000E+00        -0.15167E+08
 
   -0.13407E+08         0.23423E+06         0.00000E+00
    0.23423E+06        -0.31736E+08         0.00000E+00
    0.00000E+00         0.00000E+00        -0.15219E+08
 
   -0.13747E+08         0.27425E+06         0.00000E+00
    0.27425E+06        -0.32209E+08         0.00000E+00
    0.00000E+00         0.00000E+00        -0.15286E+08
 
   -0.14066E+08         0.31377E+06         0.00000E+00
    0.31377E+06        -0.32674E+08         0.00000E+00
    0.00000E+00         0.00000E+00        -0.15367E+08
 
   -0.14365E+08         0.35305E+06         0.00000E+00
    0.35305E+06        -0.33134E+08         0.00000E+00
    0.00000E+00         0.00000E+00        -0.15460E+08
 
   -0.14645E+08         0.39107E+06         0.00000E+00
    0.39107E+06        -0.33591E+08         0.00000E+00
    0.00000E+00         0.00000E+00        -0.15561E+08
 
   -0.14907E+08         0.42652E+06         0.00000E+00
    0.42652E+06        -0.34043E+08         0.00000E+00
    0.00000E+00         0.00000E+00        -0.15670E+08
 
   -0.15155E+08         0.45839E+06         0.00000E+00
    0.45839E+06        -0.34492E+08         0.00000E+00
    0.00000E+00         0.00000E+00        -0.15784E+08
 
   -0.15388E+08         0.48613E+06         0.00000E+00
    0.48613E+06        -0.34934E+08         0.00000E+00
    0.00000E+00         0.00000E+00        -0.15902E+08
 
   -0.15607E+08         0.50963E+06         0.00000E+00
    0.50963E+06        -0.35370E+08         0.00000E+00
    0.00000E+00         0.00000E+00        -0.16022E+08
 
   -0.15815E+08         0.52906E+06         0.00000E+00
    0.52906E+06        -0.35799E+08         0.00000E+00
    0.00000E+00         0.00000E+00        -0.16143E+08
 
   -0.16012E+08         0.54481E+06         0.00000E+00
    0.54481E+06        -0.36221E+08         0.00000E+00
    0.00000E+00         0.00000E+00        -0.16264E+08
 
   -0.16198E+08         0.55734E+06         0.00000E+00
    0.55734E+06        -0.36635E+08         0.00000E+00
    0.00000E+00         0.00000E+00        -0.16384E+08
 
   -0.16375E+08         0.56711E+06         0.00000E+00
    0.56711E+06        -0.37042E+08         0.00000E+00
    0.00000E+00         0.00000E+00        -0.16504E+08
 
   -0.16542E+08         0.57459E+06         0.00000E+00
    0.57459E+06        -0.37442E+08         0.00000E+00
    0.00000E+00         0.00000E+00        -0.16622E+08
 
   -0.16701E+08         0.58020E+06         0.00000E+00
    0.58020E+06        -0.37834E+08         0.00000E+00
    0.00000E+00         0.00000E+00        -0.16738E+08
 
   -0.16851E+08         0.58427E+06         0.00000E+00
    0.58427E+06        -0.38220E+08         0.00000E+00
    0.00000E+00         0.00000E+00        -0.16851E+08
 
   -0.17018E+08         0.58578E+06         0.00000E+00
    0.58578E+06        -0.38572E+08         0.00000E+00
    0.00000E+00         0.00000E+00        -0.16987E+08
 
   -0.17202E+08         0.58501E+06         0.00000E+00
    0.58501E+06        -0.38894E+08         0.00000E+00
    0.00000E+00         0.00000E+00        -0.17143E+08
 
   -0.17379E+08         0.58347E+06         0.00000E+00
    0.58347E+06        -0.39208E+08         0.00000E+00
    0.00000E+00         0.00000E+00        -0.17298E+08
 
   -0.17551E+08         0.58132E+06         0.00000E+00
    0.58132E+06        -0.39515E+08         0.00000E+00
    0.00000E+00         0.00000E+00        -0.17451E+08
 
   -0.17717E+08         0.57869E+06         0.00000E+00
    0.57869E+06        -0.39815E+08         0.00000E+00
    0.00000E+00         0.00000E+00        -0.17602E+08
 
   -0.17879E+08         0.57570E+06         0.00000E+00
    0.57570E+06        -0.40109E+08         0.00000E+00
    0.00000E+00         0.00000E+00        -0.17751E+08
 
   -0.18035E+08         0.57242E+06         0.00000E+00
    0.57242E+06        -0.40396E+08         0.00000E+00
    0.00000E+00         0.00000E+00        -0.17898E+08
 
   -0.18188E+08         0.56891E+06         0.00000E+00
    0.56891E+06        -0.40677E+08         0.00000E+00
    0.00000E+00         0.00000E+00        -0.18042E+08
 
   -0.18336E+08         0.56524E+06         0.00000E+00
    0.56524E+06        -0.40952E+08         0.00000E+00
    0.00000E+00         0.00000E+00        -0.18185E+08
 
   -0.18480E+08         0.56145E+06         0.00000E+00
    0.56145E+06        -0.41221E+08         0.00000E+00
    0.00000E+00         0.00000E+00        -0.18326E+08
 
   -0.18620E+08         0.55755E+06         0.00000E+00
    0.55755E+06        -0.41485E+08         0.00000E+00
    0.00000E+00         0.00000E+00        -0.18465E+08
 
   -0.18756E+08         0.55360E+06         0.00000E+00
    0.55360E+06        -0.41744E+08         0.00000E+00
    0.00000E+00         0.00000E+00        -0.18602E+08
 
   -0.18890E+08         0.54960E+06         0.00000E+00
    0.54960E+06        -0.41998E+08         0.00000E+00
    0.00000E+00         0.00000E+00        -0.18737E+08
 
   -0.19020E+08         0.54558E+06         0.00000E+00
    0.54558E+06        -0.42248E+08         0.00000E+00
    0.00000E+00         0.00000E+00        -0.18870E+08
 
   -0.19147E+08         0.54157E+06         0.00000E+00
    0.54157E+06        -0.42493E+08         0.00000E+00
    0.00000E+00         0.00000E+00        -0.19001E+08
 
   -0.19272E+08         0.53756E+06         0.00000E+00
    0.53756E+06        -0.42733E+08         0.00000E+00
    0.00000E+00         0.00000E+00        -0.19131E+08
 
   -0.19394E+08         0.53358E+06         0.00000E+00
    0.53358E+06        -0.42971E+08         0.00000E+00
    0.00000E+00         0.00000E+00        -0.19260E+08
 
   -0.19514E+08         0.52965E+06         0.00000E+00
    0.52965E+06        -0.43204E+08         0.00000E+00
    0.00000E+00         0.00000E+00        -0.19386E+08
 
   -0.19632E+08         0.52577E+06         0.00000E+00
    0.52577E+06        -0.43434E+08         0.00000E+00
    0.00000E+00         0.00000E+00        -0.19512E+08
 
   -0.19748E+08         0.52195E+06         0.00000E+00
    0.52195E+06        -0.43661E+08         0.00000E+00
    0.00000E+00         0.00000E+00        -0.19636E+08
 
   -0.19862E+08         0.51821E+06         0.00000E+00
    0.51821E+06        -0.43885E+08         0.00000E+00
    0.00000E+00         0.00000E+00        -0.19759E+08
 
   -0.19974E+08         0.51454E+06         0.00000E+00
    0.51454E+06        -0.44107E+08         0.00000E+00
    0.00000E+00         0.00000E+00        -0.19880E+08
 
   -0.20085E+08         0.51096E+06         0.00000E+00
    0.51096E+06        -0.44326E+08         0.00000E+00
    0.00000E+00         0.00000E+00        -0.20001E+08
 
   -0.20195E+08         0.50748E+06         0.00000E+00
    0.50748E+06        -0.44544E+08         0.00000E+00
    0.00000E+00         0.00000E+00        -0.20121E+08
 
   -0.20304E+08         0.50408E+06         0.00000E+00
    0.50408E+06        -0.44759E+08         0.00000E+00
    0.00000E+00         0.00000E+00        -0.20240E+08
 
   -0.20412E+08         0.50079E+06         0.00000E+00
    0.50079E+06        -0.44973E+08         0.00000E+00
    0.00000E+00         0.00000E+00        -0.20358E+08
 
   -0.20519E+08         0.49759E+06         0.00000E+00
    0.49759E+06        -0.45186E+08         0.00000E+00
    0.00000E+00         0.00000E+00        -0.20476E+08
 
   -0.20626E+08         0.49449E+06         0.00000E+00
    0.49449E+06        -0.45398E+08         0.00000E+00
    0.00000E+00         0.00000E+00        -0.20593E+08
 
   -0.20732E+08         0.49148E+06         0.00000E+00
    0.49148E+06        -0.45609E+08         0.00000E+00
    0.00000E+00         0.00000E+00        -0.20709E+08
 
   -0.20839E+08         0.48857E+06         0.00000E+00
    0.48857E+06        -0.45819E+08         0.00000E+00
    0.00000E+00         0.00000E+00        -0.20826E+08
 
   -0.20945E+08         0.48573E+06         0.00000E+00
    0.48573E+06        -0.46030E+08         0.00000E+00
    0.00000E+00         0.00000E+00        -0.20942E+08
 
   -0.21051E+08         0.48298E+06         0.00000E+00
    0.48298E+06        -0.46240E+08         0.00000E+00
    0.00000E+00         0.00000E+00        -0.21058E+08
 
   -0.21158E+08         0.48029E+06         0.00000E+00
    0.48029E+06        -0.46451E+08         0.00000E+00
    0.00000E+00         0.00000E+00        -0.21174E+08
 
   -0.21265E+08         0.47766E+06         0.00000E+00
    0.47766E+06        -0.46662E+08         0.00000E+00
    0.00000E+00         0.00000E+00        -0.21290E+08
 
   -0.21374E+08         0.47508E+06         0.00000E+00
    0.47508E+06        -0.46874E+08         0.00000E+00
    0.00000E+00         0.00000E+00        -0.21406E+08
 
   -0.21482E+08         0.47253E+06         0.00000E+00
    0.47253E+06        -0.47087E+08         0.00000E+00
    0.00000E+00         0.00000E+00        -0.21522E+08
 
   -0.21592E+08         0.46999E+06         0.00000E+00
    0.46999E+06        -0.47301E+08         0.00000E+00
    0.00000E+00         0.00000E+00        -0.21639E+08
 
   -0.21704E+08         0.46746E+06         0.00000E+00
    0.46746E+06        -0.47517E+08         0.00000E+00
    0.00000E+00         0.00000E+00        -0.21756E+08
 
   -0.21816E+08         0.46490E+06         0.00000E+00
    0.46490E+06        -0.47735E+08         0.00000E+00
    0.00000E+00         0.00000E+00        -0.21874E+08
 
   -0.21930E+08         0.46229E+06         0.00000E+00
    0.46229E+06        -0.47955E+08         0.00000E+00
    0.00000E+00         0.00000E+00        -0.21992E+08
 
   -0.22046E+08         0.45963E+06         0.00000E+00
    0.45963E+06        -0.48177E+08         0.00000E+00
    0.00000E+00         0.00000E+00        -0.22111E+08
 
   -0.22164E+08         0.45687E+06         0.00000E+00
    0.45687E+06        -0.48402E+08         0.00000E+00
    0.00000E+00         0.00000E+00        -0.22231E+08
 
   -0.22285E+08         0.45398E+06         0.00000E+00
    0.45398E+06        -0.48630E+08         0.00000E+00
    0.00000E+00         0.00000E+00        -0.22352E+08
 
   -0.22407E+08         0.45095E+06         0.00000E+00
    0.45095E+06        -0.48860E+08         0.00000E+00
    0.00000E+00         0.00000E+00        -0.22473E+08
 
   -0.22532E+08         0.44773E+06         0.00000E+00
    0.44773E+06        -0.49095E+08         0.00000E+00
    0.00000E+00         0.00000E+00        -0.22596E+08
 
   -0.22660E+08         0.44428E+06         0.00000E+00
    0.44428E+06        -0.49332E+08         0.00000E+00
    0.00000E+00         0.00000E+00        -0.22719E+08
 
   -0.22791E+08         0.44056E+06         0.00000E+00
    0.44056E+06        -0.49574E+08         0.00000E+00
    0.00000E+00         0.00000E+00        -0.22844E+08
 
   -0.22925E+08         0.43653E+06         0.00000E+00
    0.43653E+06        -0.49820E+08         0.00000E+00
    0.00000E+00         0.00000E+00        -0.22970E+08
 
   -0.23062E+08         0.43212E+06         0.00000E+00
    0.43212E+06        -0.50070E+08         0.00000E+00
    0.00000E+00         0.00000E+00        -0.23097E+08
 
   -0.23204E+08         0.42727E+06         0.00000E+00
    0.42727E+06        -0.50325E+08         0.00000E+00
    0.00000E+00         0.00000E+00        -0.23225E+08
 
   -0.23349E+08         0.42191E+06         0.00000E+00
    0.42191E+06        -0.50585E+08         0.00000E+00
    0.00000E+00         0.00000E+00        -0.23354E+08
 
   -0.23498E+08         0.41595E+06         0.00000E+00
    0.41595E+06        -0.50849E+08         0.00000E+00
    0.00000E+00         0.00000E+00        -0.23485E+08
 
   -0.23652E+08         0.40928E+06         0.00000E+00
    0.40928E+06        -0.51120E+08         0.00000E+00
    0.00000E+00         0.00000E+00        -0.23617E+08
 
   -0.23811E+08         0.40180E+06         0.00000E+00
    0.40180E+06        -0.51396E+08         0.00000E+00
    0.00000E+00         0.00000E+00        -0.23750E+08
 
   -0.23975E+08         0.39336E+06         0.00000E+00
    0.39336E+06        -0.51678E+08         0.00000E+00
    0.00000E+00         0.00000E+00        -0.23884E+08
 
   -0.24145E+08         0.38379E+06         0.00000E+00
    0.38379E+06        -0.51967E+08         0.00000E+00
    0.00000E+00         0.00000E+00        -0.24020E+08
 
   -0.24320E+08         0.37289E+06         0.00000E+00
    0.37289E+06        -0.52262E+08         0.00000E+00
    0.00000E+00         0.00000E+00        -0.24156E+08
 
   -0.24502E+08         0.36046E+06         0.00000E+00
    0.36046E+06        -0.52564E+08         0.00000E+00
    0.00000E+00         0.00000E+00        -0.24294E+08
 
   -0.24691E+08         0.34623E+06         0.00000E+00
    0.34623E+06        -0.52874E+08         0.00000E+00
    0.00000E+00         0.00000E+00        -0.24432E+08
 
   -0.24887E+08         0.32993E+06         0.00000E+00
    0.32993E+06        -0.53191E+08         0.00000E+00
    0.00000E+00         0.00000E+00        -0.24571E+08
 
   -0.25092E+08         0.31124E+06         0.00000E+00
    0.31124E+06        -0.53516E+08         0.00000E+00
    0.00000E+00         0.00000E+00        -0.24711E+08
 
   -0.25304E+08         0.28987E+06         0.00000E+00
    0.28987E+06        -0.53849E+08         0.00000E+00
    0.00000E+00         0.00000E+00        -0.24851E+08
 
   -0.25526E+08         0.26549E+06         0.00000E+00
    0.26549E+06        -0.54190E+08         0.00000E+00
    0.00000E+00         0.00000E+00        -0.24991E+08
 
   -0.25758E+08         0.23785E+06         0.00000E+00
    0.23785E+06        -0.54540E+08         0.00000E+00
    0.00000E+00         0.00000E+00        -0.25130E+08
 
   -0.26000E+08         0.20677E+06         0.00000E+00
    0.20677E+06        -0.54899E+08         0.00000E+00
    0.00000E+00         0.00000E+00        -0.25269E+08
 
   -0.26254E+08         0.17220E+06         0.00000E+00
    0.17220E+06        -0.55266E+08         0.00000E+00
    0.00000E+00         0.00000E+00        -0.25407E+08
 
   -0.26519E+08         0.13434E+06         0.00000E+00
    0.13434E+06        -0.55642E+08         0.00000E+00
    0.00000E+00         0.00000E+00        -0.25543E+08
 
   -0.26795E+08         0.93678E+05         0.00000E+00
    0.93678E+05        -0.56026E+08         0.00000E+00
    0.00000E+00         0.00000E+00        -0.25677E+08
 
   -0.27085E+08         0.51164E+05         0.00000E+00
    0.51164E+05        -0.56417E+08         0.00000E+00
    0.00000E+00         0.00000E+00        -0.25808E+08
 
   -0.27386E+08         0.83000E+04         0.00000E+00
    0.83000E+04        -0.56815E+08         0.00000E+00
    0.00000E+00         0.00000E+00        -0.25936E+08
 
   -0.27698E+08        -0.32669E+05         0.00000E+00
   -0.32669E+05        -0.57218E+08         0.00000E+00
    0.00000E+00         0.00000E+00        -0.26060E+08
 
   -0.28020E+08        -0.68475E+05         0.00000E+00
   -0.68475E+05        -0.57624E+08         0.00000E+00
    0.00000E+00         0.00000E+00        -0.26180E+08
 
   -0.28347E+08        -0.93846E+05         0.00000E+00
   -0.93846E+05        -0.58029E+08         0.00000E+00
    0.00000E+00         0.00000E+00        -0.26295E+08
 
   -0.28675E+08        -0.10000E+06         0.00000E+00
   -0.10000E+06        -0.58423E+08         0.00000E+00
    0.00000E+00         0.00000E+00        -0.26400E+08
 
   -0.29001E+08        -0.77919E+05         0.00000E+00
   -0.77919E+05        -0.58786E+08         0.00000E+00
    0.00000E+00         0.00000E+00        -0.26478E+08
 
   -0.29333E+08        -0.29424E+05         0.00000E+00
   -0.29424E+05        -0.59092E+08         0.00000E+00
    0.00000E+00         0.00000E+00        -0.26497E+08
 
   -0.97525E+07        -0.37930E+05         0.00000E+00
   -0.37930E+05        -0.27938E+08         0.00000E+00
    0.00000E+00         0.00000E+00        -0.15290E+08
 
   -0.10251E+08        -0.94090E+05         0.00000E+00
   -0.94090E+05        -0.28353E+08         0.00000E+00
    0.00000E+00         0.00000E+00        -0.15206E+08
 
   -0.10755E+08        -0.99944E+05         0.00000E+00
   -0.99944E+05        -0.28805E+08         0.00000E+00
    0.00000E+00         0.00000E+00        -0.15170E+08
 
   -0.11260E+08        -0.57750E+05         0.00000E+00
   -0.57750E+05        -0.29284E+08         0.00000E+00
    0.00000E+00         0.00000E+00        -0.15153E+08
 
   -0.11746E+08         0.60834E+04         0.00000E+00
    0.60834E+04        -0.29776E+08         0.00000E+00
    0.00000E+00         0.00000E+00        -0.15144E+08
 
   -0.12201E+08         0.70051E+05         0.00000E+00
    0.70051E+05        -0.30274E+08         0.00000E+00
    0.00000E+00         0.00000E+00        -0.15145E+08
 
   -0.12623E+08         0.12518E+06         0.00000E+00
    0.12518E+06        -0.30772E+08         0.00000E+00
    0.00000E+00         0.00000E+00        -0.15159E+08
 
   -0.13016E+08         0.17067E+06         0.00000E+00
    0.17067E+06        -0.31263E+08         0.00000E+00
    0.00000E+00         0.00000E+00        -0.15189E+08
 
   -0.13383E+08         0.20981E+06         0.00000E+00
    0.20981E+06        -0.31744E+08         0.00000E+00
    0.00000E+00         0.00000E+00        -0.15236E+08
 
   -0.13728E+08         0.24647E+06         0.00000E+00
    0.24647E+06        -0.32216E+08         0.00000E+00
    0.00000E+00         0.00000E+00        -0.15299E+08
 
   -0.14050E+08         0.28293E+06         0.00000E+00
    0.28293E+06        -0.32681E+08         0.00000E+00
    0.00000E+00         0.00000E+00        -0.15375E+08
 
   -0.14353E+08         0.31944E+06         0.00000E+00
    0.31944E+06        -0.33141E+08         0.00000E+00
    0.00000E+00         0.00000E+00        -0.15464E+08
 
   -0.14636E+08         0.35503E+06         0.00000E+00
    0.35503E+06        -0.33598E+08         0.00000E+00
    0.00000E+00         0.00000E+00        -0.15562E+08
 
   -0.14902E+08         0.38842E+06         0.00000E+00
    0.38842E+06        -0.34050E+08         0.00000E+00
    0.00000E+00         0.00000E+00        -0.15668E+08
 
   -0.15151E+08         0.41856E+06         0.00000E+00
    0.41856E+06        -0.34497E+08         0.00000E+00
    0.00000E+00         0.00000E+00        -0.15780E+08
 
   -0.15386E+08         0.44485E+06         0.00000E+00
    0.44485E+06        -0.34939E+08         0.00000E+00
    0.00000E+00         0.00000E+00        -0.15896E+08
 
   -0.15607E+08         0.46713E+06         0.00000E+00
    0.46713E+06        -0.35374E+08         0.00000E+00
    0.00000E+00         0.00000E+00        -0.16014E+08
 
   -0.15816E+08         0.48555E+06         0.00000E+00
    0.48555E+06        -0.35803E+08         0.00000E+00
    0.00000E+00         0.00000E+00        -0.16134E+08
 
   -0.16013E+08         0.50045E+06         0.00000E+00
    0.50045E+06        -0.36224E+08         0.00000E+00
    0.00000E+00         0.00000E+00        -0.16255E+08
 
   -0.16200E+08         0.51227E+06         0.00000E+00
    0.51227E+06        -0.36637E+08         0.00000E+00
    0.00000E+00         0.00000E+00        -0.16375E+08
 
   -0.16376E+08         0.52147E+06         0.00000E+00
    0.52147E+06        -0.37044E+08         0.00000E+00
    0.00000E+00         0.00000E+00        -0.16494E+08
 
   -0.16544E+08         0.52849E+06         0.00000E+00
    0.52849E+06        -0.37443E+08         0.00000E+00
    0.00000E+00         0.00000E+00        -0.16612E+08
 
   -0.16703E+08         0.53374E+06         0.00000E+00
    0.53374E+06        -0.37835E+08         0.00000E+00
    0.00000E+00         0.00000E+00        -0.16728E+08
 
   -0.16853E+08         0.53754E+06         0.00000E+00
    0.53754E+06        -0.38220E+08         0.00000E+00
    0.00000E+00         0.00000E+00        -0.16842E+08
 
   -0.17021E+08         0.53892E+06         0.00000E+00
    0.53892E+06        -0.38572E+08         0.00000E+00
    0.00000E+00         0.00000E+00        -0.16978E+08
 
   -0.17205E+08         0.53823E+06         0.00000E+00
    0.53823E+06        -0.38893E+08         0.00000E+00
    0.00000E+00         0.00000E+00        -0.17135E+08
 
   -0.17382E+08         0.53682E+06         0.00000E+00
    0.53682E+06        -0.39207E+08         0.00000E+00
    0.00000E+00         0.00000E+00        -0.17290E+08
 
   -0.17554E+08         0.53485E+06         0.00000E+00
    0.53485E+06        -0.39514E+08         0.00000E+00
    0.00000E+00         0.00000E+00        -0.17443E+08
 
   -0.17720E+08         0.53244E+06         0.00000E+00
    0.53244E+06        -0.39815E+08         0.00000E+00
    0.00000E+00         0.00000E+00        -0.17594E+08
 
   -0.17881E+08         0.52969E+06         0.00000E+00
    0.52969E+06        -0.40108E+08         0.00000E+00
    0.00000E+00         0.00000E+00        -0.17743E+08
 
   -0.18038E+08         0.52669E+06         0.00000E+00
    0.52669E+06        -0.40395E+08         0.00000E+00
    0.00000E+00         0.00000E+00        -0.17891E+08
 
   -0.18190E+08         0.52348E+06         0.00000E+00
    0.52348E+06        -0.40676E+08         0.00000E+00
    0.00000E+00         0.00000E+00        -0.18036E+08
 
   -0.18338E+08         0.52012E+06         0.00000E+00
    0.52012E+06        -0.40952E+08         0.00000E+00
    0.00000E+00         0.00000E+00        -0.18179E+08
 
   -0.18481E+08         0.51664E+06         0.00000E+00
    0.51664E+06        -0.41221E+08         0.00000E+00
    0.00000E+00         0.00000E+00        -0.18320E+08
 
   -0.18622E+08         0.51308E+06         0.00000E+00
    0.51308E+06        -0.41485E+08         0.00000E+00
    0.00000E+00         0.00000E+00        -0.18459E+08
 
   -0.18758E+08         0.50946E+06         0.00000E+00
    0.50946E+06        -0.41744E+08         0.00000E+00
    0.00000E+00         0.00000E+00        -0.18596E+08
 
   -0.18891E+08         0.50580E+06         0.00000E+00
    0.50580E+06        -0.41998E+08         0.00000E+00
    0.00000E+00         0.00000E+00        -0.18731E+08
 
   -0.19022E+08         0.50212E+06         0.00000E+00
    0.50212E+06        -0.42248E+08         0.00000E+00
    0.00000E+00         0.00000E+00        -0.18865E+08
 
   -0.19149E+08         0.49844E+06         0.00000E+00
    0.49844E+06        -0.42493E+08         0.00000E+00
    0.00000E+00         0.00000E+00        -0.18997E+08
 
   -0.19273E+08         0.49478E+06         0.00000E+00
    0.49478E+06        -0.42734E+08         0.00000E+00
    0.00000E+00         0.00000E+00        -0.19127E+08
 
   -0.19395E+08         0.49113E+06         0.00000E+00
    0.49113E+06        -0.42971E+08         0.00000E+00
    0.00000E+00         0.00000E+00        -0.19255E+08
 
   -0.19515E+08         0.48753E+06         0.00000E+00
    0.48753E+06        -0.43204E+08         0.00000E+00
    0.00000E+00         0.00000E+00        -0.19382E+08
 
   -0.19633E+08         0.48397E+06         0.00000E+00
    0.48397E+06        -0.43435E+08         0.00000E+00
    0.00000E+00         0.00000E+00        -0.19508E+08
 
   -0.19748E+08         0.48047E+06         0.00000E+00
    0.48047E+06        -0.43662E+08         0.00000E+00
    0.00000E+00         0.00000E+00        -0.19632E+08
 
   -0.19862E+08         0.47704E+06         0.00000E+00
    0.47704E+06        -0.43886E+08         0.00000E+00
    0.00000E+00         0.00000E+00        -0.19755E+08
 
   -0.19974E+08         0.47367E+06         0.00000E+00
    0.47367E+06        -0.44107E+08         0.00000E+00
    0.00000E+00         0.00000E+00        -0.19877E+08
 
   -0.20085E+08         0.47039E+06         0.00000E+00
    0.47039E+06        -0.44327E+08         0.00000E+00
    0.00000E+00         0.00000E+00        -0.19998E+08
 
   -0.20195E+08         0.46719E+06         0.00000E+00
    0.46719E+06        -0.44544E+08         0.00000E+00
    0.00000E+00         0.00000E+00        -0.20118E+08
 
   -0.20304E+08         0.46407E+06         0.00000E+00
    0.46407E+06        -0.44760E+08         0.00000E+00
    0.00000E+00         0.00000E+00        -0.20237E+08
 
   -0.20411E+08         0.46104E+06         0.00000E+00
    0.46104E+06        -0.44974E+08         0.00000E+00
    0.00000E+00         0.00000E+00        -0.20356E+08
 
   -0.20519E+08         0.45810E+06         0.00000E+00
    0.45810E+06        -0.45186E+08         0.00000E+00
    0.00000E+00         0.00000E+00        -0.20474E+08
 
   -0.20625E+08         0.45524E+06         0.00000E+00
    0.45524E+06        -0.45398E+08         0.00000E+00
    0.00000E+00         0.00000E+00        -0.20591E+08
 
   -0.20731E+08         0.45247E+06         0.00000E+00
    0.45247E+06        -0.45609E+08         0.00000E+00
    0.00000E+00         0.00000E+00        -0.20708E+08
 
   -0.20838E+08         0.44979E+06         0.00000E+00
    0.44979E+06        -0.45820E+08         0.00000E+00
    0.00000E+00         0.00000E+00        -0.20824E+08
 
   -0.20944E+08         0.44717E+06         0.00000E+00
    0.44717E+06        -0.46030E+08         0.00000E+00
    0.00000E+00         0.00000E+00        -0.20941E+08
 
   -0.21050E+08         0.44463E+06         0.00000E+00
    0.44463E+06        -0.46240E+08         0.00000E+00
    0.00000E+00         0.00000E+00        -0.21057E+08
 
   -0.21157E+08         0.44215E+06         0.00000E+00
    0.44215E+06        -0.46451E+08         0.00000E+00
    0.00000E+00         0.00000E+00        -0.21173E+08
 
   -0.21264E+08         0.43972E+06         0.00000E+00
    0.43972E+06        -0.46662E+08         0.00000E+00
    0.00000E+00         0.00000E+00        -0.21289E+08
 
   -0.21372E+08         0.43733E+06         0.00000E+00
    0.43733E+06        -0.46874E+08         0.00000E+00
    0.00000E+00         0.00000E+00        -0.21405E+08
 
   -0.21480E+08         0.43497E+06         0.00000E+00
    0.43497E+06        -0.47087E+08         0.00000E+00
    0.00000E+00         0.00000E+00        -0.21522E+08
 
   -0.21590E+08         0.43262E+06         0.00000E+00
    0.43262E+06        -0.47302E+08         0.00000E+00
    0.00000E+00         0.00000E+00        -0.21639E+08
 
   -0.21701E+08         0.43027E+06         0.00000E+00
    0.43027E+06        -0.47518E+08         0.00000E+00
    0.00000E+00         0.00000E+00        -0.21756E+08
 
   -0.21814E+08         0.42790E+06         0.00000E+00
    0.42790E+06        -0.47736E+08         0.00000E+00
    0.00000E+00         0.00000E+00        -0.21874E+08
 
   -0.21928E+08         0.42548E+06         0.00000E+00
    0.42548E+06        -0.47955E+08         0.00000E+00
    0.00000E+00         0.00000E+00        -0.21993E+08
 
   -0.22044E+08         0.42300E+06         0.00000E+00
    0.42300E+06        -0.48178E+08         0.00000E+00
    0.00000E+00         0.00000E+00        -0.22112E+08
 
   -0.22162E+08         0.42044E+06         0.00000E+00
    0.42044E+06        -0.48402E+08         0.00000E+00
    0.00000E+00         0.00000E+00        -0.22232E+08
 
   -0.22282E+08         0.41776E+06         0.00000E+00
    0.41776E+06        -0.48630E+08         0.00000E+00
    0.00000E+00         0.00000E+00        -0.22352E+08
 
   -0.22404E+08         0.41494E+06         0.00000E+00
    0.41494E+06        -0.48861E+08         0.00000E+00
    0.00000E+00         0.00000E+00        -0.22474E+08
 
   -0.22529E+08         0.41194E+06         0.00000E+00
    0.41194E+06        -0.49095E+08         0.00000E+00
    0.00000E+00         0.00000E+00        -0.22597E+08
 
   -0.22657E+08         0.40874E+06         0.00000E+00
    0.40874E+06        -0.49333E+08         0.00000E+00
    0.00000E+00         0.00000E+00        -0.22720E+08
 
   -0.22788E+08         0.40528E+06         0.00000E+00
    0.40528E+06        -0.49574E+08         0.00000E+00
    0.00000E+00         0.00000E+00        -0.22845E+08
 
   -0.22922E+08         0.40153E+06         0.00000E+00
    0.40153E+06        -0.49820E+08         0.00000E+00
    0.00000E+00         0.00000E+00        -0.22971E+08
 
   -0.23060E+08         0.39743E+06         0.00000E+00
    0.39743E+06        -0.50070E+08         0.00000E+00
    0.00000E+00         0.00000E+00        -0.23098E+08
 
   -0.23201E+08         0.39293E+06         0.00000E+00
    0.39293E+06        -0.50325E+08         0.00000E+00
    0.00000E+00         0.00000E+00        -0.23226E+08
 
   -0.23346E+08         0.38795E+06         0.00000E+00
    0.38795E+06        -0.50585E+08         0.00000E+00
    0.00000E+00         0.00000E+00        -0.23355E+08
 
   -0.23496E+08         0.38242E+06         0.00000E+00
    0.38242E+06        -0.50850E+08         0.00000E+00
    0.00000E+00         0.00000E+00        -0.23486E+08
 
   -0.23650E+08         0.37624E+06         0.00000E+00
    0.37624E+06        -0.51120E+08         0.00000E+00
    0.00000E+00         0.00000E+00        -0.23617E+08
 
   -0.23809E+08         0.36930E+06         0.00000E+00
    0.36930E+06        -0.51396E+08         0.00000E+00
    0.00000E+00         0.00000E+00        -0.23750E+08
 
   -0.23973E+08         0.36146E+06         0.00000E+00
    0.36146E+06        -0.51678E+08         0.00000E+00
    0.00000E+00         0.00000E+00        -0.23884E+08
 
   -0.24143E+08         0.35258E+06         0.00000E+00
    0.35258E+06        -0.51967E+08         0.00000E+00
    0.00000E+00         0.00000E+00        -0.24019E+08
 
   -0.24319E+08         0.34246E+06         0.00000E+00
    0.34246E+06        -0.52262E+08         0.00000E+00
    0.00000E+00         0.00000E+00        -0.24155E+08
 
   -0.24502E+08         0.33090E+06         0.00000E+00
    0.33090E+06        -0.52564E+08         0.00000E+00
    0.00000E+00         0.00000E+00        -0.24293E+08
 
   -0.24691E+08         0.31767E+06         0.00000E+00
    0.31767E+06        -0.52873E+08         0.00000E+00
    0.00000E+00         0.00000E+00        -0.24430E+08
 
   -0.24888E+08         0.30249E+06         0.00000E+00
    0.30249E+06        -0.53190E+08         0.00000E+00
    0.00000E+00         0.00000E+00        -0.24569E+08
 
   -0.25093E+08         0.28508E+06         0.00000E+00
    0.28508E+06        -0.53515E+08         0.00000E+00
    0.00000E+00         0.00000E+00        -0.24707E+08
 
   -0.25306E+08         0.26513E+06         0.00000E+00
    0.26513E+06        -0.53847E+08         0.00000E+00
    0.00000E+00         0.00000E+00        -0.24846E+08
 
   -0.25530E+08         0.24235E+06         0.00000E+00
    0.24235E+06        -0.54188E+08         0.00000E+00
    0.00000E+00         0.00000E+00        -0.24985E+08
 
   -0.25763E+08         0.21650E+06         0.00000E+00
    0.21650E+06        -0.54538E+08         0.00000E+00
    0.00000E+00         0.00000E+00        -0.25123E+08
 
   -0.26007E+08         0.18739E+06         0.00000E+00
    0.18739E+06        -0.54897E+08         0.00000E+00
    0.00000E+00         0.00000E+00        -0.25261E+08
 
   -0.26262E+08         0.15498E+06         0.00000E+00
    0.15498E+06        -0.55264E+08         0.00000E+00
    0.00000E+00         0.00000E+00        -0.25397E+08
 
   -0.26530E+08         0.11946E+06         0.00000E+00
    0.11946E+06        -0.55640E+08         0.00000E+00
    0.00000E+00         0.00000E+00        -0.25530E+08
 
   -0.26810E+08         0.81285E+05         0.00000E+00
    0.81285E+05        -0.56024E+08         0.00000E+00
    0.00000E+00         0.00000E+00        -0.25662E+08
 
   -0.27103E+08         0.41335E+05         0.00000E+00
    0.41335E+05        -0.56416E+08         0.00000E+00
    0.00000E+00         0.00000E+00        -0.25790E+08
 
   -0.27409E+08         0.99346E+03         0.00000E+00
    0.99346E+03        -0.56815E+08         0.00000E+00
    0.00000E+00         0.00000E+00        -0.25915E+08
 
   -0.27727E+08        -0.37704E+05         0.00000E+00
   -0.37704E+05        -0.57220E+08         0.00000E+00
    0.00000E+00         0.00000E+00        -0.26037E+08
 
   -0.28055E+08        -0.71863E+05         0.00000E+00
   -0.71863E+05        -0.57630E+08         0.00000E+00
    0.00000E+00         0.00000E+00        -0.26154E+08
 
   -0.28390E+08        -0.96826E+05         0.00000E+00
   -0.96826E+05        -0.58039E+08         0.00000E+00
    0.00000E+00         0.00000E+00        -0.26268E+08
 
   -0.28725E+08        -0.10387E+06         0.00000E+00
   -0.10387E+06        -0.58440E+08         0.00000E+00
    0.00000E+00         0.00000E+00        -0.26375E+08
 
   -0.29055E+08        -0.82104E+05         0.00000E+00
   -0.82104E+05        -0.58812E+08         0.00000E+00
    0.00000E+00         0.00000E+00        -0.26457E+08
 
   -0.29389E+08        -0.31299E+05         0.00000E+00
   -0.31299E+05        -0.59124E+08         0.00000E+00
    0.00000E+00         0.00000E+00        -0.26481E+08
 
   -0.96736E+07        -0.38332E+05         0.00000E+00
   -0.38332E+05        -0.27923E+08         0.00000E+00
    0.00000E+00         0.00000E+00        -0.15316E+08
 
   -0.10176E+08        -0.93807E+05         0.00000E+00
   -0.93807E+05        -0.28346E+08         0.00000E+00
    0.00000E+00         0.00000E+00        -0.15241E+08
 
   -0.10690E+08        -0.97458E+05         0.00000E+00
   -0.97458E+05        -0.28809E+08         0.00000E+00
    0.00000E+00         0.00000E+00        -0.15211E+08
 
   -0.11205E+08        -0.56099E+05         0.00000E+00
   -0.56099E+05        -0.29296E+08         0.00000E+00
    0.00000E+00         0.00000E+00        -0.15194E+08
 
   -0.11701E+08         0.27142E+04         0.00000E+00
    0.27142E+04        -0.29789E+08         0.00000E+00
    0.00000E+00         0.00000E+00        -0.15181E+08
 
   -0.12163E+08         0.60403E+05         0.00000E+00
    0.60403E+05        -0.30286E+08         0.00000E+00
    0.00000E+00         0.00000E+00        -0.15177E+08
 
   -0.12590E+08         0.10997E+06         0.00000E+00
    0.10997E+06        -0.30782E+08         0.00000E+00
    0.00000E+00         0.00000E+00        -0.15186E+08
 
   -0.12988E+08         0.15090E+06         0.00000E+00
    0.15090E+06        -0.31271E+08         0.00000E+00
    0.00000E+00         0.00000E+00        -0.15210E+08
 
   -0.13360E+08         0.18621E+06         0.00000E+00
    0.18621E+06        -0.31752E+08         0.00000E+00
    0.00000E+00         0.00000E+00        -0.15252E+08
 
   -0.13708E+08         0.21948E+06         0.00000E+00
    0.21948E+06        -0.32223E+08         0.00000E+00
    0.00000E+00         0.00000E+00        -0.15309E+08
 
   -0.14035E+08         0.25282E+06         0.00000E+00
    0.25282E+06        -0.32688E+08         0.00000E+00
    0.00000E+00         0.00000E+00        -0.15382E+08
 
   -0.14341E+08         0.28652E+06         0.00000E+00
    0.28652E+06        -0.33149E+08         0.00000E+00
    0.00000E+00         0.00000E+00        -0.15467E+08
 
   -0.14627E+08         0.31962E+06         0.00000E+00
    0.31962E+06        -0.33605E+08         0.00000E+00
    0.00000E+00         0.00000E+00        -0.15562E+08
 
   -0.14896E+08         0.35085E+06         0.00000E+00
    0.35085E+06        -0.34056E+08         0.00000E+00
    0.00000E+00         0.00000E+00        -0.15665E+08
 
   -0.15148E+08         0.37915E+06         0.00000E+00
    0.37915E+06        -0.34503E+08         0.00000E+00
    0.00000E+00         0.00000E+00        -0.15775E+08
 
   -0.15384E+08         0.40389E+06         0.00000E+00
    0.40389E+06        -0.34944E+08         0.00000E+00
    0.00000E+00         0.00000E+00        -0.15890E+08
 
   -0.15607E+08         0.42487E+06         0.00000E+00
    0.42487E+06        -0.35378E+08         0.00000E+00
    0.00000E+00         0.00000E+00        -0.16007E+08
 
   -0.15817E+08         0.44219E+06         0.00000E+00
    0.44219E+06        -0.35806E+08         0.00000E+00
    0.00000E+00         0.00000E+00        -0.16126E+08
 
   -0.16015E+08         0.45619E+06         0.00000E+00
    0.45619E+06        -0.36226E+08         0.00000E+00
    0.00000E+00         0.00000E+00        -0.16246E+08
 
   -0.16202E+08         0.46727E+06         0.00000E+00
    0.46727E+06        -0.36639E+08         0.00000E+00
    0.00000E+00         0.00000E+00        -0.16366E+08
 
   -0.16379E+08         0.47587E+06         0.00000E+00
    0.47587E+06        -0.37045E+08         0.00000E+00
    0.00000E+00         0.00000E+00        -0.16485E+08
 
   -0.16547E+08         0.48241E+06         0.00000E+00
    0.48241E+06        -0.37444E+08         0.00000E+00
    0.00000E+00         0.00000E+00        -0.16603E+08
 
   -0.16705E+08         0.48728E+06         0.00000E+00
    0.48728E+06        -0.37836E+08         0.00000E+00
    0.00000E+00         0.00000E+00        -0.16719E+08
 
   -0.16856E+08         0.49080E+06         0.00000E+00
    0.49080E+06        -0.38221E+08         0.00000E+00
    0.00000E+00         0.00000E+00        -0.16833E+08
 
   -0.17025E+08         0.49206E+06         0.00000E+00
    0.49206E+06        -0.38572E+08         0.00000E+00
    0.00000E+00         0.00000E+00        -0.16970E+08
 
   -0.17208E+08         0.49146E+06         0.00000E+00
    0.49146E+06        -0.38893E+08         0.00000E+00
    0.00000E+00         0.00000E+00        -0.17127E+08
 
   -0.17385E+08         0.49018E+06         0.00000E+00
    0.49018E+06        -0.39207E+08         0.00000E+00
    0.00000E+00         0.00000E+00        -0.17282E+08
 
   -0.17557E+08         0.48839E+06         0.00000E+00
    0.48839E+06        -0.39514E+08         0.00000E+00
    0.00000E+00         0.00000E+00        -0.17435E+08
 
   -0.17723E+08         0.48620E+06         0.00000E+00
    0.48620E+06        -0.39814E+08         0.00000E+00
    0.00000E+00         0.00000E+00        -0.17587E+08
 
   -0.17884E+08         0.48370E+06         0.00000E+00
    0.48370E+06        -0.40108E+08         0.00000E+00
    0.00000E+00         0.00000E+00        -0.17736E+08
 
   -0.18040E+08         0.48097E+06         0.00000E+00
    0.48097E+06        -0.40395E+08         0.00000E+00
    0.00000E+00         0.00000E+00        -0.17884E+08
 
   -0.18192E+08         0.47805E+06         0.00000E+00
    0.47805E+06        -0.40676E+08         0.00000E+00
    0.00000E+00         0.00000E+00        -0.18029E+08
 
   -0.18340E+08         0.47500E+06         0.00000E+00
    0.47500E+06        -0.40952E+08         0.00000E+00
    0.00000E+00         0.00000E+00        -0.18172E+08
 
   -0.18484E+08         0.47184E+06         0.00000E+00
    0.47184E+06        -0.41221E+08         0.00000E+00
    0.00000E+00         0.00000E+00        -0.18314E+08
 
   -0.18624E+08         0.46860E+06         0.00000E+00
    0.46860E+06        -0.41485E+08         0.00000E+00
    0.00000E+00         0.00000E+00        -0.18453E+08
 
   -0.18760E+08         0.46531E+06         0.00000E+00
    0.46531E+06        -0.41744E+08         0.00000E+00
    0.00000E+00         0.00000E+00        -0.18590E+08
 
   -0.18893E+08         0.46199E+06         0.00000E+00
    0.46199E+06        -0.41999E+08         0.00000E+00
    0.00000E+00         0.00000E+00        -0.18726E+08
 
   -0.19023E+08         0.45865E+06         0.00000E+00
    0.45865E+06        -0.42248E+08         0.00000E+00
    0.00000E+00         0.00000E+00        -0.18860E+08
 
   -0.19150E+08         0.45530E+06         0.00000E+00
    0.45530E+06        -0.42493E+08         0.00000E+00
    0.00000E+00         0.00000E+00        -0.18992E+08
 
   -0.19275E+08         0.45197E+06         0.00000E+00
    0.45197E+06        -0.42734E+08         0.00000E+00
    0.00000E+00         0.00000E+00        -0.19122E+08
 
   -0.19397E+08         0.44866E+06         0.00000E+00
    0.44866E+06        -0.42971E+08         0.00000E+00
    0.00000E+00         0.00000E+00        -0.19251E+08
 
   -0.19516E+08         0.44538E+06         0.00000E+00
    0.44538E+06        -0.43205E+08         0.00000E+00
    0.00000E+00         0.00000E+00        -0.19378E+08
 
   -0.19634E+08         0.44215E+06         0.00000E+00
    0.44215E+06        -0.43435E+08         0.00000E+00
    0.00000E+00         0.00000E+00        -0.19504E+08
 
   -0.19749E+08         0.43896E+06         0.00000E+00
    0.43896E+06        -0.43662E+08         0.00000E+00
    0.00000E+00         0.00000E+00        -0.19629E+08
 
   -0.19863E+08         0.43583E+06         0.00000E+00
    0.43583E+06        -0.43886E+08         0.00000E+00
    0.00000E+00         0.00000E+00        -0.19752E+08
 
   -0.19975E+08         0.43277E+06         0.00000E+00
    0.43277E+06        -0.44108E+08         0.00000E+00
    0.00000E+00         0.00000E+00        -0.19874E+08
 
   -0.20086E+08         0.42977E+06         0.00000E+00
    0.42977E+06        -0.44327E+08         0.00000E+00
    0.00000E+00         0.00000E+00        -0.19995E+08
 
   -0.20195E+08         0.42685E+06         0.00000E+00
    0.42685E+06        -0.44545E+08         0.00000E+00
    0.00000E+00         0.00000E+00        -0.20116E+08
 
   -0.20304E+08         0.42401E+06         0.00000E+00
    0.42401E+06        -0.44760E+08         0.00000E+00
    0.00000E+00         0.00000E+00        -0.20235E+08
 
   -0.20411E+08         0.42125E+06         0.00000E+00
    0.42125E+06        -0.44974E+08         0.00000E+00
    0.00000E+00         0.00000E+00        -0.20354E+08
 
   -0.20518E+08         0.41856E+06         0.00000E+00
    0.41856E+06        -0.45187E+08         0.00000E+00
    0.00000E+00         0.00000E+00        -0.20472E+08
 
   -0.20625E+08         0.41595E+06         0.00000E+00
    0.41595E+06        -0.45399E+08         0.00000E+00
    0.00000E+00         0.00000E+00        -0.20589E+08
 
   -0.20731E+08         0.41342E+06         0.00000E+00
    0.41342E+06        -0.45610E+08         0.00000E+00
    0.00000E+00         0.00000E+00        -0.20706E+08
 
   -0.20837E+08         0.41096E+06         0.00000E+00
    0.41096E+06        -0.45820E+08         0.00000E+00
    0.00000E+00         0.00000E+00        -0.20823E+08
 
   -0.20943E+08         0.40857E+06         0.00000E+00
    0.40857E+06        -0.46031E+08         0.00000E+00
    0.00000E+00         0.00000E+00        -0.20940E+08
 
   -0.21049E+08         0.40624E+06         0.00000E+00
    0.40624E+06        -0.46241E+08         0.00000E+00
    0.00000E+00         0.00000E+00        -0.21056E+08
 
   -0.21155E+08         0.40397E+06         0.00000E+00
    0.40397E+06        -0.46452E+08         0.00000E+00
    0.00000E+00         0.00000E+00        -0.21172E+08
 
   -0.21262E+08         0.40174E+06         0.00000E+00
    0.40174E+06        -0.46663E+08         0.00000E+00
    0.00000E+00         0.00000E+00        -0.21289E+08
 
   -0.21370E+08         0.39955E+06         0.00000E+00
    0.39955E+06        -0.46875E+08         0.00000E+00
    0.00000E+00         0.00000E+00        -0.21405E+08
 
   -0.21479E+08         0.39738E+06         0.00000E+00
    0.39738E+06        -0.47088E+08         0.00000E+00
    0.00000E+00         0.00000E+00        -0.21522E+08
 
   -0.21588E+08         0.39522E+06         0.00000E+00
    0.39522E+06        -0.47302E+08         0.00000E+00
    0.00000E+00         0.00000E+00        -0.21639E+08
 
   -0.21699E+08         0.39305E+06         0.00000E+00
    0.39305E+06        -0.47518E+08         0.00000E+00
    0.00000E+00         0.00000E+00        -0.21756E+08
 
   -0.21812E+08         0.39087E+06         0.00000E+00
    0.39087E+06        -0.47736E+08         0.00000E+00
    0.00000E+00         0.00000E+00        -0.21874E+08
 
   -0.21926E+08         0.38864E+06         0.00000E+00
    0.38864E+06        -0.47956E+08         0.00000E+00
    0.00000E+00         0.00000E+00        -0.21993E+08
 
   -0.22041E+08         0.38636E+06         0.00000E+00
    0.38636E+06        -0.48178E+08         0.00000E+00
    0.00000E+00         0.00000E+00        -0.22112E+08
 
   -0.22159E+08         0.38399E+06         0.00000E+00
    0.38399E+06        -0.48403E+08         0.00000E+00
    0.00000E+00         0.00000E+00        -0.22232E+08
 
   -0.22279E+08         0.38152E+06         0.00000E+00
    0.38152E+06        -0.48630E+08         0.00000E+00
    0.00000E+00         0.00000E+00        -0.22353E+08
 
   -0.22402E+08         0.37892E+06         0.00000E+00
    0.37892E+06        -0.48861E+08         0.00000E+00
    0.00000E+00         0.00000E+00        -0.22475E+08
 
   -0.22527E+08         0.37615E+06         0.00000E+00
    0.37615E+06        -0.49095E+08         0.00000E+00
    0.00000E+00         0.00000E+00        -0.22597E+08
 
   -0.22655E+08         0.37319E+06         0.00000E+00
    0.37319E+06        -0.49333E+08         0.00000E+00
    0.00000E+00         0.00000E+00        -0.22721E+08
 
   -0.22785E+08         0.37001E+06         0.00000E+00
    0.37001E+06        -0.49575E+08         0.00000E+00
    0.00000E+00         0.00000E+00        -0.22846E+08
 
   -0.22920E+08         0.36655E+06         0.00000E+00
    0.36655E+06        -0.49820E+08         0.00000E+00
    0.00000E+00         0.00000E+00        -0.22972E+08
 
   -0.23057E+08         0.36277E+06         0.00000E+00
    0.36277E+06        -0.50071E+08         0.00000E+00
    0.00000E+00         0.00000E+00        -0.23098E+08
 
   -0.23199E+08         0.35862E+06         0.00000E+00
    0.35862E+06        -0.50325E+08         0.00000E+00
    0.00000E+00         0.00000E+00        -0.23227E+08
 
   -0.23344E+08         0.35403E+06         0.00000E+00
    0.35403E+06        -0.50585E+08         0.00000E+00
    0.00000E+00         0.00000E+00        -0.23356E+08
 
   -0.23494E+08         0.34894E+06         0.00000E+00
    0.34894E+06        -0.50850E+08         0.00000E+00
    0.00000E+00         0.00000E+00        -0.23486E+08
 
   -0.23648E+08         0.34325E+06         0.00000E+00
    0.34325E+06        -0.51120E+08         0.00000E+00
    0.00000E+00         0.00000E+00        -0.23618E+08
 
   -0.23807E+08         0.33685E+06         0.00000E+00
    0.33685E+06        -0.51396E+08         0.00000E+00
    0.00000E+00         0.00000E+00        -0.23751E+08
 
   -0.23972E+08         0.32963E+06         0.00000E+00
    0.32963E+06        -0.51678E+08         0.00000E+00
    0.00000E+00         0.00000E+00        -0.23884E+08
 
   -0.24142E+08         0.32145E+06         0.00000E+00
    0.32145E+06        -0.51967E+08         0.00000E+00
    0.00000E+00         0.00000E+00        -0.24019E+08
 
   -0.24318E+08         0.31212E+06         0.00000E+00
    0.31212E+06        -0.52262E+08         0.00000E+00
    0.00000E+00         0.00000E+00        -0.24155E+08
 
   -0.24501E+08         0.30147E+06         0.00000E+00
    0.30147E+06        -0.52564E+08         0.00000E+00
    0.00000E+00         0.00000E+00        -0.24292E+08
 
   -0.24691E+08         0.28925E+06         0.00000E+00
    0.28925E+06        -0.52873E+08         0.00000E+00
    0.00000E+00         0.00000E+00        -0.24429E+08
 
   -0.24888E+08         0.27523E+06         0.00000E+00
    0.27523E+06        -0.53189E+08         0.00000E+00
    0.00000E+00         0.00000E+00        -0.24567E+08
 
   -0.25094E+08         0.25912E+06         0.00000E+00
    0.25912E+06        -0.53514E+08         0.00000E+00
    0.00000E+00         0.00000E+00        -0.24705E+08
 
   -0.25308E+08         0.24065E+06         0.00000E+00
    0.24065E+06        -0.53846E+08         0.00000E+00
    0.00000E+00         0.00000E+00        -0.24842E+08
 
   -0.25533E+08         0.21953E+06         0.00000E+00
    0.21953E+06        -0.54187E+08         0.00000E+00
    0.00000E+00         0.00000E+00        -0.24980E+08
 
   -0.25767E+08         0.19554E+06         0.00000E+00
    0.19554E+06        -0.54537E+08         0.00000E+00
    0.00000E+00         0.00000E+00        -0.25117E+08
 
   -0.26013E+08         0.16849E+06         0.00000E+00
    0.16849E+06        -0.54895E+08         0.00000E+00
    0.00000E+00         0.00000E+00        -0.25253E+08
 
   -0.26271E+08         0.13835E+06         0.00000E+00
    0.13835E+06        -0.55262E+08         0.00000E+00
    0.00000E+00         0.00000E+00        -0.25386E+08
 
   -0.26541E+08         0.10528E+06         0.00000E+00
    0.10528E+06        -0.55639E+08         0.00000E+00
    0.00000E+00         0.00000E+00        -0.25518E+08
 
   -0.26825E+08         0.69726E+05         0.00000E+00
    0.69726E+05        -0.56023E+08         0.00000E+00
    0.00000E+00         0.00000E+00        -0.25647E+08
 
   -0.27122E+08         0.32484E+05         0.00000E+00
    0.32484E+05        -0.56416E+08         0.00000E+00
    0.00000E+00         0.00000E+00        -0.25773E+08
 
   -0.27433E+08        -0.51817E+04         0.00000E+00
   -0.51817E+04        -0.56816E+08         0.00000E+00
    0.00000E+00         0.00000E+00        -0.25895E+08
 
   -0.27756E+08        -0.41442E+05         0.00000E+00
   -0.41442E+05        -0.57223E+08         0.00000E+00
    0.00000E+00         0.00000E+00        -0.26014E+08
 
   -0.28091E+08        -0.73764E+05         0.00000E+00
   -0.73764E+05        -0.57635E+08         0.00000E+00
    0.00000E+00         0.00000E+00        -0.26129E+08
 
   -0.28433E+08        -0.98203E+05         0.00000E+00
   -0.98203E+05        -0.58049E+08         0.00000E+00
    0.00000E+00         0.00000E+00        -0.26241E+08
 
   -0.28775E+08        -0.10647E+06         0.00000E+00
   -0.10647E+06        -0.58458E+08         0.00000E+00
    0.00000E+00         0.00000E+00        -0.26349E+08
 
   -0.29111E+08        -0.85762E+05         0.00000E+00
   -0.85762E+05        -0.58838E+08         0.00000E+00
    0.00000E+00         0.00000E+00        -0.26436E+08
 
   -0.29448E+08        -0.33104E+05         0.00000E+00
   -0.33104E+05        -0.59158E+08         0.00000E+00
    0.00000E+00         0.00000E+00        -0.26465E+08
 
   -0.95960E+07        -0.38466E+05         0.00000E+00
   -0.38466E+05        -0.27907E+08         0.00000E+00
    0.00000E+00         0.00000E+00        -0.15343E+08
 
   -0.10103E+08        -0.92235E+05         0.00000E+00
   -0.92235E+05        -0.28339E+08         0.00000E+00
    0.00000E+00         0.00000E+00        -0.15277E+08
 
   -0.10627E+08        -0.92671E+05         0.00000E+00
   -0.92671E+05        -0.28815E+08         0.00000E+00
    0.00000E+00         0.00000E+00        -0.15252E+08
 
   -0.11153E+08        -0.52331E+05         0.00000E+00
   -0.52331E+05        -0.29307E+08         0.00000E+00
    0.00000E+00         0.00000E+00        -0.15234E+08
 
   -0.11657E+08         0.81972E+03         0.00000E+00
    0.81972E+03        -0.29801E+08         0.00000E+00
    0.00000E+00         0.00000E+00        -0.15217E+08
 
   -0.12124E+08         0.51886E+05         0.00000E+00
    0.51886E+05        -0.30296E+08         0.00000E+00
    0.00000E+00         0.00000E+00        -0.15208E+08
 
   -0.12557E+08         0.95737E+05         0.00000E+00
    0.95737E+05        -0.30790E+08         0.00000E+00
    0.00000E+00         0.00000E+00        -0.15211E+08
 
   -0.12959E+08         0.13202E+06         0.00000E+00
    0.13202E+06        -0.31278E+08         0.00000E+00
    0.00000E+00         0.00000E+00        -0.15230E+08
 
   -0.13335E+08         0.16344E+06         0.00000E+00
    0.16344E+06        -0.31758E+08         0.00000E+00
    0.00000E+00         0.00000E+00        -0.15266E+08
 
   -0.13688E+08         0.19329E+06         0.00000E+00
    0.19329E+06        -0.32230E+08         0.00000E+00
    0.00000E+00         0.00000E+00        -0.15319E+08
 
   -0.14018E+08         0.22350E+06         0.00000E+00
    0.22350E+06        -0.32695E+08         0.00000E+00
    0.00000E+00         0.00000E+00        -0.15387E+08
 
   -0.14328E+08         0.25433E+06         0.00000E+00
    0.25433E+06        -0.33155E+08         0.00000E+00
    0.00000E+00         0.00000E+00        -0.15468E+08
 
   -0.14618E+08         0.28486E+06         0.00000E+00
    0.28486E+06        -0.33611E+08         0.00000E+00
    0.00000E+00         0.00000E+00        -0.15561E+08
 
   -0.14890E+08         0.31384E+06         0.00000E+00
    0.31384E+06        -0.34062E+08         0.00000E+00
    0.00000E+00         0.00000E+00        -0.15662E+08
 
   -0.15145E+08         0.34019E+06         0.00000E+00
    0.34019E+06        -0.34508E+08         0.00000E+00
    0.00000E+00         0.00000E+00        -0.15770E+08
 
   -0.15383E+08         0.36328E+06         0.00000E+00
    0.36328E+06        -0.34948E+08         0.00000E+00
    0.00000E+00         0.00000E+00        -0.15883E+08
 
   -0.15607E+08         0.38286E+06         0.00000E+00
    0.38286E+06        -0.35382E+08         0.00000E+00
    0.00000E+00         0.00000E+00        -0.15999E+08
 
   -0.15818E+08         0.39902E+06         0.00000E+00
    0.39902E+06        -0.35809E+08         0.00000E+00
    0.00000E+00         0.00000E+00        -0.16118E+08
 
   -0.16017E+08         0.41205E+06         0.00000E+00
    0.41205E+06        -0.36229E+08         0.00000E+00
    0.00000E+00         0.00000E+00        -0.16237E+08
 
   -0.16205E+08         0.42234E+06         0.00000E+00
    0.42234E+06        -0.36641E+08         0.00000E+00
    0.00000E+00         0.00000E+00        -0.16357E+08
 
   -0.16382E+08         0.43031E+06         0.00000E+00
    0.43031E+06        -0.37047E+08         0.00000E+00
    0.00000E+00         0.00000E+00        -0.16476E+08
 
   -0.16550E+08         0.43636E+06         0.00000E+00
    0.43636E+06        -0.37445E+08         0.00000E+00
    0.00000E+00         0.00000E+00        -0.16593E+08
 
   -0.16709E+08         0.44084E+06         0.00000E+00
    0.44084E+06        -0.37837E+08         0.00000E+00
    0.00000E+00         0.00000E+00        -0.16709E+08
 
   -0.16860E+08         0.44407E+06         0.00000E+00
    0.44407E+06        -0.38221E+08         0.00000E+00
    0.00000E+00         0.00000E+00        -0.16824E+08
 
   -0.17029E+08         0.44522E+06         0.00000E+00
    0.44522E+06        -0.38572E+08         0.00000E+00
    0.00000E+00         0.00000E+00        -0.16962E+08
 
   -0.17212E+08         0.44469E+06         0.00000E+00
    0.44469E+06        -0.38893E+08         0.00000E+00
    0.00000E+00         0.00000E+00        -0.17119E+08
 
   -0.17389E+08         0.44355E+06         0.00000E+00
    0.44355E+06        -0.39207E+08         0.00000E+00
    0.00000E+00         0.00000E+00        -0.17274E+08
 
   -0.17560E+08         0.44194E+06         0.00000E+00
    0.44194E+06        -0.39514E+08         0.00000E+00
    0.00000E+00         0.00000E+00        -0.17428E+08
 
   -0.17726E+08         0.43997E+06         0.00000E+00
    0.43997E+06        -0.39814E+08         0.00000E+00
    0.00000E+00         0.00000E+00        -0.17580E+08
 
   -0.17887E+08         0.43772E+06         0.00000E+00
    0.43772E+06        -0.40108E+08         0.00000E+00
    0.00000E+00         0.00000E+00        -0.17729E+08
 
   -0.18043E+08         0.43525E+06         0.00000E+00
    0.43525E+06        -0.40395E+08         0.00000E+00
    0.00000E+00         0.00000E+00        -0.17877E+08
 
   -0.18195E+08         0.43263E+06         0.00000E+00
    0.43263E+06        -0.40676E+08         0.00000E+00
    0.00000E+00         0.00000E+00        -0.18022E+08
 
   -0.18343E+08         0.42987E+06         0.00000E+00
    0.42987E+06        -0.40952E+08         0.00000E+00
    0.00000E+00         0.00000E+00        -0.18166E+08
 
   -0.18486E+08         0.42703E+06         0.00000E+00
    0.42703E+06        -0.41221E+08         0.00000E+00
    0.00000E+00         0.00000E+00        -0.18308E+08
 
   -0.18626E+08         0.42411E+06         0.00000E+00
    0.42411E+06        -0.41486E+08         0.00000E+00
    0.00000E+00         0.00000E+00        -0.18447E+08
 
   -0.18762E+08         0.42115E+06         0.00000E+00
    0.42115E+06        -0.41745E+08         0.00000E+00
    0.00000E+00         0.00000E+00        -0.18585E+08
 
   -0.18895E+08         0.41816E+06         0.00000E+00
    0.41816E+06        -0.41999E+08         0.00000E+00
    0.00000E+00         0.00000E+00        -0.18721E+08
 
   -0.19025E+08         0.41515E+06         0.00000E+00
    0.41515E+06        -0.42249E+08         0.00000E+00
    0.00000E+00         0.00000E+00        -0.18855E+08
 
   -0.19152E+08         0.41214E+06         0.00000E+00
    0.41214E+06        -0.42494E+08         0.00000E+00
    0.00000E+00         0.00000E+00        -0.18987E+08
 
   -0.19277E+08         0.40914E+06         0.00000E+00
    0.40914E+06        -0.42735E+08         0.00000E+00
    0.00000E+00         0.00000E+00        -0.19118E+08
 
   -0.19398E+08         0.40616E+06         0.00000E+00
    0.40616E+06        -0.42972E+08         0.00000E+00
    0.00000E+00         0.00000E+00        -0.19247E+08
 
   -0.19518E+08         0.40320E+06         0.00000E+00
    0.40320E+06        -0.43205E+08         0.00000E+00
    0.00000E+00         0.00000E+00        -0.19374E+08
 
   -0.19635E+08         0.40028E+06         0.00000E+00
    0.40028E+06        -0.43436E+08         0.00000E+00
    0.00000E+00         0.00000E+00        -0.19500E+08
 
   -0.19750E+08         0.39741E+06         0.00000E+00
    0.39741E+06        -0.43663E+08         0.00000E+00
    0.00000E+00         0.00000E+00        -0.19625E+08
 
   -0.19864E+08         0.39459E+06         0.00000E+00
    0.39459E+06        -0.43887E+08         0.00000E+00
    0.00000E+00         0.00000E+00        -0.19749E+08
 
   -0.19976E+08         0.39182E+06         0.00000E+00
    0.39182E+06        -0.44109E+08         0.00000E+00
    0.00000E+00         0.00000E+00        -0.19871E+08
 
   -0.20086E+08         0.38912E+06         0.00000E+00
    0.38912E+06        -0.44328E+08         0.00000E+00
    0.00000E+00         0.00000E+00        -0.19993E+08
 
   -0.20196E+08         0.38648E+06         0.00000E+00
    0.38648E+06        -0.44545E+08         0.00000E+00
    0.00000E+00         0.00000E+00        -0.20113E+08
 
   -0.20304E+08         0.38391E+06         0.00000E+00
    0.38391E+06        -0.44761E+08         0.00000E+00
    0.00000E+00         0.00000E+00        -0.20233E+08
 
   -0.20411E+08         0.38141E+06         0.00000E+00
    0.38141E+06        -0.44975E+08         0.00000E+00
    0.00000E+00         0.00000E+00        -0.20352E+08
 
   -0.20518E+08         0.37898E+06         0.00000E+00
    0.37898E+06        -0.45188E+08         0.00000E+00
    0.00000E+00         0.00000E+00        -0.20470E+08
 
   -0.20624E+08         0.37662E+06         0.00000E+00
    0.37662E+06        -0.45399E+08         0.00000E+00
    0.00000E+00         0.00000E+00        -0.20588E+08
 
   -0.20730E+08         0.37432E+06         0.00000E+00
    0.37432E+06        -0.45610E+08         0.00000E+00
    0.00000E+00         0.00000E+00        -0.20705E+08
 
   -0.20836E+08         0.37209E+06         0.00000E+00
    0.37209E+06        -0.45821E+08         0.00000E+00
    0.00000E+00         0.00000E+00        -0.20822E+08
 
   -0.20942E+08         0.36992E+06         0.00000E+00
    0.36992E+06        -0.46031E+08         0.00000E+00
    0.00000E+00         0.00000E+00        -0.20939E+08
 
   -0.21048E+08         0.36781E+06         0.00000E+00
    0.36781E+06        -0.46241E+08         0.00000E+00
    0.00000E+00         0.00000E+00        -0.21055E+08
 
   -0.21154E+08         0.36574E+06         0.00000E+00
    0.36574E+06        -0.46452E+08         0.00000E+00
    0.00000E+00         0.00000E+00        -0.21172E+08
 
   -0.21261E+08         0.36372E+06         0.00000E+00
    0.36372E+06        -0.46663E+08         0.00000E+00
    0.00000E+00         0.00000E+00        -0.21288E+08
 
   -0.21368E+08         0.36172E+06         0.00000E+00
    0.36172E+06        -0.46875E+08         0.00000E+00
    0.00000E+00         0.00000E+00        -0.21405E+08
 
   -0.21477E+08         0.35975E+06         0.00000E+00
    0.35975E+06        -0.47088E+08         0.00000E+00
    0.00000E+00         0.00000E+00        -0.21522E+08
 
   -0.21586E+08         0.35778E+06         0.00000E+00
    0.35778E+06        -0.47303E+08         0.00000E+00
    0.00000E+00         0.00000E+00        -0.21639E+08
 
   -0.21697E+08         0.35580E+06         0.00000E+00
    0.35580E+06        -0.47518E+08         0.00000E+00
    0.00000E+00         0.00000E+00        -0.21757E+08
 
   -0.21809E+08         0.35381E+06         0.00000E+00
    0.35381E+06        -0.47736E+08         0.00000E+00
    0.00000E+00         0.00000E+00        -0.21875E+08
 
   -0.21923E+08         0.35178E+06         0.00000E+00
    0.35178E+06        -0.47956E+08         0.00000E+00
    0.00000E+00         0.00000E+00        -0.21993E+08
 
   -0.22039E+08         0.34969E+06         0.00000E+00
    0.34969E+06        -0.48178E+08         0.00000E+00
    0.00000E+00         0.00000E+00        -0.22113E+08
 
   -0.22157E+08         0.34753E+06         0.00000E+00
    0.34753E+06        -0.48403E+08         0.00000E+00
    0.00000E+00         0.00000E+00        -0.22233E+08
 
   -0.22277E+08         0.34527E+06         0.00000E+00
    0.34527E+06        -0.48631E+08         0.00000E+00
    0.00000E+00         0.00000E+00        -0.22354E+08
 
   -0.22399E+08         0.34289E+06         0.00000E+00
    0.34289E+06        -0.48861E+08         0.00000E+00
    0.00000E+00         0.00000E+00        -0.22476E+08
 
   -0.22524E+08         0.34036E+06         0.00000E+00
    0.34036E+06        -0.49096E+08         0.00000E+00
    0.00000E+00         0.00000E+00        -0.22598E+08
 
   -0.22652E+08         0.33765E+06         0.00000E+00
    0.33765E+06        -0.49333E+08         0.00000E+00
    0.00000E+00         0.00000E+00        -0.22722E+08
 
   -0.22783E+08         0.33474E+06         0.00000E+00
    0.33474E+06        -0.49575E+08         0.00000E+00
    0.00000E+00         0.00000E+00        -0.22847E+08
 
   -0.22917E+08         0.33158E+06         0.00000E+00
    0.33158E+06        -0.49821E+08         0.00000E+00
    0.00000E+00         0.00000E+00        -0.22973E+08
 
   -0.23055E+08         0.32813E+06         0.00000E+00
    0.32813E+06        -0.50071E+08         0.00000E+00
    0.00000E+00         0.00000E+00        -0.23100E+08
 
   -0.23196E+08         0.32433E+06         0.00000E+00
    0.32433E+06        -0.50326E+08         0.00000E+00
    0.00000E+00         0.00000E+00        -0.23228E+08
 
   -0.23342E+08         0.32015E+06         0.00000E+00
    0.32015E+06        -0.50585E+08         0.00000E+00
    0.00000E+00         0.00000E+00        -0.23357E+08
 
   -0.23491E+08         0.31549E+06         0.00000E+00
    0.31549E+06        -0.50850E+08         0.00000E+00
    0.00000E+00         0.00000E+00        -0.23487E+08
 
   -0.23646E+08         0.31030E+06         0.00000E+00
    0.31030E+06        -0.51121E+08         0.00000E+00
    0.00000E+00         0.00000E+00        -0.23619E+08
 
   -0.23805E+08         0.30446E+06         0.00000E+00
    0.30446E+06        -0.51397E+08         0.00000E+00
    0.00000E+00         0.00000E+00        -0.23751E+08
 
   -0.23970E+08         0.29787E+06         0.00000E+00
    0.29787E+06        -0.51679E+08         0.00000E+00
    0.00000E+00         0.00000E+00        -0.23885E+08
 
   -0.24140E+08         0.29040E+06         0.00000E+00
    0.29040E+06        -0.51967E+08         0.00000E+00
    0.00000E+00         0.00000E+00        -0.24019E+08
 
   -0.24317E+08         0.28189E+06         0.00000E+00
    0.28189E+06        -0.52262E+08         0.00000E+00
    0.00000E+00         0.00000E+00        -0.24155E+08
 
   -0.24500E+08         0.27215E+06         0.00000E+00
    0.27215E+06        -0.52564E+08         0.00000E+00
    0.00000E+00         0.00000E+00        -0.24291E+08
 
   -0.24690E+08         0.26097E+06         0.00000E+00
    0.26097E+06        -0.52873E+08         0.00000E+00
    0.00000E+00         0.00000E+00        -0.24428E+08
 
   -0.24889E+08         0.24814E+06         0.00000E+00
    0.24814E+06        -0.53189E+08         0.00000E+00
    0.00000E+00         0.00000E+00        -0.24565E+08
 
   -0.25095E+08         0.23338E+06         0.00000E+00
    0.23338E+06        -0.53513E+08         0.00000E+00
    0.00000E+00         0.00000E+00        -0.24702E+08
 
   -0.25311E+08         0.21643E+06         0.00000E+00
    0.21643E+06        -0.53846E+08         0.00000E+00
    0.00000E+00         0.00000E+00        -0.24839E+08
 
   -0.25536E+08         0.19704E+06         0.00000E+00
    0.19704E+06        -0.54186E+08         0.00000E+00
    0.00000E+00         0.00000E+00        -0.24975E+08
 
   -0.25772E+08         0.17497E+06         0.00000E+00
    0.17497E+06        -0.54536E+08         0.00000E+00
    0.00000E+00         0.00000E+00        -0.25111E+08
 
   -0.26020E+08         0.15008E+06         0.00000E+00
    0.15008E+06        -0.54894E+08         0.00000E+00
    0.00000E+00         0.00000E+00        -0.25245E+08
 
   -0.26280E+08         0.12231E+06         0.00000E+00
    0.12231E+06        -0.55262E+08         0.00000E+00
    0.00000E+00         0.00000E+00        -0.25377E+08
 
   -0.26553E+08         0.91814E+05         0.00000E+00
    0.91814E+05        -0.55638E+08         0.00000E+00
    0.00000E+00         0.00000E+00        -0.25507E+08
 
   -0.26840E+08         0.59002E+05         0.00000E+00
    0.59002E+05        -0.56023E+08         0.00000E+00
    0.00000E+00         0.00000E+00        -0.25633E+08
 
   -0.27141E+08         0.24608E+05         0.00000E+00
    0.24608E+05        -0.56416E+08         0.00000E+00
    0.00000E+00         0.00000E+00        -0.25756E+08
 
   -0.27456E+08        -0.10226E+05         0.00000E+00
   -0.10226E+05        -0.56818E+08         0.00000E+00
    0.00000E+00         0.00000E+00        -0.25876E+08
 
   -0.27785E+08        -0.43879E+05         0.00000E+00
   -0.43879E+05        -0.57227E+08         0.00000E+00
    0.00000E+00         0.00000E+00        -0.25991E+08
 
   -0.28126E+08        -0.74150E+05         0.00000E+00
   -0.74150E+05        -0.57641E+08         0.00000E+00
    0.00000E+00         0.00000E+00        -0.26104E+08
 
   -0.28476E+08        -0.97851E+05         0.00000E+00
   -0.97851E+05        -0.58059E+08         0.00000E+00
    0.00000E+00         0.00000E+00        -0.26214E+08
 
   -0.28827E+08        -0.10756E+06         0.00000E+00
   -0.10756E+06        -0.58474E+08         0.00000E+00
    0.00000E+00         0.00000E+00        -0.26321E+08
 
   -0.29170E+08        -0.88769E+05         0.00000E+00
   -0.88769E+05        -0.58865E+08         0.00000E+00
    0.00000E+00         0.00000E+00        -0.26413E+08
 
   -0.29509E+08        -0.34831E+05         0.00000E+00
   -0.34831E+05        -0.59192E+08         0.00000E+00
    0.00000E+00         0.00000E+00        -0.26448E+08
 
   -0.95205E+07        -0.38323E+05         0.00000E+00
   -0.38323E+05        -0.27891E+08         0.00000E+00
    0.00000E+00         0.00000E+00        -0.15371E+08
 
   -0.10033E+08        -0.89213E+05         0.00000E+00
   -0.89213E+05        -0.28333E+08         0.00000E+00
    0.00000E+00         0.00000E+00        -0.15314E+08
 
   -0.10567E+08        -0.85499E+05         0.00000E+00
   -0.85499E+05        -0.28820E+08         0.00000E+00
    0.00000E+00         0.00000E+00        -0.15293E+08
 
   -0.11104E+08        -0.46693E+05         0.00000E+00
   -0.46693E+05        -0.29317E+08         0.00000E+00
    0.00000E+00         0.00000E+00        -0.15273E+08
 
   -0.11614E+08         0.10548E+03         0.00000E+00
    0.10548E+03        -0.29811E+08         0.00000E+00
    0.00000E+00         0.00000E+00        -0.15252E+08
 
   -0.12086E+08         0.44332E+05         0.00000E+00
    0.44332E+05        -0.30305E+08         0.00000E+00
    0.00000E+00         0.00000E+00        -0.15237E+08
 
   -0.12522E+08         0.82407E+05         0.00000E+00
    0.82407E+05        -0.30798E+08         0.00000E+00
    0.00000E+00         0.00000E+00        -0.15234E+08
 
   -0.12929E+08         0.11400E+06         0.00000E+00
    0.11400E+06        -0.31285E+08         0.00000E+00
    0.00000E+00         0.00000E+00        -0.15248E+08
 
   -0.13309E+08         0.14153E+06         0.00000E+00
    0.14153E+06        -0.31764E+08         0.00000E+00
    0.00000E+00         0.00000E+00        -0.15279E+08
 
   -0.13666E+08         0.16794E+06         0.00000E+00
    0.16794E+06        -0.32235E+08         0.00000E+00
    0.00000E+00         0.00000E+00        -0.15327E+08
 
   -0.14001E+08         0.19501E+06         0.00000E+00
    0.19501E+06        -0.32701E+08         0.00000E+00
    0.00000E+00         0.00000E+00        -0.15391E+08
 
   -0.14315E+08         0.22292E+06         0.00000E+00
    0.22292E+06        -0.33161E+08         0.00000E+00
    0.00000E+00         0.00000E+00        -0.15469E+08
 
   -0.14609E+08         0.25080E+06         0.00000E+00
    0.25080E+06        -0.33617E+08         0.00000E+00
    0.00000E+00         0.00000E+00        -0.15559E+08
 
   -0.14884E+08         0.27742E+06         0.00000E+00
    0.27742E+06        -0.34067E+08         0.00000E+00
    0.00000E+00         0.00000E+00        -0.15657E+08
 
   -0.15142E+08         0.30172E+06         0.00000E+00
    0.30172E+06        -0.34513E+08         0.00000E+00
    0.00000E+00         0.00000E+00        -0.15764E+08
 
   -0.15382E+08         0.32303E+06         0.00000E+00
    0.32303E+06        -0.34952E+08         0.00000E+00
    0.00000E+00         0.00000E+00        -0.15875E+08
 
   -0.15608E+08         0.34111E+06         0.00000E+00
    0.34111E+06        -0.35385E+08         0.00000E+00
    0.00000E+00         0.00000E+00        -0.15991E+08
 
   -0.15820E+08         0.35602E+06         0.00000E+00
    0.35602E+06        -0.35812E+08         0.00000E+00
    0.00000E+00         0.00000E+00        -0.16109E+08
 
   -0.16020E+08         0.36803E+06         0.00000E+00
    0.36803E+06        -0.36231E+08         0.00000E+00
    0.00000E+00         0.00000E+00        -0.16228E+08
 
   -0.16208E+08         0.37749E+06         0.00000E+00
    0.37749E+06        -0.36643E+08         0.00000E+00
    0.00000E+00         0.00000E+00        -0.16347E+08
 
   -0.16386E+08         0.38479E+06         0.00000E+00
    0.38479E+06        -0.37048E+08         0.00000E+00
    0.00000E+00         0.00000E+00        -0.16466E+08
 
   -0.16554E+08         0.39032E+06         0.00000E+00
    0.39032E+06        -0.37446E+08         0.00000E+00
    0.00000E+00         0.00000E+00        -0.16584E+08
 
   -0.16713E+08         0.39441E+06         0.00000E+00
    0.39441E+06        -0.37838E+08         0.00000E+00
    0.00000E+00         0.00000E+00        -0.16700E+08
 
   -0.16864E+08         0.39734E+06         0.00000E+00
    0.39734E+06        -0.38221E+08         0.00000E+00
    0.00000E+00         0.00000E+00        -0.16815E+08
 
   -0.17033E+08         0.39839E+06         0.00000E+00
    0.39839E+06        -0.38571E+08         0.00000E+00
    0.00000E+00         0.00000E+00        -0.16954E+08
 
   -0.17216E+08         0.39793E+06         0.00000E+00
    0.39793E+06        -0.38893E+08         0.00000E+00
    0.00000E+00         0.00000E+00        -0.17111E+08
 
   -0.17393E+08         0.39693E+06         0.00000E+00
    0.39693E+06        -0.39207E+08         0.00000E+00
    0.00000E+00         0.00000E+00        -0.17266E+08
 
   -0.17564E+08         0.39549E+06         0.00000E+00
    0.39549E+06        -0.39514E+08         0.00000E+00
    0.00000E+00         0.00000E+00        -0.17420E+08
 
   -0.17730E+08         0.39374E+06         0.00000E+00
    0.39374E+06        -0.39814E+08         0.00000E+00
    0.00000E+00         0.00000E+00        -0.17572E+08
 
   -0.17891E+08         0.39173E+06         0.00000E+00
    0.39173E+06        -0.40108E+08         0.00000E+00
    0.00000E+00         0.00000E+00        -0.17722E+08
 
   -0.18047E+08         0.38954E+06         0.00000E+00
    0.38954E+06        -0.40395E+08         0.00000E+00
    0.00000E+00         0.00000E+00        -0.17870E+08
 
   -0.18198E+08         0.38719E+06         0.00000E+00
    0.38719E+06        -0.40677E+08         0.00000E+00
    0.00000E+00         0.00000E+00        -0.18016E+08
 
   -0.18346E+08         0.38474E+06         0.00000E+00
    0.38474E+06        -0.40952E+08         0.00000E+00
    0.00000E+00         0.00000E+00        -0.18160E+08
 
   -0.18489E+08         0.38221E+06         0.00000E+00
    0.38221E+06        -0.41222E+08         0.00000E+00
    0.00000E+00         0.00000E+00        -0.18302E+08
 
   -0.18629E+08         0.37962E+06         0.00000E+00
    0.37962E+06        -0.41486E+08         0.00000E+00
    0.00000E+00         0.00000E+00        -0.18442E+08
 
   -0.18765E+08         0.37698E+06         0.00000E+00
    0.37698E+06        -0.41745E+08         0.00000E+00
    0.00000E+00         0.00000E+00        -0.18580E+08
 
   -0.18898E+08         0.37431E+06         0.00000E+00
    0.37431E+06        -0.41999E+08         0.00000E+00
    0.00000E+00         0.00000E+00        -0.18716E+08
 
   -0.19028E+08         0.37164E+06         0.00000E+00
    0.37164E+06        -0.42249E+08         0.00000E+00
    0.00000E+00         0.00000E+00        -0.18850E+08
 
   -0.19155E+08         0.36895E+06         0.00000E+00
    0.36895E+06        -0.42494E+08         0.00000E+00
    0.00000E+00         0.00000E+00        -0.18982E+08
 
   -0.19279E+08         0.36628E+06         0.00000E+00
    0.36628E+06        -0.42735E+08         0.00000E+00
    0.00000E+00         0.00000E+00        -0.19113E+08
 
   -0.19400E+08         0.36362E+06         0.00000E+00
    0.36362E+06        -0.42972E+08         0.00000E+00
    0.00000E+00         0.00000E+00        -0.19243E+08
 
   -0.19519E+08         0.36099E+06         0.00000E+00
    0.36099E+06        -0.43206E+08         0.00000E+00
    0.00000E+00         0.00000E+00        -0.19370E+08
 
   -0.19636E+08         0.35838E+06         0.00000E+00
    0.35838E+06        -0.43436E+08         0.00000E+00
    0.00000E+00         0.00000E+00        -0.19497E+08
 
   -0.19751E+08         0.35582E+06         0.00000E+00
    0.35582E+06        -0.43663E+08         0.00000E+00
    0.00000E+00         0.00000E+00        -0.19622E+08
 
   -0.19865E+08         0.35330E+06         0.00000E+00
    0.35330E+06        -0.43888E+08         0.00000E+00
    0.00000E+00         0.00000E+00        -0.19746E+08
 
   -0.19977E+08         0.35083E+06         0.00000E+00
    0.35083E+06        -0.44109E+08         0.00000E+00
    0.00000E+00         0.00000E+00        -0.19868E+08
 
   -0.20087E+08         0.34841E+06         0.00000E+00
    0.34841E+06        -0.44329E+08         0.00000E+00
    0.00000E+00         0.00000E+00        -0.19990E+08
 
   -0.20196E+08         0.34606E+06         0.00000E+00
    0.34606E+06        -0.44546E+08         0.00000E+00
    0.00000E+00         0.00000E+00        -0.20111E+08
 
   -0.20304E+08         0.34376E+06         0.00000E+00
    0.34376E+06        -0.44761E+08         0.00000E+00
    0.00000E+00         0.00000E+00        -0.20231E+08
 
   -0.20411E+08         0.34152E+06         0.00000E+00
    0.34152E+06        -0.44975E+08         0.00000E+00
    0.00000E+00         0.00000E+00        -0.20350E+08
 
   -0.20518E+08         0.33934E+06         0.00000E+00
    0.33934E+06        -0.45188E+08         0.00000E+00
    0.00000E+00         0.00000E+00        -0.20468E+08
 
   -0.20624E+08         0.33723E+06         0.00000E+00
    0.33723E+06        -0.45400E+08         0.00000E+00
    0.00000E+00         0.00000E+00        -0.20586E+08
 
   -0.20730E+08         0.33517E+06         0.00000E+00
    0.33517E+06        -0.45611E+08         0.00000E+00
    0.00000E+00         0.00000E+00        -0.20704E+08
 
   -0.20835E+08         0.33318E+06         0.00000E+00
    0.33318E+06        -0.45821E+08         0.00000E+00
    0.00000E+00         0.00000E+00        -0.20821E+08
 
   -0.20941E+08         0.33123E+06         0.00000E+00
    0.33123E+06        -0.46032E+08         0.00000E+00
    0.00000E+00         0.00000E+00        -0.20938E+08
 
   -0.21046E+08         0.32933E+06         0.00000E+00
    0.32933E+06        -0.46242E+08         0.00000E+00
    0.00000E+00         0.00000E+00        -0.21054E+08
 
   -0.21153E+08         0.32747E+06         0.00000E+00
    0.32747E+06        -0.46452E+08         0.00000E+00
    0.00000E+00         0.00000E+00        -0.21171E+08
 
   -0.21259E+08         0.32565E+06         0.00000E+00
    0.32565E+06        -0.46664E+08         0.00000E+00
    0.00000E+00         0.00000E+00        -0.21288E+08
 
   -0.21367E+08         0.32386E+06         0.00000E+00
    0.32386E+06        -0.46875E+08         0.00000E+00
    0.00000E+00         0.00000E+00        -0.21405E+08
 
   -0.21475E+08         0.32208E+06         0.00000E+00
    0.32208E+06        -0.47088E+08         0.00000E+00
    0.00000E+00         0.00000E+00        -0.21522E+08
 
   -0.21584E+08         0.32030E+06         0.00000E+00
    0.32030E+06        -0.47303E+08         0.00000E+00
    0.00000E+00         0.00000E+00        -0.21639E+08
 
   -0.21695E+08         0.31852E+06         0.00000E+00
    0.31852E+06        -0.47519E+08         0.00000E+00
    0.00000E+00         0.00000E+00        -0.21757E+08
 
   -0.21807E+08         0.31672E+06         0.00000E+00
    0.31672E+06        -0.47736E+08         0.00000E+00
    0.00000E+00         0.00000E+00        -0.21875E+08
 
   -0.21921E+08         0.31489E+06         0.00000E+00
    0.31489E+06        -0.47956E+08         0.00000E+00
    0.00000E+00         0.00000E+00        -0.21994E+08
 
   -0.22037E+08         0.31300E+06         0.00000E+00
    0.31300E+06        -0.48178E+08         0.00000E+00
    0.00000E+00         0.00000E+00        -0.22114E+08
 
   -0.22154E+08         0.31104E+06         0.00000E+00
    0.31104E+06        -0.48403E+08         0.00000E+00
    0.00000E+00         0.00000E+00        -0.22234E+08
 
   -0.22274E+08         0.30900E+06         0.00000E+00
    0.30900E+06        -0.48631E+08         0.00000E+00
    0.00000E+00         0.00000E+00        -0.22355E+08
 
   -0.22396E+08         0.30685E+06         0.00000E+00
    0.30685E+06        -0.48862E+08         0.00000E+00
    0.00000E+00         0.00000E+00        -0.22477E+08
 
   -0.22521E+08         0.30456E+06         0.00000E+00
    0.30456E+06        -0.49096E+08         0.00000E+00
    0.00000E+00         0.00000E+00        -0.22599E+08
 
   -0.22649E+08         0.30211E+06         0.00000E+00
    0.30211E+06        -0.49334E+08         0.00000E+00
    0.00000E+00         0.00000E+00        -0.22723E+08
 
   -0.22780E+08         0.29948E+06         0.00000E+00
    0.29948E+06        -0.49575E+08         0.00000E+00
    0.00000E+00         0.00000E+00        -0.22848E+08
 
   -0.22914E+08         0.29662E+06         0.00000E+00
    0.29662E+06        -0.49821E+08         0.00000E+00
    0.00000E+00         0.00000E+00        -0.22974E+08
 
   -0.23052E+08         0.29350E+06         0.00000E+00
    0.29350E+06        -0.50071E+08         0.00000E+00
    0.00000E+00         0.00000E+00        -0.23101E+08
 
   -0.23194E+08         0.29007E+06         0.00000E+00
    0.29007E+06        -0.50326E+08         0.00000E+00
    0.00000E+00         0.00000E+00        -0.23229E+08
 
   -0.23339E+08         0.28629E+06         0.00000E+00
    0.28629E+06        -0.50586E+08         0.00000E+00
    0.00000E+00         0.00000E+00        -0.23358E+08
 
   -0.23489E+08         0.28209E+06         0.00000E+00
    0.28209E+06        -0.50850E+08         0.00000E+00
    0.00000E+00         0.00000E+00        -0.23488E+08
 
   -0.23644E+08         0.27740E+06         0.00000E+00
    0.27740E+06        -0.51121E+08         0.00000E+00
    0.00000E+00         0.00000E+00        -0.23620E+08
 
   -0.23803E+08         0.27213E+06         0.00000E+00
    0.27213E+06        -0.51397E+08         0.00000E+00
    0.00000E+00         0.00000E+00        -0.23752E+08
 
   -0.23968E+08         0.26619E+06         0.00000E+00
    0.26619E+06        -0.51679E+08         0.00000E+00
    0.00000E+00         0.00000E+00        -0.23885E+08
 
   -0.24139E+08         0.25944E+06         0.00000E+00
    0.25944E+06        -0.51967E+08         0.00000E+00
    0.00000E+00         0.00000E+00        -0.24020E+08
 
   -0.24316E+08         0.25175E+06         0.00000E+00
    0.25175E+06        -0.52262E+08         0.00000E+00
    0.00000E+00         0.00000E+00        -0.24155E+08
 
   -0.24499E+08         0.24295E+06         0.00000E+00
    0.24295E+06        -0.52564E+08         0.00000E+00
    0.00000E+00         0.00000E+00        -0.24291E+08
 
   -0.24690E+08         0.23284E+06         0.00000E+00
    0.23284E+06        -0.52873E+08         0.00000E+00
    0.00000E+00         0.00000E+00        -0.24427E+08
 
   -0.24889E+08         0.22122E+06         0.00000E+00
    0.22122E+06        -0.53189E+08         0.00000E+00
    0.00000E+00         0.00000E+00        -0.24563E+08
 
   -0.25096E+08         0.20785E+06         0.00000E+00
    0.20785E+06        -0.53513E+08         0.00000E+00
    0.00000E+00         0.00000E+00        -0.24700E+08
 
   -0.25313E+08         0.19248E+06         0.00000E+00
    0.19248E+06        -0.53845E+08         0.00000E+00
    0.00000E+00         0.00000E+00        -0.24836E+08
 
   -0.25539E+08         0.17487E+06         0.00000E+00
    0.17487E+06        -0.54186E+08         0.00000E+00
    0.00000E+00         0.00000E+00        -0.24971E+08
 
   -0.25777E+08         0.15480E+06         0.00000E+00
    0.15480E+06        -0.54535E+08         0.00000E+00
    0.00000E+00         0.00000E+00        -0.25106E+08
 
   -0.26026E+08         0.13214E+06         0.00000E+00
    0.13214E+06        -0.54894E+08         0.00000E+00
    0.00000E+00         0.00000E+00        -0.25238E+08
 
   -0.26288E+08         0.10685E+06         0.00000E+00
    0.10685E+06        -0.55261E+08         0.00000E+00
    0.00000E+00         0.00000E+00        -0.25368E+08
 
   -0.26564E+08         0.79046E+05         0.00000E+00
    0.79046E+05        -0.55638E+08         0.00000E+00
    0.00000E+00         0.00000E+00        -0.25496E+08
 
   -0.26854E+08         0.49109E+05         0.00000E+00
    0.49109E+05        -0.56023E+08         0.00000E+00
    0.00000E+00         0.00000E+00        -0.25620E+08
 
   -0.27159E+08         0.17706E+05         0.00000E+00
    0.17706E+05        -0.56418E+08         0.00000E+00
    0.00000E+00         0.00000E+00        -0.25741E+08
 
   -0.27480E+08        -0.14141E+05         0.00000E+00
   -0.14141E+05        -0.56820E+08         0.00000E+00
    0.00000E+00         0.00000E+00        -0.25857E+08
 
   -0.27814E+08        -0.45013E+05         0.00000E+00
   -0.45013E+05        -0.57231E+08         0.00000E+00
    0.00000E+00         0.00000E+00        -0.25970E+08
 
   -0.28162E+08        -0.73009E+05         0.00000E+00
   -0.73009E+05        -0.57647E+08         0.00000E+00
    0.00000E+00         0.00000E+00        -0.26079E+08
 
   -0.28520E+08        -0.95660E+05         0.00000E+00
   -0.95660E+05        -0.58069E+08         0.00000E+00
    0.00000E+00         0.00000E+00        -0.26186E+08
 
   -0.28879E+08        -0.10689E+06         0.00000E+00
   -0.10689E+06        -0.58491E+08         0.00000E+00
    0.00000E+00         0.00000E+00        -0.26293E+08
 
   -0.29230E+08        -0.90955E+05         0.00000E+00
   -0.90955E+05        -0.58892E+08         0.00000E+00
    0.00000E+00         0.00000E+00        -0.26389E+08
 
   -0.29573E+08        -0.36470E+05         0.00000E+00
   -0.36470E+05        -0.59228E+08         0.00000E+00
    0.00000E+00         0.00000E+00        -0.26430E+08
 
   -0.94480E+07        -0.37903E+05         0.00000E+00
   -0.37903E+05        -0.27875E+08         0.00000E+00
    0.00000E+00         0.00000E+00        -0.15399E+08
 
   -0.99664E+07        -0.84544E+05         0.00000E+00
   -0.84544E+05        -0.28329E+08         0.00000E+00
    0.00000E+00         0.00000E+00        -0.15352E+08
 
   -0.10512E+08        -0.75927E+05         0.00000E+00
   -0.75927E+05        -0.28826E+08         0.00000E+00
    0.00000E+00         0.00000E+00        -0.15335E+08
 
   -0.11057E+08        -0.39563E+05         0.00000E+00
   -0.39563E+05        -0.29326E+08         0.00000E+00
    0.00000E+00         0.00000E+00        -0.15312E+08
 
   -0.11571E+08         0.23012E+03         0.00000E+00
    0.23012E+03        -0.29820E+08         0.00000E+00
    0.00000E+00         0.00000E+00        -0.15286E+08
 
   -0.12046E+08         0.37568E+05         0.00000E+00
    0.37568E+05        -0.30313E+08         0.00000E+00
    0.00000E+00         0.00000E+00        -0.15265E+08
 
   -0.12487E+08         0.69900E+05         0.00000E+00
    0.69900E+05        -0.30804E+08         0.00000E+00
    0.00000E+00         0.00000E+00        -0.15256E+08
 
   -0.12897E+08         0.96835E+05         0.00000E+00
    0.96835E+05        -0.31290E+08         0.00000E+00
    0.00000E+00         0.00000E+00        -0.15264E+08
 
   -0.13282E+08         0.12050E+06         0.00000E+00
    0.12050E+06        -0.31769E+08         0.00000E+00
    0.00000E+00         0.00000E+00        -0.15289E+08
 
   -0.13644E+08         0.14350E+06         0.00000E+00
    0.14350E+06        -0.32240E+08         0.00000E+00
    0.00000E+00         0.00000E+00        -0.15333E+08
 
   -0.13983E+08         0.16740E+06         0.00000E+00
    0.16740E+06        -0.32706E+08         0.00000E+00
    0.00000E+00         0.00000E+00        -0.15393E+08
 
   -0.14302E+08         0.19235E+06         0.00000E+00
    0.19235E+06        -0.33166E+08         0.00000E+00
    0.00000E+00         0.00000E+00        -0.15468E+08
 
   -0.14600E+08         0.21750E+06         0.00000E+00
    0.21750E+06        -0.33622E+08         0.00000E+00
    0.00000E+00         0.00000E+00        -0.15555E+08
 
   -0.14879E+08         0.24164E+06         0.00000E+00
    0.24164E+06        -0.34072E+08         0.00000E+00
    0.00000E+00         0.00000E+00        -0.15652E+08
 
   -0.15139E+08         0.26375E+06         0.00000E+00
    0.26375E+06        -0.34517E+08         0.00000E+00
    0.00000E+00         0.00000E+00        -0.15757E+08
 
   -0.15382E+08         0.28318E+06         0.00000E+00
    0.28318E+06        -0.34956E+08         0.00000E+00
    0.00000E+00         0.00000E+00        -0.15867E+08
 
   -0.15610E+08         0.29966E+06         0.00000E+00
    0.29966E+06        -0.35388E+08         0.00000E+00
    0.00000E+00         0.00000E+00        -0.15982E+08
 
   -0.15823E+08         0.31323E+06         0.00000E+00
    0.31323E+06        -0.35814E+08         0.00000E+00
    0.00000E+00         0.00000E+00        -0.16099E+08
 
   -0.16023E+08         0.32414E+06         0.00000E+00
    0.32414E+06        -0.36233E+08         0.00000E+00
    0.00000E+00         0.00000E+00        -0.16218E+08
 
   -0.16212E+08         0.33272E+06         0.00000E+00
    0.33272E+06        -0.36645E+08         0.00000E+00
    0.00000E+00         0.00000E+00        -0.16337E+08
 
   -0.16390E+08         0.33933E+06         0.00000E+00
    0.33933E+06        -0.37049E+08         0.00000E+00
    0.00000E+00         0.00000E+00        -0.16456E+08
 
   -0.16558E+08         0.34431E+06         0.00000E+00
    0.34431E+06        -0.37447E+08         0.00000E+00
    0.00000E+00         0.00000E+00        -0.16574E+08
 
   -0.16717E+08         0.34799E+06         0.00000E+00
    0.34799E+06        -0.37838E+08         0.00000E+00
    0.00000E+00         0.00000E+00        -0.16691E+08
 
   -0.16869E+08         0.35061E+06         0.00000E+00
    0.35061E+06        -0.38222E+08         0.00000E+00
    0.00000E+00         0.00000E+00        -0.16806E+08
 
   -0.17038E+08         0.35156E+06         0.00000E+00
    0.35156E+06        -0.38571E+08         0.00000E+00
    0.00000E+00         0.00000E+00        -0.16945E+08
 
   -0.17221E+08         0.35118E+06         0.00000E+00
    0.35118E+06        -0.38893E+08         0.00000E+00
    0.00000E+00         0.00000E+00        -0.17103E+08
 
   -0.17397E+08         0.35030E+06         0.00000E+00
    0.35030E+06        -0.39207E+08         0.00000E+00
    0.00000E+00         0.00000E+00        -0.17259E+08
 
   -0.17568E+08         0.34905E+06         0.00000E+00
    0.34905E+06        -0.39514E+08         0.00000E+00
    0.00000E+00         0.00000E+00        -0.17413E+08
 
   -0.17734E+08         0.34750E+06         0.00000E+00
    0.34750E+06        -0.39814E+08         0.00000E+00
    0.00000E+00         0.00000E+00        -0.17565E+08
 
   -0.17895E+08         0.34574E+06         0.00000E+00
    0.34574E+06        -0.40108E+08         0.00000E+00
    0.00000E+00         0.00000E+00        -0.17715E+08
 
   -0.18051E+08         0.34381E+06         0.00000E+00
    0.34381E+06        -0.40396E+08         0.00000E+00
    0.00000E+00         0.00000E+00        -0.17864E+08
 
   -0.18202E+08         0.34175E+06         0.00000E+00
    0.34175E+06        -0.40677E+08         0.00000E+00
    0.00000E+00         0.00000E+00        -0.18010E+08
 
   -0.18349E+08         0.33960E+06         0.00000E+00
    0.33960E+06        -0.40952E+08         0.00000E+00
    0.00000E+00         0.00000E+00        -0.18154E+08
 
   -0.18493E+08         0.33738E+06         0.00000E+00
    0.33738E+06        -0.41222E+08         0.00000E+00
    0.00000E+00         0.00000E+00        -0.18296E+08
 
   -0.18632E+08         0.33510E+06         0.00000E+00
    0.33510E+06        -0.41486E+08         0.00000E+00
    0.00000E+00         0.00000E+00        -0.18436E+08
 
   -0.18768E+08         0.33278E+06         0.00000E+00
    0.33278E+06        -0.41746E+08         0.00000E+00
    0.00000E+00         0.00000E+00        -0.18574E+08
 
   -0.18901E+08         0.33044E+06         0.00000E+00
    0.33044E+06        -0.42000E+08         0.00000E+00
    0.00000E+00         0.00000E+00        -0.18711E+08
 
   -0.19030E+08         0.32809E+06         0.00000E+00
    0.32809E+06        -0.42250E+08         0.00000E+00
    0.00000E+00         0.00000E+00        -0.18845E+08
 
   -0.19157E+08         0.32573E+06         0.00000E+00
    0.32573E+06        -0.42495E+08         0.00000E+00
    0.00000E+00         0.00000E+00        -0.18978E+08
 
   -0.19281E+08         0.32338E+06         0.00000E+00
    0.32338E+06        -0.42736E+08         0.00000E+00
    0.00000E+00         0.00000E+00        -0.19109E+08
 
   -0.19402E+08         0.32105E+06         0.00000E+00
    0.32105E+06        -0.42973E+08         0.00000E+00
    0.00000E+00         0.00000E+00        -0.19239E+08
 
   -0.19521E+08         0.31873E+06         0.00000E+00
    0.31873E+06        -0.43207E+08         0.00000E+00
    0.00000E+00         0.00000E+00        -0.19367E+08
 
   -0.19638E+08         0.31644E+06         0.00000E+00
    0.31644E+06        -0.43437E+08         0.00000E+00
    0.00000E+00         0.00000E+00        -0.19493E+08
 
   -0.19753E+08         0.31418E+06         0.00000E+00
    0.31418E+06        -0.43664E+08         0.00000E+00
    0.00000E+00         0.00000E+00        -0.19619E+08
 
   -0.19866E+08         0.31197E+06         0.00000E+00
    0.31197E+06        -0.43888E+08         0.00000E+00
    0.00000E+00         0.00000E+00        -0.19743E+08
 
   -0.19978E+08         0.30979E+06         0.00000E+00
    0.30979E+06        -0.44110E+08         0.00000E+00
    0.00000E+00         0.00000E+00        -0.19866E+08
 
   -0.20088E+08         0.30766E+06         0.00000E+00
    0.30766E+06        -0.44329E+08         0.00000E+00
    0.00000E+00         0.00000E+00        -0.19988E+08
 
   -0.20197E+08         0.30558E+06         0.00000E+00
    0.30558E+06        -0.44546E+08         0.00000E+00
    0.00000E+00         0.00000E+00        -0.20108E+08
 
   -0.20305E+08         0.30356E+06         0.00000E+00
    0.30356E+06        -0.44762E+08         0.00000E+00
    0.00000E+00         0.00000E+00        -0.20229E+08
 
   -0.20412E+08         0.30158E+06         0.00000E+00
    0.30158E+06        -0.44976E+08         0.00000E+00
    0.00000E+00         0.00000E+00        -0.20348E+08
 
   -0.20518E+08         0.29966E+06         0.00000E+00
    0.29966E+06        -0.45189E+08         0.00000E+00
    0.00000E+00         0.00000E+00        -0.20467E+08
 
   -0.20624E+08         0.29779E+06         0.00000E+00
    0.29779E+06        -0.45400E+08         0.00000E+00
    0.00000E+00         0.00000E+00        -0.20585E+08
 
   -0.20729E+08         0.29597E+06         0.00000E+00
    0.29597E+06        -0.45611E+08         0.00000E+00
    0.00000E+00         0.00000E+00        -0.20702E+08
 
   -0.20835E+08         0.29421E+06         0.00000E+00
    0.29421E+06        -0.45822E+08         0.00000E+00
    0.00000E+00         0.00000E+00        -0.20820E+08
 
   -0.20940E+08         0.29248E+06         0.00000E+00
    0.29248E+06        -0.46032E+08         0.00000E+00
    0.00000E+00         0.00000E+00        -0.20937E+08
 
   -0.21046E+08         0.29080E+06         0.00000E+00
    0.29080E+06        -0.46242E+08         0.00000E+00
    0.00000E+00         0.00000E+00        -0.21054E+08
 
   -0.21151E+08         0.28916E+06         0.00000E+00
    0.28916E+06        -0.46453E+08         0.00000E+00
    0.00000E+00         0.00000E+00        -0.21171E+08
 
   -0.21258E+08         0.28754E+06         0.00000E+00
    0.28754E+06        -0.46664E+08         0.00000E+00
    0.00000E+00         0.00000E+00        -0.21288E+08
 
   -0.21365E+08         0.28595E+06         0.00000E+00
    0.28595E+06        -0.46876E+08         0.00000E+00
    0.00000E+00         0.00000E+00        -0.21405E+08
 
   -0.21473E+08         0.28437E+06         0.00000E+00
    0.28437E+06        -0.47089E+08         0.00000E+00
    0.00000E+00         0.00000E+00        -0.21522E+08
 
   -0.21583E+08         0.28279E+06         0.00000E+00
    0.28279E+06        -0.47303E+08         0.00000E+00
    0.00000E+00         0.00000E+00        -0.21639E+08
 
   -0.21693E+08         0.28121E+06         0.00000E+00
    0.28121E+06        -0.47519E+08         0.00000E+00
    0.00000E+00         0.00000E+00        -0.21757E+08
 
   -0.21805E+08         0.27960E+06         0.00000E+00
    0.27960E+06        -0.47737E+08         0.00000E+00
    0.00000E+00         0.00000E+00        -0.21876E+08
 
   -0.21919E+08         0.27797E+06         0.00000E+00
    0.27797E+06        -0.47956E+08         0.00000E+00
    0.00000E+00         0.00000E+00        -0.21995E+08
 
   -0.22034E+08         0.27629E+06         0.00000E+00
    0.27629E+06        -0.48179E+08         0.00000E+00
    0.00000E+00         0.00000E+00        -0.22114E+08
 
   -0.22152E+08         0.27454E+06         0.00000E+00
    0.27454E+06        -0.48403E+08         0.00000E+00
    0.00000E+00         0.00000E+00        -0.22235E+08
 
   -0.22272E+08         0.27272E+06         0.00000E+00
    0.27272E+06        -0.48631E+08         0.00000E+00
    0.00000E+00         0.00000E+00        -0.22356E+08
 
   -0.22394E+08         0.27080E+06         0.00000E+00
    0.27080E+06        -0.48862E+08         0.00000E+00
    0.00000E+00         0.00000E+00        -0.22478E+08
 
   -0.22519E+08         0.26876E+06         0.00000E+00
    0.26876E+06        -0.49096E+08         0.00000E+00
    0.00000E+00         0.00000E+00        -0.22601E+08
 
   -0.22647E+08         0.26657E+06         0.00000E+00
    0.26657E+06        -0.49334E+08         0.00000E+00
    0.00000E+00         0.00000E+00        -0.22724E+08
 
   -0.22777E+08         0.26422E+06         0.00000E+00
    0.26422E+06        -0.49575E+08         0.00000E+00
    0.00000E+00         0.00000E+00        -0.22849E+08
 
   -0.22912E+08         0.26167E+06         0.00000E+00
    0.26167E+06        -0.49821E+08         0.00000E+00
    0.00000E+00         0.00000E+00        -0.22975E+08
 
   -0.23049E+08         0.25889E+06         0.00000E+00
    0.25889E+06        -0.50071E+08         0.00000E+00
    0.00000E+00         0.00000E+00        -0.23102E+08
 
   -0.23191E+08         0.25584E+06         0.00000E+00
    0.25584E+06        -0.50326E+08         0.00000E+00
    0.00000E+00         0.00000E+00        -0.23230E+08
 
   -0.23337E+08         0.25247E+06         0.00000E+00
    0.25247E+06        -0.50586E+08         0.00000E+00
    0.00000E+00         0.00000E+00        -0.23359E+08
 
   -0.23487E+08         0.24873E+06         0.00000E+00
    0.24873E+06        -0.50851E+08         0.00000E+00
    0.00000E+00         0.00000E+00        -0.23489E+08
 
   -0.23642E+08         0.24455E+06         0.00000E+00
    0.24455E+06        -0.51121E+08         0.00000E+00
    0.00000E+00         0.00000E+00        -0.23621E+08
 
   -0.23801E+08         0.23987E+06         0.00000E+00
    0.23987E+06        -0.51397E+08         0.00000E+00
    0.00000E+00         0.00000E+00        -0.23753E+08
 
   -0.23967E+08         0.23457E+06         0.00000E+00
    0.23457E+06        -0.51679E+08         0.00000E+00
    0.00000E+00         0.00000E+00        -0.23886E+08
 
   -0.24138E+08         0.22856E+06         0.00000E+00
    0.22856E+06        -0.51967E+08         0.00000E+00
    0.00000E+00         0.00000E+00        -0.24020E+08
 
   -0.24315E+08         0.22171E+06         0.00000E+00
    0.22171E+06        -0.52262E+08         0.00000E+00
    0.00000E+00         0.00000E+00        -0.24155E+08
 
   -0.24499E+08         0.21387E+06         0.00000E+00
    0.21387E+06        -0.52564E+08         0.00000E+00
    0.00000E+00         0.00000E+00        -0.24291E+08
 
   -0.24690E+08         0.20486E+06         0.00000E+00
    0.20486E+06        -0.52873E+08         0.00000E+00
    0.00000E+00         0.00000E+00        -0.24427E+08
 
   -0.24889E+08         0.19448E+06         0.00000E+00
    0.19448E+06        -0.53189E+08         0.00000E+00
    0.00000E+00         0.00000E+00        -0.24562E+08
 
   -0.25097E+08         0.18254E+06         0.00000E+00
    0.18254E+06        -0.53513E+08         0.00000E+00
    0.00000E+00         0.00000E+00        -0.24698E+08
 
   -0.25315E+08         0.16879E+06         0.00000E+00
    0.16879E+06        -0.53845E+08         0.00000E+00
    0.00000E+00         0.00000E+00        -0.24834E+08
 
   -0.25542E+08         0.15302E+06         0.00000E+00
    0.15302E+06        -0.54186E+08         0.00000E+00
    0.00000E+00         0.00000E+00        -0.24968E+08
 
   -0.25781E+08         0.13503E+06         0.00000E+00
    0.13503E+06        -0.54536E+08         0.00000E+00
    0.00000E+00         0.00000E+00        -0.25101E+08
 
   -0.26032E+08         0.11470E+06         0.00000E+00
    0.11470E+06        -0.54894E+08         0.00000E+00
    0.00000E+00         0.00000E+00        -0.25232E+08
 
   -0.26297E+08         0.91974E+05         0.00000E+00
    0.91974E+05        -0.55262E+08         0.00000E+00
    0.00000E+00         0.00000E+00        -0.25360E+08
 
   -0.26575E+08         0.66980E+05         0.00000E+00
    0.66980E+05        -0.55638E+08         0.00000E+00
    0.00000E+00         0.00000E+00        -0.25486E+08
 
   -0.26869E+08         0.40047E+05         0.00000E+00
    0.40047E+05        -0.56024E+08         0.00000E+00
    0.00000E+00         0.00000E+00        -0.25608E+08
 
   -0.27178E+08         0.11775E+05         0.00000E+00
    0.11775E+05        -0.56420E+08         0.00000E+00
    0.00000E+00         0.00000E+00        -0.25725E+08
 
   -0.27503E+08        -0.16928E+05         0.00000E+00
   -0.16928E+05        -0.56823E+08         0.00000E+00
    0.00000E+00         0.00000E+00        -0.25839E+08
 
   -0.27843E+08        -0.44846E+05         0.00000E+00
   -0.44846E+05        -0.57235E+08         0.00000E+00
    0.00000E+00         0.00000E+00        -0.25948E+08
 
   -0.28198E+08        -0.70347E+05         0.00000E+00
   -0.70347E+05        -0.57654E+08         0.00000E+00
    0.00000E+00         0.00000E+00        -0.26054E+08
 
   -0.28563E+08        -0.91552E+05         0.00000E+00
   -0.91552E+05        -0.58079E+08         0.00000E+00
    0.00000E+00         0.00000E+00        -0.26158E+08
 
   -0.28933E+08        -0.10416E+06         0.00000E+00
   -0.10416E+06        -0.58506E+08         0.00000E+00
    0.00000E+00         0.00000E+00        -0.26263E+08
 
   -0.29293E+08        -0.92081E+05         0.00000E+00
   -0.92081E+05        -0.58918E+08         0.00000E+00
    0.00000E+00         0.00000E+00        -0.26362E+08
 
   -0.29640E+08        -0.38010E+05         0.00000E+00
   -0.38010E+05        -0.59265E+08         0.00000E+00
    0.00000E+00         0.00000E+00        -0.26411E+08
 
   -0.93799E+07        -0.37232E+05         0.00000E+00
   -0.37232E+05        -0.27859E+08         0.00000E+00
    0.00000E+00         0.00000E+00        -0.15428E+08
 
   -0.99052E+07        -0.78010E+05         0.00000E+00
   -0.78010E+05        -0.28326E+08         0.00000E+00
    0.00000E+00         0.00000E+00        -0.15392E+08
 
   -0.10462E+08        -0.64076E+05         0.00000E+00
   -0.64076E+05        -0.28833E+08         0.00000E+00
    0.00000E+00         0.00000E+00        -0.15377E+08
 
   -0.11012E+08        -0.31480E+05         0.00000E+00
   -0.31480E+05        -0.29334E+08         0.00000E+00
    0.00000E+00         0.00000E+00        -0.15351E+08
 
   -0.11528E+08         0.82851E+03         0.00000E+00
    0.82851E+03        -0.29827E+08         0.00000E+00
    0.00000E+00         0.00000E+00        -0.15318E+08
 
   -0.12006E+08         0.31426E+05         0.00000E+00
    0.31426E+05        -0.30320E+08         0.00000E+00
    0.00000E+00         0.00000E+00        -0.15291E+08
 
   -0.12449E+08         0.58141E+05         0.00000E+00
    0.58141E+05        -0.30810E+08         0.00000E+00
    0.00000E+00         0.00000E+00        -0.15276E+08
 
   -0.12864E+08         0.80521E+05         0.00000E+00
    0.80521E+05        -0.31295E+08         0.00000E+00
    0.00000E+00         0.00000E+00        -0.15278E+08
 
   -0.13253E+08         0.10040E+06         0.00000E+00
    0.10040E+06        -0.31773E+08         0.00000E+00
    0.00000E+00         0.00000E+00        -0.15298E+08
 
   -0.13619E+08         0.12002E+06         0.00000E+00
    0.12002E+06        -0.32245E+08         0.00000E+00
    0.00000E+00         0.00000E+00        -0.15338E+08
 
   -0.13964E+08         0.14075E+06         0.00000E+00
    0.14075E+06        -0.32711E+08         0.00000E+00
    0.00000E+00         0.00000E+00        -0.15394E+08
 
   -0.14288E+08         0.16269E+06         0.00000E+00
    0.16269E+06        -0.33171E+08         0.00000E+00
    0.00000E+00         0.00000E+00        -0.15466E+08
 
   -0.14590E+08         0.18500E+06         0.00000E+00
    0.18500E+06        -0.33627E+08         0.00000E+00
    0.00000E+00         0.00000E+00        -0.15551E+08
 
   -0.14873E+08         0.20655E+06         0.00000E+00
    0.20655E+06        -0.34077E+08         0.00000E+00
    0.00000E+00         0.00000E+00        -0.15646E+08
 
   -0.15136E+08         0.22634E+06         0.00000E+00
    0.22634E+06        -0.34521E+08         0.00000E+00
    0.00000E+00         0.00000E+00        -0.15749E+08
 
   -0.15382E+08         0.24375E+06         0.00000E+00
    0.24375E+06        -0.34959E+08         0.00000E+00
    0.00000E+00         0.00000E+00        -0.15859E+08
 
   -0.15611E+08         0.25851E+06         0.00000E+00
    0.25851E+06        -0.35391E+08         0.00000E+00
    0.00000E+00         0.00000E+00        -0.15973E+08
 
   -0.15826E+08         0.27065E+06         0.00000E+00
    0.27065E+06        -0.35816E+08         0.00000E+00
    0.00000E+00         0.00000E+00        -0.16090E+08
 
   -0.16027E+08         0.28040E+06         0.00000E+00
    0.28040E+06        -0.36235E+08         0.00000E+00
    0.00000E+00         0.00000E+00        -0.16208E+08
 
   -0.16217E+08         0.28804E+06         0.00000E+00
    0.28804E+06        -0.36646E+08         0.00000E+00
    0.00000E+00         0.00000E+00        -0.16328E+08
 
   -0.16395E+08         0.29391E+06         0.00000E+00
    0.29391E+06        -0.37050E+08         0.00000E+00
    0.00000E+00         0.00000E+00        -0.16447E+08
 
   -0.16563E+08         0.29833E+06         0.00000E+00
    0.29833E+06        -0.37448E+08         0.00000E+00
    0.00000E+00         0.00000E+00        -0.16565E+08
 
   -0.16722E+08         0.30158E+06         0.00000E+00
    0.30158E+06        -0.37839E+08         0.00000E+00
    0.00000E+00         0.00000E+00        -0.16682E+08
 
   -0.16874E+08         0.30388E+06         0.00000E+00
    0.30388E+06        -0.38222E+08         0.00000E+00
    0.00000E+00         0.00000E+00        -0.16798E+08
 
   -0.17043E+08         0.30473E+06         0.00000E+00
    0.30473E+06        -0.38571E+08         0.00000E+00
    0.00000E+00         0.00000E+00        -0.16937E+08
 
   -0.17226E+08         0.30442E+06         0.00000E+00
    0.30442E+06        -0.38893E+08         0.00000E+00
    0.00000E+00         0.00000E+00        -0.17095E+08
 
   -0.17402E+08         0.30367E+06         0.00000E+00
    0.30367E+06        -0.39207E+08         0.00000E+00
    0.00000E+00         0.00000E+00        -0.17251E+08
 
   -0.17573E+08         0.30259E+06         0.00000E+00
    0.30259E+06        -0.39514E+08         0.00000E+00
    0.00000E+00         0.00000E+00        -0.17405E+08
 
   -0.17739E+08         0.30126E+06         0.00000E+00
    0.30126E+06        -0.39814E+08         0.00000E+00
    0.00000E+00         0.00000E+00        -0.17558E+08
 
   -0.17899E+08         0.29974E+06         0.00000E+00
    0.29974E+06        -0.40108E+08         0.00000E+00
    0.00000E+00         0.00000E+00        -0.17709E+08
 
   -0.18055E+08         0.29807E+06         0.00000E+00
    0.29807E+06        -0.40396E+08         0.00000E+00
    0.00000E+00         0.00000E+00        -0.17857E+08
 
   -0.18206E+08         0.29630E+06         0.00000E+00
    0.29630E+06        -0.40677E+08         0.00000E+00
    0.00000E+00         0.00000E+00        -0.18004E+08
 
   -0.18353E+08         0.29444E+06         0.00000E+00
    0.29444E+06        -0.40953E+08         0.00000E+00
    0.00000E+00         0.00000E+00        -0.18148E+08
 
   -0.18496E+08         0.29252E+06         0.00000E+00
    0.29252E+06        -0.41223E+08         0.00000E+00
    0.00000E+00         0.00000E+00        -0.18290E+08
 
   -0.18636E+08         0.29056E+06         0.00000E+00
    0.29056E+06        -0.41487E+08         0.00000E+00
    0.00000E+00         0.00000E+00        -0.18431E+08
 
   -0.18772E+08         0.28856E+06         0.00000E+00
    0.28856E+06        -0.41746E+08         0.00000E+00
    0.00000E+00         0.00000E+00        -0.18569E+08
 
   -0.18904E+08         0.28654E+06         0.00000E+00
    0.28654E+06        -0.42001E+08         0.00000E+00
    0.00000E+00         0.00000E+00        -0.18706E+08
 
   -0.19033E+08         0.28451E+06         0.00000E+00
    0.28451E+06        -0.42250E+08         0.00000E+00
    0.00000E+00         0.00000E+00        -0.18841E+08
 
   -0.19160E+08         0.28248E+06         0.00000E+00
    0.28248E+06        -0.42496E+08         0.00000E+00
    0.00000E+00         0.00000E+00        -0.18974E+08
 
   -0.19284E+08         0.28045E+06         0.00000E+00
    0.28045E+06        -0.42737E+08         0.00000E+00
    0.00000E+00         0.00000E+00        -0.19105E+08
 
   -0.19405E+08         0.27843E+06         0.00000E+00
    0.27843E+06        -0.42974E+08         0.00000E+00
    0.00000E+00         0.00000E+00        -0.19235E+08
 
   -0.19523E+08         0.27643E+06         0.00000E+00
    0.27643E+06        -0.43207E+08         0.00000E+00
    0.00000E+00         0.00000E+00        -0.19363E+08
 
   -0.19640E+08         0.27445E+06         0.00000E+00
    0.27445E+06        -0.43438E+08         0.00000E+00
    0.00000E+00         0.00000E+00        -0.19490E+08
 
   -0.19755E+08         0.27250E+06         0.00000E+00
    0.27250E+06        -0.43665E+08         0.00000E+00
    0.00000E+00         0.00000E+00        -0.19616E+08
 
   -0.19868E+08         0.27058E+06         0.00000E+00
    0.27058E+06        -0.43889E+08         0.00000E+00
    0.00000E+00         0.00000E+00        -0.19740E+08
 
   -0.19979E+08         0.26870E+06         0.00000E+00
    0.26870E+06        -0.44111E+08         0.00000E+00
    0.00000E+00         0.00000E+00        -0.19863E+08
 
   -0.20089E+08         0.26686E+06         0.00000E+00
    0.26686E+06        -0.44330E+08         0.00000E+00
    0.00000E+00         0.00000E+00        -0.19985E+08
 
   -0.20198E+08         0.26506E+06         0.00000E+00
    0.26506E+06        -0.44547E+08         0.00000E+00
    0.00000E+00         0.00000E+00        -0.20106E+08
 
   -0.20305E+08         0.26330E+06         0.00000E+00
    0.26330E+06        -0.44763E+08         0.00000E+00
    0.00000E+00         0.00000E+00        -0.20227E+08
 
   -0.20412E+08         0.26159E+06         0.00000E+00
    0.26159E+06        -0.44977E+08         0.00000E+00
    0.00000E+00         0.00000E+00        -0.20346E+08
 
   -0.20518E+08         0.25992E+06         0.00000E+00
    0.25992E+06        -0.45189E+08         0.00000E+00
    0.00000E+00         0.00000E+00        -0.20465E+08
 
   -0.20624E+08         0.25830E+06         0.00000E+00
    0.25830E+06        -0.45401E+08         0.00000E+00
    0.00000E+00         0.00000E+00        -0.20583E+08
 
   -0.20729E+08         0.25672E+06         0.00000E+00
    0.25672E+06        -0.45612E+08         0.00000E+00
    0.00000E+00         0.00000E+00        -0.20701E+08
 
   -0.20834E+08         0.25519E+06         0.00000E+00
    0.25519E+06        -0.45822E+08         0.00000E+00
    0.00000E+00         0.00000E+00        -0.20819E+08
 
   -0.20939E+08         0.25369E+06         0.00000E+00
    0.25369E+06        -0.46032E+08         0.00000E+00
    0.00000E+00         0.00000E+00        -0.20936E+08
 
   -0.21045E+08         0.25223E+06         0.00000E+00
    0.25223E+06        -0.46243E+08         0.00000E+00
    0.00000E+00         0.00000E+00        -0.21053E+08
 
   -0.21150E+08         0.25079E+06         0.00000E+00
    0.25079E+06        -0.46453E+08         0.00000E+00
    0.00000E+00         0.00000E+00        -0.21170E+08
 
   -0.21257E+08         0.24938E+06         0.00000E+00
    0.24938E+06        -0.46664E+08         0.00000E+00
    0.00000E+00         0.00000E+00        -0.21287E+08
 
   -0.21364E+08         0.24799E+06         0.00000E+00
    0.24799E+06        -0.46876E+08         0.00000E+00
    0.00000E+00         0.00000E+00        -0.21405E+08
 
   -0.21472E+08         0.24661E+06         0.00000E+00
    0.24661E+06        -0.47089E+08         0.00000E+00
    0.00000E+00         0.00000E+00        -0.21522E+08
 
   -0.21581E+08         0.24524E+06         0.00000E+00
    0.24524E+06        -0.47303E+08         0.00000E+00
    0.00000E+00         0.00000E+00        -0.21640E+08
 
   -0.21691E+08         0.24385E+06         0.00000E+00
    0.24385E+06        -0.47519E+08         0.00000E+00
    0.00000E+00         0.00000E+00        -0.21758E+08
 
   -0.21803E+08         0.24245E+06         0.00000E+00
    0.24245E+06        -0.47737E+08         0.00000E+00
    0.00000E+00         0.00000E+00        -0.21876E+08
 
   -0.21917E+08         0.24102E+06         0.00000E+00
    0.24102E+06        -0.47956E+08         0.00000E+00
    0.00000E+00         0.00000E+00        -0.21995E+08
 
   -0.22032E+08         0.23955E+06         0.00000E+00
    0.23955E+06        -0.48179E+08         0.00000E+00
    0.00000E+00         0.00000E+00        -0.22115E+08
 
   -0.22149E+08         0.23802E+06         0.00000E+00
    0.23802E+06        -0.48403E+08         0.00000E+00
    0.00000E+00         0.00000E+00        -0.22236E+08
 
   -0.22269E+08         0.23642E+06         0.00000E+00
    0.23642E+06        -0.48631E+08         0.00000E+00
    0.00000E+00         0.00000E+00        -0.22357E+08
 
   -0.22391E+08         0.23474E+06         0.00000E+00
    0.23474E+06        -0.48862E+08         0.00000E+00
    0.00000E+00         0.00000E+00        -0.22479E+08
 
   -0.22516E+08         0.23295E+06         0.00000E+00
    0.23295E+06        -0.49096E+08         0.00000E+00
    0.00000E+00         0.00000E+00        -0.22602E+08
 
   -0.22644E+08         0.23104E+06         0.00000E+00
    0.23104E+06        -0.49334E+08         0.00000E+00
    0.00000E+00         0.00000E+00        -0.22726E+08
 
   -0.22775E+08         0.22898E+06         0.00000E+00
    0.22898E+06        -0.49575E+08         0.00000E+00
    0.00000E+00         0.00000E+00        -0.22851E+08
 
   -0.22909E+08         0.22674E+06         0.00000E+00
    0.22674E+06        -0.49821E+08         0.00000E+00
    0.00000E+00         0.00000E+00        -0.22976E+08
 
   -0.23047E+08         0.22431E+06         0.00000E+00
    0.22431E+06        -0.50071E+08         0.00000E+00
    0.00000E+00         0.00000E+00        -0.23103E+08
 
   -0.23189E+08         0.22164E+06         0.00000E+00
    0.22164E+06        -0.50326E+08         0.00000E+00
    0.00000E+00         0.00000E+00        -0.23231E+08
 
   -0.23334E+08         0.21869E+06         0.00000E+00
    0.21869E+06        -0.50586E+08         0.00000E+00
    0.00000E+00         0.00000E+00        -0.23361E+08
 
   -0.23484E+08         0.21541E+06         0.00000E+00
    0.21541E+06        -0.50851E+08         0.00000E+00
    0.00000E+00         0.00000E+00        -0.23491E+08
 
   -0.23639E+08         0.21176E+06         0.00000E+00
    0.21176E+06        -0.51121E+08         0.00000E+00
    0.00000E+00         0.00000E+00        -0.23622E+08
 
   -0.23799E+08         0.20766E+06         0.00000E+00
    0.20766E+06        -0.51397E+08         0.00000E+00
    0.00000E+00         0.00000E+00        -0.23754E+08
 
   -0.23965E+08         0.20303E+06         0.00000E+00
    0.20303E+06        -0.51680E+08         0.00000E+00
    0.00000E+00         0.00000E+00        -0.23887E+08
 
   -0.24136E+08         0.19777E+06         0.00000E+00
    0.19777E+06        -0.51968E+08         0.00000E+00
    0.00000E+00         0.00000E+00        -0.24021E+08
 
   -0.24314E+08         0.19178E+06         0.00000E+00
    0.19178E+06        -0.52263E+08         0.00000E+00
    0.00000E+00         0.00000E+00        -0.24156E+08
 
   -0.24498E+08         0.18491E+06         0.00000E+00
    0.18491E+06        -0.52564E+08         0.00000E+00
    0.00000E+00         0.00000E+00        -0.24291E+08
 
   -0.24690E+08         0.17702E+06         0.00000E+00
    0.17702E+06        -0.52873E+08         0.00000E+00
    0.00000E+00         0.00000E+00        -0.24426E+08
 
   -0.24890E+08         0.16793E+06         0.00000E+00
    0.16793E+06        -0.53190E+08         0.00000E+00
    0.00000E+00         0.00000E+00        -0.24562E+08
 
   -0.25099E+08         0.15744E+06         0.00000E+00
    0.15744E+06        -0.53514E+08         0.00000E+00
    0.00000E+00         0.00000E+00        -0.24697E+08
 
   -0.25317E+08         0.14536E+06         0.00000E+00
    0.14536E+06        -0.53846E+08         0.00000E+00
    0.00000E+00         0.00000E+00        -0.24832E+08
 
   -0.25546E+08         0.13149E+06         0.00000E+00
    0.13149E+06        -0.54187E+08         0.00000E+00
    0.00000E+00         0.00000E+00        -0.24965E+08
 
   -0.25786E+08         0.11566E+06         0.00000E+00
    0.11566E+06        -0.54536E+08         0.00000E+00
    0.00000E+00         0.00000E+00        -0.25097E+08
 
   -0.26039E+08         0.97735E+05         0.00000E+00
    0.97735E+05        -0.54895E+08         0.00000E+00
    0.00000E+00         0.00000E+00        -0.25226E+08
 
   -0.26306E+08         0.77686E+05         0.00000E+00
    0.77686E+05        -0.55263E+08         0.00000E+00
    0.00000E+00         0.00000E+00        -0.25353E+08
 
   -0.26587E+08         0.55615E+05         0.00000E+00
    0.55615E+05        -0.55640E+08         0.00000E+00
    0.00000E+00         0.00000E+00        -0.25477E+08
 
   -0.26884E+08         0.31816E+05         0.00000E+00
    0.31816E+05        -0.56026E+08         0.00000E+00
    0.00000E+00         0.00000E+00        -0.25596E+08
 
   -0.27197E+08         0.68156E+04         0.00000E+00
    0.68156E+04        -0.56422E+08         0.00000E+00
    0.00000E+00         0.00000E+00        -0.25711E+08
 
   -0.27527E+08        -0.18591E+05         0.00000E+00
   -0.18591E+05        -0.56827E+08         0.00000E+00
    0.00000E+00         0.00000E+00        -0.25822E+08
 
   -0.27873E+08        -0.43376E+05         0.00000E+00
   -0.43376E+05        -0.57240E+08         0.00000E+00
    0.00000E+00         0.00000E+00        -0.25928E+08
 
   -0.28234E+08        -0.66179E+05         0.00000E+00
   -0.66179E+05        -0.57661E+08         0.00000E+00
    0.00000E+00         0.00000E+00        -0.26030E+08
 
   -0.28607E+08        -0.85495E+05         0.00000E+00
   -0.85495E+05        -0.58088E+08         0.00000E+00
    0.00000E+00         0.00000E+00        -0.26130E+08
 
   -0.28987E+08        -0.99044E+05         0.00000E+00
   -0.99044E+05        -0.58520E+08         0.00000E+00
    0.00000E+00         0.00000E+00        -0.26232E+08
 
   -0.29358E+08        -0.91814E+05         0.00000E+00
   -0.91814E+05        -0.58943E+08         0.00000E+00
    0.00000E+00         0.00000E+00        -0.26333E+08
 
   -0.29711E+08        -0.39442E+05         0.00000E+00
   -0.39442E+05        -0.59303E+08         0.00000E+00
    0.00000E+00         0.00000E+00        -0.26391E+08
 
   -0.93180E+07        -0.36390E+05         0.00000E+00
   -0.36390E+05        -0.27843E+08         0.00000E+00
    0.00000E+00         0.00000E+00        -0.15459E+08
 
   -0.98512E+07        -0.69368E+05         0.00000E+00
   -0.69368E+05        -0.28325E+08         0.00000E+00
    0.00000E+00         0.00000E+00        -0.15433E+08
 
   -0.10417E+08        -0.50298E+05         0.00000E+00
   -0.50298E+05        -0.28839E+08         0.00000E+00
    0.00000E+00         0.00000E+00        -0.15420E+08
 
   -0.10970E+08        -0.23157E+05         0.00000E+00
   -0.23157E+05        -0.29340E+08         0.00000E+00
    0.00000E+00         0.00000E+00        -0.15387E+08
 
   -0.11485E+08         0.15479E+04         0.00000E+00
    0.15479E+04        -0.29833E+08         0.00000E+00
    0.00000E+00         0.00000E+00        -0.15348E+08
 
   -0.11964E+08         0.25749E+05         0.00000E+00
    0.25749E+05        -0.30325E+08         0.00000E+00
    0.00000E+00         0.00000E+00        -0.15314E+08
 
   -0.12410E+08         0.47064E+05         0.00000E+00
    0.47064E+05        -0.30815E+08         0.00000E+00
    0.00000E+00         0.00000E+00        -0.15293E+08
 
   -0.12828E+08         0.65065E+05         0.00000E+00
    0.65065E+05        -0.31299E+08         0.00000E+00
    0.00000E+00         0.00000E+00        -0.15290E+08
 
   -0.13222E+08         0.81263E+05         0.00000E+00
    0.81263E+05        -0.31777E+08         0.00000E+00
    0.00000E+00         0.00000E+00        -0.15305E+08
 
   -0.13594E+08         0.97567E+05         0.00000E+00
    0.97567E+05        -0.32249E+08         0.00000E+00
    0.00000E+00         0.00000E+00        -0.15340E+08
 
   -0.13944E+08         0.11514E+06         0.00000E+00
    0.11514E+06        -0.32715E+08         0.00000E+00
    0.00000E+00         0.00000E+00        -0.15393E+08
 
   -0.14273E+08         0.13401E+06         0.00000E+00
    0.13401E+06        -0.33175E+08         0.00000E+00
    0.00000E+00         0.00000E+00        -0.15462E+08
 
   -0.14580E+08         0.15338E+06         0.00000E+00
    0.15338E+06        -0.33631E+08         0.00000E+00
    0.00000E+00         0.00000E+00        -0.15545E+08
 
   -0.14867E+08         0.17219E+06         0.00000E+00
    0.17219E+06        -0.34081E+08         0.00000E+00
    0.00000E+00         0.00000E+00        -0.15639E+08
 
   -0.15134E+08         0.18951E+06         0.00000E+00
    0.18951E+06        -0.34525E+08         0.00000E+00
    0.00000E+00         0.00000E+00        -0.15741E+08
 
   -0.15382E+08         0.20476E+06         0.00000E+00
    0.20476E+06        -0.34963E+08         0.00000E+00
    0.00000E+00         0.00000E+00        -0.15850E+08
 
   -0.15614E+08         0.21768E+06         0.00000E+00
    0.21768E+06        -0.35394E+08         0.00000E+00
    0.00000E+00         0.00000E+00        -0.15963E+08
 
   -0.15830E+08         0.22830E+06         0.00000E+00
    0.22830E+06        -0.35818E+08         0.00000E+00
    0.00000E+00         0.00000E+00        -0.16080E+08
 
   -0.16032E+08         0.23680E+06         0.00000E+00
    0.23680E+06        -0.36236E+08         0.00000E+00
    0.00000E+00         0.00000E+00        -0.16198E+08
 
   -0.16222E+08         0.24345E+06         0.00000E+00
    0.24345E+06        -0.36647E+08         0.00000E+00
    0.00000E+00         0.00000E+00        -0.16318E+08
 
   -0.16401E+08         0.24855E+06         0.00000E+00
    0.24855E+06        -0.37051E+08         0.00000E+00
    0.00000E+00         0.00000E+00        -0.16437E+08
 
   -0.16569E+08         0.25237E+06         0.00000E+00
    0.25237E+06        -0.37449E+08         0.00000E+00
    0.00000E+00         0.00000E+00        -0.16556E+08
 
   -0.16728E+08         0.25518E+06         0.00000E+00
    0.25518E+06        -0.37839E+08         0.00000E+00
    0.00000E+00         0.00000E+00        -0.16673E+08
 
   -0.16880E+08         0.25715E+06         0.00000E+00
    0.25715E+06        -0.38222E+08         0.00000E+00
    0.00000E+00         0.00000E+00        -0.16789E+08
 
   -0.17049E+08         0.25790E+06         0.00000E+00
    0.25790E+06        -0.38572E+08         0.00000E+00
    0.00000E+00         0.00000E+00        -0.16929E+08
 
   -0.17232E+08         0.25765E+06         0.00000E+00
    0.25765E+06        -0.38893E+08         0.00000E+00
    0.00000E+00         0.00000E+00        -0.17087E+08
 
   -0.17408E+08         0.25703E+06         0.00000E+00
    0.25703E+06        -0.39207E+08         0.00000E+00
    0.00000E+00         0.00000E+00        -0.17243E+08
 
   -0.17578E+08         0.25612E+06         0.00000E+00
    0.25612E+06        -0.39514E+08         0.00000E+00
    0.00000E+00         0.00000E+00        -0.17398E+08
 
   -0.17744E+08         0.25500E+06         0.00000E+00
    0.25500E+06        -0.39815E+08         0.00000E+00
    0.00000E+00         0.00000E+00        -0.17551E+08
 
   -0.17904E+08         0.25372E+06         0.00000E+00
    0.25372E+06        -0.40109E+08         0.00000E+00
    0.00000E+00         0.00000E+00        -0.17702E+08
 
   -0.18060E+08         0.25232E+06         0.00000E+00
    0.25232E+06        -0.40396E+08         0.00000E+00
    0.00000E+00         0.00000E+00        -0.17851E+08
 
   -0.18211E+08         0.25083E+06         0.00000E+00
    0.25083E+06        -0.40678E+08         0.00000E+00
    0.00000E+00         0.00000E+00        -0.17997E+08
 
   -0.18358E+08         0.24926E+06         0.00000E+00
    0.24926E+06        -0.40953E+08         0.00000E+00
    0.00000E+00         0.00000E+00        -0.18142E+08
 
   -0.18501E+08         0.24765E+06         0.00000E+00
    0.24765E+06        -0.41223E+08         0.00000E+00
    0.00000E+00         0.00000E+00        -0.18285E+08
 
   -0.18640E+08         0.24599E+06         0.00000E+00
    0.24599E+06        -0.41488E+08         0.00000E+00
    0.00000E+00         0.00000E+00        -0.18426E+08
 
   -0.18775E+08         0.24431E+06         0.00000E+00
    0.24431E+06        -0.41747E+08         0.00000E+00
    0.00000E+00         0.00000E+00        -0.18564E+08
 
   -0.18908E+08         0.24261E+06         0.00000E+00
    0.24261E+06        -0.42001E+08         0.00000E+00
    0.00000E+00         0.00000E+00        -0.18701E+08
 
   -0.19037E+08         0.24090E+06         0.00000E+00
    0.24090E+06        -0.42251E+08         0.00000E+00
    0.00000E+00         0.00000E+00        -0.18836E+08
 
   -0.19163E+08         0.23918E+06         0.00000E+00
    0.23918E+06        -0.42496E+08         0.00000E+00
    0.00000E+00         0.00000E+00        -0.18970E+08
 
   -0.19286E+08         0.23747E+06         0.00000E+00
    0.23747E+06        -0.42738E+08         0.00000E+00
    0.00000E+00         0.00000E+00        -0.19101E+08
 
   -0.19407E+08         0.23577E+06         0.00000E+00
    0.23577E+06        -0.42975E+08         0.00000E+00
    0.00000E+00         0.00000E+00        -0.19231E+08
 
   -0.19526E+08         0.23408E+06         0.00000E+00
    0.23408E+06        -0.43208E+08         0.00000E+00
    0.00000E+00         0.00000E+00        -0.19360E+08
 
   -0.19642E+08         0.23241E+06         0.00000E+00
    0.23241E+06        -0.43438E+08         0.00000E+00
    0.00000E+00         0.00000E+00        -0.19487E+08
 
   -0.19757E+08         0.23077E+06         0.00000E+00
    0.23077E+06        -0.43665E+08         0.00000E+00
    0.00000E+00         0.00000E+00        -0.19613E+08
 
   -0.19869E+08         0.22915E+06         0.00000E+00
    0.22915E+06        -0.43890E+08         0.00000E+00
    0.00000E+00         0.00000E+00        -0.19737E+08
 
   -0.19981E+08         0.22755E+06         0.00000E+00
    0.22755E+06        -0.44111E+08         0.00000E+00
    0.00000E+00         0.00000E+00        -0.19861E+08
 
   -0.20090E+08         0.22600E+06         0.00000E+00
    0.22600E+06        -0.44331E+08         0.00000E+00
    0.00000E+00         0.00000E+00        -0.19983E+08
 
   -0.20199E+08         0.22447E+06         0.00000E+00
    0.22447E+06        -0.44548E+08         0.00000E+00
    0.00000E+00         0.00000E+00        -0.20104E+08
 
   -0.20306E+08         0.22299E+06         0.00000E+00
    0.22299E+06        -0.44763E+08         0.00000E+00
    0.00000E+00         0.00000E+00        -0.20225E+08
 
   -0.20413E+08         0.22154E+06         0.00000E+00
    0.22154E+06        -0.44977E+08         0.00000E+00
    0.00000E+00         0.00000E+00        -0.20345E+08
 
   -0.20518E+08         0.22013E+06         0.00000E+00
    0.22013E+06        -0.45190E+08         0.00000E+00
    0.00000E+00         0.00000E+00        -0.20464E+08
 
   -0.20624E+08         0.21875E+06         0.00000E+00
    0.21875E+06        -0.45401E+08         0.00000E+00
    0.00000E+00         0.00000E+00        -0.20582E+08
 
   -0.20729E+08         0.21741E+06         0.00000E+00
    0.21741E+06        -0.45612E+08         0.00000E+00
    0.00000E+00         0.00000E+00        -0.20700E+08
 
   -0.20834E+08         0.21611E+06         0.00000E+00
    0.21611E+06        -0.45823E+08         0.00000E+00
    0.00000E+00         0.00000E+00        -0.20818E+08
 
   -0.20939E+08         0.21484E+06         0.00000E+00
    0.21484E+06        -0.46033E+08         0.00000E+00
    0.00000E+00         0.00000E+00        -0.20936E+08
 
   -0.21044E+08         0.21359E+06         0.00000E+00
    0.21359E+06        -0.46243E+08         0.00000E+00
    0.00000E+00         0.00000E+00        -0.21053E+08
 
   -0.21149E+08         0.21238E+06         0.00000E+00
    0.21238E+06        -0.46453E+08         0.00000E+00
    0.00000E+00         0.00000E+00        -0.21170E+08
 
   -0.21256E+08         0.21118E+06         0.00000E+00
    0.21118E+06        -0.46664E+08         0.00000E+00
    0.00000E+00         0.00000E+00        -0.21287E+08
 
   -0.21362E+08         0.20999E+06         0.00000E+00
    0.20999E+06        -0.46876E+08         0.00000E+00
    0.00000E+00         0.00000E+00        -0.21405E+08
 
   -0.21470E+08         0.20882E+06         0.00000E+00
    0.20882E+06        -0.47089E+08         0.00000E+00
    0.00000E+00         0.00000E+00        -0.21522E+08
 
   -0.21579E+08         0.20764E+06         0.00000E+00
    0.20764E+06        -0.47303E+08         0.00000E+00
    0.00000E+00         0.00000E+00        -0.21640E+08
 
   -0.21689E+08         0.20646E+06         0.00000E+00
    0.20646E+06        -0.47519E+08         0.00000E+00
    0.00000E+00         0.00000E+00        -0.21758E+08
 
   -0.21801E+08         0.20526E+06         0.00000E+00
    0.20526E+06        -0.47737E+08         0.00000E+00
    0.00000E+00         0.00000E+00        -0.21877E+08
 
   -0.21914E+08         0.20404E+06         0.00000E+00
    0.20404E+06        -0.47956E+08         0.00000E+00
    0.00000E+00         0.00000E+00        -0.21996E+08
 
   -0.22030E+08         0.20278E+06         0.00000E+00
    0.20278E+06        -0.48179E+08         0.00000E+00
    0.00000E+00         0.00000E+00        -0.22116E+08
 
   -0.22147E+08         0.20147E+06         0.00000E+00
    0.20147E+06        -0.48403E+08         0.00000E+00
    0.00000E+00         0.00000E+00        -0.22237E+08
 
   -0.22267E+08         0.20011E+06         0.00000E+00
    0.20011E+06        -0.48631E+08         0.00000E+00
    0.00000E+00         0.00000E+00        -0.22358E+08
 
   -0.22389E+08         0.19867E+06         0.00000E+00
    0.19867E+06        -0.48862E+08         0.00000E+00
    0.00000E+00         0.00000E+00        -0.22480E+08
 
   -0.22514E+08         0.19714E+06         0.00000E+00
    0.19714E+06        -0.49096E+08         0.00000E+00
    0.00000E+00         0.00000E+00        -0.22603E+08
 
   -0.22641E+08         0.19550E+06         0.00000E+00
    0.19550E+06        -0.49334E+08         0.00000E+00
    0.00000E+00         0.00000E+00        -0.22727E+08
 
   -0.22772E+08         0.19374E+06         0.00000E+00
    0.19374E+06        -0.49575E+08         0.00000E+00
    0.00000E+00         0.00000E+00        -0.22852E+08
 
   -0.22906E+08         0.19182E+06         0.00000E+00
    0.19182E+06        -0.49821E+08         0.00000E+00
    0.00000E+00         0.00000E+00        -0.22978E+08
 
   -0.23044E+08         0.18974E+06         0.00000E+00
    0.18974E+06        -0.50071E+08         0.00000E+00
    0.00000E+00         0.00000E+00        -0.23105E+08
 
   -0.23186E+08         0.18746E+06         0.00000E+00
    0.18746E+06        -0.50326E+08         0.00000E+00
    0.00000E+00         0.00000E+00        -0.23233E+08
 
   -0.23332E+08         0.18494E+06         0.00000E+00
    0.18494E+06        -0.50586E+08         0.00000E+00
    0.00000E+00         0.00000E+00        -0.23362E+08
 
   -0.23482E+08         0.18214E+06         0.00000E+00
    0.18214E+06        -0.50851E+08         0.00000E+00
    0.00000E+00         0.00000E+00        -0.23492E+08
 
   -0.23637E+08         0.17902E+06         0.00000E+00
    0.17902E+06        -0.51122E+08         0.00000E+00
    0.00000E+00         0.00000E+00        -0.23623E+08
 
   -0.23797E+08         0.17552E+06         0.00000E+00
    0.17552E+06        -0.51398E+08         0.00000E+00
    0.00000E+00         0.00000E+00        -0.23756E+08
 
   -0.23963E+08         0.17156E+06         0.00000E+00
    0.17156E+06        -0.51680E+08         0.00000E+00
    0.00000E+00         0.00000E+00        -0.23889E+08
 
   -0.24135E+08         0.16708E+06         0.00000E+00
    0.16708E+06        -0.51968E+08         0.00000E+00
    0.00000E+00         0.00000E+00        -0.24022E+08
 
   -0.24313E+08         0.16196E+06         0.00000E+00
    0.16196E+06        -0.52263E+08         0.00000E+00
    0.00000E+00         0.00000E+00        -0.24157E+08
 
   -0.24497E+08         0.15609E+06         0.00000E+00
    0.15609E+06        -0.52565E+08         0.00000E+00
    0.00000E+00         0.00000E+00        -0.24292E+08
 
   -0.24690E+08         0.14934E+06         0.00000E+00
    0.14934E+06        -0.52874E+08         0.00000E+00
    0.00000E+00         0.00000E+00        -0.24427E+08
 
   -0.24890E+08         0.14155E+06         0.00000E+00
    0.14155E+06        -0.53190E+08         0.00000E+00
    0.00000E+00         0.00000E+00        -0.24562E+08
 
   -0.25100E+08         0.13257E+06         0.00000E+00
    0.13257E+06        -0.53515E+08         0.00000E+00
    0.00000E+00         0.00000E+00        -0.24696E+08
 
   -0.25319E+08         0.12221E+06         0.00000E+00
    0.12221E+06        -0.53847E+08         0.00000E+00
    0.00000E+00         0.00000E+00        -0.24830E+08
 
   -0.25549E+08         0.11030E+06         0.00000E+00
    0.11030E+06        -0.54188E+08         0.00000E+00
    0.00000E+00         0.00000E+00        -0.24962E+08
 
   -0.25791E+08         0.96685E+05         0.00000E+00
    0.96685E+05        -0.54537E+08         0.00000E+00
    0.00000E+00         0.00000E+00        -0.25093E+08
 
   -0.26045E+08         0.81258E+05         0.00000E+00
    0.81258E+05        -0.54896E+08         0.00000E+00
    0.00000E+00         0.00000E+00        -0.25221E+08
 
   -0.26314E+08         0.63985E+05         0.00000E+00
    0.63985E+05        -0.55264E+08         0.00000E+00
    0.00000E+00         0.00000E+00        -0.25347E+08
 
   -0.26598E+08         0.44954E+05         0.00000E+00
    0.44954E+05        -0.55642E+08         0.00000E+00
    0.00000E+00         0.00000E+00        -0.25468E+08
 
   -0.26898E+08         0.24417E+05         0.00000E+00
    0.24417E+05        -0.56029E+08         0.00000E+00
    0.00000E+00         0.00000E+00        -0.25585E+08
 
   -0.27216E+08         0.28288E+04         0.00000E+00
    0.28288E+04        -0.56426E+08         0.00000E+00
    0.00000E+00         0.00000E+00        -0.25698E+08
 
   -0.27550E+08        -0.19131E+05         0.00000E+00
   -0.19131E+05        -0.56832E+08         0.00000E+00
    0.00000E+00         0.00000E+00        -0.25806E+08
 
   -0.27902E+08        -0.40599E+05         0.00000E+00
   -0.40599E+05        -0.57246E+08         0.00000E+00
    0.00000E+00         0.00000E+00        -0.25908E+08
 
   -0.28270E+08        -0.60518E+05         0.00000E+00
   -0.60518E+05        -0.57669E+08         0.00000E+00
    0.00000E+00         0.00000E+00        -0.26007E+08
 
   -0.28651E+08        -0.77530E+05         0.00000E+00
   -0.77530E+05        -0.58098E+08         0.00000E+00
    0.00000E+00         0.00000E+00        -0.26103E+08
 
   -0.29041E+08        -0.91211E+05         0.00000E+00
   -0.91211E+05        -0.58533E+08         0.00000E+00
    0.00000E+00         0.00000E+00        -0.26199E+08
 
   -0.29425E+08        -0.89670E+05         0.00000E+00
   -0.89670E+05        -0.58967E+08         0.00000E+00
    0.00000E+00         0.00000E+00        -0.26302E+08
 
   -0.29786E+08        -0.40761E+05         0.00000E+00
   -0.40761E+05        -0.59342E+08         0.00000E+00
    0.00000E+00         0.00000E+00        -0.26368E+08
 
   -0.92648E+07        -0.35563E+05         0.00000E+00
   -0.35563E+05        -0.27827E+08         0.00000E+00
    0.00000E+00         0.00000E+00        -0.15491E+08
 
   -0.98067E+07        -0.58384E+05         0.00000E+00
   -0.58384E+05        -0.28327E+08         0.00000E+00
    0.00000E+00         0.00000E+00        -0.15476E+08
 
   -0.10380E+08        -0.35317E+05         0.00000E+00
   -0.35317E+05        -0.28846E+08         0.00000E+00
    0.00000E+00         0.00000E+00        -0.15462E+08
 
   -0.10930E+08        -0.15455E+05         0.00000E+00
   -0.15455E+05        -0.29344E+08         0.00000E+00
    0.00000E+00         0.00000E+00        -0.15423E+08
 
   -0.11441E+08         0.20933E+04         0.00000E+00
    0.20933E+04        -0.29838E+08         0.00000E+00
    0.00000E+00         0.00000E+00        -0.15377E+08
 
   -0.11920E+08         0.20385E+05         0.00000E+00
    0.20385E+05        -0.30330E+08         0.00000E+00
    0.00000E+00         0.00000E+00        -0.15336E+08
 
   -0.12368E+08         0.36616E+05         0.00000E+00
    0.36616E+05        -0.30818E+08         0.00000E+00
    0.00000E+00         0.00000E+00        -0.15309E+08
 
   -0.12790E+08         0.50491E+05         0.00000E+00
    0.50491E+05        -0.31302E+08         0.00000E+00
    0.00000E+00         0.00000E+00        -0.15299E+08
 
   -0.13189E+08         0.63171E+05         0.00000E+00
    0.63171E+05        -0.31780E+08         0.00000E+00
    0.00000E+00         0.00000E+00        -0.15310E+08
 
   -0.13566E+08         0.76246E+05         0.00000E+00
    0.76246E+05        -0.32252E+08         0.00000E+00
    0.00000E+00         0.00000E+00        -0.15341E+08
 
   -0.13923E+08         0.90664E+05         0.00000E+00
    0.90664E+05        -0.32718E+08         0.00000E+00
    0.00000E+00         0.00000E+00        -0.15391E+08
 
   -0.14257E+08         0.10640E+06         0.00000E+00
    0.10640E+06        -0.33179E+08         0.00000E+00
    0.00000E+00         0.00000E+00        -0.15457E+08
 
   -0.14570E+08         0.12270E+06         0.00000E+00
    0.12270E+06        -0.33634E+08         0.00000E+00
    0.00000E+00         0.00000E+00        -0.15538E+08
 
   -0.14861E+08         0.13862E+06         0.00000E+00
    0.13862E+06        -0.34084E+08         0.00000E+00
    0.00000E+00         0.00000E+00        -0.15630E+08
 
   -0.15132E+08         0.15331E+06         0.00000E+00
    0.15331E+06        -0.34528E+08         0.00000E+00
    0.00000E+00         0.00000E+00        -0.15731E+08
 
   -0.15383E+08         0.16625E+06         0.00000E+00
    0.16625E+06        -0.34965E+08         0.00000E+00
    0.00000E+00         0.00000E+00        -0.15840E+08
 
   -0.15616E+08         0.17720E+06         0.00000E+00
    0.17720E+06        -0.35396E+08         0.00000E+00
    0.00000E+00         0.00000E+00        -0.15953E+08
 
   -0.15834E+08         0.18619E+06         0.00000E+00
    0.18619E+06        -0.35820E+08         0.00000E+00
    0.00000E+00         0.00000E+00        -0.16069E+08
 
   -0.16037E+08         0.19336E+06         0.00000E+00
    0.19336E+06        -0.36238E+08         0.00000E+00
    0.00000E+00         0.00000E+00        -0.16188E+08
 
   -0.16228E+08         0.19896E+06         0.00000E+00
    0.19896E+06        -0.36648E+08         0.00000E+00
    0.00000E+00         0.00000E+00        -0.16308E+08
 
   -0.16407E+08         0.20324E+06         0.00000E+00
    0.20324E+06        -0.37052E+08         0.00000E+00
    0.00000E+00         0.00000E+00        -0.16427E+08
 
   -0.16575E+08         0.20644E+06         0.00000E+00
    0.20644E+06        -0.37449E+08         0.00000E+00
    0.00000E+00         0.00000E+00        -0.16546E+08
 
   -0.16735E+08         0.20879E+06         0.00000E+00
    0.20879E+06        -0.37840E+08         0.00000E+00
    0.00000E+00         0.00000E+00        -0.16664E+08
 
   -0.16887E+08         0.21043E+06         0.00000E+00
    0.21043E+06        -0.38222E+08         0.00000E+00
    0.00000E+00         0.00000E+00        -0.16781E+08
 
   -0.17056E+08         0.21107E+06         0.00000E+00
    0.21107E+06        -0.38572E+08         0.00000E+00
    0.00000E+00         0.00000E+00        -0.16921E+08
 
   -0.17238E+08         0.21088E+06         0.00000E+00
    0.21088E+06        -0.38893E+08         0.00000E+00
    0.00000E+00         0.00000E+00        -0.17079E+08
 
   -0.17414E+08         0.21037E+06         0.00000E+00
    0.21037E+06        -0.39208E+08         0.00000E+00
    0.00000E+00         0.00000E+00        -0.17236E+08
 
   -0.17584E+08         0.20964E+06         0.00000E+00
    0.20964E+06        -0.39515E+08         0.00000E+00
    0.00000E+00         0.00000E+00        -0.17391E+08
 
   -0.17749E+08         0.20873E+06         0.00000E+00
    0.20873E+06        -0.39815E+08         0.00000E+00
    0.00000E+00         0.00000E+00        -0.17544E+08
 
   -0.17909E+08         0.20769E+06         0.00000E+00
    0.20769E+06        -0.40109E+08         0.00000E+00
    0.00000E+00         0.00000E+00        -0.17695E+08
 
   -0.18065E+08         0.20654E+06         0.00000E+00
    0.20654E+06        -0.40397E+08         0.00000E+00
    0.00000E+00         0.00000E+00        -0.17844E+08
 
   -0.18216E+08         0.20533E+06         0.00000E+00
    0.20533E+06        -0.40679E+08         0.00000E+00
    0.00000E+00         0.00000E+00        -0.17992E+08
 
   -0.18362E+08         0.20405E+06         0.00000E+00
    0.20405E+06        -0.40954E+08         0.00000E+00
    0.00000E+00         0.00000E+00        -0.18137E+08
 
   -0.18505E+08         0.20274E+06         0.00000E+00
    0.20274E+06        -0.41224E+08         0.00000E+00
    0.00000E+00         0.00000E+00        -0.18280E+08
 
   -0.18644E+08         0.20139E+06         0.00000E+00
    0.20139E+06        -0.41489E+08         0.00000E+00
    0.00000E+00         0.00000E+00        -0.18421E+08
 
   -0.18779E+08         0.20002E+06         0.00000E+00
    0.20002E+06        -0.41748E+08         0.00000E+00
    0.00000E+00         0.00000E+00        -0.18560E+08
 
   -0.18911E+08         0.19863E+06         0.00000E+00
    0.19863E+06        -0.42002E+08         0.00000E+00
    0.00000E+00         0.00000E+00        -0.18697E+08
 
   -0.19040E+08         0.19724E+06         0.00000E+00
    0.19724E+06        -0.42252E+08         0.00000E+00
    0.00000E+00         0.00000E+00        -0.18832E+08
 
   -0.19166E+08         0.19584E+06         0.00000E+00
    0.19584E+06        -0.42497E+08         0.00000E+00
    0.00000E+00         0.00000E+00        -0.18966E+08
 
   -0.19290E+08         0.19445E+06         0.00000E+00
    0.19445E+06        -0.42738E+08         0.00000E+00
    0.00000E+00         0.00000E+00        -0.19097E+08
 
   -0.19410E+08         0.19306E+06         0.00000E+00
    0.19306E+06        -0.42976E+08         0.00000E+00
    0.00000E+00         0.00000E+00        -0.19228E+08
 
   -0.19529E+08         0.19168E+06         0.00000E+00
    0.19168E+06        -0.43209E+08         0.00000E+00
    0.00000E+00         0.00000E+00        -0.19357E+08
 
   -0.19645E+08         0.19032E+06         0.00000E+00
    0.19032E+06        -0.43439E+08         0.00000E+00
    0.00000E+00         0.00000E+00        -0.19484E+08
 
   -0.19759E+08         0.18897E+06         0.00000E+00
    0.18897E+06        -0.43666E+08         0.00000E+00
    0.00000E+00         0.00000E+00        -0.19610E+08
 
   -0.19871E+08         0.18765E+06         0.00000E+00
    0.18765E+06        -0.43891E+08         0.00000E+00
    0.00000E+00         0.00000E+00        -0.19735E+08
 
   -0.19982E+08         0.18635E+06         0.00000E+00
    0.18635E+06        -0.44112E+08         0.00000E+00
    0.00000E+00         0.00000E+00        -0.19858E+08
 
   -0.20092E+08         0.18508E+06         0.00000E+00
    0.18508E+06        -0.44331E+08         0.00000E+00
    0.00000E+00         0.00000E+00        -0.19981E+08
 
   -0.20200E+08         0.18383E+06         0.00000E+00
    0.18383E+06        -0.44548E+08         0.00000E+00
    0.00000E+00         0.00000E+00        -0.20102E+08
 
   -0.20307E+08         0.18261E+06         0.00000E+00
    0.18261E+06        -0.44764E+08         0.00000E+00
    0.00000E+00         0.00000E+00        -0.20223E+08
 
   -0.20413E+08         0.18143E+06         0.00000E+00
    0.18143E+06        -0.44978E+08         0.00000E+00
    0.00000E+00         0.00000E+00        -0.20343E+08
 
   -0.20519E+08         0.18027E+06         0.00000E+00
    0.18027E+06        -0.45190E+08         0.00000E+00
    0.00000E+00         0.00000E+00        -0.20462E+08
 
   -0.20624E+08         0.17914E+06         0.00000E+00
    0.17914E+06        -0.45402E+08         0.00000E+00
    0.00000E+00         0.00000E+00        -0.20581E+08
 
   -0.20729E+08         0.17804E+06         0.00000E+00
    0.17804E+06        -0.45613E+08         0.00000E+00
    0.00000E+00         0.00000E+00        -0.20700E+08
 
   -0.20834E+08         0.17697E+06         0.00000E+00
    0.17697E+06        -0.45823E+08         0.00000E+00
    0.00000E+00         0.00000E+00        -0.20817E+08
 
   -0.20938E+08         0.17593E+06         0.00000E+00
    0.17593E+06        -0.46033E+08         0.00000E+00
    0.00000E+00         0.00000E+00        -0.20935E+08
 
   -0.21043E+08         0.17491E+06         0.00000E+00
    0.17491E+06        -0.46243E+08         0.00000E+00
    0.00000E+00         0.00000E+00        -0.21053E+08
 
   -0.21149E+08         0.17391E+06         0.00000E+00
    0.17391E+06        -0.46453E+08         0.00000E+00
    0.00000E+00         0.00000E+00        -0.21170E+08
 
   -0.21254E+08         0.17292E+06         0.00000E+00
    0.17292E+06        -0.46664E+08         0.00000E+00
    0.00000E+00         0.00000E+00        -0.21287E+08
 
   -0.21361E+08         0.17194E+06         0.00000E+00
    0.17194E+06        -0.46876E+08         0.00000E+00
    0.00000E+00         0.00000E+00        -0.21405E+08
 
   -0.21469E+08         0.17098E+06         0.00000E+00
    0.17098E+06        -0.47089E+08         0.00000E+00
    0.00000E+00         0.00000E+00        -0.21523E+08
 
   -0.21577E+08         0.17001E+06         0.00000E+00
    0.17001E+06        -0.47303E+08         0.00000E+00
    0.00000E+00         0.00000E+00        -0.21641E+08
 
   -0.21688E+08         0.16903E+06         0.00000E+00
    0.16903E+06        -0.47519E+08         0.00000E+00
    0.00000E+00         0.00000E+00        -0.21759E+08
 
   -0.21799E+08         0.16804E+06         0.00000E+00
    0.16804E+06        -0.47737E+08         0.00000E+00
    0.00000E+00         0.00000E+00        -0.21878E+08
 
   -0.21912E+08         0.16703E+06         0.00000E+00
    0.16703E+06        -0.47956E+08         0.00000E+00
    0.00000E+00         0.00000E+00        -0.21997E+08
 
   -0.22027E+08         0.16599E+06         0.00000E+00
    0.16599E+06        -0.48178E+08         0.00000E+00
    0.00000E+00         0.00000E+00        -0.22117E+08
 
   -0.22145E+08         0.16491E+06         0.00000E+00
    0.16491E+06        -0.48403E+08         0.00000E+00
    0.00000E+00         0.00000E+00        -0.22238E+08
 
   -0.22264E+08         0.16378E+06         0.00000E+00
    0.16378E+06        -0.48631E+08         0.00000E+00
    0.00000E+00         0.00000E+00        -0.22359E+08
 
   -0.22386E+08         0.16258E+06         0.00000E+00
    0.16258E+06        -0.48862E+08         0.00000E+00
    0.00000E+00         0.00000E+00        -0.22482E+08
 
   -0.22511E+08         0.16132E+06         0.00000E+00
    0.16132E+06        -0.49096E+08         0.00000E+00
    0.00000E+00         0.00000E+00        -0.22605E+08
 
   -0.22639E+08         0.15996E+06         0.00000E+00
    0.15996E+06        -0.49334E+08         0.00000E+00
    0.00000E+00         0.00000E+00        -0.22729E+08
 
   -0.22770E+08         0.15850E+06         0.00000E+00
    0.15850E+06        -0.49575E+08         0.00000E+00
    0.00000E+00         0.00000E+00        -0.22854E+08
 
   -0.22904E+08         0.15692E+06         0.00000E+00
    0.15692E+06        -0.49821E+08         0.00000E+00
    0.00000E+00         0.00000E+00        -0.22980E+08
 
   -0.23042E+08         0.15520E+06         0.00000E+00
    0.15520E+06        -0.50071E+08         0.00000E+00
    0.00000E+00         0.00000E+00        -0.23107E+08
 
   -0.23183E+08         0.15331E+06         0.00000E+00
    0.15331E+06        -0.50326E+08         0.00000E+00
    0.00000E+00         0.00000E+00        -0.23235E+08
 
   -0.23329E+08         0.15122E+06         0.00000E+00
    0.15122E+06        -0.50586E+08         0.00000E+00
    0.00000E+00         0.00000E+00        -0.23364E+08
 
   -0.23480E+08         0.14891E+06         0.00000E+00
    0.14891E+06        -0.50851E+08         0.00000E+00
    0.00000E+00         0.00000E+00        -0.23494E+08
 
   -0.23635E+08         0.14634E+06         0.00000E+00
    0.14634E+06        -0.51122E+08         0.00000E+00
    0.00000E+00         0.00000E+00        -0.23625E+08
 
   -0.23796E+08         0.14344E+06         0.00000E+00
    0.14344E+06        -0.51398E+08         0.00000E+00
    0.00000E+00         0.00000E+00        -0.23757E+08
 
   -0.23961E+08         0.14018E+06         0.00000E+00
    0.14018E+06        -0.51680E+08         0.00000E+00
    0.00000E+00         0.00000E+00        -0.23890E+08
 
   -0.24133E+08         0.13647E+06         0.00000E+00
    0.13647E+06        -0.51969E+08         0.00000E+00
    0.00000E+00         0.00000E+00        -0.24024E+08
 
   -0.24312E+08         0.13224E+06         0.00000E+00
    0.13224E+06        -0.52264E+08         0.00000E+00
    0.00000E+00         0.00000E+00        -0.24158E+08
 
   -0.24497E+08         0.12739E+06         0.00000E+00
    0.12739E+06        -0.52566E+08         0.00000E+00
    0.00000E+00         0.00000E+00        -0.24293E+08
 
   -0.24690E+08         0.12180E+06         0.00000E+00
    0.12180E+06        -0.52875E+08         0.00000E+00
    0.00000E+00         0.00000E+00        -0.24427E+08
 
   -0.24891E+08         0.11536E+06         0.00000E+00
    0.11536E+06        -0.53191E+08         0.00000E+00
    0.00000E+00         0.00000E+00        -0.24562E+08
 
   -0.25101E+08         0.10791E+06         0.00000E+00
    0.10791E+06        -0.53516E+08         0.00000E+00
    0.00000E+00         0.00000E+00        -0.24696E+08
 
   -0.25321E+08         0.99320E+05         0.00000E+00
    0.99320E+05        -0.53848E+08         0.00000E+00
    0.00000E+00         0.00000E+00        -0.24829E+08
 
   -0.25552E+08         0.89429E+05         0.00000E+00
    0.89429E+05        -0.54189E+08         0.00000E+00
    0.00000E+00         0.00000E+00        -0.24961E+08
 
   -0.25796E+08         0.78110E+05         0.00000E+00
    0.78110E+05        -0.54539E+08         0.00000E+00
    0.00000E+00         0.00000E+00        -0.25090E+08
 
   -0.26052E+08         0.65268E+05         0.00000E+00
    0.65268E+05        -0.54898E+08         0.00000E+00
    0.00000E+00         0.00000E+00        -0.25217E+08
 
   -0.26323E+08         0.50873E+05         0.00000E+00
    0.50873E+05        -0.55267E+08         0.00000E+00
    0.00000E+00         0.00000E+00        -0.25341E+08
 
   -0.26610E+08         0.34999E+05         0.00000E+00
    0.34999E+05        -0.55645E+08         0.00000E+00
    0.00000E+00         0.00000E+00        -0.25461E+08
 
   -0.26913E+08         0.17854E+05         0.00000E+00
    0.17854E+05        -0.56033E+08         0.00000E+00
    0.00000E+00         0.00000E+00        -0.25576E+08
 
   -0.27234E+08        -0.18021E+03         0.00000E+00
   -0.18021E+03        -0.56431E+08         0.00000E+00
    0.00000E+00         0.00000E+00        -0.25686E+08
 
   -0.27574E+08        -0.18546E+05         0.00000E+00
   -0.18546E+05        -0.56837E+08         0.00000E+00
    0.00000E+00         0.00000E+00        -0.25790E+08
 
   -0.27931E+08        -0.36516E+05         0.00000E+00
   -0.36516E+05        -0.57253E+08         0.00000E+00
    0.00000E+00         0.00000E+00        -0.25890E+08
 
   -0.28306E+08        -0.53361E+05         0.00000E+00
   -0.53361E+05        -0.57677E+08         0.00000E+00
    0.00000E+00         0.00000E+00        -0.25984E+08
 
   -0.28695E+08        -0.67772E+05         0.00000E+00
   -0.67772E+05        -0.58108E+08         0.00000E+00
    0.00000E+00         0.00000E+00        -0.26075E+08
 
   -0.29095E+08        -0.80396E+05         0.00000E+00
   -0.80396E+05        -0.58545E+08         0.00000E+00
    0.00000E+00         0.00000E+00        -0.26166E+08
 
   -0.29494E+08        -0.84943E+05         0.00000E+00
   -0.84943E+05        -0.58989E+08         0.00000E+00
    0.00000E+00         0.00000E+00        -0.26267E+08
 
   -0.29866E+08        -0.41970E+05         0.00000E+00
   -0.41970E+05        -0.59382E+08         0.00000E+00
    0.00000E+00         0.00000E+00        -0.26342E+08
 
   -0.92238E+07        -0.35159E+05         0.00000E+00
   -0.35159E+05        -0.27812E+08         0.00000E+00
    0.00000E+00         0.00000E+00        -0.15526E+08
 
   -0.97746E+07        -0.44878E+05         0.00000E+00
   -0.44878E+05        -0.28332E+08         0.00000E+00
    0.00000E+00         0.00000E+00        -0.15520E+08
 
   -0.10348E+08        -0.20441E+05         0.00000E+00
   -0.20441E+05        -0.28851E+08         0.00000E+00
    0.00000E+00         0.00000E+00        -0.15503E+08
 
   -0.10889E+08        -0.92740E+04         0.00000E+00
   -0.92740E+04        -0.29347E+08         0.00000E+00
    0.00000E+00         0.00000E+00        -0.15457E+08
 
   -0.11396E+08         0.22638E+04         0.00000E+00
    0.22638E+04        -0.29841E+08         0.00000E+00
    0.00000E+00         0.00000E+00        -0.15404E+08
 
   -0.11873E+08         0.15183E+05         0.00000E+00
    0.15183E+05        -0.30333E+08         0.00000E+00
    0.00000E+00         0.00000E+00        -0.15356E+08
 
   -0.12323E+08         0.26769E+05         0.00000E+00
    0.26769E+05        -0.30821E+08         0.00000E+00
    0.00000E+00         0.00000E+00        -0.15322E+08
 
   -0.12749E+08         0.36840E+05         0.00000E+00
    0.36840E+05        -0.31304E+08         0.00000E+00
    0.00000E+00         0.00000E+00        -0.15307E+08
 
   -0.13153E+08         0.46207E+05         0.00000E+00
    0.46207E+05        -0.31782E+08         0.00000E+00
    0.00000E+00         0.00000E+00        -0.15313E+08
 
   -0.13537E+08         0.56160E+05         0.00000E+00
    0.56160E+05        -0.32254E+08         0.00000E+00
    0.00000E+00         0.00000E+00        -0.15340E+08
 
   -0.13900E+08         0.67432E+05         0.00000E+00
    0.67432E+05        -0.32721E+08         0.00000E+00
    0.00000E+00         0.00000E+00        -0.15386E+08
 
   -0.14241E+08         0.79948E+05         0.00000E+00
    0.79948E+05        -0.33182E+08         0.00000E+00
    0.00000E+00         0.00000E+00        -0.15451E+08
 
   -0.14559E+08         0.93051E+05         0.00000E+00
    0.93051E+05        -0.33637E+08         0.00000E+00
    0.00000E+00         0.00000E+00        -0.15529E+08
 
   -0.14855E+08         0.10590E+06         0.00000E+00
    0.10590E+06        -0.34087E+08         0.00000E+00
    0.00000E+00         0.00000E+00        -0.15620E+08
 
   -0.15130E+08         0.11778E+06         0.00000E+00
    0.11778E+06        -0.34530E+08         0.00000E+00
    0.00000E+00         0.00000E+00        -0.15721E+08
 
   -0.15384E+08         0.12824E+06         0.00000E+00
    0.12824E+06        -0.34967E+08         0.00000E+00
    0.00000E+00         0.00000E+00        -0.15829E+08
 
   -0.15620E+08         0.13708E+06         0.00000E+00
    0.13708E+06        -0.35398E+08         0.00000E+00
    0.00000E+00         0.00000E+00        -0.15942E+08
 
   -0.15839E+08         0.14432E+06         0.00000E+00
    0.14432E+06        -0.35822E+08         0.00000E+00
    0.00000E+00         0.00000E+00        -0.16059E+08
 
   -0.16043E+08         0.15009E+06         0.00000E+00
    0.15009E+06        -0.36239E+08         0.00000E+00
    0.00000E+00         0.00000E+00        -0.16178E+08
 
   -0.16234E+08         0.15457E+06         0.00000E+00
    0.15457E+06        -0.36649E+08         0.00000E+00
    0.00000E+00         0.00000E+00        -0.16298E+08
 
   -0.16414E+08         0.15799E+06         0.00000E+00
    0.15799E+06        -0.37053E+08         0.00000E+00
    0.00000E+00         0.00000E+00        -0.16418E+08
 
   -0.16582E+08         0.16054E+06         0.00000E+00
    0.16054E+06        -0.37450E+08         0.00000E+00
    0.00000E+00         0.00000E+00        -0.16537E+08
 
   -0.16742E+08         0.16240E+06         0.00000E+00
    0.16240E+06        -0.37840E+08         0.00000E+00
    0.00000E+00         0.00000E+00        -0.16655E+08
 
   -0.16894E+08         0.16371E+06         0.00000E+00
    0.16371E+06        -0.38223E+08         0.00000E+00
    0.00000E+00         0.00000E+00        -0.16772E+08
 
   -0.17063E+08         0.16422E+06         0.00000E+00
    0.16422E+06        -0.38572E+08         0.00000E+00
    0.00000E+00         0.00000E+00        -0.16912E+08
 
   -0.17244E+08         0.16409E+06         0.00000E+00
    0.16409E+06        -0.38894E+08         0.00000E+00
    0.00000E+00         0.00000E+00        -0.17071E+08
 
   -0.17420E+08         0.16370E+06         0.00000E+00
    0.16370E+06        -0.39208E+08         0.00000E+00
    0.00000E+00         0.00000E+00        -0.17228E+08
 
   -0.17590E+08         0.16314E+06         0.00000E+00
    0.16314E+06        -0.39515E+08         0.00000E+00
    0.00000E+00         0.00000E+00        -0.17384E+08
 
   -0.17755E+08         0.16243E+06         0.00000E+00
    0.16243E+06        -0.39816E+08         0.00000E+00
    0.00000E+00         0.00000E+00        -0.17537E+08
 
   -0.17915E+08         0.16162E+06         0.00000E+00
    0.16162E+06        -0.40110E+08         0.00000E+00
    0.00000E+00         0.00000E+00        -0.17689E+08
 
   -0.18070E+08         0.16074E+06         0.00000E+00
    0.16074E+06        -0.40398E+08         0.00000E+00
    0.00000E+00         0.00000E+00        -0.17838E+08
 
   -0.18221E+08         0.15980E+06         0.00000E+00
    0.15980E+06        -0.40679E+08         0.00000E+00
    0.00000E+00         0.00000E+00        -0.17986E+08
 
   -0.18367E+08         0.15881E+06         0.00000E+00
    0.15881E+06        -0.40955E+08         0.00000E+00
    0.00000E+00         0.00000E+00        -0.18131E+08
 
   -0.18510E+08         0.15779E+06         0.00000E+00
    0.15779E+06        -0.41225E+08         0.00000E+00
    0.00000E+00         0.00000E+00        -0.18274E+08
 
   -0.18649E+08         0.15675E+06         0.00000E+00
    0.15675E+06        -0.41490E+08         0.00000E+00
    0.00000E+00         0.00000E+00        -0.18416E+08
 
   -0.18784E+08         0.15569E+06         0.00000E+00
    0.15569E+06        -0.41749E+08         0.00000E+00
    0.00000E+00         0.00000E+00        -0.18555E+08
 
   -0.18916E+08         0.15461E+06         0.00000E+00
    0.15461E+06        -0.42003E+08         0.00000E+00
    0.00000E+00         0.00000E+00        -0.18692E+08
 
   -0.19044E+08         0.15353E+06         0.00000E+00
    0.15353E+06        -0.42253E+08         0.00000E+00
    0.00000E+00         0.00000E+00        -0.18828E+08
 
   -0.19170E+08         0.15245E+06         0.00000E+00
    0.15245E+06        -0.42498E+08         0.00000E+00
    0.00000E+00         0.00000E+00        -0.18962E+08
 
   -0.19293E+08         0.15137E+06         0.00000E+00
    0.15137E+06        -0.42739E+08         0.00000E+00
    0.00000E+00         0.00000E+00        -0.19094E+08
 
   -0.19413E+08         0.15029E+06         0.00000E+00
    0.15029E+06        -0.42977E+08         0.00000E+00
    0.00000E+00         0.00000E+00        -0.19224E+08
 
   -0.19532E+08         0.14922E+06         0.00000E+00
    0.14922E+06        -0.43210E+08         0.00000E+00
    0.00000E+00         0.00000E+00        -0.19353E+08
 
   -0.19647E+08         0.14817E+06         0.00000E+00
    0.14817E+06        -0.43440E+08         0.00000E+00
    0.00000E+00         0.00000E+00        -0.19481E+08
 
   -0.19761E+08         0.14712E+06         0.00000E+00
    0.14712E+06        -0.43667E+08         0.00000E+00
    0.00000E+00         0.00000E+00        -0.19607E+08
 
   -0.19874E+08         0.14609E+06         0.00000E+00
    0.14609E+06        -0.43891E+08         0.00000E+00
    0.00000E+00         0.00000E+00        -0.19732E+08
 
   -0.19984E+08         0.14508E+06         0.00000E+00
    0.14508E+06        -0.44113E+08         0.00000E+00
    0.00000E+00         0.00000E+00        -0.19856E+08
 
   -0.20093E+08         0.14409E+06         0.00000E+00
    0.14409E+06        -0.44332E+08         0.00000E+00
    0.00000E+00         0.00000E+00        -0.19979E+08
 
   -0.20201E+08         0.14312E+06         0.00000E+00
    0.14312E+06        -0.44549E+08         0.00000E+00
    0.00000E+00         0.00000E+00        -0.20101E+08
 
   -0.20308E+08         0.14218E+06         0.00000E+00
    0.14218E+06        -0.44765E+08         0.00000E+00
    0.00000E+00         0.00000E+00        -0.20222E+08
 
   -0.20414E+08         0.14125E+06         0.00000E+00
    0.14125E+06        -0.44978E+08         0.00000E+00
    0.00000E+00         0.00000E+00        -0.20342E+08
 
   -0.20520E+08         0.14035E+06         0.00000E+00
    0.14035E+06        -0.45191E+08         0.00000E+00
    0.00000E+00         0.00000E+00        -0.20461E+08
 
   -0.20625E+08         0.13947E+06         0.00000E+00
    0.13947E+06        -0.45402E+08         0.00000E+00
    0.00000E+00         0.00000E+00        -0.20580E+08
 
   -0.20729E+08         0.13862E+06         0.00000E+00
    0.13862E+06        -0.45613E+08         0.00000E+00
    0.00000E+00         0.00000E+00        -0.20699E+08
 
   -0.20834E+08         0.13778E+06         0.00000E+00
    0.13778E+06        -0.45823E+08         0.00000E+00
    0.00000E+00         0.00000E+00        -0.20817E+08
 
   -0.20938E+08         0.13696E+06         0.00000E+00
    0.13696E+06        -0.46033E+08         0.00000E+00
    0.00000E+00         0.00000E+00        -0.20935E+08
 
   -0.21043E+08         0.13617E+06         0.00000E+00
    0.13617E+06        -0.46243E+08         0.00000E+00
    0.00000E+00         0.00000E+00        -0.21052E+08
 
   -0.21148E+08         0.13538E+06         0.00000E+00
    0.13538E+06        -0.46454E+08         0.00000E+00
    0.00000E+00         0.00000E+00        -0.21170E+08
 
   -0.21253E+08         0.13461E+06         0.00000E+00
    0.13461E+06        -0.46665E+08         0.00000E+00
    0.00000E+00         0.00000E+00        -0.21288E+08
 
   -0.21360E+08         0.13385E+06         0.00000E+00
    0.13385E+06        -0.46876E+08         0.00000E+00
    0.00000E+00         0.00000E+00        -0.21405E+08
 
   -0.21467E+08         0.13309E+06         0.00000E+00
    0.13309E+06        -0.47089E+08         0.00000E+00
    0.00000E+00         0.00000E+00        -0.21523E+08
 
   -0.21576E+08         0.13233E+06         0.00000E+00
    0.13233E+06        -0.47303E+08         0.00000E+00
    0.00000E+00         0.00000E+00        -0.21641E+08
 
   -0.21686E+08         0.13156E+06         0.00000E+00
    0.13156E+06        -0.47519E+08         0.00000E+00
    0.00000E+00         0.00000E+00        -0.21760E+08
 
   -0.21797E+08         0.13078E+06         0.00000E+00
    0.13078E+06        -0.47737E+08         0.00000E+00
    0.00000E+00         0.00000E+00        -0.21879E+08
 
   -0.21910E+08         0.12999E+06         0.00000E+00
    0.12999E+06        -0.47956E+08         0.00000E+00
    0.00000E+00         0.00000E+00        -0.21998E+08
 
   -0.22025E+08         0.12917E+06         0.00000E+00
    0.12917E+06        -0.48178E+08         0.00000E+00
    0.00000E+00         0.00000E+00        -0.22118E+08
 
   -0.22142E+08         0.12832E+06         0.00000E+00
    0.12832E+06        -0.48403E+08         0.00000E+00
    0.00000E+00         0.00000E+00        -0.22239E+08
 
   -0.22262E+08         0.12743E+06         0.00000E+00
    0.12743E+06        -0.48631E+08         0.00000E+00
    0.00000E+00         0.00000E+00        -0.22361E+08
 
   -0.22384E+08         0.12649E+06         0.00000E+00
    0.12649E+06        -0.48861E+08         0.00000E+00
    0.00000E+00         0.00000E+00        -0.22483E+08
 
   -0.22508E+08         0.12549E+06         0.00000E+00
    0.12549E+06        -0.49096E+08         0.00000E+00
    0.00000E+00         0.00000E+00        -0.22606E+08
 
   -0.22636E+08         0.12442E+06         0.00000E+00
    0.12442E+06        -0.49333E+08         0.00000E+00
    0.00000E+00         0.00000E+00        -0.22730E+08
 
   -0.22767E+08         0.12327E+06         0.00000E+00
    0.12327E+06        -0.49575E+08         0.00000E+00
    0.00000E+00         0.00000E+00        -0.22855E+08
 
   -0.22901E+08         0.12203E+06         0.00000E+00
    0.12203E+06        -0.49821E+08         0.00000E+00
    0.00000E+00         0.00000E+00        -0.22981E+08
 
   -0.23039E+08         0.12067E+06         0.00000E+00
    0.12067E+06        -0.50071E+08         0.00000E+00
    0.00000E+00         0.00000E+00        -0.23109E+08
 
   -0.23181E+08         0.11919E+06         0.00000E+00
    0.11919E+06        -0.50326E+08         0.00000E+00
    0.00000E+00         0.00000E+00        -0.23237E+08
 
   -0.23327E+08         0.11755E+06         0.00000E+00
    0.11755E+06        -0.50586E+08         0.00000E+00
    0.00000E+00         0.00000E+00        -0.23366E+08
 
   -0.23478E+08         0.11573E+06         0.00000E+00
    0.11573E+06        -0.50852E+08         0.00000E+00
    0.00000E+00         0.00000E+00        -0.23496E+08
 
   -0.23633E+08         0.11371E+06         0.00000E+00
    0.11371E+06        -0.51122E+08         0.00000E+00
    0.00000E+00         0.00000E+00        -0.23627E+08
 
   -0.23794E+08         0.11143E+06         0.00000E+00
    0.11143E+06        -0.51399E+08         0.00000E+00
    0.00000E+00         0.00000E+00        -0.23759E+08
 
   -0.23960E+08         0.10887E+06         0.00000E+00
    0.10887E+06        -0.51681E+08         0.00000E+00
    0.00000E+00         0.00000E+00        -0.23892E+08
 
   -0.24132E+08         0.10596E+06         0.00000E+00
    0.10596E+06        -0.51970E+08         0.00000E+00
    0.00000E+00         0.00000E+00        -0.24025E+08
 
   -0.24311E+08         0.10263E+06         0.00000E+00
    0.10263E+06        -0.52265E+08         0.00000E+00
    0.00000E+00         0.00000E+00        -0.24159E+08
 
   -0.24496E+08         0.98817E+05         0.00000E+00
    0.98817E+05        -0.52567E+08         0.00000E+00
    0.00000E+00         0.00000E+00        -0.24294E+08
 
   -0.24690E+08         0.94424E+05         0.00000E+00
    0.94424E+05        -0.52876E+08         0.00000E+00
    0.00000E+00         0.00000E+00        -0.24428E+08
 
   -0.24891E+08         0.89351E+05         0.00000E+00
    0.89351E+05        -0.53193E+08         0.00000E+00
    0.00000E+00         0.00000E+00        -0.24562E+08
 
   -0.25102E+08         0.83484E+05         0.00000E+00
    0.83484E+05        -0.53517E+08         0.00000E+00
    0.00000E+00         0.00000E+00        -0.24696E+08
 
   -0.25323E+08         0.76703E+05         0.00000E+00
    0.76703E+05        -0.53850E+08         0.00000E+00
    0.00000E+00         0.00000E+00        -0.24829E+08
 
   -0.25556E+08         0.68890E+05         0.00000E+00
    0.68890E+05        -0.54191E+08         0.00000E+00
    0.00000E+00         0.00000E+00        -0.24959E+08
 
   -0.25800E+08         0.59937E+05         0.00000E+00
    0.59937E+05        -0.54542E+08         0.00000E+00
    0.00000E+00         0.00000E+00        -0.25088E+08
 
   -0.26059E+08         0.49767E+05         0.00000E+00
    0.49767E+05        -0.54901E+08         0.00000E+00
    0.00000E+00         0.00000E+00        -0.25214E+08
 
   -0.26332E+08         0.38354E+05         0.00000E+00
    0.38354E+05        -0.55270E+08         0.00000E+00
    0.00000E+00         0.00000E+00        -0.25336E+08
 
   -0.26621E+08         0.25754E+05         0.00000E+00
    0.25754E+05        -0.55649E+08         0.00000E+00
    0.00000E+00         0.00000E+00        -0.25454E+08
 
   -0.26928E+08         0.12132E+05         0.00000E+00
    0.12132E+05        -0.56038E+08         0.00000E+00
    0.00000E+00         0.00000E+00        -0.25567E+08
 
   -0.27253E+08        -0.22038E+04         0.00000E+00
   -0.22038E+04        -0.56436E+08         0.00000E+00
    0.00000E+00         0.00000E+00        -0.25674E+08
 
   -0.27598E+08        -0.16827E+05         0.00000E+00
   -0.16827E+05        -0.56844E+08         0.00000E+00
    0.00000E+00         0.00000E+00        -0.25776E+08
 
   -0.27961E+08        -0.31131E+05         0.00000E+00
   -0.31131E+05        -0.57261E+08         0.00000E+00
    0.00000E+00         0.00000E+00        -0.25872E+08
 
   -0.28342E+08        -0.44666E+05         0.00000E+00
   -0.44666E+05        -0.57686E+08         0.00000E+00
    0.00000E+00         0.00000E+00        -0.25962E+08
 
   -0.28739E+08        -0.56389E+05         0.00000E+00
   -0.56389E+05        -0.58119E+08         0.00000E+00
    0.00000E+00         0.00000E+00        -0.26049E+08
 
   -0.29149E+08        -0.66526E+05         0.00000E+00
   -0.66526E+05        -0.58557E+08         0.00000E+00
    0.00000E+00         0.00000E+00        -0.26133E+08
 
   -0.29564E+08        -0.76588E+05         0.00000E+00
   -0.76588E+05        -0.59007E+08         0.00000E+00
    0.00000E+00         0.00000E+00        -0.26228E+08
 
   -0.29952E+08        -0.43082E+05         0.00000E+00
   -0.43082E+05        -0.59422E+08         0.00000E+00
    0.00000E+00         0.00000E+00        -0.26312E+08
 
   -0.92006E+07        -0.36032E+05         0.00000E+00
   -0.36032E+05        -0.27796E+08         0.00000E+00
    0.00000E+00         0.00000E+00        -0.15562E+08
 
   -0.97582E+07        -0.28821E+05         0.00000E+00
   -0.28821E+05        -0.28341E+08         0.00000E+00
    0.00000E+00         0.00000E+00        -0.15566E+08
 
   -0.10322E+08        -0.78468E+04         0.00000E+00
   -0.78468E+04        -0.28855E+08         0.00000E+00
    0.00000E+00         0.00000E+00        -0.15542E+08
 
   -0.10847E+08        -0.52980E+04         0.00000E+00
   -0.52980E+04        -0.29349E+08         0.00000E+00
    0.00000E+00         0.00000E+00        -0.15488E+08
 
   -0.11347E+08         0.19306E+04         0.00000E+00
    0.19306E+04        -0.29844E+08         0.00000E+00
    0.00000E+00         0.00000E+00        -0.15428E+08
 
   -0.11823E+08         0.99889E+04         0.00000E+00
    0.99889E+04        -0.30335E+08         0.00000E+00
    0.00000E+00         0.00000E+00        -0.15373E+08
 
   -0.12275E+08         0.17537E+05         0.00000E+00
    0.17537E+05        -0.30823E+08         0.00000E+00
    0.00000E+00         0.00000E+00        -0.15332E+08
 
   -0.12705E+08         0.24167E+05         0.00000E+00
    0.24167E+05        -0.31306E+08         0.00000E+00
    0.00000E+00         0.00000E+00        -0.15311E+08
 
   -0.13115E+08         0.30477E+05         0.00000E+00
    0.30477E+05        -0.31784E+08         0.00000E+00
    0.00000E+00         0.00000E+00        -0.15313E+08
 
   -0.13505E+08         0.37437E+05         0.00000E+00
    0.37437E+05        -0.32256E+08         0.00000E+00
    0.00000E+00         0.00000E+00        -0.15336E+08
 
   -0.13875E+08         0.45569E+05         0.00000E+00
    0.45569E+05        -0.32723E+08         0.00000E+00
    0.00000E+00         0.00000E+00        -0.15380E+08
 
   -0.14223E+08         0.54775E+05         0.00000E+00
    0.54775E+05        -0.33184E+08         0.00000E+00
    0.00000E+00         0.00000E+00        -0.15442E+08
 
   -0.14548E+08         0.64508E+05         0.00000E+00
    0.64508E+05        -0.33640E+08         0.00000E+00
    0.00000E+00         0.00000E+00        -0.15520E+08
 
   -0.14849E+08         0.74093E+05         0.00000E+00
    0.74093E+05        -0.34089E+08         0.00000E+00
    0.00000E+00         0.00000E+00        -0.15610E+08
 
   -0.15128E+08         0.82963E+05         0.00000E+00
    0.82963E+05        -0.34532E+08         0.00000E+00
    0.00000E+00         0.00000E+00        -0.15710E+08
 
   -0.15385E+08         0.90763E+05         0.00000E+00
    0.90763E+05        -0.34969E+08         0.00000E+00
    0.00000E+00         0.00000E+00        -0.15817E+08
 
   -0.15623E+08         0.97344E+05         0.00000E+00
    0.97344E+05        -0.35399E+08         0.00000E+00
    0.00000E+00         0.00000E+00        -0.15931E+08
 
   -0.15844E+08         0.10272E+06         0.00000E+00
    0.10272E+06        -0.35823E+08         0.00000E+00
    0.00000E+00         0.00000E+00        -0.16048E+08
 
   -0.16049E+08         0.10698E+06         0.00000E+00
    0.10698E+06        -0.36240E+08         0.00000E+00
    0.00000E+00         0.00000E+00        -0.16167E+08
 
   -0.16241E+08         0.11029E+06         0.00000E+00
    0.11029E+06        -0.36650E+08         0.00000E+00
    0.00000E+00         0.00000E+00        -0.16287E+08
 
   -0.16421E+08         0.11280E+06         0.00000E+00
    0.11280E+06        -0.37053E+08         0.00000E+00
    0.00000E+00         0.00000E+00        -0.16408E+08
 
   -0.16590E+08         0.11467E+06         0.00000E+00
    0.11467E+06        -0.37450E+08         0.00000E+00
    0.00000E+00         0.00000E+00        -0.16527E+08
 
   -0.16750E+08         0.11603E+06         0.00000E+00
    0.11603E+06        -0.37840E+08         0.00000E+00
    0.00000E+00         0.00000E+00        -0.16646E+08
 
   -0.16902E+08         0.11698E+06         0.00000E+00
    0.11698E+06        -0.38223E+08         0.00000E+00
    0.00000E+00         0.00000E+00        -0.16764E+08
 
   -0.17070E+08         0.11737E+06         0.00000E+00
    0.11737E+06        -0.38573E+08         0.00000E+00
    0.00000E+00         0.00000E+00        -0.16904E+08
 
   -0.17252E+08         0.11728E+06         0.00000E+00
    0.11728E+06        -0.38894E+08         0.00000E+00
    0.00000E+00         0.00000E+00        -0.17063E+08
 
   -0.17427E+08         0.11701E+06         0.00000E+00
    0.11701E+06        -0.39209E+08         0.00000E+00
    0.00000E+00         0.00000E+00        -0.17221E+08
 
   -0.17597E+08         0.11661E+06         0.00000E+00
    0.11661E+06        -0.39516E+08         0.00000E+00
    0.00000E+00         0.00000E+00        -0.17377E+08
 
   -0.17762E+08         0.11611E+06         0.00000E+00
    0.11611E+06        -0.39817E+08         0.00000E+00
    0.00000E+00         0.00000E+00        -0.17531E+08
 
   -0.17921E+08         0.11553E+06         0.00000E+00
    0.11553E+06        -0.40111E+08         0.00000E+00
    0.00000E+00         0.00000E+00        -0.17683E+08
 
   -0.18076E+08         0.11490E+06         0.00000E+00
    0.11490E+06        -0.40399E+08         0.00000E+00
    0.00000E+00         0.00000E+00        -0.17832E+08
 
   -0.18227E+08         0.11423E+06         0.00000E+00
    0.11423E+06        -0.40680E+08         0.00000E+00
    0.00000E+00         0.00000E+00        -0.17980E+08
 
   -0.18373E+08         0.11353E+06         0.00000E+00
    0.11353E+06        -0.40956E+08         0.00000E+00
    0.00000E+00         0.00000E+00        -0.18126E+08
 
   -0.18515E+08         0.11280E+06         0.00000E+00
    0.11280E+06        -0.41226E+08         0.00000E+00
    0.00000E+00         0.00000E+00        -0.18269E+08
 
   -0.18654E+08         0.11206E+06         0.00000E+00
    0.11206E+06        -0.41491E+08         0.00000E+00
    0.00000E+00         0.00000E+00        -0.18411E+08
 
   -0.18789E+08         0.11131E+06         0.00000E+00
    0.11131E+06        -0.41750E+08         0.00000E+00
    0.00000E+00         0.00000E+00        -0.18550E+08
 
   -0.18920E+08         0.11054E+06         0.00000E+00
    0.11054E+06        -0.42005E+08         0.00000E+00
    0.00000E+00         0.00000E+00        -0.18688E+08
 
   -0.19049E+08         0.10978E+06         0.00000E+00
    0.10978E+06        -0.42254E+08         0.00000E+00
    0.00000E+00         0.00000E+00        -0.18824E+08
 
   -0.19174E+08         0.10900E+06         0.00000E+00
    0.10900E+06        -0.42499E+08         0.00000E+00
    0.00000E+00         0.00000E+00        -0.18958E+08
 
   -0.19297E+08         0.10823E+06         0.00000E+00
    0.10823E+06        -0.42741E+08         0.00000E+00
    0.00000E+00         0.00000E+00        -0.19090E+08
 
   -0.19417E+08         0.10747E+06         0.00000E+00
    0.10747E+06        -0.42978E+08         0.00000E+00
    0.00000E+00         0.00000E+00        -0.19221E+08
 
   -0.19535E+08         0.10671E+06         0.00000E+00
    0.10671E+06        -0.43211E+08         0.00000E+00
    0.00000E+00         0.00000E+00        -0.19350E+08
 
   -0.19650E+08         0.10595E+06         0.00000E+00
    0.10595E+06        -0.43441E+08         0.00000E+00
    0.00000E+00         0.00000E+00        -0.19478E+08
 
   -0.19764E+08         0.10521E+06         0.00000E+00
    0.10521E+06        -0.43668E+08         0.00000E+00
    0.00000E+00         0.00000E+00        -0.19605E+08
 
   -0.19876E+08         0.10447E+06         0.00000E+00
    0.10447E+06        -0.43892E+08         0.00000E+00
    0.00000E+00         0.00000E+00        -0.19730E+08
 
   -0.19986E+08         0.10375E+06         0.00000E+00
    0.10375E+06        -0.44114E+08         0.00000E+00
    0.00000E+00         0.00000E+00        -0.19854E+08
 
   -0.20095E+08         0.10304E+06         0.00000E+00
    0.10304E+06        -0.44333E+08         0.00000E+00
    0.00000E+00         0.00000E+00        -0.19977E+08
 
   -0.20203E+08         0.10235E+06         0.00000E+00
    0.10235E+06        -0.44550E+08         0.00000E+00
    0.00000E+00         0.00000E+00        -0.20099E+08
 
   -0.20310E+08         0.10167E+06         0.00000E+00
    0.10167E+06        -0.44765E+08         0.00000E+00
    0.00000E+00         0.00000E+00        -0.20220E+08
 
   -0.20415E+08         0.10101E+06         0.00000E+00
    0.10101E+06        -0.44979E+08         0.00000E+00
    0.00000E+00         0.00000E+00        -0.20341E+08
 
   -0.20520E+08         0.10037E+06         0.00000E+00
    0.10037E+06        -0.45191E+08         0.00000E+00
    0.00000E+00         0.00000E+00        -0.20460E+08
 
   -0.20625E+08         0.99736E+05         0.00000E+00
    0.99736E+05        -0.45403E+08         0.00000E+00
    0.00000E+00         0.00000E+00        -0.20579E+08
 
   -0.20729E+08         0.99123E+05         0.00000E+00
    0.99123E+05        -0.45613E+08         0.00000E+00
    0.00000E+00         0.00000E+00        -0.20698E+08
 
   -0.20834E+08         0.98523E+05         0.00000E+00
    0.98523E+05        -0.45824E+08         0.00000E+00
    0.00000E+00         0.00000E+00        -0.20816E+08
 
   -0.20938E+08         0.97938E+05         0.00000E+00
    0.97938E+05        -0.46034E+08         0.00000E+00
    0.00000E+00         0.00000E+00        -0.20934E+08
 
   -0.21042E+08         0.97364E+05         0.00000E+00
    0.97364E+05        -0.46243E+08         0.00000E+00
    0.00000E+00         0.00000E+00        -0.21052E+08
 
   -0.21147E+08         0.96801E+05         0.00000E+00
    0.96801E+05        -0.46454E+08         0.00000E+00
    0.00000E+00         0.00000E+00        -0.21170E+08
 
   -0.21253E+08         0.96246E+05         0.00000E+00
    0.96246E+05        -0.46665E+08         0.00000E+00
    0.00000E+00         0.00000E+00        -0.21288E+08
 
   -0.21359E+08         0.95696E+05         0.00000E+00
    0.95696E+05        -0.46876E+08         0.00000E+00
    0.00000E+00         0.00000E+00        -0.21406E+08
 
   -0.21466E+08         0.95148E+05         0.00000E+00
    0.95148E+05        -0.47089E+08         0.00000E+00
    0.00000E+00         0.00000E+00        -0.21524E+08
 
   -0.21574E+08         0.94600E+05         0.00000E+00
    0.94600E+05        -0.47303E+08         0.00000E+00
    0.00000E+00         0.00000E+00        -0.21642E+08
 
   -0.21684E+08         0.94047E+05         0.00000E+00
    0.94047E+05        -0.47519E+08         0.00000E+00
    0.00000E+00         0.00000E+00        -0.21761E+08
 
   -0.21795E+08         0.93485E+05         0.00000E+00
    0.93485E+05        -0.47736E+08         0.00000E+00
    0.00000E+00         0.00000E+00        -0.21880E+08
 
   -0.21908E+08         0.92911E+05         0.00000E+00
    0.92911E+05        -0.47956E+08         0.00000E+00
    0.00000E+00         0.00000E+00        -0.21999E+08
 
   -0.22023E+08         0.92318E+05         0.00000E+00
    0.92318E+05        -0.48178E+08         0.00000E+00
    0.00000E+00         0.00000E+00        -0.22120E+08
 
   -0.22140E+08         0.91703E+05         0.00000E+00
    0.91703E+05        -0.48403E+08         0.00000E+00
    0.00000E+00         0.00000E+00        -0.22241E+08
 
   -0.22259E+08         0.91058E+05         0.00000E+00
    0.91058E+05        -0.48630E+08         0.00000E+00
    0.00000E+00         0.00000E+00        -0.22362E+08
 
   -0.22381E+08         0.90378E+05         0.00000E+00
    0.90378E+05        -0.48861E+08         0.00000E+00
    0.00000E+00         0.00000E+00        -0.22485E+08
 
   -0.22506E+08         0.89655E+05         0.00000E+00
    0.89655E+05        -0.49095E+08         0.00000E+00
    0.00000E+00         0.00000E+00        -0.22608E+08
 
   -0.22633E+08         0.88883E+05         0.00000E+00
    0.88883E+05        -0.49333E+08         0.00000E+00
    0.00000E+00         0.00000E+00        -0.22732E+08
 
   -0.22764E+08         0.88051E+05         0.00000E+00
    0.88051E+05        -0.49575E+08         0.00000E+00
    0.00000E+00         0.00000E+00        -0.22857E+08
 
   -0.22899E+08         0.87151E+05         0.00000E+00
    0.87151E+05        -0.49821E+08         0.00000E+00
    0.00000E+00         0.00000E+00        -0.22983E+08
 
   -0.23036E+08         0.86170E+05         0.00000E+00
    0.86170E+05        -0.50071E+08         0.00000E+00
    0.00000E+00         0.00000E+00        -0.23111E+08
 
   -0.23178E+08         0.85095E+05         0.00000E+00
    0.85095E+05        -0.50326E+08         0.00000E+00
    0.00000E+00         0.00000E+00        -0.23239E+08
 
   -0.23325E+08         0.83911E+05         0.00000E+00
    0.83911E+05        -0.50587E+08         0.00000E+00
    0.00000E+00         0.00000E+00        -0.23368E+08
 
   -0.23475E+08         0.82599E+05         0.00000E+00
    0.82599E+05        -0.50852E+08         0.00000E+00
    0.00000E+00         0.00000E+00        -0.23498E+08
 
   -0.23631E+08         0.81136E+05         0.00000E+00
    0.81136E+05        -0.51123E+08         0.00000E+00
    0.00000E+00         0.00000E+00        -0.23629E+08
 
   -0.23792E+08         0.79494E+05         0.00000E+00
    0.79494E+05        -0.51399E+08         0.00000E+00
    0.00000E+00         0.00000E+00        -0.23761E+08
 
   -0.23958E+08         0.77642E+05         0.00000E+00
    0.77642E+05        -0.51682E+08         0.00000E+00
    0.00000E+00         0.00000E+00        -0.23894E+08
 
   -0.24130E+08         0.75539E+05         0.00000E+00
    0.75539E+05        -0.51971E+08         0.00000E+00
    0.00000E+00         0.00000E+00        -0.24027E+08
 
   -0.24309E+08         0.73137E+05         0.00000E+00
    0.73137E+05        -0.52266E+08         0.00000E+00
    0.00000E+00         0.00000E+00        -0.24161E+08
 
   -0.24496E+08         0.70381E+05         0.00000E+00
    0.70381E+05        -0.52568E+08         0.00000E+00
    0.00000E+00         0.00000E+00        -0.24295E+08
 
   -0.24689E+08         0.67204E+05         0.00000E+00
    0.67204E+05        -0.52878E+08         0.00000E+00
    0.00000E+00         0.00000E+00        -0.24430E+08
 
   -0.24892E+08         0.63531E+05         0.00000E+00
    0.63531E+05        -0.53195E+08         0.00000E+00
    0.00000E+00         0.00000E+00        -0.24563E+08
 
   -0.25103E+08         0.59280E+05         0.00000E+00
    0.59280E+05        -0.53519E+08         0.00000E+00
    0.00000E+00         0.00000E+00        -0.24697E+08
 
   -0.25326E+08         0.54360E+05         0.00000E+00
    0.54360E+05        -0.53852E+08         0.00000E+00
    0.00000E+00         0.00000E+00        -0.24829E+08
 
   -0.25559E+08         0.48683E+05         0.00000E+00
    0.48683E+05        -0.54194E+08         0.00000E+00
    0.00000E+00         0.00000E+00        -0.24959E+08
 
   -0.25805E+08         0.42169E+05         0.00000E+00
    0.42169E+05        -0.54545E+08         0.00000E+00
    0.00000E+00         0.00000E+00        -0.25087E+08
 
   -0.26065E+08         0.34759E+05         0.00000E+00
    0.34759E+05        -0.54905E+08         0.00000E+00
    0.00000E+00         0.00000E+00        -0.25211E+08
 
   -0.26341E+08         0.26430E+05         0.00000E+00
    0.26430E+05        -0.55274E+08         0.00000E+00
    0.00000E+00         0.00000E+00        -0.25332E+08
 
   -0.26633E+08         0.17225E+05         0.00000E+00
    0.17225E+05        -0.55654E+08         0.00000E+00
    0.00000E+00         0.00000E+00        -0.25448E+08
 
   -0.26943E+08         0.72613E+04         0.00000E+00
    0.72613E+04        -0.56044E+08         0.00000E+00
    0.00000E+00         0.00000E+00        -0.25559E+08
 
   -0.27272E+08        -0.32339E+04         0.00000E+00
   -0.32339E+04        -0.56443E+08         0.00000E+00
    0.00000E+00         0.00000E+00        -0.25664E+08
 
   -0.27622E+08        -0.13950E+05         0.00000E+00
   -0.13950E+05        -0.56852E+08         0.00000E+00
    0.00000E+00         0.00000E+00        -0.25763E+08
 
   -0.27990E+08        -0.24464E+05         0.00000E+00
   -0.24464E+05        -0.57270E+08         0.00000E+00
    0.00000E+00         0.00000E+00        -0.25855E+08
 
   -0.28378E+08        -0.34366E+05         0.00000E+00
   -0.34366E+05        -0.57696E+08         0.00000E+00
    0.00000E+00         0.00000E+00        -0.25941E+08
 
   -0.28784E+08        -0.43491E+05         0.00000E+00
   -0.43491E+05        -0.58130E+08         0.00000E+00
    0.00000E+00         0.00000E+00        -0.26023E+08
 
   -0.29203E+08        -0.49953E+05         0.00000E+00
   -0.49953E+05        -0.58568E+08         0.00000E+00
    0.00000E+00         0.00000E+00        -0.26100E+08
 
   -0.29634E+08        -0.63055E+05         0.00000E+00
   -0.63055E+05        -0.59022E+08         0.00000E+00
    0.00000E+00         0.00000E+00        -0.26185E+08
 
   -0.30046E+08        -0.44094E+05         0.00000E+00
   -0.44094E+05        -0.59463E+08         0.00000E+00
    0.00000E+00         0.00000E+00        -0.26277E+08
 
   -0.92036E+07        -0.40002E+05         0.00000E+00
   -0.40002E+05        -0.27779E+08         0.00000E+00
    0.00000E+00         0.00000E+00        -0.15602E+08
 
   -0.97609E+07        -0.10512E+05         0.00000E+00
   -0.10512E+05        -0.28355E+08         0.00000E+00
    0.00000E+00         0.00000E+00        -0.15612E+08
 
   -0.10297E+08        -0.93718E+03         0.00000E+00
   -0.93718E+03        -0.28854E+08         0.00000E+00
    0.00000E+00         0.00000E+00        -0.15579E+08
 
   -0.10803E+08        -0.34724E+04         0.00000E+00
   -0.34724E+04        -0.29350E+08         0.00000E+00
    0.00000E+00         0.00000E+00        -0.15518E+08
 
   -0.11296E+08         0.84359E+03         0.00000E+00
    0.84359E+03        -0.29846E+08         0.00000E+00
    0.00000E+00         0.00000E+00        -0.15449E+08
 
   -0.11769E+08         0.47202E+04         0.00000E+00
    0.47202E+04        -0.30337E+08         0.00000E+00
    0.00000E+00         0.00000E+00        -0.15387E+08
 
   -0.12222E+08         0.89543E+04         0.00000E+00
    0.89543E+04        -0.30824E+08         0.00000E+00
    0.00000E+00         0.00000E+00        -0.15340E+08
 
   -0.12656E+08         0.12543E+05         0.00000E+00
    0.12543E+05        -0.31307E+08         0.00000E+00
    0.00000E+00         0.00000E+00        -0.15313E+08
 
   -0.13073E+08         0.16116E+05         0.00000E+00
    0.16116E+05        -0.31785E+08         0.00000E+00
    0.00000E+00         0.00000E+00        -0.15310E+08
 
   -0.13471E+08         0.20225E+05         0.00000E+00
    0.20225E+05        -0.32257E+08         0.00000E+00
    0.00000E+00         0.00000E+00        -0.15330E+08
 
   -0.13849E+08         0.25222E+05         0.00000E+00
    0.25222E+05        -0.32724E+08         0.00000E+00
    0.00000E+00         0.00000E+00        -0.15371E+08
 
   -0.14205E+08         0.31000E+05         0.00000E+00
    0.31000E+05        -0.33186E+08         0.00000E+00
    0.00000E+00         0.00000E+00        -0.15432E+08
 
   -0.14536E+08         0.37169E+05         0.00000E+00
    0.37169E+05        -0.33641E+08         0.00000E+00
    0.00000E+00         0.00000E+00        -0.15508E+08
 
   -0.14843E+08         0.43264E+05         0.00000E+00
    0.43264E+05        -0.34091E+08         0.00000E+00
    0.00000E+00         0.00000E+00        -0.15598E+08
 
   -0.15126E+08         0.48901E+05         0.00000E+00
    0.48901E+05        -0.34534E+08         0.00000E+00
    0.00000E+00         0.00000E+00        -0.15697E+08
 
   -0.15387E+08         0.53845E+05         0.00000E+00
    0.53845E+05        -0.34970E+08         0.00000E+00
    0.00000E+00         0.00000E+00        -0.15805E+08
 
   -0.15628E+08         0.58002E+05         0.00000E+00
    0.58002E+05        -0.35400E+08         0.00000E+00
    0.00000E+00         0.00000E+00        -0.15919E+08
 
   -0.15850E+08         0.61380E+05         0.00000E+00
    0.61380E+05        -0.35824E+08         0.00000E+00
    0.00000E+00         0.00000E+00        -0.16036E+08
 
   -0.16057E+08         0.64052E+05         0.00000E+00
    0.64052E+05        -0.36240E+08         0.00000E+00
    0.00000E+00         0.00000E+00        -0.16156E+08
 
   -0.16249E+08         0.66114E+05         0.00000E+00
    0.66114E+05        -0.36650E+08         0.00000E+00
    0.00000E+00         0.00000E+00        -0.16277E+08
 
   -0.16429E+08         0.67673E+05         0.00000E+00
    0.67673E+05        -0.37054E+08         0.00000E+00
    0.00000E+00         0.00000E+00        -0.16398E+08
 
   -0.16599E+08         0.68827E+05         0.00000E+00
    0.68827E+05        -0.37450E+08         0.00000E+00
    0.00000E+00         0.00000E+00        -0.16518E+08
 
   -0.16758E+08         0.69663E+05         0.00000E+00
    0.69663E+05        -0.37841E+08         0.00000E+00
    0.00000E+00         0.00000E+00        -0.16637E+08
 
   -0.16910E+08         0.70247E+05         0.00000E+00
    0.70247E+05        -0.38223E+08         0.00000E+00
    0.00000E+00         0.00000E+00        -0.16755E+08
 
   -0.17078E+08         0.70498E+05         0.00000E+00
    0.70498E+05        -0.38573E+08         0.00000E+00
    0.00000E+00         0.00000E+00        -0.16896E+08
 
   -0.17259E+08         0.70446E+05         0.00000E+00
    0.70446E+05        -0.38895E+08         0.00000E+00
    0.00000E+00         0.00000E+00        -0.17056E+08
 
   -0.17435E+08         0.70286E+05         0.00000E+00
    0.70286E+05        -0.39209E+08         0.00000E+00
    0.00000E+00         0.00000E+00        -0.17214E+08
 
   -0.17604E+08         0.70046E+05         0.00000E+00
    0.70046E+05        -0.39517E+08         0.00000E+00
    0.00000E+00         0.00000E+00        -0.17370E+08
 
   -0.17769E+08         0.69746E+05         0.00000E+00
    0.69746E+05        -0.39818E+08         0.00000E+00
    0.00000E+00         0.00000E+00        -0.17524E+08
 
   -0.17928E+08         0.69402E+05         0.00000E+00
    0.69402E+05        -0.40112E+08         0.00000E+00
    0.00000E+00         0.00000E+00        -0.17676E+08
 
   -0.18083E+08         0.69025E+05         0.00000E+00
    0.69025E+05        -0.40400E+08         0.00000E+00
    0.00000E+00         0.00000E+00        -0.17826E+08
 
   -0.18233E+08         0.68623E+05         0.00000E+00
    0.68623E+05        -0.40682E+08         0.00000E+00
    0.00000E+00         0.00000E+00        -0.17974E+08
 
   -0.18379E+08         0.68203E+05         0.00000E+00
    0.68203E+05        -0.40957E+08         0.00000E+00
    0.00000E+00         0.00000E+00        -0.18120E+08
 
   -0.18521E+08         0.67770E+05         0.00000E+00
    0.67770E+05        -0.41227E+08         0.00000E+00
    0.00000E+00         0.00000E+00        -0.18264E+08
 
   -0.18659E+08         0.67326E+05         0.00000E+00
    0.67326E+05        -0.41492E+08         0.00000E+00
    0.00000E+00         0.00000E+00        -0.18406E+08
 
   -0.18794E+08         0.66875E+05         0.00000E+00
    0.66875E+05        -0.41751E+08         0.00000E+00
    0.00000E+00         0.00000E+00        -0.18546E+08
 
   -0.18925E+08         0.66418E+05         0.00000E+00
    0.66418E+05        -0.42006E+08         0.00000E+00
    0.00000E+00         0.00000E+00        -0.18684E+08
 
   -0.19053E+08         0.65958E+05         0.00000E+00
    0.65958E+05        -0.42255E+08         0.00000E+00
    0.00000E+00         0.00000E+00        -0.18820E+08
 
   -0.19178E+08         0.65497E+05         0.00000E+00
    0.65497E+05        -0.42501E+08         0.00000E+00
    0.00000E+00         0.00000E+00        -0.18954E+08
 
   -0.19301E+08         0.65036E+05         0.00000E+00
    0.65036E+05        -0.42742E+08         0.00000E+00
    0.00000E+00         0.00000E+00        -0.19087E+08
 
   -0.19421E+08         0.64577E+05         0.00000E+00
    0.64577E+05        -0.42979E+08         0.00000E+00
    0.00000E+00         0.00000E+00        -0.19218E+08
 
   -0.19538E+08         0.64120E+05         0.00000E+00
    0.64120E+05        -0.43212E+08         0.00000E+00
    0.00000E+00         0.00000E+00        -0.19347E+08
 
   -0.19654E+08         0.63668E+05         0.00000E+00
    0.63668E+05        -0.43442E+08         0.00000E+00
    0.00000E+00         0.00000E+00        -0.19476E+08
 
   -0.19767E+08         0.63221E+05         0.00000E+00
    0.63221E+05        -0.43669E+08         0.00000E+00
    0.00000E+00         0.00000E+00        -0.19602E+08
 
   -0.19879E+08         0.62781E+05         0.00000E+00
    0.62781E+05        -0.43893E+08         0.00000E+00
    0.00000E+00         0.00000E+00        -0.19728E+08
 
   -0.19989E+08         0.62348E+05         0.00000E+00
    0.62348E+05        -0.44115E+08         0.00000E+00
    0.00000E+00         0.00000E+00        -0.19852E+08
 
   -0.20097E+08         0.61923E+05         0.00000E+00
    0.61923E+05        -0.44334E+08         0.00000E+00
    0.00000E+00         0.00000E+00        -0.19975E+08
 
   -0.20205E+08         0.61506E+05         0.00000E+00
    0.61506E+05        -0.44551E+08         0.00000E+00
    0.00000E+00         0.00000E+00        -0.20097E+08
 
   -0.20311E+08         0.61099E+05         0.00000E+00
    0.61099E+05        -0.44766E+08         0.00000E+00
    0.00000E+00         0.00000E+00        -0.20219E+08
 
   -0.20417E+08         0.60701E+05         0.00000E+00
    0.60701E+05        -0.44980E+08         0.00000E+00
    0.00000E+00         0.00000E+00        -0.20339E+08
 
   -0.20521E+08         0.60312E+05         0.00000E+00
    0.60312E+05        -0.45192E+08         0.00000E+00
    0.00000E+00         0.00000E+00        -0.20459E+08
 
   -0.20626E+08         0.59933E+05         0.00000E+00
    0.59933E+05        -0.45403E+08         0.00000E+00
    0.00000E+00         0.00000E+00        -0.20579E+08
 
   -0.20730E+08         0.59563E+05         0.00000E+00
    0.59563E+05        -0.45614E+08         0.00000E+00
    0.00000E+00         0.00000E+00        -0.20698E+08
 
   -0.20834E+08         0.59202E+05         0.00000E+00
    0.59202E+05        -0.45824E+08         0.00000E+00
    0.00000E+00         0.00000E+00        -0.20816E+08
 
   -0.20938E+08         0.58848E+05         0.00000E+00
    0.58848E+05        -0.46034E+08         0.00000E+00
    0.00000E+00         0.00000E+00        -0.20934E+08
 
   -0.21042E+08         0.58502E+05         0.00000E+00
    0.58502E+05        -0.46244E+08         0.00000E+00
    0.00000E+00         0.00000E+00        -0.21052E+08
 
   -0.21147E+08         0.58161E+05         0.00000E+00
    0.58161E+05        -0.46454E+08         0.00000E+00
    0.00000E+00         0.00000E+00        -0.21170E+08
 
   -0.21252E+08         0.57825E+05         0.00000E+00
    0.57825E+05        -0.46665E+08         0.00000E+00
    0.00000E+00         0.00000E+00        -0.21288E+08
 
   -0.21358E+08         0.57491E+05         0.00000E+00
    0.57491E+05        -0.46876E+08         0.00000E+00
    0.00000E+00         0.00000E+00        -0.21406E+08
 
   -0.21465E+08         0.57159E+05         0.00000E+00
    0.57159E+05        -0.47089E+08         0.00000E+00
    0.00000E+00         0.00000E+00        -0.21524E+08
 
   -0.21573E+08         0.56826E+05         0.00000E+00
    0.56826E+05        -0.47303E+08         0.00000E+00
    0.00000E+00         0.00000E+00        -0.21643E+08
 
   -0.21682E+08         0.56490E+05         0.00000E+00
    0.56490E+05        -0.47519E+08         0.00000E+00
    0.00000E+00         0.00000E+00        -0.21762E+08
 
   -0.21793E+08         0.56149E+05         0.00000E+00
    0.56149E+05        -0.47736E+08         0.00000E+00
    0.00000E+00         0.00000E+00        -0.21881E+08
 
   -0.21906E+08         0.55799E+05         0.00000E+00
    0.55799E+05        -0.47956E+08         0.00000E+00
    0.00000E+00         0.00000E+00        -0.22001E+08
 
   -0.22021E+08         0.55438E+05         0.00000E+00
    0.55438E+05        -0.48178E+08         0.00000E+00
    0.00000E+00         0.00000E+00        -0.22121E+08
 
   -0.22138E+08         0.55063E+05         0.00000E+00
    0.55063E+05        -0.48402E+08         0.00000E+00
    0.00000E+00         0.00000E+00        -0.22242E+08
 
   -0.22257E+08         0.54670E+05         0.00000E+00
    0.54670E+05        -0.48630E+08         0.00000E+00
    0.00000E+00         0.00000E+00        -0.22364E+08
 
   -0.22379E+08         0.54255E+05         0.00000E+00
    0.54255E+05        -0.48861E+08         0.00000E+00
    0.00000E+00         0.00000E+00        -0.22486E+08
 
   -0.22503E+08         0.53814E+05         0.00000E+00
    0.53814E+05        -0.49095E+08         0.00000E+00
    0.00000E+00         0.00000E+00        -0.22610E+08
 
   -0.22631E+08         0.53343E+05         0.00000E+00
    0.53343E+05        -0.49333E+08         0.00000E+00
    0.00000E+00         0.00000E+00        -0.22734E+08
 
   -0.22762E+08         0.52836E+05         0.00000E+00
    0.52836E+05        -0.49575E+08         0.00000E+00
    0.00000E+00         0.00000E+00        -0.22859E+08
 
   -0.22896E+08         0.52287E+05         0.00000E+00
    0.52287E+05        -0.49821E+08         0.00000E+00
    0.00000E+00         0.00000E+00        -0.22986E+08
 
   -0.23034E+08         0.51689E+05         0.00000E+00
    0.51689E+05        -0.50071E+08         0.00000E+00
    0.00000E+00         0.00000E+00        -0.23113E+08
 
   -0.23176E+08         0.51034E+05         0.00000E+00
    0.51034E+05        -0.50326E+08         0.00000E+00
    0.00000E+00         0.00000E+00        -0.23241E+08
 
   -0.23322E+08         0.50313E+05         0.00000E+00
    0.50313E+05        -0.50587E+08         0.00000E+00
    0.00000E+00         0.00000E+00        -0.23370E+08
 
   -0.23473E+08         0.49515E+05         0.00000E+00
    0.49515E+05        -0.50852E+08         0.00000E+00
    0.00000E+00         0.00000E+00        -0.23500E+08
 
   -0.23629E+08         0.48624E+05         0.00000E+00
    0.48624E+05        -0.51123E+08         0.00000E+00
    0.00000E+00         0.00000E+00        -0.23631E+08
 
   -0.23790E+08         0.47626E+05         0.00000E+00
    0.47626E+05        -0.51400E+08         0.00000E+00
    0.00000E+00         0.00000E+00        -0.23763E+08
 
   -0.23956E+08         0.46499E+05         0.00000E+00
    0.46499E+05        -0.51682E+08         0.00000E+00
    0.00000E+00         0.00000E+00        -0.23896E+08
 
   -0.24129E+08         0.45220E+05         0.00000E+00
    0.45220E+05        -0.51971E+08         0.00000E+00
    0.00000E+00         0.00000E+00        -0.24029E+08
 
   -0.24308E+08         0.43759E+05         0.00000E+00
    0.43759E+05        -0.52267E+08         0.00000E+00
    0.00000E+00         0.00000E+00        -0.24163E+08
 
   -0.24495E+08         0.42080E+05         0.00000E+00
    0.42080E+05        -0.52570E+08         0.00000E+00
    0.00000E+00         0.00000E+00        -0.24297E+08
 
   -0.24689E+08         0.40144E+05         0.00000E+00
    0.40144E+05        -0.52879E+08         0.00000E+00
    0.00000E+00         0.00000E+00        -0.24431E+08
 
   -0.24892E+08         0.37903E+05         0.00000E+00
    0.37903E+05        -0.53197E+08         0.00000E+00
    0.00000E+00         0.00000E+00        -0.24565E+08
 
   -0.25105E+08         0.35304E+05         0.00000E+00
    0.35304E+05        -0.53522E+08         0.00000E+00
    0.00000E+00         0.00000E+00        -0.24698E+08
 
   -0.25328E+08         0.32293E+05         0.00000E+00
    0.32293E+05        -0.53855E+08         0.00000E+00
    0.00000E+00         0.00000E+00        -0.24829E+08
 
   -0.25562E+08         0.28811E+05         0.00000E+00
    0.28811E+05        -0.54197E+08         0.00000E+00
    0.00000E+00         0.00000E+00        -0.24959E+08
 
   -0.25810E+08         0.24809E+05         0.00000E+00
    0.24809E+05        -0.54549E+08         0.00000E+00
    0.00000E+00         0.00000E+00        -0.25086E+08
 
   -0.26072E+08         0.20246E+05         0.00000E+00
    0.20246E+05        -0.54909E+08         0.00000E+00
    0.00000E+00         0.00000E+00        -0.25210E+08
 
   -0.26350E+08         0.15109E+05         0.00000E+00
    0.15109E+05        -0.55280E+08         0.00000E+00
    0.00000E+00         0.00000E+00        -0.25329E+08
 
   -0.26645E+08         0.94192E+04         0.00000E+00
    0.94192E+04        -0.55660E+08         0.00000E+00
    0.00000E+00         0.00000E+00        -0.25444E+08
 
   -0.26958E+08         0.32553E+04         0.00000E+00
    0.32553E+04        -0.56051E+08         0.00000E+00
    0.00000E+00         0.00000E+00        -0.25553E+08
 
   -0.27292E+08        -0.32602E+04         0.00000E+00
   -0.32602E+04        -0.56451E+08         0.00000E+00
    0.00000E+00         0.00000E+00        -0.25655E+08
 
   -0.27646E+08        -0.98849E+04         0.00000E+00
   -0.98849E+04        -0.56861E+08         0.00000E+00
    0.00000E+00         0.00000E+00        -0.25751E+08
 
   -0.28020E+08        -0.16504E+05         0.00000E+00
   -0.16504E+05        -0.57281E+08         0.00000E+00
    0.00000E+00         0.00000E+00        -0.25839E+08
 
   -0.28415E+08        -0.22477E+05         0.00000E+00
   -0.22477E+05        -0.57708E+08         0.00000E+00
    0.00000E+00         0.00000E+00        -0.25921E+08
 
   -0.28829E+08        -0.28837E+05         0.00000E+00
   -0.28837E+05        -0.58143E+08         0.00000E+00
    0.00000E+00         0.00000E+00        -0.25997E+08
 
   -0.29257E+08        -0.31884E+05         0.00000E+00
   -0.31884E+05        -0.58582E+08         0.00000E+00
    0.00000E+00         0.00000E+00        -0.26068E+08
 
   -0.29702E+08        -0.42066E+05         0.00000E+00
   -0.42066E+05        -0.59030E+08         0.00000E+00
    0.00000E+00         0.00000E+00        -0.26138E+08
 
   -0.30149E+08        -0.44905E+05         0.00000E+00
   -0.44905E+05        -0.59504E+08         0.00000E+00
    0.00000E+00         0.00000E+00        -0.26235E+08
 
   -0.92469E+07        -0.51055E+05         0.00000E+00
   -0.51055E+05        -0.27759E+08         0.00000E+00
    0.00000E+00         0.00000E+00        -0.15646E+08
 
   -0.97837E+07         0.92087E+04         0.00000E+00
    0.92087E+04        -0.28378E+08         0.00000E+00
    0.00000E+00         0.00000E+00        -0.15657E+08
 
   -0.10266E+08        -0.47282E+04         0.00000E+00
   -0.47282E+04        -0.28846E+08         0.00000E+00
    0.00000E+00         0.00000E+00        -0.15613E+08
 
   -0.10755E+08        -0.20690E+04         0.00000E+00
   -0.20690E+04        -0.29354E+08         0.00000E+00
    0.00000E+00         0.00000E+00        -0.15545E+08
 
   -0.11239E+08        -0.19527E+04         0.00000E+00
   -0.19527E+04        -0.29845E+08         0.00000E+00
    0.00000E+00         0.00000E+00        -0.15468E+08
 
   -0.11710E+08        -0.33259E+03         0.00000E+00
   -0.33259E+03        -0.30338E+08         0.00000E+00
    0.00000E+00         0.00000E+00        -0.15398E+08
 
   -0.12165E+08         0.95153E+03         0.00000E+00
    0.95153E+03        -0.30825E+08         0.00000E+00
    0.00000E+00         0.00000E+00        -0.15344E+08
 
   -0.12604E+08         0.21177E+04         0.00000E+00
    0.21177E+04        -0.31308E+08         0.00000E+00
    0.00000E+00         0.00000E+00        -0.15312E+08
 
   -0.13028E+08         0.32623E+04         0.00000E+00
    0.32623E+04        -0.31785E+08         0.00000E+00
    0.00000E+00         0.00000E+00        -0.15305E+08
 
   -0.13434E+08         0.46998E+04         0.00000E+00
    0.46998E+04        -0.32258E+08         0.00000E+00
    0.00000E+00         0.00000E+00        -0.15321E+08
 
   -0.13821E+08         0.65501E+04         0.00000E+00
    0.65501E+04        -0.32725E+08         0.00000E+00
    0.00000E+00         0.00000E+00        -0.15360E+08
 
   -0.14185E+08         0.87561E+04         0.00000E+00
    0.87561E+04        -0.33187E+08         0.00000E+00
    0.00000E+00         0.00000E+00        -0.15419E+08
 
   -0.14524E+08         0.11134E+05         0.00000E+00
    0.11134E+05        -0.33642E+08         0.00000E+00
    0.00000E+00         0.00000E+00        -0.15495E+08
 
   -0.14837E+08         0.13482E+05         0.00000E+00
    0.13482E+05        -0.34091E+08         0.00000E+00
    0.00000E+00         0.00000E+00        -0.15584E+08
 
   -0.15125E+08         0.15639E+05         0.00000E+00
    0.15639E+05        -0.34534E+08         0.00000E+00
    0.00000E+00         0.00000E+00        -0.15684E+08
 
   -0.15389E+08         0.17513E+05         0.00000E+00
    0.17513E+05        -0.34971E+08         0.00000E+00
    0.00000E+00         0.00000E+00        -0.15792E+08
 
   -0.15632E+08         0.19071E+05         0.00000E+00
    0.19071E+05        -0.35401E+08         0.00000E+00
    0.00000E+00         0.00000E+00        -0.15906E+08
 
   -0.15857E+08         0.20324E+05         0.00000E+00
    0.20324E+05        -0.35824E+08         0.00000E+00
    0.00000E+00         0.00000E+00        -0.16024E+08
 
   -0.16064E+08         0.21302E+05         0.00000E+00
    0.21302E+05        -0.36241E+08         0.00000E+00
    0.00000E+00         0.00000E+00        -0.16144E+08
 
   -0.16258E+08         0.22049E+05         0.00000E+00
    0.22049E+05        -0.36651E+08         0.00000E+00
    0.00000E+00         0.00000E+00        -0.16266E+08
 
   -0.16438E+08         0.22606E+05         0.00000E+00
    0.22606E+05        -0.37054E+08         0.00000E+00
    0.00000E+00         0.00000E+00        -0.16388E+08
 
   -0.16608E+08         0.23013E+05         0.00000E+00
    0.23013E+05        -0.37451E+08         0.00000E+00
    0.00000E+00         0.00000E+00        -0.16509E+08
 
   -0.16767E+08         0.23304E+05         0.00000E+00
    0.23304E+05        -0.37841E+08         0.00000E+00
    0.00000E+00         0.00000E+00        -0.16628E+08
 
   -0.16919E+08         0.23505E+05         0.00000E+00
    0.23505E+05        -0.38223E+08         0.00000E+00
    0.00000E+00         0.00000E+00        -0.16747E+08
 
   -0.17087E+08         0.23607E+05         0.00000E+00
    0.23607E+05        -0.38574E+08         0.00000E+00
    0.00000E+00         0.00000E+00        -0.16888E+08
 
   -0.17268E+08         0.23589E+05         0.00000E+00
    0.23589E+05        -0.38896E+08         0.00000E+00
    0.00000E+00         0.00000E+00        -0.17048E+08
 
   -0.17443E+08         0.23534E+05         0.00000E+00
    0.23534E+05        -0.39210E+08         0.00000E+00
    0.00000E+00         0.00000E+00        -0.17206E+08
 
   -0.17612E+08         0.23451E+05         0.00000E+00
    0.23451E+05        -0.39518E+08         0.00000E+00
    0.00000E+00         0.00000E+00        -0.17363E+08
 
   -0.17776E+08         0.23348E+05         0.00000E+00
    0.23348E+05        -0.39819E+08         0.00000E+00
    0.00000E+00         0.00000E+00        -0.17518E+08
 
   -0.17935E+08         0.23231E+05         0.00000E+00
    0.23231E+05        -0.40113E+08         0.00000E+00
    0.00000E+00         0.00000E+00        -0.17670E+08
 
   -0.18090E+08         0.23104E+05         0.00000E+00
    0.23104E+05        -0.40401E+08         0.00000E+00
    0.00000E+00         0.00000E+00        -0.17821E+08
 
   -0.18239E+08         0.22969E+05         0.00000E+00
    0.22969E+05        -0.40683E+08         0.00000E+00
    0.00000E+00         0.00000E+00        -0.17969E+08
 
   -0.18385E+08         0.22828E+05         0.00000E+00
    0.22828E+05        -0.40959E+08         0.00000E+00
    0.00000E+00         0.00000E+00        -0.18115E+08
 
   -0.18527E+08         0.22682E+05         0.00000E+00
    0.22682E+05        -0.41229E+08         0.00000E+00
    0.00000E+00         0.00000E+00        -0.18259E+08
 
   -0.18665E+08         0.22534E+05         0.00000E+00
    0.22534E+05        -0.41493E+08         0.00000E+00
    0.00000E+00         0.00000E+00        -0.18401E+08
 
   -0.18799E+08         0.22383E+05         0.00000E+00
    0.22383E+05        -0.41753E+08         0.00000E+00
    0.00000E+00         0.00000E+00        -0.18542E+08
 
   -0.18930E+08         0.22231E+05         0.00000E+00
    0.22231E+05        -0.42007E+08         0.00000E+00
    0.00000E+00         0.00000E+00        -0.18680E+08
 
   -0.19058E+08         0.22078E+05         0.00000E+00
    0.22078E+05        -0.42257E+08         0.00000E+00
    0.00000E+00         0.00000E+00        -0.18816E+08
 
   -0.19183E+08         0.21924E+05         0.00000E+00
    0.21924E+05        -0.42502E+08         0.00000E+00
    0.00000E+00         0.00000E+00        -0.18951E+08
 
   -0.19305E+08         0.21770E+05         0.00000E+00
    0.21770E+05        -0.42743E+08         0.00000E+00
    0.00000E+00         0.00000E+00        -0.19084E+08
 
   -0.19425E+08         0.21617E+05         0.00000E+00
    0.21617E+05        -0.42980E+08         0.00000E+00
    0.00000E+00         0.00000E+00        -0.19215E+08
 
   -0.19542E+08         0.21465E+05         0.00000E+00
    0.21465E+05        -0.43214E+08         0.00000E+00
    0.00000E+00         0.00000E+00        -0.19345E+08
 
   -0.19657E+08         0.21314E+05         0.00000E+00
    0.21314E+05        -0.43443E+08         0.00000E+00
    0.00000E+00         0.00000E+00        -0.19473E+08
 
   -0.19770E+08         0.21164E+05         0.00000E+00
    0.21164E+05        -0.43670E+08         0.00000E+00
    0.00000E+00         0.00000E+00        -0.19600E+08
 
   -0.19882E+08         0.21017E+05         0.00000E+00
    0.21017E+05        -0.43894E+08         0.00000E+00
    0.00000E+00         0.00000E+00        -0.19726E+08
 
   -0.19991E+08         0.20872E+05         0.00000E+00
    0.20872E+05        -0.44116E+08         0.00000E+00
    0.00000E+00         0.00000E+00        -0.19850E+08
 
   -0.20100E+08         0.20729E+05         0.00000E+00
    0.20729E+05        -0.44335E+08         0.00000E+00
    0.00000E+00         0.00000E+00        -0.19974E+08
 
   -0.20207E+08         0.20589E+05         0.00000E+00
    0.20589E+05        -0.44551E+08         0.00000E+00
    0.00000E+00         0.00000E+00        -0.20096E+08
 
   -0.20313E+08         0.20452E+05         0.00000E+00
    0.20452E+05        -0.44767E+08         0.00000E+00
    0.00000E+00         0.00000E+00        -0.20218E+08
 
   -0.20418E+08         0.20319E+05         0.00000E+00
    0.20319E+05        -0.44980E+08         0.00000E+00
    0.00000E+00         0.00000E+00        -0.20338E+08
 
   -0.20523E+08         0.20188E+05         0.00000E+00
    0.20188E+05        -0.45192E+08         0.00000E+00
    0.00000E+00         0.00000E+00        -0.20459E+08
 
   -0.20627E+08         0.20060E+05         0.00000E+00
    0.20060E+05        -0.45404E+08         0.00000E+00
    0.00000E+00         0.00000E+00        -0.20578E+08
 
   -0.20730E+08         0.19935E+05         0.00000E+00
    0.19935E+05        -0.45614E+08         0.00000E+00
    0.00000E+00         0.00000E+00        -0.20697E+08
 
   -0.20834E+08         0.19813E+05         0.00000E+00
    0.19813E+05        -0.45824E+08         0.00000E+00
    0.00000E+00         0.00000E+00        -0.20816E+08
 
   -0.20938E+08         0.19693E+05         0.00000E+00
    0.19693E+05        -0.46034E+08         0.00000E+00
    0.00000E+00         0.00000E+00        -0.20934E+08
 
   -0.21042E+08         0.19575E+05         0.00000E+00
    0.19575E+05        -0.46244E+08         0.00000E+00
    0.00000E+00         0.00000E+00        -0.21052E+08
 
   -0.21146E+08         0.19459E+05         0.00000E+00
    0.19459E+05        -0.46454E+08         0.00000E+00
    0.00000E+00         0.00000E+00        -0.21171E+08
 
   -0.21251E+08         0.19345E+05         0.00000E+00
    0.19345E+05        -0.46665E+08         0.00000E+00
    0.00000E+00         0.00000E+00        -0.21289E+08
 
   -0.21357E+08         0.19231E+05         0.00000E+00
    0.19231E+05        -0.46876E+08         0.00000E+00
    0.00000E+00         0.00000E+00        -0.21407E+08
 
   -0.21464E+08         0.19118E+05         0.00000E+00
    0.19118E+05        -0.47089E+08         0.00000E+00
    0.00000E+00         0.00000E+00        -0.21525E+08
 
   -0.21572E+08         0.19003E+05         0.00000E+00
    0.19003E+05        -0.47303E+08         0.00000E+00
    0.00000E+00         0.00000E+00        -0.21644E+08
 
   -0.21681E+08         0.18888E+05         0.00000E+00
    0.18888E+05        -0.47518E+08         0.00000E+00
    0.00000E+00         0.00000E+00        -0.21763E+08
 
   -0.21792E+08         0.18771E+05         0.00000E+00
    0.18771E+05        -0.47736E+08         0.00000E+00
    0.00000E+00         0.00000E+00        -0.21882E+08
 
   -0.21904E+08         0.18650E+05         0.00000E+00
    0.18650E+05        -0.47955E+08         0.00000E+00
    0.00000E+00         0.00000E+00        -0.22002E+08
 
   -0.22019E+08         0.18526E+05         0.00000E+00
    0.18526E+05        -0.48177E+08         0.00000E+00
    0.00000E+00         0.00000E+00        -0.22123E+08
 
   -0.22136E+08         0.18396E+05         0.00000E+00
    0.18396E+05        -0.48402E+08         0.00000E+00
    0.00000E+00         0.00000E+00        -0.22244E+08
 
   -0.22255E+08         0.18260E+05         0.00000E+00
    0.18260E+05        -0.48630E+08         0.00000E+00
    0.00000E+00         0.00000E+00        -0.22366E+08
 
   -0.22376E+08         0.18117E+05         0.00000E+00
    0.18117E+05        -0.48860E+08         0.00000E+00
    0.00000E+00         0.00000E+00        -0.22488E+08
 
   -0.22501E+08         0.17965E+05         0.00000E+00
    0.17965E+05        -0.49095E+08         0.00000E+00
    0.00000E+00         0.00000E+00        -0.22612E+08
 
   -0.22628E+08         0.17802E+05         0.00000E+00
    0.17802E+05        -0.49332E+08         0.00000E+00
    0.00000E+00         0.00000E+00        -0.22736E+08
 
   -0.22759E+08         0.17626E+05         0.00000E+00
    0.17626E+05        -0.49574E+08         0.00000E+00
    0.00000E+00         0.00000E+00        -0.22861E+08
 
   -0.22893E+08         0.17437E+05         0.00000E+00
    0.17437E+05        -0.49820E+08         0.00000E+00
    0.00000E+00         0.00000E+00        -0.22988E+08
 
   -0.23031E+08         0.17230E+05         0.00000E+00
    0.17230E+05        -0.50071E+08         0.00000E+00
    0.00000E+00         0.00000E+00        -0.23115E+08
 
   -0.23173E+08         0.17004E+05         0.00000E+00
    0.17004E+05        -0.50326E+08         0.00000E+00
    0.00000E+00         0.00000E+00        -0.23243E+08
 
   -0.23320E+08         0.16756E+05         0.00000E+00
    0.16756E+05        -0.50587E+08         0.00000E+00
    0.00000E+00         0.00000E+00        -0.23372E+08
 
   -0.23471E+08         0.16481E+05         0.00000E+00
    0.16481E+05        -0.50852E+08         0.00000E+00
    0.00000E+00         0.00000E+00        -0.23503E+08
 
   -0.23626E+08         0.16174E+05         0.00000E+00
    0.16174E+05        -0.51123E+08         0.00000E+00
    0.00000E+00         0.00000E+00        -0.23634E+08
 
   -0.23788E+08         0.15831E+05         0.00000E+00
    0.15831E+05        -0.51400E+08         0.00000E+00
    0.00000E+00         0.00000E+00        -0.23766E+08
 
   -0.23955E+08         0.15443E+05         0.00000E+00
    0.15443E+05        -0.51683E+08         0.00000E+00
    0.00000E+00         0.00000E+00        -0.23898E+08
 
   -0.24128E+08         0.15003E+05         0.00000E+00
    0.15003E+05        -0.51973E+08         0.00000E+00
    0.00000E+00         0.00000E+00        -0.24032E+08
 
   -0.24307E+08         0.14498E+05         0.00000E+00
    0.14498E+05        -0.52268E+08         0.00000E+00
    0.00000E+00         0.00000E+00        -0.24165E+08
 
   -0.24494E+08         0.13918E+05         0.00000E+00
    0.13918E+05        -0.52571E+08         0.00000E+00
    0.00000E+00         0.00000E+00        -0.24299E+08
 
   -0.24689E+08         0.13247E+05         0.00000E+00
    0.13247E+05        -0.52881E+08         0.00000E+00
    0.00000E+00         0.00000E+00        -0.24433E+08
 
   -0.24893E+08         0.12468E+05         0.00000E+00
    0.12468E+05        -0.53199E+08         0.00000E+00
    0.00000E+00         0.00000E+00        -0.24567E+08
 
   -0.25106E+08         0.11560E+05         0.00000E+00
    0.11560E+05        -0.53525E+08         0.00000E+00
    0.00000E+00         0.00000E+00        -0.24699E+08
 
   -0.25330E+08         0.10504E+05         0.00000E+00
    0.10504E+05        -0.53859E+08         0.00000E+00
    0.00000E+00         0.00000E+00        -0.24830E+08
 
   -0.25566E+08         0.92774E+04         0.00000E+00
    0.92774E+04        -0.54201E+08         0.00000E+00
    0.00000E+00         0.00000E+00        -0.24959E+08
 
   -0.25815E+08         0.78597E+04         0.00000E+00
    0.78597E+04        -0.54553E+08         0.00000E+00
    0.00000E+00         0.00000E+00        -0.25086E+08
 
   -0.26079E+08         0.62353E+04         0.00000E+00
    0.62353E+04        -0.54914E+08         0.00000E+00
    0.00000E+00         0.00000E+00        -0.25209E+08
 
   -0.26359E+08         0.43965E+04         0.00000E+00
    0.43965E+04        -0.55286E+08         0.00000E+00
    0.00000E+00         0.00000E+00        -0.25327E+08
 
   -0.26656E+08         0.23507E+04         0.00000E+00
    0.23507E+04        -0.55667E+08         0.00000E+00
    0.00000E+00         0.00000E+00        -0.25440E+08
 
   -0.26973E+08         0.12081E+03         0.00000E+00
    0.12081E+03        -0.56059E+08         0.00000E+00
    0.00000E+00         0.00000E+00        -0.25547E+08
 
   -0.27311E+08        -0.22366E+04         0.00000E+00
   -0.22366E+04        -0.56461E+08         0.00000E+00
    0.00000E+00         0.00000E+00        -0.25647E+08
 
   -0.27670E+08        -0.46732E+04         0.00000E+00
   -0.46732E+04        -0.56872E+08         0.00000E+00
    0.00000E+00         0.00000E+00        -0.25740E+08
 
   -0.28051E+08        -0.70319E+04         0.00000E+00
   -0.70319E+04        -0.57292E+08         0.00000E+00
    0.00000E+00         0.00000E+00        -0.25825E+08
 
   -0.28453E+08        -0.94681E+04         0.00000E+00
   -0.94681E+04        -0.57721E+08         0.00000E+00
    0.00000E+00         0.00000E+00        -0.25903E+08
 
   -0.28874E+08        -0.11168E+05         0.00000E+00
   -0.11168E+05        -0.58155E+08         0.00000E+00
    0.00000E+00         0.00000E+00        -0.25972E+08
 
   -0.29316E+08        -0.15073E+05         0.00000E+00
   -0.15073E+05        -0.58601E+08         0.00000E+00
    0.00000E+00         0.00000E+00        -0.26040E+08
 
   -0.29763E+08        -0.10376E+05         0.00000E+00
   -0.10376E+05        -0.59030E+08         0.00000E+00
    0.00000E+00         0.00000E+00        -0.26090E+08
 
   -0.30266E+08        -0.45024E+05         0.00000E+00
   -0.45024E+05        -0.59543E+08         0.00000E+00
    0.00000E+00         0.00000E+00        -0.26183E+08
 
TENSORS stresstot double 
   -0.84262E+08         0.32721E+06         0.00000E+00
    0.32721E+06        -0.96947E+08         0.00000E+00
    0.00000E+00         0.00000E+00        -0.84395E+08
 
   -0.83817E+08         0.84783E+06         0.00000E+00
    0.84783E+06        -0.96686E+08         0.00000E+00
    0.00000E+00         0.00000E+00        -0.83895E+08
 
   -0.83335E+08         0.11902E+07         0.00000E+00
    0.11902E+07        -0.96561E+08         0.00000E+00
    0.00000E+00         0.00000E+00        -0.83395E+08
 
   -0.82850E+08         0.14571E+07         0.00000E+00
    0.14571E+07        -0.96518E+08         0.00000E+00
    0.00000E+00         0.00000E+00        -0.82898E+08
 
   -0.82365E+08         0.16700E+07         0.00000E+00
    0.16700E+07        -0.96544E+08         0.00000E+00
    0.00000E+00         0.00000E+00        -0.82404E+08
 
   -0.81882E+08         0.18399E+07         0.00000E+00
    0.18399E+07        -0.96625E+08         0.00000E+00
    0.00000E+00         0.00000E+00        -0.81912E+08
 
   -0.81402E+08         0.19703E+07         0.00000E+00
    0.19703E+07        -0.96753E+08         0.00000E+00
    0.00000E+00         0.00000E+00        -0.81425E+08
 
   -0.80929E+08         0.20576E+07         0.00000E+00
    0.20576E+07        -0.96920E+08         0.00000E+00
    0.00000E+00         0.00000E+00        -0.80942E+08
 
   -0.80484E+08         0.20739E+07         0.00000E+00
    0.20739E+07        -0.97126E+08         0.00000E+00
    0.00000E+00         0.00000E+00        -0.80482E+08
 
   -0.80180E+08         0.20227E+07         0.00000E+00
    0.20227E+07        -0.97194E+08         0.00000E+00
    0.00000E+00         0.00000E+00        -0.80185E+08
 
   -0.79948E+08         0.19942E+07         0.00000E+00
    0.19942E+07        -0.97176E+08         0.00000E+00
    0.00000E+00         0.00000E+00        -0.79964E+08
 
   -0.79720E+08         0.20049E+07         0.00000E+00
    0.20049E+07        -0.97177E+08         0.00000E+00
    0.00000E+00         0.00000E+00        -0.79739E+08
 
   -0.79489E+08         0.20334E+07         0.00000E+00
    0.20334E+07        -0.97197E+08         0.00000E+00
    0.00000E+00         0.00000E+00        -0.79509E+08
 
   -0.79254E+08         0.20713E+07         0.00000E+00
    0.20713E+07        -0.97227E+08         0.00000E+00
    0.00000E+00         0.00000E+00        -0.79273E+08
 
   -0.79014E+08         0.21132E+07         0.00000E+00
    0.21132E+07        -0.97262E+08         0.00000E+00
    0.00000E+00         0.00000E+00        -0.79033E+08
 
   -0.78770E+08         0.21556E+07         0.00000E+00
    0.21556E+07        -0.97300E+08         0.00000E+00
    0.00000E+00         0.00000E+00        -0.78787E+08
 
   -0.78521E+08         0.21966E+07         0.00000E+00
    0.21966E+07        -0.97337E+08         0.00000E+00
    0.00000E+00         0.00000E+00        -0.78537E+08
 
   -0.78268E+08         0.22347E+07         0.00000E+00
    0.22347E+07        -0.97374E+08         0.00000E+00
    0.00000E+00         0.00000E+00        -0.78282E+08
 
   -0.78011E+08         0.22691E+07         0.00000E+00
    0.22691E+07        -0.97408E+08         0.00000E+00
    0.00000E+00         0.00000E+00        -0.78024E+08
 
   -0.77751E+08         0.22994E+07         0.00000E+00
    0.22994E+07        -0.97440E+08         0.00000E+00
    0.00000E+00         0.00000E+00        -0.77763E+08
 
   -0.77489E+08         0.23254E+07         0.00000E+00
    0.23254E+07        -0.97469E+08         0.00000E+00
    0.00000E+00         0.00000E+00        -0.77499E+08
 
   -0.77225E+08         0.23471E+07         0.00000E+00
    0.23471E+07        -0.97495E+08         0.00000E+00
    0.00000E+00         0.00000E+00        -0.77233E+08
 
   -0.76959E+08         0.23646E+07         0.00000E+00
    0.23646E+07        -0.97518E+08         0.00000E+00
    0.00000E+00         0.00000E+00        -0.76966E+08
 
   -0.76693E+08         0.23781E+07         0.00000E+00
    0.23781E+07        -0.97538E+08         0.00000E+00
    0.00000E+00         0.00000E+00        -0.76699E+08
 
   -0.76426E+08         0.23879E+07         0.00000E+00
    0.23879E+07        -0.97556E+08         0.00000E+00
    0.00000E+00         0.00000E+00        -0.76431E+08
 
   -0.76160E+08         0.23944E+07         0.00000E+00
    0.23944E+07        -0.97572E+08         0.00000E+00
    0.00000E+00         0.00000E+00        -0.76164E+08
 
   -0.75913E+08         0.23937E+07         0.00000E+00
    0.23937E+07        -0.97566E+08         0.00000E+00
    0.00000E+00         0.00000E+00        -0.75916E+08
 
   -0.75706E+08         0.23814E+07         0.00000E+00
    0.23814E+07        -0.97517E+08         0.00000E+00
    0.00000E+00         0.00000E+00        -0.75708E+08
 
   -0.75505E+08         0.23659E+07         0.00000E+00
    0.23659E+07        -0.97461E+08         0.00000E+00
    0.00000E+00         0.00000E+00        -0.75507E+08
 
   -0.75307E+08         0.23488E+07         0.00000E+00
    0.23488E+07        -0.97403E+08         0.00000E+00
    0.00000E+00         0.00000E+00        -0.75308E+08
 
   -0.75109E+08         0.23302E+07         0.00000E+00
    0.23302E+07        -0.97344E+08         0.00000E+00
    0.00000E+00         0.00000E+00        -0.75110E+08
 
   -0.74914E+08         0.23106E+07         0.00000E+00
    0.23106E+07        -0.97284E+08         0.00000E+00
    0.00000E+00         0.00000E+00        -0.74914E+08
 
   -0.74720E+08         0.22901E+07         0.00000E+00
    0.22901E+07        -0.97222E+08         0.00000E+00
    0.00000E+00         0.00000E+00        -0.74720E+08
 
   -0.74529E+08         0.22691E+07         0.00000E+00
    0.22691E+07        -0.97160E+08         0.00000E+00
    0.00000E+00         0.00000E+00        -0.74528E+08
 
   -0.74339E+08         0.22476E+07         0.00000E+00
    0.22476E+07        -0.97097E+08         0.00000E+00
    0.00000E+00         0.00000E+00        -0.74339E+08
 
   -0.74152E+08         0.22260E+07         0.00000E+00
    0.22260E+07        -0.97034E+08         0.00000E+00
    0.00000E+00         0.00000E+00        -0.74151E+08
 
   -0.73966E+08         0.22043E+07         0.00000E+00
    0.22043E+07        -0.96970E+08         0.00000E+00
    0.00000E+00         0.00000E+00        -0.73965E+08
 
   -0.73782E+08         0.21827E+07         0.00000E+00
    0.21827E+07        -0.96906E+08         0.00000E+00
    0.00000E+00         0.00000E+00        -0.73781E+08
 
   -0.73600E+08         0.21613E+07         0.00000E+00
    0.21613E+07        -0.96842E+08         0.00000E+00
    0.00000E+00         0.00000E+00        -0.73599E+08
 
   -0.73421E+08         0.21402E+07         0.00000E+00
    0.21402E+07        -0.96777E+08         0.00000E+00
    0.00000E+00         0.00000E+00        -0.73419E+08
 
   -0.73242E+08         0.21196E+07         0.00000E+00
    0.21196E+07        -0.96712E+08         0.00000E+00
    0.00000E+00         0.00000E+00        -0.73241E+08
 
   -0.73066E+08         0.20994E+07         0.00000E+00
    0.20994E+07        -0.96647E+08         0.00000E+00
    0.00000E+00         0.00000E+00        -0.73065E+08
 
   -0.72891E+08         0.20797E+07         0.00000E+00
    0.20797E+07        -0.96583E+08         0.00000E+00
    0.00000E+00         0.00000E+00        -0.72890E+08
 
   -0.72718E+08         0.20607E+07         0.00000E+00
    0.20607E+07        -0.96518E+08         0.00000E+00
    0.00000E+00         0.00000E+00        -0.72717E+08
 
   -0.72546E+08         0.20423E+07         0.00000E+00
    0.20423E+07        -0.96453E+08         0.00000E+00
    0.00000E+00         0.00000E+00        -0.72545E+08
 
   -0.72376E+08         0.20245E+07         0.00000E+00
    0.20245E+07        -0.96388E+08         0.00000E+00
    0.00000E+00         0.00000E+00        -0.72375E+08
 
   -0.72207E+08         0.20075E+07         0.00000E+00
    0.20075E+07        -0.96324E+08         0.00000E+00
    0.00000E+00         0.00000E+00        -0.72206E+08
 
   -0.72039E+08         0.19911E+07         0.00000E+00
    0.19911E+07        -0.96259E+08         0.00000E+00
    0.00000E+00         0.00000E+00        -0.72038E+08
 
   -0.71872E+08         0.19755E+07         0.00000E+00
    0.19755E+07        -0.96195E+08         0.00000E+00
    0.00000E+00         0.00000E+00        -0.71871E+08
 
   -0.71706E+08         0.19606E+07         0.00000E+00
    0.19606E+07        -0.96130E+08         0.00000E+00
    0.00000E+00         0.00000E+00        -0.71705E+08
 
   -0.71541E+08         0.19465E+07         0.00000E+00
    0.19465E+07        -0.96067E+08         0.00000E+00
    0.00000E+00         0.00000E+00        -0.71541E+08
 
   -0.71377E+08         0.19330E+07         0.00000E+00
    0.19330E+07        -0.96003E+08         0.00000E+00
    0.00000E+00         0.00000E+00        -0.71377E+08
 
   -0.71214E+08         0.19202E+07         0.00000E+00
    0.19202E+07        -0.95939E+08         0.00000E+00
    0.00000E+00         0.00000E+00        -0.71213E+08
 
   -0.71051E+08         0.19081E+07         0.00000E+00
    0.19081E+07        -0.95876E+08         0.00000E+00
    0.00000E+00         0.00000E+00        -0.71050E+08
 
   -0.70888E+08         0.18967E+07         0.00000E+00
    0.18967E+07        -0.95813E+08         0.00000E+00
    0.00000E+00         0.00000E+00        -0.70888E+08
 
   -0.70726E+08         0.18858E+07         0.00000E+00
    0.18858E+07        -0.95751E+08         0.00000E+00
    0.00000E+00         0.00000E+00        -0.70726E+08
 
   -0.70565E+08         0.18756E+07         0.00000E+00
    0.18756E+07        -0.95688E+08         0.00000E+00
    0.00000E+00         0.00000E+00        -0.70564E+08
 
   -0.70403E+08         0.18658E+07         0.00000E+00
    0.18658E+07        -0.95627E+08         0.00000E+00
    0.00000E+00         0.00000E+00        -0.70403E+08
 
   -0.70241E+08         0.18565E+07         0.00000E+00
    0.18565E+07        -0.95566E+08         0.00000E+00
    0.00000E+00         0.00000E+00        -0.70242E+08
 
   -0.70080E+08         0.18477E+07         0.00000E+00
    0.18477E+07        -0.95505E+08         0.00000E+00
    0.00000E+00         0.00000E+00        -0.70080E+08
 
   -0.69918E+08         0.18392E+07         0.00000E+00
    0.18392E+07        -0.95445E+08         0.00000E+00
    0.00000E+00         0.00000E+00        -0.69919E+08
 
   -0.69757E+08         0.18310E+07         0.00000E+00
    0.18310E+07        -0.95385E+08         0.00000E+00
    0.00000E+00         0.00000E+00        -0.69757E+08
 
   -0.69595E+08         0.18229E+07         0.00000E+00
    0.18229E+07        -0.95326E+08         0.00000E+00
    0.00000E+00         0.00000E+00        -0.69595E+08
 
   -0.69432E+08         0.18150E+07         0.00000E+00
    0.18150E+07        -0.95268E+08         0.00000E+00
    0.00000E+00         0.00000E+00        -0.69433E+08
 
   -0.69270E+08         0.18071E+07         0.00000E+00
    0.18071E+07        -0.95211E+08         0.00000E+00
    0.00000E+00         0.00000E+00        -0.69270E+08
 
   -0.69107E+08         0.17991E+07         0.00000E+00
    0.17991E+07        -0.95155E+08         0.00000E+00
    0.00000E+00         0.00000E+00        -0.69107E+08
 
   -0.68943E+08         0.17909E+07         0.00000E+00
    0.17909E+07        -0.95100E+08         0.00000E+00
    0.00000E+00         0.00000E+00        -0.68943E+08
 
   -0.68779E+08         0.17823E+07         0.00000E+00
    0.17823E+07        -0.95046E+08         0.00000E+00
    0.00000E+00         0.00000E+00        -0.68779E+08
 
   -0.68614E+08         0.17733E+07         0.00000E+00
    0.17733E+07        -0.94994E+08         0.00000E+00
    0.00000E+00         0.00000E+00        -0.68614E+08
 
   -0.68449E+08         0.17636E+07         0.00000E+00
    0.17636E+07        -0.94943E+08         0.00000E+00
    0.00000E+00         0.00000E+00        -0.68449E+08
 
   -0.68283E+08         0.17532E+07         0.00000E+00
    0.17532E+07        -0.94893E+08         0.00000E+00
    0.00000E+00         0.00000E+00        -0.68282E+08
 
   -0.68116E+08         0.17418E+07         0.00000E+00
    0.17418E+07        -0.94846E+08         0.00000E+00
    0.00000E+00         0.00000E+00        -0.68116E+08
 
   -0.67949E+08         0.17292E+07         0.00000E+00
    0.17292E+07        -0.94800E+08         0.00000E+00
    0.00000E+00         0.00000E+00        -0.67948E+08
 
   -0.67781E+08         0.17153E+07         0.00000E+00
    0.17153E+07        -0.94757E+08         0.00000E+00
    0.00000E+00         0.00000E+00        -0.67780E+08
 
   -0.67613E+08         0.16998E+07         0.00000E+00
    0.16998E+07        -0.94717E+08         0.00000E+00
    0.00000E+00         0.00000E+00        -0.67612E+08
 
   -0.67444E+08         0.16824E+07         0.00000E+00
    0.16824E+07        -0.94679E+08         0.00000E+00
    0.00000E+00         0.00000E+00        -0.67443E+08
 
   -0.67275E+08         0.16630E+07         0.00000E+00
    0.16630E+07        -0.94645E+08         0.00000E+00
    0.00000E+00         0.00000E+00        -0.67273E+08
 
   -0.67106E+08         0.16413E+07         0.00000E+00
    0.16413E+07        -0.94614E+08         0.00000E+00
    0.00000E+00         0.00000E+00        -0.67103E+08
 
   -0.66937E+08         0.16170E+07         0.00000E+00
    0.16170E+07        -0.94586E+08         0.00000E+00
    0.00000E+00         0.00000E+00        -0.66933E+08
 
   -0.66767E+08         0.15899E+07         0.00000E+00
    0.15899E+07        -0.94563E+08         0.00000E+00
    0.00000E+00         0.00000E+00        -0.66763E+08
 
   -0.66598E+08         0.15598E+07         0.00000E+00
    0.15598E+07        -0.94545E+08         0.00000E+00
    0.00000E+00         0.00000E+00        -0.66593E+08
 
   -0.66429E+08         0.15264E+07         0.00000E+00
    0.15264E+07        -0.94531E+08         0.00000E+00
    0.00000E+00         0.00000E+00        -0.66423E+08
 
   -0.66260E+08         0.14895E+07         0.00000E+00
    0.14895E+07        -0.94522E+08         0.00000E+00
    0.00000E+00         0.00000E+00        -0.66254E+08
 
   -0.66091E+08         0.14492E+07         0.00000E+00
    0.14492E+07        -0.94519E+08         0.00000E+00
    0.00000E+00         0.00000E+00        -0.66085E+08
 
   -0.65923E+08         0.14052E+07         0.00000E+00
    0.14052E+07        -0.94520E+08         0.00000E+00
    0.00000E+00         0.00000E+00        -0.65916E+08
 
   -0.65756E+08         0.13578E+07         0.00000E+00
    0.13578E+07        -0.94527E+08         0.00000E+00
    0.00000E+00         0.00000E+00        -0.65748E+08
 
   -0.65588E+08         0.13072E+07         0.00000E+00
    0.13072E+07        -0.94538E+08         0.00000E+00
    0.00000E+00         0.00000E+00        -0.65580E+08
 
   -0.65421E+08         0.12536E+07         0.00000E+00
    0.12536E+07        -0.94553E+08         0.00000E+00
    0.00000E+00         0.00000E+00        -0.65412E+08
 
   -0.65253E+08         0.11975E+07         0.00000E+00
    0.11975E+07        -0.94571E+08         0.00000E+00
    0.00000E+00         0.00000E+00        -0.65243E+08
 
   -0.65084E+08         0.11395E+07         0.00000E+00
    0.11395E+07        -0.94589E+08         0.00000E+00
    0.00000E+00         0.00000E+00        -0.65074E+08
 
   -0.64912E+08         0.10803E+07         0.00000E+00
    0.10803E+07        -0.94607E+08         0.00000E+00
    0.00000E+00         0.00000E+00        -0.64902E+08
 
   -0.64737E+08         0.10204E+07         0.00000E+00
    0.10204E+07        -0.94621E+08         0.00000E+00
    0.00000E+00         0.00000E+00        -0.64726E+08
 
   -0.64557E+08         0.95992E+06         0.00000E+00
    0.95992E+06        -0.94628E+08         0.00000E+00
    0.00000E+00         0.00000E+00        -0.64546E+08
 
   -0.64370E+08         0.89854E+06         0.00000E+00
    0.89854E+06        -0.94625E+08         0.00000E+00
    0.00000E+00         0.00000E+00        -0.64358E+08
 
   -0.64174E+08         0.83459E+06         0.00000E+00
    0.83459E+06        -0.94607E+08         0.00000E+00
    0.00000E+00         0.00000E+00        -0.64162E+08
 
   -0.63967E+08         0.76467E+06         0.00000E+00
    0.76467E+06        -0.94570E+08         0.00000E+00
    0.00000E+00         0.00000E+00        -0.63953E+08
 
   -0.63750E+08         0.68235E+06         0.00000E+00
    0.68235E+06        -0.94513E+08         0.00000E+00
    0.00000E+00         0.00000E+00        -0.63732E+08
 
   -0.63519E+08         0.57658E+06         0.00000E+00
    0.57658E+06        -0.94431E+08         0.00000E+00
    0.00000E+00         0.00000E+00        -0.63495E+08
 
   -0.63278E+08         0.42933E+06         0.00000E+00
    0.42933E+06        -0.94330E+08         0.00000E+00
    0.00000E+00         0.00000E+00        -0.63245E+08
 
   -0.63024E+08         0.17146E+06         0.00000E+00
    0.17146E+06        -0.94178E+08         0.00000E+00
    0.00000E+00         0.00000E+00        -0.62953E+08
 
   -0.84008E+08         0.27816E+06         0.00000E+00
    0.27816E+06        -0.97064E+08         0.00000E+00
    0.00000E+00         0.00000E+00        -0.84395E+08
 
   -0.83657E+08         0.75340E+06         0.00000E+00
    0.75340E+06        -0.96768E+08         0.00000E+00
    0.00000E+00         0.00000E+00        -0.83895E+08
 
   -0.83213E+08         0.10971E+07         0.00000E+00
    0.10971E+07        -0.96619E+08         0.00000E+00
    0.00000E+00         0.00000E+00        -0.83395E+08
 
   -0.82753E+08         0.13618E+07         0.00000E+00
    0.13618E+07        -0.96565E+08         0.00000E+00
    0.00000E+00         0.00000E+00        -0.82898E+08
 
   -0.82287E+08         0.15748E+07         0.00000E+00
    0.15748E+07        -0.96582E+08         0.00000E+00
    0.00000E+00         0.00000E+00        -0.82404E+08
 
   -0.81820E+08         0.17450E+07         0.00000E+00
    0.17450E+07        -0.96655E+08         0.00000E+00
    0.00000E+00         0.00000E+00        -0.81912E+08
 
   -0.81356E+08         0.18763E+07         0.00000E+00
    0.18763E+07        -0.96775E+08         0.00000E+00
    0.00000E+00         0.00000E+00        -0.81425E+08
 
   -0.80901E+08         0.19664E+07         0.00000E+00
    0.19664E+07        -0.96933E+08         0.00000E+00
    0.00000E+00         0.00000E+00        -0.80942E+08
 
   -0.80480E+08         0.19969E+07         0.00000E+00
    0.19969E+07        -0.97122E+08         0.00000E+00
    0.00000E+00         0.00000E+00        -0.80479E+08
 
   -0.80159E+08         0.19703E+07         0.00000E+00
    0.19703E+07        -0.97184E+08         0.00000E+00
    0.00000E+00         0.00000E+00        -0.80176E+08
 
   -0.79907E+08         0.19480E+07         0.00000E+00
    0.19480E+07        -0.97176E+08         0.00000E+00
    0.00000E+00         0.00000E+00        -0.79953E+08
 
   -0.79672E+08         0.19582E+07         0.00000E+00
    0.19582E+07        -0.97182E+08         0.00000E+00
    0.00000E+00         0.00000E+00        -0.79726E+08
 
   -0.79437E+08         0.19866E+07         0.00000E+00
    0.19866E+07        -0.97204E+08         0.00000E+00
    0.00000E+00         0.00000E+00        -0.79495E+08
 
   -0.79201E+08         0.20238E+07         0.00000E+00
    0.20238E+07        -0.97235E+08         0.00000E+00
    0.00000E+00         0.00000E+00        -0.79259E+08
 
   -0.78963E+08         0.20649E+07         0.00000E+00
    0.20649E+07        -0.97271E+08         0.00000E+00
    0.00000E+00         0.00000E+00        -0.79018E+08
 
   -0.78720E+08         0.21065E+07         0.00000E+00
    0.21065E+07        -0.97308E+08         0.00000E+00
    0.00000E+00         0.00000E+00        -0.78771E+08
 
   -0.78473E+08         0.21466E+07         0.00000E+00
    0.21466E+07        -0.97345E+08         0.00000E+00
    0.00000E+00         0.00000E+00        -0.78520E+08
 
   -0.78223E+08         0.21840E+07         0.00000E+00
    0.21840E+07        -0.97381E+08         0.00000E+00
    0.00000E+00         0.00000E+00        -0.78265E+08
 
   -0.77969E+08         0.22177E+07         0.00000E+00
    0.22177E+07        -0.97415E+08         0.00000E+00
    0.00000E+00         0.00000E+00        -0.78006E+08
 
   -0.77712E+08         0.22475E+07         0.00000E+00
    0.22475E+07        -0.97445E+08         0.00000E+00
    0.00000E+00         0.00000E+00        -0.77745E+08
 
   -0.77452E+08         0.22731E+07         0.00000E+00
    0.22731E+07        -0.97474E+08         0.00000E+00
    0.00000E+00         0.00000E+00        -0.77481E+08
 
   -0.77191E+08         0.22944E+07         0.00000E+00
    0.22944E+07        -0.97499E+08         0.00000E+00
    0.00000E+00         0.00000E+00        -0.77215E+08
 
   -0.76928E+08         0.23117E+07         0.00000E+00
    0.23117E+07        -0.97521E+08         0.00000E+00
    0.00000E+00         0.00000E+00        -0.76949E+08
 
   -0.76664E+08         0.23251E+07         0.00000E+00
    0.23251E+07        -0.97541E+08         0.00000E+00
    0.00000E+00         0.00000E+00        -0.76681E+08
 
   -0.76400E+08         0.23349E+07         0.00000E+00
    0.23349E+07        -0.97558E+08         0.00000E+00
    0.00000E+00         0.00000E+00        -0.76414E+08
 
   -0.76136E+08         0.23414E+07         0.00000E+00
    0.23414E+07        -0.97573E+08         0.00000E+00
    0.00000E+00         0.00000E+00        -0.76147E+08
 
   -0.75893E+08         0.23403E+07         0.00000E+00
    0.23403E+07        -0.97564E+08         0.00000E+00
    0.00000E+00         0.00000E+00        -0.75901E+08
 
   -0.75690E+08         0.23282E+07         0.00000E+00
    0.23282E+07        -0.97513E+08         0.00000E+00
    0.00000E+00         0.00000E+00        -0.75696E+08
 
   -0.75490E+08         0.23135E+07         0.00000E+00
    0.23135E+07        -0.97457E+08         0.00000E+00
    0.00000E+00         0.00000E+00        -0.75495E+08
 
   -0.75292E+08         0.22970E+07         0.00000E+00
    0.22970E+07        -0.97399E+08         0.00000E+00
    0.00000E+00         0.00000E+00        -0.75295E+08
 
   -0.75096E+08         0.22793E+07         0.00000E+00
    0.22793E+07        -0.97340E+08         0.00000E+00
    0.00000E+00         0.00000E+00        -0.75098E+08
 
   -0.74902E+08         0.22604E+07         0.00000E+00
    0.22604E+07        -0.97280E+08         0.00000E+00
    0.00000E+00         0.00000E+00        -0.74902E+08
 
   -0.74709E+08         0.22407E+07         0.00000E+00
    0.22407E+07        -0.97219E+08         0.00000E+00
    0.00000E+00         0.00000E+00        -0.74708E+08
 
   -0.74518E+08         0.22204E+07         0.00000E+00
    0.22204E+07        -0.97157E+08         0.00000E+00
    0.00000E+00         0.00000E+00        -0.74516E+08
 
   -0.74329E+08         0.21997E+07         0.00000E+00
    0.21997E+07        -0.97095E+08         0.00000E+00
    0.00000E+00         0.00000E+00        -0.74327E+08
 
   -0.74142E+08         0.21787E+07         0.00000E+00
    0.21787E+07        -0.97031E+08         0.00000E+00
    0.00000E+00         0.00000E+00        -0.74139E+08
 
   -0.73957E+08         0.21577E+07         0.00000E+00
    0.21577E+07        -0.96968E+08         0.00000E+00
    0.00000E+00         0.00000E+00        -0.73954E+08
 
   -0.73774E+08         0.21368E+07         0.00000E+00
    0.21368E+07        -0.96904E+08         0.00000E+00
    0.00000E+00         0.00000E+00        -0.73770E+08
 
   -0.73592E+08         0.21161E+07         0.00000E+00
    0.21161E+07        -0.96840E+08         0.00000E+00
    0.00000E+00         0.00000E+00        -0.73589E+08
 
   -0.73413E+08         0.20957E+07         0.00000E+00
    0.20957E+07        -0.96776E+08         0.00000E+00
    0.00000E+00         0.00000E+00        -0.73409E+08
 
   -0.73235E+08         0.20756E+07         0.00000E+00
    0.20756E+07        -0.96711E+08         0.00000E+00
    0.00000E+00         0.00000E+00        -0.73231E+08
 
   -0.73059E+08         0.20560E+07         0.00000E+00
    0.20560E+07        -0.96647E+08         0.00000E+00
    0.00000E+00         0.00000E+00        -0.73055E+08
 
   -0.72884E+08         0.20370E+07         0.00000E+00
    0.20370E+07        -0.96582E+08         0.00000E+00
    0.00000E+00         0.00000E+00        -0.72881E+08
 
   -0.72712E+08         0.20185E+07         0.00000E+00
    0.20185E+07        -0.96517E+08         0.00000E+00
    0.00000E+00         0.00000E+00        -0.72708E+08
 
   -0.72540E+08         0.20006E+07         0.00000E+00
    0.20006E+07        -0.96453E+08         0.00000E+00
    0.00000E+00         0.00000E+00        -0.72537E+08
 
   -0.72370E+08         0.19833E+07         0.00000E+00
    0.19833E+07        -0.96388E+08         0.00000E+00
    0.00000E+00         0.00000E+00        -0.72367E+08
 
   -0.72201E+08         0.19667E+07         0.00000E+00
    0.19667E+07        -0.96324E+08         0.00000E+00
    0.00000E+00         0.00000E+00        -0.72198E+08
 
   -0.72033E+08         0.19508E+07         0.00000E+00
    0.19508E+07        -0.96260E+08         0.00000E+00
    0.00000E+00         0.00000E+00        -0.72031E+08
 
   -0.71867E+08         0.19356E+07         0.00000E+00
    0.19356E+07        -0.96196E+08         0.00000E+00
    0.00000E+00         0.00000E+00        -0.71864E+08
 
   -0.71701E+08         0.19211E+07         0.00000E+00
    0.19211E+07        -0.96132E+08         0.00000E+00
    0.00000E+00         0.00000E+00        -0.71699E+08
 
   -0.71536E+08         0.19073E+07         0.00000E+00
    0.19073E+07        -0.96068E+08         0.00000E+00
    0.00000E+00         0.00000E+00        -0.71534E+08
 
   -0.71372E+08         0.18941E+07         0.00000E+00
    0.18941E+07        -0.96004E+08         0.00000E+00
    0.00000E+00         0.00000E+00        -0.71371E+08
 
   -0.71209E+08         0.18817E+07         0.00000E+00
    0.18817E+07        -0.95941E+08         0.00000E+00
    0.00000E+00         0.00000E+00        -0.71208E+08
 
   -0.71046E+08         0.18699E+07         0.00000E+00
    0.18699E+07        -0.95878E+08         0.00000E+00
    0.00000E+00         0.00000E+00        -0.71045E+08
 
   -0.70884E+08         0.18587E+07         0.00000E+00
    0.18587E+07        -0.95816E+08         0.00000E+00
    0.00000E+00         0.00000E+00        -0.70883E+08
 
   -0.70722E+08         0.18481E+07         0.00000E+00
    0.18481E+07        -0.95753E+08         0.00000E+00
    0.00000E+00         0.00000E+00        -0.70722E+08
 
   -0.70560E+08         0.18380E+07         0.00000E+00
    0.18380E+07        -0.95691E+08         0.00000E+00
    0.00000E+00         0.00000E+00        -0.70560E+08
 
   -0.70399E+08         0.18285E+07         0.00000E+00
    0.18285E+07        -0.95630E+08         0.00000E+00
    0.00000E+00         0.00000E+00        -0.70399E+08
 
   -0.70238E+08         0.18194E+07         0.00000E+00
    0.18194E+07        -0.95569E+08         0.00000E+00
    0.00000E+00         0.00000E+00        -0.70238E+08
 
   -0.70076E+08         0.18107E+07         0.00000E+00
    0.18107E+07        -0.95508E+08         0.00000E+00
    0.00000E+00         0.00000E+00        -0.70077E+08
 
   -0.69915E+08         0.18023E+07         0.00000E+00
    0.18023E+07        -0.95448E+08         0.00000E+00
    0.00000E+00         0.00000E+00        -0.69915E+08
 
   -0.69753E+08         0.17942E+07         0.00000E+00
    0.17942E+07        -0.95389E+08         0.00000E+00
    0.00000E+00         0.00000E+00        -0.69754E+08
 
   -0.69591E+08         0.17863E+07         0.00000E+00
    0.17863E+07        -0.95330E+08         0.00000E+00
    0.00000E+00         0.00000E+00        -0.69592E+08
 
   -0.69429E+08         0.17785E+07         0.00000E+00
    0.17785E+07        -0.95272E+08         0.00000E+00
    0.00000E+00         0.00000E+00        -0.69430E+08
 
   -0.69266E+08         0.17707E+07         0.00000E+00
    0.17707E+07        -0.95215E+08         0.00000E+00
    0.00000E+00         0.00000E+00        -0.69267E+08
 
   -0.69103E+08         0.17628E+07         0.00000E+00
    0.17628E+07        -0.95159E+08         0.00000E+00
    0.00000E+00         0.00000E+00        -0.69104E+08
 
   -0.68940E+08         0.17547E+07         0.00000E+00
    0.17547E+07        -0.95104E+08         0.00000E+00
    0.00000E+00         0.00000E+00        -0.68940E+08
 
   -0.68776E+08         0.17462E+07         0.00000E+00
    0.17462E+07        -0.95050E+08         0.00000E+00
    0.00000E+00         0.00000E+00        -0.68776E+08
 
   -0.68611E+08         0.17373E+07         0.00000E+00
    0.17373E+07        -0.94998E+08         0.00000E+00
    0.00000E+00         0.00000E+00        -0.68611E+08
 
   -0.68446E+08         0.17278E+07         0.00000E+00
    0.17278E+07        -0.94947E+08         0.00000E+00
    0.00000E+00         0.00000E+00        -0.68446E+08
 
   -0.68280E+08         0.17174E+07         0.00000E+00
    0.17174E+07        -0.94897E+08         0.00000E+00
    0.00000E+00         0.00000E+00        -0.68280E+08
 
   -0.68114E+08         0.17061E+07         0.00000E+00
    0.17061E+07        -0.94850E+08         0.00000E+00
    0.00000E+00         0.00000E+00        -0.68113E+08
 
   -0.67947E+08         0.16937E+07         0.00000E+00
    0.16937E+07        -0.94804E+08         0.00000E+00
    0.00000E+00         0.00000E+00        -0.67945E+08
 
   -0.67780E+08         0.16799E+07         0.00000E+00
    0.16799E+07        -0.94761E+08         0.00000E+00
    0.00000E+00         0.00000E+00        -0.67777E+08
 
   -0.67612E+08         0.16646E+07         0.00000E+00
    0.16646E+07        -0.94720E+08         0.00000E+00
    0.00000E+00         0.00000E+00        -0.67608E+08
 
   -0.67443E+08         0.16474E+07         0.00000E+00
    0.16474E+07        -0.94682E+08         0.00000E+00
    0.00000E+00         0.00000E+00        -0.67438E+08
 
   -0.67275E+08         0.16283E+07         0.00000E+00
    0.16283E+07        -0.94647E+08         0.00000E+00
    0.00000E+00         0.00000E+00        -0.67268E+08
 
   -0.67106E+08         0.16068E+07         0.00000E+00
    0.16068E+07        -0.94616E+08         0.00000E+00
    0.00000E+00         0.00000E+00        -0.67098E+08
 
   -0.66937E+08         0.15828E+07         0.00000E+00
    0.15828E+07        -0.94588E+08         0.00000E+00
    0.00000E+00         0.00000E+00        -0.66927E+08
 
   -0.66768E+08         0.15560E+07         0.00000E+00
    0.15560E+07        -0.94565E+08         0.00000E+00
    0.00000E+00         0.00000E+00        -0.66756E+08
 
   -0.66599E+08         0.15262E+07         0.00000E+00
    0.15262E+07        -0.94545E+08         0.00000E+00
    0.00000E+00         0.00000E+00        -0.66586E+08
 
   -0.66430E+08         0.14932E+07         0.00000E+00
    0.14932E+07        -0.94531E+08         0.00000E+00
    0.00000E+00         0.00000E+00        -0.66415E+08
 
   -0.66262E+08         0.14568E+07         0.00000E+00
    0.14568E+07        -0.94521E+08         0.00000E+00
    0.00000E+00         0.00000E+00        -0.66244E+08
 
   -0.66094E+08         0.14169E+07         0.00000E+00
    0.14169E+07        -0.94517E+08         0.00000E+00
    0.00000E+00         0.00000E+00        -0.66074E+08
 
   -0.65926E+08         0.13735E+07         0.00000E+00
    0.13735E+07        -0.94518E+08         0.00000E+00
    0.00000E+00         0.00000E+00        -0.65904E+08
 
   -0.65759E+08         0.13265E+07         0.00000E+00
    0.13265E+07        -0.94523E+08         0.00000E+00
    0.00000E+00         0.00000E+00        -0.65735E+08
 
   -0.65592E+08         0.12763E+07         0.00000E+00
    0.12763E+07        -0.94534E+08         0.00000E+00
    0.00000E+00         0.00000E+00        -0.65566E+08
 
   -0.65425E+08         0.12231E+07         0.00000E+00
    0.12231E+07        -0.94548E+08         0.00000E+00
    0.00000E+00         0.00000E+00        -0.65397E+08
 
   -0.65257E+08         0.11673E+07         0.00000E+00
    0.11673E+07        -0.94564E+08         0.00000E+00
    0.00000E+00         0.00000E+00        -0.65228E+08
 
   -0.65088E+08         0.11095E+07         0.00000E+00
    0.11095E+07        -0.94582E+08         0.00000E+00
    0.00000E+00         0.00000E+00        -0.65057E+08
 
   -0.64916E+08         0.10502E+07         0.00000E+00
    0.10502E+07        -0.94599E+08         0.00000E+00
    0.00000E+00         0.00000E+00        -0.64884E+08
 
   -0.64741E+08         0.98989E+06         0.00000E+00
    0.98989E+06        -0.94612E+08         0.00000E+00
    0.00000E+00         0.00000E+00        -0.64708E+08
 
   -0.64560E+08         0.92876E+06         0.00000E+00
    0.92876E+06        -0.94618E+08         0.00000E+00
    0.00000E+00         0.00000E+00        -0.64527E+08
 
   -0.64373E+08         0.86628E+06         0.00000E+00
    0.86628E+06        -0.94613E+08         0.00000E+00
    0.00000E+00         0.00000E+00        -0.64338E+08
 
   -0.64177E+08         0.80074E+06         0.00000E+00
    0.80074E+06        -0.94593E+08         0.00000E+00
    0.00000E+00         0.00000E+00        -0.64140E+08
 
   -0.63972E+08         0.72884E+06         0.00000E+00
    0.72884E+06        -0.94554E+08         0.00000E+00
    0.00000E+00         0.00000E+00        -0.63929E+08
 
   -0.63755E+08         0.64368E+06         0.00000E+00
    0.64368E+06        -0.94493E+08         0.00000E+00
    0.00000E+00         0.00000E+00        -0.63702E+08
 
   -0.63529E+08         0.53634E+06         0.00000E+00
    0.53634E+06        -0.94407E+08         0.00000E+00
    0.00000E+00         0.00000E+00        -0.63456E+08
 
   -0.63292E+08         0.38186E+06         0.00000E+00
    0.38186E+06        -0.94290E+08         0.00000E+00
    0.00000E+00         0.00000E+00        -0.63187E+08
 
   -0.63067E+08         0.14417E+06         0.00000E+00
    0.14417E+06        -0.94129E+08         0.00000E+00
    0.00000E+00         0.00000E+00        -0.62859E+08
 
   -0.83780E+08         0.24095E+06         0.00000E+00
    0.24095E+06        -0.97166E+08         0.00000E+00
    0.00000E+00         0.00000E+00        -0.84395E+08
 
   -0.83493E+08         0.67277E+06         0.00000E+00
    0.67277E+06        -0.96847E+08         0.00000E+00
    0.00000E+00         0.00000E+00        -0.83895E+08
 
   -0.83089E+08         0.10087E+07         0.00000E+00
    0.10087E+07        -0.96678E+08         0.00000E+00
    0.00000E+00         0.00000E+00        -0.83395E+08
 
   -0.82654E+08         0.12710E+07         0.00000E+00
    0.12710E+07        -0.96612E+08         0.00000E+00
    0.00000E+00         0.00000E+00        -0.82898E+08
 
   -0.82207E+08         0.14830E+07         0.00000E+00
    0.14830E+07        -0.96620E+08         0.00000E+00
    0.00000E+00         0.00000E+00        -0.82404E+08
 
   -0.81757E+08         0.16534E+07         0.00000E+00
    0.16534E+07        -0.96686E+08         0.00000E+00
    0.00000E+00         0.00000E+00        -0.81912E+08
 
   -0.81308E+08         0.17856E+07         0.00000E+00
    0.17856E+07        -0.96797E+08         0.00000E+00
    0.00000E+00         0.00000E+00        -0.81425E+08
 
   -0.80871E+08         0.18792E+07         0.00000E+00
    0.18792E+07        -0.96948E+08         0.00000E+00
    0.00000E+00         0.00000E+00        -0.80942E+08
 
   -0.80466E+08         0.19218E+07         0.00000E+00
    0.19218E+07        -0.97123E+08         0.00000E+00
    0.00000E+00         0.00000E+00        -0.80477E+08
 
   -0.80136E+08         0.19132E+07         0.00000E+00
    0.19132E+07        -0.97178E+08         0.00000E+00
    0.00000E+00         0.00000E+00        -0.80170E+08
 
   -0.79869E+08         0.18994E+07         0.00000E+00
    0.18994E+07        -0.97175E+08         0.00000E+00
    0.00000E+00         0.00000E+00        -0.79944E+08
 
   -0.79626E+08         0.19108E+07         0.00000E+00
    0.19108E+07        -0.97186E+08         0.00000E+00
    0.00000E+00         0.00000E+00        -0.79716E+08
 
   -0.79388E+08         0.19394E+07         0.00000E+00
    0.19394E+07        -0.97211E+08         0.00000E+00
    0.00000E+00         0.00000E+00        -0.79483E+08
 
   -0.79151E+08         0.19764E+07         0.00000E+00
    0.19764E+07        -0.97243E+08         0.00000E+00
    0.00000E+00         0.00000E+00        -0.79246E+08
 
   -0.78913E+08         0.20169E+07         0.00000E+00
    0.20169E+07        -0.97279E+08         0.00000E+00
    0.00000E+00         0.00000E+00        -0.79003E+08
 
   -0.78672E+08         0.20577E+07         0.00000E+00
    0.20577E+07        -0.97316E+08         0.00000E+00
    0.00000E+00         0.00000E+00        -0.78756E+08
 
   -0.78427E+08         0.20971E+07         0.00000E+00
    0.20971E+07        -0.97353E+08         0.00000E+00
    0.00000E+00         0.00000E+00        -0.78504E+08
 
   -0.78179E+08         0.21337E+07         0.00000E+00
    0.21337E+07        -0.97388E+08         0.00000E+00
    0.00000E+00         0.00000E+00        -0.78248E+08
 
   -0.77928E+08         0.21669E+07         0.00000E+00
    0.21669E+07        -0.97421E+08         0.00000E+00
    0.00000E+00         0.00000E+00        -0.77989E+08
 
   -0.77673E+08         0.21961E+07         0.00000E+00
    0.21961E+07        -0.97451E+08         0.00000E+00
    0.00000E+00         0.00000E+00        -0.77727E+08
 
   -0.77416E+08         0.22212E+07         0.00000E+00
    0.22212E+07        -0.97478E+08         0.00000E+00
    0.00000E+00         0.00000E+00        -0.77463E+08
 
   -0.77158E+08         0.22422E+07         0.00000E+00
    0.22422E+07        -0.97503E+08         0.00000E+00
    0.00000E+00         0.00000E+00        -0.77198E+08
 
   -0.76897E+08         0.22593E+07         0.00000E+00
    0.22593E+07        -0.97524E+08         0.00000E+00
    0.00000E+00         0.00000E+00        -0.76931E+08
 
   -0.76636E+08         0.22725E+07         0.00000E+00
    0.22725E+07        -0.97543E+08         0.00000E+00
    0.00000E+00         0.00000E+00        -0.76664E+08
 
   -0.76374E+08         0.22823E+07         0.00000E+00
    0.22823E+07        -0.97560E+08         0.00000E+00
    0.00000E+00         0.00000E+00        -0.76397E+08
 
   -0.76112E+08         0.22888E+07         0.00000E+00
    0.22888E+07        -0.97574E+08         0.00000E+00
    0.00000E+00         0.00000E+00        -0.76130E+08
 
   -0.75874E+08         0.22874E+07         0.00000E+00
    0.22874E+07        -0.97562E+08         0.00000E+00
    0.00000E+00         0.00000E+00        -0.75888E+08
 
   -0.75674E+08         0.22754E+07         0.00000E+00
    0.22754E+07        -0.97508E+08         0.00000E+00
    0.00000E+00         0.00000E+00        -0.75684E+08
 
   -0.75476E+08         0.22614E+07         0.00000E+00
    0.22614E+07        -0.97452E+08         0.00000E+00
    0.00000E+00         0.00000E+00        -0.75483E+08
 
   -0.75279E+08         0.22456E+07         0.00000E+00
    0.22456E+07        -0.97395E+08         0.00000E+00
    0.00000E+00         0.00000E+00        -0.75283E+08
 
   -0.75083E+08         0.22286E+07         0.00000E+00
    0.22286E+07        -0.97336E+08         0.00000E+00
    0.00000E+00         0.00000E+00        -0.75085E+08
 
   -0.74889E+08         0.22104E+07         0.00000E+00
    0.22104E+07        -0.97277E+08         0.00000E+00
    0.00000E+00         0.00000E+00        -0.74890E+08
 
   -0.74698E+08         0.21915E+07         0.00000E+00
    0.21915E+07        -0.97216E+08         0.00000E+00
    0.00000E+00         0.00000E+00        -0.74696E+08
 
   -0.74507E+08         0.21719E+07         0.00000E+00
    0.21719E+07        -0.97154E+08         0.00000E+00
    0.00000E+00         0.00000E+00        -0.74505E+08
 
   -0.74319E+08         0.21519E+07         0.00000E+00
    0.21519E+07        -0.97092E+08         0.00000E+00
    0.00000E+00         0.00000E+00        -0.74315E+08
 
   -0.74133E+08         0.21317E+07         0.00000E+00
    0.21317E+07        -0.97029E+08         0.00000E+00
    0.00000E+00         0.00000E+00        -0.74128E+08
 
   -0.73948E+08         0.21114E+07         0.00000E+00
    0.21114E+07        -0.96966E+08         0.00000E+00
    0.00000E+00         0.00000E+00        -0.73943E+08
 
   -0.73765E+08         0.20911E+07         0.00000E+00
    0.20911E+07        -0.96902E+08         0.00000E+00
    0.00000E+00         0.00000E+00        -0.73759E+08
 
   -0.73584E+08         0.20710E+07         0.00000E+00
    0.20710E+07        -0.96838E+08         0.00000E+00
    0.00000E+00         0.00000E+00        -0.73578E+08
 
   -0.73405E+08         0.20512E+07         0.00000E+00
    0.20512E+07        -0.96774E+08         0.00000E+00
    0.00000E+00         0.00000E+00        -0.73399E+08
 
   -0.73228E+08         0.20318E+07         0.00000E+00
    0.20318E+07        -0.96710E+08         0.00000E+00
    0.00000E+00         0.00000E+00        -0.73221E+08
 
   -0.73052E+08         0.20128E+07         0.00000E+00
    0.20128E+07        -0.96646E+08         0.00000E+00
    0.00000E+00         0.00000E+00        -0.73046E+08
 
   -0.72878E+08         0.19943E+07         0.00000E+00
    0.19943E+07        -0.96581E+08         0.00000E+00
    0.00000E+00         0.00000E+00        -0.72872E+08
 
   -0.72705E+08         0.19763E+07         0.00000E+00
    0.19763E+07        -0.96517E+08         0.00000E+00
    0.00000E+00         0.00000E+00        -0.72699E+08
 
   -0.72534E+08         0.19589E+07         0.00000E+00
    0.19589E+07        -0.96453E+08         0.00000E+00
    0.00000E+00         0.00000E+00        -0.72528E+08
 
   -0.72364E+08         0.19421E+07         0.00000E+00
    0.19421E+07        -0.96389E+08         0.00000E+00
    0.00000E+00         0.00000E+00        -0.72359E+08
 
   -0.72196E+08         0.19260E+07         0.00000E+00
    0.19260E+07        -0.96324E+08         0.00000E+00
    0.00000E+00         0.00000E+00        -0.72190E+08
 
   -0.72028E+08         0.19105E+07         0.00000E+00
    0.19105E+07        -0.96260E+08         0.00000E+00
    0.00000E+00         0.00000E+00        -0.72023E+08
 
   -0.71862E+08         0.18957E+07         0.00000E+00
    0.18957E+07        -0.96197E+08         0.00000E+00
    0.00000E+00         0.00000E+00        -0.71857E+08
 
   -0.71696E+08         0.18816E+07         0.00000E+00
    0.18816E+07        -0.96133E+08         0.00000E+00
    0.00000E+00         0.00000E+00        -0.71692E+08
 
   -0.71531E+08         0.18681E+07         0.00000E+00
    0.18681E+07        -0.96069E+08         0.00000E+00
    0.00000E+00         0.00000E+00        -0.71528E+08
 
   -0.71368E+08         0.18553E+07         0.00000E+00
    0.18553E+07        -0.96006E+08         0.00000E+00
    0.00000E+00         0.00000E+00        -0.71365E+08
 
   -0.71204E+08         0.18431E+07         0.00000E+00
    0.18431E+07        -0.95943E+08         0.00000E+00
    0.00000E+00         0.00000E+00        -0.71202E+08
 
   -0.71042E+08         0.18316E+07         0.00000E+00
    0.18316E+07        -0.95880E+08         0.00000E+00
    0.00000E+00         0.00000E+00        -0.71040E+08
 
   -0.70880E+08         0.18207E+07         0.00000E+00
    0.18207E+07        -0.95818E+08         0.00000E+00
    0.00000E+00         0.00000E+00        -0.70878E+08
 
   -0.70718E+08         0.18103E+07         0.00000E+00
    0.18103E+07        -0.95756E+08         0.00000E+00
    0.00000E+00         0.00000E+00        -0.70717E+08
 
   -0.70556E+08         0.18005E+07         0.00000E+00
    0.18005E+07        -0.95694E+08         0.00000E+00
    0.00000E+00         0.00000E+00        -0.70556E+08
 
   -0.70395E+08         0.17911E+07         0.00000E+00
    0.17911E+07        -0.95633E+08         0.00000E+00
    0.00000E+00         0.00000E+00        -0.70395E+08
 
   -0.70234E+08         0.17822E+07         0.00000E+00
    0.17822E+07        -0.95572E+08         0.00000E+00
    0.00000E+00         0.00000E+00        -0.70234E+08
 
   -0.70072E+08         0.17737E+07         0.00000E+00
    0.17737E+07        -0.95511E+08         0.00000E+00
    0.00000E+00         0.00000E+00        -0.70073E+08
 
   -0.69911E+08         0.17655E+07         0.00000E+00
    0.17655E+07        -0.95451E+08         0.00000E+00
    0.00000E+00         0.00000E+00        -0.69912E+08
 
   -0.69749E+08         0.17575E+07         0.00000E+00
    0.17575E+07        -0.95392E+08         0.00000E+00
    0.00000E+00         0.00000E+00        -0.69751E+08
 
   -0.69588E+08         0.17497E+07         0.00000E+00
    0.17497E+07        -0.95334E+08         0.00000E+00
    0.00000E+00         0.00000E+00        -0.69589E+08
 
   -0.69426E+08         0.17420E+07         0.00000E+00
    0.17420E+07        -0.95276E+08         0.00000E+00
    0.00000E+00         0.00000E+00        -0.69427E+08
 
   -0.69263E+08         0.17343E+07         0.00000E+00
    0.17343E+07        -0.95219E+08         0.00000E+00
    0.00000E+00         0.00000E+00        -0.69265E+08
 
   -0.69100E+08         0.17265E+07         0.00000E+00
    0.17265E+07        -0.95163E+08         0.00000E+00
    0.00000E+00         0.00000E+00        -0.69101E+08
 
   -0.68937E+08         0.17185E+07         0.00000E+00
    0.17185E+07        -0.95108E+08         0.00000E+00
    0.00000E+00         0.00000E+00        -0.68938E+08
 
   -0.68773E+08         0.17102E+07         0.00000E+00
    0.17102E+07        -0.95054E+08         0.00000E+00
    0.00000E+00         0.00000E+00        -0.68774E+08
 
   -0.68609E+08         0.17013E+07         0.00000E+00
    0.17013E+07        -0.95002E+08         0.00000E+00
    0.00000E+00         0.00000E+00        -0.68609E+08
 
   -0.68444E+08         0.16919E+07         0.00000E+00
    0.16919E+07        -0.94951E+08         0.00000E+00
    0.00000E+00         0.00000E+00        -0.68443E+08
 
   -0.68278E+08         0.16817E+07         0.00000E+00
    0.16817E+07        -0.94901E+08         0.00000E+00
    0.00000E+00         0.00000E+00        -0.68277E+08
 
   -0.68112E+08         0.16705E+07         0.00000E+00
    0.16705E+07        -0.94854E+08         0.00000E+00
    0.00000E+00         0.00000E+00        -0.68110E+08
 
   -0.67945E+08         0.16582E+07         0.00000E+00
    0.16582E+07        -0.94808E+08         0.00000E+00
    0.00000E+00         0.00000E+00        -0.67942E+08
 
   -0.67778E+08         0.16446E+07         0.00000E+00
    0.16446E+07        -0.94764E+08         0.00000E+00
    0.00000E+00         0.00000E+00        -0.67773E+08
 
   -0.67610E+08         0.16294E+07         0.00000E+00
    0.16294E+07        -0.94723E+08         0.00000E+00
    0.00000E+00         0.00000E+00        -0.67604E+08
 
   -0.67442E+08         0.16125E+07         0.00000E+00
    0.16125E+07        -0.94685E+08         0.00000E+00
    0.00000E+00         0.00000E+00        -0.67434E+08
 
   -0.67274E+08         0.15936E+07         0.00000E+00
    0.15936E+07        -0.94650E+08         0.00000E+00
    0.00000E+00         0.00000E+00        -0.67263E+08
 
   -0.67105E+08         0.15724E+07         0.00000E+00
    0.15724E+07        -0.94618E+08         0.00000E+00
    0.00000E+00         0.00000E+00        -0.67092E+08
 
   -0.66937E+08         0.15487E+07         0.00000E+00
    0.15487E+07        -0.94590E+08         0.00000E+00
    0.00000E+00         0.00000E+00        -0.66921E+08
 
   -0.66768E+08         0.15222E+07         0.00000E+00
    0.15222E+07        -0.94566E+08         0.00000E+00
    0.00000E+00         0.00000E+00        -0.66750E+08
 
   -0.66600E+08         0.14928E+07         0.00000E+00
    0.14928E+07        -0.94546E+08         0.00000E+00
    0.00000E+00         0.00000E+00        -0.66578E+08
 
   -0.66431E+08         0.14602E+07         0.00000E+00
    0.14602E+07        -0.94531E+08         0.00000E+00
    0.00000E+00         0.00000E+00        -0.66406E+08
 
   -0.66263E+08         0.14242E+07         0.00000E+00
    0.14242E+07        -0.94521E+08         0.00000E+00
    0.00000E+00         0.00000E+00        -0.66235E+08
 
   -0.66096E+08         0.13847E+07         0.00000E+00
    0.13847E+07        -0.94515E+08         0.00000E+00
    0.00000E+00         0.00000E+00        -0.66064E+08
 
   -0.65929E+08         0.13417E+07         0.00000E+00
    0.13417E+07        -0.94515E+08         0.00000E+00
    0.00000E+00         0.00000E+00        -0.65893E+08
 
   -0.65762E+08         0.12952E+07         0.00000E+00
    0.12952E+07        -0.94520E+08         0.00000E+00
    0.00000E+00         0.00000E+00        -0.65723E+08
 
   -0.65595E+08         0.12454E+07         0.00000E+00
    0.12454E+07        -0.94529E+08         0.00000E+00
    0.00000E+00         0.00000E+00        -0.65552E+08
 
   -0.65429E+08         0.11926E+07         0.00000E+00
    0.11926E+07        -0.94542E+08         0.00000E+00
    0.00000E+00         0.00000E+00        -0.65382E+08
 
   -0.65261E+08         0.11370E+07         0.00000E+00
    0.11370E+07        -0.94558E+08         0.00000E+00
    0.00000E+00         0.00000E+00        -0.65212E+08
 
   -0.65092E+08         0.10793E+07         0.00000E+00
    0.10793E+07        -0.94575E+08         0.00000E+00
    0.00000E+00         0.00000E+00        -0.65041E+08
 
   -0.64920E+08         0.10199E+07         0.00000E+00
    0.10199E+07        -0.94591E+08         0.00000E+00
    0.00000E+00         0.00000E+00        -0.64867E+08
 
   -0.64745E+08         0.95924E+06         0.00000E+00
    0.95924E+06        -0.94602E+08         0.00000E+00
    0.00000E+00         0.00000E+00        -0.64690E+08
 
   -0.64564E+08         0.89743E+06         0.00000E+00
    0.89743E+06        -0.94607E+08         0.00000E+00
    0.00000E+00         0.00000E+00        -0.64508E+08
 
   -0.64377E+08         0.83390E+06         0.00000E+00
    0.83390E+06        -0.94601E+08         0.00000E+00
    0.00000E+00         0.00000E+00        -0.64318E+08
 
   -0.64182E+08         0.76698E+06         0.00000E+00
    0.76698E+06        -0.94579E+08         0.00000E+00
    0.00000E+00         0.00000E+00        -0.64117E+08
 
   -0.63977E+08         0.69318E+06         0.00000E+00
    0.69318E+06        -0.94538E+08         0.00000E+00
    0.00000E+00         0.00000E+00        -0.63903E+08
 
   -0.63763E+08         0.60622E+06         0.00000E+00
    0.60622E+06        -0.94473E+08         0.00000E+00
    0.00000E+00         0.00000E+00        -0.63671E+08
 
   -0.63540E+08         0.49647E+06         0.00000E+00
    0.49647E+06        -0.94383E+08         0.00000E+00
    0.00000E+00         0.00000E+00        -0.63417E+08
 
   -0.63310E+08         0.34035E+06         0.00000E+00
    0.34035E+06        -0.94254E+08         0.00000E+00
    0.00000E+00         0.00000E+00        -0.63129E+08
 
   -0.63110E+08         0.12340E+06         0.00000E+00
    0.12340E+06        -0.94090E+08         0.00000E+00
    0.00000E+00         0.00000E+00        -0.62775E+08
 
   -0.83571E+08         0.21137E+06         0.00000E+00
    0.21137E+06        -0.97255E+08         0.00000E+00
    0.00000E+00         0.00000E+00        -0.84395E+08
 
   -0.83330E+08         0.60309E+06         0.00000E+00
    0.60309E+06        -0.96921E+08         0.00000E+00
    0.00000E+00         0.00000E+00        -0.83895E+08
 
   -0.82964E+08         0.92605E+06         0.00000E+00
    0.92605E+06        -0.96736E+08         0.00000E+00
    0.00000E+00         0.00000E+00        -0.83395E+08
 
   -0.82553E+08         0.11844E+07         0.00000E+00
    0.11844E+07        -0.96659E+08         0.00000E+00
    0.00000E+00         0.00000E+00        -0.82898E+08
 
   -0.82125E+08         0.13946E+07         0.00000E+00
    0.13946E+07        -0.96658E+08         0.00000E+00
    0.00000E+00         0.00000E+00        -0.82404E+08
 
   -0.81691E+08         0.15648E+07         0.00000E+00
    0.15648E+07        -0.96716E+08         0.00000E+00
    0.00000E+00         0.00000E+00        -0.81912E+08
 
   -0.81259E+08         0.16982E+07         0.00000E+00
    0.16982E+07        -0.96820E+08         0.00000E+00
    0.00000E+00         0.00000E+00        -0.81425E+08
 
   -0.80837E+08         0.17954E+07         0.00000E+00
    0.17954E+07        -0.96963E+08         0.00000E+00
    0.00000E+00         0.00000E+00        -0.80942E+08
 
   -0.80446E+08         0.18483E+07         0.00000E+00
    0.18483E+07        -0.97126E+08         0.00000E+00
    0.00000E+00         0.00000E+00        -0.80476E+08
 
   -0.80111E+08         0.18530E+07         0.00000E+00
    0.18530E+07        -0.97175E+08         0.00000E+00
    0.00000E+00         0.00000E+00        -0.80165E+08
 
   -0.79832E+08         0.18484E+07         0.00000E+00
    0.18484E+07        -0.97175E+08         0.00000E+00
    0.00000E+00         0.00000E+00        -0.79937E+08
 
   -0.79582E+08         0.18624E+07         0.00000E+00
    0.18624E+07        -0.97191E+08         0.00000E+00
    0.00000E+00         0.00000E+00        -0.79707E+08
 
   -0.79341E+08         0.18919E+07         0.00000E+00
    0.18919E+07        -0.97218E+08         0.00000E+00
    0.00000E+00         0.00000E+00        -0.79472E+08
 
   -0.79104E+08         0.19290E+07         0.00000E+00
    0.19290E+07        -0.97251E+08         0.00000E+00
    0.00000E+00         0.00000E+00        -0.79233E+08
 
   -0.78866E+08         0.19690E+07         0.00000E+00
    0.19690E+07        -0.97287E+08         0.00000E+00
    0.00000E+00         0.00000E+00        -0.78990E+08
 
   -0.78626E+08         0.20093E+07         0.00000E+00
    0.20093E+07        -0.97324E+08         0.00000E+00
    0.00000E+00         0.00000E+00        -0.78741E+08
 
   -0.78384E+08         0.20480E+07         0.00000E+00
    0.20480E+07        -0.97361E+08         0.00000E+00
    0.00000E+00         0.00000E+00        -0.78489E+08
 
   -0.78138E+08         0.20840E+07         0.00000E+00
    0.20840E+07        -0.97395E+08         0.00000E+00
    0.00000E+00         0.00000E+00        -0.78233E+08
 
   -0.77889E+08         0.21165E+07         0.00000E+00
    0.21165E+07        -0.97427E+08         0.00000E+00
    0.00000E+00         0.00000E+00        -0.77973E+08
 
   -0.77637E+08         0.21452E+07         0.00000E+00
    0.21452E+07        -0.97456E+08         0.00000E+00
    0.00000E+00         0.00000E+00        -0.77711E+08
 
   -0.77382E+08         0.21699E+07         0.00000E+00
    0.21699E+07        -0.97483E+08         0.00000E+00
    0.00000E+00         0.00000E+00        -0.77446E+08
 
   -0.77126E+08         0.21905E+07         0.00000E+00
    0.21905E+07        -0.97506E+08         0.00000E+00
    0.00000E+00         0.00000E+00        -0.77181E+08
 
   -0.76868E+08         0.22073E+07         0.00000E+00
    0.22073E+07        -0.97527E+08         0.00000E+00
    0.00000E+00         0.00000E+00        -0.76914E+08
 
   -0.76609E+08         0.22204E+07         0.00000E+00
    0.22204E+07        -0.97545E+08         0.00000E+00
    0.00000E+00         0.00000E+00        -0.76647E+08
 
   -0.76349E+08         0.22301E+07         0.00000E+00
    0.22301E+07        -0.97561E+08         0.00000E+00
    0.00000E+00         0.00000E+00        -0.76380E+08
 
   -0.76089E+08         0.22366E+07         0.00000E+00
    0.22366E+07        -0.97575E+08         0.00000E+00
    0.00000E+00         0.00000E+00        -0.76114E+08
 
   -0.75857E+08         0.22344E+07         0.00000E+00
    0.22344E+07        -0.97557E+08         0.00000E+00
    0.00000E+00         0.00000E+00        -0.75877E+08
 
   -0.75659E+08         0.22230E+07         0.00000E+00
    0.22230E+07        -0.97504E+08         0.00000E+00
    0.00000E+00         0.00000E+00        -0.75673E+08
 
   -0.75461E+08         0.22096E+07         0.00000E+00
    0.22096E+07        -0.97448E+08         0.00000E+00
    0.00000E+00         0.00000E+00        -0.75471E+08
 
   -0.75265E+08         0.21946E+07         0.00000E+00
    0.21946E+07        -0.97391E+08         0.00000E+00
    0.00000E+00         0.00000E+00        -0.75271E+08
 
   -0.75071E+08         0.21782E+07         0.00000E+00
    0.21782E+07        -0.97333E+08         0.00000E+00
    0.00000E+00         0.00000E+00        -0.75074E+08
 
   -0.74878E+08         0.21607E+07         0.00000E+00
    0.21607E+07        -0.97273E+08         0.00000E+00
    0.00000E+00         0.00000E+00        -0.74878E+08
 
   -0.74687E+08         0.21425E+07         0.00000E+00
    0.21425E+07        -0.97213E+08         0.00000E+00
    0.00000E+00         0.00000E+00        -0.74684E+08
 
   -0.74497E+08         0.21236E+07         0.00000E+00
    0.21236E+07        -0.97151E+08         0.00000E+00
    0.00000E+00         0.00000E+00        -0.74493E+08
 
   -0.74309E+08         0.21043E+07         0.00000E+00
    0.21043E+07        -0.97089E+08         0.00000E+00
    0.00000E+00         0.00000E+00        -0.74304E+08
 
   -0.74123E+08         0.20847E+07         0.00000E+00
    0.20847E+07        -0.97027E+08         0.00000E+00
    0.00000E+00         0.00000E+00        -0.74117E+08
 
   -0.73939E+08         0.20651E+07         0.00000E+00
    0.20651E+07        -0.96964E+08         0.00000E+00
    0.00000E+00         0.00000E+00        -0.73932E+08
 
   -0.73757E+08         0.20455E+07         0.00000E+00
    0.20455E+07        -0.96900E+08         0.00000E+00
    0.00000E+00         0.00000E+00        -0.73749E+08
 
   -0.73577E+08         0.20261E+07         0.00000E+00
    0.20261E+07        -0.96837E+08         0.00000E+00
    0.00000E+00         0.00000E+00        -0.73568E+08
 
   -0.73398E+08         0.20069E+07         0.00000E+00
    0.20069E+07        -0.96773E+08         0.00000E+00
    0.00000E+00         0.00000E+00        -0.73389E+08
 
   -0.73221E+08         0.19880E+07         0.00000E+00
    0.19880E+07        -0.96709E+08         0.00000E+00
    0.00000E+00         0.00000E+00        -0.73212E+08
 
   -0.73045E+08         0.19696E+07         0.00000E+00
    0.19696E+07        -0.96645E+08         0.00000E+00
    0.00000E+00         0.00000E+00        -0.73037E+08
 
   -0.72872E+08         0.19516E+07         0.00000E+00
    0.19516E+07        -0.96581E+08         0.00000E+00
    0.00000E+00         0.00000E+00        -0.72863E+08
 
   -0.72699E+08         0.19342E+07         0.00000E+00
    0.19342E+07        -0.96517E+08         0.00000E+00
    0.00000E+00         0.00000E+00        -0.72691E+08
 
   -0.72528E+08         0.19173E+07         0.00000E+00
    0.19173E+07        -0.96453E+08         0.00000E+00
    0.00000E+00         0.00000E+00        -0.72520E+08
 
   -0.72359E+08         0.19010E+07         0.00000E+00
    0.19010E+07        -0.96389E+08         0.00000E+00
    0.00000E+00         0.00000E+00        -0.72351E+08
 
   -0.72190E+08         0.18853E+07         0.00000E+00
    0.18853E+07        -0.96325E+08         0.00000E+00
    0.00000E+00         0.00000E+00        -0.72183E+08
 
   -0.72023E+08         0.18702E+07         0.00000E+00
    0.18702E+07        -0.96261E+08         0.00000E+00
    0.00000E+00         0.00000E+00        -0.72016E+08
 
   -0.71857E+08         0.18558E+07         0.00000E+00
    0.18558E+07        -0.96197E+08         0.00000E+00
    0.00000E+00         0.00000E+00        -0.71851E+08
 
   -0.71691E+08         0.18421E+07         0.00000E+00
    0.18421E+07        -0.96134E+08         0.00000E+00
    0.00000E+00         0.00000E+00        -0.71686E+08
 
   -0.71527E+08         0.18290E+07         0.00000E+00
    0.18290E+07        -0.96071E+08         0.00000E+00
    0.00000E+00         0.00000E+00        -0.71522E+08
 
   -0.71363E+08         0.18165E+07         0.00000E+00
    0.18165E+07        -0.96008E+08         0.00000E+00
    0.00000E+00         0.00000E+00        -0.71359E+08
 
   -0.71200E+08         0.18046E+07         0.00000E+00
    0.18046E+07        -0.95945E+08         0.00000E+00
    0.00000E+00         0.00000E+00        -0.71197E+08
 
   -0.71037E+08         0.17934E+07         0.00000E+00
    0.17934E+07        -0.95882E+08         0.00000E+00
    0.00000E+00         0.00000E+00        -0.71035E+08
 
   -0.70875E+08         0.17827E+07         0.00000E+00
    0.17827E+07        -0.95820E+08         0.00000E+00
    0.00000E+00         0.00000E+00        -0.70874E+08
 
   -0.70714E+08         0.17725E+07         0.00000E+00
    0.17725E+07        -0.95758E+08         0.00000E+00
    0.00000E+00         0.00000E+00        -0.70713E+08
 
   -0.70552E+08         0.17629E+07         0.00000E+00
    0.17629E+07        -0.95696E+08         0.00000E+00
    0.00000E+00         0.00000E+00        -0.70552E+08
 
   -0.70391E+08         0.17538E+07         0.00000E+00
    0.17538E+07        -0.95635E+08         0.00000E+00
    0.00000E+00         0.00000E+00        -0.70391E+08
 
   -0.70230E+08         0.17450E+07         0.00000E+00
    0.17450E+07        -0.95575E+08         0.00000E+00
    0.00000E+00         0.00000E+00        -0.70230E+08
 
   -0.70068E+08         0.17367E+07         0.00000E+00
    0.17367E+07        -0.95514E+08         0.00000E+00
    0.00000E+00         0.00000E+00        -0.70070E+08
 
   -0.69907E+08         0.17286E+07         0.00000E+00
    0.17286E+07        -0.95455E+08         0.00000E+00
    0.00000E+00         0.00000E+00        -0.69909E+08
 
   -0.69746E+08         0.17208E+07         0.00000E+00
    0.17208E+07        -0.95396E+08         0.00000E+00
    0.00000E+00         0.00000E+00        -0.69748E+08
 
   -0.69584E+08         0.17131E+07         0.00000E+00
    0.17131E+07        -0.95337E+08         0.00000E+00
    0.00000E+00         0.00000E+00        -0.69586E+08
 
   -0.69422E+08         0.17056E+07         0.00000E+00
    0.17056E+07        -0.95280E+08         0.00000E+00
    0.00000E+00         0.00000E+00        -0.69424E+08
 
   -0.69260E+08         0.16980E+07         0.00000E+00
    0.16980E+07        -0.95223E+08         0.00000E+00
    0.00000E+00         0.00000E+00        -0.69262E+08
 
   -0.69097E+08         0.16903E+07         0.00000E+00
    0.16903E+07        -0.95167E+08         0.00000E+00
    0.00000E+00         0.00000E+00        -0.69099E+08
 
   -0.68934E+08         0.16824E+07         0.00000E+00
    0.16824E+07        -0.95112E+08         0.00000E+00
    0.00000E+00         0.00000E+00        -0.68935E+08
 
   -0.68770E+08         0.16741E+07         0.00000E+00
    0.16741E+07        -0.95058E+08         0.00000E+00
    0.00000E+00         0.00000E+00        -0.68771E+08
 
   -0.68606E+08         0.16654E+07         0.00000E+00
    0.16654E+07        -0.95006E+08         0.00000E+00
    0.00000E+00         0.00000E+00        -0.68606E+08
 
   -0.68441E+08         0.16561E+07         0.00000E+00
    0.16561E+07        -0.94955E+08         0.00000E+00
    0.00000E+00         0.00000E+00        -0.68440E+08
 
   -0.68276E+08         0.16460E+07         0.00000E+00
    0.16460E+07        -0.94905E+08         0.00000E+00
    0.00000E+00         0.00000E+00        -0.68274E+08
 
   -0.68110E+08         0.16349E+07         0.00000E+00
    0.16349E+07        -0.94857E+08         0.00000E+00
    0.00000E+00         0.00000E+00        -0.68107E+08
 
   -0.67943E+08         0.16228E+07         0.00000E+00
    0.16228E+07        -0.94811E+08         0.00000E+00
    0.00000E+00         0.00000E+00        -0.67939E+08
 
   -0.67776E+08         0.16093E+07         0.00000E+00
    0.16093E+07        -0.94768E+08         0.00000E+00
    0.00000E+00         0.00000E+00        -0.67770E+08
 
   -0.67609E+08         0.15943E+07         0.00000E+00
    0.15943E+07        -0.94727E+08         0.00000E+00
    0.00000E+00         0.00000E+00        -0.67600E+08
 
   -0.67441E+08         0.15776E+07         0.00000E+00
    0.15776E+07        -0.94688E+08         0.00000E+00
    0.00000E+00         0.00000E+00        -0.67430E+08
 
   -0.67273E+08         0.15589E+07         0.00000E+00
    0.15589E+07        -0.94652E+08         0.00000E+00
    0.00000E+00         0.00000E+00        -0.67259E+08
 
   -0.67105E+08         0.15380E+07         0.00000E+00
    0.15380E+07        -0.94620E+08         0.00000E+00
    0.00000E+00         0.00000E+00        -0.67087E+08
 
   -0.66937E+08         0.15146E+07         0.00000E+00
    0.15146E+07        -0.94592E+08         0.00000E+00
    0.00000E+00         0.00000E+00        -0.66915E+08
 
   -0.66768E+08         0.14885E+07         0.00000E+00
    0.14885E+07        -0.94567E+08         0.00000E+00
    0.00000E+00         0.00000E+00        -0.66743E+08
 
   -0.66600E+08         0.14594E+07         0.00000E+00
    0.14594E+07        -0.94547E+08         0.00000E+00
    0.00000E+00         0.00000E+00        -0.66570E+08
 
   -0.66433E+08         0.14272E+07         0.00000E+00
    0.14272E+07        -0.94531E+08         0.00000E+00
    0.00000E+00         0.00000E+00        -0.66398E+08
 
   -0.66265E+08         0.13916E+07         0.00000E+00
    0.13916E+07        -0.94520E+08         0.00000E+00
    0.00000E+00         0.00000E+00        -0.66226E+08
 
   -0.66098E+08         0.13526E+07         0.00000E+00
    0.13526E+07        -0.94514E+08         0.00000E+00
    0.00000E+00         0.00000E+00        -0.66053E+08
 
   -0.65931E+08         0.13101E+07         0.00000E+00
    0.13101E+07        -0.94513E+08         0.00000E+00
    0.00000E+00         0.00000E+00        -0.65882E+08
 
   -0.65765E+08         0.12640E+07         0.00000E+00
    0.12640E+07        -0.94517E+08         0.00000E+00
    0.00000E+00         0.00000E+00        -0.65710E+08
 
   -0.65599E+08         0.12146E+07         0.00000E+00
    0.12146E+07        -0.94525E+08         0.00000E+00
    0.00000E+00         0.00000E+00        -0.65539E+08
 
   -0.65432E+08         0.11620E+07         0.00000E+00
    0.11620E+07        -0.94537E+08         0.00000E+00
    0.00000E+00         0.00000E+00        -0.65368E+08
 
   -0.65265E+08         0.11067E+07         0.00000E+00
    0.11067E+07        -0.94552E+08         0.00000E+00
    0.00000E+00         0.00000E+00        -0.65196E+08
 
   -0.65096E+08         0.10490E+07         0.00000E+00
    0.10490E+07        -0.94568E+08         0.00000E+00
    0.00000E+00         0.00000E+00        -0.65024E+08
 
   -0.64925E+08         0.98949E+06         0.00000E+00
    0.98949E+06        -0.94582E+08         0.00000E+00
    0.00000E+00         0.00000E+00        -0.64850E+08
 
   -0.64749E+08         0.92845E+06         0.00000E+00
    0.92845E+06        -0.94593E+08         0.00000E+00
    0.00000E+00         0.00000E+00        -0.64672E+08
 
   -0.64569E+08         0.86598E+06         0.00000E+00
    0.86598E+06        -0.94597E+08         0.00000E+00
    0.00000E+00         0.00000E+00        -0.64488E+08
 
   -0.64382E+08         0.80148E+06         0.00000E+00
    0.80148E+06        -0.94589E+08         0.00000E+00
    0.00000E+00         0.00000E+00        -0.64297E+08
 
   -0.64187E+08         0.73330E+06         0.00000E+00
    0.73330E+06        -0.94566E+08         0.00000E+00
    0.00000E+00         0.00000E+00        -0.64094E+08
 
   -0.63983E+08         0.65794E+06         0.00000E+00
    0.65794E+06        -0.94522E+08         0.00000E+00
    0.00000E+00         0.00000E+00        -0.63877E+08
 
   -0.63771E+08         0.56961E+06         0.00000E+00
    0.56961E+06        -0.94454E+08         0.00000E+00
    0.00000E+00         0.00000E+00        -0.63639E+08
 
   -0.63552E+08         0.45794E+06         0.00000E+00
    0.45794E+06        -0.94358E+08         0.00000E+00
    0.00000E+00         0.00000E+00        -0.63376E+08
 
   -0.63332E+08         0.30422E+06         0.00000E+00
    0.30422E+06        -0.94222E+08         0.00000E+00
    0.00000E+00         0.00000E+00        -0.63072E+08
 
   -0.63151E+08         0.10713E+06         0.00000E+00
    0.10713E+06        -0.94057E+08         0.00000E+00
    0.00000E+00         0.00000E+00        -0.62700E+08
 
   -0.83377E+08         0.18694E+06         0.00000E+00
    0.18694E+06        -0.97334E+08         0.00000E+00
    0.00000E+00         0.00000E+00        -0.84395E+08
 
   -0.83169E+08         0.54210E+06         0.00000E+00
    0.54210E+06        -0.96991E+08         0.00000E+00
    0.00000E+00         0.00000E+00        -0.83895E+08
 
   -0.82837E+08         0.84916E+06         0.00000E+00
    0.84916E+06        -0.96793E+08         0.00000E+00
    0.00000E+00         0.00000E+00        -0.83395E+08
 
   -0.82450E+08         0.11020E+07         0.00000E+00
    0.11020E+07        -0.96705E+08         0.00000E+00
    0.00000E+00         0.00000E+00        -0.82898E+08
 
   -0.82041E+08         0.13098E+07         0.00000E+00
    0.13098E+07        -0.96696E+08         0.00000E+00
    0.00000E+00         0.00000E+00        -0.82404E+08
 
   -0.81624E+08         0.14794E+07         0.00000E+00
    0.14794E+07        -0.96746E+08         0.00000E+00
    0.00000E+00         0.00000E+00        -0.81912E+08
 
   -0.81207E+08         0.16138E+07         0.00000E+00
    0.16138E+07        -0.96843E+08         0.00000E+00
    0.00000E+00         0.00000E+00        -0.81425E+08
 
   -0.80799E+08         0.17145E+07         0.00000E+00
    0.17145E+07        -0.96979E+08         0.00000E+00
    0.00000E+00         0.00000E+00        -0.80942E+08
 
   -0.80420E+08         0.17762E+07         0.00000E+00
    0.17762E+07        -0.97132E+08         0.00000E+00
    0.00000E+00         0.00000E+00        -0.80476E+08
 
   -0.80084E+08         0.17910E+07         0.00000E+00
    0.17910E+07        -0.97174E+08         0.00000E+00
    0.00000E+00         0.00000E+00        -0.80162E+08
 
   -0.79796E+08         0.17955E+07         0.00000E+00
    0.17955E+07        -0.97176E+08         0.00000E+00
    0.00000E+00         0.00000E+00        -0.79932E+08
 
   -0.79540E+08         0.18133E+07         0.00000E+00
    0.18133E+07        -0.97196E+08         0.00000E+00
    0.00000E+00         0.00000E+00        -0.79699E+08
 
   -0.79297E+08         0.18441E+07         0.00000E+00
    0.18441E+07        -0.97225E+08         0.00000E+00
    0.00000E+00         0.00000E+00        -0.79463E+08
 
   -0.79059E+08         0.18815E+07         0.00000E+00
    0.18815E+07        -0.97259E+08         0.00000E+00
    0.00000E+00         0.00000E+00        -0.79222E+08
 
   -0.78821E+08         0.19214E+07         0.00000E+00
    0.19214E+07        -0.97295E+08         0.00000E+00
    0.00000E+00         0.00000E+00        -0.78977E+08
 
   -0.78583E+08         0.19613E+07         0.00000E+00
    0.19613E+07        -0.97332E+08         0.00000E+00
    0.00000E+00         0.00000E+00        -0.78728E+08
 
   -0.78342E+08         0.19994E+07         0.00000E+00
    0.19994E+07        -0.97368E+08         0.00000E+00
    0.00000E+00         0.00000E+00        -0.78474E+08
 
   -0.78098E+08         0.20347E+07         0.00000E+00
    0.20347E+07        -0.97402E+08         0.00000E+00
    0.00000E+00         0.00000E+00        -0.78217E+08
 
   -0.77851E+08         0.20666E+07         0.00000E+00
    0.20666E+07        -0.97433E+08         0.00000E+00
    0.00000E+00         0.00000E+00        -0.77957E+08
 
   -0.77602E+08         0.20948E+07         0.00000E+00
    0.20948E+07        -0.97462E+08         0.00000E+00
    0.00000E+00         0.00000E+00        -0.77694E+08
 
   -0.77350E+08         0.21190E+07         0.00000E+00
    0.21190E+07        -0.97487E+08         0.00000E+00
    0.00000E+00         0.00000E+00        -0.77430E+08
 
   -0.77095E+08         0.21393E+07         0.00000E+00
    0.21393E+07        -0.97510E+08         0.00000E+00
    0.00000E+00         0.00000E+00        -0.77164E+08
 
   -0.76840E+08         0.21558E+07         0.00000E+00
    0.21558E+07        -0.97530E+08         0.00000E+00
    0.00000E+00         0.00000E+00        -0.76898E+08
 
   -0.76583E+08         0.21687E+07         0.00000E+00
    0.21687E+07        -0.97548E+08         0.00000E+00
    0.00000E+00         0.00000E+00        -0.76631E+08
 
   -0.76325E+08         0.21783E+07         0.00000E+00
    0.21783E+07        -0.97563E+08         0.00000E+00
    0.00000E+00         0.00000E+00        -0.76364E+08
 
   -0.76067E+08         0.21848E+07         0.00000E+00
    0.21848E+07        -0.97576E+08         0.00000E+00
    0.00000E+00         0.00000E+00        -0.76098E+08
 
   -0.75842E+08         0.21818E+07         0.00000E+00
    0.21818E+07        -0.97553E+08         0.00000E+00
    0.00000E+00         0.00000E+00        -0.75865E+08
 
   -0.75644E+08         0.21710E+07         0.00000E+00
    0.21710E+07        -0.97499E+08         0.00000E+00
    0.00000E+00         0.00000E+00        -0.75662E+08
 
   -0.75448E+08         0.21582E+07         0.00000E+00
    0.21582E+07        -0.97444E+08         0.00000E+00
    0.00000E+00         0.00000E+00        -0.75460E+08
 
   -0.75253E+08         0.21438E+07         0.00000E+00
    0.21438E+07        -0.97387E+08         0.00000E+00
    0.00000E+00         0.00000E+00        -0.75260E+08
 
   -0.75059E+08         0.21281E+07         0.00000E+00
    0.21281E+07        -0.97329E+08         0.00000E+00
    0.00000E+00         0.00000E+00        -0.75062E+08
 
   -0.74867E+08         0.21113E+07         0.00000E+00
    0.21113E+07        -0.97270E+08         0.00000E+00
    0.00000E+00         0.00000E+00        -0.74866E+08
 
   -0.74676E+08         0.20937E+07         0.00000E+00
    0.20937E+07        -0.97210E+08         0.00000E+00
    0.00000E+00         0.00000E+00        -0.74673E+08
 
   -0.74487E+08         0.20755E+07         0.00000E+00
    0.20755E+07        -0.97148E+08         0.00000E+00
    0.00000E+00         0.00000E+00        -0.74482E+08
 
   -0.74300E+08         0.20568E+07         0.00000E+00
    0.20568E+07        -0.97087E+08         0.00000E+00
    0.00000E+00         0.00000E+00        -0.74293E+08
 
   -0.74115E+08         0.20380E+07         0.00000E+00
    0.20380E+07        -0.97024E+08         0.00000E+00
    0.00000E+00         0.00000E+00        -0.74106E+08
 
   -0.73931E+08         0.20190E+07         0.00000E+00
    0.20190E+07        -0.96962E+08         0.00000E+00
    0.00000E+00         0.00000E+00        -0.73921E+08
 
   -0.73749E+08         0.20000E+07         0.00000E+00
    0.20000E+07        -0.96899E+08         0.00000E+00
    0.00000E+00         0.00000E+00        -0.73739E+08
 
   -0.73569E+08         0.19812E+07         0.00000E+00
    0.19812E+07        -0.96835E+08         0.00000E+00
    0.00000E+00         0.00000E+00        -0.73558E+08
 
   -0.73391E+08         0.19626E+07         0.00000E+00
    0.19626E+07        -0.96772E+08         0.00000E+00
    0.00000E+00         0.00000E+00        -0.73379E+08
 
   -0.73214E+08         0.19444E+07         0.00000E+00
    0.19444E+07        -0.96708E+08         0.00000E+00
    0.00000E+00         0.00000E+00        -0.73202E+08
 
   -0.73039E+08         0.19265E+07         0.00000E+00
    0.19265E+07        -0.96644E+08         0.00000E+00
    0.00000E+00         0.00000E+00        -0.73027E+08
 
   -0.72865E+08         0.19091E+07         0.00000E+00
    0.19091E+07        -0.96580E+08         0.00000E+00
    0.00000E+00         0.00000E+00        -0.72854E+08
 
   -0.72693E+08         0.18921E+07         0.00000E+00
    0.18921E+07        -0.96516E+08         0.00000E+00
    0.00000E+00         0.00000E+00        -0.72682E+08
 
   -0.72523E+08         0.18757E+07         0.00000E+00
    0.18757E+07        -0.96453E+08         0.00000E+00
    0.00000E+00         0.00000E+00        -0.72512E+08
 
   -0.72353E+08         0.18599E+07         0.00000E+00
    0.18599E+07        -0.96389E+08         0.00000E+00
    0.00000E+00         0.00000E+00        -0.72343E+08
 
   -0.72185E+08         0.18446E+07         0.00000E+00
    0.18446E+07        -0.96325E+08         0.00000E+00
    0.00000E+00         0.00000E+00        -0.72176E+08
 
   -0.72018E+08         0.18300E+07         0.00000E+00
    0.18300E+07        -0.96262E+08         0.00000E+00
    0.00000E+00         0.00000E+00        -0.72010E+08
 
   -0.71852E+08         0.18160E+07         0.00000E+00
    0.18160E+07        -0.96198E+08         0.00000E+00
    0.00000E+00         0.00000E+00        -0.71844E+08
 
   -0.71686E+08         0.18026E+07         0.00000E+00
    0.18026E+07        -0.96135E+08         0.00000E+00
    0.00000E+00         0.00000E+00        -0.71680E+08
 
   -0.71522E+08         0.17898E+07         0.00000E+00
    0.17898E+07        -0.96072E+08         0.00000E+00
    0.00000E+00         0.00000E+00        -0.71517E+08
 
   -0.71358E+08         0.17776E+07         0.00000E+00
    0.17776E+07        -0.96009E+08         0.00000E+00
    0.00000E+00         0.00000E+00        -0.71354E+08
 
   -0.71195E+08         0.17661E+07         0.00000E+00
    0.17661E+07        -0.95946E+08         0.00000E+00
    0.00000E+00         0.00000E+00        -0.71192E+08
 
   -0.71033E+08         0.17551E+07         0.00000E+00
    0.17551E+07        -0.95884E+08         0.00000E+00
    0.00000E+00         0.00000E+00        -0.71030E+08
 
   -0.70871E+08         0.17447E+07         0.00000E+00
    0.17447E+07        -0.95822E+08         0.00000E+00
    0.00000E+00         0.00000E+00        -0.70869E+08
 
   -0.70709E+08         0.17348E+07         0.00000E+00
    0.17348E+07        -0.95760E+08         0.00000E+00
    0.00000E+00         0.00000E+00        -0.70708E+08
 
   -0.70548E+08         0.17254E+07         0.00000E+00
    0.17254E+07        -0.95699E+08         0.00000E+00
    0.00000E+00         0.00000E+00        -0.70548E+08
 
   -0.70387E+08         0.17164E+07         0.00000E+00
    0.17164E+07        -0.95638E+08         0.00000E+00
    0.00000E+00         0.00000E+00        -0.70387E+08
 
   -0.70226E+08         0.17079E+07         0.00000E+00
    0.17079E+07        -0.95577E+08         0.00000E+00
    0.00000E+00         0.00000E+00        -0.70227E+08
 
   -0.70065E+08         0.16997E+07         0.00000E+00
    0.16997E+07        -0.95517E+08         0.00000E+00
    0.00000E+00         0.00000E+00        -0.70066E+08
 
   -0.69903E+08         0.16918E+07         0.00000E+00
    0.16918E+07        -0.95458E+08         0.00000E+00
    0.00000E+00         0.00000E+00        -0.69906E+08
 
   -0.69742E+08         0.16841E+07         0.00000E+00
    0.16841E+07        -0.95399E+08         0.00000E+00
    0.00000E+00         0.00000E+00        -0.69745E+08
 
   -0.69581E+08         0.16766E+07         0.00000E+00
    0.16766E+07        -0.95341E+08         0.00000E+00
    0.00000E+00         0.00000E+00        -0.69583E+08
 
   -0.69419E+08         0.16691E+07         0.00000E+00
    0.16691E+07        -0.95283E+08         0.00000E+00
    0.00000E+00         0.00000E+00        -0.69422E+08
 
   -0.69256E+08         0.16616E+07         0.00000E+00
    0.16616E+07        -0.95226E+08         0.00000E+00
    0.00000E+00         0.00000E+00        -0.69259E+08
 
   -0.69094E+08         0.16540E+07         0.00000E+00
    0.16540E+07        -0.95171E+08         0.00000E+00
    0.00000E+00         0.00000E+00        -0.69096E+08
 
   -0.68931E+08         0.16462E+07         0.00000E+00
    0.16462E+07        -0.95116E+08         0.00000E+00
    0.00000E+00         0.00000E+00        -0.68933E+08
 
   -0.68767E+08         0.16381E+07         0.00000E+00
    0.16381E+07        -0.95062E+08         0.00000E+00
    0.00000E+00         0.00000E+00        -0.68769E+08
 
   -0.68603E+08         0.16295E+07         0.00000E+00
    0.16295E+07        -0.95009E+08         0.00000E+00
    0.00000E+00         0.00000E+00        -0.68604E+08
 
   -0.68438E+08         0.16202E+07         0.00000E+00
    0.16202E+07        -0.94958E+08         0.00000E+00
    0.00000E+00         0.00000E+00        -0.68438E+08
 
   -0.68273E+08         0.16103E+07         0.00000E+00
    0.16103E+07        -0.94909E+08         0.00000E+00
    0.00000E+00         0.00000E+00        -0.68271E+08
 
   -0.68107E+08         0.15994E+07         0.00000E+00
    0.15994E+07        -0.94861E+08         0.00000E+00
    0.00000E+00         0.00000E+00        -0.68104E+08
 
   -0.67941E+08         0.15874E+07         0.00000E+00
    0.15874E+07        -0.94815E+08         0.00000E+00
    0.00000E+00         0.00000E+00        -0.67935E+08
 
   -0.67774E+08         0.15741E+07         0.00000E+00
    0.15741E+07        -0.94771E+08         0.00000E+00
    0.00000E+00         0.00000E+00        -0.67766E+08
 
   -0.67607E+08         0.15593E+07         0.00000E+00
    0.15593E+07        -0.94730E+08         0.00000E+00
    0.00000E+00         0.00000E+00        -0.67596E+08
 
   -0.67440E+08         0.15428E+07         0.00000E+00
    0.15428E+07        -0.94691E+08         0.00000E+00
    0.00000E+00         0.00000E+00        -0.67426E+08
 
   -0.67272E+08         0.15243E+07         0.00000E+00
    0.15243E+07        -0.94655E+08         0.00000E+00
    0.00000E+00         0.00000E+00        -0.67254E+08
 
   -0.67104E+08         0.15037E+07         0.00000E+00
    0.15037E+07        -0.94622E+08         0.00000E+00
    0.00000E+00         0.00000E+00        -0.67082E+08
 
   -0.66936E+08         0.14806E+07         0.00000E+00
    0.14806E+07        -0.94593E+08         0.00000E+00
    0.00000E+00         0.00000E+00        -0.66909E+08
 
   -0.66769E+08         0.14548E+07         0.00000E+00
    0.14548E+07        -0.94568E+08         0.00000E+00
    0.00000E+00         0.00000E+00        -0.66736E+08
 
   -0.66601E+08         0.14261E+07         0.00000E+00
    0.14261E+07        -0.94547E+08         0.00000E+00
    0.00000E+00         0.00000E+00        -0.66563E+08
 
   -0.66434E+08         0.13943E+07         0.00000E+00
    0.13943E+07        -0.94530E+08         0.00000E+00
    0.00000E+00         0.00000E+00        -0.66390E+08
 
   -0.66267E+08         0.13592E+07         0.00000E+00
    0.13592E+07        -0.94519E+08         0.00000E+00
    0.00000E+00         0.00000E+00        -0.66216E+08
 
   -0.66100E+08         0.13206E+07         0.00000E+00
    0.13206E+07        -0.94512E+08         0.00000E+00
    0.00000E+00         0.00000E+00        -0.66043E+08
 
   -0.65934E+08         0.12785E+07         0.00000E+00
    0.12785E+07        -0.94510E+08         0.00000E+00
    0.00000E+00         0.00000E+00        -0.65870E+08
 
   -0.65768E+08         0.12328E+07         0.00000E+00
    0.12328E+07        -0.94513E+08         0.00000E+00
    0.00000E+00         0.00000E+00        -0.65698E+08
 
   -0.65602E+08         0.11838E+07         0.00000E+00
    0.11838E+07        -0.94520E+08         0.00000E+00
    0.00000E+00         0.00000E+00        -0.65526E+08
 
   -0.65436E+08         0.11315E+07         0.00000E+00
    0.11315E+07        -0.94531E+08         0.00000E+00
    0.00000E+00         0.00000E+00        -0.65353E+08
 
   -0.65269E+08         0.10763E+07         0.00000E+00
    0.10763E+07        -0.94545E+08         0.00000E+00
    0.00000E+00         0.00000E+00        -0.65181E+08
 
   -0.65101E+08         0.10187E+07         0.00000E+00
    0.10187E+07        -0.94560E+08         0.00000E+00
    0.00000E+00         0.00000E+00        -0.65008E+08
 
   -0.64929E+08         0.95901E+06         0.00000E+00
    0.95901E+06        -0.94574E+08         0.00000E+00
    0.00000E+00         0.00000E+00        -0.64832E+08
 
   -0.64754E+08         0.89759E+06         0.00000E+00
    0.89759E+06        -0.94584E+08         0.00000E+00
    0.00000E+00         0.00000E+00        -0.64653E+08
 
   -0.64574E+08         0.83447E+06         0.00000E+00
    0.83447E+06        -0.94586E+08         0.00000E+00
    0.00000E+00         0.00000E+00        -0.64469E+08
 
   -0.64387E+08         0.76907E+06         0.00000E+00
    0.76907E+06        -0.94577E+08         0.00000E+00
    0.00000E+00         0.00000E+00        -0.64276E+08
 
   -0.64193E+08         0.69977E+06         0.00000E+00
    0.69977E+06        -0.94552E+08         0.00000E+00
    0.00000E+00         0.00000E+00        -0.64071E+08
 
   -0.63991E+08         0.62318E+06         0.00000E+00
    0.62318E+06        -0.94507E+08         0.00000E+00
    0.00000E+00         0.00000E+00        -0.63850E+08
 
   -0.63781E+08         0.53380E+06         0.00000E+00
    0.53380E+06        -0.94436E+08         0.00000E+00
    0.00000E+00         0.00000E+00        -0.63607E+08
 
   -0.63567E+08         0.42134E+06         0.00000E+00
    0.42134E+06        -0.94334E+08         0.00000E+00
    0.00000E+00         0.00000E+00        -0.63335E+08
 
   -0.63357E+08         0.27272E+06         0.00000E+00
    0.27272E+06        -0.94194E+08         0.00000E+00
    0.00000E+00         0.00000E+00        -0.63017E+08
 
   -0.63192E+08         0.94045E+05         0.00000E+00
    0.94045E+05        -0.94029E+08         0.00000E+00
    0.00000E+00         0.00000E+00        -0.62632E+08
 
   -0.83194E+08         0.16613E+06         0.00000E+00
    0.16613E+06        -0.97405E+08         0.00000E+00
    0.00000E+00         0.00000E+00        -0.84395E+08
 
   -0.83012E+08         0.48804E+06         0.00000E+00
    0.48804E+06        -0.97055E+08         0.00000E+00
    0.00000E+00         0.00000E+00        -0.83895E+08
 
   -0.82709E+08         0.77785E+06         0.00000E+00
    0.77785E+06        -0.96847E+08         0.00000E+00
    0.00000E+00         0.00000E+00        -0.83395E+08
 
   -0.82346E+08         0.10238E+07         0.00000E+00
    0.10238E+07        -0.96750E+08         0.00000E+00
    0.00000E+00         0.00000E+00        -0.82898E+08
 
   -0.81956E+08         0.12285E+07         0.00000E+00
    0.12285E+07        -0.96733E+08         0.00000E+00
    0.00000E+00         0.00000E+00        -0.82404E+08
 
   -0.81555E+08         0.13971E+07         0.00000E+00
    0.13971E+07        -0.96776E+08         0.00000E+00
    0.00000E+00         0.00000E+00        -0.81912E+08
 
   -0.81153E+08         0.15323E+07         0.00000E+00
    0.15323E+07        -0.96867E+08         0.00000E+00
    0.00000E+00         0.00000E+00        -0.81425E+08
 
   -0.80759E+08         0.16362E+07         0.00000E+00
    0.16362E+07        -0.96996E+08         0.00000E+00
    0.00000E+00         0.00000E+00        -0.80942E+08
 
   -0.80390E+08         0.17055E+07         0.00000E+00
    0.17055E+07        -0.97139E+08         0.00000E+00
    0.00000E+00         0.00000E+00        -0.80477E+08
 
   -0.80054E+08         0.17278E+07         0.00000E+00
    0.17278E+07        -0.97176E+08         0.00000E+00
    0.00000E+00         0.00000E+00        -0.80161E+08
 
   -0.79761E+08         0.17411E+07         0.00000E+00
    0.17411E+07        -0.97179E+08         0.00000E+00
    0.00000E+00         0.00000E+00        -0.79928E+08
 
   -0.79499E+08         0.17634E+07         0.00000E+00
    0.17634E+07        -0.97201E+08         0.00000E+00
    0.00000E+00         0.00000E+00        -0.79693E+08
 
   -0.79254E+08         0.17960E+07         0.00000E+00
    0.17960E+07        -0.97232E+08         0.00000E+00
    0.00000E+00         0.00000E+00        -0.79454E+08
 
   -0.79016E+08         0.18341E+07         0.00000E+00
    0.18341E+07        -0.97267E+08         0.00000E+00
    0.00000E+00         0.00000E+00        -0.79212E+08
 
   -0.78779E+08         0.18740E+07         0.00000E+00
    0.18740E+07        -0.97303E+08         0.00000E+00
    0.00000E+00         0.00000E+00        -0.78965E+08
 
   -0.78542E+08         0.19135E+07         0.00000E+00
    0.19135E+07        -0.97340E+08         0.00000E+00
    0.00000E+00         0.00000E+00        -0.78715E+08
 
   -0.78302E+08         0.19511E+07         0.00000E+00
    0.19511E+07        -0.97375E+08         0.00000E+00
    0.00000E+00         0.00000E+00        -0.78460E+08
 
   -0.78060E+08         0.19858E+07         0.00000E+00
    0.19858E+07        -0.97409E+08         0.00000E+00
    0.00000E+00         0.00000E+00        -0.78203E+08
 
   -0.77816E+08         0.20172E+07         0.00000E+00
    0.20172E+07        -0.97439E+08         0.00000E+00
    0.00000E+00         0.00000E+00        -0.77942E+08
 
   -0.77568E+08         0.20448E+07         0.00000E+00
    0.20448E+07        -0.97467E+08         0.00000E+00
    0.00000E+00         0.00000E+00        -0.77679E+08
 
   -0.77318E+08         0.20686E+07         0.00000E+00
    0.20686E+07        -0.97492E+08         0.00000E+00
    0.00000E+00         0.00000E+00        -0.77414E+08
 
   -0.77066E+08         0.20885E+07         0.00000E+00
    0.20885E+07        -0.97514E+08         0.00000E+00
    0.00000E+00         0.00000E+00        -0.77148E+08
 
   -0.76812E+08         0.21047E+07         0.00000E+00
    0.21047E+07        -0.97533E+08         0.00000E+00
    0.00000E+00         0.00000E+00        -0.76881E+08
 
   -0.76557E+08         0.21174E+07         0.00000E+00
    0.21174E+07        -0.97550E+08         0.00000E+00
    0.00000E+00         0.00000E+00        -0.76614E+08
 
   -0.76302E+08         0.21269E+07         0.00000E+00
    0.21269E+07        -0.97564E+08         0.00000E+00
    0.00000E+00         0.00000E+00        -0.76348E+08
 
   -0.76046E+08         0.21333E+07         0.00000E+00
    0.21333E+07        -0.97576E+08         0.00000E+00
    0.00000E+00         0.00000E+00        -0.76083E+08
 
   -0.75827E+08         0.21297E+07         0.00000E+00
    0.21297E+07        -0.97548E+08         0.00000E+00
    0.00000E+00         0.00000E+00        -0.75855E+08
 
   -0.75630E+08         0.21193E+07         0.00000E+00
    0.21193E+07        -0.97495E+08         0.00000E+00
    0.00000E+00         0.00000E+00        -0.75650E+08
 
   -0.75435E+08         0.21071E+07         0.00000E+00
    0.21071E+07        -0.97440E+08         0.00000E+00
    0.00000E+00         0.00000E+00        -0.75448E+08
 
   -0.75240E+08         0.20933E+07         0.00000E+00
    0.20933E+07        -0.97384E+08         0.00000E+00
    0.00000E+00         0.00000E+00        -0.75248E+08
 
   -0.75047E+08         0.20782E+07         0.00000E+00
    0.20782E+07        -0.97326E+08         0.00000E+00
    0.00000E+00         0.00000E+00        -0.75050E+08
 
   -0.74856E+08         0.20621E+07         0.00000E+00
    0.20621E+07        -0.97267E+08         0.00000E+00
    0.00000E+00         0.00000E+00        -0.74855E+08
 
   -0.74666E+08         0.20451E+07         0.00000E+00
    0.20451E+07        -0.97207E+08         0.00000E+00
    0.00000E+00         0.00000E+00        -0.74662E+08
 
   -0.74478E+08         0.20276E+07         0.00000E+00
    0.20276E+07        -0.97146E+08         0.00000E+00
    0.00000E+00         0.00000E+00        -0.74471E+08
 
   -0.74291E+08         0.20096E+07         0.00000E+00
    0.20096E+07        -0.97084E+08         0.00000E+00
    0.00000E+00         0.00000E+00        -0.74282E+08
 
   -0.74106E+08         0.19914E+07         0.00000E+00
    0.19914E+07        -0.97022E+08         0.00000E+00
    0.00000E+00         0.00000E+00        -0.74095E+08
 
   -0.73923E+08         0.19730E+07         0.00000E+00
    0.19730E+07        -0.96960E+08         0.00000E+00
    0.00000E+00         0.00000E+00        -0.73911E+08
 
   -0.73742E+08         0.19547E+07         0.00000E+00
    0.19547E+07        -0.96897E+08         0.00000E+00
    0.00000E+00         0.00000E+00        -0.73728E+08
 
   -0.73562E+08         0.19365E+07         0.00000E+00
    0.19365E+07        -0.96834E+08         0.00000E+00
    0.00000E+00         0.00000E+00        -0.73548E+08
 
   -0.73384E+08         0.19185E+07         0.00000E+00
    0.19185E+07        -0.96770E+08         0.00000E+00
    0.00000E+00         0.00000E+00        -0.73370E+08
 
   -0.73208E+08         0.19008E+07         0.00000E+00
    0.19008E+07        -0.96707E+08         0.00000E+00
    0.00000E+00         0.00000E+00        -0.73193E+08
 
   -0.73033E+08         0.18835E+07         0.00000E+00
    0.18835E+07        -0.96643E+08         0.00000E+00
    0.00000E+00         0.00000E+00        -0.73019E+08
 
   -0.72859E+08         0.18666E+07         0.00000E+00
    0.18666E+07        -0.96580E+08         0.00000E+00
    0.00000E+00         0.00000E+00        -0.72846E+08
 
   -0.72688E+08         0.18501E+07         0.00000E+00
    0.18501E+07        -0.96516E+08         0.00000E+00
    0.00000E+00         0.00000E+00        -0.72674E+08
 
   -0.72517E+08         0.18342E+07         0.00000E+00
    0.18342E+07        -0.96453E+08         0.00000E+00
    0.00000E+00         0.00000E+00        -0.72504E+08
 
   -0.72348E+08         0.18188E+07         0.00000E+00
    0.18188E+07        -0.96389E+08         0.00000E+00
    0.00000E+00         0.00000E+00        -0.72336E+08
 
   -0.72180E+08         0.18040E+07         0.00000E+00
    0.18040E+07        -0.96326E+08         0.00000E+00
    0.00000E+00         0.00000E+00        -0.72169E+08
 
   -0.72013E+08         0.17898E+07         0.00000E+00
    0.17898E+07        -0.96262E+08         0.00000E+00
    0.00000E+00         0.00000E+00        -0.72003E+08
 
   -0.71847E+08         0.17761E+07         0.00000E+00
    0.17761E+07        -0.96199E+08         0.00000E+00
    0.00000E+00         0.00000E+00        -0.71838E+08
 
   -0.71682E+08         0.17631E+07         0.00000E+00
    0.17631E+07        -0.96136E+08         0.00000E+00
    0.00000E+00         0.00000E+00        -0.71674E+08
 
   -0.71518E+08         0.17507E+07         0.00000E+00
    0.17507E+07        -0.96073E+08         0.00000E+00
    0.00000E+00         0.00000E+00        -0.71511E+08
 
   -0.71354E+08         0.17388E+07         0.00000E+00
    0.17388E+07        -0.96011E+08         0.00000E+00
    0.00000E+00         0.00000E+00        -0.71348E+08
 
   -0.71191E+08         0.17276E+07         0.00000E+00
    0.17276E+07        -0.95948E+08         0.00000E+00
    0.00000E+00         0.00000E+00        -0.71187E+08
 
   -0.71029E+08         0.17169E+07         0.00000E+00
    0.17169E+07        -0.95886E+08         0.00000E+00
    0.00000E+00         0.00000E+00        -0.71025E+08
 
   -0.70867E+08         0.17067E+07         0.00000E+00
    0.17067E+07        -0.95824E+08         0.00000E+00
    0.00000E+00         0.00000E+00        -0.70865E+08
 
   -0.70705E+08         0.16970E+07         0.00000E+00
    0.16970E+07        -0.95763E+08         0.00000E+00
    0.00000E+00         0.00000E+00        -0.70704E+08
 
   -0.70544E+08         0.16878E+07         0.00000E+00
    0.16878E+07        -0.95701E+08         0.00000E+00
    0.00000E+00         0.00000E+00        -0.70544E+08
 
   -0.70383E+08         0.16791E+07         0.00000E+00
    0.16791E+07        -0.95641E+08         0.00000E+00
    0.00000E+00         0.00000E+00        -0.70384E+08
 
   -0.70222E+08         0.16707E+07         0.00000E+00
    0.16707E+07        -0.95580E+08         0.00000E+00
    0.00000E+00         0.00000E+00        -0.70224E+08
 
   -0.70061E+08         0.16627E+07         0.00000E+00
    0.16627E+07        -0.95520E+08         0.00000E+00
    0.00000E+00         0.00000E+00        -0.70063E+08
 
   -0.69900E+08         0.16549E+07         0.00000E+00
    0.16549E+07        -0.95461E+08         0.00000E+00
    0.00000E+00         0.00000E+00        -0.69903E+08
 
   -0.69739E+08         0.16474E+07         0.00000E+00
    0.16474E+07        -0.95402E+08         0.00000E+00
    0.00000E+00         0.00000E+00        -0.69742E+08
 
   -0.69577E+08         0.16400E+07         0.00000E+00
    0.16400E+07        -0.95344E+08         0.00000E+00
    0.00000E+00         0.00000E+00        -0.69581E+08
 
   -0.69415E+08         0.16326E+07         0.00000E+00
    0.16326E+07        -0.95287E+08         0.00000E+00
    0.00000E+00         0.00000E+00        -0.69419E+08
 
   -0.69253E+08         0.16253E+07         0.00000E+00
    0.16253E+07        -0.95230E+08         0.00000E+00
    0.00000E+00         0.00000E+00        -0.69257E+08
 
   -0.69091E+08         0.16178E+07         0.00000E+00
    0.16178E+07        -0.95174E+08         0.00000E+00
    0.00000E+00         0.00000E+00        -0.69094E+08
 
   -0.68928E+08         0.16101E+07         0.00000E+00
    0.16101E+07        -0.95119E+08         0.00000E+00
    0.00000E+00         0.00000E+00        -0.68931E+08
 
   -0.68764E+08         0.16020E+07         0.00000E+00
    0.16020E+07        -0.95066E+08         0.00000E+00
    0.00000E+00         0.00000E+00        -0.68766E+08
 
   -0.68600E+08         0.15935E+07         0.00000E+00
    0.15935E+07        -0.95013E+08         0.00000E+00
    0.00000E+00         0.00000E+00        -0.68601E+08
 
   -0.68436E+08         0.15844E+07         0.00000E+00
    0.15844E+07        -0.94962E+08         0.00000E+00
    0.00000E+00         0.00000E+00        -0.68435E+08
 
   -0.68271E+08         0.15746E+07         0.00000E+00
    0.15746E+07        -0.94912E+08         0.00000E+00
    0.00000E+00         0.00000E+00        -0.68269E+08
 
   -0.68105E+08         0.15638E+07         0.00000E+00
    0.15638E+07        -0.94864E+08         0.00000E+00
    0.00000E+00         0.00000E+00        -0.68101E+08
 
   -0.67939E+08         0.15520E+07         0.00000E+00
    0.15520E+07        -0.94818E+08         0.00000E+00
    0.00000E+00         0.00000E+00        -0.67933E+08
 
   -0.67773E+08         0.15389E+07         0.00000E+00
    0.15389E+07        -0.94774E+08         0.00000E+00
    0.00000E+00         0.00000E+00        -0.67763E+08
 
   -0.67606E+08         0.15243E+07         0.00000E+00
    0.15243E+07        -0.94732E+08         0.00000E+00
    0.00000E+00         0.00000E+00        -0.67593E+08
 
   -0.67439E+08         0.15080E+07         0.00000E+00
    0.15080E+07        -0.94693E+08         0.00000E+00
    0.00000E+00         0.00000E+00        -0.67422E+08
 
   -0.67271E+08         0.14898E+07         0.00000E+00
    0.14898E+07        -0.94657E+08         0.00000E+00
    0.00000E+00         0.00000E+00        -0.67250E+08
 
   -0.67104E+08         0.14694E+07         0.00000E+00
    0.14694E+07        -0.94624E+08         0.00000E+00
    0.00000E+00         0.00000E+00        -0.67077E+08
 
   -0.66936E+08         0.14466E+07         0.00000E+00
    0.14466E+07        -0.94594E+08         0.00000E+00
    0.00000E+00         0.00000E+00        -0.66904E+08
 
   -0.66769E+08         0.14212E+07         0.00000E+00
    0.14212E+07        -0.94569E+08         0.00000E+00
    0.00000E+00         0.00000E+00        -0.66730E+08
 
   -0.66601E+08         0.13929E+07         0.00000E+00
    0.13929E+07        -0.94547E+08         0.00000E+00
    0.00000E+00         0.00000E+00        -0.66556E+08
 
   -0.66435E+08         0.13615E+07         0.00000E+00
    0.13615E+07        -0.94530E+08         0.00000E+00
    0.00000E+00         0.00000E+00        -0.66382E+08
 
   -0.66268E+08         0.13268E+07         0.00000E+00
    0.13268E+07        -0.94517E+08         0.00000E+00
    0.00000E+00         0.00000E+00        -0.66207E+08
 
   -0.66102E+08         0.12886E+07         0.00000E+00
    0.12886E+07        -0.94510E+08         0.00000E+00
    0.00000E+00         0.00000E+00        -0.66033E+08
 
   -0.65936E+08         0.12469E+07         0.00000E+00
    0.12469E+07        -0.94507E+08         0.00000E+00
    0.00000E+00         0.00000E+00        -0.65859E+08
 
   -0.65771E+08         0.12017E+07         0.00000E+00
    0.12017E+07        -0.94509E+08         0.00000E+00
    0.00000E+00         0.00000E+00        -0.65686E+08
 
   -0.65606E+08         0.11530E+07         0.00000E+00
    0.11530E+07        -0.94516E+08         0.00000E+00
    0.00000E+00         0.00000E+00        -0.65512E+08
 
   -0.65440E+08         0.11010E+07         0.00000E+00
    0.11010E+07        -0.94526E+08         0.00000E+00
    0.00000E+00         0.00000E+00        -0.65339E+08
 
   -0.65274E+08         0.10460E+07         0.00000E+00
    0.10460E+07        -0.94539E+08         0.00000E+00
    0.00000E+00         0.00000E+00        -0.65165E+08
 
   -0.65105E+08         0.98838E+06         0.00000E+00
    0.98838E+06        -0.94553E+08         0.00000E+00
    0.00000E+00         0.00000E+00        -0.64991E+08
 
   -0.64934E+08         0.92850E+06         0.00000E+00
    0.92850E+06        -0.94565E+08         0.00000E+00
    0.00000E+00         0.00000E+00        -0.64814E+08
 
   -0.64760E+08         0.86668E+06         0.00000E+00
    0.86668E+06        -0.94574E+08         0.00000E+00
    0.00000E+00         0.00000E+00        -0.64634E+08
 
   -0.64580E+08         0.80294E+06         0.00000E+00
    0.80294E+06        -0.94576E+08         0.00000E+00
    0.00000E+00         0.00000E+00        -0.64448E+08
 
   -0.64394E+08         0.73673E+06         0.00000E+00
    0.73673E+06        -0.94565E+08         0.00000E+00
    0.00000E+00         0.00000E+00        -0.64254E+08
 
   -0.64200E+08         0.66646E+06         0.00000E+00
    0.66646E+06        -0.94539E+08         0.00000E+00
    0.00000E+00         0.00000E+00        -0.64047E+08
 
   -0.63999E+08         0.58896E+06         0.00000E+00
    0.58896E+06        -0.94492E+08         0.00000E+00
    0.00000E+00         0.00000E+00        -0.63823E+08
 
   -0.63793E+08         0.49891E+06         0.00000E+00
    0.49891E+06        -0.94418E+08         0.00000E+00
    0.00000E+00         0.00000E+00        -0.63575E+08
 
   -0.63583E+08         0.38693E+06         0.00000E+00
    0.38693E+06        -0.94312E+08         0.00000E+00
    0.00000E+00         0.00000E+00        -0.63294E+08
 
   -0.63384E+08         0.24514E+06         0.00000E+00
    0.24514E+06        -0.94169E+08         0.00000E+00
    0.00000E+00         0.00000E+00        -0.62964E+08
 
   -0.63231E+08         0.83249E+05         0.00000E+00
    0.83249E+05        -0.94005E+08         0.00000E+00
    0.00000E+00         0.00000E+00        -0.62569E+08
 
   -0.83021E+08         0.14795E+06         0.00000E+00
    0.14795E+06        -0.97467E+08         0.00000E+00
    0.00000E+00         0.00000E+00        -0.84395E+08
 
   -0.82859E+08         0.43956E+06         0.00000E+00
    0.43956E+06        -0.97115E+08         0.00000E+00
    0.00000E+00         0.00000E+00        -0.83895E+08
 
   -0.82581E+08         0.71174E+06         0.00000E+00
    0.71174E+06        -0.96900E+08         0.00000E+00
    0.00000E+00         0.00000E+00        -0.83395E+08
 
   -0.82241E+08         0.94960E+06         0.00000E+00
    0.94960E+06        -0.96795E+08         0.00000E+00
    0.00000E+00         0.00000E+00        -0.82898E+08
 
   -0.81869E+08         0.11506E+07         0.00000E+00
    0.11506E+07        -0.96770E+08         0.00000E+00
    0.00000E+00         0.00000E+00        -0.82404E+08
 
   -0.81484E+08         0.13178E+07         0.00000E+00
    0.13178E+07        -0.96807E+08         0.00000E+00
    0.00000E+00         0.00000E+00        -0.81912E+08
 
   -0.81097E+08         0.14538E+07         0.00000E+00
    0.14538E+07        -0.96891E+08         0.00000E+00
    0.00000E+00         0.00000E+00        -0.81425E+08
 
   -0.80716E+08         0.15602E+07         0.00000E+00
    0.15602E+07        -0.97014E+08         0.00000E+00
    0.00000E+00         0.00000E+00        -0.80942E+08
 
   -0.80356E+08         0.16361E+07         0.00000E+00
    0.16361E+07        -0.97148E+08         0.00000E+00
    0.00000E+00         0.00000E+00        -0.80479E+08
 
   -0.80023E+08         0.16641E+07         0.00000E+00
    0.16641E+07        -0.97179E+08         0.00000E+00
    0.00000E+00         0.00000E+00        -0.80162E+08
 
   -0.79726E+08         0.16855E+07         0.00000E+00
    0.16855E+07        -0.97183E+08         0.00000E+00
    0.00000E+00         0.00000E+00        -0.79925E+08
 
   -0.79461E+08         0.17129E+07         0.00000E+00
    0.17129E+07        -0.97207E+08         0.00000E+00
    0.00000E+00         0.00000E+00        -0.79688E+08
 
   -0.79214E+08         0.17478E+07         0.00000E+00
    0.17478E+07        -0.97239E+08         0.00000E+00
    0.00000E+00         0.00000E+00        -0.79447E+08
 
   -0.78975E+08         0.17867E+07         0.00000E+00
    0.17867E+07        -0.97275E+08         0.00000E+00
    0.00000E+00         0.00000E+00        -0.79203E+08
 
   -0.78739E+08         0.18267E+07         0.00000E+00
    0.18267E+07        -0.97311E+08         0.00000E+00
    0.00000E+00         0.00000E+00        -0.78955E+08
 
   -0.78502E+08         0.18660E+07         0.00000E+00
    0.18660E+07        -0.97348E+08         0.00000E+00
    0.00000E+00         0.00000E+00        -0.78703E+08
 
   -0.78265E+08         0.19031E+07         0.00000E+00
    0.19031E+07        -0.97383E+08         0.00000E+00
    0.00000E+00         0.00000E+00        -0.78447E+08
 
   -0.78024E+08         0.19374E+07         0.00000E+00
    0.19374E+07        -0.97415E+08         0.00000E+00
    0.00000E+00         0.00000E+00        -0.78188E+08
 
   -0.77782E+08         0.19682E+07         0.00000E+00
    0.19682E+07        -0.97445E+08         0.00000E+00
    0.00000E+00         0.00000E+00        -0.77927E+08
 
   -0.77536E+08         0.19953E+07         0.00000E+00
    0.19953E+07        -0.97472E+08         0.00000E+00
    0.00000E+00         0.00000E+00        -0.77663E+08
 
   -0.77288E+08         0.20186E+07         0.00000E+00
    0.20186E+07        -0.97496E+08         0.00000E+00
    0.00000E+00         0.00000E+00        -0.77398E+08
 
   -0.77038E+08         0.20381E+07         0.00000E+00
    0.20381E+07        -0.97517E+08         0.00000E+00
    0.00000E+00         0.00000E+00        -0.77132E+08
 
   -0.76786E+08         0.20540E+07         0.00000E+00
    0.20540E+07        -0.97536E+08         0.00000E+00
    0.00000E+00         0.00000E+00        -0.76865E+08
 
   -0.76533E+08         0.20665E+07         0.00000E+00
    0.20665E+07        -0.97552E+08         0.00000E+00
    0.00000E+00         0.00000E+00        -0.76599E+08
 
   -0.76279E+08         0.20758E+07         0.00000E+00
    0.20758E+07        -0.97566E+08         0.00000E+00
    0.00000E+00         0.00000E+00        -0.76332E+08
 
   -0.76028E+08         0.20817E+07         0.00000E+00
    0.20817E+07        -0.97575E+08         0.00000E+00
    0.00000E+00         0.00000E+00        -0.76070E+08
 
   -0.75812E+08         0.20779E+07         0.00000E+00
    0.20779E+07        -0.97544E+08         0.00000E+00
    0.00000E+00         0.00000E+00        -0.75844E+08
 
   -0.75617E+08         0.20681E+07         0.00000E+00
    0.20681E+07        -0.97491E+08         0.00000E+00
    0.00000E+00         0.00000E+00        -0.75639E+08
 
   -0.75422E+08         0.20564E+07         0.00000E+00
    0.20564E+07        -0.97436E+08         0.00000E+00
    0.00000E+00         0.00000E+00        -0.75437E+08
 
   -0.75228E+08         0.20432E+07         0.00000E+00
    0.20432E+07        -0.97380E+08         0.00000E+00
    0.00000E+00         0.00000E+00        -0.75237E+08
 
   -0.75036E+08         0.20287E+07         0.00000E+00
    0.20287E+07        -0.97322E+08         0.00000E+00
    0.00000E+00         0.00000E+00        -0.75039E+08
 
   -0.74845E+08         0.20131E+07         0.00000E+00
    0.20131E+07        -0.97263E+08         0.00000E+00
    0.00000E+00         0.00000E+00        -0.74844E+08
 
   -0.74656E+08         0.19968E+07         0.00000E+00
    0.19968E+07        -0.97204E+08         0.00000E+00
    0.00000E+00         0.00000E+00        -0.74651E+08
 
   -0.74468E+08         0.19799E+07         0.00000E+00
    0.19799E+07        -0.97143E+08         0.00000E+00
    0.00000E+00         0.00000E+00        -0.74460E+08
 
   -0.74282E+08         0.19625E+07         0.00000E+00
    0.19625E+07        -0.97082E+08         0.00000E+00
    0.00000E+00         0.00000E+00        -0.74271E+08
 
   -0.74098E+08         0.19449E+07         0.00000E+00
    0.19449E+07        -0.97020E+08         0.00000E+00
    0.00000E+00         0.00000E+00        -0.74085E+08
 
   -0.73915E+08         0.19272E+07         0.00000E+00
    0.19272E+07        -0.96958E+08         0.00000E+00
    0.00000E+00         0.00000E+00        -0.73900E+08
 
   -0.73734E+08         0.19094E+07         0.00000E+00
    0.19094E+07        -0.96895E+08         0.00000E+00
    0.00000E+00         0.00000E+00        -0.73718E+08
 
   -0.73555E+08         0.18918E+07         0.00000E+00
    0.18918E+07        -0.96832E+08         0.00000E+00
    0.00000E+00         0.00000E+00        -0.73538E+08
 
   -0.73377E+08         0.18744E+07         0.00000E+00
    0.18744E+07        -0.96769E+08         0.00000E+00
    0.00000E+00         0.00000E+00        -0.73360E+08
 
   -0.73201E+08         0.18573E+07         0.00000E+00
    0.18573E+07        -0.96706E+08         0.00000E+00
    0.00000E+00         0.00000E+00        -0.73184E+08
 
   -0.73027E+08         0.18405E+07         0.00000E+00
    0.18405E+07        -0.96643E+08         0.00000E+00
    0.00000E+00         0.00000E+00        -0.73010E+08
 
   -0.72854E+08         0.18241E+07         0.00000E+00
    0.18241E+07        -0.96579E+08         0.00000E+00
    0.00000E+00         0.00000E+00        -0.72837E+08
 
   -0.72682E+08         0.18082E+07         0.00000E+00
    0.18082E+07        -0.96516E+08         0.00000E+00
    0.00000E+00         0.00000E+00        -0.72666E+08
 
   -0.72512E+08         0.17927E+07         0.00000E+00
    0.17927E+07        -0.96452E+08         0.00000E+00
    0.00000E+00         0.00000E+00        -0.72497E+08
 
   -0.72343E+08         0.17778E+07         0.00000E+00
    0.17778E+07        -0.96389E+08         0.00000E+00
    0.00000E+00         0.00000E+00        -0.72329E+08
 
   -0.72175E+08         0.17634E+07         0.00000E+00
    0.17634E+07        -0.96326E+08         0.00000E+00
    0.00000E+00         0.00000E+00        -0.72162E+08
 
   -0.72008E+08         0.17496E+07         0.00000E+00
    0.17496E+07        -0.96263E+08         0.00000E+00
    0.00000E+00         0.00000E+00        -0.71996E+08
 
   -0.71842E+08         0.17363E+07         0.00000E+00
    0.17363E+07        -0.96200E+08         0.00000E+00
    0.00000E+00         0.00000E+00        -0.71832E+08
 
   -0.71677E+08         0.17237E+07         0.00000E+00
    0.17237E+07        -0.96137E+08         0.00000E+00
    0.00000E+00         0.00000E+00        -0.71668E+08
 
   -0.71513E+08         0.17116E+07         0.00000E+00
    0.17116E+07        -0.96074E+08         0.00000E+00
    0.00000E+00         0.00000E+00        -0.71505E+08
 
   -0.71350E+08         0.17000E+07         0.00000E+00
    0.17000E+07        -0.96012E+08         0.00000E+00
    0.00000E+00         0.00000E+00        -0.71343E+08
 
   -0.71187E+08         0.16891E+07         0.00000E+00
    0.16891E+07        -0.95950E+08         0.00000E+00
    0.00000E+00         0.00000E+00        -0.71182E+08
 
   -0.71025E+08         0.16786E+07         0.00000E+00
    0.16786E+07        -0.95888E+08         0.00000E+00
    0.00000E+00         0.00000E+00        -0.71021E+08
 
   -0.70863E+08         0.16687E+07         0.00000E+00
    0.16687E+07        -0.95826E+08         0.00000E+00
    0.00000E+00         0.00000E+00        -0.70860E+08
 
   -0.70701E+08         0.16593E+07         0.00000E+00
    0.16593E+07        -0.95765E+08         0.00000E+00
    0.00000E+00         0.00000E+00        -0.70700E+08
 
   -0.70540E+08         0.16503E+07         0.00000E+00
    0.16503E+07        -0.95704E+08         0.00000E+00
    0.00000E+00         0.00000E+00        -0.70540E+08
 
   -0.70379E+08         0.16417E+07         0.00000E+00
    0.16417E+07        -0.95643E+08         0.00000E+00
    0.00000E+00         0.00000E+00        -0.70380E+08
 
   -0.70218E+08         0.16335E+07         0.00000E+00
    0.16335E+07        -0.95583E+08         0.00000E+00
    0.00000E+00         0.00000E+00        -0.70220E+08
 
   -0.70057E+08         0.16257E+07         0.00000E+00
    0.16257E+07        -0.95523E+08         0.00000E+00
    0.00000E+00         0.00000E+00        -0.70060E+08
 
   -0.69896E+08         0.16180E+07         0.00000E+00
    0.16180E+07        -0.95464E+08         0.00000E+00
    0.00000E+00         0.00000E+00        -0.69900E+08
 
   -0.69735E+08         0.16106E+07         0.00000E+00
    0.16106E+07        -0.95405E+08         0.00000E+00
    0.00000E+00         0.00000E+00        -0.69739E+08
 
   -0.69574E+08         0.16034E+07         0.00000E+00
    0.16034E+07        -0.95347E+08         0.00000E+00
    0.00000E+00         0.00000E+00        -0.69578E+08
 
   -0.69412E+08         0.15962E+07         0.00000E+00
    0.15962E+07        -0.95290E+08         0.00000E+00
    0.00000E+00         0.00000E+00        -0.69417E+08
 
   -0.69250E+08         0.15889E+07         0.00000E+00
    0.15889E+07        -0.95233E+08         0.00000E+00
    0.00000E+00         0.00000E+00        -0.69255E+08
 
   -0.69087E+08         0.15815E+07         0.00000E+00
    0.15815E+07        -0.95178E+08         0.00000E+00
    0.00000E+00         0.00000E+00        -0.69092E+08
 
   -0.68924E+08         0.15739E+07         0.00000E+00
    0.15739E+07        -0.95123E+08         0.00000E+00
    0.00000E+00         0.00000E+00        -0.68928E+08
 
   -0.68761E+08         0.15660E+07         0.00000E+00
    0.15660E+07        -0.95069E+08         0.00000E+00
    0.00000E+00         0.00000E+00        -0.68764E+08
 
   -0.68597E+08         0.15576E+07         0.00000E+00
    0.15576E+07        -0.95017E+08         0.00000E+00
    0.00000E+00         0.00000E+00        -0.68599E+08
 
   -0.68433E+08         0.15486E+07         0.00000E+00
    0.15486E+07        -0.94965E+08         0.00000E+00
    0.00000E+00         0.00000E+00        -0.68433E+08
 
   -0.68268E+08         0.15389E+07         0.00000E+00
    0.15389E+07        -0.94916E+08         0.00000E+00
    0.00000E+00         0.00000E+00        -0.68266E+08
 
   -0.68103E+08         0.15283E+07         0.00000E+00
    0.15283E+07        -0.94867E+08         0.00000E+00
    0.00000E+00         0.00000E+00        -0.68098E+08
 
   -0.67937E+08         0.15166E+07         0.00000E+00
    0.15166E+07        -0.94821E+08         0.00000E+00
    0.00000E+00         0.00000E+00        -0.67930E+08
 
   -0.67771E+08         0.15037E+07         0.00000E+00
    0.15037E+07        -0.94777E+08         0.00000E+00
    0.00000E+00         0.00000E+00        -0.67760E+08
 
   -0.67604E+08         0.14893E+07         0.00000E+00
    0.14893E+07        -0.94735E+08         0.00000E+00
    0.00000E+00         0.00000E+00        -0.67589E+08
 
   -0.67437E+08         0.14732E+07         0.00000E+00
    0.14732E+07        -0.94696E+08         0.00000E+00
    0.00000E+00         0.00000E+00        -0.67418E+08
 
   -0.67270E+08         0.14553E+07         0.00000E+00
    0.14553E+07        -0.94659E+08         0.00000E+00
    0.00000E+00         0.00000E+00        -0.67245E+08
 
   -0.67103E+08         0.14352E+07         0.00000E+00
    0.14352E+07        -0.94626E+08         0.00000E+00
    0.00000E+00         0.00000E+00        -0.67072E+08
 
   -0.66936E+08         0.14127E+07         0.00000E+00
    0.14127E+07        -0.94596E+08         0.00000E+00
    0.00000E+00         0.00000E+00        -0.66898E+08
 
   -0.66769E+08         0.13877E+07         0.00000E+00
    0.13877E+07        -0.94569E+08         0.00000E+00
    0.00000E+00         0.00000E+00        -0.66724E+08
 
   -0.66602E+08         0.13598E+07         0.00000E+00
    0.13598E+07        -0.94547E+08         0.00000E+00
    0.00000E+00         0.00000E+00        -0.66549E+08
 
   -0.66435E+08         0.13288E+07         0.00000E+00
    0.13288E+07        -0.94529E+08         0.00000E+00
    0.00000E+00         0.00000E+00        -0.66374E+08
 
   -0.66269E+08         0.12945E+07         0.00000E+00
    0.12945E+07        -0.94516E+08         0.00000E+00
    0.00000E+00         0.00000E+00        -0.66199E+08
 
   -0.66104E+08         0.12568E+07         0.00000E+00
    0.12568E+07        -0.94508E+08         0.00000E+00
    0.00000E+00         0.00000E+00        -0.66023E+08
 
   -0.65939E+08         0.12155E+07         0.00000E+00
    0.12155E+07        -0.94504E+08         0.00000E+00
    0.00000E+00         0.00000E+00        -0.65848E+08
 
   -0.65774E+08         0.11707E+07         0.00000E+00
    0.11707E+07        -0.94505E+08         0.00000E+00
    0.00000E+00         0.00000E+00        -0.65674E+08
 
   -0.65609E+08         0.11223E+07         0.00000E+00
    0.11223E+07        -0.94511E+08         0.00000E+00
    0.00000E+00         0.00000E+00        -0.65499E+08
 
   -0.65444E+08         0.10706E+07         0.00000E+00
    0.10706E+07        -0.94520E+08         0.00000E+00
    0.00000E+00         0.00000E+00        -0.65325E+08
 
   -0.65278E+08         0.10157E+07         0.00000E+00
    0.10157E+07        -0.94532E+08         0.00000E+00
    0.00000E+00         0.00000E+00        -0.65150E+08
 
   -0.65110E+08         0.95806E+06         0.00000E+00
    0.95806E+06        -0.94545E+08         0.00000E+00
    0.00000E+00         0.00000E+00        -0.64974E+08
 
   -0.64940E+08         0.89799E+06         0.00000E+00
    0.89799E+06        -0.94557E+08         0.00000E+00
    0.00000E+00         0.00000E+00        -0.64796E+08
 
   -0.64765E+08         0.83578E+06         0.00000E+00
    0.83578E+06        -0.94565E+08         0.00000E+00
    0.00000E+00         0.00000E+00        -0.64615E+08
 
   -0.64586E+08         0.77145E+06         0.00000E+00
    0.77145E+06        -0.94565E+08         0.00000E+00
    0.00000E+00         0.00000E+00        -0.64428E+08
 
   -0.64401E+08         0.70450E+06         0.00000E+00
    0.70450E+06        -0.94554E+08         0.00000E+00
    0.00000E+00         0.00000E+00        -0.64232E+08
 
   -0.64208E+08         0.63343E+06         0.00000E+00
    0.63343E+06        -0.94526E+08         0.00000E+00
    0.00000E+00         0.00000E+00        -0.64023E+08
 
   -0.64009E+08         0.55530E+06         0.00000E+00
    0.55530E+06        -0.94477E+08         0.00000E+00
    0.00000E+00         0.00000E+00        -0.63795E+08
 
   -0.63805E+08         0.46506E+06         0.00000E+00
    0.46506E+06        -0.94401E+08         0.00000E+00
    0.00000E+00         0.00000E+00        -0.63542E+08
 
   -0.63601E+08         0.35477E+06         0.00000E+00
    0.35477E+06        -0.94292E+08         0.00000E+00
    0.00000E+00         0.00000E+00        -0.63253E+08
 
   -0.63412E+08         0.22081E+06         0.00000E+00
    0.22081E+06        -0.94147E+08         0.00000E+00
    0.00000E+00         0.00000E+00        -0.62913E+08
 
   -0.63270E+08         0.74144E+05         0.00000E+00
    0.74144E+05        -0.93986E+08         0.00000E+00
    0.00000E+00         0.00000E+00        -0.62512E+08
 
   -0.82855E+08         0.13175E+06         0.00000E+00
    0.13175E+06        -0.97523E+08         0.00000E+00
    0.00000E+00         0.00000E+00        -0.84395E+08
 
   -0.82709E+08         0.39564E+06         0.00000E+00
    0.39564E+06        -0.97170E+08         0.00000E+00
    0.00000E+00         0.00000E+00        -0.83895E+08
 
   -0.82454E+08         0.65040E+06         0.00000E+00
    0.65040E+06        -0.96950E+08         0.00000E+00
    0.00000E+00         0.00000E+00        -0.83395E+08
 
   -0.82134E+08         0.87945E+06         0.00000E+00
    0.87945E+06        -0.96838E+08         0.00000E+00
    0.00000E+00         0.00000E+00        -0.82898E+08
 
   -0.81781E+08         0.10761E+07         0.00000E+00
    0.10761E+07        -0.96806E+08         0.00000E+00
    0.00000E+00         0.00000E+00        -0.82404E+08
 
   -0.81412E+08         0.12416E+07         0.00000E+00
    0.12416E+07        -0.96837E+08         0.00000E+00
    0.00000E+00         0.00000E+00        -0.81912E+08
 
   -0.81039E+08         0.13779E+07         0.00000E+00
    0.13779E+07        -0.96915E+08         0.00000E+00
    0.00000E+00         0.00000E+00        -0.81425E+08
 
   -0.80671E+08         0.14865E+07         0.00000E+00
    0.14865E+07        -0.97033E+08         0.00000E+00
    0.00000E+00         0.00000E+00        -0.80942E+08
 
   -0.80320E+08         0.15679E+07         0.00000E+00
    0.15679E+07        -0.97158E+08         0.00000E+00
    0.00000E+00         0.00000E+00        -0.80483E+08
 
   -0.79989E+08         0.16003E+07         0.00000E+00
    0.16003E+07        -0.97185E+08         0.00000E+00
    0.00000E+00         0.00000E+00        -0.80165E+08
 
   -0.79691E+08         0.16293E+07         0.00000E+00
    0.16293E+07        -0.97188E+08         0.00000E+00
    0.00000E+00         0.00000E+00        -0.79925E+08
 
   -0.79423E+08         0.16619E+07         0.00000E+00
    0.16619E+07        -0.97214E+08         0.00000E+00
    0.00000E+00         0.00000E+00        -0.79684E+08
 
   -0.79175E+08         0.16993E+07         0.00000E+00
    0.16993E+07        -0.97247E+08         0.00000E+00
    0.00000E+00         0.00000E+00        -0.79441E+08
 
   -0.78936E+08         0.17393E+07         0.00000E+00
    0.17393E+07        -0.97283E+08         0.00000E+00
    0.00000E+00         0.00000E+00        -0.79195E+08
 
   -0.78700E+08         0.17796E+07         0.00000E+00
    0.17796E+07        -0.97319E+08         0.00000E+00
    0.00000E+00         0.00000E+00        -0.78945E+08
 
   -0.78465E+08         0.18187E+07         0.00000E+00
    0.18187E+07        -0.97355E+08         0.00000E+00
    0.00000E+00         0.00000E+00        -0.78691E+08
 
   -0.78229E+08         0.18555E+07         0.00000E+00
    0.18555E+07        -0.97390E+08         0.00000E+00
    0.00000E+00         0.00000E+00        -0.78435E+08
 
   -0.77990E+08         0.18892E+07         0.00000E+00
    0.18892E+07        -0.97422E+08         0.00000E+00
    0.00000E+00         0.00000E+00        -0.78175E+08
 
   -0.77749E+08         0.19195E+07         0.00000E+00
    0.19195E+07        -0.97451E+08         0.00000E+00
    0.00000E+00         0.00000E+00        -0.77913E+08
 
   -0.77506E+08         0.19461E+07         0.00000E+00
    0.19461E+07        -0.97477E+08         0.00000E+00
    0.00000E+00         0.00000E+00        -0.77649E+08
 
   -0.77260E+08         0.19690E+07         0.00000E+00
    0.19690E+07        -0.97500E+08         0.00000E+00
    0.00000E+00         0.00000E+00        -0.77383E+08
 
   -0.77011E+08         0.19881E+07         0.00000E+00
    0.19881E+07        -0.97521E+08         0.00000E+00
    0.00000E+00         0.00000E+00        -0.77117E+08
 
   -0.76762E+08         0.20037E+07         0.00000E+00
    0.20037E+07        -0.97539E+08         0.00000E+00
    0.00000E+00         0.00000E+00        -0.76850E+08
 
   -0.76510E+08         0.20160E+07         0.00000E+00
    0.20160E+07        -0.97554E+08         0.00000E+00
    0.00000E+00         0.00000E+00        -0.76583E+08
 
   -0.76258E+08         0.20252E+07         0.00000E+00
    0.20252E+07        -0.97568E+08         0.00000E+00
    0.00000E+00         0.00000E+00        -0.76317E+08
 
   -0.76011E+08         0.20305E+07         0.00000E+00
    0.20305E+07        -0.97573E+08         0.00000E+00
    0.00000E+00         0.00000E+00        -0.76057E+08
 
   -0.75799E+08         0.20265E+07         0.00000E+00
    0.20265E+07        -0.97540E+08         0.00000E+00
    0.00000E+00         0.00000E+00        -0.75833E+08
 
   -0.75604E+08         0.20171E+07         0.00000E+00
    0.20171E+07        -0.97487E+08         0.00000E+00
    0.00000E+00         0.00000E+00        -0.75629E+08
 
   -0.75410E+08         0.20060E+07         0.00000E+00
    0.20060E+07        -0.97433E+08         0.00000E+00
    0.00000E+00         0.00000E+00        -0.75426E+08
 
   -0.75217E+08         0.19933E+07         0.00000E+00
    0.19933E+07        -0.97376E+08         0.00000E+00
    0.00000E+00         0.00000E+00        -0.75226E+08
 
   -0.75025E+08         0.19793E+07         0.00000E+00
    0.19793E+07        -0.97319E+08         0.00000E+00
    0.00000E+00         0.00000E+00        -0.75028E+08
 
   -0.74835E+08         0.19644E+07         0.00000E+00
    0.19644E+07        -0.97260E+08         0.00000E+00
    0.00000E+00         0.00000E+00        -0.74833E+08
 
   -0.74647E+08         0.19486E+07         0.00000E+00
    0.19486E+07        -0.97201E+08         0.00000E+00
    0.00000E+00         0.00000E+00        -0.74640E+08
 
   -0.74459E+08         0.19323E+07         0.00000E+00
    0.19323E+07        -0.97140E+08         0.00000E+00
    0.00000E+00         0.00000E+00        -0.74449E+08
 
   -0.74274E+08         0.19156E+07         0.00000E+00
    0.19156E+07        -0.97079E+08         0.00000E+00
    0.00000E+00         0.00000E+00        -0.74260E+08
 
   -0.74090E+08         0.18986E+07         0.00000E+00
    0.18986E+07        -0.97018E+08         0.00000E+00
    0.00000E+00         0.00000E+00        -0.74074E+08
 
   -0.73908E+08         0.18815E+07         0.00000E+00
    0.18815E+07        -0.96956E+08         0.00000E+00
    0.00000E+00         0.00000E+00        -0.73890E+08
 
   -0.73727E+08         0.18643E+07         0.00000E+00
    0.18643E+07        -0.96893E+08         0.00000E+00
    0.00000E+00         0.00000E+00        -0.73709E+08
 
   -0.73548E+08         0.18473E+07         0.00000E+00
    0.18473E+07        -0.96831E+08         0.00000E+00
    0.00000E+00         0.00000E+00        -0.73529E+08
 
   -0.73371E+08         0.18304E+07         0.00000E+00
    0.18304E+07        -0.96768E+08         0.00000E+00
    0.00000E+00         0.00000E+00        -0.73351E+08
 
   -0.73195E+08         0.18138E+07         0.00000E+00
    0.18138E+07        -0.96705E+08         0.00000E+00
    0.00000E+00         0.00000E+00        -0.73175E+08
 
   -0.73021E+08         0.17976E+07         0.00000E+00
    0.17976E+07        -0.96642E+08         0.00000E+00
    0.00000E+00         0.00000E+00        -0.73001E+08
 
   -0.72848E+08         0.17817E+07         0.00000E+00
    0.17817E+07        -0.96579E+08         0.00000E+00
    0.00000E+00         0.00000E+00        -0.72829E+08
 
   -0.72677E+08         0.17663E+07         0.00000E+00
    0.17663E+07        -0.96515E+08         0.00000E+00
    0.00000E+00         0.00000E+00        -0.72658E+08
 
   -0.72506E+08         0.17513E+07         0.00000E+00
    0.17513E+07        -0.96452E+08         0.00000E+00
    0.00000E+00         0.00000E+00        -0.72489E+08
 
   -0.72338E+08         0.17368E+07         0.00000E+00
    0.17368E+07        -0.96389E+08         0.00000E+00
    0.00000E+00         0.00000E+00        -0.72322E+08
 
   -0.72170E+08         0.17228E+07         0.00000E+00
    0.17228E+07        -0.96326E+08         0.00000E+00
    0.00000E+00         0.00000E+00        -0.72155E+08
 
   -0.72003E+08         0.17094E+07         0.00000E+00
    0.17094E+07        -0.96263E+08         0.00000E+00
    0.00000E+00         0.00000E+00        -0.71990E+08
 
   -0.71838E+08         0.16965E+07         0.00000E+00
    0.16965E+07        -0.96201E+08         0.00000E+00
    0.00000E+00         0.00000E+00        -0.71825E+08
 
   -0.71673E+08         0.16842E+07         0.00000E+00
    0.16842E+07        -0.96138E+08         0.00000E+00
    0.00000E+00         0.00000E+00        -0.71662E+08
 
   -0.71509E+08         0.16724E+07         0.00000E+00
    0.16724E+07        -0.96076E+08         0.00000E+00
    0.00000E+00         0.00000E+00        -0.71500E+08
 
   -0.71345E+08         0.16612E+07         0.00000E+00
    0.16612E+07        -0.96013E+08         0.00000E+00
    0.00000E+00         0.00000E+00        -0.71338E+08
 
   -0.71183E+08         0.16505E+07         0.00000E+00
    0.16505E+07        -0.95951E+08         0.00000E+00
    0.00000E+00         0.00000E+00        -0.71177E+08
 
   -0.71021E+08         0.16404E+07         0.00000E+00
    0.16404E+07        -0.95890E+08         0.00000E+00
    0.00000E+00         0.00000E+00        -0.71016E+08
 
   -0.70859E+08         0.16307E+07         0.00000E+00
    0.16307E+07        -0.95828E+08         0.00000E+00
    0.00000E+00         0.00000E+00        -0.70856E+08
 
   -0.70697E+08         0.16215E+07         0.00000E+00
    0.16215E+07        -0.95767E+08         0.00000E+00
    0.00000E+00         0.00000E+00        -0.70696E+08
 
   -0.70536E+08         0.16127E+07         0.00000E+00
    0.16127E+07        -0.95706E+08         0.00000E+00
    0.00000E+00         0.00000E+00        -0.70536E+08
 
   -0.70375E+08         0.16044E+07         0.00000E+00
    0.16044E+07        -0.95646E+08         0.00000E+00
    0.00000E+00         0.00000E+00        -0.70377E+08
 
   -0.70214E+08         0.15963E+07         0.00000E+00
    0.15963E+07        -0.95585E+08         0.00000E+00
    0.00000E+00         0.00000E+00        -0.70217E+08
 
   -0.70053E+08         0.15886E+07         0.00000E+00
    0.15886E+07        -0.95526E+08         0.00000E+00
    0.00000E+00         0.00000E+00        -0.70057E+08
 
   -0.69893E+08         0.15812E+07         0.00000E+00
    0.15812E+07        -0.95467E+08         0.00000E+00
    0.00000E+00         0.00000E+00        -0.69897E+08
 
   -0.69731E+08         0.15739E+07         0.00000E+00
    0.15739E+07        -0.95408E+08         0.00000E+00
    0.00000E+00         0.00000E+00        -0.69736E+08
 
   -0.69570E+08         0.15668E+07         0.00000E+00
    0.15668E+07        -0.95350E+08         0.00000E+00
    0.00000E+00         0.00000E+00        -0.69576E+08
 
   -0.69408E+08         0.15597E+07         0.00000E+00
    0.15597E+07        -0.95293E+08         0.00000E+00
    0.00000E+00         0.00000E+00        -0.69414E+08
 
   -0.69246E+08         0.15526E+07         0.00000E+00
    0.15526E+07        -0.95236E+08         0.00000E+00
    0.00000E+00         0.00000E+00        -0.69252E+08
 
   -0.69084E+08         0.15453E+07         0.00000E+00
    0.15453E+07        -0.95181E+08         0.00000E+00
    0.00000E+00         0.00000E+00        -0.69090E+08
 
   -0.68921E+08         0.15378E+07         0.00000E+00
    0.15378E+07        -0.95126E+08         0.00000E+00
    0.00000E+00         0.00000E+00        -0.68926E+08
 
   -0.68758E+08         0.15300E+07         0.00000E+00
    0.15300E+07        -0.95072E+08         0.00000E+00
    0.00000E+00         0.00000E+00        -0.68762E+08
 
   -0.68594E+08         0.15217E+07         0.00000E+00
    0.15217E+07        -0.95020E+08         0.00000E+00
    0.00000E+00         0.00000E+00        -0.68597E+08
 
   -0.68430E+08         0.15129E+07         0.00000E+00
    0.15129E+07        -0.94969E+08         0.00000E+00
    0.00000E+00         0.00000E+00        -0.68431E+08
 
   -0.68266E+08         0.15033E+07         0.00000E+00
    0.15033E+07        -0.94919E+08         0.00000E+00
    0.00000E+00         0.00000E+00        -0.68264E+08
 
   -0.68100E+08         0.14928E+07         0.00000E+00
    0.14928E+07        -0.94871E+08         0.00000E+00
    0.00000E+00         0.00000E+00        -0.68096E+08
 
   -0.67935E+08         0.14813E+07         0.00000E+00
    0.14813E+07        -0.94824E+08         0.00000E+00
    0.00000E+00         0.00000E+00        -0.67927E+08
 
   -0.67769E+08         0.14685E+07         0.00000E+00
    0.14685E+07        -0.94780E+08         0.00000E+00
    0.00000E+00         0.00000E+00        -0.67757E+08
 
   -0.67602E+08         0.14544E+07         0.00000E+00
    0.14544E+07        -0.94738E+08         0.00000E+00
    0.00000E+00         0.00000E+00        -0.67586E+08
 
   -0.67436E+08         0.14385E+07         0.00000E+00
    0.14385E+07        -0.94698E+08         0.00000E+00
    0.00000E+00         0.00000E+00        -0.67414E+08
 
   -0.67269E+08         0.14208E+07         0.00000E+00
    0.14208E+07        -0.94661E+08         0.00000E+00
    0.00000E+00         0.00000E+00        -0.67241E+08
 
   -0.67102E+08         0.14011E+07         0.00000E+00
    0.14011E+07        -0.94627E+08         0.00000E+00
    0.00000E+00         0.00000E+00        -0.67067E+08
 
   -0.66935E+08         0.13789E+07         0.00000E+00
    0.13789E+07        -0.94597E+08         0.00000E+00
    0.00000E+00         0.00000E+00        -0.66893E+08
 
   -0.66769E+08         0.13542E+07         0.00000E+00
    0.13542E+07        -0.94570E+08         0.00000E+00
    0.00000E+00         0.00000E+00        -0.66718E+08
 
   -0.66602E+08         0.13267E+07         0.00000E+00
    0.13267E+07        -0.94547E+08         0.00000E+00
    0.00000E+00         0.00000E+00        -0.66542E+08
 
   -0.66436E+08         0.12961E+07         0.00000E+00
    0.12961E+07        -0.94529E+08         0.00000E+00
    0.00000E+00         0.00000E+00        -0.66366E+08
 
   -0.66271E+08         0.12623E+07         0.00000E+00
    0.12623E+07        -0.94515E+08         0.00000E+00
    0.00000E+00         0.00000E+00        -0.66190E+08
 
   -0.66106E+08         0.12250E+07         0.00000E+00
    0.12250E+07        -0.94506E+08         0.00000E+00
    0.00000E+00         0.00000E+00        -0.66014E+08
 
   -0.65941E+08         0.11841E+07         0.00000E+00
    0.11841E+07        -0.94501E+08         0.00000E+00
    0.00000E+00         0.00000E+00        -0.65837E+08
 
   -0.65777E+08         0.11397E+07         0.00000E+00
    0.11397E+07        -0.94502E+08         0.00000E+00
    0.00000E+00         0.00000E+00        -0.65662E+08
 
   -0.65612E+08         0.10917E+07         0.00000E+00
    0.10917E+07        -0.94506E+08         0.00000E+00
    0.00000E+00         0.00000E+00        -0.65486E+08
 
   -0.65448E+08         0.10402E+07         0.00000E+00
    0.10402E+07        -0.94515E+08         0.00000E+00
    0.00000E+00         0.00000E+00        -0.65310E+08
 
   -0.65282E+08         0.98545E+06         0.00000E+00
    0.98545E+06        -0.94526E+08         0.00000E+00
    0.00000E+00         0.00000E+00        -0.65134E+08
 
   -0.65115E+08         0.92779E+06         0.00000E+00
    0.92779E+06        -0.94538E+08         0.00000E+00
    0.00000E+00         0.00000E+00        -0.64957E+08
 
   -0.64945E+08         0.86752E+06         0.00000E+00
    0.86752E+06        -0.94549E+08         0.00000E+00
    0.00000E+00         0.00000E+00        -0.64778E+08
 
   -0.64772E+08         0.80493E+06         0.00000E+00
    0.80493E+06        -0.94556E+08         0.00000E+00
    0.00000E+00         0.00000E+00        -0.64596E+08
 
   -0.64593E+08         0.74006E+06         0.00000E+00
    0.74006E+06        -0.94555E+08         0.00000E+00
    0.00000E+00         0.00000E+00        -0.64407E+08
 
   -0.64408E+08         0.67245E+06         0.00000E+00
    0.67245E+06        -0.94543E+08         0.00000E+00
    0.00000E+00         0.00000E+00        -0.64209E+08
 
   -0.64217E+08         0.60075E+06         0.00000E+00
    0.60075E+06        -0.94514E+08         0.00000E+00
    0.00000E+00         0.00000E+00        -0.63998E+08
 
   -0.64020E+08         0.52227E+06         0.00000E+00
    0.52227E+06        -0.94463E+08         0.00000E+00
    0.00000E+00         0.00000E+00        -0.63767E+08
 
   -0.63820E+08         0.43237E+06         0.00000E+00
    0.43237E+06        -0.94385E+08         0.00000E+00
    0.00000E+00         0.00000E+00        -0.63509E+08
 
   -0.63621E+08         0.32482E+06         0.00000E+00
    0.32482E+06        -0.94274E+08         0.00000E+00
    0.00000E+00         0.00000E+00        -0.63213E+08
 
   -0.63441E+08         0.19919E+06         0.00000E+00
    0.19919E+06        -0.94129E+08         0.00000E+00
    0.00000E+00         0.00000E+00        -0.62865E+08
 
   -0.63308E+08         0.66313E+05         0.00000E+00
    0.66313E+05        -0.93969E+08         0.00000E+00
    0.00000E+00         0.00000E+00        -0.62459E+08
 
   -0.82696E+08         0.11706E+06         0.00000E+00
    0.11706E+06        -0.97573E+08         0.00000E+00
    0.00000E+00         0.00000E+00        -0.84395E+08
 
   -0.82563E+08         0.35549E+06         0.00000E+00
    0.35549E+06        -0.97220E+08         0.00000E+00
    0.00000E+00         0.00000E+00        -0.83895E+08
 
   -0.82327E+08         0.59343E+06         0.00000E+00
    0.59343E+06        -0.96998E+08         0.00000E+00
    0.00000E+00         0.00000E+00        -0.83395E+08
 
   -0.82028E+08         0.81318E+06         0.00000E+00
    0.81318E+06        -0.96880E+08         0.00000E+00
    0.00000E+00         0.00000E+00        -0.82898E+08
 
   -0.81692E+08         0.10049E+07         0.00000E+00
    0.10049E+07        -0.96842E+08         0.00000E+00
    0.00000E+00         0.00000E+00        -0.82404E+08
 
   -0.81339E+08         0.11684E+07         0.00000E+00
    0.11684E+07        -0.96867E+08         0.00000E+00
    0.00000E+00         0.00000E+00        -0.81912E+08
 
   -0.80979E+08         0.13048E+07         0.00000E+00
    0.13048E+07        -0.96940E+08         0.00000E+00
    0.00000E+00         0.00000E+00        -0.81425E+08
 
   -0.80623E+08         0.14151E+07         0.00000E+00
    0.14151E+07        -0.97053E+08         0.00000E+00
    0.00000E+00         0.00000E+00        -0.80942E+08
 
   -0.80281E+08         0.15010E+07         0.00000E+00
    0.15010E+07        -0.97169E+08         0.00000E+00
    0.00000E+00         0.00000E+00        -0.80487E+08
 
   -0.79954E+08         0.15367E+07         0.00000E+00
    0.15367E+07        -0.97191E+08         0.00000E+00
    0.00000E+00         0.00000E+00        -0.80170E+08
 
   -0.79656E+08         0.15727E+07         0.00000E+00
    0.15727E+07        -0.97195E+08         0.00000E+00
    0.00000E+00         0.00000E+00        -0.79925E+08
 
   -0.79387E+08         0.16106E+07         0.00000E+00
    0.16106E+07        -0.97222E+08         0.00000E+00
    0.00000E+00         0.00000E+00        -0.79681E+08
 
   -0.79138E+08         0.16508E+07         0.00000E+00
    0.16508E+07        -0.97255E+08         0.00000E+00
    0.00000E+00         0.00000E+00        -0.79436E+08
 
   -0.78899E+08         0.16920E+07         0.00000E+00
    0.16920E+07        -0.97291E+08         0.00000E+00
    0.00000E+00         0.00000E+00        -0.79187E+08
 
   -0.78664E+08         0.17327E+07         0.00000E+00
    0.17327E+07        -0.97327E+08         0.00000E+00
    0.00000E+00         0.00000E+00        -0.78936E+08
 
   -0.78430E+08         0.17717E+07         0.00000E+00
    0.17717E+07        -0.97363E+08         0.00000E+00
    0.00000E+00         0.00000E+00        -0.78681E+08
 
   -0.78195E+08         0.18082E+07         0.00000E+00
    0.18082E+07        -0.97397E+08         0.00000E+00
    0.00000E+00         0.00000E+00        -0.78423E+08
 
   -0.77958E+08         0.18415E+07         0.00000E+00
    0.18415E+07        -0.97428E+08         0.00000E+00
    0.00000E+00         0.00000E+00        -0.78162E+08
 
   -0.77718E+08         0.18712E+07         0.00000E+00
    0.18712E+07        -0.97456E+08         0.00000E+00
    0.00000E+00         0.00000E+00        -0.77899E+08
 
   -0.77477E+08         0.18973E+07         0.00000E+00
    0.18973E+07        -0.97482E+08         0.00000E+00
    0.00000E+00         0.00000E+00        -0.77634E+08
 
   -0.77232E+08         0.19197E+07         0.00000E+00
    0.19197E+07        -0.97504E+08         0.00000E+00
    0.00000E+00         0.00000E+00        -0.77368E+08
 
   -0.76986E+08         0.19385E+07         0.00000E+00
    0.19385E+07        -0.97524E+08         0.00000E+00
    0.00000E+00         0.00000E+00        -0.77102E+08
 
   -0.76738E+08         0.19538E+07         0.00000E+00
    0.19538E+07        -0.97541E+08         0.00000E+00
    0.00000E+00         0.00000E+00        -0.76835E+08
 
   -0.76488E+08         0.19658E+07         0.00000E+00
    0.19658E+07        -0.97556E+08         0.00000E+00
    0.00000E+00         0.00000E+00        -0.76568E+08
 
   -0.76237E+08         0.19748E+07         0.00000E+00
    0.19748E+07        -0.97569E+08         0.00000E+00
    0.00000E+00         0.00000E+00        -0.76302E+08
 
   -0.75994E+08         0.19796E+07         0.00000E+00
    0.19796E+07        -0.97572E+08         0.00000E+00
    0.00000E+00         0.00000E+00        -0.76044E+08
 
   -0.75785E+08         0.19754E+07         0.00000E+00
    0.19754E+07        -0.97536E+08         0.00000E+00
    0.00000E+00         0.00000E+00        -0.75823E+08
 
   -0.75591E+08         0.19665E+07         0.00000E+00
    0.19665E+07        -0.97483E+08         0.00000E+00
    0.00000E+00         0.00000E+00        -0.75618E+08
 
   -0.75398E+08         0.19558E+07         0.00000E+00
    0.19558E+07        -0.97429E+08         0.00000E+00
    0.00000E+00         0.00000E+00        -0.75415E+08
 
   -0.75206E+08         0.19436E+07         0.00000E+00
    0.19436E+07        -0.97373E+08         0.00000E+00
    0.00000E+00         0.00000E+00        -0.75215E+08
 
   -0.75015E+08         0.19302E+07         0.00000E+00
    0.19302E+07        -0.97316E+08         0.00000E+00
    0.00000E+00         0.00000E+00        -0.75017E+08
 
   -0.74826E+08         0.19159E+07         0.00000E+00
    0.19159E+07        -0.97257E+08         0.00000E+00
    0.00000E+00         0.00000E+00        -0.74822E+08
 
   -0.74637E+08         0.19007E+07         0.00000E+00
    0.19007E+07        -0.97198E+08         0.00000E+00
    0.00000E+00         0.00000E+00        -0.74629E+08
 
   -0.74451E+08         0.18850E+07         0.00000E+00
    0.18850E+07        -0.97138E+08         0.00000E+00
    0.00000E+00         0.00000E+00        -0.74438E+08
 
   -0.74266E+08         0.18688E+07         0.00000E+00
    0.18688E+07        -0.97077E+08         0.00000E+00
    0.00000E+00         0.00000E+00        -0.74250E+08
 
   -0.74082E+08         0.18524E+07         0.00000E+00
    0.18524E+07        -0.97015E+08         0.00000E+00
    0.00000E+00         0.00000E+00        -0.74064E+08
 
   -0.73901E+08         0.18359E+07         0.00000E+00
    0.18359E+07        -0.96954E+08         0.00000E+00
    0.00000E+00         0.00000E+00        -0.73880E+08
 
   -0.73720E+08         0.18193E+07         0.00000E+00
    0.18193E+07        -0.96891E+08         0.00000E+00
    0.00000E+00         0.00000E+00        -0.73699E+08
 
   -0.73542E+08         0.18028E+07         0.00000E+00
    0.18028E+07        -0.96829E+08         0.00000E+00
    0.00000E+00         0.00000E+00        -0.73520E+08
 
   -0.73365E+08         0.17865E+07         0.00000E+00
    0.17865E+07        -0.96767E+08         0.00000E+00
    0.00000E+00         0.00000E+00        -0.73342E+08
 
   -0.73189E+08         0.17705E+07         0.00000E+00
    0.17705E+07        -0.96704E+08         0.00000E+00
    0.00000E+00         0.00000E+00        -0.73167E+08
 
   -0.73015E+08         0.17547E+07         0.00000E+00
    0.17547E+07        -0.96641E+08         0.00000E+00
    0.00000E+00         0.00000E+00        -0.72993E+08
 
   -0.72843E+08         0.17394E+07         0.00000E+00
    0.17394E+07        -0.96578E+08         0.00000E+00
    0.00000E+00         0.00000E+00        -0.72821E+08
 
   -0.72671E+08         0.17244E+07         0.00000E+00
    0.17244E+07        -0.96515E+08         0.00000E+00
    0.00000E+00         0.00000E+00        -0.72651E+08
 
   -0.72501E+08         0.17099E+07         0.00000E+00
    0.17099E+07        -0.96452E+08         0.00000E+00
    0.00000E+00         0.00000E+00        -0.72482E+08
 
   -0.72333E+08         0.16958E+07         0.00000E+00
    0.16958E+07        -0.96389E+08         0.00000E+00
    0.00000E+00         0.00000E+00        -0.72315E+08
 
   -0.72165E+08         0.16823E+07         0.00000E+00
    0.16823E+07        -0.96327E+08         0.00000E+00
    0.00000E+00         0.00000E+00        -0.72148E+08
 
   -0.71999E+08         0.16693E+07         0.00000E+00
    0.16693E+07        -0.96264E+08         0.00000E+00
    0.00000E+00         0.00000E+00        -0.71983E+08
 
   -0.71833E+08         0.16568E+07         0.00000E+00
    0.16568E+07        -0.96201E+08         0.00000E+00
    0.00000E+00         0.00000E+00        -0.71819E+08
 
   -0.71668E+08         0.16448E+07         0.00000E+00
    0.16448E+07        -0.96139E+08         0.00000E+00
    0.00000E+00         0.00000E+00        -0.71657E+08
 
   -0.71504E+08         0.16333E+07         0.00000E+00
    0.16333E+07        -0.96077E+08         0.00000E+00
    0.00000E+00         0.00000E+00        -0.71494E+08
 
   -0.71341E+08         0.16224E+07         0.00000E+00
    0.16224E+07        -0.96015E+08         0.00000E+00
    0.00000E+00         0.00000E+00        -0.71333E+08
 
   -0.71179E+08         0.16120E+07         0.00000E+00
    0.16120E+07        -0.95953E+08         0.00000E+00
    0.00000E+00         0.00000E+00        -0.71172E+08
 
   -0.71017E+08         0.16021E+07         0.00000E+00
    0.16021E+07        -0.95891E+08         0.00000E+00
    0.00000E+00         0.00000E+00        -0.71012E+08
 
   -0.70855E+08         0.15927E+07         0.00000E+00
    0.15927E+07        -0.95830E+08         0.00000E+00
    0.00000E+00         0.00000E+00        -0.70852E+08
 
   -0.70694E+08         0.15837E+07         0.00000E+00
    0.15837E+07        -0.95769E+08         0.00000E+00
    0.00000E+00         0.00000E+00        -0.70692E+08
 
   -0.70532E+08         0.15752E+07         0.00000E+00
    0.15752E+07        -0.95708E+08         0.00000E+00
    0.00000E+00         0.00000E+00        -0.70533E+08
 
   -0.70372E+08         0.15670E+07         0.00000E+00
    0.15670E+07        -0.95648E+08         0.00000E+00
    0.00000E+00         0.00000E+00        -0.70373E+08
 
   -0.70211E+08         0.15592E+07         0.00000E+00
    0.15592E+07        -0.95588E+08         0.00000E+00
    0.00000E+00         0.00000E+00        -0.70214E+08
 
   -0.70050E+08         0.15516E+07         0.00000E+00
    0.15516E+07        -0.95528E+08         0.00000E+00
    0.00000E+00         0.00000E+00        -0.70054E+08
 
   -0.69889E+08         0.15443E+07         0.00000E+00
    0.15443E+07        -0.95470E+08         0.00000E+00
    0.00000E+00         0.00000E+00        -0.69894E+08
 
   -0.69728E+08         0.15372E+07         0.00000E+00
    0.15372E+07        -0.95411E+08         0.00000E+00
    0.00000E+00         0.00000E+00        -0.69734E+08
 
   -0.69567E+08         0.15302E+07         0.00000E+00
    0.15302E+07        -0.95353E+08         0.00000E+00
    0.00000E+00         0.00000E+00        -0.69573E+08
 
   -0.69405E+08         0.15232E+07         0.00000E+00
    0.15232E+07        -0.95296E+08         0.00000E+00
    0.00000E+00         0.00000E+00        -0.69412E+08
 
   -0.69243E+08         0.15162E+07         0.00000E+00
    0.15162E+07        -0.95240E+08         0.00000E+00
    0.00000E+00         0.00000E+00        -0.69250E+08
 
   -0.69081E+08         0.15091E+07         0.00000E+00
    0.15091E+07        -0.95184E+08         0.00000E+00
    0.00000E+00         0.00000E+00        -0.69087E+08
 
   -0.68918E+08         0.15017E+07         0.00000E+00
    0.15017E+07        -0.95129E+08         0.00000E+00
    0.00000E+00         0.00000E+00        -0.68924E+08
 
   -0.68755E+08         0.14940E+07         0.00000E+00
    0.14940E+07        -0.95076E+08         0.00000E+00
    0.00000E+00         0.00000E+00        -0.68760E+08
 
   -0.68592E+08         0.14858E+07         0.00000E+00
    0.14858E+07        -0.95023E+08         0.00000E+00
    0.00000E+00         0.00000E+00        -0.68595E+08
 
   -0.68428E+08         0.14771E+07         0.00000E+00
    0.14771E+07        -0.94972E+08         0.00000E+00
    0.00000E+00         0.00000E+00        -0.68429E+08
 
   -0.68263E+08         0.14677E+07         0.00000E+00
    0.14677E+07        -0.94922E+08         0.00000E+00
    0.00000E+00         0.00000E+00        -0.68262E+08
 
   -0.68098E+08         0.14573E+07         0.00000E+00
    0.14573E+07        -0.94874E+08         0.00000E+00
    0.00000E+00         0.00000E+00        -0.68093E+08
 
   -0.67933E+08         0.14460E+07         0.00000E+00
    0.14460E+07        -0.94827E+08         0.00000E+00
    0.00000E+00         0.00000E+00        -0.67924E+08
 
   -0.67767E+08         0.14334E+07         0.00000E+00
    0.14334E+07        -0.94782E+08         0.00000E+00
    0.00000E+00         0.00000E+00        -0.67754E+08
 
   -0.67601E+08         0.14195E+07         0.00000E+00
    0.14195E+07        -0.94740E+08         0.00000E+00
    0.00000E+00         0.00000E+00        -0.67583E+08
 
   -0.67434E+08         0.14039E+07         0.00000E+00
    0.14039E+07        -0.94700E+08         0.00000E+00
    0.00000E+00         0.00000E+00        -0.67410E+08
 
   -0.67268E+08         0.13865E+07         0.00000E+00
    0.13865E+07        -0.94663E+08         0.00000E+00
    0.00000E+00         0.00000E+00        -0.67237E+08
 
   -0.67101E+08         0.13670E+07         0.00000E+00
    0.13670E+07        -0.94629E+08         0.00000E+00
    0.00000E+00         0.00000E+00        -0.67063E+08
 
   -0.66935E+08         0.13452E+07         0.00000E+00
    0.13452E+07        -0.94598E+08         0.00000E+00
    0.00000E+00         0.00000E+00        -0.66887E+08
 
   -0.66768E+08         0.13209E+07         0.00000E+00
    0.13209E+07        -0.94570E+08         0.00000E+00
    0.00000E+00         0.00000E+00        -0.66712E+08
 
   -0.66603E+08         0.12937E+07         0.00000E+00
    0.12937E+07        -0.94547E+08         0.00000E+00
    0.00000E+00         0.00000E+00        -0.66535E+08
 
   -0.66437E+08         0.12635E+07         0.00000E+00
    0.12635E+07        -0.94528E+08         0.00000E+00
    0.00000E+00         0.00000E+00        -0.66358E+08
 
   -0.66272E+08         0.12301E+07         0.00000E+00
    0.12301E+07        -0.94513E+08         0.00000E+00
    0.00000E+00         0.00000E+00        -0.66181E+08
 
   -0.66107E+08         0.11933E+07         0.00000E+00
    0.11933E+07        -0.94503E+08         0.00000E+00
    0.00000E+00         0.00000E+00        -0.66004E+08
 
   -0.65943E+08         0.11529E+07         0.00000E+00
    0.11529E+07        -0.94498E+08         0.00000E+00
    0.00000E+00         0.00000E+00        -0.65827E+08
 
   -0.65779E+08         0.11088E+07         0.00000E+00
    0.11088E+07        -0.94498E+08         0.00000E+00
    0.00000E+00         0.00000E+00        -0.65650E+08
 
   -0.65616E+08         0.10611E+07         0.00000E+00
    0.10611E+07        -0.94501E+08         0.00000E+00
    0.00000E+00         0.00000E+00        -0.65473E+08
 
   -0.65452E+08         0.10099E+07         0.00000E+00
    0.10099E+07        -0.94509E+08         0.00000E+00
    0.00000E+00         0.00000E+00        -0.65296E+08
 
   -0.65287E+08         0.95528E+06         0.00000E+00
    0.95528E+06        -0.94519E+08         0.00000E+00
    0.00000E+00         0.00000E+00        -0.65119E+08
 
   -0.65120E+08         0.89759E+06         0.00000E+00
    0.89759E+06        -0.94530E+08         0.00000E+00
    0.00000E+00         0.00000E+00        -0.64940E+08
 
   -0.64951E+08         0.83714E+06         0.00000E+00
    0.83714E+06        -0.94540E+08         0.00000E+00
    0.00000E+00         0.00000E+00        -0.64760E+08
 
   -0.64778E+08         0.77418E+06         0.00000E+00
    0.77418E+06        -0.94546E+08         0.00000E+00
    0.00000E+00         0.00000E+00        -0.64576E+08
 
   -0.64600E+08         0.70880E+06         0.00000E+00
    0.70880E+06        -0.94545E+08         0.00000E+00
    0.00000E+00         0.00000E+00        -0.64386E+08
 
   -0.64417E+08         0.64063E+06         0.00000E+00
    0.64063E+06        -0.94532E+08         0.00000E+00
    0.00000E+00         0.00000E+00        -0.64187E+08
 
   -0.64228E+08         0.56848E+06         0.00000E+00
    0.56848E+06        -0.94502E+08         0.00000E+00
    0.00000E+00         0.00000E+00        -0.63973E+08
 
   -0.64033E+08         0.48993E+06         0.00000E+00
    0.48993E+06        -0.94450E+08         0.00000E+00
    0.00000E+00         0.00000E+00        -0.63739E+08
 
   -0.63836E+08         0.40091E+06         0.00000E+00
    0.40091E+06        -0.94370E+08         0.00000E+00
    0.00000E+00         0.00000E+00        -0.63476E+08
 
   -0.63643E+08         0.29693E+06         0.00000E+00
    0.29693E+06        -0.94257E+08         0.00000E+00
    0.00000E+00         0.00000E+00        -0.63174E+08
 
   -0.63471E+08         0.17980E+06         0.00000E+00
    0.17980E+06        -0.94113E+08         0.00000E+00
    0.00000E+00         0.00000E+00        -0.62819E+08
 
   -0.63345E+08         0.59464E+05         0.00000E+00
    0.59464E+05        -0.93955E+08         0.00000E+00
    0.00000E+00         0.00000E+00        -0.62409E+08
 
   -0.82542E+08         0.10356E+06         0.00000E+00
    0.10356E+06        -0.97618E+08         0.00000E+00
    0.00000E+00         0.00000E+00        -0.84395E+08
 
   -0.82420E+08         0.31852E+06         0.00000E+00
    0.31852E+06        -0.97266E+08         0.00000E+00
    0.00000E+00         0.00000E+00        -0.83895E+08
 
   -0.82201E+08         0.54047E+06         0.00000E+00
    0.54047E+06        -0.97043E+08         0.00000E+00
    0.00000E+00         0.00000E+00        -0.83395E+08
 
   -0.81921E+08         0.75066E+06         0.00000E+00
    0.75066E+06        -0.96920E+08         0.00000E+00
    0.00000E+00         0.00000E+00        -0.82898E+08
 
   -0.81603E+08         0.93700E+06         0.00000E+00
    0.93700E+06        -0.96877E+08         0.00000E+00
    0.00000E+00         0.00000E+00        -0.82404E+08
 
   -0.81264E+08         0.10980E+07         0.00000E+00
    0.10980E+07        -0.96897E+08         0.00000E+00
    0.00000E+00         0.00000E+00        -0.81912E+08
 
   -0.80918E+08         0.12342E+07         0.00000E+00
    0.12342E+07        -0.96965E+08         0.00000E+00
    0.00000E+00         0.00000E+00        -0.81425E+08
 
   -0.80573E+08         0.13457E+07         0.00000E+00
    0.13457E+07        -0.97072E+08         0.00000E+00
    0.00000E+00         0.00000E+00        -0.80942E+08
 
   -0.80240E+08         0.14352E+07         0.00000E+00
    0.14352E+07        -0.97180E+08         0.00000E+00
    0.00000E+00         0.00000E+00        -0.80492E+08
 
   -0.79917E+08         0.14736E+07         0.00000E+00
    0.14736E+07        -0.97199E+08         0.00000E+00
    0.00000E+00         0.00000E+00        -0.80176E+08
 
   -0.79621E+08         0.15161E+07         0.00000E+00
    0.15161E+07        -0.97203E+08         0.00000E+00
    0.00000E+00         0.00000E+00        -0.79928E+08
 
   -0.79352E+08         0.15592E+07         0.00000E+00
    0.15592E+07        -0.97230E+08         0.00000E+00
    0.00000E+00         0.00000E+00        -0.79680E+08
 
   -0.79103E+08         0.16022E+07         0.00000E+00
    0.16022E+07        -0.97263E+08         0.00000E+00
    0.00000E+00         0.00000E+00        -0.79432E+08
 
   -0.78864E+08         0.16447E+07         0.00000E+00
    0.16447E+07        -0.97299E+08         0.00000E+00
    0.00000E+00         0.00000E+00        -0.79181E+08
 
   -0.78630E+08         0.16859E+07         0.00000E+00
    0.16859E+07        -0.97336E+08         0.00000E+00
    0.00000E+00         0.00000E+00        -0.78927E+08
 
   -0.78397E+08         0.17250E+07         0.00000E+00
    0.17250E+07        -0.97371E+08         0.00000E+00
    0.00000E+00         0.00000E+00        -0.78671E+08
 
   -0.78163E+08         0.17611E+07         0.00000E+00
    0.17611E+07        -0.97404E+08         0.00000E+00
    0.00000E+00         0.00000E+00        -0.78411E+08
 
   -0.77927E+08         0.17940E+07         0.00000E+00
    0.17940E+07        -0.97434E+08         0.00000E+00
    0.00000E+00         0.00000E+00        -0.78150E+08
 
   -0.77689E+08         0.18233E+07         0.00000E+00
    0.18233E+07        -0.97462E+08         0.00000E+00
    0.00000E+00         0.00000E+00        -0.77886E+08
 
   -0.77449E+08         0.18489E+07         0.00000E+00
    0.18489E+07        -0.97487E+08         0.00000E+00
    0.00000E+00         0.00000E+00        -0.77620E+08
 
   -0.77206E+08         0.18708E+07         0.00000E+00
    0.18708E+07        -0.97508E+08         0.00000E+00
    0.00000E+00         0.00000E+00        -0.77354E+08
 
   -0.76962E+08         0.18892E+07         0.00000E+00
    0.18892E+07        -0.97528E+08         0.00000E+00
    0.00000E+00         0.00000E+00        -0.77087E+08
 
   -0.76715E+08         0.19041E+07         0.00000E+00
    0.19041E+07        -0.97544E+08         0.00000E+00
    0.00000E+00         0.00000E+00        -0.76820E+08
 
   -0.76467E+08         0.19159E+07         0.00000E+00
    0.19159E+07        -0.97558E+08         0.00000E+00
    0.00000E+00         0.00000E+00        -0.76553E+08
 
   -0.76218E+08         0.19247E+07         0.00000E+00
    0.19247E+07        -0.97571E+08         0.00000E+00
    0.00000E+00         0.00000E+00        -0.76287E+08
 
   -0.75978E+08         0.19290E+07         0.00000E+00
    0.19290E+07        -0.97570E+08         0.00000E+00
    0.00000E+00         0.00000E+00        -0.76032E+08
 
   -0.75773E+08         0.19247E+07         0.00000E+00
    0.19247E+07        -0.97532E+08         0.00000E+00
    0.00000E+00         0.00000E+00        -0.75813E+08
 
   -0.75580E+08         0.19162E+07         0.00000E+00
    0.19162E+07        -0.97480E+08         0.00000E+00
    0.00000E+00         0.00000E+00        -0.75608E+08
 
   -0.75387E+08         0.19059E+07         0.00000E+00
    0.19059E+07        -0.97425E+08         0.00000E+00
    0.00000E+00         0.00000E+00        -0.75405E+08
 
   -0.75196E+08         0.18943E+07         0.00000E+00
    0.18943E+07        -0.97369E+08         0.00000E+00
    0.00000E+00         0.00000E+00        -0.75204E+08
 
   -0.75005E+08         0.18814E+07         0.00000E+00
    0.18814E+07        -0.97312E+08         0.00000E+00
    0.00000E+00         0.00000E+00        -0.75007E+08
 
   -0.74816E+08         0.18675E+07         0.00000E+00
    0.18675E+07        -0.97254E+08         0.00000E+00
    0.00000E+00         0.00000E+00        -0.74811E+08
 
   -0.74629E+08         0.18529E+07         0.00000E+00
    0.18529E+07        -0.97195E+08         0.00000E+00
    0.00000E+00         0.00000E+00        -0.74618E+08
 
   -0.74443E+08         0.18378E+07         0.00000E+00
    0.18378E+07        -0.97135E+08         0.00000E+00
    0.00000E+00         0.00000E+00        -0.74428E+08
 
   -0.74258E+08         0.18222E+07         0.00000E+00
    0.18222E+07        -0.97074E+08         0.00000E+00
    0.00000E+00         0.00000E+00        -0.74240E+08
 
   -0.74075E+08         0.18064E+07         0.00000E+00
    0.18064E+07        -0.97013E+08         0.00000E+00
    0.00000E+00         0.00000E+00        -0.74054E+08
 
   -0.73894E+08         0.17904E+07         0.00000E+00
    0.17904E+07        -0.96952E+08         0.00000E+00
    0.00000E+00         0.00000E+00        -0.73871E+08
 
   -0.73714E+08         0.17744E+07         0.00000E+00
    0.17744E+07        -0.96890E+08         0.00000E+00
    0.00000E+00         0.00000E+00        -0.73690E+08
 
   -0.73535E+08         0.17585E+07         0.00000E+00
    0.17585E+07        -0.96828E+08         0.00000E+00
    0.00000E+00         0.00000E+00        -0.73510E+08
 
   -0.73359E+08         0.17427E+07         0.00000E+00
    0.17427E+07        -0.96765E+08         0.00000E+00
    0.00000E+00         0.00000E+00        -0.73333E+08
 
   -0.73183E+08         0.17272E+07         0.00000E+00
    0.17272E+07        -0.96703E+08         0.00000E+00
    0.00000E+00         0.00000E+00        -0.73158E+08
 
   -0.73010E+08         0.17120E+07         0.00000E+00
    0.17120E+07        -0.96640E+08         0.00000E+00
    0.00000E+00         0.00000E+00        -0.72985E+08
 
   -0.72837E+08         0.16971E+07         0.00000E+00
    0.16971E+07        -0.96577E+08         0.00000E+00
    0.00000E+00         0.00000E+00        -0.72813E+08
 
   -0.72666E+08         0.16826E+07         0.00000E+00
    0.16826E+07        -0.96515E+08         0.00000E+00
    0.00000E+00         0.00000E+00        -0.72643E+08
 
   -0.72497E+08         0.16685E+07         0.00000E+00
    0.16685E+07        -0.96452E+08         0.00000E+00
    0.00000E+00         0.00000E+00        -0.72475E+08
 
   -0.72328E+08         0.16549E+07         0.00000E+00
    0.16549E+07        -0.96389E+08         0.00000E+00
    0.00000E+00         0.00000E+00        -0.72308E+08
 
   -0.72161E+08         0.16418E+07         0.00000E+00
    0.16418E+07        -0.96327E+08         0.00000E+00
    0.00000E+00         0.00000E+00        -0.72142E+08
 
   -0.71994E+08         0.16291E+07         0.00000E+00
    0.16291E+07        -0.96264E+08         0.00000E+00
    0.00000E+00         0.00000E+00        -0.71977E+08
 
   -0.71829E+08         0.16170E+07         0.00000E+00
    0.16170E+07        -0.96202E+08         0.00000E+00
    0.00000E+00         0.00000E+00        -0.71814E+08
 
   -0.71664E+08         0.16054E+07         0.00000E+00
    0.16054E+07        -0.96140E+08         0.00000E+00
    0.00000E+00         0.00000E+00        -0.71651E+08
 
   -0.71500E+08         0.15943E+07         0.00000E+00
    0.15943E+07        -0.96078E+08         0.00000E+00
    0.00000E+00         0.00000E+00        -0.71489E+08
 
   -0.71337E+08         0.15836E+07         0.00000E+00
    0.15836E+07        -0.96016E+08         0.00000E+00
    0.00000E+00         0.00000E+00        -0.71328E+08
 
   -0.71175E+08         0.15735E+07         0.00000E+00
    0.15735E+07        -0.95954E+08         0.00000E+00
    0.00000E+00         0.00000E+00        -0.71168E+08
 
   -0.71013E+08         0.15639E+07         0.00000E+00
    0.15639E+07        -0.95893E+08         0.00000E+00
    0.00000E+00         0.00000E+00        -0.71007E+08
 
   -0.70851E+08         0.15547E+07         0.00000E+00
    0.15547E+07        -0.95832E+08         0.00000E+00
    0.00000E+00         0.00000E+00        -0.70848E+08
 
   -0.70690E+08         0.15460E+07         0.00000E+00
    0.15460E+07        -0.95771E+08         0.00000E+00
    0.00000E+00         0.00000E+00        -0.70688E+08
 
   -0.70529E+08         0.15376E+07         0.00000E+00
    0.15376E+07        -0.95710E+08         0.00000E+00
    0.00000E+00         0.00000E+00        -0.70529E+08
 
   -0.70368E+08         0.15296E+07         0.00000E+00
    0.15296E+07        -0.95650E+08         0.00000E+00
    0.00000E+00         0.00000E+00        -0.70370E+08
 
   -0.70207E+08         0.15220E+07         0.00000E+00
    0.15220E+07        -0.95590E+08         0.00000E+00
    0.00000E+00         0.00000E+00        -0.70211E+08
 
   -0.70046E+08         0.15146E+07         0.00000E+00
    0.15146E+07        -0.95531E+08         0.00000E+00
    0.00000E+00         0.00000E+00        -0.70051E+08
 
   -0.69885E+08         0.15074E+07         0.00000E+00
    0.15074E+07        -0.95472E+08         0.00000E+00
    0.00000E+00         0.00000E+00        -0.69891E+08
 
   -0.69724E+08         0.15005E+07         0.00000E+00
    0.15005E+07        -0.95414E+08         0.00000E+00
    0.00000E+00         0.00000E+00        -0.69731E+08
 
   -0.69563E+08         0.14936E+07         0.00000E+00
    0.14936E+07        -0.95356E+08         0.00000E+00
    0.00000E+00         0.00000E+00        -0.69571E+08
 
   -0.69402E+08         0.14867E+07         0.00000E+00
    0.14867E+07        -0.95299E+08         0.00000E+00
    0.00000E+00         0.00000E+00        -0.69410E+08
 
   -0.69240E+08         0.14798E+07         0.00000E+00
    0.14798E+07        -0.95243E+08         0.00000E+00
    0.00000E+00         0.00000E+00        -0.69248E+08
 
   -0.69078E+08         0.14728E+07         0.00000E+00
    0.14728E+07        -0.95187E+08         0.00000E+00
    0.00000E+00         0.00000E+00        -0.69085E+08
 
   -0.68915E+08         0.14656E+07         0.00000E+00
    0.14656E+07        -0.95132E+08         0.00000E+00
    0.00000E+00         0.00000E+00        -0.68922E+08
 
   -0.68752E+08         0.14580E+07         0.00000E+00
    0.14580E+07        -0.95079E+08         0.00000E+00
    0.00000E+00         0.00000E+00        -0.68758E+08
 
   -0.68589E+08         0.14500E+07         0.00000E+00
    0.14500E+07        -0.95026E+08         0.00000E+00
    0.00000E+00         0.00000E+00        -0.68593E+08
 
   -0.68425E+08         0.14414E+07         0.00000E+00
    0.14414E+07        -0.94975E+08         0.00000E+00
    0.00000E+00         0.00000E+00        -0.68427E+08
 
   -0.68260E+08         0.14321E+07         0.00000E+00
    0.14321E+07        -0.94925E+08         0.00000E+00
    0.00000E+00         0.00000E+00        -0.68259E+08
 
   -0.68096E+08         0.14219E+07         0.00000E+00
    0.14219E+07        -0.94876E+08         0.00000E+00
    0.00000E+00         0.00000E+00        -0.68091E+08
 
   -0.67930E+08         0.14107E+07         0.00000E+00
    0.14107E+07        -0.94830E+08         0.00000E+00
    0.00000E+00         0.00000E+00        -0.67922E+08
 
   -0.67765E+08         0.13984E+07         0.00000E+00
    0.13984E+07        -0.94785E+08         0.00000E+00
    0.00000E+00         0.00000E+00        -0.67751E+08
 
   -0.67599E+08         0.13846E+07         0.00000E+00
    0.13846E+07        -0.94742E+08         0.00000E+00
    0.00000E+00         0.00000E+00        -0.67579E+08
 
   -0.67433E+08         0.13693E+07         0.00000E+00
    0.13693E+07        -0.94702E+08         0.00000E+00
    0.00000E+00         0.00000E+00        -0.67407E+08
 
   -0.67267E+08         0.13521E+07         0.00000E+00
    0.13521E+07        -0.94664E+08         0.00000E+00
    0.00000E+00         0.00000E+00        -0.67233E+08
 
   -0.67100E+08         0.13330E+07         0.00000E+00
    0.13330E+07        -0.94630E+08         0.00000E+00
    0.00000E+00         0.00000E+00        -0.67058E+08
 
   -0.66934E+08         0.13115E+07         0.00000E+00
    0.13115E+07        -0.94598E+08         0.00000E+00
    0.00000E+00         0.00000E+00        -0.66882E+08
 
   -0.66768E+08         0.12875E+07         0.00000E+00
    0.12875E+07        -0.94571E+08         0.00000E+00
    0.00000E+00         0.00000E+00        -0.66706E+08
 
   -0.66603E+08         0.12608E+07         0.00000E+00
    0.12608E+07        -0.94547E+08         0.00000E+00
    0.00000E+00         0.00000E+00        -0.66529E+08
 
   -0.66438E+08         0.12311E+07         0.00000E+00
    0.12311E+07        -0.94527E+08         0.00000E+00
    0.00000E+00         0.00000E+00        -0.66351E+08
 
   -0.66273E+08         0.11981E+07         0.00000E+00
    0.11981E+07        -0.94512E+08         0.00000E+00
    0.00000E+00         0.00000E+00        -0.66173E+08
 
   -0.66109E+08         0.11617E+07         0.00000E+00
    0.11617E+07        -0.94501E+08         0.00000E+00
    0.00000E+00         0.00000E+00        -0.65995E+08
 
   -0.65945E+08         0.11217E+07         0.00000E+00
    0.11217E+07        -0.94495E+08         0.00000E+00
    0.00000E+00         0.00000E+00        -0.65816E+08
 
   -0.65782E+08         0.10780E+07         0.00000E+00
    0.10780E+07        -0.94494E+08         0.00000E+00
    0.00000E+00         0.00000E+00        -0.65638E+08
 
   -0.65619E+08         0.10307E+07         0.00000E+00
    0.10307E+07        -0.94496E+08         0.00000E+00
    0.00000E+00         0.00000E+00        -0.65460E+08
 
   -0.65456E+08         0.97968E+06         0.00000E+00
    0.97968E+06        -0.94503E+08         0.00000E+00
    0.00000E+00         0.00000E+00        -0.65282E+08
 
   -0.65291E+08         0.92521E+06         0.00000E+00
    0.92521E+06        -0.94512E+08         0.00000E+00
    0.00000E+00         0.00000E+00        -0.65103E+08
 
   -0.65126E+08         0.86751E+06         0.00000E+00
    0.86751E+06        -0.94523E+08         0.00000E+00
    0.00000E+00         0.00000E+00        -0.64924E+08
 
   -0.64957E+08         0.80687E+06         0.00000E+00
    0.80687E+06        -0.94532E+08         0.00000E+00
    0.00000E+00         0.00000E+00        -0.64742E+08
 
   -0.64785E+08         0.74357E+06         0.00000E+00
    0.74357E+06        -0.94537E+08         0.00000E+00
    0.00000E+00         0.00000E+00        -0.64557E+08
 
   -0.64608E+08         0.67774E+06         0.00000E+00
    0.67774E+06        -0.94535E+08         0.00000E+00
    0.00000E+00         0.00000E+00        -0.64365E+08
 
   -0.64426E+08         0.60910E+06         0.00000E+00
    0.60910E+06        -0.94521E+08         0.00000E+00
    0.00000E+00         0.00000E+00        -0.64164E+08
 
   -0.64239E+08         0.53666E+06         0.00000E+00
    0.53666E+06        -0.94491E+08         0.00000E+00
    0.00000E+00         0.00000E+00        -0.63948E+08
 
   -0.64046E+08         0.45833E+06         0.00000E+00
    0.45833E+06        -0.94437E+08         0.00000E+00
    0.00000E+00         0.00000E+00        -0.63710E+08
 
   -0.63853E+08         0.37071E+06         0.00000E+00
    0.37071E+06        -0.94356E+08         0.00000E+00
    0.00000E+00         0.00000E+00        -0.63444E+08
 
   -0.63666E+08         0.27095E+06         0.00000E+00
    0.27095E+06        -0.94243E+08         0.00000E+00
    0.00000E+00         0.00000E+00        -0.63136E+08
 
   -0.63501E+08         0.16228E+06         0.00000E+00
    0.16228E+06        -0.94100E+08         0.00000E+00
    0.00000E+00         0.00000E+00        -0.62776E+08
 
   -0.63382E+08         0.53384E+05         0.00000E+00
    0.53384E+05        -0.93944E+08         0.00000E+00
    0.00000E+00         0.00000E+00        -0.62363E+08
 
   -0.82393E+08         0.91014E+05         0.00000E+00
    0.91014E+05        -0.97657E+08         0.00000E+00
    0.00000E+00         0.00000E+00        -0.84395E+08
 
   -0.82279E+08         0.28428E+06         0.00000E+00
    0.28428E+06        -0.97309E+08         0.00000E+00
    0.00000E+00         0.00000E+00        -0.83895E+08
 
   -0.82076E+08         0.49119E+06         0.00000E+00
    0.49119E+06        -0.97086E+08         0.00000E+00
    0.00000E+00         0.00000E+00        -0.83395E+08
 
   -0.81814E+08         0.69173E+06         0.00000E+00
    0.69173E+06        -0.96959E+08         0.00000E+00
    0.00000E+00         0.00000E+00        -0.82898E+08
 
   -0.81512E+08         0.87222E+06         0.00000E+00
    0.87222E+06        -0.96912E+08         0.00000E+00
    0.00000E+00         0.00000E+00        -0.82404E+08
 
   -0.81188E+08         0.10303E+07         0.00000E+00
    0.10303E+07        -0.96926E+08         0.00000E+00
    0.00000E+00         0.00000E+00        -0.81912E+08
 
   -0.80855E+08         0.11662E+07         0.00000E+00
    0.11662E+07        -0.96989E+08         0.00000E+00
    0.00000E+00         0.00000E+00        -0.81425E+08
 
   -0.80522E+08         0.12785E+07         0.00000E+00
    0.12785E+07        -0.97093E+08         0.00000E+00
    0.00000E+00         0.00000E+00        -0.80942E+08
 
   -0.80197E+08         0.13706E+07         0.00000E+00
    0.13706E+07        -0.97192E+08         0.00000E+00
    0.00000E+00         0.00000E+00        -0.80498E+08
 
   -0.79879E+08         0.14112E+07         0.00000E+00
    0.14112E+07        -0.97207E+08         0.00000E+00
    0.00000E+00         0.00000E+00        -0.80183E+08
 
   -0.79586E+08         0.14598E+07         0.00000E+00
    0.14598E+07        -0.97212E+08         0.00000E+00
    0.00000E+00         0.00000E+00        -0.79931E+08
 
   -0.79319E+08         0.15078E+07         0.00000E+00
    0.15078E+07        -0.97239E+08         0.00000E+00
    0.00000E+00         0.00000E+00        -0.79680E+08
 
   -0.79070E+08         0.15536E+07         0.00000E+00
    0.15536E+07        -0.97272E+08         0.00000E+00
    0.00000E+00         0.00000E+00        -0.79429E+08
 
   -0.78831E+08         0.15976E+07         0.00000E+00
    0.15976E+07        -0.97308E+08         0.00000E+00
    0.00000E+00         0.00000E+00        -0.79175E+08
 
   -0.78598E+08         0.16393E+07         0.00000E+00
    0.16393E+07        -0.97344E+08         0.00000E+00
    0.00000E+00         0.00000E+00        -0.78920E+08
 
   -0.78365E+08         0.16784E+07         0.00000E+00
    0.16784E+07        -0.97378E+08         0.00000E+00
    0.00000E+00         0.00000E+00        -0.78661E+08
 
   -0.78132E+08         0.17143E+07         0.00000E+00
    0.17143E+07        -0.97411E+08         0.00000E+00
    0.00000E+00         0.00000E+00        -0.78401E+08
 
   -0.77898E+08         0.17468E+07         0.00000E+00
    0.17468E+07        -0.97440E+08         0.00000E+00
    0.00000E+00         0.00000E+00        -0.78138E+08
 
   -0.77662E+08         0.17756E+07         0.00000E+00
    0.17756E+07        -0.97467E+08         0.00000E+00
    0.00000E+00         0.00000E+00        -0.77873E+08
 
   -0.77423E+08         0.18008E+07         0.00000E+00
    0.18008E+07        -0.97491E+08         0.00000E+00
    0.00000E+00         0.00000E+00        -0.77607E+08
 
   -0.77182E+08         0.18222E+07         0.00000E+00
    0.18222E+07        -0.97512E+08         0.00000E+00
    0.00000E+00         0.00000E+00        -0.77340E+08
 
   -0.76939E+08         0.18402E+07         0.00000E+00
    0.18402E+07        -0.97531E+08         0.00000E+00
    0.00000E+00         0.00000E+00        -0.77072E+08
 
   -0.76693E+08         0.18548E+07         0.00000E+00
    0.18548E+07        -0.97547E+08         0.00000E+00
    0.00000E+00         0.00000E+00        -0.76805E+08
 
   -0.76447E+08         0.18663E+07         0.00000E+00
    0.18663E+07        -0.97560E+08         0.00000E+00
    0.00000E+00         0.00000E+00        -0.76538E+08
 
   -0.76199E+08         0.18750E+07         0.00000E+00
    0.18750E+07        -0.97572E+08         0.00000E+00
    0.00000E+00         0.00000E+00        -0.76272E+08
 
   -0.75963E+08         0.18788E+07         0.00000E+00
    0.18788E+07        -0.97569E+08         0.00000E+00
    0.00000E+00         0.00000E+00        -0.76020E+08
 
   -0.75761E+08         0.18743E+07         0.00000E+00
    0.18743E+07        -0.97528E+08         0.00000E+00
    0.00000E+00         0.00000E+00        -0.75803E+08
 
   -0.75568E+08         0.18661E+07         0.00000E+00
    0.18661E+07        -0.97476E+08         0.00000E+00
    0.00000E+00         0.00000E+00        -0.75597E+08
 
   -0.75377E+08         0.18563E+07         0.00000E+00
    0.18563E+07        -0.97422E+08         0.00000E+00
    0.00000E+00         0.00000E+00        -0.75394E+08
 
   -0.75186E+08         0.18451E+07         0.00000E+00
    0.18451E+07        -0.97366E+08         0.00000E+00
    0.00000E+00         0.00000E+00        -0.75194E+08
 
   -0.74996E+08         0.18327E+07         0.00000E+00
    0.18327E+07        -0.97309E+08         0.00000E+00
    0.00000E+00         0.00000E+00        -0.74996E+08
 
   -0.74808E+08         0.18194E+07         0.00000E+00
    0.18194E+07        -0.97251E+08         0.00000E+00
    0.00000E+00         0.00000E+00        -0.74801E+08
 
   -0.74620E+08         0.18054E+07         0.00000E+00
    0.18054E+07        -0.97192E+08         0.00000E+00
    0.00000E+00         0.00000E+00        -0.74608E+08
 
   -0.74435E+08         0.17908E+07         0.00000E+00
    0.17908E+07        -0.97132E+08         0.00000E+00
    0.00000E+00         0.00000E+00        -0.74418E+08
 
   -0.74251E+08         0.17757E+07         0.00000E+00
    0.17757E+07        -0.97072E+08         0.00000E+00
    0.00000E+00         0.00000E+00        -0.74230E+08
 
   -0.74068E+08         0.17605E+07         0.00000E+00
    0.17605E+07        -0.97011E+08         0.00000E+00
    0.00000E+00         0.00000E+00        -0.74044E+08
 
   -0.73887E+08         0.17450E+07         0.00000E+00
    0.17450E+07        -0.96950E+08         0.00000E+00
    0.00000E+00         0.00000E+00        -0.73861E+08
 
   -0.73707E+08         0.17296E+07         0.00000E+00
    0.17296E+07        -0.96888E+08         0.00000E+00
    0.00000E+00         0.00000E+00        -0.73680E+08
 
   -0.73529E+08         0.17142E+07         0.00000E+00
    0.17142E+07        -0.96826E+08         0.00000E+00
    0.00000E+00         0.00000E+00        -0.73501E+08
 
   -0.73353E+08         0.16990E+07         0.00000E+00
    0.16990E+07        -0.96764E+08         0.00000E+00
    0.00000E+00         0.00000E+00        -0.73325E+08
 
   -0.73178E+08         0.16840E+07         0.00000E+00
    0.16840E+07        -0.96702E+08         0.00000E+00
    0.00000E+00         0.00000E+00        -0.73150E+08
 
   -0.73004E+08         0.16693E+07         0.00000E+00
    0.16693E+07        -0.96639E+08         0.00000E+00
    0.00000E+00         0.00000E+00        -0.72977E+08
 
   -0.72832E+08         0.16549E+07         0.00000E+00
    0.16549E+07        -0.96577E+08         0.00000E+00
    0.00000E+00         0.00000E+00        -0.72806E+08
 
   -0.72661E+08         0.16408E+07         0.00000E+00
    0.16408E+07        -0.96514E+08         0.00000E+00
    0.00000E+00         0.00000E+00        -0.72636E+08
 
   -0.72492E+08         0.16272E+07         0.00000E+00
    0.16272E+07        -0.96452E+08         0.00000E+00
    0.00000E+00         0.00000E+00        -0.72468E+08
 
   -0.72323E+08         0.16140E+07         0.00000E+00
    0.16140E+07        -0.96390E+08         0.00000E+00
    0.00000E+00         0.00000E+00        -0.72301E+08
 
   -0.72156E+08         0.16013E+07         0.00000E+00
    0.16013E+07        -0.96327E+08         0.00000E+00
    0.00000E+00         0.00000E+00        -0.72135E+08
 
   -0.71990E+08         0.15890E+07         0.00000E+00
    0.15890E+07        -0.96265E+08         0.00000E+00
    0.00000E+00         0.00000E+00        -0.71971E+08
 
   -0.71824E+08         0.15772E+07         0.00000E+00
    0.15772E+07        -0.96203E+08         0.00000E+00
    0.00000E+00         0.00000E+00        -0.71808E+08
 
   -0.71660E+08         0.15660E+07         0.00000E+00
    0.15660E+07        -0.96141E+08         0.00000E+00
    0.00000E+00         0.00000E+00        -0.71646E+08
 
   -0.71496E+08         0.15552E+07         0.00000E+00
    0.15552E+07        -0.96079E+08         0.00000E+00
    0.00000E+00         0.00000E+00        -0.71484E+08
 
   -0.71333E+08         0.15449E+07         0.00000E+00
    0.15449E+07        -0.96017E+08         0.00000E+00
    0.00000E+00         0.00000E+00        -0.71323E+08
 
   -0.71171E+08         0.15350E+07         0.00000E+00
    0.15350E+07        -0.95956E+08         0.00000E+00
    0.00000E+00         0.00000E+00        -0.71163E+08
 
   -0.71009E+08         0.15256E+07         0.00000E+00
    0.15256E+07        -0.95894E+08         0.00000E+00
    0.00000E+00         0.00000E+00        -0.71003E+08
 
   -0.70847E+08         0.15167E+07         0.00000E+00
    0.15167E+07        -0.95833E+08         0.00000E+00
    0.00000E+00         0.00000E+00        -0.70844E+08
 
   -0.70686E+08         0.15082E+07         0.00000E+00
    0.15082E+07        -0.95773E+08         0.00000E+00
    0.00000E+00         0.00000E+00        -0.70685E+08
 
   -0.70525E+08         0.15000E+07         0.00000E+00
    0.15000E+07        -0.95712E+08         0.00000E+00
    0.00000E+00         0.00000E+00        -0.70526E+08
 
   -0.70364E+08         0.14923E+07         0.00000E+00
    0.14923E+07        -0.95652E+08         0.00000E+00
    0.00000E+00         0.00000E+00        -0.70367E+08
 
   -0.70203E+08         0.14848E+07         0.00000E+00
    0.14848E+07        -0.95593E+08         0.00000E+00
    0.00000E+00         0.00000E+00        -0.70208E+08
 
   -0.70043E+08         0.14776E+07         0.00000E+00
    0.14776E+07        -0.95533E+08         0.00000E+00
    0.00000E+00         0.00000E+00        -0.70048E+08
 
   -0.69882E+08         0.14706E+07         0.00000E+00
    0.14706E+07        -0.95475E+08         0.00000E+00
    0.00000E+00         0.00000E+00        -0.69889E+08
 
   -0.69721E+08         0.14637E+07         0.00000E+00
    0.14637E+07        -0.95417E+08         0.00000E+00
    0.00000E+00         0.00000E+00        -0.69729E+08
 
   -0.69560E+08         0.14570E+07         0.00000E+00
    0.14570E+07        -0.95359E+08         0.00000E+00
    0.00000E+00         0.00000E+00        -0.69568E+08
 
   -0.69398E+08         0.14503E+07         0.00000E+00
    0.14503E+07        -0.95302E+08         0.00000E+00
    0.00000E+00         0.00000E+00        -0.69407E+08
 
   -0.69237E+08         0.14435E+07         0.00000E+00
    0.14435E+07        -0.95246E+08         0.00000E+00
    0.00000E+00         0.00000E+00        -0.69246E+08
 
   -0.69075E+08         0.14366E+07         0.00000E+00
    0.14366E+07        -0.95190E+08         0.00000E+00
    0.00000E+00         0.00000E+00        -0.69083E+08
 
   -0.68912E+08         0.14295E+07         0.00000E+00
    0.14295E+07        -0.95135E+08         0.00000E+00
    0.00000E+00         0.00000E+00        -0.68920E+08
 
   -0.68749E+08         0.14220E+07         0.00000E+00
    0.14220E+07        -0.95082E+08         0.00000E+00
    0.00000E+00         0.00000E+00        -0.68756E+08
 
   -0.68586E+08         0.14141E+07         0.00000E+00
    0.14141E+07        -0.95029E+08         0.00000E+00
    0.00000E+00         0.00000E+00        -0.68591E+08
 
   -0.68422E+08         0.14056E+07         0.00000E+00
    0.14056E+07        -0.94978E+08         0.00000E+00
    0.00000E+00         0.00000E+00        -0.68424E+08
 
   -0.68258E+08         0.13965E+07         0.00000E+00
    0.13965E+07        -0.94928E+08         0.00000E+00
    0.00000E+00         0.00000E+00        -0.68257E+08
 
   -0.68093E+08         0.13865E+07         0.00000E+00
    0.13865E+07        -0.94879E+08         0.00000E+00
    0.00000E+00         0.00000E+00        -0.68089E+08
 
   -0.67928E+08         0.13755E+07         0.00000E+00
    0.13755E+07        -0.94832E+08         0.00000E+00
    0.00000E+00         0.00000E+00        -0.67919E+08
 
   -0.67763E+08         0.13633E+07         0.00000E+00
    0.13633E+07        -0.94787E+08         0.00000E+00
    0.00000E+00         0.00000E+00        -0.67748E+08
 
   -0.67597E+08         0.13498E+07         0.00000E+00
    0.13498E+07        -0.94745E+08         0.00000E+00
    0.00000E+00         0.00000E+00        -0.67576E+08
 
   -0.67431E+08         0.13347E+07         0.00000E+00
    0.13347E+07        -0.94704E+08         0.00000E+00
    0.00000E+00         0.00000E+00        -0.67403E+08
 
   -0.67265E+08         0.13179E+07         0.00000E+00
    0.13179E+07        -0.94666E+08         0.00000E+00
    0.00000E+00         0.00000E+00        -0.67229E+08
 
   -0.67099E+08         0.12990E+07         0.00000E+00
    0.12990E+07        -0.94631E+08         0.00000E+00
    0.00000E+00         0.00000E+00        -0.67054E+08
 
   -0.66933E+08         0.12779E+07         0.00000E+00
    0.12779E+07        -0.94599E+08         0.00000E+00
    0.00000E+00         0.00000E+00        -0.66877E+08
 
   -0.66768E+08         0.12543E+07         0.00000E+00
    0.12543E+07        -0.94571E+08         0.00000E+00
    0.00000E+00         0.00000E+00        -0.66700E+08
 
   -0.66603E+08         0.12280E+07         0.00000E+00
    0.12280E+07        -0.94546E+08         0.00000E+00
    0.00000E+00         0.00000E+00        -0.66522E+08
 
   -0.66438E+08         0.11987E+07         0.00000E+00
    0.11987E+07        -0.94526E+08         0.00000E+00
    0.00000E+00         0.00000E+00        -0.66344E+08
 
   -0.66274E+08         0.11661E+07         0.00000E+00
    0.11661E+07        -0.94510E+08         0.00000E+00
    0.00000E+00         0.00000E+00        -0.66165E+08
 
   -0.66110E+08         0.11302E+07         0.00000E+00
    0.11302E+07        -0.94498E+08         0.00000E+00
    0.00000E+00         0.00000E+00        -0.65985E+08
 
   -0.65947E+08         0.10906E+07         0.00000E+00
    0.10906E+07        -0.94492E+08         0.00000E+00
    0.00000E+00         0.00000E+00        -0.65806E+08
 
   -0.65785E+08         0.10474E+07         0.00000E+00
    0.10474E+07        -0.94489E+08         0.00000E+00
    0.00000E+00         0.00000E+00        -0.65626E+08
 
   -0.65622E+08         0.10003E+07         0.00000E+00
    0.10003E+07        -0.94491E+08         0.00000E+00
    0.00000E+00         0.00000E+00        -0.65447E+08
 
   -0.65460E+08         0.94960E+06         0.00000E+00
    0.94960E+06        -0.94497E+08         0.00000E+00
    0.00000E+00         0.00000E+00        -0.65268E+08
 
   -0.65296E+08         0.89527E+06         0.00000E+00
    0.89527E+06        -0.94505E+08         0.00000E+00
    0.00000E+00         0.00000E+00        -0.65088E+08
 
   -0.65131E+08         0.83756E+06         0.00000E+00
    0.83756E+06        -0.94515E+08         0.00000E+00
    0.00000E+00         0.00000E+00        -0.64907E+08
 
   -0.64964E+08         0.77675E+06         0.00000E+00
    0.77675E+06        -0.94523E+08         0.00000E+00
    0.00000E+00         0.00000E+00        -0.64724E+08
 
   -0.64793E+08         0.71315E+06         0.00000E+00
    0.71315E+06        -0.94528E+08         0.00000E+00
    0.00000E+00         0.00000E+00        -0.64537E+08
 
   -0.64617E+08         0.64693E+06         0.00000E+00
    0.64693E+06        -0.94525E+08         0.00000E+00
    0.00000E+00         0.00000E+00        -0.64343E+08
 
   -0.64437E+08         0.57792E+06         0.00000E+00
    0.57792E+06        -0.94511E+08         0.00000E+00
    0.00000E+00         0.00000E+00        -0.64140E+08
 
   -0.64251E+08         0.50535E+06         0.00000E+00
    0.50535E+06        -0.94480E+08         0.00000E+00
    0.00000E+00         0.00000E+00        -0.63922E+08
 
   -0.64061E+08         0.42752E+06         0.00000E+00
    0.42752E+06        -0.94426E+08         0.00000E+00
    0.00000E+00         0.00000E+00        -0.63682E+08
 
   -0.63872E+08         0.34178E+06         0.00000E+00
    0.34178E+06        -0.94344E+08         0.00000E+00
    0.00000E+00         0.00000E+00        -0.63411E+08
 
   -0.63690E+08         0.24670E+06         0.00000E+00
    0.24670E+06        -0.94230E+08         0.00000E+00
    0.00000E+00         0.00000E+00        -0.63099E+08
 
   -0.63533E+08         0.14632E+06         0.00000E+00
    0.14632E+06        -0.94089E+08         0.00000E+00
    0.00000E+00         0.00000E+00        -0.62735E+08
 
   -0.63418E+08         0.47918E+05         0.00000E+00
    0.47918E+05        -0.93935E+08         0.00000E+00
    0.00000E+00         0.00000E+00        -0.62320E+08
 
   -0.82246E+08         0.79256E+05         0.00000E+00
    0.79256E+05        -0.97691E+08         0.00000E+00
    0.00000E+00         0.00000E+00        -0.84395E+08
 
   -0.82140E+08         0.25245E+06         0.00000E+00
    0.25245E+06        -0.97348E+08         0.00000E+00
    0.00000E+00         0.00000E+00        -0.83895E+08
 
   -0.81952E+08         0.44538E+06         0.00000E+00
    0.44538E+06        -0.97126E+08         0.00000E+00
    0.00000E+00         0.00000E+00        -0.83395E+08
 
   -0.81707E+08         0.63624E+06         0.00000E+00
    0.63624E+06        -0.96997E+08         0.00000E+00
    0.00000E+00         0.00000E+00        -0.82898E+08
 
   -0.81421E+08         0.81049E+06         0.00000E+00
    0.81049E+06        -0.96945E+08         0.00000E+00
    0.00000E+00         0.00000E+00        -0.82404E+08
 
   -0.81111E+08         0.96537E+06         0.00000E+00
    0.96537E+06        -0.96956E+08         0.00000E+00
    0.00000E+00         0.00000E+00        -0.81912E+08
 
   -0.80790E+08         0.11006E+07         0.00000E+00
    0.11006E+07        -0.97014E+08         0.00000E+00
    0.00000E+00         0.00000E+00        -0.81425E+08
 
   -0.80469E+08         0.12135E+07         0.00000E+00
    0.12135E+07        -0.97113E+08         0.00000E+00
    0.00000E+00         0.00000E+00        -0.80942E+08
 
   -0.80152E+08         0.13072E+07         0.00000E+00
    0.13072E+07        -0.97204E+08         0.00000E+00
    0.00000E+00         0.00000E+00        -0.80505E+08
 
   -0.79840E+08         0.13497E+07         0.00000E+00
    0.13497E+07        -0.97217E+08         0.00000E+00
    0.00000E+00         0.00000E+00        -0.80193E+08
 
   -0.79551E+08         0.14040E+07         0.00000E+00
    0.14040E+07        -0.97223E+08         0.00000E+00
    0.00000E+00         0.00000E+00        -0.79936E+08
 
   -0.79286E+08         0.14567E+07         0.00000E+00
    0.14567E+07        -0.97248E+08         0.00000E+00
    0.00000E+00         0.00000E+00        -0.79681E+08
 
   -0.79038E+08         0.15052E+07         0.00000E+00
    0.15052E+07        -0.97281E+08         0.00000E+00
    0.00000E+00         0.00000E+00        -0.79427E+08
 
   -0.78800E+08         0.15505E+07         0.00000E+00
    0.15505E+07        -0.97317E+08         0.00000E+00
    0.00000E+00         0.00000E+00        -0.79171E+08
 
   -0.78567E+08         0.15929E+07         0.00000E+00
    0.15929E+07        -0.97352E+08         0.00000E+00
    0.00000E+00         0.00000E+00        -0.78913E+08
 
   -0.78336E+08         0.16320E+07         0.00000E+00
    0.16320E+07        -0.97386E+08         0.00000E+00
    0.00000E+00         0.00000E+00        -0.78653E+08
 
   -0.78104E+08         0.16677E+07         0.00000E+00
    0.16677E+07        -0.97417E+08         0.00000E+00
    0.00000E+00         0.00000E+00        -0.78391E+08
 
   -0.77871E+08         0.16998E+07         0.00000E+00
    0.16998E+07        -0.97447E+08         0.00000E+00
    0.00000E+00         0.00000E+00        -0.78126E+08
 
   -0.77636E+08         0.17282E+07         0.00000E+00
    0.17282E+07        -0.97473E+08         0.00000E+00
    0.00000E+00         0.00000E+00        -0.77861E+08
 
   -0.77398E+08         0.17529E+07         0.00000E+00
    0.17529E+07        -0.97496E+08         0.00000E+00
    0.00000E+00         0.00000E+00        -0.77594E+08
 
   -0.77158E+08         0.17740E+07         0.00000E+00
    0.17740E+07        -0.97516E+08         0.00000E+00
    0.00000E+00         0.00000E+00        -0.77326E+08
 
   -0.76917E+08         0.17915E+07         0.00000E+00
    0.17915E+07        -0.97534E+08         0.00000E+00
    0.00000E+00         0.00000E+00        -0.77058E+08
 
   -0.76673E+08         0.18058E+07         0.00000E+00
    0.18058E+07        -0.97549E+08         0.00000E+00
    0.00000E+00         0.00000E+00        -0.76791E+08
 
   -0.76428E+08         0.18170E+07         0.00000E+00
    0.18170E+07        -0.97562E+08         0.00000E+00
    0.00000E+00         0.00000E+00        -0.76524E+08
 
   -0.76181E+08         0.18254E+07         0.00000E+00
    0.18254E+07        -0.97573E+08         0.00000E+00
    0.00000E+00         0.00000E+00        -0.76258E+08
 
   -0.75949E+08         0.18288E+07         0.00000E+00
    0.18288E+07        -0.97567E+08         0.00000E+00
    0.00000E+00         0.00000E+00        -0.76008E+08
 
   -0.75749E+08         0.18242E+07         0.00000E+00
    0.18242E+07        -0.97525E+08         0.00000E+00
    0.00000E+00         0.00000E+00        -0.75793E+08
 
   -0.75558E+08         0.18164E+07         0.00000E+00
    0.18164E+07        -0.97472E+08         0.00000E+00
    0.00000E+00         0.00000E+00        -0.75587E+08
 
   -0.75366E+08         0.18070E+07         0.00000E+00
    0.18070E+07        -0.97418E+08         0.00000E+00
    0.00000E+00         0.00000E+00        -0.75384E+08
 
   -0.75176E+08         0.17962E+07         0.00000E+00
    0.17962E+07        -0.97363E+08         0.00000E+00
    0.00000E+00         0.00000E+00        -0.75184E+08
 
   -0.74987E+08         0.17843E+07         0.00000E+00
    0.17843E+07        -0.97306E+08         0.00000E+00
    0.00000E+00         0.00000E+00        -0.74986E+08
 
   -0.74799E+08         0.17715E+07         0.00000E+00
    0.17715E+07        -0.97248E+08         0.00000E+00
    0.00000E+00         0.00000E+00        -0.74790E+08
 
   -0.74612E+08         0.17580E+07         0.00000E+00
    0.17580E+07        -0.97190E+08         0.00000E+00
    0.00000E+00         0.00000E+00        -0.74598E+08
 
   -0.74427E+08         0.17439E+07         0.00000E+00
    0.17439E+07        -0.97130E+08         0.00000E+00
    0.00000E+00         0.00000E+00        -0.74408E+08
 
   -0.74243E+08         0.17294E+07         0.00000E+00
    0.17294E+07        -0.97070E+08         0.00000E+00
    0.00000E+00         0.00000E+00        -0.74220E+08
 
   -0.74061E+08         0.17147E+07         0.00000E+00
    0.17147E+07        -0.97009E+08         0.00000E+00
    0.00000E+00         0.00000E+00        -0.74035E+08
 
   -0.73880E+08         0.16998E+07         0.00000E+00
    0.16998E+07        -0.96948E+08         0.00000E+00
    0.00000E+00         0.00000E+00        -0.73852E+08
 
   -0.73701E+08         0.16849E+07         0.00000E+00
    0.16849E+07        -0.96887E+08         0.00000E+00
    0.00000E+00         0.00000E+00        -0.73671E+08
 
   -0.73524E+08         0.16701E+07         0.00000E+00
    0.16701E+07        -0.96825E+08         0.00000E+00
    0.00000E+00         0.00000E+00        -0.73493E+08
 
   -0.73347E+08         0.16554E+07         0.00000E+00
    0.16554E+07        -0.96763E+08         0.00000E+00
    0.00000E+00         0.00000E+00        -0.73316E+08
 
   -0.73173E+08         0.16409E+07         0.00000E+00
    0.16409E+07        -0.96701E+08         0.00000E+00
    0.00000E+00         0.00000E+00        -0.73142E+08
 
   -0.72999E+08         0.16266E+07         0.00000E+00
    0.16266E+07        -0.96639E+08         0.00000E+00
    0.00000E+00         0.00000E+00        -0.72969E+08
 
   -0.72827E+08         0.16127E+07         0.00000E+00
    0.16127E+07        -0.96576E+08         0.00000E+00
    0.00000E+00         0.00000E+00        -0.72798E+08
 
   -0.72657E+08         0.15991E+07         0.00000E+00
    0.15991E+07        -0.96514E+08         0.00000E+00
    0.00000E+00         0.00000E+00        -0.72629E+08
 
   -0.72487E+08         0.15859E+07         0.00000E+00
    0.15859E+07        -0.96452E+08         0.00000E+00
    0.00000E+00         0.00000E+00        -0.72461E+08
 
   -0.72319E+08         0.15731E+07         0.00000E+00
    0.15731E+07        -0.96390E+08         0.00000E+00
    0.00000E+00         0.00000E+00        -0.72294E+08
 
   -0.72152E+08         0.15608E+07         0.00000E+00
    0.15608E+07        -0.96327E+08         0.00000E+00
    0.00000E+00         0.00000E+00        -0.72129E+08
 
   -0.71986E+08         0.15489E+07         0.00000E+00
    0.15489E+07        -0.96265E+08         0.00000E+00
    0.00000E+00         0.00000E+00        -0.71965E+08
 
   -0.71820E+08         0.15375E+07         0.00000E+00
    0.15375E+07        -0.96203E+08         0.00000E+00
    0.00000E+00         0.00000E+00        -0.71802E+08
 
   -0.71656E+08         0.15266E+07         0.00000E+00
    0.15266E+07        -0.96142E+08         0.00000E+00
    0.00000E+00         0.00000E+00        -0.71640E+08
 
   -0.71492E+08         0.15161E+07         0.00000E+00
    0.15161E+07        -0.96080E+08         0.00000E+00
    0.00000E+00         0.00000E+00        -0.71479E+08
 
   -0.71329E+08         0.15061E+07         0.00000E+00
    0.15061E+07        -0.96018E+08         0.00000E+00
    0.00000E+00         0.00000E+00        -0.71318E+08
 
   -0.71167E+08         0.14965E+07         0.00000E+00
    0.14965E+07        -0.95957E+08         0.00000E+00
    0.00000E+00         0.00000E+00        -0.71159E+08
 
   -0.71005E+08         0.14874E+07         0.00000E+00
    0.14874E+07        -0.95896E+08         0.00000E+00
    0.00000E+00         0.00000E+00        -0.70999E+08
 
   -0.70843E+08         0.14787E+07         0.00000E+00
    0.14787E+07        -0.95835E+08         0.00000E+00
    0.00000E+00         0.00000E+00        -0.70840E+08
 
   -0.70682E+08         0.14704E+07         0.00000E+00
    0.14704E+07        -0.95775E+08         0.00000E+00
    0.00000E+00         0.00000E+00        -0.70681E+08
 
   -0.70521E+08         0.14625E+07         0.00000E+00
    0.14625E+07        -0.95714E+08         0.00000E+00
    0.00000E+00         0.00000E+00        -0.70522E+08
 
   -0.70361E+08         0.14549E+07         0.00000E+00
    0.14549E+07        -0.95654E+08         0.00000E+00
    0.00000E+00         0.00000E+00        -0.70364E+08
 
   -0.70200E+08         0.14476E+07         0.00000E+00
    0.14476E+07        -0.95595E+08         0.00000E+00
    0.00000E+00         0.00000E+00        -0.70205E+08
 
   -0.70039E+08         0.14405E+07         0.00000E+00
    0.14405E+07        -0.95536E+08         0.00000E+00
    0.00000E+00         0.00000E+00        -0.70046E+08
 
   -0.69878E+08         0.14337E+07         0.00000E+00
    0.14337E+07        -0.95477E+08         0.00000E+00
    0.00000E+00         0.00000E+00        -0.69886E+08
 
   -0.69718E+08         0.14270E+07         0.00000E+00
    0.14270E+07        -0.95419E+08         0.00000E+00
    0.00000E+00         0.00000E+00        -0.69727E+08
 
   -0.69556E+08         0.14204E+07         0.00000E+00
    0.14204E+07        -0.95362E+08         0.00000E+00
    0.00000E+00         0.00000E+00        -0.69566E+08
 
   -0.69395E+08         0.14138E+07         0.00000E+00
    0.14138E+07        -0.95305E+08         0.00000E+00
    0.00000E+00         0.00000E+00        -0.69405E+08
 
   -0.69233E+08         0.14071E+07         0.00000E+00
    0.14071E+07        -0.95248E+08         0.00000E+00
    0.00000E+00         0.00000E+00        -0.69244E+08
 
   -0.69071E+08         0.14004E+07         0.00000E+00
    0.14004E+07        -0.95193E+08         0.00000E+00
    0.00000E+00         0.00000E+00        -0.69081E+08
 
   -0.68909E+08         0.13934E+07         0.00000E+00
    0.13934E+07        -0.95138E+08         0.00000E+00
    0.00000E+00         0.00000E+00        -0.68918E+08
 
   -0.68746E+08         0.13860E+07         0.00000E+00
    0.13860E+07        -0.95085E+08         0.00000E+00
    0.00000E+00         0.00000E+00        -0.68754E+08
 
   -0.68583E+08         0.13782E+07         0.00000E+00
    0.13782E+07        -0.95032E+08         0.00000E+00
    0.00000E+00         0.00000E+00        -0.68589E+08
 
   -0.68419E+08         0.13699E+07         0.00000E+00
    0.13699E+07        -0.94981E+08         0.00000E+00
    0.00000E+00         0.00000E+00        -0.68423E+08
 
   -0.68255E+08         0.13609E+07         0.00000E+00
    0.13609E+07        -0.94930E+08         0.00000E+00
    0.00000E+00         0.00000E+00        -0.68255E+08
 
   -0.68091E+08         0.13511E+07         0.00000E+00
    0.13511E+07        -0.94882E+08         0.00000E+00
    0.00000E+00         0.00000E+00        -0.68087E+08
 
   -0.67926E+08         0.13403E+07         0.00000E+00
    0.13403E+07        -0.94835E+08         0.00000E+00
    0.00000E+00         0.00000E+00        -0.67917E+08
 
   -0.67761E+08         0.13283E+07         0.00000E+00
    0.13283E+07        -0.94790E+08         0.00000E+00
    0.00000E+00         0.00000E+00        -0.67746E+08
 
   -0.67595E+08         0.13150E+07         0.00000E+00
    0.13150E+07        -0.94747E+08         0.00000E+00
    0.00000E+00         0.00000E+00        -0.67573E+08
 
   -0.67430E+08         0.13002E+07         0.00000E+00
    0.13002E+07        -0.94706E+08         0.00000E+00
    0.00000E+00         0.00000E+00        -0.67400E+08
 
   -0.67264E+08         0.12836E+07         0.00000E+00
    0.12836E+07        -0.94667E+08         0.00000E+00
    0.00000E+00         0.00000E+00        -0.67225E+08
 
   -0.67098E+08         0.12651E+07         0.00000E+00
    0.12651E+07        -0.94632E+08         0.00000E+00
    0.00000E+00         0.00000E+00        -0.67049E+08
 
   -0.66933E+08         0.12444E+07         0.00000E+00
    0.12444E+07        -0.94600E+08         0.00000E+00
    0.00000E+00         0.00000E+00        -0.66872E+08
 
   -0.66767E+08         0.12212E+07         0.00000E+00
    0.12212E+07        -0.94571E+08         0.00000E+00
    0.00000E+00         0.00000E+00        -0.66695E+08
 
   -0.66603E+08         0.11952E+07         0.00000E+00
    0.11952E+07        -0.94546E+08         0.00000E+00
    0.00000E+00         0.00000E+00        -0.66516E+08
 
   -0.66438E+08         0.11664E+07         0.00000E+00
    0.11664E+07        -0.94525E+08         0.00000E+00
    0.00000E+00         0.00000E+00        -0.66336E+08
 
   -0.66275E+08         0.11343E+07         0.00000E+00
    0.11343E+07        -0.94508E+08         0.00000E+00
    0.00000E+00         0.00000E+00        -0.66157E+08
 
   -0.66112E+08         0.10988E+07         0.00000E+00
    0.10988E+07        -0.94496E+08         0.00000E+00
    0.00000E+00         0.00000E+00        -0.65976E+08
 
   -0.65949E+08         0.10597E+07         0.00000E+00
    0.10597E+07        -0.94488E+08         0.00000E+00
    0.00000E+00         0.00000E+00        -0.65796E+08
 
   -0.65787E+08         0.10168E+07         0.00000E+00
    0.10168E+07        -0.94485E+08         0.00000E+00
    0.00000E+00         0.00000E+00        -0.65615E+08
 
   -0.65625E+08         0.97015E+06         0.00000E+00
    0.97015E+06        -0.94486E+08         0.00000E+00
    0.00000E+00         0.00000E+00        -0.65434E+08
 
   -0.65464E+08         0.91967E+06         0.00000E+00
    0.91967E+06        -0.94491E+08         0.00000E+00
    0.00000E+00         0.00000E+00        -0.65253E+08
 
   -0.65301E+08         0.86548E+06         0.00000E+00
    0.86548E+06        -0.94499E+08         0.00000E+00
    0.00000E+00         0.00000E+00        -0.65072E+08
 
   -0.65137E+08         0.80777E+06         0.00000E+00
    0.80777E+06        -0.94507E+08         0.00000E+00
    0.00000E+00         0.00000E+00        -0.64890E+08
 
   -0.64970E+08         0.74683E+06         0.00000E+00
    0.74683E+06        -0.94515E+08         0.00000E+00
    0.00000E+00         0.00000E+00        -0.64705E+08
 
   -0.64801E+08         0.68296E+06         0.00000E+00
    0.68296E+06        -0.94519E+08         0.00000E+00
    0.00000E+00         0.00000E+00        -0.64517E+08
 
   -0.64627E+08         0.61640E+06         0.00000E+00
    0.61640E+06        -0.94516E+08         0.00000E+00
    0.00000E+00         0.00000E+00        -0.64322E+08
 
   -0.64448E+08         0.54712E+06         0.00000E+00
    0.54712E+06        -0.94501E+08         0.00000E+00
    0.00000E+00         0.00000E+00        -0.64117E+08
 
   -0.64264E+08         0.47461E+06         0.00000E+00
    0.47461E+06        -0.94469E+08         0.00000E+00
    0.00000E+00         0.00000E+00        -0.63896E+08
 
   -0.64077E+08         0.39755E+06         0.00000E+00
    0.39755E+06        -0.94415E+08         0.00000E+00
    0.00000E+00         0.00000E+00        -0.63653E+08
 
   -0.63892E+08         0.31409E+06         0.00000E+00
    0.31409E+06        -0.94333E+08         0.00000E+00
    0.00000E+00         0.00000E+00        -0.63379E+08
 
   -0.63716E+08         0.22400E+06         0.00000E+00
    0.22400E+06        -0.94220E+08         0.00000E+00
    0.00000E+00         0.00000E+00        -0.63063E+08
 
   -0.63564E+08         0.13168E+06         0.00000E+00
    0.13168E+06        -0.94080E+08         0.00000E+00
    0.00000E+00         0.00000E+00        -0.62696E+08
 
   -0.63455E+08         0.42948E+05         0.00000E+00
    0.42948E+05        -0.93928E+08         0.00000E+00
    0.00000E+00         0.00000E+00        -0.62280E+08
 
   -0.82102E+08         0.68179E+05         0.00000E+00
    0.68179E+05        -0.97721E+08         0.00000E+00
    0.00000E+00         0.00000E+00        -0.84395E+08
 
   -0.82004E+08         0.22283E+06         0.00000E+00
    0.22283E+06        -0.97383E+08         0.00000E+00
    0.00000E+00         0.00000E+00        -0.83895E+08
 
   -0.81829E+08         0.40284E+06         0.00000E+00
    0.40284E+06        -0.97164E+08         0.00000E+00
    0.00000E+00         0.00000E+00        -0.83395E+08
 
   -0.81600E+08         0.58402E+06         0.00000E+00
    0.58402E+06        -0.97033E+08         0.00000E+00
    0.00000E+00         0.00000E+00        -0.82898E+08
 
   -0.81329E+08         0.75170E+06         0.00000E+00
    0.75170E+06        -0.96977E+08         0.00000E+00
    0.00000E+00         0.00000E+00        -0.82404E+08
 
   -0.81032E+08         0.90298E+06         0.00000E+00
    0.90298E+06        -0.96984E+08         0.00000E+00
    0.00000E+00         0.00000E+00        -0.81912E+08
 
   -0.80724E+08         0.10374E+07         0.00000E+00
    0.10374E+07        -0.97039E+08         0.00000E+00
    0.00000E+00         0.00000E+00        -0.81425E+08
 
   -0.80414E+08         0.11506E+07         0.00000E+00
    0.11506E+07        -0.97133E+08         0.00000E+00
    0.00000E+00         0.00000E+00        -0.80942E+08
 
   -0.80106E+08         0.12448E+07         0.00000E+00
    0.12448E+07        -0.97217E+08         0.00000E+00
    0.00000E+00         0.00000E+00        -0.80512E+08
 
   -0.79799E+08         0.12894E+07         0.00000E+00
    0.12894E+07        -0.97228E+08         0.00000E+00
    0.00000E+00         0.00000E+00        -0.80203E+08
 
   -0.79516E+08         0.13491E+07         0.00000E+00
    0.13491E+07        -0.97234E+08         0.00000E+00
    0.00000E+00         0.00000E+00        -0.79942E+08
 
   -0.79254E+08         0.14058E+07         0.00000E+00
    0.14058E+07        -0.97259E+08         0.00000E+00
    0.00000E+00         0.00000E+00        -0.79684E+08
 
   -0.79008E+08         0.14569E+07         0.00000E+00
    0.14569E+07        -0.97291E+08         0.00000E+00
    0.00000E+00         0.00000E+00        -0.79426E+08
 
   -0.78771E+08         0.15036E+07         0.00000E+00
    0.15036E+07        -0.97325E+08         0.00000E+00
    0.00000E+00         0.00000E+00        -0.79167E+08
 
   -0.78538E+08         0.15466E+07         0.00000E+00
    0.15466E+07        -0.97360E+08         0.00000E+00
    0.00000E+00         0.00000E+00        -0.78907E+08
 
   -0.78308E+08         0.15859E+07         0.00000E+00
    0.15859E+07        -0.97393E+08         0.00000E+00
    0.00000E+00         0.00000E+00        -0.78645E+08
 
   -0.78077E+08         0.16214E+07         0.00000E+00
    0.16214E+07        -0.97424E+08         0.00000E+00
    0.00000E+00         0.00000E+00        -0.78381E+08
 
   -0.77845E+08         0.16531E+07         0.00000E+00
    0.16531E+07        -0.97453E+08         0.00000E+00
    0.00000E+00         0.00000E+00        -0.78115E+08
 
   -0.77611E+08         0.16811E+07         0.00000E+00
    0.16811E+07        -0.97478E+08         0.00000E+00
    0.00000E+00         0.00000E+00        -0.77849E+08
 
   -0.77375E+08         0.17053E+07         0.00000E+00
    0.17053E+07        -0.97500E+08         0.00000E+00
    0.00000E+00         0.00000E+00        -0.77581E+08
 
   -0.77136E+08         0.17259E+07         0.00000E+00
    0.17259E+07        -0.97520E+08         0.00000E+00
    0.00000E+00         0.00000E+00        -0.77313E+08
 
   -0.76896E+08         0.17431E+07         0.00000E+00
    0.17431E+07        -0.97537E+08         0.00000E+00
    0.00000E+00         0.00000E+00        -0.77045E+08
 
   -0.76653E+08         0.17570E+07         0.00000E+00
    0.17570E+07        -0.97552E+08         0.00000E+00
    0.00000E+00         0.00000E+00        -0.76777E+08
 
   -0.76410E+08         0.17680E+07         0.00000E+00
    0.17680E+07        -0.97564E+08         0.00000E+00
    0.00000E+00         0.00000E+00        -0.76510E+08
 
   -0.76164E+08         0.17762E+07         0.00000E+00
    0.17762E+07        -0.97575E+08         0.00000E+00
    0.00000E+00         0.00000E+00        -0.76244E+08
 
   -0.75935E+08         0.17791E+07         0.00000E+00
    0.17791E+07        -0.97566E+08         0.00000E+00
    0.00000E+00         0.00000E+00        -0.75996E+08
 
   -0.75739E+08         0.17744E+07         0.00000E+00
    0.17744E+07        -0.97521E+08         0.00000E+00
    0.00000E+00         0.00000E+00        -0.75783E+08
 
   -0.75547E+08         0.17669E+07         0.00000E+00
    0.17669E+07        -0.97469E+08         0.00000E+00
    0.00000E+00         0.00000E+00        -0.75577E+08
 
   -0.75357E+08         0.17579E+07         0.00000E+00
    0.17579E+07        -0.97415E+08         0.00000E+00
    0.00000E+00         0.00000E+00        -0.75374E+08
 
   -0.75167E+08         0.17476E+07         0.00000E+00
    0.17476E+07        -0.97360E+08         0.00000E+00
    0.00000E+00         0.00000E+00        -0.75173E+08
 
   -0.74979E+08         0.17361E+07         0.00000E+00
    0.17361E+07        -0.97303E+08         0.00000E+00
    0.00000E+00         0.00000E+00        -0.74975E+08
 
   -0.74791E+08         0.17238E+07         0.00000E+00
    0.17238E+07        -0.97245E+08         0.00000E+00
    0.00000E+00         0.00000E+00        -0.74780E+08
 
   -0.74605E+08         0.17107E+07         0.00000E+00
    0.17107E+07        -0.97187E+08         0.00000E+00
    0.00000E+00         0.00000E+00        -0.74588E+08
 
   -0.74420E+08         0.16972E+07         0.00000E+00
    0.16972E+07        -0.97128E+08         0.00000E+00
    0.00000E+00         0.00000E+00        -0.74398E+08
 
   -0.74237E+08         0.16832E+07         0.00000E+00
    0.16832E+07        -0.97068E+08         0.00000E+00
    0.00000E+00         0.00000E+00        -0.74210E+08
 
   -0.74055E+08         0.16690E+07         0.00000E+00
    0.16690E+07        -0.97007E+08         0.00000E+00
    0.00000E+00         0.00000E+00        -0.74025E+08
 
   -0.73874E+08         0.16547E+07         0.00000E+00
    0.16547E+07        -0.96946E+08         0.00000E+00
    0.00000E+00         0.00000E+00        -0.73843E+08
 
   -0.73695E+08         0.16403E+07         0.00000E+00
    0.16403E+07        -0.96885E+08         0.00000E+00
    0.00000E+00         0.00000E+00        -0.73662E+08
 
   -0.73518E+08         0.16260E+07         0.00000E+00
    0.16260E+07        -0.96824E+08         0.00000E+00
    0.00000E+00         0.00000E+00        -0.73484E+08
 
   -0.73342E+08         0.16118E+07         0.00000E+00
    0.16118E+07        -0.96762E+08         0.00000E+00
    0.00000E+00         0.00000E+00        -0.73308E+08
 
   -0.73167E+08         0.15978E+07         0.00000E+00
    0.15978E+07        -0.96700E+08         0.00000E+00
    0.00000E+00         0.00000E+00        -0.73134E+08
 
   -0.72994E+08         0.15840E+07         0.00000E+00
    0.15840E+07        -0.96638E+08         0.00000E+00
    0.00000E+00         0.00000E+00        -0.72961E+08
 
   -0.72823E+08         0.15706E+07         0.00000E+00
    0.15706E+07        -0.96576E+08         0.00000E+00
    0.00000E+00         0.00000E+00        -0.72791E+08
 
   -0.72652E+08         0.15574E+07         0.00000E+00
    0.15574E+07        -0.96514E+08         0.00000E+00
    0.00000E+00         0.00000E+00        -0.72622E+08
 
   -0.72483E+08         0.15447E+07         0.00000E+00
    0.15447E+07        -0.96452E+08         0.00000E+00
    0.00000E+00         0.00000E+00        -0.72454E+08
 
   -0.72315E+08         0.15323E+07         0.00000E+00
    0.15323E+07        -0.96390E+08         0.00000E+00
    0.00000E+00         0.00000E+00        -0.72288E+08
 
   -0.72148E+08         0.15204E+07         0.00000E+00
    0.15204E+07        -0.96328E+08         0.00000E+00
    0.00000E+00         0.00000E+00        -0.72123E+08
 
   -0.71982E+08         0.15089E+07         0.00000E+00
    0.15089E+07        -0.96266E+08         0.00000E+00
    0.00000E+00         0.00000E+00        -0.71959E+08
 
   -0.71816E+08         0.14978E+07         0.00000E+00
    0.14978E+07        -0.96204E+08         0.00000E+00
    0.00000E+00         0.00000E+00        -0.71797E+08
 
   -0.71652E+08         0.14872E+07         0.00000E+00
    0.14872E+07        -0.96142E+08         0.00000E+00
    0.00000E+00         0.00000E+00        -0.71635E+08
 
   -0.71488E+08         0.14770E+07         0.00000E+00
    0.14770E+07        -0.96081E+08         0.00000E+00
    0.00000E+00         0.00000E+00        -0.71474E+08
 
   -0.71325E+08         0.14673E+07         0.00000E+00
    0.14673E+07        -0.96019E+08         0.00000E+00
    0.00000E+00         0.00000E+00        -0.71314E+08
 
   -0.71163E+08         0.14580E+07         0.00000E+00
    0.14580E+07        -0.95958E+08         0.00000E+00
    0.00000E+00         0.00000E+00        -0.71154E+08
 
   -0.71001E+08         0.14492E+07         0.00000E+00
    0.14492E+07        -0.95897E+08         0.00000E+00
    0.00000E+00         0.00000E+00        -0.70995E+08
 
   -0.70840E+08         0.14407E+07         0.00000E+00
    0.14407E+07        -0.95837E+08         0.00000E+00
    0.00000E+00         0.00000E+00        -0.70836E+08
 
   -0.70679E+08         0.14326E+07         0.00000E+00
    0.14326E+07        -0.95776E+08         0.00000E+00
    0.00000E+00         0.00000E+00        -0.70678E+08
 
   -0.70518E+08         0.14249E+07         0.00000E+00
    0.14249E+07        -0.95716E+08         0.00000E+00
    0.00000E+00         0.00000E+00        -0.70519E+08
 
   -0.70357E+08         0.14175E+07         0.00000E+00
    0.14175E+07        -0.95656E+08         0.00000E+00
    0.00000E+00         0.00000E+00        -0.70361E+08
 
   -0.70196E+08         0.14104E+07         0.00000E+00
    0.14104E+07        -0.95597E+08         0.00000E+00
    0.00000E+00         0.00000E+00        -0.70202E+08
 
   -0.70036E+08         0.14035E+07         0.00000E+00
    0.14035E+07        -0.95538E+08         0.00000E+00
    0.00000E+00         0.00000E+00        -0.70043E+08
 
   -0.69875E+08         0.13968E+07         0.00000E+00
    0.13968E+07        -0.95480E+08         0.00000E+00
    0.00000E+00         0.00000E+00        -0.69884E+08
 
   -0.69714E+08         0.13902E+07         0.00000E+00
    0.13902E+07        -0.95422E+08         0.00000E+00
    0.00000E+00         0.00000E+00        -0.69724E+08
 
   -0.69553E+08         0.13838E+07         0.00000E+00
    0.13838E+07        -0.95364E+08         0.00000E+00
    0.00000E+00         0.00000E+00        -0.69564E+08
 
   -0.69392E+08         0.13773E+07         0.00000E+00
    0.13773E+07        -0.95307E+08         0.00000E+00
    0.00000E+00         0.00000E+00        -0.69403E+08
 
   -0.69230E+08         0.13708E+07         0.00000E+00
    0.13708E+07        -0.95251E+08         0.00000E+00
    0.00000E+00         0.00000E+00        -0.69242E+08
 
   -0.69068E+08         0.13641E+07         0.00000E+00
    0.13641E+07        -0.95196E+08         0.00000E+00
    0.00000E+00         0.00000E+00        -0.69080E+08
 
   -0.68906E+08         0.13572E+07         0.00000E+00
    0.13572E+07        -0.95141E+08         0.00000E+00
    0.00000E+00         0.00000E+00        -0.68916E+08
 
   -0.68743E+08         0.13500E+07         0.00000E+00
    0.13500E+07        -0.95087E+08         0.00000E+00
    0.00000E+00         0.00000E+00        -0.68752E+08
 
   -0.68580E+08         0.13424E+07         0.00000E+00
    0.13424E+07        -0.95035E+08         0.00000E+00
    0.00000E+00         0.00000E+00        -0.68587E+08
 
   -0.68416E+08         0.13342E+07         0.00000E+00
    0.13342E+07        -0.94983E+08         0.00000E+00
    0.00000E+00         0.00000E+00        -0.68421E+08
 
   -0.68252E+08         0.13254E+07         0.00000E+00
    0.13254E+07        -0.94933E+08         0.00000E+00
    0.00000E+00         0.00000E+00        -0.68253E+08
 
   -0.68088E+08         0.13157E+07         0.00000E+00
    0.13157E+07        -0.94884E+08         0.00000E+00
    0.00000E+00         0.00000E+00        -0.68084E+08
 
   -0.67923E+08         0.13051E+07         0.00000E+00
    0.13051E+07        -0.94837E+08         0.00000E+00
    0.00000E+00         0.00000E+00        -0.67914E+08
 
   -0.67758E+08         0.12933E+07         0.00000E+00
    0.12933E+07        -0.94792E+08         0.00000E+00
    0.00000E+00         0.00000E+00        -0.67743E+08
 
   -0.67593E+08         0.12803E+07         0.00000E+00
    0.12803E+07        -0.94749E+08         0.00000E+00
    0.00000E+00         0.00000E+00        -0.67571E+08
 
   -0.67428E+08         0.12657E+07         0.00000E+00
    0.12657E+07        -0.94707E+08         0.00000E+00
    0.00000E+00         0.00000E+00        -0.67397E+08
 
   -0.67262E+08         0.12495E+07         0.00000E+00
    0.12495E+07        -0.94669E+08         0.00000E+00
    0.00000E+00         0.00000E+00        -0.67222E+08
 
   -0.67097E+08         0.12313E+07         0.00000E+00
    0.12313E+07        -0.94633E+08         0.00000E+00
    0.00000E+00         0.00000E+00        -0.67045E+08
 
   -0.66932E+08         0.12109E+07         0.00000E+00
    0.12109E+07        -0.94600E+08         0.00000E+00
    0.00000E+00         0.00000E+00        -0.66868E+08
 
   -0.66767E+08         0.11881E+07         0.00000E+00
    0.11881E+07        -0.94571E+08         0.00000E+00
    0.00000E+00         0.00000E+00        -0.66689E+08
 
   -0.66603E+08         0.11626E+07         0.00000E+00
    0.11626E+07        -0.94545E+08         0.00000E+00
    0.00000E+00         0.00000E+00        -0.66510E+08
 
   -0.66439E+08         0.11341E+07         0.00000E+00
    0.11341E+07        -0.94524E+08         0.00000E+00
    0.00000E+00         0.00000E+00        -0.66330E+08
 
   -0.66276E+08         0.11025E+07         0.00000E+00
    0.11025E+07        -0.94506E+08         0.00000E+00
    0.00000E+00         0.00000E+00        -0.66149E+08
 
   -0.66113E+08         0.10675E+07         0.00000E+00
    0.10675E+07        -0.94493E+08         0.00000E+00
    0.00000E+00         0.00000E+00        -0.65967E+08
 
   -0.65951E+08         0.10288E+07         0.00000E+00
    0.10288E+07        -0.94485E+08         0.00000E+00
    0.00000E+00         0.00000E+00        -0.65786E+08
 
   -0.65790E+08         0.98641E+06         0.00000E+00
    0.98641E+06        -0.94481E+08         0.00000E+00
    0.00000E+00         0.00000E+00        -0.65604E+08
 
   -0.65629E+08         0.94009E+06         0.00000E+00
    0.94009E+06        -0.94481E+08         0.00000E+00
    0.00000E+00         0.00000E+00        -0.65422E+08
 
   -0.65468E+08         0.88989E+06         0.00000E+00
    0.88989E+06        -0.94485E+08         0.00000E+00
    0.00000E+00         0.00000E+00        -0.65239E+08
 
   -0.65306E+08         0.83586E+06         0.00000E+00
    0.83586E+06        -0.94492E+08         0.00000E+00
    0.00000E+00         0.00000E+00        -0.65057E+08
 
   -0.65143E+08         0.77819E+06         0.00000E+00
    0.77819E+06        -0.94500E+08         0.00000E+00
    0.00000E+00         0.00000E+00        -0.64873E+08
 
   -0.64977E+08         0.71714E+06         0.00000E+00
    0.71714E+06        -0.94507E+08         0.00000E+00
    0.00000E+00         0.00000E+00        -0.64686E+08
 
   -0.64809E+08         0.65305E+06         0.00000E+00
    0.65305E+06        -0.94510E+08         0.00000E+00
    0.00000E+00         0.00000E+00        -0.64496E+08
 
   -0.64636E+08         0.58622E+06         0.00000E+00
    0.58622E+06        -0.94507E+08         0.00000E+00
    0.00000E+00         0.00000E+00        -0.64300E+08
 
   -0.64459E+08         0.51678E+06         0.00000E+00
    0.51678E+06        -0.94491E+08         0.00000E+00
    0.00000E+00         0.00000E+00        -0.64093E+08
 
   -0.64278E+08         0.44447E+06         0.00000E+00
    0.44447E+06        -0.94459E+08         0.00000E+00
    0.00000E+00         0.00000E+00        -0.63870E+08
 
   -0.64094E+08         0.36843E+06         0.00000E+00
    0.36843E+06        -0.94405E+08         0.00000E+00
    0.00000E+00         0.00000E+00        -0.63625E+08
 
   -0.63913E+08         0.28761E+06         0.00000E+00
    0.28761E+06        -0.94323E+08         0.00000E+00
    0.00000E+00         0.00000E+00        -0.63347E+08
 
   -0.63742E+08         0.20270E+06         0.00000E+00
    0.20270E+06        -0.94211E+08         0.00000E+00
    0.00000E+00         0.00000E+00        -0.63028E+08
 
   -0.63596E+08         0.11813E+06         0.00000E+00
    0.11813E+06        -0.94074E+08         0.00000E+00
    0.00000E+00         0.00000E+00        -0.62659E+08
 
   -0.63491E+08         0.38383E+05         0.00000E+00
    0.38383E+05        -0.93924E+08         0.00000E+00
    0.00000E+00         0.00000E+00        -0.62241E+08
 
   -0.81959E+08         0.57736E+05         0.00000E+00
    0.57736E+05        -0.97747E+08         0.00000E+00
    0.00000E+00         0.00000E+00        -0.84395E+08
 
   -0.81868E+08         0.19533E+06         0.00000E+00
    0.19533E+06        -0.97416E+08         0.00000E+00
    0.00000E+00         0.00000E+00        -0.83895E+08
 
   -0.81708E+08         0.36346E+06         0.00000E+00
    0.36346E+06        -0.97200E+08         0.00000E+00
    0.00000E+00         0.00000E+00        -0.83395E+08
 
   -0.81493E+08         0.53490E+06         0.00000E+00
    0.53490E+06        -0.97067E+08         0.00000E+00
    0.00000E+00         0.00000E+00        -0.82898E+08
 
   -0.81237E+08         0.69576E+06         0.00000E+00
    0.69576E+06        -0.97009E+08         0.00000E+00
    0.00000E+00         0.00000E+00        -0.82404E+08
 
   -0.80954E+08         0.84310E+06         0.00000E+00
    0.84310E+06        -0.97013E+08         0.00000E+00
    0.00000E+00         0.00000E+00        -0.81912E+08
 
   -0.80657E+08         0.97637E+06         0.00000E+00
    0.97637E+06        -0.97064E+08         0.00000E+00
    0.00000E+00         0.00000E+00        -0.81425E+08
 
   -0.80358E+08         0.10901E+07         0.00000E+00
    0.10901E+07        -0.97153E+08         0.00000E+00
    0.00000E+00         0.00000E+00        -0.80942E+08
 
   -0.80058E+08         0.11835E+07         0.00000E+00
    0.11835E+07        -0.97229E+08         0.00000E+00
    0.00000E+00         0.00000E+00        -0.80521E+08
 
   -0.79758E+08         0.12305E+07         0.00000E+00
    0.12305E+07        -0.97240E+08         0.00000E+00
    0.00000E+00         0.00000E+00        -0.80215E+08
 
   -0.79481E+08         0.12952E+07         0.00000E+00
    0.12952E+07        -0.97247E+08         0.00000E+00
    0.00000E+00         0.00000E+00        -0.79949E+08
 
   -0.79223E+08         0.13554E+07         0.00000E+00
    0.13554E+07        -0.97270E+08         0.00000E+00
    0.00000E+00         0.00000E+00        -0.79687E+08
 
   -0.78979E+08         0.14088E+07         0.00000E+00
    0.14088E+07        -0.97301E+08         0.00000E+00
    0.00000E+00         0.00000E+00        -0.79425E+08
 
   -0.78743E+08         0.14569E+07         0.00000E+00
    0.14569E+07        -0.97334E+08         0.00000E+00
    0.00000E+00         0.00000E+00        -0.79164E+08
 
   -0.78511E+08         0.15005E+07         0.00000E+00
    0.15005E+07        -0.97368E+08         0.00000E+00
    0.00000E+00         0.00000E+00        -0.78901E+08
 
   -0.78282E+08         0.15399E+07         0.00000E+00
    0.15399E+07        -0.97401E+08         0.00000E+00
    0.00000E+00         0.00000E+00        -0.78637E+08
 
   -0.78052E+08         0.15752E+07         0.00000E+00
    0.15752E+07        -0.97431E+08         0.00000E+00
    0.00000E+00         0.00000E+00        -0.78372E+08
 
   -0.77821E+08         0.16067E+07         0.00000E+00
    0.16067E+07        -0.97458E+08         0.00000E+00
    0.00000E+00         0.00000E+00        -0.78105E+08
 
   -0.77588E+08         0.16342E+07         0.00000E+00
    0.16342E+07        -0.97483E+08         0.00000E+00
    0.00000E+00         0.00000E+00        -0.77837E+08
 
   -0.77353E+08         0.16580E+07         0.00000E+00
    0.16580E+07        -0.97505E+08         0.00000E+00
    0.00000E+00         0.00000E+00        -0.77569E+08
 
   -0.77116E+08         0.16781E+07         0.00000E+00
    0.16781E+07        -0.97524E+08         0.00000E+00
    0.00000E+00         0.00000E+00        -0.77300E+08
 
   -0.76876E+08         0.16949E+07         0.00000E+00
    0.16949E+07        -0.97540E+08         0.00000E+00
    0.00000E+00         0.00000E+00        -0.77031E+08
 
   -0.76635E+08         0.17085E+07         0.00000E+00
    0.17085E+07        -0.97554E+08         0.00000E+00
    0.00000E+00         0.00000E+00        -0.76763E+08
 
   -0.76392E+08         0.17192E+07         0.00000E+00
    0.17192E+07        -0.97566E+08         0.00000E+00
    0.00000E+00         0.00000E+00        -0.76496E+08
 
   -0.76148E+08         0.17272E+07         0.00000E+00
    0.17272E+07        -0.97576E+08         0.00000E+00
    0.00000E+00         0.00000E+00        -0.76230E+08
 
   -0.75922E+08         0.17297E+07         0.00000E+00
    0.17297E+07        -0.97565E+08         0.00000E+00
    0.00000E+00         0.00000E+00        -0.75985E+08
 
   -0.75729E+08         0.17248E+07         0.00000E+00
    0.17248E+07        -0.97518E+08         0.00000E+00
    0.00000E+00         0.00000E+00        -0.75773E+08
 
   -0.75538E+08         0.17177E+07         0.00000E+00
    0.17177E+07        -0.97466E+08         0.00000E+00
    0.00000E+00         0.00000E+00        -0.75567E+08
 
   -0.75348E+08         0.17090E+07         0.00000E+00
    0.17090E+07        -0.97412E+08         0.00000E+00
    0.00000E+00         0.00000E+00        -0.75364E+08
 
   -0.75159E+08         0.16991E+07         0.00000E+00
    0.16991E+07        -0.97357E+08         0.00000E+00
    0.00000E+00         0.00000E+00        -0.75163E+08
 
   -0.74970E+08         0.16881E+07         0.00000E+00
    0.16881E+07        -0.97300E+08         0.00000E+00
    0.00000E+00         0.00000E+00        -0.74965E+08
 
   -0.74783E+08         0.16762E+07         0.00000E+00
    0.16762E+07        -0.97243E+08         0.00000E+00
    0.00000E+00         0.00000E+00        -0.74770E+08
 
   -0.74598E+08         0.16637E+07         0.00000E+00
    0.16637E+07        -0.97184E+08         0.00000E+00
    0.00000E+00         0.00000E+00        -0.74578E+08
 
   -0.74413E+08         0.16506E+07         0.00000E+00
    0.16506E+07        -0.97125E+08         0.00000E+00
    0.00000E+00         0.00000E+00        -0.74388E+08
 
   -0.74230E+08         0.16372E+07         0.00000E+00
    0.16372E+07        -0.97066E+08         0.00000E+00
    0.00000E+00         0.00000E+00        -0.74201E+08
 
   -0.74049E+08         0.16235E+07         0.00000E+00
    0.16235E+07        -0.97005E+08         0.00000E+00
    0.00000E+00         0.00000E+00        -0.74016E+08
 
   -0.73868E+08         0.16097E+07         0.00000E+00
    0.16097E+07        -0.96945E+08         0.00000E+00
    0.00000E+00         0.00000E+00        -0.73834E+08
 
   -0.73690E+08         0.15958E+07         0.00000E+00
    0.15958E+07        -0.96884E+08         0.00000E+00
    0.00000E+00         0.00000E+00        -0.73654E+08
 
   -0.73513E+08         0.15820E+07         0.00000E+00
    0.15820E+07        -0.96822E+08         0.00000E+00
    0.00000E+00         0.00000E+00        -0.73476E+08
 
   -0.73337E+08         0.15683E+07         0.00000E+00
    0.15683E+07        -0.96761E+08         0.00000E+00
    0.00000E+00         0.00000E+00        -0.73300E+08
 
   -0.73163E+08         0.15548E+07         0.00000E+00
    0.15548E+07        -0.96699E+08         0.00000E+00
    0.00000E+00         0.00000E+00        -0.73126E+08
 
   -0.72990E+08         0.15415E+07         0.00000E+00
    0.15415E+07        -0.96637E+08         0.00000E+00
    0.00000E+00         0.00000E+00        -0.72954E+08
 
   -0.72818E+08         0.15285E+07         0.00000E+00
    0.15285E+07        -0.96575E+08         0.00000E+00
    0.00000E+00         0.00000E+00        -0.72783E+08
 
   -0.72648E+08         0.15158E+07         0.00000E+00
    0.15158E+07        -0.96514E+08         0.00000E+00
    0.00000E+00         0.00000E+00        -0.72615E+08
 
   -0.72479E+08         0.15034E+07         0.00000E+00
    0.15034E+07        -0.96452E+08         0.00000E+00
    0.00000E+00         0.00000E+00        -0.72447E+08
 
   -0.72311E+08         0.14915E+07         0.00000E+00
    0.14915E+07        -0.96390E+08         0.00000E+00
    0.00000E+00         0.00000E+00        -0.72282E+08
 
   -0.72144E+08         0.14799E+07         0.00000E+00
    0.14799E+07        -0.96328E+08         0.00000E+00
    0.00000E+00         0.00000E+00        -0.72117E+08
 
   -0.71978E+08         0.14688E+07         0.00000E+00
    0.14688E+07        -0.96266E+08         0.00000E+00
    0.00000E+00         0.00000E+00        -0.71954E+08
 
   -0.71812E+08         0.14581E+07         0.00000E+00
    0.14581E+07        -0.96205E+08         0.00000E+00
    0.00000E+00         0.00000E+00        -0.71791E+08
 
   -0.71648E+08         0.14478E+07         0.00000E+00
    0.14478E+07        -0.96143E+08         0.00000E+00
    0.00000E+00         0.00000E+00        -0.71630E+08
 
   -0.71485E+08         0.14379E+07         0.00000E+00
    0.14379E+07        -0.96082E+08         0.00000E+00
    0.00000E+00         0.00000E+00        -0.71469E+08
 
   -0.71322E+08         0.14285E+07         0.00000E+00
    0.14285E+07        -0.96021E+08         0.00000E+00
    0.00000E+00         0.00000E+00        -0.71309E+08
 
   -0.71159E+08         0.14195E+07         0.00000E+00
    0.14195E+07        -0.95960E+08         0.00000E+00
    0.00000E+00         0.00000E+00        -0.71150E+08
 
   -0.70998E+08         0.14109E+07         0.00000E+00
    0.14109E+07        -0.95899E+08         0.00000E+00
    0.00000E+00         0.00000E+00        -0.70991E+08
 
   -0.70836E+08         0.14027E+07         0.00000E+00
    0.14027E+07        -0.95838E+08         0.00000E+00
    0.00000E+00         0.00000E+00        -0.70833E+08
 
   -0.70675E+08         0.13948E+07         0.00000E+00
    0.13948E+07        -0.95778E+08         0.00000E+00
    0.00000E+00         0.00000E+00        -0.70674E+08
 
   -0.70514E+08         0.13873E+07         0.00000E+00
    0.13873E+07        -0.95718E+08         0.00000E+00
    0.00000E+00         0.00000E+00        -0.70516E+08
 
   -0.70354E+08         0.13801E+07         0.00000E+00
    0.13801E+07        -0.95658E+08         0.00000E+00
    0.00000E+00         0.00000E+00        -0.70358E+08
 
   -0.70193E+08         0.13731E+07         0.00000E+00
    0.13731E+07        -0.95599E+08         0.00000E+00
    0.00000E+00         0.00000E+00        -0.70199E+08
 
   -0.70032E+08         0.13664E+07         0.00000E+00
    0.13664E+07        -0.95540E+08         0.00000E+00
    0.00000E+00         0.00000E+00        -0.70041E+08
 
   -0.69872E+08         0.13599E+07         0.00000E+00
    0.13599E+07        -0.95482E+08         0.00000E+00
    0.00000E+00         0.00000E+00        -0.69882E+08
 
   -0.69711E+08         0.13535E+07         0.00000E+00
    0.13535E+07        -0.95424E+08         0.00000E+00
    0.00000E+00         0.00000E+00        -0.69722E+08
 
   -0.69550E+08         0.13472E+07         0.00000E+00
    0.13472E+07        -0.95367E+08         0.00000E+00
    0.00000E+00         0.00000E+00        -0.69562E+08
 
   -0.69388E+08         0.13408E+07         0.00000E+00
    0.13408E+07        -0.95310E+08         0.00000E+00
    0.00000E+00         0.00000E+00        -0.69402E+08
 
   -0.69227E+08         0.13344E+07         0.00000E+00
    0.13344E+07        -0.95254E+08         0.00000E+00
    0.00000E+00         0.00000E+00        -0.69240E+08
 
   -0.69065E+08         0.13279E+07         0.00000E+00
    0.13279E+07        -0.95198E+08         0.00000E+00
    0.00000E+00         0.00000E+00        -0.69078E+08
 
   -0.68903E+08         0.13211E+07         0.00000E+00
    0.13211E+07        -0.95144E+08         0.00000E+00
    0.00000E+00         0.00000E+00        -0.68915E+08
 
   -0.68740E+08         0.13141E+07         0.00000E+00
    0.13141E+07        -0.95090E+08         0.00000E+00
    0.00000E+00         0.00000E+00        -0.68751E+08
 
   -0.68577E+08         0.13066E+07         0.00000E+00
    0.13066E+07        -0.95037E+08         0.00000E+00
    0.00000E+00         0.00000E+00        -0.68585E+08
 
   -0.68414E+08         0.12985E+07         0.00000E+00
    0.12985E+07        -0.94986E+08         0.00000E+00
    0.00000E+00         0.00000E+00        -0.68419E+08
 
   -0.68250E+08         0.12898E+07         0.00000E+00
    0.12898E+07        -0.94936E+08         0.00000E+00
    0.00000E+00         0.00000E+00        -0.68251E+08
 
   -0.68086E+08         0.12804E+07         0.00000E+00
    0.12804E+07        -0.94887E+08         0.00000E+00
    0.00000E+00         0.00000E+00        -0.68082E+08
 
   -0.67921E+08         0.12699E+07         0.00000E+00
    0.12699E+07        -0.94839E+08         0.00000E+00
    0.00000E+00         0.00000E+00        -0.67912E+08
 
   -0.67756E+08         0.12584E+07         0.00000E+00
    0.12584E+07        -0.94794E+08         0.00000E+00
    0.00000E+00         0.00000E+00        -0.67741E+08
 
   -0.67591E+08         0.12456E+07         0.00000E+00
    0.12456E+07        -0.94750E+08         0.00000E+00
    0.00000E+00         0.00000E+00        -0.67568E+08
 
   -0.67426E+08         0.12313E+07         0.00000E+00
    0.12313E+07        -0.94709E+08         0.00000E+00
    0.00000E+00         0.00000E+00        -0.67394E+08
 
   -0.67261E+08         0.12153E+07         0.00000E+00
    0.12153E+07        -0.94670E+08         0.00000E+00
    0.00000E+00         0.00000E+00        -0.67218E+08
 
   -0.67096E+08         0.11975E+07         0.00000E+00
    0.11975E+07        -0.94634E+08         0.00000E+00
    0.00000E+00         0.00000E+00        -0.67041E+08
 
   -0.66931E+08         0.11774E+07         0.00000E+00
    0.11774E+07        -0.94601E+08         0.00000E+00
    0.00000E+00         0.00000E+00        -0.66863E+08
 
   -0.66766E+08         0.11550E+07         0.00000E+00
    0.11550E+07        -0.94571E+08         0.00000E+00
    0.00000E+00         0.00000E+00        -0.66684E+08
 
   -0.66602E+08         0.11300E+07         0.00000E+00
    0.11300E+07        -0.94545E+08         0.00000E+00
    0.00000E+00         0.00000E+00        -0.66504E+08
 
   -0.66439E+08         0.11020E+07         0.00000E+00
    0.11020E+07        -0.94522E+08         0.00000E+00
    0.00000E+00         0.00000E+00        -0.66323E+08
 
   -0.66276E+08         0.10709E+07         0.00000E+00
    0.10709E+07        -0.94504E+08         0.00000E+00
    0.00000E+00         0.00000E+00        -0.66141E+08
 
   -0.66114E+08         0.10363E+07         0.00000E+00
    0.10363E+07        -0.94491E+08         0.00000E+00
    0.00000E+00         0.00000E+00        -0.65958E+08
 
   -0.65953E+08         0.99813E+06         0.00000E+00
    0.99813E+06        -0.94481E+08         0.00000E+00
    0.00000E+00         0.00000E+00        -0.65776E+08
 
   -0.65792E+08         0.95613E+06         0.00000E+00
    0.95613E+06        -0.94477E+08         0.00000E+00
    0.00000E+00         0.00000E+00        -0.65593E+08
 
   -0.65632E+08         0.91019E+06         0.00000E+00
    0.91019E+06        -0.94476E+08         0.00000E+00
    0.00000E+00         0.00000E+00        -0.65409E+08
 
   -0.65472E+08         0.86028E+06         0.00000E+00
    0.86028E+06        -0.94479E+08         0.00000E+00
    0.00000E+00         0.00000E+00        -0.65225E+08
 
   -0.65311E+08         0.80644E+06         0.00000E+00
    0.80644E+06        -0.94485E+08         0.00000E+00
    0.00000E+00         0.00000E+00        -0.65041E+08
 
   -0.65149E+08         0.74884E+06         0.00000E+00
    0.74884E+06        -0.94492E+08         0.00000E+00
    0.00000E+00         0.00000E+00        -0.64856E+08
 
   -0.64985E+08         0.68772E+06         0.00000E+00
    0.68772E+06        -0.94499E+08         0.00000E+00
    0.00000E+00         0.00000E+00        -0.64668E+08
 
   -0.64818E+08         0.62346E+06         0.00000E+00
    0.62346E+06        -0.94502E+08         0.00000E+00
    0.00000E+00         0.00000E+00        -0.64476E+08
 
   -0.64647E+08         0.55643E+06         0.00000E+00
    0.55643E+06        -0.94498E+08         0.00000E+00
    0.00000E+00         0.00000E+00        -0.64278E+08
 
   -0.64472E+08         0.48692E+06         0.00000E+00
    0.48692E+06        -0.94482E+08         0.00000E+00
    0.00000E+00         0.00000E+00        -0.64069E+08
 
   -0.64293E+08         0.41497E+06         0.00000E+00
    0.41497E+06        -0.94450E+08         0.00000E+00
    0.00000E+00         0.00000E+00        -0.63844E+08
 
   -0.64113E+08         0.34019E+06         0.00000E+00
    0.34019E+06        -0.94396E+08         0.00000E+00
    0.00000E+00         0.00000E+00        -0.63596E+08
 
   -0.63935E+08         0.26227E+06         0.00000E+00
    0.26227E+06        -0.94315E+08         0.00000E+00
    0.00000E+00         0.00000E+00        -0.63316E+08
 
   -0.63770E+08         0.18265E+06         0.00000E+00
    0.18265E+06        -0.94204E+08         0.00000E+00
    0.00000E+00         0.00000E+00        -0.62994E+08
 
   -0.63629E+08         0.10553E+06         0.00000E+00
    0.10553E+06        -0.94069E+08         0.00000E+00
    0.00000E+00         0.00000E+00        -0.62623E+08
 
   -0.63526E+08         0.34155E+05         0.00000E+00
    0.34155E+05        -0.93921E+08         0.00000E+00
    0.00000E+00         0.00000E+00        -0.62205E+08
 
   -0.81816E+08         0.47968E+05         0.00000E+00
    0.47968E+05        -0.97769E+08         0.00000E+00
    0.00000E+00         0.00000E+00        -0.84395E+08
 
   -0.81734E+08         0.16999E+06         0.00000E+00
    0.16999E+06        -0.97446E+08         0.00000E+00
    0.00000E+00         0.00000E+00        -0.83895E+08
 
   -0.81587E+08         0.32719E+06         0.00000E+00
    0.32719E+06        -0.97234E+08         0.00000E+00
    0.00000E+00         0.00000E+00        -0.83395E+08
 
   -0.81387E+08         0.48869E+06         0.00000E+00
    0.48869E+06        -0.97100E+08         0.00000E+00
    0.00000E+00         0.00000E+00        -0.82898E+08
 
   -0.81145E+08         0.64255E+06         0.00000E+00
    0.64255E+06        -0.97039E+08         0.00000E+00
    0.00000E+00         0.00000E+00        -0.82404E+08
 
   -0.80874E+08         0.78567E+06         0.00000E+00
    0.78567E+06        -0.97041E+08         0.00000E+00
    0.00000E+00         0.00000E+00        -0.81912E+08
 
   -0.80588E+08         0.91736E+06         0.00000E+00
    0.91736E+06        -0.97089E+08         0.00000E+00
    0.00000E+00         0.00000E+00        -0.81425E+08
 
   -0.80299E+08         0.10319E+07         0.00000E+00
    0.10319E+07        -0.97173E+08         0.00000E+00
    0.00000E+00         0.00000E+00        -0.80942E+08
 
   -0.80008E+08         0.11231E+07         0.00000E+00
    0.11231E+07        -0.97241E+08         0.00000E+00
    0.00000E+00         0.00000E+00        -0.80530E+08
 
   -0.79716E+08         0.11735E+07         0.00000E+00
    0.11735E+07        -0.97253E+08         0.00000E+00
    0.00000E+00         0.00000E+00        -0.80228E+08
 
   -0.79447E+08         0.12424E+07         0.00000E+00
    0.12424E+07        -0.97260E+08         0.00000E+00
    0.00000E+00         0.00000E+00        -0.79957E+08
 
   -0.79194E+08         0.13055E+07         0.00000E+00
    0.13055E+07        -0.97281E+08         0.00000E+00
    0.00000E+00         0.00000E+00        -0.79691E+08
 
   -0.78951E+08         0.13610E+07         0.00000E+00
    0.13610E+07        -0.97311E+08         0.00000E+00
    0.00000E+00         0.00000E+00        -0.79426E+08
 
   -0.78717E+08         0.14104E+07         0.00000E+00
    0.14104E+07        -0.97344E+08         0.00000E+00
    0.00000E+00         0.00000E+00        -0.79162E+08
 
   -0.78486E+08         0.14545E+07         0.00000E+00
    0.14545E+07        -0.97377E+08         0.00000E+00
    0.00000E+00         0.00000E+00        -0.78897E+08
 
   -0.78257E+08         0.14940E+07         0.00000E+00
    0.14940E+07        -0.97408E+08         0.00000E+00
    0.00000E+00         0.00000E+00        -0.78630E+08
 
   -0.78028E+08         0.15293E+07         0.00000E+00
    0.15293E+07        -0.97438E+08         0.00000E+00
    0.00000E+00         0.00000E+00        -0.78363E+08
 
   -0.77798E+08         0.15604E+07         0.00000E+00
    0.15604E+07        -0.97464E+08         0.00000E+00
    0.00000E+00         0.00000E+00        -0.78095E+08
 
   -0.77566E+08         0.15875E+07         0.00000E+00
    0.15875E+07        -0.97488E+08         0.00000E+00
    0.00000E+00         0.00000E+00        -0.77826E+08
 
   -0.77332E+08         0.16109E+07         0.00000E+00
    0.16109E+07        -0.97509E+08         0.00000E+00
    0.00000E+00         0.00000E+00        -0.77557E+08
 
   -0.77096E+08         0.16306E+07         0.00000E+00
    0.16306E+07        -0.97528E+08         0.00000E+00
    0.00000E+00         0.00000E+00        -0.77287E+08
 
   -0.76858E+08         0.16470E+07         0.00000E+00
    0.16470E+07        -0.97543E+08         0.00000E+00
    0.00000E+00         0.00000E+00        -0.77018E+08
 
   -0.76618E+08         0.16602E+07         0.00000E+00
    0.16602E+07        -0.97557E+08         0.00000E+00
    0.00000E+00         0.00000E+00        -0.76750E+08
 
   -0.76376E+08         0.16706E+07         0.00000E+00
    0.16706E+07        -0.97568E+08         0.00000E+00
    0.00000E+00         0.00000E+00        -0.76483E+08
 
   -0.76133E+08         0.16784E+07         0.00000E+00
    0.16784E+07        -0.97578E+08         0.00000E+00
    0.00000E+00         0.00000E+00        -0.76217E+08
 
   -0.75910E+08         0.16805E+07         0.00000E+00
    0.16805E+07        -0.97564E+08         0.00000E+00
    0.00000E+00         0.00000E+00        -0.75973E+08
 
   -0.75719E+08         0.16755E+07         0.00000E+00
    0.16755E+07        -0.97514E+08         0.00000E+00
    0.00000E+00         0.00000E+00        -0.75763E+08
 
   -0.75529E+08         0.16687E+07         0.00000E+00
    0.16687E+07        -0.97462E+08         0.00000E+00
    0.00000E+00         0.00000E+00        -0.75557E+08
 
   -0.75339E+08         0.16604E+07         0.00000E+00
    0.16604E+07        -0.97409E+08         0.00000E+00
    0.00000E+00         0.00000E+00        -0.75354E+08
 
   -0.75150E+08         0.16508E+07         0.00000E+00
    0.16508E+07        -0.97354E+08         0.00000E+00
    0.00000E+00         0.00000E+00        -0.75153E+08
 
   -0.74963E+08         0.16403E+07         0.00000E+00
    0.16403E+07        -0.97297E+08         0.00000E+00
    0.00000E+00         0.00000E+00        -0.74956E+08
 
   -0.74776E+08         0.16288E+07         0.00000E+00
    0.16288E+07        -0.97240E+08         0.00000E+00
    0.00000E+00         0.00000E+00        -0.74761E+08
 
   -0.74591E+08         0.16168E+07         0.00000E+00
    0.16168E+07        -0.97182E+08         0.00000E+00
    0.00000E+00         0.00000E+00        -0.74568E+08
 
   -0.74407E+08         0.16042E+07         0.00000E+00
    0.16042E+07        -0.97123E+08         0.00000E+00
    0.00000E+00         0.00000E+00        -0.74379E+08
 
   -0.74224E+08         0.15912E+07         0.00000E+00
    0.15912E+07        -0.97063E+08         0.00000E+00
    0.00000E+00         0.00000E+00        -0.74192E+08
 
   -0.74043E+08         0.15781E+07         0.00000E+00
    0.15781E+07        -0.97003E+08         0.00000E+00
    0.00000E+00         0.00000E+00        -0.74007E+08
 
   -0.73863E+08         0.15648E+07         0.00000E+00
    0.15648E+07        -0.96943E+08         0.00000E+00
    0.00000E+00         0.00000E+00        -0.73825E+08
 
   -0.73684E+08         0.15514E+07         0.00000E+00
    0.15514E+07        -0.96882E+08         0.00000E+00
    0.00000E+00         0.00000E+00        -0.73645E+08
 
   -0.73508E+08         0.15381E+07         0.00000E+00
    0.15381E+07        -0.96821E+08         0.00000E+00
    0.00000E+00         0.00000E+00        -0.73467E+08
 
   -0.73332E+08         0.15249E+07         0.00000E+00
    0.15249E+07        -0.96760E+08         0.00000E+00
    0.00000E+00         0.00000E+00        -0.73292E+08
 
   -0.73158E+08         0.15118E+07         0.00000E+00
    0.15118E+07        -0.96698E+08         0.00000E+00
    0.00000E+00         0.00000E+00        -0.73118E+08
 
   -0.72985E+08         0.14990E+07         0.00000E+00
    0.14990E+07        -0.96637E+08         0.00000E+00
    0.00000E+00         0.00000E+00        -0.72946E+08
 
   -0.72814E+08         0.14864E+07         0.00000E+00
    0.14864E+07        -0.96575E+08         0.00000E+00
    0.00000E+00         0.00000E+00        -0.72776E+08
 
   -0.72643E+08         0.14742E+07         0.00000E+00
    0.14742E+07        -0.96513E+08         0.00000E+00
    0.00000E+00         0.00000E+00        -0.72608E+08
 
   -0.72474E+08         0.14623E+07         0.00000E+00
    0.14623E+07        -0.96452E+08         0.00000E+00
    0.00000E+00         0.00000E+00        -0.72441E+08
 
   -0.72307E+08         0.14507E+07         0.00000E+00
    0.14507E+07        -0.96390E+08         0.00000E+00
    0.00000E+00         0.00000E+00        -0.72275E+08
 
   -0.72140E+08         0.14395E+07         0.00000E+00
    0.14395E+07        -0.96328E+08         0.00000E+00
    0.00000E+00         0.00000E+00        -0.72111E+08
 
   -0.71974E+08         0.14288E+07         0.00000E+00
    0.14288E+07        -0.96267E+08         0.00000E+00
    0.00000E+00         0.00000E+00        -0.71948E+08
 
   -0.71809E+08         0.14184E+07         0.00000E+00
    0.14184E+07        -0.96205E+08         0.00000E+00
    0.00000E+00         0.00000E+00        -0.71786E+08
 
   -0.71645E+08         0.14084E+07         0.00000E+00
    0.14084E+07        -0.96144E+08         0.00000E+00
    0.00000E+00         0.00000E+00        -0.71625E+08
 
   -0.71481E+08         0.13989E+07         0.00000E+00
    0.13989E+07        -0.96083E+08         0.00000E+00
    0.00000E+00         0.00000E+00        -0.71465E+08
 
   -0.71318E+08         0.13897E+07         0.00000E+00
    0.13897E+07        -0.96022E+08         0.00000E+00
    0.00000E+00         0.00000E+00        -0.71305E+08
 
   -0.71156E+08         0.13810E+07         0.00000E+00
    0.13810E+07        -0.95961E+08         0.00000E+00
    0.00000E+00         0.00000E+00        -0.71146E+08
 
   -0.70994E+08         0.13726E+07         0.00000E+00
    0.13726E+07        -0.95900E+08         0.00000E+00
    0.00000E+00         0.00000E+00        -0.70987E+08
 
   -0.70833E+08         0.13647E+07         0.00000E+00
    0.13647E+07        -0.95840E+08         0.00000E+00
    0.00000E+00         0.00000E+00        -0.70829E+08
 
   -0.70672E+08         0.13570E+07         0.00000E+00
    0.13570E+07        -0.95780E+08         0.00000E+00
    0.00000E+00         0.00000E+00        -0.70671E+08
 
   -0.70511E+08         0.13497E+07         0.00000E+00
    0.13497E+07        -0.95720E+08         0.00000E+00
    0.00000E+00         0.00000E+00        -0.70513E+08
 
   -0.70350E+08         0.13427E+07         0.00000E+00
    0.13427E+07        -0.95660E+08         0.00000E+00
    0.00000E+00         0.00000E+00        -0.70355E+08
 
   -0.70189E+08         0.13359E+07         0.00000E+00
    0.13359E+07        -0.95601E+08         0.00000E+00
    0.00000E+00         0.00000E+00        -0.70197E+08
 
   -0.70029E+08         0.13294E+07         0.00000E+00
    0.13294E+07        -0.95542E+08         0.00000E+00
    0.00000E+00         0.00000E+00        -0.70038E+08
 
   -0.69868E+08         0.13230E+07         0.00000E+00
    0.13230E+07        -0.95484E+08         0.00000E+00
    0.00000E+00         0.00000E+00        -0.69879E+08
 
   -0.69707E+08         0.13167E+07         0.00000E+00
    0.13167E+07        -0.95426E+08         0.00000E+00
    0.00000E+00         0.00000E+00        -0.69720E+08
 
   -0.69546E+08         0.13105E+07         0.00000E+00
    0.13105E+07        -0.95369E+08         0.00000E+00
    0.00000E+00         0.00000E+00        -0.69560E+08
 
   -0.69385E+08         0.13043E+07         0.00000E+00
    0.13043E+07        -0.95312E+08         0.00000E+00
    0.00000E+00         0.00000E+00        -0.69400E+08
 
   -0.69224E+08         0.12981E+07         0.00000E+00
    0.12981E+07        -0.95256E+08         0.00000E+00
    0.00000E+00         0.00000E+00        -0.69238E+08
 
   -0.69062E+08         0.12917E+07         0.00000E+00
    0.12917E+07        -0.95201E+08         0.00000E+00
    0.00000E+00         0.00000E+00        -0.69076E+08
 
   -0.68900E+08         0.12850E+07         0.00000E+00
    0.12850E+07        -0.95146E+08         0.00000E+00
    0.00000E+00         0.00000E+00        -0.68913E+08
 
   -0.68737E+08         0.12781E+07         0.00000E+00
    0.12781E+07        -0.95093E+08         0.00000E+00
    0.00000E+00         0.00000E+00        -0.68749E+08
 
   -0.68574E+08         0.12707E+07         0.00000E+00
    0.12707E+07        -0.95040E+08         0.00000E+00
    0.00000E+00         0.00000E+00        -0.68584E+08
 
   -0.68411E+08         0.12629E+07         0.00000E+00
    0.12629E+07        -0.94988E+08         0.00000E+00
    0.00000E+00         0.00000E+00        -0.68417E+08
 
   -0.68247E+08         0.12543E+07         0.00000E+00
    0.12543E+07        -0.94938E+08         0.00000E+00
    0.00000E+00         0.00000E+00        -0.68250E+08
 
   -0.68083E+08         0.12450E+07         0.00000E+00
    0.12450E+07        -0.94889E+08         0.00000E+00
    0.00000E+00         0.00000E+00        -0.68081E+08
 
   -0.67919E+08         0.12348E+07         0.00000E+00
    0.12348E+07        -0.94842E+08         0.00000E+00
    0.00000E+00         0.00000E+00        -0.67910E+08
 
   -0.67754E+08         0.12235E+07         0.00000E+00
    0.12235E+07        -0.94796E+08         0.00000E+00
    0.00000E+00         0.00000E+00        -0.67738E+08
 
   -0.67589E+08         0.12109E+07         0.00000E+00
    0.12109E+07        -0.94752E+08         0.00000E+00
    0.00000E+00         0.00000E+00        -0.67565E+08
 
   -0.67424E+08         0.11969E+07         0.00000E+00
    0.11969E+07        -0.94710E+08         0.00000E+00
    0.00000E+00         0.00000E+00        -0.67391E+08
 
   -0.67259E+08         0.11812E+07         0.00000E+00
    0.11812E+07        -0.94671E+08         0.00000E+00
    0.00000E+00         0.00000E+00        -0.67215E+08
 
   -0.67094E+08         0.11637E+07         0.00000E+00
    0.11637E+07        -0.94635E+08         0.00000E+00
    0.00000E+00         0.00000E+00        -0.67037E+08
 
   -0.66930E+08         0.11441E+07         0.00000E+00
    0.11441E+07        -0.94601E+08         0.00000E+00
    0.00000E+00         0.00000E+00        -0.66859E+08
 
   -0.66766E+08         0.11221E+07         0.00000E+00
    0.11221E+07        -0.94571E+08         0.00000E+00
    0.00000E+00         0.00000E+00        -0.66679E+08
 
   -0.66602E+08         0.10975E+07         0.00000E+00
    0.10975E+07        -0.94544E+08         0.00000E+00
    0.00000E+00         0.00000E+00        -0.66498E+08
 
   -0.66439E+08         0.10700E+07         0.00000E+00
    0.10700E+07        -0.94521E+08         0.00000E+00
    0.00000E+00         0.00000E+00        -0.66316E+08
 
   -0.66277E+08         0.10393E+07         0.00000E+00
    0.10393E+07        -0.94502E+08         0.00000E+00
    0.00000E+00         0.00000E+00        -0.66133E+08
 
   -0.66115E+08         0.10053E+07         0.00000E+00
    0.10053E+07        -0.94488E+08         0.00000E+00
    0.00000E+00         0.00000E+00        -0.65950E+08
 
   -0.65955E+08         0.96755E+06         0.00000E+00
    0.96755E+06        -0.94478E+08         0.00000E+00
    0.00000E+00         0.00000E+00        -0.65766E+08
 
   -0.65795E+08         0.92600E+06         0.00000E+00
    0.92600E+06        -0.94472E+08         0.00000E+00
    0.00000E+00         0.00000E+00        -0.65582E+08
 
   -0.65635E+08         0.88046E+06         0.00000E+00
    0.88046E+06        -0.94471E+08         0.00000E+00
    0.00000E+00         0.00000E+00        -0.65397E+08
 
   -0.65476E+08         0.83087E+06         0.00000E+00
    0.83087E+06        -0.94473E+08         0.00000E+00
    0.00000E+00         0.00000E+00        -0.65212E+08
 
   -0.65316E+08         0.77725E+06         0.00000E+00
    0.77725E+06        -0.94478E+08         0.00000E+00
    0.00000E+00         0.00000E+00        -0.65026E+08
 
   -0.65155E+08         0.71974E+06         0.00000E+00
    0.71974E+06        -0.94485E+08         0.00000E+00
    0.00000E+00         0.00000E+00        -0.64839E+08
 
   -0.64992E+08         0.65860E+06         0.00000E+00
    0.65860E+06        -0.94490E+08         0.00000E+00
    0.00000E+00         0.00000E+00        -0.64649E+08
 
   -0.64827E+08         0.59422E+06         0.00000E+00
    0.59422E+06        -0.94493E+08         0.00000E+00
    0.00000E+00         0.00000E+00        -0.64456E+08
 
   -0.64658E+08         0.52707E+06         0.00000E+00
    0.52707E+06        -0.94489E+08         0.00000E+00
    0.00000E+00         0.00000E+00        -0.64255E+08
 
   -0.64486E+08         0.45761E+06         0.00000E+00
    0.45761E+06        -0.94473E+08         0.00000E+00
    0.00000E+00         0.00000E+00        -0.64045E+08
 
   -0.64310E+08         0.38616E+06         0.00000E+00
    0.38616E+06        -0.94442E+08         0.00000E+00
    0.00000E+00         0.00000E+00        -0.63818E+08
 
   -0.64132E+08         0.31284E+06         0.00000E+00
    0.31284E+06        -0.94388E+08         0.00000E+00
    0.00000E+00         0.00000E+00        -0.63568E+08
 
   -0.63959E+08         0.23803E+06         0.00000E+00
    0.23803E+06        -0.94308E+08         0.00000E+00
    0.00000E+00         0.00000E+00        -0.63286E+08
 
   -0.63798E+08         0.16370E+06         0.00000E+00
    0.16370E+06        -0.94199E+08         0.00000E+00
    0.00000E+00         0.00000E+00        -0.62961E+08
 
   -0.63662E+08         0.93731E+05         0.00000E+00
    0.93731E+05        -0.94066E+08         0.00000E+00
    0.00000E+00         0.00000E+00        -0.62590E+08
 
   -0.63562E+08         0.30208E+05         0.00000E+00
    0.30208E+05        -0.93920E+08         0.00000E+00
    0.00000E+00         0.00000E+00        -0.62171E+08
 
   -0.81673E+08         0.39042E+05         0.00000E+00
    0.39042E+05        -0.97788E+08         0.00000E+00
    0.00000E+00         0.00000E+00        -0.84395E+08
 
   -0.81601E+08         0.14700E+06         0.00000E+00
    0.14700E+06        -0.97474E+08         0.00000E+00
    0.00000E+00         0.00000E+00        -0.83895E+08
 
   -0.81468E+08         0.29396E+06         0.00000E+00
    0.29396E+06        -0.97266E+08         0.00000E+00
    0.00000E+00         0.00000E+00        -0.83395E+08
 
   -0.81282E+08         0.44518E+06         0.00000E+00
    0.44518E+06        -0.97130E+08         0.00000E+00
    0.00000E+00         0.00000E+00        -0.82898E+08
 
   -0.81052E+08         0.59196E+06         0.00000E+00
    0.59196E+06        -0.97068E+08         0.00000E+00
    0.00000E+00         0.00000E+00        -0.82404E+08
 
   -0.80794E+08         0.73074E+06         0.00000E+00
    0.73074E+06        -0.97068E+08         0.00000E+00
    0.00000E+00         0.00000E+00        -0.81912E+08
 
   -0.80519E+08         0.86000E+06         0.00000E+00
    0.86000E+06        -0.97115E+08         0.00000E+00
    0.00000E+00         0.00000E+00        -0.81425E+08
 
   -0.80239E+08         0.97628E+06         0.00000E+00
    0.97628E+06        -0.97192E+08         0.00000E+00
    0.00000E+00         0.00000E+00        -0.80942E+08
 
   -0.79956E+08         0.10635E+07         0.00000E+00
    0.10635E+07        -0.97254E+08         0.00000E+00
    0.00000E+00         0.00000E+00        -0.80539E+08
 
   -0.79675E+08         0.11189E+07         0.00000E+00
    0.11189E+07        -0.97267E+08         0.00000E+00
    0.00000E+00         0.00000E+00        -0.80242E+08
 
   -0.79414E+08         0.11909E+07         0.00000E+00
    0.11909E+07        -0.97273E+08         0.00000E+00
    0.00000E+00         0.00000E+00        -0.79966E+08
 
   -0.79165E+08         0.12562E+07         0.00000E+00
    0.12562E+07        -0.97294E+08         0.00000E+00
    0.00000E+00         0.00000E+00        -0.79696E+08
 
   -0.78925E+08         0.13136E+07         0.00000E+00
    0.13136E+07        -0.97322E+08         0.00000E+00
    0.00000E+00         0.00000E+00        -0.79428E+08
 
   -0.78692E+08         0.13640E+07         0.00000E+00
    0.13640E+07        -0.97353E+08         0.00000E+00
    0.00000E+00         0.00000E+00        -0.79160E+08
 
   -0.78462E+08         0.14087E+07         0.00000E+00
    0.14087E+07        -0.97385E+08         0.00000E+00
    0.00000E+00         0.00000E+00        -0.78892E+08
 
   -0.78234E+08         0.14484E+07         0.00000E+00
    0.14484E+07        -0.97416E+08         0.00000E+00
    0.00000E+00         0.00000E+00        -0.78624E+08
 
   -0.78006E+08         0.14835E+07         0.00000E+00
    0.14835E+07        -0.97444E+08         0.00000E+00
    0.00000E+00         0.00000E+00        -0.78355E+08
 
   -0.77777E+08         0.15143E+07         0.00000E+00
    0.15143E+07        -0.97470E+08         0.00000E+00
    0.00000E+00         0.00000E+00        -0.78085E+08
 
   -0.77546E+08         0.15410E+07         0.00000E+00
    0.15410E+07        -0.97493E+08         0.00000E+00
    0.00000E+00         0.00000E+00        -0.77815E+08
 
   -0.77313E+08         0.15639E+07         0.00000E+00
    0.15639E+07        -0.97513E+08         0.00000E+00
    0.00000E+00         0.00000E+00        -0.77545E+08
 
   -0.77078E+08         0.15833E+07         0.00000E+00
    0.15833E+07        -0.97531E+08         0.00000E+00
    0.00000E+00         0.00000E+00        -0.77275E+08
 
   -0.76840E+08         0.15992E+07         0.00000E+00
    0.15992E+07        -0.97546E+08         0.00000E+00
    0.00000E+00         0.00000E+00        -0.77006E+08
 
   -0.76601E+08         0.16121E+07         0.00000E+00
    0.16121E+07        -0.97559E+08         0.00000E+00
    0.00000E+00         0.00000E+00        -0.76737E+08
 
   -0.76361E+08         0.16222E+07         0.00000E+00
    0.16222E+07        -0.97570E+08         0.00000E+00
    0.00000E+00         0.00000E+00        -0.76469E+08
 
   -0.76119E+08         0.16298E+07         0.00000E+00
    0.16298E+07        -0.97579E+08         0.00000E+00
    0.00000E+00         0.00000E+00        -0.76203E+08
 
   -0.75900E+08         0.16313E+07         0.00000E+00
    0.16313E+07        -0.97561E+08         0.00000E+00
    0.00000E+00         0.00000E+00        -0.75963E+08
 
   -0.75710E+08         0.16265E+07         0.00000E+00
    0.16265E+07        -0.97511E+08         0.00000E+00
    0.00000E+00         0.00000E+00        -0.75754E+08
 
   -0.75520E+08         0.16200E+07         0.00000E+00
    0.16200E+07        -0.97459E+08         0.00000E+00
    0.00000E+00         0.00000E+00        -0.75547E+08
 
   -0.75331E+08         0.16120E+07         0.00000E+00
    0.16120E+07        -0.97406E+08         0.00000E+00
    0.00000E+00         0.00000E+00        -0.75344E+08
 
   -0.75143E+08         0.16028E+07         0.00000E+00
    0.16028E+07        -0.97351E+08         0.00000E+00
    0.00000E+00         0.00000E+00        -0.75143E+08
 
   -0.74955E+08         0.15926E+07         0.00000E+00
    0.15926E+07        -0.97295E+08         0.00000E+00
    0.00000E+00         0.00000E+00        -0.74946E+08
 
   -0.74769E+08         0.15816E+07         0.00000E+00
    0.15816E+07        -0.97238E+08         0.00000E+00
    0.00000E+00         0.00000E+00        -0.74751E+08
 
   -0.74584E+08         0.15700E+07         0.00000E+00
    0.15700E+07        -0.97180E+08         0.00000E+00
    0.00000E+00         0.00000E+00        -0.74559E+08
 
   -0.74400E+08         0.15579E+07         0.00000E+00
    0.15579E+07        -0.97121E+08         0.00000E+00
    0.00000E+00         0.00000E+00        -0.74369E+08
 
   -0.74218E+08         0.15454E+07         0.00000E+00
    0.15454E+07        -0.97061E+08         0.00000E+00
    0.00000E+00         0.00000E+00        -0.74182E+08
 
   -0.74037E+08         0.15328E+07         0.00000E+00
    0.15328E+07        -0.97002E+08         0.00000E+00
    0.00000E+00         0.00000E+00        -0.73998E+08
 
   -0.73858E+08         0.15199E+07         0.00000E+00
    0.15199E+07        -0.96941E+08         0.00000E+00
    0.00000E+00         0.00000E+00        -0.73816E+08
 
   -0.73679E+08         0.15071E+07         0.00000E+00
    0.15071E+07        -0.96881E+08         0.00000E+00
    0.00000E+00         0.00000E+00        -0.73637E+08
 
   -0.73503E+08         0.14942E+07         0.00000E+00
    0.14942E+07        -0.96820E+08         0.00000E+00
    0.00000E+00         0.00000E+00        -0.73459E+08
 
   -0.73327E+08         0.14815E+07         0.00000E+00
    0.14815E+07        -0.96759E+08         0.00000E+00
    0.00000E+00         0.00000E+00        -0.73284E+08
 
   -0.73153E+08         0.14689E+07         0.00000E+00
    0.14689E+07        -0.96697E+08         0.00000E+00
    0.00000E+00         0.00000E+00        -0.73110E+08
 
   -0.72981E+08         0.14565E+07         0.00000E+00
    0.14565E+07        -0.96636E+08         0.00000E+00
    0.00000E+00         0.00000E+00        -0.72939E+08
 
   -0.72810E+08         0.14444E+07         0.00000E+00
    0.14444E+07        -0.96574E+08         0.00000E+00
    0.00000E+00         0.00000E+00        -0.72769E+08
 
   -0.72639E+08         0.14326E+07         0.00000E+00
    0.14326E+07        -0.96513E+08         0.00000E+00
    0.00000E+00         0.00000E+00        -0.72601E+08
 
   -0.72471E+08         0.14211E+07         0.00000E+00
    0.14211E+07        -0.96451E+08         0.00000E+00
    0.00000E+00         0.00000E+00        -0.72435E+08
 
   -0.72303E+08         0.14099E+07         0.00000E+00
    0.14099E+07        -0.96390E+08         0.00000E+00
    0.00000E+00         0.00000E+00        -0.72269E+08
 
   -0.72136E+08         0.13991E+07         0.00000E+00
    0.13991E+07        -0.96328E+08         0.00000E+00
    0.00000E+00         0.00000E+00        -0.72105E+08
 
   -0.71970E+08         0.13887E+07         0.00000E+00
    0.13887E+07        -0.96267E+08         0.00000E+00
    0.00000E+00         0.00000E+00        -0.71943E+08
 
   -0.71805E+08         0.13787E+07         0.00000E+00
    0.13787E+07        -0.96206E+08         0.00000E+00
    0.00000E+00         0.00000E+00        -0.71781E+08
 
   -0.71641E+08         0.13691E+07         0.00000E+00
    0.13691E+07        -0.96145E+08         0.00000E+00
    0.00000E+00         0.00000E+00        -0.71620E+08
 
   -0.71478E+08         0.13598E+07         0.00000E+00
    0.13598E+07        -0.96084E+08         0.00000E+00
    0.00000E+00         0.00000E+00        -0.71460E+08
 
   -0.71315E+08         0.13510E+07         0.00000E+00
    0.13510E+07        -0.96023E+08         0.00000E+00
    0.00000E+00         0.00000E+00        -0.71301E+08
 
   -0.71152E+08         0.13425E+07         0.00000E+00
    0.13425E+07        -0.95962E+08         0.00000E+00
    0.00000E+00         0.00000E+00        -0.71142E+08
 
   -0.70991E+08         0.13344E+07         0.00000E+00
    0.13344E+07        -0.95902E+08         0.00000E+00
    0.00000E+00         0.00000E+00        -0.70984E+08
 
   -0.70829E+08         0.13266E+07         0.00000E+00
    0.13266E+07        -0.95841E+08         0.00000E+00
    0.00000E+00         0.00000E+00        -0.70826E+08
 
   -0.70668E+08         0.13192E+07         0.00000E+00
    0.13192E+07        -0.95781E+08         0.00000E+00
    0.00000E+00         0.00000E+00        -0.70668E+08
 
   -0.70507E+08         0.13121E+07         0.00000E+00
    0.13121E+07        -0.95722E+08         0.00000E+00
    0.00000E+00         0.00000E+00        -0.70510E+08
 
   -0.70347E+08         0.13053E+07         0.00000E+00
    0.13053E+07        -0.95662E+08         0.00000E+00
    0.00000E+00         0.00000E+00        -0.70352E+08
 
   -0.70186E+08         0.12987E+07         0.00000E+00
    0.12987E+07        -0.95603E+08         0.00000E+00
    0.00000E+00         0.00000E+00        -0.70194E+08
 
   -0.70026E+08         0.12923E+07         0.00000E+00
    0.12923E+07        -0.95544E+08         0.00000E+00
    0.00000E+00         0.00000E+00        -0.70036E+08
 
   -0.69865E+08         0.12861E+07         0.00000E+00
    0.12861E+07        -0.95486E+08         0.00000E+00
    0.00000E+00         0.00000E+00        -0.69877E+08
 
   -0.69704E+08         0.12800E+07         0.00000E+00
    0.12800E+07        -0.95428E+08         0.00000E+00
    0.00000E+00         0.00000E+00        -0.69718E+08
 
   -0.69543E+08         0.12739E+07         0.00000E+00
    0.12739E+07        -0.95371E+08         0.00000E+00
    0.00000E+00         0.00000E+00        -0.69558E+08
 
   -0.69382E+08         0.12678E+07         0.00000E+00
    0.12678E+07        -0.95315E+08         0.00000E+00
    0.00000E+00         0.00000E+00        -0.69398E+08
 
   -0.69221E+08         0.12617E+07         0.00000E+00
    0.12617E+07        -0.95259E+08         0.00000E+00
    0.00000E+00         0.00000E+00        -0.69237E+08
 
   -0.69059E+08         0.12554E+07         0.00000E+00
    0.12554E+07        -0.95203E+08         0.00000E+00
    0.00000E+00         0.00000E+00        -0.69075E+08
 
   -0.68897E+08         0.12489E+07         0.00000E+00
    0.12489E+07        -0.95149E+08         0.00000E+00
    0.00000E+00         0.00000E+00        -0.68912E+08
 
   -0.68734E+08         0.12421E+07         0.00000E+00
    0.12421E+07        -0.95095E+08         0.00000E+00
    0.00000E+00         0.00000E+00        -0.68747E+08
 
   -0.68571E+08         0.12349E+07         0.00000E+00
    0.12349E+07        -0.95042E+08         0.00000E+00
    0.00000E+00         0.00000E+00        -0.68582E+08
 
   -0.68408E+08         0.12272E+07         0.00000E+00
    0.12272E+07        -0.94991E+08         0.00000E+00
    0.00000E+00         0.00000E+00        -0.68416E+08
 
   -0.68244E+08         0.12188E+07         0.00000E+00
    0.12188E+07        -0.94940E+08         0.00000E+00
    0.00000E+00         0.00000E+00        -0.68248E+08
 
   -0.68080E+08         0.12097E+07         0.00000E+00
    0.12097E+07        -0.94891E+08         0.00000E+00
    0.00000E+00         0.00000E+00        -0.68079E+08
 
   -0.67916E+08         0.11997E+07         0.00000E+00
    0.11997E+07        -0.94844E+08         0.00000E+00
    0.00000E+00         0.00000E+00        -0.67908E+08
 
   -0.67752E+08         0.11886E+07         0.00000E+00
    0.11886E+07        -0.94798E+08         0.00000E+00
    0.00000E+00         0.00000E+00        -0.67736E+08
 
   -0.67587E+08         0.11763E+07         0.00000E+00
    0.11763E+07        -0.94754E+08         0.00000E+00
    0.00000E+00         0.00000E+00        -0.67563E+08
 
   -0.67422E+08         0.11626E+07         0.00000E+00
    0.11626E+07        -0.94712E+08         0.00000E+00
    0.00000E+00         0.00000E+00        -0.67388E+08
 
   -0.67258E+08         0.11472E+07         0.00000E+00
    0.11472E+07        -0.94672E+08         0.00000E+00
    0.00000E+00         0.00000E+00        -0.67212E+08
 
   -0.67093E+08         0.11300E+07         0.00000E+00
    0.11300E+07        -0.94635E+08         0.00000E+00
    0.00000E+00         0.00000E+00        -0.67034E+08
 
   -0.66929E+08         0.11108E+07         0.00000E+00
    0.11108E+07        -0.94601E+08         0.00000E+00
    0.00000E+00         0.00000E+00        -0.66855E+08
 
   -0.66765E+08         0.10892E+07         0.00000E+00
    0.10892E+07        -0.94571E+08         0.00000E+00
    0.00000E+00         0.00000E+00        -0.66674E+08
 
   -0.66602E+08         0.10650E+07         0.00000E+00
    0.10650E+07        -0.94543E+08         0.00000E+00
    0.00000E+00         0.00000E+00        -0.66492E+08
 
   -0.66439E+08         0.10380E+07         0.00000E+00
    0.10380E+07        -0.94520E+08         0.00000E+00
    0.00000E+00         0.00000E+00        -0.66310E+08
 
   -0.66277E+08         0.10079E+07         0.00000E+00
    0.10079E+07        -0.94500E+08         0.00000E+00
    0.00000E+00         0.00000E+00        -0.66126E+08
 
   -0.66116E+08         0.97431E+06         0.00000E+00
    0.97431E+06        -0.94485E+08         0.00000E+00
    0.00000E+00         0.00000E+00        -0.65941E+08
 
   -0.65956E+08         0.93710E+06         0.00000E+00
    0.93710E+06        -0.94474E+08         0.00000E+00
    0.00000E+00         0.00000E+00        -0.65756E+08
 
   -0.65797E+08         0.89602E+06         0.00000E+00
    0.89602E+06        -0.94468E+08         0.00000E+00
    0.00000E+00         0.00000E+00        -0.65571E+08
 
   -0.65638E+08         0.85091E+06         0.00000E+00
    0.85091E+06        -0.94466E+08         0.00000E+00
    0.00000E+00         0.00000E+00        -0.65385E+08
 
   -0.65480E+08         0.80167E+06         0.00000E+00
    0.80167E+06        -0.94467E+08         0.00000E+00
    0.00000E+00         0.00000E+00        -0.65198E+08
 
   -0.65321E+08         0.74830E+06         0.00000E+00
    0.74830E+06        -0.94471E+08         0.00000E+00
    0.00000E+00         0.00000E+00        -0.65010E+08
 
   -0.65162E+08         0.69093E+06         0.00000E+00
    0.69093E+06        -0.94477E+08         0.00000E+00
    0.00000E+00         0.00000E+00        -0.64822E+08
 
   -0.65000E+08         0.62982E+06         0.00000E+00
    0.62982E+06        -0.94482E+08         0.00000E+00
    0.00000E+00         0.00000E+00        -0.64630E+08
 
   -0.64837E+08         0.56539E+06         0.00000E+00
    0.56539E+06        -0.94484E+08         0.00000E+00
    0.00000E+00         0.00000E+00        -0.64435E+08
 
   -0.64670E+08         0.49819E+06         0.00000E+00
    0.49819E+06        -0.94480E+08         0.00000E+00
    0.00000E+00         0.00000E+00        -0.64233E+08
 
   -0.64500E+08         0.42887E+06         0.00000E+00
    0.42887E+06        -0.94465E+08         0.00000E+00
    0.00000E+00         0.00000E+00        -0.64020E+08
 
   -0.64327E+08         0.35806E+06         0.00000E+00
    0.35806E+06        -0.94434E+08         0.00000E+00
    0.00000E+00         0.00000E+00        -0.63792E+08
 
   -0.64153E+08         0.28637E+06         0.00000E+00
    0.28637E+06        -0.94381E+08         0.00000E+00
    0.00000E+00         0.00000E+00        -0.63540E+08
 
   -0.63983E+08         0.21481E+06         0.00000E+00
    0.21481E+06        -0.94302E+08         0.00000E+00
    0.00000E+00         0.00000E+00        -0.63256E+08
 
   -0.63827E+08         0.14575E+06         0.00000E+00
    0.14575E+06        -0.94196E+08         0.00000E+00
    0.00000E+00         0.00000E+00        -0.62930E+08
 
   -0.63695E+08         0.82622E+05         0.00000E+00
    0.82622E+05        -0.94065E+08         0.00000E+00
    0.00000E+00         0.00000E+00        -0.62558E+08
 
   -0.63598E+08         0.26498E+05         0.00000E+00
    0.26498E+05        -0.93920E+08         0.00000E+00
    0.00000E+00         0.00000E+00        -0.62139E+08
 
   -0.81527E+08         0.31351E+05         0.00000E+00
    0.31351E+05        -0.97803E+08         0.00000E+00
    0.00000E+00         0.00000E+00        -0.84395E+08
 
   -0.81469E+08         0.12675E+06         0.00000E+00
    0.12675E+06        -0.97499E+08         0.00000E+00
    0.00000E+00         0.00000E+00        -0.83895E+08
 
   -0.81350E+08         0.26368E+06         0.00000E+00
    0.26368E+06        -0.97296E+08         0.00000E+00
    0.00000E+00         0.00000E+00        -0.83395E+08
 
   -0.81177E+08         0.40416E+06         0.00000E+00
    0.40416E+06        -0.97159E+08         0.00000E+00
    0.00000E+00         0.00000E+00        -0.82898E+08
 
   -0.80959E+08         0.54379E+06         0.00000E+00
    0.54379E+06        -0.97097E+08         0.00000E+00
    0.00000E+00         0.00000E+00        -0.82404E+08
 
   -0.80714E+08         0.67852E+06         0.00000E+00
    0.67852E+06        -0.97093E+08         0.00000E+00
    0.00000E+00         0.00000E+00        -0.81912E+08
 
   -0.80450E+08         0.80375E+06         0.00000E+00
    0.80375E+06        -0.97141E+08         0.00000E+00
    0.00000E+00         0.00000E+00        -0.81425E+08
 
   -0.80176E+08         0.92332E+06         0.00000E+00
    0.92332E+06        -0.97210E+08         0.00000E+00
    0.00000E+00         0.00000E+00        -0.80942E+08
 
   -0.79901E+08         0.10046E+07         0.00000E+00
    0.10046E+07        -0.97266E+08         0.00000E+00
    0.00000E+00         0.00000E+00        -0.80549E+08
 
   -0.79634E+08         0.10673E+07         0.00000E+00
    0.10673E+07        -0.97283E+08         0.00000E+00
    0.00000E+00         0.00000E+00        -0.80257E+08
 
   -0.79382E+08         0.11403E+07         0.00000E+00
    0.11403E+07        -0.97287E+08         0.00000E+00
    0.00000E+00         0.00000E+00        -0.79977E+08
 
   -0.79137E+08         0.12077E+07         0.00000E+00
    0.12077E+07        -0.97306E+08         0.00000E+00
    0.00000E+00         0.00000E+00        -0.79702E+08
 
   -0.78900E+08         0.12666E+07         0.00000E+00
    0.12666E+07        -0.97333E+08         0.00000E+00
    0.00000E+00         0.00000E+00        -0.79430E+08
 
   -0.78669E+08         0.13180E+07         0.00000E+00
    0.13180E+07        -0.97363E+08         0.00000E+00
    0.00000E+00         0.00000E+00        -0.79159E+08
 
   -0.78440E+08         0.13631E+07         0.00000E+00
    0.13631E+07        -0.97393E+08         0.00000E+00
    0.00000E+00         0.00000E+00        -0.78889E+08
 
   -0.78213E+08         0.14029E+07         0.00000E+00
    0.14029E+07        -0.97423E+08         0.00000E+00
    0.00000E+00         0.00000E+00        -0.78618E+08
 
   -0.77986E+08         0.14378E+07         0.00000E+00
    0.14378E+07        -0.97451E+08         0.00000E+00
    0.00000E+00         0.00000E+00        -0.78347E+08
 
   -0.77757E+08         0.14683E+07         0.00000E+00
    0.14683E+07        -0.97476E+08         0.00000E+00
    0.00000E+00         0.00000E+00        -0.78076E+08
 
   -0.77527E+08         0.14947E+07         0.00000E+00
    0.14947E+07        -0.97498E+08         0.00000E+00
    0.00000E+00         0.00000E+00        -0.77805E+08
 
   -0.77295E+08         0.15172E+07         0.00000E+00
    0.15172E+07        -0.97518E+08         0.00000E+00
    0.00000E+00         0.00000E+00        -0.77534E+08
 
   -0.77060E+08         0.15361E+07         0.00000E+00
    0.15361E+07        -0.97535E+08         0.00000E+00
    0.00000E+00         0.00000E+00        -0.77263E+08
 
   -0.76824E+08         0.15517E+07         0.00000E+00
    0.15517E+07        -0.97549E+08         0.00000E+00
    0.00000E+00         0.00000E+00        -0.76993E+08
 
   -0.76586E+08         0.15642E+07         0.00000E+00
    0.15642E+07        -0.97561E+08         0.00000E+00
    0.00000E+00         0.00000E+00        -0.76724E+08
 
   -0.76346E+08         0.15740E+07         0.00000E+00
    0.15740E+07        -0.97572E+08         0.00000E+00
    0.00000E+00         0.00000E+00        -0.76456E+08
 
   -0.76105E+08         0.15814E+07         0.00000E+00
    0.15814E+07        -0.97580E+08         0.00000E+00
    0.00000E+00         0.00000E+00        -0.76190E+08
 
   -0.75891E+08         0.15823E+07         0.00000E+00
    0.15823E+07        -0.97558E+08         0.00000E+00
    0.00000E+00         0.00000E+00        -0.75954E+08
 
   -0.75701E+08         0.15777E+07         0.00000E+00
    0.15777E+07        -0.97508E+08         0.00000E+00
    0.00000E+00         0.00000E+00        -0.75744E+08
 
   -0.75512E+08         0.15714E+07         0.00000E+00
    0.15714E+07        -0.97456E+08         0.00000E+00
    0.00000E+00         0.00000E+00        -0.75538E+08
 
   -0.75323E+08         0.15637E+07         0.00000E+00
    0.15637E+07        -0.97403E+08         0.00000E+00
    0.00000E+00         0.00000E+00        -0.75334E+08
 
   -0.75136E+08         0.15549E+07         0.00000E+00
    0.15549E+07        -0.97348E+08         0.00000E+00
    0.00000E+00         0.00000E+00        -0.75134E+08
 
   -0.74949E+08         0.15451E+07         0.00000E+00
    0.15451E+07        -0.97292E+08         0.00000E+00
    0.00000E+00         0.00000E+00        -0.74936E+08
 
   -0.74763E+08         0.15345E+07         0.00000E+00
    0.15345E+07        -0.97235E+08         0.00000E+00
    0.00000E+00         0.00000E+00        -0.74741E+08
 
   -0.74578E+08         0.15234E+07         0.00000E+00
    0.15234E+07        -0.97177E+08         0.00000E+00
    0.00000E+00         0.00000E+00        -0.74549E+08
 
   -0.74395E+08         0.15117E+07         0.00000E+00
    0.15117E+07        -0.97119E+08         0.00000E+00
    0.00000E+00         0.00000E+00        -0.74360E+08
 
   -0.74213E+08         0.14998E+07         0.00000E+00
    0.14998E+07        -0.97059E+08         0.00000E+00
    0.00000E+00         0.00000E+00        -0.74173E+08
 
   -0.74032E+08         0.14875E+07         0.00000E+00
    0.14875E+07        -0.97000E+08         0.00000E+00
    0.00000E+00         0.00000E+00        -0.73989E+08
 
   -0.73853E+08         0.14752E+07         0.00000E+00
    0.14752E+07        -0.96940E+08         0.00000E+00
    0.00000E+00         0.00000E+00        -0.73808E+08
 
   -0.73675E+08         0.14628E+07         0.00000E+00
    0.14628E+07        -0.96879E+08         0.00000E+00
    0.00000E+00         0.00000E+00        -0.73628E+08
 
   -0.73498E+08         0.14505E+07         0.00000E+00
    0.14505E+07        -0.96819E+08         0.00000E+00
    0.00000E+00         0.00000E+00        -0.73451E+08
 
   -0.73323E+08         0.14382E+07         0.00000E+00
    0.14382E+07        -0.96758E+08         0.00000E+00
    0.00000E+00         0.00000E+00        -0.73276E+08
 
   -0.73149E+08         0.14261E+07         0.00000E+00
    0.14261E+07        -0.96697E+08         0.00000E+00
    0.00000E+00         0.00000E+00        -0.73103E+08
 
   -0.72977E+08         0.14142E+07         0.00000E+00
    0.14142E+07        -0.96635E+08         0.00000E+00
    0.00000E+00         0.00000E+00        -0.72932E+08
 
   -0.72806E+08         0.14025E+07         0.00000E+00
    0.14025E+07        -0.96574E+08         0.00000E+00
    0.00000E+00         0.00000E+00        -0.72762E+08
 
   -0.72636E+08         0.13911E+07         0.00000E+00
    0.13911E+07        -0.96513E+08         0.00000E+00
    0.00000E+00         0.00000E+00        -0.72595E+08
 
   -0.72467E+08         0.13800E+07         0.00000E+00
    0.13800E+07        -0.96451E+08         0.00000E+00
    0.00000E+00         0.00000E+00        -0.72428E+08
 
   -0.72299E+08         0.13692E+07         0.00000E+00
    0.13692E+07        -0.96390E+08         0.00000E+00
    0.00000E+00         0.00000E+00        -0.72263E+08
 
   -0.72132E+08         0.13588E+07         0.00000E+00
    0.13588E+07        -0.96329E+08         0.00000E+00
    0.00000E+00         0.00000E+00        -0.72100E+08
 
   -0.71967E+08         0.13487E+07         0.00000E+00
    0.13487E+07        -0.96268E+08         0.00000E+00
    0.00000E+00         0.00000E+00        -0.71937E+08
 
   -0.71802E+08         0.13390E+07         0.00000E+00
    0.13390E+07        -0.96206E+08         0.00000E+00
    0.00000E+00         0.00000E+00        -0.71776E+08
 
   -0.71638E+08         0.13297E+07         0.00000E+00
    0.13297E+07        -0.96145E+08         0.00000E+00
    0.00000E+00         0.00000E+00        -0.71615E+08
 
   -0.71474E+08         0.13207E+07         0.00000E+00
    0.13207E+07        -0.96084E+08         0.00000E+00
    0.00000E+00         0.00000E+00        -0.71456E+08
 
   -0.71311E+08         0.13122E+07         0.00000E+00
    0.13122E+07        -0.96024E+08         0.00000E+00
    0.00000E+00         0.00000E+00        -0.71297E+08
 
   -0.71149E+08         0.13040E+07         0.00000E+00
    0.13040E+07        -0.95963E+08         0.00000E+00
    0.00000E+00         0.00000E+00        -0.71138E+08
 
   -0.70987E+08         0.12961E+07         0.00000E+00
    0.12961E+07        -0.95903E+08         0.00000E+00
    0.00000E+00         0.00000E+00        -0.70980E+08
 
   -0.70826E+08         0.12886E+07         0.00000E+00
    0.12886E+07        -0.95843E+08         0.00000E+00
    0.00000E+00         0.00000E+00        -0.70822E+08
 
   -0.70665E+08         0.12814E+07         0.00000E+00
    0.12814E+07        -0.95783E+08         0.00000E+00
    0.00000E+00         0.00000E+00        -0.70665E+08
 
   -0.70504E+08         0.12745E+07         0.00000E+00
    0.12745E+07        -0.95723E+08         0.00000E+00
    0.00000E+00         0.00000E+00        -0.70507E+08
 
   -0.70343E+08         0.12678E+07         0.00000E+00
    0.12678E+07        -0.95664E+08         0.00000E+00
    0.00000E+00         0.00000E+00        -0.70349E+08
 
   -0.70183E+08         0.12614E+07         0.00000E+00
    0.12614E+07        -0.95605E+08         0.00000E+00
    0.00000E+00         0.00000E+00        -0.70192E+08
 
   -0.70022E+08         0.12552E+07         0.00000E+00
    0.12552E+07        -0.95546E+08         0.00000E+00
    0.00000E+00         0.00000E+00        -0.70034E+08
 
   -0.69862E+08         0.12491E+07         0.00000E+00
    0.12491E+07        -0.95488E+08         0.00000E+00
    0.00000E+00         0.00000E+00        -0.69875E+08
 
   -0.69701E+08         0.12432E+07         0.00000E+00
    0.12432E+07        -0.95431E+08         0.00000E+00
    0.00000E+00         0.00000E+00        -0.69716E+08
 
   -0.69540E+08         0.12373E+07         0.00000E+00
    0.12373E+07        -0.95373E+08         0.00000E+00
    0.00000E+00         0.00000E+00        -0.69557E+08
 
   -0.69379E+08         0.12313E+07         0.00000E+00
    0.12313E+07        -0.95317E+08         0.00000E+00
    0.00000E+00         0.00000E+00        -0.69396E+08
 
   -0.69217E+08         0.12253E+07         0.00000E+00
    0.12253E+07        -0.95261E+08         0.00000E+00
    0.00000E+00         0.00000E+00        -0.69235E+08
 
   -0.69056E+08         0.12192E+07         0.00000E+00
    0.12192E+07        -0.95206E+08         0.00000E+00
    0.00000E+00         0.00000E+00        -0.69073E+08
 
   -0.68894E+08         0.12128E+07         0.00000E+00
    0.12128E+07        -0.95151E+08         0.00000E+00
    0.00000E+00         0.00000E+00        -0.68910E+08
 
   -0.68731E+08         0.12062E+07         0.00000E+00
    0.12062E+07        -0.95097E+08         0.00000E+00
    0.00000E+00         0.00000E+00        -0.68746E+08
 
   -0.68568E+08         0.11991E+07         0.00000E+00
    0.11991E+07        -0.95045E+08         0.00000E+00
    0.00000E+00         0.00000E+00        -0.68581E+08
 
   -0.68405E+08         0.11915E+07         0.00000E+00
    0.11915E+07        -0.94993E+08         0.00000E+00
    0.00000E+00         0.00000E+00        -0.68414E+08
 
   -0.68242E+08         0.11833E+07         0.00000E+00
    0.11833E+07        -0.94942E+08         0.00000E+00
    0.00000E+00         0.00000E+00        -0.68246E+08
 
   -0.68078E+08         0.11744E+07         0.00000E+00
    0.11744E+07        -0.94893E+08         0.00000E+00
    0.00000E+00         0.00000E+00        -0.68077E+08
 
   -0.67914E+08         0.11646E+07         0.00000E+00
    0.11646E+07        -0.94846E+08         0.00000E+00
    0.00000E+00         0.00000E+00        -0.67906E+08
 
   -0.67749E+08         0.11537E+07         0.00000E+00
    0.11537E+07        -0.94799E+08         0.00000E+00
    0.00000E+00         0.00000E+00        -0.67734E+08
 
   -0.67585E+08         0.11417E+07         0.00000E+00
    0.11417E+07        -0.94755E+08         0.00000E+00
    0.00000E+00         0.00000E+00        -0.67561E+08
 
   -0.67420E+08         0.11282E+07         0.00000E+00
    0.11282E+07        -0.94713E+08         0.00000E+00
    0.00000E+00         0.00000E+00        -0.67385E+08
 
   -0.67256E+08         0.11132E+07         0.00000E+00
    0.11132E+07        -0.94673E+08         0.00000E+00
    0.00000E+00         0.00000E+00        -0.67209E+08
 
   -0.67092E+08         0.10964E+07         0.00000E+00
    0.10964E+07        -0.94636E+08         0.00000E+00
    0.00000E+00         0.00000E+00        -0.67030E+08
 
   -0.66928E+08         0.10775E+07         0.00000E+00
    0.10775E+07        -0.94602E+08         0.00000E+00
    0.00000E+00         0.00000E+00        -0.66851E+08
 
   -0.66764E+08         0.10564E+07         0.00000E+00
    0.10564E+07        -0.94570E+08         0.00000E+00
    0.00000E+00         0.00000E+00        -0.66669E+08
 
   -0.66601E+08         0.10327E+07         0.00000E+00
    0.10327E+07        -0.94542E+08         0.00000E+00
    0.00000E+00         0.00000E+00        -0.66487E+08
 
   -0.66439E+08         0.10062E+07         0.00000E+00
    0.10062E+07        -0.94518E+08         0.00000E+00
    0.00000E+00         0.00000E+00        -0.66303E+08
 
   -0.66278E+08         0.97652E+06         0.00000E+00
    0.97652E+06        -0.94498E+08         0.00000E+00
    0.00000E+00         0.00000E+00        -0.66119E+08
 
   -0.66118E+08         0.94349E+06         0.00000E+00
    0.94349E+06        -0.94482E+08         0.00000E+00
    0.00000E+00         0.00000E+00        -0.65933E+08
 
   -0.65958E+08         0.90680E+06         0.00000E+00
    0.90680E+06        -0.94471E+08         0.00000E+00
    0.00000E+00         0.00000E+00        -0.65747E+08
 
   -0.65799E+08         0.86621E+06         0.00000E+00
    0.86621E+06        -0.94463E+08         0.00000E+00
    0.00000E+00         0.00000E+00        -0.65560E+08
 
   -0.65642E+08         0.82155E+06         0.00000E+00
    0.82155E+06        -0.94460E+08         0.00000E+00
    0.00000E+00         0.00000E+00        -0.65372E+08
 
   -0.65484E+08         0.77269E+06         0.00000E+00
    0.77269E+06        -0.94461E+08         0.00000E+00
    0.00000E+00         0.00000E+00        -0.65184E+08
 
   -0.65326E+08         0.71962E+06         0.00000E+00
    0.71962E+06        -0.94464E+08         0.00000E+00
    0.00000E+00         0.00000E+00        -0.64995E+08
 
   -0.65168E+08         0.66243E+06         0.00000E+00
    0.66243E+06        -0.94469E+08         0.00000E+00
    0.00000E+00         0.00000E+00        -0.64805E+08
 
   -0.65009E+08         0.60141E+06         0.00000E+00
    0.60141E+06        -0.94474E+08         0.00000E+00
    0.00000E+00         0.00000E+00        -0.64611E+08
 
   -0.64847E+08         0.53700E+06         0.00000E+00
    0.53700E+06        -0.94476E+08         0.00000E+00
    0.00000E+00         0.00000E+00        -0.64414E+08
 
   -0.64682E+08         0.46983E+06         0.00000E+00
    0.46983E+06        -0.94472E+08         0.00000E+00
    0.00000E+00         0.00000E+00        -0.64210E+08
 
   -0.64515E+08         0.40075E+06         0.00000E+00
    0.40075E+06        -0.94457E+08         0.00000E+00
    0.00000E+00         0.00000E+00        -0.63996E+08
 
   -0.64345E+08         0.33070E+06         0.00000E+00
    0.33070E+06        -0.94426E+08         0.00000E+00
    0.00000E+00         0.00000E+00        -0.63766E+08
 
   -0.64174E+08         0.26077E+06         0.00000E+00
    0.26077E+06        -0.94375E+08         0.00000E+00
    0.00000E+00         0.00000E+00        -0.63512E+08
 
   -0.64009E+08         0.19257E+06         0.00000E+00
    0.19257E+06        -0.94298E+08         0.00000E+00
    0.00000E+00         0.00000E+00        -0.63226E+08
 
   -0.63857E+08         0.12869E+06         0.00000E+00
    0.12869E+06        -0.94194E+08         0.00000E+00
    0.00000E+00         0.00000E+00        -0.62900E+08
 
   -0.63729E+08         0.72109E+05         0.00000E+00
    0.72109E+05        -0.94066E+08         0.00000E+00
    0.00000E+00         0.00000E+00        -0.62527E+08
 
   -0.63634E+08         0.22989E+05         0.00000E+00
    0.22989E+05        -0.93922E+08         0.00000E+00
    0.00000E+00         0.00000E+00        -0.62109E+08
 
   -0.81376E+08         0.25700E+05         0.00000E+00
    0.25700E+05        -0.97816E+08         0.00000E+00
    0.00000E+00         0.00000E+00        -0.84395E+08
 
   -0.81340E+08         0.10986E+06         0.00000E+00
    0.10986E+06        -0.97523E+08         0.00000E+00
    0.00000E+00         0.00000E+00        -0.83895E+08
 
   -0.81235E+08         0.23615E+06         0.00000E+00
    0.23615E+06        -0.97323E+08         0.00000E+00
    0.00000E+00         0.00000E+00        -0.83395E+08
 
   -0.81073E+08         0.36537E+06         0.00000E+00
    0.36537E+06        -0.97186E+08         0.00000E+00
    0.00000E+00         0.00000E+00        -0.82898E+08
 
   -0.80867E+08         0.49802E+06         0.00000E+00
    0.49802E+06        -0.97124E+08         0.00000E+00
    0.00000E+00         0.00000E+00        -0.82404E+08
 
   -0.80633E+08         0.62879E+06         0.00000E+00
    0.62879E+06        -0.97119E+08         0.00000E+00
    0.00000E+00         0.00000E+00        -0.81912E+08
 
   -0.80381E+08         0.74963E+06         0.00000E+00
    0.74963E+06        -0.97164E+08         0.00000E+00
    0.00000E+00         0.00000E+00        -0.81425E+08
 
   -0.80122E+08         0.87208E+06         0.00000E+00
    0.87208E+06        -0.97230E+08         0.00000E+00
    0.00000E+00         0.00000E+00        -0.80954E+08
 
   -0.79854E+08         0.94758E+06         0.00000E+00
    0.94758E+06        -0.97282E+08         0.00000E+00
    0.00000E+00         0.00000E+00        -0.80569E+08
 
   -0.79595E+08         0.10179E+07         0.00000E+00
    0.10179E+07        -0.97297E+08         0.00000E+00
    0.00000E+00         0.00000E+00        -0.80273E+08
 
   -0.79351E+08         0.10910E+07         0.00000E+00
    0.10910E+07        -0.97302E+08         0.00000E+00
    0.00000E+00         0.00000E+00        -0.79987E+08
 
   -0.79111E+08         0.11599E+07         0.00000E+00
    0.11599E+07        -0.97319E+08         0.00000E+00
    0.00000E+00         0.00000E+00        -0.79708E+08
 
   -0.78877E+08         0.12199E+07         0.00000E+00
    0.12199E+07        -0.97344E+08         0.00000E+00
    0.00000E+00         0.00000E+00        -0.79432E+08
 
   -0.78647E+08         0.12722E+07         0.00000E+00
    0.12722E+07        -0.97372E+08         0.00000E+00
    0.00000E+00         0.00000E+00        -0.79158E+08
 
   -0.78420E+08         0.13177E+07         0.00000E+00
    0.13177E+07        -0.97402E+08         0.00000E+00
    0.00000E+00         0.00000E+00        -0.78885E+08
 
   -0.78193E+08         0.13576E+07         0.00000E+00
    0.13576E+07        -0.97431E+08         0.00000E+00
    0.00000E+00         0.00000E+00        -0.78613E+08
 
   -0.77967E+08         0.13924E+07         0.00000E+00
    0.13924E+07        -0.97457E+08         0.00000E+00
    0.00000E+00         0.00000E+00        -0.78340E+08
 
   -0.77739E+08         0.14226E+07         0.00000E+00
    0.14226E+07        -0.97481E+08         0.00000E+00
    0.00000E+00         0.00000E+00        -0.78067E+08
 
   -0.77509E+08         0.14485E+07         0.00000E+00
    0.14485E+07        -0.97503E+08         0.00000E+00
    0.00000E+00         0.00000E+00        -0.77795E+08
 
   -0.77278E+08         0.14706E+07         0.00000E+00
    0.14706E+07        -0.97522E+08         0.00000E+00
    0.00000E+00         0.00000E+00        -0.77523E+08
 
   -0.77044E+08         0.14891E+07         0.00000E+00
    0.14891E+07        -0.97538E+08         0.00000E+00
    0.00000E+00         0.00000E+00        -0.77251E+08
 
   -0.76809E+08         0.15043E+07         0.00000E+00
    0.15043E+07        -0.97552E+08         0.00000E+00
    0.00000E+00         0.00000E+00        -0.76981E+08
 
   -0.76572E+08         0.15165E+07         0.00000E+00
    0.15165E+07        -0.97563E+08         0.00000E+00
    0.00000E+00         0.00000E+00        -0.76712E+08
 
   -0.76333E+08         0.15260E+07         0.00000E+00
    0.15260E+07        -0.97573E+08         0.00000E+00
    0.00000E+00         0.00000E+00        -0.76444E+08
 
   -0.76093E+08         0.15330E+07         0.00000E+00
    0.15330E+07        -0.97581E+08         0.00000E+00
    0.00000E+00         0.00000E+00        -0.76178E+08
 
   -0.75883E+08         0.15335E+07         0.00000E+00
    0.15335E+07        -0.97555E+08         0.00000E+00
    0.00000E+00         0.00000E+00        -0.75945E+08
 
   -0.75693E+08         0.15291E+07         0.00000E+00
    0.15291E+07        -0.97505E+08         0.00000E+00
    0.00000E+00         0.00000E+00        -0.75735E+08
 
   -0.75505E+08         0.15230E+07         0.00000E+00
    0.15230E+07        -0.97453E+08         0.00000E+00
    0.00000E+00         0.00000E+00        -0.75528E+08
 
   -0.75316E+08         0.15157E+07         0.00000E+00
    0.15157E+07        -0.97400E+08         0.00000E+00
    0.00000E+00         0.00000E+00        -0.75325E+08
 
   -0.75129E+08         0.15072E+07         0.00000E+00
    0.15072E+07        -0.97345E+08         0.00000E+00
    0.00000E+00         0.00000E+00        -0.75124E+08
 
   -0.74942E+08         0.14978E+07         0.00000E+00
    0.14978E+07        -0.97290E+08         0.00000E+00
    0.00000E+00         0.00000E+00        -0.74927E+08
 
   -0.74757E+08         0.14876E+07         0.00000E+00
    0.14876E+07        -0.97233E+08         0.00000E+00
    0.00000E+00         0.00000E+00        -0.74732E+08
 
   -0.74572E+08         0.14769E+07         0.00000E+00
    0.14769E+07        -0.97175E+08         0.00000E+00
    0.00000E+00         0.00000E+00        -0.74540E+08
 
   -0.74389E+08         0.14657E+07         0.00000E+00
    0.14657E+07        -0.97117E+08         0.00000E+00
    0.00000E+00         0.00000E+00        -0.74351E+08
 
   -0.74207E+08         0.14542E+07         0.00000E+00
    0.14542E+07        -0.97058E+08         0.00000E+00
    0.00000E+00         0.00000E+00        -0.74165E+08
 
   -0.74027E+08         0.14424E+07         0.00000E+00
    0.14424E+07        -0.96998E+08         0.00000E+00
    0.00000E+00         0.00000E+00        -0.73981E+08
 
   -0.73848E+08         0.14306E+07         0.00000E+00
    0.14306E+07        -0.96938E+08         0.00000E+00
    0.00000E+00         0.00000E+00        -0.73799E+08
 
   -0.73670E+08         0.14186E+07         0.00000E+00
    0.14186E+07        -0.96878E+08         0.00000E+00
    0.00000E+00         0.00000E+00        -0.73620E+08
 
   -0.73494E+08         0.14068E+07         0.00000E+00
    0.14068E+07        -0.96817E+08         0.00000E+00
    0.00000E+00         0.00000E+00        -0.73443E+08
 
   -0.73319E+08         0.13950E+07         0.00000E+00
    0.13950E+07        -0.96757E+08         0.00000E+00
    0.00000E+00         0.00000E+00        -0.73269E+08
 
   -0.73145E+08         0.13833E+07         0.00000E+00
    0.13833E+07        -0.96696E+08         0.00000E+00
    0.00000E+00         0.00000E+00        -0.73096E+08
 
   -0.72973E+08         0.13718E+07         0.00000E+00
    0.13718E+07        -0.96635E+08         0.00000E+00
    0.00000E+00         0.00000E+00        -0.72925E+08
 
   -0.72802E+08         0.13606E+07         0.00000E+00
    0.13606E+07        -0.96574E+08         0.00000E+00
    0.00000E+00         0.00000E+00        -0.72756E+08
 
   -0.72632E+08         0.13496E+07         0.00000E+00
    0.13496E+07        -0.96512E+08         0.00000E+00
    0.00000E+00         0.00000E+00        -0.72588E+08
 
   -0.72463E+08         0.13389E+07         0.00000E+00
    0.13389E+07        -0.96451E+08         0.00000E+00
    0.00000E+00         0.00000E+00        -0.72422E+08
 
   -0.72296E+08         0.13285E+07         0.00000E+00
    0.13285E+07        -0.96390E+08         0.00000E+00
    0.00000E+00         0.00000E+00        -0.72258E+08
 
   -0.72129E+08         0.13184E+07         0.00000E+00
    0.13184E+07        -0.96329E+08         0.00000E+00
    0.00000E+00         0.00000E+00        -0.72094E+08
 
   -0.71963E+08         0.13087E+07         0.00000E+00
    0.13087E+07        -0.96268E+08         0.00000E+00
    0.00000E+00         0.00000E+00        -0.71932E+08
 
   -0.71798E+08         0.12993E+07         0.00000E+00
    0.12993E+07        -0.96207E+08         0.00000E+00
    0.00000E+00         0.00000E+00        -0.71771E+08
 
   -0.71634E+08         0.12903E+07         0.00000E+00
    0.12903E+07        -0.96146E+08         0.00000E+00
    0.00000E+00         0.00000E+00        -0.71611E+08
 
   -0.71471E+08         0.12817E+07         0.00000E+00
    0.12817E+07        -0.96085E+08         0.00000E+00
    0.00000E+00         0.00000E+00        -0.71451E+08
 
   -0.71308E+08         0.12734E+07         0.00000E+00
    0.12734E+07        -0.96025E+08         0.00000E+00
    0.00000E+00         0.00000E+00        -0.71293E+08
 
   -0.71146E+08         0.12654E+07         0.00000E+00
    0.12654E+07        -0.95964E+08         0.00000E+00
    0.00000E+00         0.00000E+00        -0.71134E+08
 
   -0.70984E+08         0.12578E+07         0.00000E+00
    0.12578E+07        -0.95904E+08         0.00000E+00
    0.00000E+00         0.00000E+00        -0.70976E+08
 
   -0.70823E+08         0.12506E+07         0.00000E+00
    0.12506E+07        -0.95844E+08         0.00000E+00
    0.00000E+00         0.00000E+00        -0.70819E+08
 
   -0.70662E+08         0.12436E+07         0.00000E+00
    0.12436E+07        -0.95784E+08         0.00000E+00
    0.00000E+00         0.00000E+00        -0.70662E+08
 
   -0.70501E+08         0.12369E+07         0.00000E+00
    0.12369E+07        -0.95725E+08         0.00000E+00
    0.00000E+00         0.00000E+00        -0.70504E+08
 
   -0.70340E+08         0.12304E+07         0.00000E+00
    0.12304E+07        -0.95666E+08         0.00000E+00
    0.00000E+00         0.00000E+00        -0.70347E+08
 
   -0.70180E+08         0.12242E+07         0.00000E+00
    0.12242E+07        -0.95607E+08         0.00000E+00
    0.00000E+00         0.00000E+00        -0.70189E+08
 
   -0.70019E+08         0.12181E+07         0.00000E+00
    0.12181E+07        -0.95548E+08         0.00000E+00
    0.00000E+00         0.00000E+00        -0.70031E+08
 
   -0.69858E+08         0.12122E+07         0.00000E+00
    0.12122E+07        -0.95490E+08         0.00000E+00
    0.00000E+00         0.00000E+00        -0.69873E+08
 
   -0.69698E+08         0.12064E+07         0.00000E+00
    0.12064E+07        -0.95433E+08         0.00000E+00
    0.00000E+00         0.00000E+00        -0.69714E+08
 
   -0.69537E+08         0.12006E+07         0.00000E+00
    0.12006E+07        -0.95376E+08         0.00000E+00
    0.00000E+00         0.00000E+00        -0.69555E+08
 
   -0.69376E+08         0.11948E+07         0.00000E+00
    0.11948E+07        -0.95319E+08         0.00000E+00
    0.00000E+00         0.00000E+00        -0.69395E+08
 
   -0.69214E+08         0.11890E+07         0.00000E+00
    0.11890E+07        -0.95263E+08         0.00000E+00
    0.00000E+00         0.00000E+00        -0.69234E+08
 
   -0.69053E+08         0.11830E+07         0.00000E+00
    0.11830E+07        -0.95208E+08         0.00000E+00
    0.00000E+00         0.00000E+00        -0.69072E+08
 
   -0.68891E+08         0.11768E+07         0.00000E+00
    0.11768E+07        -0.95153E+08         0.00000E+00
    0.00000E+00         0.00000E+00        -0.68909E+08
 
   -0.68728E+08         0.11702E+07         0.00000E+00
    0.11702E+07        -0.95100E+08         0.00000E+00
    0.00000E+00         0.00000E+00        -0.68745E+08
 
   -0.68565E+08         0.11633E+07         0.00000E+00
    0.11633E+07        -0.95047E+08         0.00000E+00
    0.00000E+00         0.00000E+00        -0.68579E+08
 
   -0.68402E+08         0.11559E+07         0.00000E+00
    0.11559E+07        -0.94995E+08         0.00000E+00
    0.00000E+00         0.00000E+00        -0.68413E+08
 
   -0.68239E+08         0.11479E+07         0.00000E+00
    0.11479E+07        -0.94944E+08         0.00000E+00
    0.00000E+00         0.00000E+00        -0.68245E+08
 
   -0.68075E+08         0.11391E+07         0.00000E+00
    0.11391E+07        -0.94895E+08         0.00000E+00
    0.00000E+00         0.00000E+00        -0.68076E+08
 
   -0.67911E+08         0.11295E+07         0.00000E+00
    0.11295E+07        -0.94847E+08         0.00000E+00
    0.00000E+00         0.00000E+00        -0.67905E+08
 
   -0.67747E+08         0.11189E+07         0.00000E+00
    0.11189E+07        -0.94801E+08         0.00000E+00
    0.00000E+00         0.00000E+00        -0.67732E+08
 
   -0.67583E+08         0.11071E+07         0.00000E+00
    0.11071E+07        -0.94757E+08         0.00000E+00
    0.00000E+00         0.00000E+00        -0.67558E+08
 
   -0.67419E+08         0.10940E+07         0.00000E+00
    0.10940E+07        -0.94714E+08         0.00000E+00
    0.00000E+00         0.00000E+00        -0.67383E+08
 
   -0.67254E+08         0.10793E+07         0.00000E+00
    0.10793E+07        -0.94674E+08         0.00000E+00
    0.00000E+00         0.00000E+00        -0.67206E+08
 
   -0.67090E+08         0.10628E+07         0.00000E+00
    0.10628E+07        -0.94637E+08         0.00000E+00
    0.00000E+00         0.00000E+00        -0.67027E+08
 
   -0.66927E+08         0.10444E+07         0.00000E+00
    0.10444E+07        -0.94602E+08         0.00000E+00
    0.00000E+00         0.00000E+00        -0.66847E+08
 
   -0.66763E+08         0.10237E+07         0.00000E+00
    0.10237E+07        -0.94570E+08         0.00000E+00
    0.00000E+00         0.00000E+00        -0.66665E+08
 
   -0.66601E+08         0.10004E+07         0.00000E+00
    0.10004E+07        -0.94541E+08         0.00000E+00
    0.00000E+00         0.00000E+00        -0.66482E+08
 
   -0.66439E+08         0.97440E+06         0.00000E+00
    0.97440E+06        -0.94517E+08         0.00000E+00
    0.00000E+00         0.00000E+00        -0.66297E+08
 
   -0.66278E+08         0.94529E+06         0.00000E+00
    0.94529E+06        -0.94496E+08         0.00000E+00
    0.00000E+00         0.00000E+00        -0.66112E+08
 
   -0.66119E+08         0.91280E+06         0.00000E+00
    0.91280E+06        -0.94479E+08         0.00000E+00
    0.00000E+00         0.00000E+00        -0.65925E+08
 
   -0.65960E+08         0.87664E+06         0.00000E+00
    0.87664E+06        -0.94467E+08         0.00000E+00
    0.00000E+00         0.00000E+00        -0.65738E+08
 
   -0.65802E+08         0.83658E+06         0.00000E+00
    0.83658E+06        -0.94459E+08         0.00000E+00
    0.00000E+00         0.00000E+00        -0.65549E+08
 
   -0.65645E+08         0.79239E+06         0.00000E+00
    0.79239E+06        -0.94455E+08         0.00000E+00
    0.00000E+00         0.00000E+00        -0.65360E+08
 
   -0.65488E+08         0.74395E+06         0.00000E+00
    0.74395E+06        -0.94455E+08         0.00000E+00
    0.00000E+00         0.00000E+00        -0.65171E+08
 
   -0.65332E+08         0.69122E+06         0.00000E+00
    0.69122E+06        -0.94458E+08         0.00000E+00
    0.00000E+00         0.00000E+00        -0.64980E+08
 
   -0.65175E+08         0.63428E+06         0.00000E+00
    0.63428E+06        -0.94462E+08         0.00000E+00
    0.00000E+00         0.00000E+00        -0.64788E+08
 
   -0.65017E+08         0.57341E+06         0.00000E+00
    0.57341E+06        -0.94466E+08         0.00000E+00
    0.00000E+00         0.00000E+00        -0.64593E+08
 
   -0.64857E+08         0.50908E+06         0.00000E+00
    0.50908E+06        -0.94468E+08         0.00000E+00
    0.00000E+00         0.00000E+00        -0.64394E+08
 
   -0.64695E+08         0.44204E+06         0.00000E+00
    0.44204E+06        -0.94464E+08         0.00000E+00
    0.00000E+00         0.00000E+00        -0.64188E+08
 
   -0.64530E+08         0.37329E+06         0.00000E+00
    0.37329E+06        -0.94449E+08         0.00000E+00
    0.00000E+00         0.00000E+00        -0.63972E+08
 
   -0.64363E+08         0.30411E+06         0.00000E+00
    0.30411E+06        -0.94420E+08         0.00000E+00
    0.00000E+00         0.00000E+00        -0.63740E+08
 
   -0.64197E+08         0.23606E+06         0.00000E+00
    0.23606E+06        -0.94370E+08         0.00000E+00
    0.00000E+00         0.00000E+00        -0.63484E+08
 
   -0.64036E+08         0.17123E+06         0.00000E+00
    0.17123E+06        -0.94295E+08         0.00000E+00
    0.00000E+00         0.00000E+00        -0.63197E+08
 
   -0.63888E+08         0.11243E+06         0.00000E+00
    0.11243E+06        -0.94193E+08         0.00000E+00
    0.00000E+00         0.00000E+00        -0.62870E+08
 
   -0.63763E+08         0.62114E+05         0.00000E+00
    0.62114E+05        -0.94068E+08         0.00000E+00
    0.00000E+00         0.00000E+00        -0.62498E+08
 
   -0.63671E+08         0.19654E+05         0.00000E+00
    0.19654E+05        -0.93926E+08         0.00000E+00
    0.00000E+00         0.00000E+00        -0.62080E+08
 
   -0.81221E+08         0.23250E+05         0.00000E+00
    0.23250E+05        -0.97825E+08         0.00000E+00
    0.00000E+00         0.00000E+00        -0.84397E+08
 
   -0.81215E+08         0.97393E+05         0.00000E+00
    0.97393E+05        -0.97545E+08         0.00000E+00
    0.00000E+00         0.00000E+00        -0.83895E+08
 
   -0.81121E+08         0.21069E+06         0.00000E+00
    0.21069E+06        -0.97348E+08         0.00000E+00
    0.00000E+00         0.00000E+00        -0.83395E+08
 
   -0.80969E+08         0.32864E+06         0.00000E+00
    0.32864E+06        -0.97211E+08         0.00000E+00
    0.00000E+00         0.00000E+00        -0.82898E+08
 
   -0.80774E+08         0.45467E+06         0.00000E+00
    0.45467E+06        -0.97150E+08         0.00000E+00
    0.00000E+00         0.00000E+00        -0.82404E+08
 
   -0.80551E+08         0.58103E+06         0.00000E+00
    0.58103E+06        -0.97145E+08         0.00000E+00
    0.00000E+00         0.00000E+00        -0.81912E+08
 
   -0.80312E+08         0.69940E+06         0.00000E+00
    0.69940E+06        -0.97186E+08         0.00000E+00
    0.00000E+00         0.00000E+00        -0.81425E+08
 
   -0.80067E+08         0.82164E+06         0.00000E+00
    0.82164E+06        -0.97249E+08         0.00000E+00
    0.00000E+00         0.00000E+00        -0.80968E+08
 
   -0.79808E+08         0.89322E+06         0.00000E+00
    0.89322E+06        -0.97299E+08         0.00000E+00
    0.00000E+00         0.00000E+00        -0.80591E+08
 
   -0.79558E+08         0.96949E+06         0.00000E+00
    0.96949E+06        -0.97310E+08         0.00000E+00
    0.00000E+00         0.00000E+00        -0.80290E+08
 
   -0.79320E+08         0.10431E+07         0.00000E+00
    0.10431E+07        -0.97317E+08         0.00000E+00
    0.00000E+00         0.00000E+00        -0.79999E+08
 
   -0.79086E+08         0.11128E+07         0.00000E+00
    0.11128E+07        -0.97332E+08         0.00000E+00
    0.00000E+00         0.00000E+00        -0.79715E+08
 
   -0.78854E+08         0.11738E+07         0.00000E+00
    0.11738E+07        -0.97355E+08         0.00000E+00
    0.00000E+00         0.00000E+00        -0.79436E+08
 
   -0.78626E+08         0.12266E+07         0.00000E+00
    0.12266E+07        -0.97382E+08         0.00000E+00
    0.00000E+00         0.00000E+00        -0.79158E+08
 
   -0.78400E+08         0.12725E+07         0.00000E+00
    0.12725E+07        -0.97410E+08         0.00000E+00
    0.00000E+00         0.00000E+00        -0.78883E+08
 
   -0.78175E+08         0.13124E+07         0.00000E+00
    0.13124E+07        -0.97438E+08         0.00000E+00
    0.00000E+00         0.00000E+00        -0.78607E+08
 
   -0.77949E+08         0.13470E+07         0.00000E+00
    0.13470E+07        -0.97464E+08         0.00000E+00
    0.00000E+00         0.00000E+00        -0.78333E+08
 
   -0.77722E+08         0.13769E+07         0.00000E+00
    0.13769E+07        -0.97487E+08         0.00000E+00
    0.00000E+00         0.00000E+00        -0.78059E+08
 
   -0.77493E+08         0.14025E+07         0.00000E+00
    0.14025E+07        -0.97508E+08         0.00000E+00
    0.00000E+00         0.00000E+00        -0.77785E+08
 
   -0.77262E+08         0.14242E+07         0.00000E+00
    0.14242E+07        -0.97526E+08         0.00000E+00
    0.00000E+00         0.00000E+00        -0.77512E+08
 
   -0.77030E+08         0.14423E+07         0.00000E+00
    0.14423E+07        -0.97541E+08         0.00000E+00
    0.00000E+00         0.00000E+00        -0.77240E+08
 
   -0.76795E+08         0.14571E+07         0.00000E+00
    0.14571E+07        -0.97554E+08         0.00000E+00
    0.00000E+00         0.00000E+00        -0.76969E+08
 
   -0.76558E+08         0.14689E+07         0.00000E+00
    0.14689E+07        -0.97566E+08         0.00000E+00
    0.00000E+00         0.00000E+00        -0.76699E+08
 
   -0.76320E+08         0.14781E+07         0.00000E+00
    0.14781E+07        -0.97575E+08         0.00000E+00
    0.00000E+00         0.00000E+00        -0.76431E+08
 
   -0.76083E+08         0.14847E+07         0.00000E+00
    0.14847E+07        -0.97580E+08         0.00000E+00
    0.00000E+00         0.00000E+00        -0.76167E+08
 
   -0.75875E+08         0.14849E+07         0.00000E+00
    0.14849E+07        -0.97552E+08         0.00000E+00
    0.00000E+00         0.00000E+00        -0.75936E+08
 
   -0.75686E+08         0.14807E+07         0.00000E+00
    0.14807E+07        -0.97502E+08         0.00000E+00
    0.00000E+00         0.00000E+00        -0.75726E+08
 
   -0.75498E+08         0.14749E+07         0.00000E+00
    0.14749E+07        -0.97451E+08         0.00000E+00
    0.00000E+00         0.00000E+00        -0.75519E+08
 
   -0.75310E+08         0.14678E+07         0.00000E+00
    0.14678E+07        -0.97397E+08         0.00000E+00
    0.00000E+00         0.00000E+00        -0.75315E+08
 
   -0.75122E+08         0.14596E+07         0.00000E+00
    0.14596E+07        -0.97343E+08         0.00000E+00
    0.00000E+00         0.00000E+00        -0.75115E+08
 
   -0.74936E+08         0.14506E+07         0.00000E+00
    0.14506E+07        -0.97287E+08         0.00000E+00
    0.00000E+00         0.00000E+00        -0.74917E+08
 
   -0.74751E+08         0.14408E+07         0.00000E+00
    0.14408E+07        -0.97230E+08         0.00000E+00
    0.00000E+00         0.00000E+00        -0.74723E+08
 
   -0.74567E+08         0.14305E+07         0.00000E+00
    0.14305E+07        -0.97173E+08         0.00000E+00
    0.00000E+00         0.00000E+00        -0.74531E+08
 
   -0.74384E+08         0.14198E+07         0.00000E+00
    0.14198E+07        -0.97115E+08         0.00000E+00
    0.00000E+00         0.00000E+00        -0.74342E+08
 
   -0.74202E+08         0.14087E+07         0.00000E+00
    0.14087E+07        -0.97056E+08         0.00000E+00
    0.00000E+00         0.00000E+00        -0.74156E+08
 
   -0.74022E+08         0.13974E+07         0.00000E+00
    0.13974E+07        -0.96997E+08         0.00000E+00
    0.00000E+00         0.00000E+00        -0.73972E+08
 
   -0.73843E+08         0.13860E+07         0.00000E+00
    0.13860E+07        -0.96937E+08         0.00000E+00
    0.00000E+00         0.00000E+00        -0.73791E+08
 
   -0.73666E+08         0.13746E+07         0.00000E+00
    0.13746E+07        -0.96877E+08         0.00000E+00
    0.00000E+00         0.00000E+00        -0.73612E+08
 
   -0.73490E+08         0.13631E+07         0.00000E+00
    0.13631E+07        -0.96816E+08         0.00000E+00
    0.00000E+00         0.00000E+00        -0.73436E+08
 
   -0.73315E+08         0.13518E+07         0.00000E+00
    0.13518E+07        -0.96756E+08         0.00000E+00
    0.00000E+00         0.00000E+00        -0.73261E+08
 
   -0.73141E+08         0.13405E+07         0.00000E+00
    0.13405E+07        -0.96695E+08         0.00000E+00
    0.00000E+00         0.00000E+00        -0.73089E+08
 
   -0.72969E+08         0.13295E+07         0.00000E+00
    0.13295E+07        -0.96634E+08         0.00000E+00
    0.00000E+00         0.00000E+00        -0.72918E+08
 
   -0.72798E+08         0.13187E+07         0.00000E+00
    0.13187E+07        -0.96573E+08         0.00000E+00
    0.00000E+00         0.00000E+00        -0.72749E+08
 
   -0.72629E+08         0.13081E+07         0.00000E+00
    0.13081E+07        -0.96512E+08         0.00000E+00
    0.00000E+00         0.00000E+00        -0.72582E+08
 
   -0.72460E+08         0.12978E+07         0.00000E+00
    0.12978E+07        -0.96451E+08         0.00000E+00
    0.00000E+00         0.00000E+00        -0.72416E+08
 
   -0.72292E+08         0.12878E+07         0.00000E+00
    0.12878E+07        -0.96390E+08         0.00000E+00
    0.00000E+00         0.00000E+00        -0.72252E+08
 
   -0.72126E+08         0.12781E+07         0.00000E+00
    0.12781E+07        -0.96329E+08         0.00000E+00
    0.00000E+00         0.00000E+00        -0.72089E+08
 
   -0.71960E+08         0.12687E+07         0.00000E+00
    0.12687E+07        -0.96268E+08         0.00000E+00
    0.00000E+00         0.00000E+00        -0.71927E+08
 
   -0.71795E+08         0.12597E+07         0.00000E+00
    0.12597E+07        -0.96207E+08         0.00000E+00
    0.00000E+00         0.00000E+00        -0.71766E+08
 
   -0.71631E+08         0.12510E+07         0.00000E+00
    0.12510E+07        -0.96147E+08         0.00000E+00
    0.00000E+00         0.00000E+00        -0.71606E+08
 
   -0.71468E+08         0.12426E+07         0.00000E+00
    0.12426E+07        -0.96086E+08         0.00000E+00
    0.00000E+00         0.00000E+00        -0.71447E+08
 
   -0.71305E+08         0.12346E+07         0.00000E+00
    0.12346E+07        -0.96026E+08         0.00000E+00
    0.00000E+00         0.00000E+00        -0.71289E+08
 
   -0.71143E+08         0.12269E+07         0.00000E+00
    0.12269E+07        -0.95965E+08         0.00000E+00
    0.00000E+00         0.00000E+00        -0.71131E+08
 
   -0.70981E+08         0.12196E+07         0.00000E+00
    0.12196E+07        -0.95905E+08         0.00000E+00
    0.00000E+00         0.00000E+00        -0.70973E+08
 
   -0.70820E+08         0.12125E+07         0.00000E+00
    0.12125E+07        -0.95845E+08         0.00000E+00
    0.00000E+00         0.00000E+00        -0.70816E+08
 
   -0.70659E+08         0.12057E+07         0.00000E+00
    0.12057E+07        -0.95786E+08         0.00000E+00
    0.00000E+00         0.00000E+00        -0.70659E+08
 
   -0.70498E+08         0.11992E+07         0.00000E+00
    0.11992E+07        -0.95726E+08         0.00000E+00
    0.00000E+00         0.00000E+00        -0.70501E+08
 
   -0.70337E+08         0.11930E+07         0.00000E+00
    0.11930E+07        -0.95667E+08         0.00000E+00
    0.00000E+00         0.00000E+00        -0.70344E+08
 
   -0.70176E+08         0.11869E+07         0.00000E+00
    0.11869E+07        -0.95608E+08         0.00000E+00
    0.00000E+00         0.00000E+00        -0.70187E+08
 
   -0.70016E+08         0.11810E+07         0.00000E+00
    0.11810E+07        -0.95550E+08         0.00000E+00
    0.00000E+00         0.00000E+00        -0.70029E+08
 
   -0.69855E+08         0.11753E+07         0.00000E+00
    0.11753E+07        -0.95492E+08         0.00000E+00
    0.00000E+00         0.00000E+00        -0.69871E+08
 
   -0.69694E+08         0.11696E+07         0.00000E+00
    0.11696E+07        -0.95435E+08         0.00000E+00
    0.00000E+00         0.00000E+00        -0.69712E+08
 
   -0.69534E+08         0.11640E+07         0.00000E+00
    0.11640E+07        -0.95378E+08         0.00000E+00
    0.00000E+00         0.00000E+00        -0.69553E+08
 
   -0.69372E+08         0.11583E+07         0.00000E+00
    0.11583E+07        -0.95321E+08         0.00000E+00
    0.00000E+00         0.00000E+00        -0.69393E+08
 
   -0.69211E+08         0.11526E+07         0.00000E+00
    0.11526E+07        -0.95265E+08         0.00000E+00
    0.00000E+00         0.00000E+00        -0.69232E+08
 
   -0.69049E+08         0.11467E+07         0.00000E+00
    0.11467E+07        -0.95210E+08         0.00000E+00
    0.00000E+00         0.00000E+00        -0.69070E+08
 
   -0.68888E+08         0.11407E+07         0.00000E+00
    0.11407E+07        -0.95155E+08         0.00000E+00
    0.00000E+00         0.00000E+00        -0.68908E+08
 
   -0.68725E+08         0.11343E+07         0.00000E+00
    0.11343E+07        -0.95102E+08         0.00000E+00
    0.00000E+00         0.00000E+00        -0.68743E+08
 
   -0.68563E+08         0.11275E+07         0.00000E+00
    0.11275E+07        -0.95049E+08         0.00000E+00
    0.00000E+00         0.00000E+00        -0.68578E+08
 
   -0.68400E+08         0.11203E+07         0.00000E+00
    0.11203E+07        -0.94997E+08         0.00000E+00
    0.00000E+00         0.00000E+00        -0.68412E+08
 
   -0.68236E+08         0.11124E+07         0.00000E+00
    0.11124E+07        -0.94946E+08         0.00000E+00
    0.00000E+00         0.00000E+00        -0.68244E+08
 
   -0.68073E+08         0.11039E+07         0.00000E+00
    0.11039E+07        -0.94897E+08         0.00000E+00
    0.00000E+00         0.00000E+00        -0.68074E+08
 
   -0.67909E+08         0.10945E+07         0.00000E+00
    0.10945E+07        -0.94849E+08         0.00000E+00
    0.00000E+00         0.00000E+00        -0.67903E+08
 
   -0.67745E+08         0.10841E+07         0.00000E+00
    0.10841E+07        -0.94803E+08         0.00000E+00
    0.00000E+00         0.00000E+00        -0.67730E+08
 
   -0.67581E+08         0.10726E+07         0.00000E+00
    0.10726E+07        -0.94758E+08         0.00000E+00
    0.00000E+00         0.00000E+00        -0.67556E+08
 
   -0.67417E+08         0.10597E+07         0.00000E+00
    0.10597E+07        -0.94715E+08         0.00000E+00
    0.00000E+00         0.00000E+00        -0.67380E+08
 
   -0.67253E+08         0.10454E+07         0.00000E+00
    0.10454E+07        -0.94675E+08         0.00000E+00
    0.00000E+00         0.00000E+00        -0.67203E+08
 
   -0.67089E+08         0.10293E+07         0.00000E+00
    0.10293E+07        -0.94637E+08         0.00000E+00
    0.00000E+00         0.00000E+00        -0.67024E+08
 
   -0.66925E+08         0.10112E+07         0.00000E+00
    0.10112E+07        -0.94602E+08         0.00000E+00
    0.00000E+00         0.00000E+00        -0.66843E+08
 
   -0.66763E+08         0.99098E+06         0.00000E+00
    0.99098E+06        -0.94569E+08         0.00000E+00
    0.00000E+00         0.00000E+00        -0.66660E+08
 
   -0.66600E+08         0.96824E+06         0.00000E+00
    0.96824E+06        -0.94541E+08         0.00000E+00
    0.00000E+00         0.00000E+00        -0.66477E+08
 
   -0.66439E+08         0.94274E+06         0.00000E+00
    0.94274E+06        -0.94515E+08         0.00000E+00
    0.00000E+00         0.00000E+00        -0.66291E+08
 
   -0.66279E+08         0.91417E+06         0.00000E+00
    0.91417E+06        -0.94494E+08         0.00000E+00
    0.00000E+00         0.00000E+00        -0.66105E+08
 
   -0.66119E+08         0.88223E+06         0.00000E+00
    0.88223E+06        -0.94476E+08         0.00000E+00
    0.00000E+00         0.00000E+00        -0.65917E+08
 
   -0.65961E+08         0.84664E+06         0.00000E+00
    0.84664E+06        -0.94463E+08         0.00000E+00
    0.00000E+00         0.00000E+00        -0.65729E+08
 
   -0.65804E+08         0.80712E+06         0.00000E+00
    0.80712E+06        -0.94455E+08         0.00000E+00
    0.00000E+00         0.00000E+00        -0.65539E+08
 
   -0.65648E+08         0.76346E+06         0.00000E+00
    0.76346E+06        -0.94450E+08         0.00000E+00
    0.00000E+00         0.00000E+00        -0.65349E+08
 
   -0.65492E+08         0.71548E+06         0.00000E+00
    0.71548E+06        -0.94449E+08         0.00000E+00
    0.00000E+00         0.00000E+00        -0.65157E+08
 
   -0.65337E+08         0.66313E+06         0.00000E+00
    0.66313E+06        -0.94451E+08         0.00000E+00
    0.00000E+00         0.00000E+00        -0.64965E+08
 
   -0.65182E+08         0.60649E+06         0.00000E+00
    0.60649E+06        -0.94455E+08         0.00000E+00
    0.00000E+00         0.00000E+00        -0.64771E+08
 
   -0.65026E+08         0.54584E+06         0.00000E+00
    0.54584E+06        -0.94458E+08         0.00000E+00
    0.00000E+00         0.00000E+00        -0.64574E+08
 
   -0.64868E+08         0.48168E+06         0.00000E+00
    0.48168E+06        -0.94460E+08         0.00000E+00
    0.00000E+00         0.00000E+00        -0.64373E+08
 
   -0.64709E+08         0.41485E+06         0.00000E+00
    0.41485E+06        -0.94456E+08         0.00000E+00
    0.00000E+00         0.00000E+00        -0.64165E+08
 
   -0.64547E+08         0.34653E+06         0.00000E+00
    0.34653E+06        -0.94442E+08         0.00000E+00
    0.00000E+00         0.00000E+00        -0.63947E+08
 
   -0.64383E+08         0.27831E+06         0.00000E+00
    0.27831E+06        -0.94414E+08         0.00000E+00
    0.00000E+00         0.00000E+00        -0.63713E+08
 
   -0.64220E+08         0.21220E+06         0.00000E+00
    0.21220E+06        -0.94365E+08         0.00000E+00
    0.00000E+00         0.00000E+00        -0.63457E+08
 
   -0.64063E+08         0.15076E+06         0.00000E+00
    0.15076E+06        -0.94293E+08         0.00000E+00
    0.00000E+00         0.00000E+00        -0.63169E+08
 
   -0.63919E+08         0.96892E+05         0.00000E+00
    0.96892E+05        -0.94194E+08         0.00000E+00
    0.00000E+00         0.00000E+00        -0.62842E+08
 
   -0.63797E+08         0.52575E+05         0.00000E+00
    0.52575E+05        -0.94072E+08         0.00000E+00
    0.00000E+00         0.00000E+00        -0.62470E+08
 
   -0.63707E+08         0.16468E+05         0.00000E+00
    0.16468E+05        -0.93931E+08         0.00000E+00
    0.00000E+00         0.00000E+00        -0.62052E+08
 
   -0.81115E+08         0.21603E+05         0.00000E+00
    0.21603E+05        -0.97827E+08         0.00000E+00
    0.00000E+00         0.00000E+00        -0.84432E+08
 
   -0.81096E+08         0.88198E+05         0.00000E+00
    0.88198E+05        -0.97575E+08         0.00000E+00
    0.00000E+00         0.00000E+00        -0.83895E+08
 
   -0.81009E+08         0.18622E+06         0.00000E+00
    0.18622E+06        -0.97366E+08         0.00000E+00
    0.00000E+00         0.00000E+00        -0.83395E+08
 
   -0.80865E+08         0.29425E+06         0.00000E+00
    0.29425E+06        -0.97236E+08         0.00000E+00
    0.00000E+00         0.00000E+00        -0.82898E+08
 
   -0.80682E+08         0.41350E+06         0.00000E+00
    0.41350E+06        -0.97175E+08         0.00000E+00
    0.00000E+00         0.00000E+00        -0.82404E+08
 
   -0.80469E+08         0.53524E+06         0.00000E+00
    0.53524E+06        -0.97170E+08         0.00000E+00
    0.00000E+00         0.00000E+00        -0.81912E+08
 
   -0.80242E+08         0.65290E+06         0.00000E+00
    0.65290E+06        -0.97208E+08         0.00000E+00
    0.00000E+00         0.00000E+00        -0.81425E+08
 
   -0.80010E+08         0.77192E+06         0.00000E+00
    0.77192E+06        -0.97267E+08         0.00000E+00
    0.00000E+00         0.00000E+00        -0.80982E+08
 
   -0.79762E+08         0.84210E+06         0.00000E+00
    0.84210E+06        -0.97317E+08         0.00000E+00
    0.00000E+00         0.00000E+00        -0.80614E+08
 
   -0.79523E+08         0.92221E+06         0.00000E+00
    0.92221E+06        -0.97325E+08         0.00000E+00
    0.00000E+00         0.00000E+00        -0.80307E+08
 
   -0.79291E+08         0.99651E+06         0.00000E+00
    0.99651E+06        -0.97332E+08         0.00000E+00
    0.00000E+00         0.00000E+00        -0.80012E+08
 
   -0.79061E+08         0.10665E+07         0.00000E+00
    0.10665E+07        -0.97345E+08         0.00000E+00
    0.00000E+00         0.00000E+00        -0.79723E+08
 
   -0.78833E+08         0.11281E+07         0.00000E+00
    0.11281E+07        -0.97366E+08         0.00000E+00
    0.00000E+00         0.00000E+00        -0.79440E+08
 
   -0.78607E+08         0.11814E+07         0.00000E+00
    0.11814E+07        -0.97392E+08         0.00000E+00
    0.00000E+00         0.00000E+00        -0.79159E+08
 
   -0.78382E+08         0.12275E+07         0.00000E+00
    0.12275E+07        -0.97419E+08         0.00000E+00
    0.00000E+00         0.00000E+00        -0.78880E+08
 
   -0.78158E+08         0.12674E+07         0.00000E+00
    0.12674E+07        -0.97445E+08         0.00000E+00
    0.00000E+00         0.00000E+00        -0.78603E+08
 
   -0.77933E+08         0.13018E+07         0.00000E+00
    0.13018E+07        -0.97470E+08         0.00000E+00
    0.00000E+00         0.00000E+00        -0.78326E+08
 
   -0.77706E+08         0.13314E+07         0.00000E+00
    0.13314E+07        -0.97493E+08         0.00000E+00
    0.00000E+00         0.00000E+00        -0.78050E+08
 
   -0.77478E+08         0.13566E+07         0.00000E+00
    0.13566E+07        -0.97512E+08         0.00000E+00
    0.00000E+00         0.00000E+00        -0.77775E+08
 
   -0.77248E+08         0.13779E+07         0.00000E+00
    0.13779E+07        -0.97530E+08         0.00000E+00
    0.00000E+00         0.00000E+00        -0.77501E+08
 
   -0.77016E+08         0.13956E+07         0.00000E+00
    0.13956E+07        -0.97544E+08         0.00000E+00
    0.00000E+00         0.00000E+00        -0.77229E+08
 
   -0.76782E+08         0.14100E+07         0.00000E+00
    0.14100E+07        -0.97557E+08         0.00000E+00
    0.00000E+00         0.00000E+00        -0.76957E+08
 
   -0.76546E+08         0.14215E+07         0.00000E+00
    0.14215E+07        -0.97568E+08         0.00000E+00
    0.00000E+00         0.00000E+00        -0.76687E+08
 
   -0.76308E+08         0.14304E+07         0.00000E+00
    0.14304E+07        -0.97576E+08         0.00000E+00
    0.00000E+00         0.00000E+00        -0.76419E+08
 
   -0.76073E+08         0.14365E+07         0.00000E+00
    0.14365E+07        -0.97579E+08         0.00000E+00
    0.00000E+00         0.00000E+00        -0.76157E+08
 
   -0.75868E+08         0.14365E+07         0.00000E+00
    0.14365E+07        -0.97550E+08         0.00000E+00
    0.00000E+00         0.00000E+00        -0.75927E+08
 
   -0.75679E+08         0.14325E+07         0.00000E+00
    0.14325E+07        -0.97500E+08         0.00000E+00
    0.00000E+00         0.00000E+00        -0.75717E+08
 
   -0.75491E+08         0.14269E+07         0.00000E+00
    0.14269E+07        -0.97448E+08         0.00000E+00
    0.00000E+00         0.00000E+00        -0.75510E+08
 
   -0.75303E+08         0.14201E+07         0.00000E+00
    0.14201E+07        -0.97395E+08         0.00000E+00
    0.00000E+00         0.00000E+00        -0.75306E+08
 
   -0.75117E+08         0.14122E+07         0.00000E+00
    0.14122E+07        -0.97340E+08         0.00000E+00
    0.00000E+00         0.00000E+00        -0.75106E+08
 
   -0.74931E+08         0.14035E+07         0.00000E+00
    0.14035E+07        -0.97285E+08         0.00000E+00
    0.00000E+00         0.00000E+00        -0.74908E+08
 
   -0.74746E+08         0.13942E+07         0.00000E+00
    0.13942E+07        -0.97228E+08         0.00000E+00
    0.00000E+00         0.00000E+00        -0.74714E+08
 
   -0.74562E+08         0.13843E+07         0.00000E+00
    0.13843E+07        -0.97171E+08         0.00000E+00
    0.00000E+00         0.00000E+00        -0.74522E+08
 
   -0.74379E+08         0.13739E+07         0.00000E+00
    0.13739E+07        -0.97113E+08         0.00000E+00
    0.00000E+00         0.00000E+00        -0.74333E+08
 
   -0.74198E+08         0.13633E+07         0.00000E+00
    0.13633E+07        -0.97054E+08         0.00000E+00
    0.00000E+00         0.00000E+00        -0.74147E+08
 
   -0.74018E+08         0.13525E+07         0.00000E+00
    0.13525E+07        -0.96995E+08         0.00000E+00
    0.00000E+00         0.00000E+00        -0.73964E+08
 
   -0.73839E+08         0.13415E+07         0.00000E+00
    0.13415E+07        -0.96935E+08         0.00000E+00
    0.00000E+00         0.00000E+00        -0.73783E+08
 
   -0.73662E+08         0.13305E+07         0.00000E+00
    0.13305E+07        -0.96875E+08         0.00000E+00
    0.00000E+00         0.00000E+00        -0.73604E+08
 
   -0.73486E+08         0.13195E+07         0.00000E+00
    0.13195E+07        -0.96815E+08         0.00000E+00
    0.00000E+00         0.00000E+00        -0.73428E+08
 
   -0.73311E+08         0.13086E+07         0.00000E+00
    0.13086E+07        -0.96755E+08         0.00000E+00
    0.00000E+00         0.00000E+00        -0.73254E+08
 
   -0.73138E+08         0.12979E+07         0.00000E+00
    0.12979E+07        -0.96694E+08         0.00000E+00
    0.00000E+00         0.00000E+00        -0.73082E+08
 
   -0.72966E+08         0.12872E+07         0.00000E+00
    0.12872E+07        -0.96634E+08         0.00000E+00
    0.00000E+00         0.00000E+00        -0.72911E+08
 
   -0.72795E+08         0.12768E+07         0.00000E+00
    0.12768E+07        -0.96573E+08         0.00000E+00
    0.00000E+00         0.00000E+00        -0.72743E+08
 
   -0.72625E+08         0.12666E+07         0.00000E+00
    0.12666E+07        -0.96512E+08         0.00000E+00
    0.00000E+00         0.00000E+00        -0.72576E+08
 
   -0.72457E+08         0.12567E+07         0.00000E+00
    0.12567E+07        -0.96451E+08         0.00000E+00
    0.00000E+00         0.00000E+00        -0.72411E+08
 
   -0.72289E+08         0.12471E+07         0.00000E+00
    0.12471E+07        -0.96390E+08         0.00000E+00
    0.00000E+00         0.00000E+00        -0.72247E+08
 
   -0.72123E+08         0.12377E+07         0.00000E+00
    0.12377E+07        -0.96329E+08         0.00000E+00
    0.00000E+00         0.00000E+00        -0.72084E+08
 
   -0.71957E+08         0.12287E+07         0.00000E+00
    0.12287E+07        -0.96269E+08         0.00000E+00
    0.00000E+00         0.00000E+00        -0.71922E+08
 
   -0.71792E+08         0.12200E+07         0.00000E+00
    0.12200E+07        -0.96208E+08         0.00000E+00
    0.00000E+00         0.00000E+00        -0.71762E+08
 
   -0.71628E+08         0.12116E+07         0.00000E+00
    0.12116E+07        -0.96147E+08         0.00000E+00
    0.00000E+00         0.00000E+00        -0.71602E+08
 
   -0.71465E+08         0.12035E+07         0.00000E+00
    0.12035E+07        -0.96087E+08         0.00000E+00
    0.00000E+00         0.00000E+00        -0.71443E+08
 
   -0.71302E+08         0.11958E+07         0.00000E+00
    0.11958E+07        -0.96027E+08         0.00000E+00
    0.00000E+00         0.00000E+00        -0.71285E+08
 
   -0.71140E+08         0.11884E+07         0.00000E+00
    0.11884E+07        -0.95966E+08         0.00000E+00
    0.00000E+00         0.00000E+00        -0.71127E+08
 
   -0.70978E+08         0.11813E+07         0.00000E+00
    0.11813E+07        -0.95906E+08         0.00000E+00
    0.00000E+00         0.00000E+00        -0.70970E+08
 
   -0.70817E+08         0.11744E+07         0.00000E+00
    0.11744E+07        -0.95847E+08         0.00000E+00
    0.00000E+00         0.00000E+00        -0.70813E+08
 
   -0.70655E+08         0.11679E+07         0.00000E+00
    0.11679E+07        -0.95787E+08         0.00000E+00
    0.00000E+00         0.00000E+00        -0.70656E+08
 
   -0.70495E+08         0.11616E+07         0.00000E+00
    0.11616E+07        -0.95728E+08         0.00000E+00
    0.00000E+00         0.00000E+00        -0.70499E+08
 
   -0.70334E+08         0.11555E+07         0.00000E+00
    0.11555E+07        -0.95669E+08         0.00000E+00
    0.00000E+00         0.00000E+00        -0.70342E+08
 
   -0.70173E+08         0.11496E+07         0.00000E+00
    0.11496E+07        -0.95610E+08         0.00000E+00
    0.00000E+00         0.00000E+00        -0.70185E+08
 
   -0.70013E+08         0.11439E+07         0.00000E+00
    0.11439E+07        -0.95552E+08         0.00000E+00
    0.00000E+00         0.00000E+00        -0.70027E+08
 
   -0.69852E+08         0.11383E+07         0.00000E+00
    0.11383E+07        -0.95494E+08         0.00000E+00
    0.00000E+00         0.00000E+00        -0.69869E+08
 
   -0.69691E+08         0.11328E+07         0.00000E+00
    0.11328E+07        -0.95436E+08         0.00000E+00
    0.00000E+00         0.00000E+00        -0.69711E+08
 
   -0.69530E+08         0.11273E+07         0.00000E+00
    0.11273E+07        -0.95379E+08         0.00000E+00
    0.00000E+00         0.00000E+00        -0.69552E+08
 
   -0.69369E+08         0.11218E+07         0.00000E+00
    0.11218E+07        -0.95323E+08         0.00000E+00
    0.00000E+00         0.00000E+00        -0.69392E+08
 
   -0.69208E+08         0.11162E+07         0.00000E+00
    0.11162E+07        -0.95267E+08         0.00000E+00
    0.00000E+00         0.00000E+00        -0.69231E+08
 
   -0.69046E+08         0.11105E+07         0.00000E+00
    0.11105E+07        -0.95212E+08         0.00000E+00
    0.00000E+00         0.00000E+00        -0.69069E+08
 
   -0.68884E+08         0.11046E+07         0.00000E+00
    0.11046E+07        -0.95157E+08         0.00000E+00
    0.00000E+00         0.00000E+00        -0.68906E+08
 
   -0.68722E+08         0.10983E+07         0.00000E+00
    0.10983E+07        -0.95104E+08         0.00000E+00
    0.00000E+00         0.00000E+00        -0.68742E+08
 
   -0.68560E+08         0.10917E+07         0.00000E+00
    0.10917E+07        -0.95051E+08         0.00000E+00
    0.00000E+00         0.00000E+00        -0.68577E+08
 
   -0.68397E+08         0.10846E+07         0.00000E+00
    0.10846E+07        -0.94999E+08         0.00000E+00
    0.00000E+00         0.00000E+00        -0.68410E+08
 
   -0.68234E+08         0.10770E+07         0.00000E+00
    0.10770E+07        -0.94948E+08         0.00000E+00
    0.00000E+00         0.00000E+00        -0.68242E+08
 
   -0.68070E+08         0.10686E+07         0.00000E+00
    0.10686E+07        -0.94899E+08         0.00000E+00
    0.00000E+00         0.00000E+00        -0.68073E+08
 
   -0.67906E+08         0.10594E+07         0.00000E+00
    0.10594E+07        -0.94851E+08         0.00000E+00
    0.00000E+00         0.00000E+00        -0.67902E+08
 
   -0.67742E+08         0.10493E+07         0.00000E+00
    0.10493E+07        -0.94804E+08         0.00000E+00
    0.00000E+00         0.00000E+00        -0.67729E+08
 
   -0.67578E+08         0.10381E+07         0.00000E+00
    0.10381E+07        -0.94759E+08         0.00000E+00
    0.00000E+00         0.00000E+00        -0.67554E+08
 
   -0.67415E+08         0.10255E+07         0.00000E+00
    0.10255E+07        -0.94716E+08         0.00000E+00
    0.00000E+00         0.00000E+00        -0.67378E+08
 
   -0.67251E+08         0.10115E+07         0.00000E+00
    0.10115E+07        -0.94676E+08         0.00000E+00
    0.00000E+00         0.00000E+00        -0.67200E+08
 
   -0.67087E+08         0.99581E+06         0.00000E+00
    0.99581E+06        -0.94637E+08         0.00000E+00
    0.00000E+00         0.00000E+00        -0.67021E+08
 
   -0.66924E+08         0.97818E+06         0.00000E+00
    0.97818E+06        -0.94602E+08         0.00000E+00
    0.00000E+00         0.00000E+00        -0.66839E+08
 
   -0.66762E+08         0.95838E+06         0.00000E+00
    0.95838E+06        -0.94569E+08         0.00000E+00
    0.00000E+00         0.00000E+00        -0.66656E+08
 
   -0.66600E+08         0.93614E+06         0.00000E+00
    0.93614E+06        -0.94540E+08         0.00000E+00
    0.00000E+00         0.00000E+00        -0.66472E+08
 
   -0.66439E+08         0.91117E+06         0.00000E+00
    0.91117E+06        -0.94514E+08         0.00000E+00
    0.00000E+00         0.00000E+00        -0.66286E+08
 
   -0.66279E+08         0.88316E+06         0.00000E+00
    0.88316E+06        -0.94492E+08         0.00000E+00
    0.00000E+00         0.00000E+00        -0.66098E+08
 
   -0.66120E+08         0.85180E+06         0.00000E+00
    0.85180E+06        -0.94474E+08         0.00000E+00
    0.00000E+00         0.00000E+00        -0.65910E+08
 
   -0.65963E+08         0.81680E+06         0.00000E+00
    0.81680E+06        -0.94460E+08         0.00000E+00
    0.00000E+00         0.00000E+00        -0.65720E+08
 
   -0.65806E+08         0.77786E+06         0.00000E+00
    0.77786E+06        -0.94450E+08         0.00000E+00
    0.00000E+00         0.00000E+00        -0.65529E+08
 
   -0.65651E+08         0.73475E+06         0.00000E+00
    0.73475E+06        -0.94445E+08         0.00000E+00
    0.00000E+00         0.00000E+00        -0.65337E+08
 
   -0.65497E+08         0.68727E+06         0.00000E+00
    0.68727E+06        -0.94443E+08         0.00000E+00
    0.00000E+00         0.00000E+00        -0.65144E+08
 
   -0.65343E+08         0.63536E+06         0.00000E+00
    0.63536E+06        -0.94444E+08         0.00000E+00
    0.00000E+00         0.00000E+00        -0.64950E+08
 
   -0.65189E+08         0.57909E+06         0.00000E+00
    0.57909E+06        -0.94447E+08         0.00000E+00
    0.00000E+00         0.00000E+00        -0.64754E+08
 
   -0.65035E+08         0.51873E+06         0.00000E+00
    0.51873E+06        -0.94451E+08         0.00000E+00
    0.00000E+00         0.00000E+00        -0.64555E+08
 
   -0.64880E+08         0.45483E+06         0.00000E+00
    0.45483E+06        -0.94452E+08         0.00000E+00
    0.00000E+00         0.00000E+00        -0.64352E+08
 
   -0.64723E+08         0.38830E+06         0.00000E+00
    0.38830E+06        -0.94448E+08         0.00000E+00
    0.00000E+00         0.00000E+00        -0.64142E+08
 
   -0.64564E+08         0.32050E+06         0.00000E+00
    0.32050E+06        -0.94435E+08         0.00000E+00
    0.00000E+00         0.00000E+00        -0.63923E+08
 
   -0.64404E+08         0.25331E+06         0.00000E+00
    0.25331E+06        -0.94408E+08         0.00000E+00
    0.00000E+00         0.00000E+00        -0.63687E+08
 
   -0.64245E+08         0.18919E+06         0.00000E+00
    0.18919E+06        -0.94362E+08         0.00000E+00
    0.00000E+00         0.00000E+00        -0.63430E+08
 
   -0.64091E+08         0.13110E+06         0.00000E+00
    0.13110E+06        -0.94292E+08         0.00000E+00
    0.00000E+00         0.00000E+00        -0.63141E+08
 
   -0.63951E+08         0.82006E+05         0.00000E+00
    0.82006E+05        -0.94197E+08         0.00000E+00
    0.00000E+00         0.00000E+00        -0.62814E+08
 
   -0.63832E+08         0.43436E+05         0.00000E+00
    0.43436E+05        -0.94077E+08         0.00000E+00
    0.00000E+00         0.00000E+00        -0.62443E+08
 
   -0.63744E+08         0.13412E+05         0.00000E+00
    0.13412E+05        -0.93938E+08         0.00000E+00
    0.00000E+00         0.00000E+00        -0.62026E+08
 
   -0.81021E+08         0.17476E+05         0.00000E+00
    0.17476E+05        -0.97829E+08         0.00000E+00
    0.00000E+00         0.00000E+00        -0.84477E+08
 
   -0.80981E+08         0.77957E+05         0.00000E+00
    0.77957E+05        -0.97600E+08         0.00000E+00
    0.00000E+00         0.00000E+00        -0.83895E+08
 
   -0.80898E+08         0.16261E+06         0.00000E+00
    0.16261E+06        -0.97383E+08         0.00000E+00
    0.00000E+00         0.00000E+00        -0.83395E+08
 
   -0.80763E+08         0.26223E+06         0.00000E+00
    0.26223E+06        -0.97260E+08         0.00000E+00
    0.00000E+00         0.00000E+00        -0.82898E+08
 
   -0.80589E+08         0.37447E+06         0.00000E+00
    0.37447E+06        -0.97198E+08         0.00000E+00
    0.00000E+00         0.00000E+00        -0.82404E+08
 
   -0.80387E+08         0.49105E+06         0.00000E+00
    0.49105E+06        -0.97194E+08         0.00000E+00
    0.00000E+00         0.00000E+00        -0.81912E+08
 
   -0.80170E+08         0.61001E+06         0.00000E+00
    0.61001E+06        -0.97229E+08         0.00000E+00
    0.00000E+00         0.00000E+00        -0.81425E+08
 
   -0.79951E+08         0.72313E+06         0.00000E+00
    0.72313E+06        -0.97285E+08         0.00000E+00
    0.00000E+00         0.00000E+00        -0.80997E+08
 
   -0.79716E+08         0.79459E+06         0.00000E+00
    0.79459E+06        -0.97335E+08         0.00000E+00
    0.00000E+00         0.00000E+00        -0.80638E+08
 
   -0.79489E+08         0.87623E+06         0.00000E+00
    0.87623E+06        -0.97340E+08         0.00000E+00
    0.00000E+00         0.00000E+00        -0.80325E+08
 
   -0.79263E+08         0.95105E+06         0.00000E+00
    0.95105E+06        -0.97346E+08         0.00000E+00
    0.00000E+00         0.00000E+00        -0.80024E+08
 
   -0.79038E+08         0.10210E+07         0.00000E+00
    0.10210E+07        -0.97358E+08         0.00000E+00
    0.00000E+00         0.00000E+00        -0.79731E+08
 
   -0.78813E+08         0.10829E+07         0.00000E+00
    0.10829E+07        -0.97378E+08         0.00000E+00
    0.00000E+00         0.00000E+00        -0.79444E+08
 
   -0.78589E+08         0.11365E+07         0.00000E+00
    0.11365E+07        -0.97402E+08         0.00000E+00
    0.00000E+00         0.00000E+00        -0.79160E+08
 
   -0.78366E+08         0.11827E+07         0.00000E+00
    0.11827E+07        -0.97428E+08         0.00000E+00
    0.00000E+00         0.00000E+00        -0.78878E+08
 
   -0.78142E+08         0.12225E+07         0.00000E+00
    0.12225E+07        -0.97453E+08         0.00000E+00
    0.00000E+00         0.00000E+00        -0.78598E+08
 
   -0.77918E+08         0.12567E+07         0.00000E+00
    0.12567E+07        -0.97476E+08         0.00000E+00
    0.00000E+00         0.00000E+00        -0.78320E+08
 
   -0.77692E+08         0.12860E+07         0.00000E+00
    0.12860E+07        -0.97498E+08         0.00000E+00
    0.00000E+00         0.00000E+00        -0.78042E+08
 
   -0.77464E+08         0.13109E+07         0.00000E+00
    0.13109E+07        -0.97517E+08         0.00000E+00
    0.00000E+00         0.00000E+00        -0.77766E+08
 
   -0.77235E+08         0.13317E+07         0.00000E+00
    0.13317E+07        -0.97534E+08         0.00000E+00
    0.00000E+00         0.00000E+00        -0.77491E+08
 
   -0.77003E+08         0.13490E+07         0.00000E+00
    0.13490E+07        -0.97548E+08         0.00000E+00
    0.00000E+00         0.00000E+00        -0.77218E+08
 
   -0.76769E+08         0.13630E+07         0.00000E+00
    0.13630E+07        -0.97560E+08         0.00000E+00
    0.00000E+00         0.00000E+00        -0.76946E+08
 
   -0.76534E+08         0.13742E+07         0.00000E+00
    0.13742E+07        -0.97570E+08         0.00000E+00
    0.00000E+00         0.00000E+00        -0.76675E+08
 
   -0.76297E+08         0.13829E+07         0.00000E+00
    0.13829E+07        -0.97578E+08         0.00000E+00
    0.00000E+00         0.00000E+00        -0.76407E+08
 
   -0.76065E+08         0.13885E+07         0.00000E+00
    0.13885E+07        -0.97579E+08         0.00000E+00
    0.00000E+00         0.00000E+00        -0.76146E+08
 
   -0.75861E+08         0.13883E+07         0.00000E+00
    0.13883E+07        -0.97547E+08         0.00000E+00
    0.00000E+00         0.00000E+00        -0.75918E+08
 
   -0.75673E+08         0.13844E+07         0.00000E+00
    0.13844E+07        -0.97497E+08         0.00000E+00
    0.00000E+00         0.00000E+00        -0.75707E+08
 
   -0.75485E+08         0.13791E+07         0.00000E+00
    0.13791E+07        -0.97445E+08         0.00000E+00
    0.00000E+00         0.00000E+00        -0.75500E+08
 
   -0.75298E+08         0.13725E+07         0.00000E+00
    0.13725E+07        -0.97392E+08         0.00000E+00
    0.00000E+00         0.00000E+00        -0.75297E+08
 
   -0.75111E+08         0.13650E+07         0.00000E+00
    0.13650E+07        -0.97338E+08         0.00000E+00
    0.00000E+00         0.00000E+00        -0.75096E+08
 
   -0.74925E+08         0.13566E+07         0.00000E+00
    0.13566E+07        -0.97283E+08         0.00000E+00
    0.00000E+00         0.00000E+00        -0.74899E+08
 
   -0.74741E+08         0.13476E+07         0.00000E+00
    0.13476E+07        -0.97226E+08         0.00000E+00
    0.00000E+00         0.00000E+00        -0.74705E+08
 
   -0.74557E+08         0.13381E+07         0.00000E+00
    0.13381E+07        -0.97169E+08         0.00000E+00
    0.00000E+00         0.00000E+00        -0.74513E+08
 
   -0.74375E+08         0.13282E+07         0.00000E+00
    0.13282E+07        -0.97111E+08         0.00000E+00
    0.00000E+00         0.00000E+00        -0.74325E+08
 
   -0.74194E+08         0.13180E+07         0.00000E+00
    0.13180E+07        -0.97052E+08         0.00000E+00
    0.00000E+00         0.00000E+00        -0.74139E+08
 
   -0.74014E+08         0.13076E+07         0.00000E+00
    0.13076E+07        -0.96993E+08         0.00000E+00
    0.00000E+00         0.00000E+00        -0.73956E+08
 
   -0.73835E+08         0.12971E+07         0.00000E+00
    0.12971E+07        -0.96934E+08         0.00000E+00
    0.00000E+00         0.00000E+00        -0.73775E+08
 
   -0.73658E+08         0.12866E+07         0.00000E+00
    0.12866E+07        -0.96874E+08         0.00000E+00
    0.00000E+00         0.00000E+00        -0.73597E+08
 
   -0.73482E+08         0.12760E+07         0.00000E+00
    0.12760E+07        -0.96814E+08         0.00000E+00
    0.00000E+00         0.00000E+00        -0.73421E+08
 
   -0.73308E+08         0.12656E+07         0.00000E+00
    0.12656E+07        -0.96754E+08         0.00000E+00
    0.00000E+00         0.00000E+00        -0.73247E+08
 
   -0.73135E+08         0.12552E+07         0.00000E+00
    0.12552E+07        -0.96694E+08         0.00000E+00
    0.00000E+00         0.00000E+00        -0.73075E+08
 
   -0.72963E+08         0.12450E+07         0.00000E+00
    0.12450E+07        -0.96633E+08         0.00000E+00
    0.00000E+00         0.00000E+00        -0.72905E+08
 
   -0.72792E+08         0.12350E+07         0.00000E+00
    0.12350E+07        -0.96573E+08         0.00000E+00
    0.00000E+00         0.00000E+00        -0.72737E+08
 
   -0.72622E+08         0.12252E+07         0.00000E+00
    0.12252E+07        -0.96512E+08         0.00000E+00
    0.00000E+00         0.00000E+00        -0.72570E+08
 
   -0.72454E+08         0.12157E+07         0.00000E+00
    0.12157E+07        -0.96451E+08         0.00000E+00
    0.00000E+00         0.00000E+00        -0.72405E+08
 
   -0.72286E+08         0.12064E+07         0.00000E+00
    0.12064E+07        -0.96390E+08         0.00000E+00
    0.00000E+00         0.00000E+00        -0.72241E+08
 
   -0.72120E+08         0.11974E+07         0.00000E+00
    0.11974E+07        -0.96330E+08         0.00000E+00
    0.00000E+00         0.00000E+00        -0.72079E+08
 
   -0.71954E+08         0.11887E+07         0.00000E+00
    0.11887E+07        -0.96269E+08         0.00000E+00
    0.00000E+00         0.00000E+00        -0.71917E+08
 
   -0.71789E+08         0.11803E+07         0.00000E+00
    0.11803E+07        -0.96209E+08         0.00000E+00
    0.00000E+00         0.00000E+00        -0.71757E+08
 
   -0.71625E+08         0.11722E+07         0.00000E+00
    0.11722E+07        -0.96148E+08         0.00000E+00
    0.00000E+00         0.00000E+00        -0.71598E+08
 
   -0.71462E+08         0.11645E+07         0.00000E+00
    0.11645E+07        -0.96088E+08         0.00000E+00
    0.00000E+00         0.00000E+00        -0.71439E+08
 
   -0.71299E+08         0.11570E+07         0.00000E+00
    0.11570E+07        -0.96027E+08         0.00000E+00
    0.00000E+00         0.00000E+00        -0.71281E+08
 
   -0.71137E+08         0.11498E+07         0.00000E+00
    0.11498E+07        -0.95967E+08         0.00000E+00
    0.00000E+00         0.00000E+00        -0.71124E+08
 
   -0.70975E+08         0.11430E+07         0.00000E+00
    0.11430E+07        -0.95907E+08         0.00000E+00
    0.00000E+00         0.00000E+00        -0.70967E+08
 
   -0.70814E+08         0.11364E+07         0.00000E+00
    0.11364E+07        -0.95848E+08         0.00000E+00
    0.00000E+00         0.00000E+00        -0.70810E+08
 
   -0.70652E+08         0.11300E+07         0.00000E+00
    0.11300E+07        -0.95788E+08         0.00000E+00
    0.00000E+00         0.00000E+00        -0.70653E+08
 
   -0.70492E+08         0.11239E+07         0.00000E+00
    0.11239E+07        -0.95729E+08         0.00000E+00
    0.00000E+00         0.00000E+00        -0.70496E+08
 
   -0.70331E+08         0.11180E+07         0.00000E+00
    0.11180E+07        -0.95670E+08         0.00000E+00
    0.00000E+00         0.00000E+00        -0.70340E+08
 
   -0.70170E+08         0.11123E+07         0.00000E+00
    0.11123E+07        -0.95612E+08         0.00000E+00
    0.00000E+00         0.00000E+00        -0.70183E+08
 
   -0.70010E+08         0.11068E+07         0.00000E+00
    0.11068E+07        -0.95553E+08         0.00000E+00
    0.00000E+00         0.00000E+00        -0.70025E+08
 
   -0.69849E+08         0.11013E+07         0.00000E+00
    0.11013E+07        -0.95496E+08         0.00000E+00
    0.00000E+00         0.00000E+00        -0.69868E+08
 
   -0.69688E+08         0.10960E+07         0.00000E+00
    0.10960E+07        -0.95438E+08         0.00000E+00
    0.00000E+00         0.00000E+00        -0.69709E+08
 
   -0.69527E+08         0.10906E+07         0.00000E+00
    0.10906E+07        -0.95381E+08         0.00000E+00
    0.00000E+00         0.00000E+00        -0.69550E+08
 
   -0.69366E+08         0.10853E+07         0.00000E+00
    0.10853E+07        -0.95325E+08         0.00000E+00
    0.00000E+00         0.00000E+00        -0.69390E+08
 
   -0.69205E+08         0.10798E+07         0.00000E+00
    0.10798E+07        -0.95269E+08         0.00000E+00
    0.00000E+00         0.00000E+00        -0.69230E+08
 
   -0.69043E+08         0.10743E+07         0.00000E+00
    0.10743E+07        -0.95214E+08         0.00000E+00
    0.00000E+00         0.00000E+00        -0.69068E+08
 
   -0.68881E+08         0.10685E+07         0.00000E+00
    0.10685E+07        -0.95159E+08         0.00000E+00
    0.00000E+00         0.00000E+00        -0.68905E+08
 
   -0.68719E+08         0.10624E+07         0.00000E+00
    0.10624E+07        -0.95106E+08         0.00000E+00
    0.00000E+00         0.00000E+00        -0.68741E+08
 
   -0.68557E+08         0.10559E+07         0.00000E+00
    0.10559E+07        -0.95053E+08         0.00000E+00
    0.00000E+00         0.00000E+00        -0.68576E+08
 
   -0.68394E+08         0.10490E+07         0.00000E+00
    0.10490E+07        -0.95001E+08         0.00000E+00
    0.00000E+00         0.00000E+00        -0.68409E+08
 
   -0.68231E+08         0.10415E+07         0.00000E+00
    0.10415E+07        -0.94950E+08         0.00000E+00
    0.00000E+00         0.00000E+00        -0.68241E+08
 
   -0.68067E+08         0.10334E+07         0.00000E+00
    0.10334E+07        -0.94901E+08         0.00000E+00
    0.00000E+00         0.00000E+00        -0.68071E+08
 
   -0.67904E+08         0.10244E+07         0.00000E+00
    0.10244E+07        -0.94852E+08         0.00000E+00
    0.00000E+00         0.00000E+00        -0.67900E+08
 
   -0.67740E+08         0.10146E+07         0.00000E+00
    0.10146E+07        -0.94806E+08         0.00000E+00
    0.00000E+00         0.00000E+00        -0.67727E+08
 
   -0.67576E+08         0.10036E+07         0.00000E+00
    0.10036E+07        -0.94761E+08         0.00000E+00
    0.00000E+00         0.00000E+00        -0.67552E+08
 
   -0.67413E+08         0.99136E+06         0.00000E+00
    0.99136E+06        -0.94717E+08         0.00000E+00
    0.00000E+00         0.00000E+00        -0.67376E+08
 
   -0.67249E+08         0.97769E+06         0.00000E+00
    0.97769E+06        -0.94676E+08         0.00000E+00
    0.00000E+00         0.00000E+00        -0.67198E+08
 
   -0.67086E+08         0.96238E+06         0.00000E+00
    0.96238E+06        -0.94638E+08         0.00000E+00
    0.00000E+00         0.00000E+00        -0.67018E+08
 
   -0.66923E+08         0.94518E+06         0.00000E+00
    0.94518E+06        -0.94602E+08         0.00000E+00
    0.00000E+00         0.00000E+00        -0.66836E+08
 
   -0.66761E+08         0.92585E+06         0.00000E+00
    0.92585E+06        -0.94569E+08         0.00000E+00
    0.00000E+00         0.00000E+00        -0.66652E+08
 
   -0.66599E+08         0.90412E+06         0.00000E+00
    0.90412E+06        -0.94539E+08         0.00000E+00
    0.00000E+00         0.00000E+00        -0.66467E+08
 
   -0.66439E+08         0.87969E+06         0.00000E+00
    0.87969E+06        -0.94512E+08         0.00000E+00
    0.00000E+00         0.00000E+00        -0.66280E+08
 
   -0.66279E+08         0.85226E+06         0.00000E+00
    0.85226E+06        -0.94489E+08         0.00000E+00
    0.00000E+00         0.00000E+00        -0.66092E+08
 
   -0.66121E+08         0.82151E+06         0.00000E+00
    0.82151E+06        -0.94471E+08         0.00000E+00
    0.00000E+00         0.00000E+00        -0.65902E+08
 
   -0.65964E+08         0.78712E+06         0.00000E+00
    0.78712E+06        -0.94456E+08         0.00000E+00
    0.00000E+00         0.00000E+00        -0.65711E+08
 
   -0.65809E+08         0.74879E+06         0.00000E+00
    0.74879E+06        -0.94446E+08         0.00000E+00
    0.00000E+00         0.00000E+00        -0.65519E+08
 
   -0.65654E+08         0.70627E+06         0.00000E+00
    0.70627E+06        -0.94439E+08         0.00000E+00
    0.00000E+00         0.00000E+00        -0.65326E+08
 
   -0.65501E+08         0.65935E+06         0.00000E+00
    0.65935E+06        -0.94437E+08         0.00000E+00
    0.00000E+00         0.00000E+00        -0.65131E+08
 
   -0.65349E+08         0.60795E+06         0.00000E+00
    0.60795E+06        -0.94437E+08         0.00000E+00
    0.00000E+00         0.00000E+00        -0.64935E+08
 
   -0.65197E+08         0.55211E+06         0.00000E+00
    0.55211E+06        -0.94440E+08         0.00000E+00
    0.00000E+00         0.00000E+00        -0.64737E+08
 
   -0.65044E+08         0.49212E+06         0.00000E+00
    0.49212E+06        -0.94443E+08         0.00000E+00
    0.00000E+00         0.00000E+00        -0.64536E+08
 
   -0.64891E+08         0.42856E+06         0.00000E+00
    0.42856E+06        -0.94444E+08         0.00000E+00
    0.00000E+00         0.00000E+00        -0.64331E+08
 
   -0.64737E+08         0.36242E+06         0.00000E+00
    0.36242E+06        -0.94441E+08         0.00000E+00
    0.00000E+00         0.00000E+00        -0.64120E+08
 
   -0.64582E+08         0.29523E+06         0.00000E+00
    0.29523E+06        -0.94429E+08         0.00000E+00
    0.00000E+00         0.00000E+00        -0.63898E+08
 
   -0.64425E+08         0.22915E+06         0.00000E+00
    0.22915E+06        -0.94403E+08         0.00000E+00
    0.00000E+00         0.00000E+00        -0.63661E+08
 
   -0.64270E+08         0.16703E+06         0.00000E+00
    0.16703E+06        -0.94359E+08         0.00000E+00
    0.00000E+00         0.00000E+00        -0.63403E+08
 
   -0.64121E+08         0.11222E+06         0.00000E+00
    0.11222E+06        -0.94293E+08         0.00000E+00
    0.00000E+00         0.00000E+00        -0.63114E+08
 
   -0.63984E+08         0.67717E+05         0.00000E+00
    0.67717E+05        -0.94200E+08         0.00000E+00
    0.00000E+00         0.00000E+00        -0.62788E+08
 
   -0.63868E+08         0.34652E+05         0.00000E+00
    0.34652E+05        -0.94084E+08         0.00000E+00
    0.00000E+00         0.00000E+00        -0.62417E+08
 
   -0.63781E+08         0.10470E+05         0.00000E+00
    0.10470E+05        -0.93946E+08         0.00000E+00
    0.00000E+00         0.00000E+00        -0.62001E+08
 
   -0.80921E+08         0.12034E+05         0.00000E+00
    0.12034E+05        -0.97829E+08         0.00000E+00
    0.00000E+00         0.00000E+00        -0.84519E+08
 
   -0.80864E+08         0.66225E+05         0.00000E+00
    0.66225E+05        -0.97624E+08         0.00000E+00
    0.00000E+00         0.00000E+00        -0.83895E+08
 
   -0.80788E+08         0.13990E+06         0.00000E+00
    0.13990E+06        -0.97397E+08         0.00000E+00
    0.00000E+00         0.00000E+00        -0.83395E+08
 
   -0.80661E+08         0.23241E+06         0.00000E+00
    0.23241E+06        -0.97282E+08         0.00000E+00
    0.00000E+00         0.00000E+00        -0.82898E+08
 
   -0.80497E+08         0.33759E+06         0.00000E+00
    0.33759E+06        -0.97219E+08         0.00000E+00
    0.00000E+00         0.00000E+00        -0.82404E+08
 
   -0.80306E+08         0.44855E+06         0.00000E+00
    0.44855E+06        -0.97218E+08         0.00000E+00
    0.00000E+00         0.00000E+00        -0.81912E+08
 
   -0.80100E+08         0.57004E+06         0.00000E+00
    0.57004E+06        -0.97247E+08         0.00000E+00
    0.00000E+00         0.00000E+00        -0.81431E+08
 
   -0.79891E+08         0.67592E+06         0.00000E+00
    0.67592E+06        -0.97306E+08         0.00000E+00
    0.00000E+00         0.00000E+00        -0.81012E+08
 
   -0.79672E+08         0.75084E+06         0.00000E+00
    0.75084E+06        -0.97352E+08         0.00000E+00
    0.00000E+00         0.00000E+00        -0.80663E+08
 
   -0.79456E+08         0.83163E+06         0.00000E+00
    0.83163E+06        -0.97356E+08         0.00000E+00
    0.00000E+00         0.00000E+00        -0.80344E+08
 
   -0.79237E+08         0.90667E+06         0.00000E+00
    0.90667E+06        -0.97361E+08         0.00000E+00
    0.00000E+00         0.00000E+00        -0.80038E+08
 
   -0.79016E+08         0.97624E+06         0.00000E+00
    0.97624E+06        -0.97371E+08         0.00000E+00
    0.00000E+00         0.00000E+00        -0.79740E+08
 
   -0.78795E+08         0.10382E+07         0.00000E+00
    0.10382E+07        -0.97389E+08         0.00000E+00
    0.00000E+00         0.00000E+00        -0.79449E+08
 
   -0.78572E+08         0.10919E+07         0.00000E+00
    0.10919E+07        -0.97412E+08         0.00000E+00
    0.00000E+00         0.00000E+00        -0.79161E+08
 
   -0.78350E+08         0.11381E+07         0.00000E+00
    0.11381E+07        -0.97436E+08         0.00000E+00
    0.00000E+00         0.00000E+00        -0.78877E+08
 
   -0.78128E+08         0.11778E+07         0.00000E+00
    0.11778E+07        -0.97460E+08         0.00000E+00
    0.00000E+00         0.00000E+00        -0.78594E+08
 
   -0.77904E+08         0.12118E+07         0.00000E+00
    0.12118E+07        -0.97483E+08         0.00000E+00
    0.00000E+00         0.00000E+00        -0.78314E+08
 
   -0.77679E+08         0.12407E+07         0.00000E+00
    0.12407E+07        -0.97503E+08         0.00000E+00
    0.00000E+00         0.00000E+00        -0.78035E+08
 
   -0.77451E+08         0.12652E+07         0.00000E+00
    0.12652E+07        -0.97522E+08         0.00000E+00
    0.00000E+00         0.00000E+00        -0.77757E+08
 
   -0.77222E+08         0.12857E+07         0.00000E+00
    0.12857E+07        -0.97537E+08         0.00000E+00
    0.00000E+00         0.00000E+00        -0.77481E+08
 
   -0.76991E+08         0.13025E+07         0.00000E+00
    0.13025E+07        -0.97551E+08         0.00000E+00
    0.00000E+00         0.00000E+00        -0.77207E+08
 
   -0.76758E+08         0.13162E+07         0.00000E+00
    0.13162E+07        -0.97562E+08         0.00000E+00
    0.00000E+00         0.00000E+00        -0.76934E+08
 
   -0.76523E+08         0.13270E+07         0.00000E+00
    0.13270E+07        -0.97572E+08         0.00000E+00
    0.00000E+00         0.00000E+00        -0.76664E+08
 
   -0.76287E+08         0.13354E+07         0.00000E+00
    0.13354E+07        -0.97579E+08         0.00000E+00
    0.00000E+00         0.00000E+00        -0.76395E+08
 
   -0.76057E+08         0.13406E+07         0.00000E+00
    0.13406E+07        -0.97578E+08         0.00000E+00
    0.00000E+00         0.00000E+00        -0.76136E+08
 
   -0.75855E+08         0.13403E+07         0.00000E+00
    0.13403E+07        -0.97545E+08         0.00000E+00
    0.00000E+00         0.00000E+00        -0.75909E+08
 
   -0.75667E+08         0.13365E+07         0.00000E+00
    0.13365E+07        -0.97495E+08         0.00000E+00
    0.00000E+00         0.00000E+00        -0.75698E+08
 
   -0.75479E+08         0.13314E+07         0.00000E+00
    0.13314E+07        -0.97443E+08         0.00000E+00
    0.00000E+00         0.00000E+00        -0.75491E+08
 
   -0.75292E+08         0.13251E+07         0.00000E+00
    0.13251E+07        -0.97390E+08         0.00000E+00
    0.00000E+00         0.00000E+00        -0.75288E+08
 
   -0.75106E+08         0.13179E+07         0.00000E+00
    0.13179E+07        -0.97336E+08         0.00000E+00
    0.00000E+00         0.00000E+00        -0.75087E+08
 
   -0.74921E+08         0.13099E+07         0.00000E+00
    0.13099E+07        -0.97280E+08         0.00000E+00
    0.00000E+00         0.00000E+00        -0.74890E+08
 
   -0.74736E+08         0.13012E+07         0.00000E+00
    0.13012E+07        -0.97224E+08         0.00000E+00
    0.00000E+00         0.00000E+00        -0.74696E+08
 
   -0.74553E+08         0.12921E+07         0.00000E+00
    0.12921E+07        -0.97167E+08         0.00000E+00
    0.00000E+00         0.00000E+00        -0.74505E+08
 
   -0.74371E+08         0.12826E+07         0.00000E+00
    0.12826E+07        -0.97109E+08         0.00000E+00
    0.00000E+00         0.00000E+00        -0.74316E+08
 
   -0.74190E+08         0.12728E+07         0.00000E+00
    0.12728E+07        -0.97051E+08         0.00000E+00
    0.00000E+00         0.00000E+00        -0.74131E+08
 
   -0.74010E+08         0.12629E+07         0.00000E+00
    0.12629E+07        -0.96992E+08         0.00000E+00
    0.00000E+00         0.00000E+00        -0.73948E+08
 
   -0.73832E+08         0.12528E+07         0.00000E+00
    0.12528E+07        -0.96933E+08         0.00000E+00
    0.00000E+00         0.00000E+00        -0.73767E+08
 
   -0.73655E+08         0.12427E+07         0.00000E+00
    0.12427E+07        -0.96873E+08         0.00000E+00
    0.00000E+00         0.00000E+00        -0.73589E+08
 
   -0.73479E+08         0.12326E+07         0.00000E+00
    0.12326E+07        -0.96813E+08         0.00000E+00
    0.00000E+00         0.00000E+00        -0.73413E+08
 
   -0.73305E+08         0.12225E+07         0.00000E+00
    0.12225E+07        -0.96753E+08         0.00000E+00
    0.00000E+00         0.00000E+00        -0.73240E+08
 
   -0.73131E+08         0.12126E+07         0.00000E+00
    0.12126E+07        -0.96693E+08         0.00000E+00
    0.00000E+00         0.00000E+00        -0.73068E+08
 
   -0.72960E+08         0.12028E+07         0.00000E+00
    0.12028E+07        -0.96633E+08         0.00000E+00
    0.00000E+00         0.00000E+00        -0.72898E+08
 
   -0.72789E+08         0.11932E+07         0.00000E+00
    0.11932E+07        -0.96572E+08         0.00000E+00
    0.00000E+00         0.00000E+00        -0.72730E+08
 
   -0.72619E+08         0.11838E+07         0.00000E+00
    0.11838E+07        -0.96512E+08         0.00000E+00
    0.00000E+00         0.00000E+00        -0.72564E+08
 
   -0.72451E+08         0.11746E+07         0.00000E+00
    0.11746E+07        -0.96451E+08         0.00000E+00
    0.00000E+00         0.00000E+00        -0.72399E+08
 
   -0.72283E+08         0.11657E+07         0.00000E+00
    0.11657E+07        -0.96391E+08         0.00000E+00
    0.00000E+00         0.00000E+00        -0.72236E+08
 
   -0.72117E+08         0.11571E+07         0.00000E+00
    0.11571E+07        -0.96330E+08         0.00000E+00
    0.00000E+00         0.00000E+00        -0.72074E+08
 
   -0.71951E+08         0.11487E+07         0.00000E+00
    0.11487E+07        -0.96269E+08         0.00000E+00
    0.00000E+00         0.00000E+00        -0.71913E+08
 
   -0.71786E+08         0.11406E+07         0.00000E+00
    0.11406E+07        -0.96209E+08         0.00000E+00
    0.00000E+00         0.00000E+00        -0.71753E+08
 
   -0.71622E+08         0.11329E+07         0.00000E+00
    0.11329E+07        -0.96149E+08         0.00000E+00
    0.00000E+00         0.00000E+00        -0.71594E+08
 
   -0.71459E+08         0.11254E+07         0.00000E+00
    0.11254E+07        -0.96088E+08         0.00000E+00
    0.00000E+00         0.00000E+00        -0.71435E+08
 
   -0.71296E+08         0.11182E+07         0.00000E+00
    0.11182E+07        -0.96028E+08         0.00000E+00
    0.00000E+00         0.00000E+00        -0.71278E+08
 
   -0.71134E+08         0.11113E+07         0.00000E+00
    0.11113E+07        -0.95968E+08         0.00000E+00
    0.00000E+00         0.00000E+00        -0.71120E+08
 
   -0.70972E+08         0.11046E+07         0.00000E+00
    0.11046E+07        -0.95909E+08         0.00000E+00
    0.00000E+00         0.00000E+00        -0.70963E+08
 
   -0.70811E+08         0.10983E+07         0.00000E+00
    0.10983E+07        -0.95849E+08         0.00000E+00
    0.00000E+00         0.00000E+00        -0.70807E+08
 
   -0.70650E+08         0.10921E+07         0.00000E+00
    0.10921E+07        -0.95790E+08         0.00000E+00
    0.00000E+00         0.00000E+00        -0.70650E+08
 
   -0.70489E+08         0.10862E+07         0.00000E+00
    0.10862E+07        -0.95731E+08         0.00000E+00
    0.00000E+00         0.00000E+00        -0.70494E+08
 
   -0.70328E+08         0.10805E+07         0.00000E+00
    0.10805E+07        -0.95672E+08         0.00000E+00
    0.00000E+00         0.00000E+00        -0.70337E+08
 
   -0.70167E+08         0.10750E+07         0.00000E+00
    0.10750E+07        -0.95613E+08         0.00000E+00
    0.00000E+00         0.00000E+00        -0.70181E+08
 
   -0.70007E+08         0.10696E+07         0.00000E+00
    0.10696E+07        -0.95555E+08         0.00000E+00
    0.00000E+00         0.00000E+00        -0.70023E+08
 
   -0.69846E+08         0.10644E+07         0.00000E+00
    0.10644E+07        -0.95497E+08         0.00000E+00
    0.00000E+00         0.00000E+00        -0.69866E+08
 
   -0.69685E+08         0.10592E+07         0.00000E+00
    0.10592E+07        -0.95440E+08         0.00000E+00
    0.00000E+00         0.00000E+00        -0.69708E+08
 
   -0.69524E+08         0.10540E+07         0.00000E+00
    0.10540E+07        -0.95383E+08         0.00000E+00
    0.00000E+00         0.00000E+00        -0.69549E+08
 
   -0.69363E+08         0.10487E+07         0.00000E+00
    0.10487E+07        -0.95327E+08         0.00000E+00
    0.00000E+00         0.00000E+00        -0.69389E+08
 
   -0.69202E+08         0.10434E+07         0.00000E+00
    0.10434E+07        -0.95271E+08         0.00000E+00
    0.00000E+00         0.00000E+00        -0.69229E+08
 
   -0.69040E+08         0.10380E+07         0.00000E+00
    0.10380E+07        -0.95216E+08         0.00000E+00
    0.00000E+00         0.00000E+00        -0.69067E+08
 
   -0.68878E+08         0.10324E+07         0.00000E+00
    0.10324E+07        -0.95161E+08         0.00000E+00
    0.00000E+00         0.00000E+00        -0.68904E+08
 
   -0.68716E+08         0.10264E+07         0.00000E+00
    0.10264E+07        -0.95107E+08         0.00000E+00
    0.00000E+00         0.00000E+00        -0.68740E+08
 
   -0.68554E+08         0.10201E+07         0.00000E+00
    0.10201E+07        -0.95055E+08         0.00000E+00
    0.00000E+00         0.00000E+00        -0.68575E+08
 
   -0.68391E+08         0.10134E+07         0.00000E+00
    0.10134E+07        -0.95003E+08         0.00000E+00
    0.00000E+00         0.00000E+00        -0.68408E+08
 
   -0.68228E+08         0.10061E+07         0.00000E+00
    0.10061E+07        -0.94952E+08         0.00000E+00
    0.00000E+00         0.00000E+00        -0.68240E+08
 
   -0.68065E+08         0.99816E+06         0.00000E+00
    0.99816E+06        -0.94902E+08         0.00000E+00
    0.00000E+00         0.00000E+00        -0.68070E+08
 
   -0.67901E+08         0.98944E+06         0.00000E+00
    0.98944E+06        -0.94854E+08         0.00000E+00
    0.00000E+00         0.00000E+00        -0.67899E+08
 
   -0.67738E+08         0.97982E+06         0.00000E+00
    0.97982E+06        -0.94807E+08         0.00000E+00
    0.00000E+00         0.00000E+00        -0.67726E+08
 
   -0.67574E+08         0.96914E+06         0.00000E+00
    0.96914E+06        -0.94762E+08         0.00000E+00
    0.00000E+00         0.00000E+00        -0.67551E+08
 
   -0.67410E+08         0.95723E+06         0.00000E+00
    0.95723E+06        -0.94718E+08         0.00000E+00
    0.00000E+00         0.00000E+00        -0.67374E+08
 
   -0.67247E+08         0.94392E+06         0.00000E+00
    0.94392E+06        -0.94677E+08         0.00000E+00
    0.00000E+00         0.00000E+00        -0.67195E+08
 
   -0.67084E+08         0.92900E+06         0.00000E+00
    0.92900E+06        -0.94638E+08         0.00000E+00
    0.00000E+00         0.00000E+00        -0.67015E+08
 
   -0.66921E+08         0.91224E+06         0.00000E+00
    0.91224E+06        -0.94602E+08         0.00000E+00
    0.00000E+00         0.00000E+00        -0.66833E+08
 
   -0.66760E+08         0.89339E+06         0.00000E+00
    0.89339E+06        -0.94568E+08         0.00000E+00
    0.00000E+00         0.00000E+00        -0.66648E+08
 
   -0.66598E+08         0.87218E+06         0.00000E+00
    0.87218E+06        -0.94538E+08         0.00000E+00
    0.00000E+00         0.00000E+00        -0.66462E+08
 
   -0.66438E+08         0.84832E+06         0.00000E+00
    0.84832E+06        -0.94511E+08         0.00000E+00
    0.00000E+00         0.00000E+00        -0.66275E+08
 
   -0.66279E+08         0.82148E+06         0.00000E+00
    0.82148E+06        -0.94487E+08         0.00000E+00
    0.00000E+00         0.00000E+00        -0.66086E+08
 
   -0.66122E+08         0.79136E+06         0.00000E+00
    0.79136E+06        -0.94468E+08         0.00000E+00
    0.00000E+00         0.00000E+00        -0.65895E+08
 
   -0.65966E+08         0.75761E+06         0.00000E+00
    0.75761E+06        -0.94452E+08         0.00000E+00
    0.00000E+00         0.00000E+00        -0.65703E+08
 
   -0.65811E+08         0.71993E+06         0.00000E+00
    0.71993E+06        -0.94441E+08         0.00000E+00
    0.00000E+00         0.00000E+00        -0.65509E+08
 
   -0.65658E+08         0.67804E+06         0.00000E+00
    0.67804E+06        -0.94434E+08         0.00000E+00
    0.00000E+00         0.00000E+00        -0.65314E+08
 
   -0.65506E+08         0.63173E+06         0.00000E+00
    0.63173E+06        -0.94431E+08         0.00000E+00
    0.00000E+00         0.00000E+00        -0.65118E+08
 
   -0.65354E+08         0.58089E+06         0.00000E+00
    0.58089E+06        -0.94431E+08         0.00000E+00
    0.00000E+00         0.00000E+00        -0.64920E+08
 
   -0.65204E+08         0.52556E+06         0.00000E+00
    0.52556E+06        -0.94433E+08         0.00000E+00
    0.00000E+00         0.00000E+00        -0.64720E+08
 
   -0.65054E+08         0.46603E+06         0.00000E+00
    0.46603E+06        -0.94436E+08         0.00000E+00
    0.00000E+00         0.00000E+00        -0.64518E+08
 
   -0.64903E+08         0.40291E+06         0.00000E+00
    0.40291E+06        -0.94437E+08         0.00000E+00
    0.00000E+00         0.00000E+00        -0.64310E+08
 
   -0.64752E+08         0.33725E+06         0.00000E+00
    0.33725E+06        -0.94434E+08         0.00000E+00
    0.00000E+00         0.00000E+00        -0.64097E+08
 
   -0.64600E+08         0.27075E+06         0.00000E+00
    0.27075E+06        -0.94423E+08         0.00000E+00
    0.00000E+00         0.00000E+00        -0.63873E+08
 
   -0.64447E+08         0.20582E+06         0.00000E+00
    0.20582E+06        -0.94399E+08         0.00000E+00
    0.00000E+00         0.00000E+00        -0.63635E+08
 
   -0.64296E+08         0.14571E+06         0.00000E+00
    0.14571E+06        -0.94358E+08         0.00000E+00
    0.00000E+00         0.00000E+00        -0.63376E+08
 
   -0.64151E+08         0.94070E+05         0.00000E+00
    0.94070E+05        -0.94294E+08         0.00000E+00
    0.00000E+00         0.00000E+00        -0.63088E+08
 
   -0.64017E+08         0.53978E+05         0.00000E+00
    0.53978E+05        -0.94206E+08         0.00000E+00
    0.00000E+00         0.00000E+00        -0.62762E+08
 
   -0.63904E+08         0.26186E+05         0.00000E+00
    0.26186E+05        -0.94092E+08         0.00000E+00
    0.00000E+00         0.00000E+00        -0.62393E+08
 
   -0.63819E+08         0.76274E+04         0.00000E+00
    0.76274E+04        -0.93956E+08         0.00000E+00
    0.00000E+00         0.00000E+00        -0.61977E+08
 
   -0.80822E+08         0.49884E+04         0.00000E+00
    0.49884E+04        -0.97828E+08         0.00000E+00
    0.00000E+00         0.00000E+00        -0.84560E+08
 
   -0.80747E+08         0.53284E+05         0.00000E+00
    0.53284E+05        -0.97644E+08         0.00000E+00
    0.00000E+00         0.00000E+00        -0.83899E+08
 
   -0.80679E+08         0.11890E+06         0.00000E+00
    0.11890E+06        -0.97413E+08         0.00000E+00
    0.00000E+00         0.00000E+00        -0.83395E+08
 
   -0.80559E+08         0.20439E+06         0.00000E+00
    0.20439E+06        -0.97301E+08         0.00000E+00
    0.00000E+00         0.00000E+00        -0.82898E+08
 
   -0.80404E+08         0.30238E+06         0.00000E+00
    0.30238E+06        -0.97241E+08         0.00000E+00
    0.00000E+00         0.00000E+00        -0.82404E+08
 
   -0.80225E+08         0.40975E+06         0.00000E+00
    0.40975E+06        -0.97240E+08         0.00000E+00
    0.00000E+00         0.00000E+00        -0.81912E+08
 
   -0.80041E+08         0.53151E+06         0.00000E+00
    0.53151E+06        -0.97262E+08         0.00000E+00
    0.00000E+00         0.00000E+00        -0.81449E+08
 
   -0.79832E+08         0.63074E+06         0.00000E+00
    0.63074E+06        -0.97333E+08         0.00000E+00
    0.00000E+00         0.00000E+00        -0.81029E+08
 
   -0.79631E+08         0.71052E+06         0.00000E+00
    0.71052E+06        -0.97368E+08         0.00000E+00
    0.00000E+00         0.00000E+00        -0.80687E+08
 
   -0.79425E+08         0.78844E+06         0.00000E+00
    0.78844E+06        -0.97371E+08         0.00000E+00
    0.00000E+00         0.00000E+00        -0.80363E+08
 
   -0.79212E+08         0.86332E+06         0.00000E+00
    0.86332E+06        -0.97375E+08         0.00000E+00
    0.00000E+00         0.00000E+00        -0.80052E+08
 
   -0.78996E+08         0.93227E+06         0.00000E+00
    0.93227E+06        -0.97385E+08         0.00000E+00
    0.00000E+00         0.00000E+00        -0.79749E+08
 
   -0.78777E+08         0.99398E+06         0.00000E+00
    0.99398E+06        -0.97401E+08         0.00000E+00
    0.00000E+00         0.00000E+00        -0.79454E+08
 
   -0.78557E+08         0.10476E+07         0.00000E+00
    0.10476E+07        -0.97422E+08         0.00000E+00
    0.00000E+00         0.00000E+00        -0.79163E+08
 
   -0.78336E+08         0.10937E+07         0.00000E+00
    0.10937E+07        -0.97445E+08         0.00000E+00
    0.00000E+00         0.00000E+00        -0.78875E+08
 
   -0.78114E+08         0.11332E+07         0.00000E+00
    0.11332E+07        -0.97468E+08         0.00000E+00
    0.00000E+00         0.00000E+00        -0.78590E+08
 
   -0.77891E+08         0.11669E+07         0.00000E+00
    0.11669E+07        -0.97489E+08         0.00000E+00
    0.00000E+00         0.00000E+00        -0.78308E+08
 
   -0.77666E+08         0.11956E+07         0.00000E+00
    0.11956E+07        -0.97509E+08         0.00000E+00
    0.00000E+00         0.00000E+00        -0.78027E+08
 
   -0.77440E+08         0.12196E+07         0.00000E+00
    0.12196E+07        -0.97526E+08         0.00000E+00
    0.00000E+00         0.00000E+00        -0.77748E+08
 
   -0.77211E+08         0.12397E+07         0.00000E+00
    0.12397E+07        -0.97541E+08         0.00000E+00
    0.00000E+00         0.00000E+00        -0.77471E+08
 
   -0.76981E+08         0.12561E+07         0.00000E+00
    0.12561E+07        -0.97554E+08         0.00000E+00
    0.00000E+00         0.00000E+00        -0.77196E+08
 
   -0.76748E+08         0.12694E+07         0.00000E+00
    0.12694E+07        -0.97564E+08         0.00000E+00
    0.00000E+00         0.00000E+00        -0.76923E+08
 
   -0.76514E+08         0.12800E+07         0.00000E+00
    0.12800E+07        -0.97573E+08         0.00000E+00
    0.00000E+00         0.00000E+00        -0.76652E+08
 
   -0.76278E+08         0.12880E+07         0.00000E+00
    0.12880E+07        -0.97581E+08         0.00000E+00
    0.00000E+00         0.00000E+00        -0.76383E+08
 
   -0.76049E+08         0.12929E+07         0.00000E+00
    0.12929E+07        -0.97578E+08         0.00000E+00
    0.00000E+00         0.00000E+00        -0.76126E+08
 
   -0.75849E+08         0.12924E+07         0.00000E+00
    0.12924E+07        -0.97542E+08         0.00000E+00
    0.00000E+00         0.00000E+00        -0.75900E+08
 
   -0.75662E+08         0.12888E+07         0.00000E+00
    0.12888E+07        -0.97492E+08         0.00000E+00
    0.00000E+00         0.00000E+00        -0.75689E+08
 
   -0.75474E+08         0.12838E+07         0.00000E+00
    0.12838E+07        -0.97441E+08         0.00000E+00
    0.00000E+00         0.00000E+00        -0.75482E+08
 
   -0.75288E+08         0.12778E+07         0.00000E+00
    0.12778E+07        -0.97388E+08         0.00000E+00
    0.00000E+00         0.00000E+00        -0.75279E+08
 
   -0.75102E+08         0.12709E+07         0.00000E+00
    0.12709E+07        -0.97334E+08         0.00000E+00
    0.00000E+00         0.00000E+00        -0.75078E+08
 
   -0.74916E+08         0.12632E+07         0.00000E+00
    0.12632E+07        -0.97278E+08         0.00000E+00
    0.00000E+00         0.00000E+00        -0.74881E+08
 
   -0.74732E+08         0.12549E+07         0.00000E+00
    0.12549E+07        -0.97222E+08         0.00000E+00
    0.00000E+00         0.00000E+00        -0.74687E+08
 
   -0.74549E+08         0.12462E+07         0.00000E+00
    0.12462E+07        -0.97165E+08         0.00000E+00
    0.00000E+00         0.00000E+00        -0.74496E+08
 
   -0.74367E+08         0.12371E+07         0.00000E+00
    0.12371E+07        -0.97108E+08         0.00000E+00
    0.00000E+00         0.00000E+00        -0.74308E+08
 
   -0.74186E+08         0.12277E+07         0.00000E+00
    0.12277E+07        -0.97049E+08         0.00000E+00
    0.00000E+00         0.00000E+00        -0.74123E+08
 
   -0.74007E+08         0.12182E+07         0.00000E+00
    0.12182E+07        -0.96991E+08         0.00000E+00
    0.00000E+00         0.00000E+00        -0.73940E+08
 
   -0.73828E+08         0.12085E+07         0.00000E+00
    0.12085E+07        -0.96932E+08         0.00000E+00
    0.00000E+00         0.00000E+00        -0.73760E+08
 
   -0.73652E+08         0.11988E+07         0.00000E+00
    0.11988E+07        -0.96872E+08         0.00000E+00
    0.00000E+00         0.00000E+00        -0.73582E+08
 
   -0.73476E+08         0.11892E+07         0.00000E+00
    0.11892E+07        -0.96813E+08         0.00000E+00
    0.00000E+00         0.00000E+00        -0.73406E+08
 
   -0.73302E+08         0.11795E+07         0.00000E+00
    0.11795E+07        -0.96753E+08         0.00000E+00
    0.00000E+00         0.00000E+00        -0.73233E+08
 
   -0.73129E+08         0.11700E+07         0.00000E+00
    0.11700E+07        -0.96693E+08         0.00000E+00
    0.00000E+00         0.00000E+00        -0.73062E+08
 
   -0.72957E+08         0.11606E+07         0.00000E+00
    0.11606E+07        -0.96632E+08         0.00000E+00
    0.00000E+00         0.00000E+00        -0.72892E+08
 
   -0.72786E+08         0.11514E+07         0.00000E+00
    0.11514E+07        -0.96572E+08         0.00000E+00
    0.00000E+00         0.00000E+00        -0.72724E+08
 
   -0.72617E+08         0.11424E+07         0.00000E+00
    0.11424E+07        -0.96512E+08         0.00000E+00
    0.00000E+00         0.00000E+00        -0.72558E+08
 
   -0.72448E+08         0.11336E+07         0.00000E+00
    0.11336E+07        -0.96451E+08         0.00000E+00
    0.00000E+00         0.00000E+00        -0.72394E+08
 
   -0.72281E+08         0.11251E+07         0.00000E+00
    0.11251E+07        -0.96391E+08         0.00000E+00
    0.00000E+00         0.00000E+00        -0.72231E+08
 
   -0.72114E+08         0.11168E+07         0.00000E+00
    0.11168E+07        -0.96330E+08         0.00000E+00
    0.00000E+00         0.00000E+00        -0.72069E+08
 
   -0.71948E+08         0.11087E+07         0.00000E+00
    0.11087E+07        -0.96270E+08         0.00000E+00
    0.00000E+00         0.00000E+00        -0.71908E+08
 
   -0.71784E+08         0.11010E+07         0.00000E+00
    0.11010E+07        -0.96210E+08         0.00000E+00
    0.00000E+00         0.00000E+00        -0.71748E+08
 
   -0.71620E+08         0.10935E+07         0.00000E+00
    0.10935E+07        -0.96149E+08         0.00000E+00
    0.00000E+00         0.00000E+00        -0.71590E+08
 
   -0.71456E+08         0.10863E+07         0.00000E+00
    0.10863E+07        -0.96089E+08         0.00000E+00
    0.00000E+00         0.00000E+00        -0.71431E+08
 
   -0.71293E+08         0.10794E+07         0.00000E+00
    0.10794E+07        -0.96029E+08         0.00000E+00
    0.00000E+00         0.00000E+00        -0.71274E+08
 
   -0.71131E+08         0.10727E+07         0.00000E+00
    0.10727E+07        -0.95969E+08         0.00000E+00
    0.00000E+00         0.00000E+00        -0.71117E+08
 
   -0.70969E+08         0.10663E+07         0.00000E+00
    0.10663E+07        -0.95910E+08         0.00000E+00
    0.00000E+00         0.00000E+00        -0.70960E+08
 
   -0.70808E+08         0.10602E+07         0.00000E+00
    0.10602E+07        -0.95850E+08         0.00000E+00
    0.00000E+00         0.00000E+00        -0.70804E+08
 
   -0.70647E+08         0.10542E+07         0.00000E+00
    0.10542E+07        -0.95791E+08         0.00000E+00
    0.00000E+00         0.00000E+00        -0.70648E+08
 
   -0.70486E+08         0.10485E+07         0.00000E+00
    0.10485E+07        -0.95732E+08         0.00000E+00
    0.00000E+00         0.00000E+00        -0.70492E+08
 
   -0.70325E+08         0.10430E+07         0.00000E+00
    0.10430E+07        -0.95673E+08         0.00000E+00
    0.00000E+00         0.00000E+00        -0.70335E+08
 
   -0.70164E+08         0.10377E+07         0.00000E+00
    0.10377E+07        -0.95615E+08         0.00000E+00
    0.00000E+00         0.00000E+00        -0.70179E+08
 
   -0.70004E+08         0.10325E+07         0.00000E+00
    0.10325E+07        -0.95557E+08         0.00000E+00
    0.00000E+00         0.00000E+00        -0.70022E+08
 
   -0.69843E+08         0.10274E+07         0.00000E+00
    0.10274E+07        -0.95499E+08         0.00000E+00
    0.00000E+00         0.00000E+00        -0.69864E+08
 
   -0.69682E+08         0.10223E+07         0.00000E+00
    0.10223E+07        -0.95442E+08         0.00000E+00
    0.00000E+00         0.00000E+00        -0.69706E+08
 
   -0.69521E+08         0.10173E+07         0.00000E+00
    0.10173E+07        -0.95385E+08         0.00000E+00
    0.00000E+00         0.00000E+00        -0.69548E+08
 
   -0.69360E+08         0.10122E+07         0.00000E+00
    0.10122E+07        -0.95328E+08         0.00000E+00
    0.00000E+00         0.00000E+00        -0.69388E+08
 
   -0.69199E+08         0.10070E+07         0.00000E+00
    0.10070E+07        -0.95273E+08         0.00000E+00
    0.00000E+00         0.00000E+00        -0.69228E+08
 
   -0.69037E+08         0.10018E+07         0.00000E+00
    0.10018E+07        -0.95217E+08         0.00000E+00
    0.00000E+00         0.00000E+00        -0.69066E+08
 
   -0.68875E+08         0.99625E+06         0.00000E+00
    0.99625E+06        -0.95163E+08         0.00000E+00
    0.00000E+00         0.00000E+00        -0.68903E+08
 
   -0.68713E+08         0.99048E+06         0.00000E+00
    0.99048E+06        -0.95109E+08         0.00000E+00
    0.00000E+00         0.00000E+00        -0.68739E+08
 
   -0.68551E+08         0.98435E+06         0.00000E+00
    0.98435E+06        -0.95056E+08         0.00000E+00
    0.00000E+00         0.00000E+00        -0.68574E+08
 
   -0.68388E+08         0.97779E+06         0.00000E+00
    0.97779E+06        -0.95004E+08         0.00000E+00
    0.00000E+00         0.00000E+00        -0.68407E+08
 
   -0.68225E+08         0.97069E+06         0.00000E+00
    0.97069E+06        -0.94953E+08         0.00000E+00
    0.00000E+00         0.00000E+00        -0.68239E+08
 
   -0.68062E+08         0.96296E+06         0.00000E+00
    0.96296E+06        -0.94904E+08         0.00000E+00
    0.00000E+00         0.00000E+00        -0.68069E+08
 
   -0.67899E+08         0.95448E+06         0.00000E+00
    0.95448E+06        -0.94855E+08         0.00000E+00
    0.00000E+00         0.00000E+00        -0.67898E+08
 
   -0.67735E+08         0.94511E+06         0.00000E+00
    0.94511E+06        -0.94808E+08         0.00000E+00
    0.00000E+00         0.00000E+00        -0.67724E+08
 
   -0.67572E+08         0.93472E+06         0.00000E+00
    0.93472E+06        -0.94763E+08         0.00000E+00
    0.00000E+00         0.00000E+00        -0.67549E+08
 
   -0.67408E+08         0.92314E+06         0.00000E+00
    0.92314E+06        -0.94719E+08         0.00000E+00
    0.00000E+00         0.00000E+00        -0.67372E+08
 
   -0.67245E+08         0.91019E+06         0.00000E+00
    0.91019E+06        -0.94678E+08         0.00000E+00
    0.00000E+00         0.00000E+00        -0.67193E+08
 
   -0.67082E+08         0.89567E+06         0.00000E+00
    0.89567E+06        -0.94638E+08         0.00000E+00
    0.00000E+00         0.00000E+00        -0.67012E+08
 
   -0.66920E+08         0.87936E+06         0.00000E+00
    0.87936E+06        -0.94601E+08         0.00000E+00
    0.00000E+00         0.00000E+00        -0.66829E+08
 
   -0.66758E+08         0.86100E+06         0.00000E+00
    0.86100E+06        -0.94567E+08         0.00000E+00
    0.00000E+00         0.00000E+00        -0.66645E+08
 
   -0.66598E+08         0.84033E+06         0.00000E+00
    0.84033E+06        -0.94537E+08         0.00000E+00
    0.00000E+00         0.00000E+00        -0.66458E+08
 
   -0.66438E+08         0.81704E+06         0.00000E+00
    0.81704E+06        -0.94509E+08         0.00000E+00
    0.00000E+00         0.00000E+00        -0.66270E+08
 
   -0.66280E+08         0.79082E+06         0.00000E+00
    0.79082E+06        -0.94485E+08         0.00000E+00
    0.00000E+00         0.00000E+00        -0.66080E+08
 
   -0.66123E+08         0.76135E+06         0.00000E+00
    0.76135E+06        -0.94465E+08         0.00000E+00
    0.00000E+00         0.00000E+00        -0.65888E+08
 
   -0.65967E+08         0.72827E+06         0.00000E+00
    0.72827E+06        -0.94449E+08         0.00000E+00
    0.00000E+00         0.00000E+00        -0.65694E+08
 
   -0.65813E+08         0.69128E+06         0.00000E+00
    0.69128E+06        -0.94437E+08         0.00000E+00
    0.00000E+00         0.00000E+00        -0.65500E+08
 
   -0.65661E+08         0.65007E+06         0.00000E+00
    0.65007E+06        -0.94429E+08         0.00000E+00
    0.00000E+00         0.00000E+00        -0.65303E+08
 
   -0.65510E+08         0.60443E+06         0.00000E+00
    0.60443E+06        -0.94425E+08         0.00000E+00
    0.00000E+00         0.00000E+00        -0.65105E+08
 
   -0.65360E+08         0.55421E+06         0.00000E+00
    0.55421E+06        -0.94424E+08         0.00000E+00
    0.00000E+00         0.00000E+00        -0.64906E+08
 
   -0.65212E+08         0.49947E+06         0.00000E+00
    0.49947E+06        -0.94426E+08         0.00000E+00
    0.00000E+00         0.00000E+00        -0.64704E+08
 
   -0.65064E+08         0.44049E+06         0.00000E+00
    0.44049E+06        -0.94428E+08         0.00000E+00
    0.00000E+00         0.00000E+00        -0.64499E+08
 
   -0.64916E+08         0.37790E+06         0.00000E+00
    0.37790E+06        -0.94430E+08         0.00000E+00
    0.00000E+00         0.00000E+00        -0.64290E+08
 
   -0.64768E+08         0.31283E+06         0.00000E+00
    0.31283E+06        -0.94427E+08         0.00000E+00
    0.00000E+00         0.00000E+00        -0.64074E+08
 
   -0.64619E+08         0.24709E+06         0.00000E+00
    0.24709E+06        -0.94417E+08         0.00000E+00
    0.00000E+00         0.00000E+00        -0.63849E+08
 
   -0.64470E+08         0.18337E+06         0.00000E+00
    0.18337E+06        -0.94395E+08         0.00000E+00
    0.00000E+00         0.00000E+00        -0.63609E+08
 
   -0.64323E+08         0.12522E+06         0.00000E+00
    0.12522E+06        -0.94357E+08         0.00000E+00
    0.00000E+00         0.00000E+00        -0.63349E+08
 
   -0.64181E+08         0.76635E+05         0.00000E+00
    0.76635E+05        -0.94297E+08         0.00000E+00
    0.00000E+00         0.00000E+00        -0.63061E+08
 
   -0.64051E+08         0.40749E+05         0.00000E+00
    0.40749E+05        -0.94212E+08         0.00000E+00
    0.00000E+00         0.00000E+00        -0.62737E+08
 
   -0.63941E+08         0.18007E+05         0.00000E+00
    0.18007E+05        -0.94101E+08         0.00000E+00
    0.00000E+00         0.00000E+00        -0.62369E+08
 
   -0.63857E+08         0.48741E+04         0.00000E+00
    0.48741E+04        -0.93967E+08         0.00000E+00
    0.00000E+00         0.00000E+00        -0.61955E+08
 
   -0.80728E+08        -0.51587E+03         0.00000E+00
   -0.51587E+03        -0.97823E+08         0.00000E+00
    0.00000E+00         0.00000E+00        -0.84598E+08
 
   -0.80653E+08         0.37069E+05         0.00000E+00
    0.37069E+05        -0.97653E+08         0.00000E+00
    0.00000E+00         0.00000E+00        -0.83924E+08
 
   -0.80573E+08         0.99927E+05         0.00000E+00
    0.99927E+05        -0.97441E+08         0.00000E+00
    0.00000E+00         0.00000E+00        -0.83395E+08
 
   -0.80459E+08         0.17716E+06         0.00000E+00
    0.17716E+06        -0.97313E+08         0.00000E+00
    0.00000E+00         0.00000E+00        -0.82898E+08
 
   -0.80311E+08         0.26861E+06         0.00000E+00
    0.26861E+06        -0.97264E+08         0.00000E+00
    0.00000E+00         0.00000E+00        -0.82404E+08
 
   -0.80142E+08         0.37587E+06         0.00000E+00
    0.37587E+06        -0.97258E+08         0.00000E+00
    0.00000E+00         0.00000E+00        -0.81913E+08
 
   -0.79980E+08         0.49457E+06         0.00000E+00
    0.49457E+06        -0.97284E+08         0.00000E+00
    0.00000E+00         0.00000E+00        -0.81468E+08
 
   -0.79788E+08         0.58860E+06         0.00000E+00
    0.58860E+06        -0.97356E+08         0.00000E+00
    0.00000E+00         0.00000E+00        -0.81060E+08
 
   -0.79594E+08         0.67165E+06         0.00000E+00
    0.67165E+06        -0.97381E+08         0.00000E+00
    0.00000E+00         0.00000E+00        -0.80712E+08
 
   -0.79395E+08         0.74702E+06         0.00000E+00
    0.74702E+06        -0.97387E+08         0.00000E+00
    0.00000E+00         0.00000E+00        -0.80382E+08
 
   -0.79188E+08         0.82087E+06         0.00000E+00
    0.82087E+06        -0.97389E+08         0.00000E+00
    0.00000E+00         0.00000E+00        -0.80066E+08
 
   -0.78976E+08         0.88909E+06         0.00000E+00
    0.88909E+06        -0.97398E+08         0.00000E+00
    0.00000E+00         0.00000E+00        -0.79759E+08
 
   -0.78760E+08         0.95029E+06         0.00000E+00
    0.95029E+06        -0.97413E+08         0.00000E+00
    0.00000E+00         0.00000E+00        -0.79459E+08
 
   -0.78542E+08         0.10036E+07         0.00000E+00
    0.10036E+07        -0.97432E+08         0.00000E+00
    0.00000E+00         0.00000E+00        -0.79164E+08
 
   -0.78323E+08         0.10495E+07         0.00000E+00
    0.10495E+07        -0.97453E+08         0.00000E+00
    0.00000E+00         0.00000E+00        -0.78874E+08
 
   -0.78102E+08         0.10888E+07         0.00000E+00
    0.10888E+07        -0.97475E+08         0.00000E+00
    0.00000E+00         0.00000E+00        -0.78587E+08
 
   -0.77880E+08         0.11222E+07         0.00000E+00
    0.11222E+07        -0.97495E+08         0.00000E+00
    0.00000E+00         0.00000E+00        -0.78302E+08
 
   -0.77655E+08         0.11505E+07         0.00000E+00
    0.11505E+07        -0.97514E+08         0.00000E+00
    0.00000E+00         0.00000E+00        -0.78020E+08
 
   -0.77429E+08         0.11742E+07         0.00000E+00
    0.11742E+07        -0.97530E+08         0.00000E+00
    0.00000E+00         0.00000E+00        -0.77740E+08
 
   -0.77201E+08         0.11938E+07         0.00000E+00
    0.11938E+07        -0.97545E+08         0.00000E+00
    0.00000E+00         0.00000E+00        -0.77462E+08
 
   -0.76971E+08         0.12099E+07         0.00000E+00
    0.12099E+07        -0.97557E+08         0.00000E+00
    0.00000E+00         0.00000E+00        -0.77186E+08
 
   -0.76739E+08         0.12228E+07         0.00000E+00
    0.12228E+07        -0.97567E+08         0.00000E+00
    0.00000E+00         0.00000E+00        -0.76912E+08
 
   -0.76505E+08         0.12330E+07         0.00000E+00
    0.12330E+07        -0.97575E+08         0.00000E+00
    0.00000E+00         0.00000E+00        -0.76641E+08
 
   -0.76269E+08         0.12408E+07         0.00000E+00
    0.12408E+07        -0.97582E+08         0.00000E+00
    0.00000E+00         0.00000E+00        -0.76372E+08
 
   -0.76043E+08         0.12453E+07         0.00000E+00
    0.12453E+07        -0.97577E+08         0.00000E+00
    0.00000E+00         0.00000E+00        -0.76116E+08
 
   -0.75845E+08         0.12446E+07         0.00000E+00
    0.12446E+07        -0.97540E+08         0.00000E+00
    0.00000E+00         0.00000E+00        -0.75891E+08
 
   -0.75657E+08         0.12412E+07         0.00000E+00
    0.12412E+07        -0.97490E+08         0.00000E+00
    0.00000E+00         0.00000E+00        -0.75680E+08
 
   -0.75470E+08         0.12364E+07         0.00000E+00
    0.12364E+07        -0.97439E+08         0.00000E+00
    0.00000E+00         0.00000E+00        -0.75473E+08
 
   -0.75283E+08         0.12306E+07         0.00000E+00
    0.12306E+07        -0.97386E+08         0.00000E+00
    0.00000E+00         0.00000E+00        -0.75270E+08
 
   -0.75097E+08         0.12240E+07         0.00000E+00
    0.12240E+07        -0.97332E+08         0.00000E+00
    0.00000E+00         0.00000E+00        -0.75070E+08
 
   -0.74912E+08         0.12166E+07         0.00000E+00
    0.12166E+07        -0.97276E+08         0.00000E+00
    0.00000E+00         0.00000E+00        -0.74872E+08
 
   -0.74728E+08         0.12087E+07         0.00000E+00
    0.12087E+07        -0.97220E+08         0.00000E+00
    0.00000E+00         0.00000E+00        -0.74679E+08
 
   -0.74545E+08         0.12004E+07         0.00000E+00
    0.12004E+07        -0.97163E+08         0.00000E+00
    0.00000E+00         0.00000E+00        -0.74488E+08
 
   -0.74363E+08         0.11917E+07         0.00000E+00
    0.11917E+07        -0.97106E+08         0.00000E+00
    0.00000E+00         0.00000E+00        -0.74300E+08
 
   -0.74183E+08         0.11827E+07         0.00000E+00
    0.11827E+07        -0.97048E+08         0.00000E+00
    0.00000E+00         0.00000E+00        -0.74115E+08
 
   -0.74003E+08         0.11736E+07         0.00000E+00
    0.11736E+07        -0.96989E+08         0.00000E+00
    0.00000E+00         0.00000E+00        -0.73932E+08
 
   -0.73825E+08         0.11643E+07         0.00000E+00
    0.11643E+07        -0.96931E+08         0.00000E+00
    0.00000E+00         0.00000E+00        -0.73752E+08
 
   -0.73649E+08         0.11551E+07         0.00000E+00
    0.11551E+07        -0.96871E+08         0.00000E+00
    0.00000E+00         0.00000E+00        -0.73575E+08
 
   -0.73473E+08         0.11458E+07         0.00000E+00
    0.11458E+07        -0.96812E+08         0.00000E+00
    0.00000E+00         0.00000E+00        -0.73399E+08
 
   -0.73299E+08         0.11366E+07         0.00000E+00
    0.11366E+07        -0.96752E+08         0.00000E+00
    0.00000E+00         0.00000E+00        -0.73226E+08
 
   -0.73126E+08         0.11275E+07         0.00000E+00
    0.11275E+07        -0.96692E+08         0.00000E+00
    0.00000E+00         0.00000E+00        -0.73055E+08
 
   -0.72954E+08         0.11185E+07         0.00000E+00
    0.11185E+07        -0.96632E+08         0.00000E+00
    0.00000E+00         0.00000E+00        -0.72886E+08
 
   -0.72784E+08         0.11097E+07         0.00000E+00
    0.11097E+07        -0.96572E+08         0.00000E+00
    0.00000E+00         0.00000E+00        -0.72719E+08
 
   -0.72614E+08         0.11010E+07         0.00000E+00
    0.11010E+07        -0.96511E+08         0.00000E+00
    0.00000E+00         0.00000E+00        -0.72553E+08
 
   -0.72446E+08         0.10926E+07         0.00000E+00
    0.10926E+07        -0.96451E+08         0.00000E+00
    0.00000E+00         0.00000E+00        -0.72389E+08
 
   -0.72278E+08         0.10844E+07         0.00000E+00
    0.10844E+07        -0.96391E+08         0.00000E+00
    0.00000E+00         0.00000E+00        -0.72226E+08
 
   -0.72112E+08         0.10764E+07         0.00000E+00
    0.10764E+07        -0.96331E+08         0.00000E+00
    0.00000E+00         0.00000E+00        -0.72064E+08
 
   -0.71946E+08         0.10687E+07         0.00000E+00
    0.10687E+07        -0.96270E+08         0.00000E+00
    0.00000E+00         0.00000E+00        -0.71904E+08
 
   -0.71781E+08         0.10613E+07         0.00000E+00
    0.10613E+07        -0.96210E+08         0.00000E+00
    0.00000E+00         0.00000E+00        -0.71744E+08
 
   -0.71617E+08         0.10541E+07         0.00000E+00
    0.10541E+07        -0.96150E+08         0.00000E+00
    0.00000E+00         0.00000E+00        -0.71586E+08
 
   -0.71454E+08         0.10472E+07         0.00000E+00
    0.10472E+07        -0.96090E+08         0.00000E+00
    0.00000E+00         0.00000E+00        -0.71428E+08
 
   -0.71291E+08         0.10405E+07         0.00000E+00
    0.10405E+07        -0.96030E+08         0.00000E+00
    0.00000E+00         0.00000E+00        -0.71271E+08
 
   -0.71129E+08         0.10341E+07         0.00000E+00
    0.10341E+07        -0.95970E+08         0.00000E+00
    0.00000E+00         0.00000E+00        -0.71114E+08
 
   -0.70967E+08         0.10280E+07         0.00000E+00
    0.10280E+07        -0.95911E+08         0.00000E+00
    0.00000E+00         0.00000E+00        -0.70958E+08
 
   -0.70805E+08         0.10220E+07         0.00000E+00
    0.10220E+07        -0.95851E+08         0.00000E+00
    0.00000E+00         0.00000E+00        -0.70801E+08
 
   -0.70644E+08         0.10163E+07         0.00000E+00
    0.10163E+07        -0.95792E+08         0.00000E+00
    0.00000E+00         0.00000E+00        -0.70645E+08
 
   -0.70483E+08         0.10108E+07         0.00000E+00
    0.10108E+07        -0.95733E+08         0.00000E+00
    0.00000E+00         0.00000E+00        -0.70489E+08
 
   -0.70322E+08         0.10055E+07         0.00000E+00
    0.10055E+07        -0.95674E+08         0.00000E+00
    0.00000E+00         0.00000E+00        -0.70333E+08
 
   -0.70161E+08         0.10003E+07         0.00000E+00
    0.10003E+07        -0.95616E+08         0.00000E+00
    0.00000E+00         0.00000E+00        -0.70177E+08
 
   -0.70001E+08         0.99531E+06         0.00000E+00
    0.99531E+06        -0.95558E+08         0.00000E+00
    0.00000E+00         0.00000E+00        -0.70020E+08
 
   -0.69840E+08         0.99035E+06         0.00000E+00
    0.99035E+06        -0.95500E+08         0.00000E+00
    0.00000E+00         0.00000E+00        -0.69863E+08
 
   -0.69679E+08         0.98545E+06         0.00000E+00
    0.98545E+06        -0.95443E+08         0.00000E+00
    0.00000E+00         0.00000E+00        -0.69705E+08
 
   -0.69518E+08         0.98057E+06         0.00000E+00
    0.98057E+06        -0.95386E+08         0.00000E+00
    0.00000E+00         0.00000E+00        -0.69546E+08
 
   -0.69357E+08         0.97565E+06         0.00000E+00
    0.97565E+06        -0.95330E+08         0.00000E+00
    0.00000E+00         0.00000E+00        -0.69387E+08
 
   -0.69196E+08         0.97064E+06         0.00000E+00
    0.97064E+06        -0.95274E+08         0.00000E+00
    0.00000E+00         0.00000E+00        -0.69227E+08
 
   -0.69034E+08         0.96549E+06         0.00000E+00
    0.96549E+06        -0.95219E+08         0.00000E+00
    0.00000E+00         0.00000E+00        -0.69065E+08
 
   -0.68873E+08         0.96015E+06         0.00000E+00
    0.96015E+06        -0.95164E+08         0.00000E+00
    0.00000E+00         0.00000E+00        -0.68903E+08
 
   -0.68710E+08         0.95453E+06         0.00000E+00
    0.95453E+06        -0.95111E+08         0.00000E+00
    0.00000E+00         0.00000E+00        -0.68739E+08
 
   -0.68548E+08         0.94857E+06         0.00000E+00
    0.94857E+06        -0.95058E+08         0.00000E+00
    0.00000E+00         0.00000E+00        -0.68573E+08
 
   -0.68385E+08         0.94219E+06         0.00000E+00
    0.94219E+06        -0.95006E+08         0.00000E+00
    0.00000E+00         0.00000E+00        -0.68407E+08
 
   -0.68223E+08         0.93529E+06         0.00000E+00
    0.93529E+06        -0.94955E+08         0.00000E+00
    0.00000E+00         0.00000E+00        -0.68238E+08
 
   -0.68059E+08         0.92777E+06         0.00000E+00
    0.92777E+06        -0.94905E+08         0.00000E+00
    0.00000E+00         0.00000E+00        -0.68068E+08
 
   -0.67896E+08         0.91953E+06         0.00000E+00
    0.91953E+06        -0.94856E+08         0.00000E+00
    0.00000E+00         0.00000E+00        -0.67897E+08
 
   -0.67733E+08         0.91043E+06         0.00000E+00
    0.91043E+06        -0.94809E+08         0.00000E+00
    0.00000E+00         0.00000E+00        -0.67723E+08
 
   -0.67569E+08         0.90033E+06         0.00000E+00
    0.90033E+06        -0.94764E+08         0.00000E+00
    0.00000E+00         0.00000E+00        -0.67548E+08
 
   -0.67406E+08         0.88908E+06         0.00000E+00
    0.88908E+06        -0.94720E+08         0.00000E+00
    0.00000E+00         0.00000E+00        -0.67370E+08
 
   -0.67243E+08         0.87650E+06         0.00000E+00
    0.87650E+06        -0.94678E+08         0.00000E+00
    0.00000E+00         0.00000E+00        -0.67191E+08
 
   -0.67081E+08         0.86239E+06         0.00000E+00
    0.86239E+06        -0.94638E+08         0.00000E+00
    0.00000E+00         0.00000E+00        -0.67010E+08
 
   -0.66919E+08         0.84654E+06         0.00000E+00
    0.84654E+06        -0.94601E+08         0.00000E+00
    0.00000E+00         0.00000E+00        -0.66826E+08
 
   -0.66757E+08         0.82868E+06         0.00000E+00
    0.82868E+06        -0.94567E+08         0.00000E+00
    0.00000E+00         0.00000E+00        -0.66641E+08
 
   -0.66597E+08         0.80856E+06         0.00000E+00
    0.80856E+06        -0.94536E+08         0.00000E+00
    0.00000E+00         0.00000E+00        -0.66454E+08
 
   -0.66438E+08         0.78586E+06         0.00000E+00
    0.78586E+06        -0.94507E+08         0.00000E+00
    0.00000E+00         0.00000E+00        -0.66265E+08
 
   -0.66280E+08         0.76028E+06         0.00000E+00
    0.76028E+06        -0.94483E+08         0.00000E+00
    0.00000E+00         0.00000E+00        -0.66074E+08
 
   -0.66123E+08         0.73148E+06         0.00000E+00
    0.73148E+06        -0.94462E+08         0.00000E+00
    0.00000E+00         0.00000E+00        -0.65881E+08
 
   -0.65968E+08         0.69911E+06         0.00000E+00
    0.69911E+06        -0.94445E+08         0.00000E+00
    0.00000E+00         0.00000E+00        -0.65686E+08
 
   -0.65815E+08         0.66284E+06         0.00000E+00
    0.66284E+06        -0.94433E+08         0.00000E+00
    0.00000E+00         0.00000E+00        -0.65490E+08
 
   -0.65664E+08         0.62237E+06         0.00000E+00
    0.62237E+06        -0.94424E+08         0.00000E+00
    0.00000E+00         0.00000E+00        -0.65292E+08
 
   -0.65514E+08         0.57744E+06         0.00000E+00
    0.57744E+06        -0.94419E+08         0.00000E+00
    0.00000E+00         0.00000E+00        -0.65093E+08
 
   -0.65366E+08         0.52793E+06         0.00000E+00
    0.52793E+06        -0.94418E+08         0.00000E+00
    0.00000E+00         0.00000E+00        -0.64891E+08
 
   -0.65220E+08         0.47386E+06         0.00000E+00
    0.47386E+06        -0.94419E+08         0.00000E+00
    0.00000E+00         0.00000E+00        -0.64688E+08
 
   -0.65074E+08         0.41552E+06         0.00000E+00
    0.41552E+06        -0.94421E+08         0.00000E+00
    0.00000E+00         0.00000E+00        -0.64481E+08
 
   -0.64929E+08         0.35356E+06         0.00000E+00
    0.35356E+06        -0.94423E+08         0.00000E+00
    0.00000E+00         0.00000E+00        -0.64269E+08
 
   -0.64783E+08         0.28917E+06         0.00000E+00
    0.28917E+06        -0.94421E+08         0.00000E+00
    0.00000E+00         0.00000E+00        -0.64051E+08
 
   -0.64638E+08         0.22429E+06         0.00000E+00
    0.22429E+06        -0.94412E+08         0.00000E+00
    0.00000E+00         0.00000E+00        -0.63824E+08
 
   -0.64494E+08         0.16179E+06         0.00000E+00
    0.16179E+06        -0.94392E+08         0.00000E+00
    0.00000E+00         0.00000E+00        -0.63584E+08
 
   -0.64351E+08         0.10557E+06         0.00000E+00
    0.10557E+06        -0.94357E+08         0.00000E+00
    0.00000E+00         0.00000E+00        -0.63323E+08
 
   -0.64213E+08         0.59891E+05         0.00000E+00
    0.59891E+05        -0.94300E+08         0.00000E+00
    0.00000E+00         0.00000E+00        -0.63036E+08
 
   -0.64086E+08         0.27999E+05         0.00000E+00
    0.27999E+05        -0.94219E+08         0.00000E+00
    0.00000E+00         0.00000E+00        -0.62712E+08
 
   -0.63978E+08         0.10088E+05         0.00000E+00
    0.10088E+05        -0.94112E+08         0.00000E+00
    0.00000E+00         0.00000E+00        -0.62346E+08
 
   -0.63895E+08         0.22003E+04         0.00000E+00
    0.22003E+04        -0.93979E+08         0.00000E+00
    0.00000E+00         0.00000E+00        -0.61933E+08
 
   -0.80637E+08        -0.34119E+04         0.00000E+00
   -0.34119E+04        -0.97825E+08         0.00000E+00
    0.00000E+00         0.00000E+00        -0.84635E+08
 
   -0.80576E+08         0.17889E+05         0.00000E+00
    0.17889E+05        -0.97654E+08         0.00000E+00
    0.00000E+00         0.00000E+00        -0.83963E+08
 
   -0.80468E+08         0.80491E+05         0.00000E+00
    0.80491E+05        -0.97464E+08         0.00000E+00
    0.00000E+00         0.00000E+00        -0.83398E+08
 
   -0.80358E+08         0.15030E+06         0.00000E+00
    0.15030E+06        -0.97328E+08         0.00000E+00
    0.00000E+00         0.00000E+00        -0.82898E+08
 
   -0.80219E+08         0.23816E+06         0.00000E+00
    0.23816E+06        -0.97283E+08         0.00000E+00
    0.00000E+00         0.00000E+00        -0.82404E+08
 
   -0.80078E+08         0.34545E+06         0.00000E+00
    0.34545E+06        -0.97270E+08         0.00000E+00
    0.00000E+00         0.00000E+00        -0.81930E+08
 
   -0.79919E+08         0.45943E+06         0.00000E+00
    0.45943E+06        -0.97316E+08         0.00000E+00
    0.00000E+00         0.00000E+00        -0.81486E+08
 
   -0.79744E+08         0.55054E+06         0.00000E+00
    0.55054E+06        -0.97374E+08         0.00000E+00
    0.00000E+00         0.00000E+00        -0.81091E+08
 
   -0.79559E+08         0.63336E+06         0.00000E+00
    0.63336E+06        -0.97397E+08         0.00000E+00
    0.00000E+00         0.00000E+00        -0.80738E+08
 
   -0.79366E+08         0.70717E+06         0.00000E+00
    0.70717E+06        -0.97402E+08         0.00000E+00
    0.00000E+00         0.00000E+00        -0.80402E+08
 
   -0.79165E+08         0.77935E+06         0.00000E+00
    0.77935E+06        -0.97404E+08         0.00000E+00
    0.00000E+00         0.00000E+00        -0.80080E+08
 
   -0.78957E+08         0.84662E+06         0.00000E+00
    0.84662E+06        -0.97411E+08         0.00000E+00
    0.00000E+00         0.00000E+00        -0.79768E+08
 
   -0.78745E+08         0.90710E+06         0.00000E+00
    0.90710E+06        -0.97424E+08         0.00000E+00
    0.00000E+00         0.00000E+00        -0.79464E+08
 
   -0.78529E+08         0.96002E+06         0.00000E+00
    0.96002E+06        -0.97442E+08         0.00000E+00
    0.00000E+00         0.00000E+00        -0.79166E+08
 
   -0.78311E+08         0.10056E+07         0.00000E+00
    0.10056E+07        -0.97462E+08         0.00000E+00
    0.00000E+00         0.00000E+00        -0.78873E+08
 
   -0.78091E+08         0.10445E+07         0.00000E+00
    0.10445E+07        -0.97482E+08         0.00000E+00
    0.00000E+00         0.00000E+00        -0.78583E+08
 
   -0.77869E+08         0.10776E+07         0.00000E+00
    0.10776E+07        -0.97501E+08         0.00000E+00
    0.00000E+00         0.00000E+00        -0.78296E+08
 
   -0.77646E+08         0.11055E+07         0.00000E+00
    0.11055E+07        -0.97519E+08         0.00000E+00
    0.00000E+00         0.00000E+00        -0.78012E+08
 
   -0.77420E+08         0.11287E+07         0.00000E+00
    0.11287E+07        -0.97535E+08         0.00000E+00
    0.00000E+00         0.00000E+00        -0.77731E+08
 
   -0.77192E+08         0.11480E+07         0.00000E+00
    0.11480E+07        -0.97548E+08         0.00000E+00
    0.00000E+00         0.00000E+00        -0.77452E+08
 
   -0.76962E+08         0.11636E+07         0.00000E+00
    0.11636E+07        -0.97560E+08         0.00000E+00
    0.00000E+00         0.00000E+00        -0.77176E+08
 
   -0.76730E+08         0.11762E+07         0.00000E+00
    0.11762E+07        -0.97569E+08         0.00000E+00
    0.00000E+00         0.00000E+00        -0.76901E+08
 
   -0.76497E+08         0.11861E+07         0.00000E+00
    0.11861E+07        -0.97577E+08         0.00000E+00
    0.00000E+00         0.00000E+00        -0.76630E+08
 
   -0.76262E+08         0.11936E+07         0.00000E+00
    0.11936E+07        -0.97583E+08         0.00000E+00
    0.00000E+00         0.00000E+00        -0.76361E+08
 
   -0.76037E+08         0.11978E+07         0.00000E+00
    0.11978E+07        -0.97577E+08         0.00000E+00
    0.00000E+00         0.00000E+00        -0.76106E+08
 
   -0.75840E+08         0.11970E+07         0.00000E+00
    0.11970E+07        -0.97538E+08         0.00000E+00
    0.00000E+00         0.00000E+00        -0.75882E+08
 
   -0.75653E+08         0.11937E+07         0.00000E+00
    0.11937E+07        -0.97488E+08         0.00000E+00
    0.00000E+00         0.00000E+00        -0.75672E+08
 
   -0.75466E+08         0.11891E+07         0.00000E+00
    0.11891E+07        -0.97437E+08         0.00000E+00
    0.00000E+00         0.00000E+00        -0.75464E+08
 
   -0.75279E+08         0.11836E+07         0.00000E+00
    0.11836E+07        -0.97384E+08         0.00000E+00
    0.00000E+00         0.00000E+00        -0.75261E+08
 
   -0.75094E+08         0.11772E+07         0.00000E+00
    0.11772E+07        -0.97330E+08         0.00000E+00
    0.00000E+00         0.00000E+00        -0.75061E+08
 
   -0.74909E+08         0.11702E+07         0.00000E+00
    0.11702E+07        -0.97275E+08         0.00000E+00
    0.00000E+00         0.00000E+00        -0.74864E+08
 
   -0.74725E+08         0.11626E+07         0.00000E+00
    0.11626E+07        -0.97219E+08         0.00000E+00
    0.00000E+00         0.00000E+00        -0.74670E+08
 
   -0.74542E+08         0.11546E+07         0.00000E+00
    0.11546E+07        -0.97162E+08         0.00000E+00
    0.00000E+00         0.00000E+00        -0.74479E+08
 
   -0.74360E+08         0.11463E+07         0.00000E+00
    0.11463E+07        -0.97105E+08         0.00000E+00
    0.00000E+00         0.00000E+00        -0.74292E+08
 
   -0.74180E+08         0.11377E+07         0.00000E+00
    0.11377E+07        -0.97047E+08         0.00000E+00
    0.00000E+00         0.00000E+00        -0.74107E+08
 
   -0.74001E+08         0.11290E+07         0.00000E+00
    0.11290E+07        -0.96988E+08         0.00000E+00
    0.00000E+00         0.00000E+00        -0.73925E+08
 
   -0.73823E+08         0.11202E+07         0.00000E+00
    0.11202E+07        -0.96929E+08         0.00000E+00
    0.00000E+00         0.00000E+00        -0.73745E+08
 
   -0.73646E+08         0.11113E+07         0.00000E+00
    0.11113E+07        -0.96870E+08         0.00000E+00
    0.00000E+00         0.00000E+00        -0.73568E+08
 
   -0.73471E+08         0.11025E+07         0.00000E+00
    0.11025E+07        -0.96811E+08         0.00000E+00
    0.00000E+00         0.00000E+00        -0.73393E+08
 
   -0.73296E+08         0.10937E+07         0.00000E+00
    0.10937E+07        -0.96751E+08         0.00000E+00
    0.00000E+00         0.00000E+00        -0.73220E+08
 
   -0.73124E+08         0.10850E+07         0.00000E+00
    0.10850E+07        -0.96692E+08         0.00000E+00
    0.00000E+00         0.00000E+00        -0.73049E+08
 
   -0.72952E+08         0.10764E+07         0.00000E+00
    0.10764E+07        -0.96632E+08         0.00000E+00
    0.00000E+00         0.00000E+00        -0.72880E+08
 
   -0.72781E+08         0.10679E+07         0.00000E+00
    0.10679E+07        -0.96572E+08         0.00000E+00
    0.00000E+00         0.00000E+00        -0.72713E+08
 
   -0.72612E+08         0.10597E+07         0.00000E+00
    0.10597E+07        -0.96511E+08         0.00000E+00
    0.00000E+00         0.00000E+00        -0.72547E+08
 
   -0.72443E+08         0.10516E+07         0.00000E+00
    0.10516E+07        -0.96451E+08         0.00000E+00
    0.00000E+00         0.00000E+00        -0.72383E+08
 
   -0.72276E+08         0.10438E+07         0.00000E+00
    0.10438E+07        -0.96391E+08         0.00000E+00
    0.00000E+00         0.00000E+00        -0.72221E+08
 
   -0.72109E+08         0.10361E+07         0.00000E+00
    0.10361E+07        -0.96331E+08         0.00000E+00
    0.00000E+00         0.00000E+00        -0.72060E+08
 
   -0.71944E+08         0.10287E+07         0.00000E+00
    0.10287E+07        -0.96271E+08         0.00000E+00
    0.00000E+00         0.00000E+00        -0.71899E+08
 
   -0.71779E+08         0.10216E+07         0.00000E+00
    0.10216E+07        -0.96211E+08         0.00000E+00
    0.00000E+00         0.00000E+00        -0.71740E+08
 
   -0.71615E+08         0.10147E+07         0.00000E+00
    0.10147E+07        -0.96150E+08         0.00000E+00
    0.00000E+00         0.00000E+00        -0.71582E+08
 
   -0.71451E+08         0.10081E+07         0.00000E+00
    0.10081E+07        -0.96091E+08         0.00000E+00
    0.00000E+00         0.00000E+00        -0.71424E+08
 
   -0.71288E+08         0.10017E+07         0.00000E+00
    0.10017E+07        -0.96031E+08         0.00000E+00
    0.00000E+00         0.00000E+00        -0.71267E+08
 
   -0.71126E+08         0.99551E+06         0.00000E+00
    0.99551E+06        -0.95971E+08         0.00000E+00
    0.00000E+00         0.00000E+00        -0.71111E+08
 
   -0.70964E+08         0.98959E+06         0.00000E+00
    0.98959E+06        -0.95912E+08         0.00000E+00
    0.00000E+00         0.00000E+00        -0.70955E+08
 
   -0.70803E+08         0.98389E+06         0.00000E+00
    0.98389E+06        -0.95852E+08         0.00000E+00
    0.00000E+00         0.00000E+00        -0.70799E+08
 
   -0.70641E+08         0.97840E+06         0.00000E+00
    0.97840E+06        -0.95793E+08         0.00000E+00
    0.00000E+00         0.00000E+00        -0.70643E+08
 
   -0.70480E+08         0.97311E+06         0.00000E+00
    0.97311E+06        -0.95734E+08         0.00000E+00
    0.00000E+00         0.00000E+00        -0.70487E+08
 
   -0.70319E+08         0.96797E+06         0.00000E+00
    0.96797E+06        -0.95676E+08         0.00000E+00
    0.00000E+00         0.00000E+00        -0.70331E+08
 
   -0.70159E+08         0.96299E+06         0.00000E+00
    0.96299E+06        -0.95617E+08         0.00000E+00
    0.00000E+00         0.00000E+00        -0.70175E+08
 
   -0.69998E+08         0.95811E+06         0.00000E+00
    0.95811E+06        -0.95559E+08         0.00000E+00
    0.00000E+00         0.00000E+00        -0.70019E+08
 
   -0.69837E+08         0.95332E+06         0.00000E+00
    0.95332E+06        -0.95502E+08         0.00000E+00
    0.00000E+00         0.00000E+00        -0.69861E+08
 
   -0.69676E+08         0.94858E+06         0.00000E+00
    0.94858E+06        -0.95444E+08         0.00000E+00
    0.00000E+00         0.00000E+00        -0.69704E+08
 
   -0.69515E+08         0.94385E+06         0.00000E+00
    0.94385E+06        -0.95388E+08         0.00000E+00
    0.00000E+00         0.00000E+00        -0.69545E+08
 
   -0.69354E+08         0.93908E+06         0.00000E+00
    0.93908E+06        -0.95331E+08         0.00000E+00
    0.00000E+00         0.00000E+00        -0.69386E+08
 
   -0.69193E+08         0.93422E+06         0.00000E+00
    0.93422E+06        -0.95276E+08         0.00000E+00
    0.00000E+00         0.00000E+00        -0.69226E+08
 
   -0.69031E+08         0.92923E+06         0.00000E+00
    0.92923E+06        -0.95221E+08         0.00000E+00
    0.00000E+00         0.00000E+00        -0.69064E+08
 
   -0.68870E+08         0.92404E+06         0.00000E+00
    0.92404E+06        -0.95166E+08         0.00000E+00
    0.00000E+00         0.00000E+00        -0.68902E+08
 
   -0.68708E+08         0.91858E+06         0.00000E+00
    0.91858E+06        -0.95112E+08         0.00000E+00
    0.00000E+00         0.00000E+00        -0.68738E+08
 
   -0.68545E+08         0.91280E+06         0.00000E+00
    0.91280E+06        -0.95059E+08         0.00000E+00
    0.00000E+00         0.00000E+00        -0.68573E+08
 
   -0.68383E+08         0.90660E+06         0.00000E+00
    0.90660E+06        -0.95007E+08         0.00000E+00
    0.00000E+00         0.00000E+00        -0.68406E+08
 
   -0.68220E+08         0.89990E+06         0.00000E+00
    0.89990E+06        -0.94956E+08         0.00000E+00
    0.00000E+00         0.00000E+00        -0.68238E+08
 
   -0.68057E+08         0.89260E+06         0.00000E+00
    0.89260E+06        -0.94906E+08         0.00000E+00
    0.00000E+00         0.00000E+00        -0.68067E+08
 
   -0.67894E+08         0.88460E+06         0.00000E+00
    0.88460E+06        -0.94858E+08         0.00000E+00
    0.00000E+00         0.00000E+00        -0.67896E+08
 
   -0.67730E+08         0.87577E+06         0.00000E+00
    0.87577E+06        -0.94810E+08         0.00000E+00
    0.00000E+00         0.00000E+00        -0.67722E+08
 
   -0.67567E+08         0.86597E+06         0.00000E+00
    0.86597E+06        -0.94765E+08         0.00000E+00
    0.00000E+00         0.00000E+00        -0.67546E+08
 
   -0.67404E+08         0.85506E+06         0.00000E+00
    0.85506E+06        -0.94721E+08         0.00000E+00
    0.00000E+00         0.00000E+00        -0.67369E+08
 
   -0.67241E+08         0.84286E+06         0.00000E+00
    0.84286E+06        -0.94679E+08         0.00000E+00
    0.00000E+00         0.00000E+00        -0.67189E+08
 
   -0.67079E+08         0.82917E+06         0.00000E+00
    0.82917E+06        -0.94639E+08         0.00000E+00
    0.00000E+00         0.00000E+00        -0.67008E+08
 
   -0.66917E+08         0.81377E+06         0.00000E+00
    0.81377E+06        -0.94601E+08         0.00000E+00
    0.00000E+00         0.00000E+00        -0.66824E+08
 
   -0.66756E+08         0.79643E+06         0.00000E+00
    0.79643E+06        -0.94566E+08         0.00000E+00
    0.00000E+00         0.00000E+00        -0.66638E+08
 
   -0.66596E+08         0.77687E+06         0.00000E+00
    0.77687E+06        -0.94534E+08         0.00000E+00
    0.00000E+00         0.00000E+00        -0.66450E+08
 
   -0.66437E+08         0.75479E+06         0.00000E+00
    0.75479E+06        -0.94506E+08         0.00000E+00
    0.00000E+00         0.00000E+00        -0.66260E+08
 
   -0.66280E+08         0.72987E+06         0.00000E+00
    0.72987E+06        -0.94481E+08         0.00000E+00
    0.00000E+00         0.00000E+00        -0.66068E+08
 
   -0.66124E+08         0.70177E+06         0.00000E+00
    0.70177E+06        -0.94459E+08         0.00000E+00
    0.00000E+00         0.00000E+00        -0.65874E+08
 
   -0.65970E+08         0.67014E+06         0.00000E+00
    0.67014E+06        -0.94442E+08         0.00000E+00
    0.00000E+00         0.00000E+00        -0.65679E+08
 
   -0.65818E+08         0.63463E+06         0.00000E+00
    0.63463E+06        -0.94429E+08         0.00000E+00
    0.00000E+00         0.00000E+00        -0.65481E+08
 
   -0.65667E+08         0.59493E+06         0.00000E+00
    0.59493E+06        -0.94419E+08         0.00000E+00
    0.00000E+00         0.00000E+00        -0.65282E+08
 
   -0.65519E+08         0.55079E+06         0.00000E+00
    0.55079E+06        -0.94414E+08         0.00000E+00
    0.00000E+00         0.00000E+00        -0.65081E+08
 
   -0.65372E+08         0.50205E+06         0.00000E+00
    0.50205E+06        -0.94412E+08         0.00000E+00
    0.00000E+00         0.00000E+00        -0.64877E+08
 
   -0.65227E+08         0.44874E+06         0.00000E+00
    0.44874E+06        -0.94412E+08         0.00000E+00
    0.00000E+00         0.00000E+00        -0.64671E+08
 
   -0.65084E+08         0.39113E+06         0.00000E+00
    0.39113E+06        -0.94414E+08         0.00000E+00
    0.00000E+00         0.00000E+00        -0.64462E+08
 
   -0.64941E+08         0.32991E+06         0.00000E+00
    0.32991E+06        -0.94416E+08         0.00000E+00
    0.00000E+00         0.00000E+00        -0.64249E+08
 
   -0.64800E+08         0.26631E+06         0.00000E+00
    0.26631E+06        -0.94415E+08         0.00000E+00
    0.00000E+00         0.00000E+00        -0.64029E+08
 
   -0.64658E+08         0.20236E+06         0.00000E+00
    0.20236E+06        -0.94407E+08         0.00000E+00
    0.00000E+00         0.00000E+00        -0.63800E+08
 
   -0.64518E+08         0.14113E+06         0.00000E+00
    0.14113E+06        -0.94390E+08         0.00000E+00
    0.00000E+00         0.00000E+00        -0.63558E+08
 
   -0.64379E+08         0.86753E+05         0.00000E+00
    0.86753E+05        -0.94357E+08         0.00000E+00
    0.00000E+00         0.00000E+00        -0.63297E+08
 
   -0.64246E+08         0.43826E+05         0.00000E+00
    0.43826E+05        -0.94305E+08         0.00000E+00
    0.00000E+00         0.00000E+00        -0.63010E+08
 
   -0.64122E+08         0.15705E+05         0.00000E+00
    0.15705E+05        -0.94228E+08         0.00000E+00
    0.00000E+00         0.00000E+00        -0.62689E+08
 
   -0.64016E+08         0.24098E+04         0.00000E+00
    0.24098E+04        -0.94124E+08         0.00000E+00
    0.00000E+00         0.00000E+00        -0.62324E+08
 
   -0.63934E+08        -0.40190E+03         0.00000E+00
   -0.40190E+03        -0.93993E+08         0.00000E+00
    0.00000E+00         0.00000E+00        -0.61912E+08
 
   -0.80551E+08        -0.66682E+04         0.00000E+00
   -0.66682E+04        -0.97827E+08         0.00000E+00
    0.00000E+00         0.00000E+00        -0.84670E+08
 
   -0.80497E+08         0.35322E+03         0.00000E+00
    0.35322E+03        -0.97650E+08         0.00000E+00
    0.00000E+00         0.00000E+00        -0.84003E+08
 
   -0.80387E+08         0.56873E+05         0.00000E+00
    0.56873E+05        -0.97478E+08         0.00000E+00
    0.00000E+00         0.00000E+00        -0.83418E+08
 
   -0.80265E+08         0.12486E+06         0.00000E+00
    0.12486E+06        -0.97351E+08         0.00000E+00
    0.00000E+00         0.00000E+00        -0.82904E+08
 
   -0.80143E+08         0.21180E+06         0.00000E+00
    0.21180E+06        -0.97296E+08         0.00000E+00
    0.00000E+00         0.00000E+00        -0.82416E+08
 
   -0.80015E+08         0.31738E+06         0.00000E+00
    0.31738E+06        -0.97290E+08         0.00000E+00
    0.00000E+00         0.00000E+00        -0.81951E+08
 
   -0.79859E+08         0.42531E+06         0.00000E+00
    0.42531E+06        -0.97347E+08         0.00000E+00
    0.00000E+00         0.00000E+00        -0.81506E+08
 
   -0.79702E+08         0.51643E+06         0.00000E+00
    0.51643E+06        -0.97392E+08         0.00000E+00
    0.00000E+00         0.00000E+00        -0.81122E+08
 
   -0.79526E+08         0.59606E+06         0.00000E+00
    0.59606E+06        -0.97412E+08         0.00000E+00
    0.00000E+00         0.00000E+00        -0.80763E+08
 
   -0.79339E+08         0.66852E+06         0.00000E+00
    0.66852E+06        -0.97417E+08         0.00000E+00
    0.00000E+00         0.00000E+00        -0.80422E+08
 
   -0.79144E+08         0.73883E+06         0.00000E+00
    0.73883E+06        -0.97418E+08         0.00000E+00
    0.00000E+00         0.00000E+00        -0.80094E+08
 
   -0.78940E+08         0.80485E+06         0.00000E+00
    0.80485E+06        -0.97424E+08         0.00000E+00
    0.00000E+00         0.00000E+00        -0.79778E+08
 
   -0.78730E+08         0.86443E+06         0.00000E+00
    0.86443E+06        -0.97435E+08         0.00000E+00
    0.00000E+00         0.00000E+00        -0.79470E+08
 
   -0.78516E+08         0.91675E+06         0.00000E+00
    0.91675E+06        -0.97452E+08         0.00000E+00
    0.00000E+00         0.00000E+00        -0.79168E+08
 
   -0.78300E+08         0.96190E+06         0.00000E+00
    0.96190E+06        -0.97470E+08         0.00000E+00
    0.00000E+00         0.00000E+00        -0.78872E+08
 
   -0.78081E+08         0.10005E+07         0.00000E+00
    0.10005E+07        -0.97489E+08         0.00000E+00
    0.00000E+00         0.00000E+00        -0.78580E+08
 
   -0.77860E+08         0.10331E+07         0.00000E+00
    0.10331E+07        -0.97507E+08         0.00000E+00
    0.00000E+00         0.00000E+00        -0.78291E+08
 
   -0.77637E+08         0.10606E+07         0.00000E+00
    0.10606E+07        -0.97524E+08         0.00000E+00
    0.00000E+00         0.00000E+00        -0.78005E+08
 
   -0.77411E+08         0.10834E+07         0.00000E+00
    0.10834E+07        -0.97539E+08         0.00000E+00
    0.00000E+00         0.00000E+00        -0.77723E+08
 
   -0.77184E+08         0.11022E+07         0.00000E+00
    0.11022E+07        -0.97552E+08         0.00000E+00
    0.00000E+00         0.00000E+00        -0.77443E+08
 
   -0.76954E+08         0.11175E+07         0.00000E+00
    0.11175E+07        -0.97562E+08         0.00000E+00
    0.00000E+00         0.00000E+00        -0.77165E+08
 
   -0.76723E+08         0.11297E+07         0.00000E+00
    0.11297E+07        -0.97571E+08         0.00000E+00
    0.00000E+00         0.00000E+00        -0.76891E+08
 
   -0.76489E+08         0.11392E+07         0.00000E+00
    0.11392E+07        -0.97579E+08         0.00000E+00
    0.00000E+00         0.00000E+00        -0.76619E+08
 
   -0.76255E+08         0.11465E+07         0.00000E+00
    0.11465E+07        -0.97585E+08         0.00000E+00
    0.00000E+00         0.00000E+00        -0.76350E+08
 
   -0.76032E+08         0.11504E+07         0.00000E+00
    0.11504E+07        -0.97576E+08         0.00000E+00
    0.00000E+00         0.00000E+00        -0.76096E+08
 
   -0.75836E+08         0.11495E+07         0.00000E+00
    0.11495E+07        -0.97536E+08         0.00000E+00
    0.00000E+00         0.00000E+00        -0.75873E+08
 
   -0.75649E+08         0.11463E+07         0.00000E+00
    0.11463E+07        -0.97486E+08         0.00000E+00
    0.00000E+00         0.00000E+00        -0.75663E+08
 
   -0.75462E+08         0.11420E+07         0.00000E+00
    0.11420E+07        -0.97435E+08         0.00000E+00
    0.00000E+00         0.00000E+00        -0.75456E+08
 
   -0.75276E+08         0.11367E+07         0.00000E+00
    0.11367E+07        -0.97382E+08         0.00000E+00
    0.00000E+00         0.00000E+00        -0.75252E+08
 
   -0.75090E+08         0.11306E+07         0.00000E+00
    0.11306E+07        -0.97328E+08         0.00000E+00
    0.00000E+00         0.00000E+00        -0.75052E+08
 
   -0.74906E+08         0.11238E+07         0.00000E+00
    0.11238E+07        -0.97273E+08         0.00000E+00
    0.00000E+00         0.00000E+00        -0.74855E+08
 
   -0.74722E+08         0.11166E+07         0.00000E+00
    0.11166E+07        -0.97217E+08         0.00000E+00
    0.00000E+00         0.00000E+00        -0.74662E+08
 
   -0.74539E+08         0.11090E+07         0.00000E+00
    0.11090E+07        -0.97160E+08         0.00000E+00
    0.00000E+00         0.00000E+00        -0.74471E+08
 
   -0.74358E+08         0.11010E+07         0.00000E+00
    0.11010E+07        -0.97103E+08         0.00000E+00
    0.00000E+00         0.00000E+00        -0.74284E+08
 
   -0.74177E+08         0.10928E+07         0.00000E+00
    0.10928E+07        -0.97045E+08         0.00000E+00
    0.00000E+00         0.00000E+00        -0.74099E+08
 
   -0.73998E+08         0.10845E+07         0.00000E+00
    0.10845E+07        -0.96987E+08         0.00000E+00
    0.00000E+00         0.00000E+00        -0.73917E+08
 
   -0.73820E+08         0.10761E+07         0.00000E+00
    0.10761E+07        -0.96929E+08         0.00000E+00
    0.00000E+00         0.00000E+00        -0.73738E+08
 
   -0.73644E+08         0.10677E+07         0.00000E+00
    0.10677E+07        -0.96870E+08         0.00000E+00
    0.00000E+00         0.00000E+00        -0.73561E+08
 
   -0.73468E+08         0.10592E+07         0.00000E+00
    0.10592E+07        -0.96810E+08         0.00000E+00
    0.00000E+00         0.00000E+00        -0.73386E+08
 
   -0.73294E+08         0.10508E+07         0.00000E+00
    0.10508E+07        -0.96751E+08         0.00000E+00
    0.00000E+00         0.00000E+00        -0.73213E+08
 
   -0.73121E+08         0.10425E+07         0.00000E+00
    0.10425E+07        -0.96691E+08         0.00000E+00
    0.00000E+00         0.00000E+00        -0.73043E+08
 
   -0.72950E+08         0.10343E+07         0.00000E+00
    0.10343E+07        -0.96631E+08         0.00000E+00
    0.00000E+00         0.00000E+00        -0.72874E+08
 
   -0.72779E+08         0.10262E+07         0.00000E+00
    0.10262E+07        -0.96571E+08         0.00000E+00
    0.00000E+00         0.00000E+00        -0.72707E+08
 
   -0.72610E+08         0.10183E+07         0.00000E+00
    0.10183E+07        -0.96511E+08         0.00000E+00
    0.00000E+00         0.00000E+00        -0.72542E+08
 
   -0.72441E+08         0.10106E+07         0.00000E+00
    0.10106E+07        -0.96451E+08         0.00000E+00
    0.00000E+00         0.00000E+00        -0.72378E+08
 
   -0.72274E+08         0.10031E+07         0.00000E+00
    0.10031E+07        -0.96391E+08         0.00000E+00
    0.00000E+00         0.00000E+00        -0.72216E+08
 
   -0.72107E+08         0.99582E+06         0.00000E+00
    0.99582E+06        -0.96331E+08         0.00000E+00
    0.00000E+00         0.00000E+00        -0.72055E+08
 
   -0.71941E+08         0.98874E+06         0.00000E+00
    0.98874E+06        -0.96271E+08         0.00000E+00
    0.00000E+00         0.00000E+00        -0.71895E+08
 
   -0.71777E+08         0.98190E+06         0.00000E+00
    0.98190E+06        -0.96211E+08         0.00000E+00
    0.00000E+00         0.00000E+00        -0.71736E+08
 
   -0.71612E+08         0.97530E+06         0.00000E+00
    0.97530E+06        -0.96151E+08         0.00000E+00
    0.00000E+00         0.00000E+00        -0.71578E+08
 
   -0.71449E+08         0.96893E+06         0.00000E+00
    0.96893E+06        -0.96091E+08         0.00000E+00
    0.00000E+00         0.00000E+00        -0.71421E+08
 
   -0.71286E+08         0.96280E+06         0.00000E+00
    0.96280E+06        -0.96031E+08         0.00000E+00
    0.00000E+00         0.00000E+00        -0.71264E+08
 
   -0.71124E+08         0.95689E+06         0.00000E+00
    0.95689E+06        -0.95972E+08         0.00000E+00
    0.00000E+00         0.00000E+00        -0.71108E+08
 
   -0.70962E+08         0.95121E+06         0.00000E+00
    0.95121E+06        -0.95912E+08         0.00000E+00
    0.00000E+00         0.00000E+00        -0.70952E+08
 
   -0.70800E+08         0.94573E+06         0.00000E+00
    0.94573E+06        -0.95853E+08         0.00000E+00
    0.00000E+00         0.00000E+00        -0.70796E+08
 
   -0.70639E+08         0.94045E+06         0.00000E+00
    0.94045E+06        -0.95794E+08         0.00000E+00
    0.00000E+00         0.00000E+00        -0.70641E+08
 
   -0.70478E+08         0.93535E+06         0.00000E+00
    0.93535E+06        -0.95735E+08         0.00000E+00
    0.00000E+00         0.00000E+00        -0.70485E+08
 
   -0.70317E+08         0.93041E+06         0.00000E+00
    0.93041E+06        -0.95677E+08         0.00000E+00
    0.00000E+00         0.00000E+00        -0.70329E+08
 
   -0.70156E+08         0.92560E+06         0.00000E+00
    0.92560E+06        -0.95619E+08         0.00000E+00
    0.00000E+00         0.00000E+00        -0.70173E+08
 
   -0.69995E+08         0.92090E+06         0.00000E+00
    0.92090E+06        -0.95561E+08         0.00000E+00
    0.00000E+00         0.00000E+00        -0.70017E+08
 
   -0.69834E+08         0.91628E+06         0.00000E+00
    0.91628E+06        -0.95503E+08         0.00000E+00
    0.00000E+00         0.00000E+00        -0.69860E+08
 
   -0.69673E+08         0.91170E+06         0.00000E+00
    0.91170E+06        -0.95446E+08         0.00000E+00
    0.00000E+00         0.00000E+00        -0.69703E+08
 
   -0.69512E+08         0.90712E+06         0.00000E+00
    0.90712E+06        -0.95389E+08         0.00000E+00
    0.00000E+00         0.00000E+00        -0.69544E+08
 
   -0.69351E+08         0.90250E+06         0.00000E+00
    0.90250E+06        -0.95333E+08         0.00000E+00
    0.00000E+00         0.00000E+00        -0.69385E+08
 
   -0.69190E+08         0.89779E+06         0.00000E+00
    0.89779E+06        -0.95277E+08         0.00000E+00
    0.00000E+00         0.00000E+00        -0.69225E+08
 
   -0.69028E+08         0.89295E+06         0.00000E+00
    0.89295E+06        -0.95222E+08         0.00000E+00
    0.00000E+00         0.00000E+00        -0.69064E+08
 
   -0.68867E+08         0.88792E+06         0.00000E+00
    0.88792E+06        -0.95168E+08         0.00000E+00
    0.00000E+00         0.00000E+00        -0.68901E+08
 
   -0.68705E+08         0.88263E+06         0.00000E+00
    0.88263E+06        -0.95114E+08         0.00000E+00
    0.00000E+00         0.00000E+00        -0.68737E+08
 
   -0.68542E+08         0.87702E+06         0.00000E+00
    0.87702E+06        -0.95061E+08         0.00000E+00
    0.00000E+00         0.00000E+00        -0.68572E+08
 
   -0.68380E+08         0.87101E+06         0.00000E+00
    0.87101E+06        -0.95009E+08         0.00000E+00
    0.00000E+00         0.00000E+00        -0.68405E+08
 
   -0.68217E+08         0.86451E+06         0.00000E+00
    0.86451E+06        -0.94958E+08         0.00000E+00
    0.00000E+00         0.00000E+00        -0.68237E+08
 
   -0.68054E+08         0.85744E+06         0.00000E+00
    0.85744E+06        -0.94908E+08         0.00000E+00
    0.00000E+00         0.00000E+00        -0.68067E+08
 
   -0.67891E+08         0.84969E+06         0.00000E+00
    0.84969E+06        -0.94859E+08         0.00000E+00
    0.00000E+00         0.00000E+00        -0.67895E+08
 
   -0.67728E+08         0.84113E+06         0.00000E+00
    0.84113E+06        -0.94811E+08         0.00000E+00
    0.00000E+00         0.00000E+00        -0.67721E+08
 
   -0.67565E+08         0.83164E+06         0.00000E+00
    0.83164E+06        -0.94765E+08         0.00000E+00
    0.00000E+00         0.00000E+00        -0.67545E+08
 
   -0.67402E+08         0.82107E+06         0.00000E+00
    0.82107E+06        -0.94721E+08         0.00000E+00
    0.00000E+00         0.00000E+00        -0.67367E+08
 
   -0.67239E+08         0.80925E+06         0.00000E+00
    0.80925E+06        -0.94679E+08         0.00000E+00
    0.00000E+00         0.00000E+00        -0.67187E+08
 
   -0.67077E+08         0.79599E+06         0.00000E+00
    0.79599E+06        -0.94639E+08         0.00000E+00
    0.00000E+00         0.00000E+00        -0.67005E+08
 
   -0.66916E+08         0.78107E+06         0.00000E+00
    0.78107E+06        -0.94601E+08         0.00000E+00
    0.00000E+00         0.00000E+00        -0.66821E+08
 
   -0.66755E+08         0.76425E+06         0.00000E+00
    0.76425E+06        -0.94566E+08         0.00000E+00
    0.00000E+00         0.00000E+00        -0.66635E+08
 
   -0.66595E+08         0.74527E+06         0.00000E+00
    0.74527E+06        -0.94533E+08         0.00000E+00
    0.00000E+00         0.00000E+00        -0.66446E+08
 
   -0.66437E+08         0.72382E+06         0.00000E+00
    0.72382E+06        -0.94504E+08         0.00000E+00
    0.00000E+00         0.00000E+00        -0.66256E+08
 
   -0.66280E+08         0.69958E+06         0.00000E+00
    0.69958E+06        -0.94479E+08         0.00000E+00
    0.00000E+00         0.00000E+00        -0.66063E+08
 
   -0.66125E+08         0.67220E+06         0.00000E+00
    0.67220E+06        -0.94457E+08         0.00000E+00
    0.00000E+00         0.00000E+00        -0.65868E+08
 
   -0.65971E+08         0.64134E+06         0.00000E+00
    0.64134E+06        -0.94439E+08         0.00000E+00
    0.00000E+00         0.00000E+00        -0.65671E+08
 
   -0.65820E+08         0.60664E+06         0.00000E+00
    0.60664E+06        -0.94424E+08         0.00000E+00
    0.00000E+00         0.00000E+00        -0.65472E+08
 
   -0.65670E+08         0.56778E+06         0.00000E+00
    0.56778E+06        -0.94415E+08         0.00000E+00
    0.00000E+00         0.00000E+00        -0.65272E+08
 
   -0.65523E+08         0.52448E+06         0.00000E+00
    0.52448E+06        -0.94408E+08         0.00000E+00
    0.00000E+00         0.00000E+00        -0.65069E+08
 
   -0.65378E+08         0.47659E+06         0.00000E+00
    0.47659E+06        -0.94406E+08         0.00000E+00
    0.00000E+00         0.00000E+00        -0.64863E+08
 
   -0.65235E+08         0.42412E+06         0.00000E+00
    0.42412E+06        -0.94406E+08         0.00000E+00
    0.00000E+00         0.00000E+00        -0.64655E+08
 
   -0.65094E+08         0.36736E+06         0.00000E+00
    0.36736E+06        -0.94408E+08         0.00000E+00
    0.00000E+00         0.00000E+00        -0.64444E+08
 
   -0.64955E+08         0.30699E+06         0.00000E+00
    0.30699E+06        -0.94409E+08         0.00000E+00
    0.00000E+00         0.00000E+00        -0.64228E+08
 
   -0.64816E+08         0.24428E+06         0.00000E+00
    0.24428E+06        -0.94409E+08         0.00000E+00
    0.00000E+00         0.00000E+00        -0.64006E+08
 
   -0.64679E+08         0.18134E+06         0.00000E+00
    0.18134E+06        -0.94403E+08         0.00000E+00
    0.00000E+00         0.00000E+00        -0.63775E+08
 
   -0.64543E+08         0.12138E+06         0.00000E+00
    0.12138E+06        -0.94388E+08         0.00000E+00
    0.00000E+00         0.00000E+00        -0.63532E+08
 
   -0.64408E+08         0.68792E+05         0.00000E+00
    0.68792E+05        -0.94358E+08         0.00000E+00
    0.00000E+00         0.00000E+00        -0.63271E+08
 
   -0.64279E+08         0.28433E+05         0.00000E+00
    0.28433E+05        -0.94310E+08         0.00000E+00
    0.00000E+00         0.00000E+00        -0.62985E+08
 
   -0.64159E+08         0.38483E+04         0.00000E+00
    0.38483E+04        -0.94238E+08         0.00000E+00
    0.00000E+00         0.00000E+00        -0.62665E+08
 
   -0.64054E+08        -0.50456E+04         0.00000E+00
   -0.50456E+04        -0.94137E+08         0.00000E+00
    0.00000E+00         0.00000E+00        -0.62303E+08
 
   -0.63974E+08        -0.29391E+04         0.00000E+00
   -0.29391E+04        -0.94008E+08         0.00000E+00
    0.00000E+00         0.00000E+00        -0.61892E+08
 
   -0.80466E+08        -0.11371E+05         0.00000E+00
   -0.11371E+05        -0.97825E+08         0.00000E+00
    0.00000E+00         0.00000E+00        -0.84703E+08
 
   -0.80419E+08        -0.14392E+05         0.00000E+00
   -0.14392E+05        -0.97647E+08         0.00000E+00
    0.00000E+00         0.00000E+00        -0.84041E+08
 
   -0.80307E+08         0.31152E+05         0.00000E+00
    0.31152E+05        -0.97486E+08         0.00000E+00
    0.00000E+00         0.00000E+00        -0.83443E+08
 
   -0.80196E+08         0.10193E+06         0.00000E+00
    0.10193E+06        -0.97368E+08         0.00000E+00
    0.00000E+00         0.00000E+00        -0.82927E+08
 
   -0.80079E+08         0.18679E+06         0.00000E+00
    0.18679E+06        -0.97313E+08         0.00000E+00
    0.00000E+00         0.00000E+00        -0.82439E+08
 
   -0.79952E+08         0.29087E+06         0.00000E+00
    0.29087E+06        -0.97322E+08         0.00000E+00
    0.00000E+00         0.00000E+00        -0.81971E+08
 
   -0.79816E+08         0.39367E+06         0.00000E+00
    0.39367E+06        -0.97369E+08         0.00000E+00
    0.00000E+00         0.00000E+00        -0.81542E+08
 
   -0.79664E+08         0.48429E+06         0.00000E+00
    0.48429E+06        -0.97408E+08         0.00000E+00
    0.00000E+00         0.00000E+00        -0.81154E+08
 
   -0.79495E+08         0.56009E+06         0.00000E+00
    0.56009E+06        -0.97427E+08         0.00000E+00
    0.00000E+00         0.00000E+00        -0.80788E+08
 
   -0.79314E+08         0.63091E+06         0.00000E+00
    0.63091E+06        -0.97431E+08         0.00000E+00
    0.00000E+00         0.00000E+00        -0.80441E+08
 
   -0.79123E+08         0.69923E+06         0.00000E+00
    0.69923E+06        -0.97431E+08         0.00000E+00
    0.00000E+00         0.00000E+00        -0.80109E+08
 
   -0.78923E+08         0.76375E+06         0.00000E+00
    0.76375E+06        -0.97436E+08         0.00000E+00
    0.00000E+00         0.00000E+00        -0.79788E+08
 
   -0.78716E+08         0.82226E+06         0.00000E+00
    0.82226E+06        -0.97446E+08         0.00000E+00
    0.00000E+00         0.00000E+00        -0.79476E+08
 
   -0.78505E+08         0.87384E+06         0.00000E+00
    0.87384E+06        -0.97461E+08         0.00000E+00
    0.00000E+00         0.00000E+00        -0.79171E+08
 
   -0.78290E+08         0.91843E+06         0.00000E+00
    0.91843E+06        -0.97478E+08         0.00000E+00
    0.00000E+00         0.00000E+00        -0.78871E+08
 
   -0.78072E+08         0.95652E+06         0.00000E+00
    0.95652E+06        -0.97496E+08         0.00000E+00
    0.00000E+00         0.00000E+00        -0.78576E+08
 
   -0.77851E+08         0.98875E+06         0.00000E+00
    0.98875E+06        -0.97513E+08         0.00000E+00
    0.00000E+00         0.00000E+00        -0.78286E+08
 
   -0.77629E+08         0.10158E+07         0.00000E+00
    0.10158E+07        -0.97529E+08         0.00000E+00
    0.00000E+00         0.00000E+00        -0.77998E+08
 
   -0.77404E+08         0.10382E+07         0.00000E+00
    0.10382E+07        -0.97543E+08         0.00000E+00
    0.00000E+00         0.00000E+00        -0.77714E+08
 
   -0.77176E+08         0.10565E+07         0.00000E+00
    0.10565E+07        -0.97555E+08         0.00000E+00
    0.00000E+00         0.00000E+00        -0.77433E+08
 
   -0.76947E+08         0.10714E+07         0.00000E+00
    0.10714E+07        -0.97565E+08         0.00000E+00
    0.00000E+00         0.00000E+00        -0.77155E+08
 
   -0.76716E+08         0.10832E+07         0.00000E+00
    0.10832E+07        -0.97573E+08         0.00000E+00
    0.00000E+00         0.00000E+00        -0.76880E+08
 
   -0.76483E+08         0.10924E+07         0.00000E+00
    0.10924E+07        -0.97580E+08         0.00000E+00
    0.00000E+00         0.00000E+00        -0.76608E+08
 
   -0.76249E+08         0.10994E+07         0.00000E+00
    0.10994E+07        -0.97586E+08         0.00000E+00
    0.00000E+00         0.00000E+00        -0.76339E+08
 
   -0.76027E+08         0.11030E+07         0.00000E+00
    0.11030E+07        -0.97576E+08         0.00000E+00
    0.00000E+00         0.00000E+00        -0.76086E+08
 
   -0.75833E+08         0.11021E+07         0.00000E+00
    0.11021E+07        -0.97534E+08         0.00000E+00
    0.00000E+00         0.00000E+00        -0.75865E+08
 
   -0.75646E+08         0.10990E+07         0.00000E+00
    0.10990E+07        -0.97484E+08         0.00000E+00
    0.00000E+00         0.00000E+00        -0.75654E+08
 
   -0.75459E+08         0.10949E+07         0.00000E+00
    0.10949E+07        -0.97433E+08         0.00000E+00
    0.00000E+00         0.00000E+00        -0.75447E+08
 
   -0.75273E+08         0.10898E+07         0.00000E+00
    0.10898E+07        -0.97380E+08         0.00000E+00
    0.00000E+00         0.00000E+00        -0.75244E+08
 
   -0.75088E+08         0.10840E+07         0.00000E+00
    0.10840E+07        -0.97326E+08         0.00000E+00
    0.00000E+00         0.00000E+00        -0.75044E+08
 
   -0.74903E+08         0.10776E+07         0.00000E+00
    0.10776E+07        -0.97271E+08         0.00000E+00
    0.00000E+00         0.00000E+00        -0.74847E+08
 
   -0.74719E+08         0.10707E+07         0.00000E+00
    0.10707E+07        -0.97215E+08         0.00000E+00
    0.00000E+00         0.00000E+00        -0.74654E+08
 
   -0.74537E+08         0.10634E+07         0.00000E+00
    0.10634E+07        -0.97159E+08         0.00000E+00
    0.00000E+00         0.00000E+00        -0.74463E+08
 
   -0.74355E+08         0.10558E+07         0.00000E+00
    0.10558E+07        -0.97102E+08         0.00000E+00
    0.00000E+00         0.00000E+00        -0.74276E+08
 
   -0.74175E+08         0.10480E+07         0.00000E+00
    0.10480E+07        -0.97044E+08         0.00000E+00
    0.00000E+00         0.00000E+00        -0.74092E+08
 
   -0.73996E+08         0.10401E+07         0.00000E+00
    0.10401E+07        -0.96986E+08         0.00000E+00
    0.00000E+00         0.00000E+00        -0.73910E+08
 
   -0.73818E+08         0.10321E+07         0.00000E+00
    0.10321E+07        -0.96928E+08         0.00000E+00
    0.00000E+00         0.00000E+00        -0.73731E+08
 
   -0.73642E+08         0.10240E+07         0.00000E+00
    0.10240E+07        -0.96869E+08         0.00000E+00
    0.00000E+00         0.00000E+00        -0.73554E+08
 
   -0.73466E+08         0.10160E+07         0.00000E+00
    0.10160E+07        -0.96810E+08         0.00000E+00
    0.00000E+00         0.00000E+00        -0.73379E+08
 
   -0.73292E+08         0.10080E+07         0.00000E+00
    0.10080E+07        -0.96750E+08         0.00000E+00
    0.00000E+00         0.00000E+00        -0.73207E+08
 
   -0.73119E+08         0.10000E+07         0.00000E+00
    0.10000E+07        -0.96691E+08         0.00000E+00
    0.00000E+00         0.00000E+00        -0.73037E+08
 
   -0.72948E+08         0.99222E+06         0.00000E+00
    0.99222E+06        -0.96631E+08         0.00000E+00
    0.00000E+00         0.00000E+00        -0.72868E+08
 
   -0.72777E+08         0.98453E+06         0.00000E+00
    0.98453E+06        -0.96571E+08         0.00000E+00
    0.00000E+00         0.00000E+00        -0.72702E+08
 
   -0.72608E+08         0.97700E+06         0.00000E+00
    0.97700E+06        -0.96511E+08         0.00000E+00
    0.00000E+00         0.00000E+00        -0.72537E+08
 
   -0.72439E+08         0.96964E+06         0.00000E+00
    0.96964E+06        -0.96451E+08         0.00000E+00
    0.00000E+00         0.00000E+00        -0.72374E+08
 
   -0.72272E+08         0.96246E+06         0.00000E+00
    0.96246E+06        -0.96391E+08         0.00000E+00
    0.00000E+00         0.00000E+00        -0.72212E+08
 
   -0.72105E+08         0.95550E+06         0.00000E+00
    0.95550E+06        -0.96331E+08         0.00000E+00
    0.00000E+00         0.00000E+00        -0.72051E+08
 
   -0.71939E+08         0.94874E+06         0.00000E+00
    0.94874E+06        -0.96271E+08         0.00000E+00
    0.00000E+00         0.00000E+00        -0.71891E+08
 
   -0.71775E+08         0.94220E+06         0.00000E+00
    0.94220E+06        -0.96211E+08         0.00000E+00
    0.00000E+00         0.00000E+00        -0.71732E+08
 
   -0.71610E+08         0.93588E+06         0.00000E+00
    0.93588E+06        -0.96152E+08         0.00000E+00
    0.00000E+00         0.00000E+00        -0.71575E+08
 
   -0.71447E+08         0.92978E+06         0.00000E+00
    0.92978E+06        -0.96092E+08         0.00000E+00
    0.00000E+00         0.00000E+00        -0.71418E+08
 
   -0.71284E+08         0.92391E+06         0.00000E+00
    0.92391E+06        -0.96032E+08         0.00000E+00
    0.00000E+00         0.00000E+00        -0.71261E+08
 
   -0.71121E+08         0.91825E+06         0.00000E+00
    0.91825E+06        -0.95973E+08         0.00000E+00
    0.00000E+00         0.00000E+00        -0.71105E+08
 
   -0.70959E+08         0.91280E+06         0.00000E+00
    0.91280E+06        -0.95913E+08         0.00000E+00
    0.00000E+00         0.00000E+00        -0.70949E+08
 
   -0.70798E+08         0.90755E+06         0.00000E+00
    0.90755E+06        -0.95854E+08         0.00000E+00
    0.00000E+00         0.00000E+00        -0.70794E+08
 
   -0.70636E+08         0.90248E+06         0.00000E+00
    0.90248E+06        -0.95795E+08         0.00000E+00
    0.00000E+00         0.00000E+00        -0.70639E+08
 
   -0.70475E+08         0.89758E+06         0.00000E+00
    0.89758E+06        -0.95736E+08         0.00000E+00
    0.00000E+00         0.00000E+00        -0.70483E+08
 
   -0.70314E+08         0.89283E+06         0.00000E+00
    0.89283E+06        -0.95678E+08         0.00000E+00
    0.00000E+00         0.00000E+00        -0.70328E+08
 
   -0.70153E+08         0.88820E+06         0.00000E+00
    0.88820E+06        -0.95620E+08         0.00000E+00
    0.00000E+00         0.00000E+00        -0.70172E+08
 
   -0.69992E+08         0.88367E+06         0.00000E+00
    0.88367E+06        -0.95562E+08         0.00000E+00
    0.00000E+00         0.00000E+00        -0.70016E+08
 
   -0.69832E+08         0.87921E+06         0.00000E+00
    0.87921E+06        -0.95504E+08         0.00000E+00
    0.00000E+00         0.00000E+00        -0.69859E+08
 
   -0.69671E+08         0.87479E+06         0.00000E+00
    0.87479E+06        -0.95447E+08         0.00000E+00
    0.00000E+00         0.00000E+00        -0.69702E+08
 
   -0.69510E+08         0.87037E+06         0.00000E+00
    0.87037E+06        -0.95390E+08         0.00000E+00
    0.00000E+00         0.00000E+00        -0.69543E+08
 
   -0.69348E+08         0.86590E+06         0.00000E+00
    0.86590E+06        -0.95334E+08         0.00000E+00
    0.00000E+00         0.00000E+00        -0.69384E+08
 
   -0.69187E+08         0.86136E+06         0.00000E+00
    0.86136E+06        -0.95279E+08         0.00000E+00
    0.00000E+00         0.00000E+00        -0.69224E+08
 
   -0.69026E+08         0.85667E+06         0.00000E+00
    0.85667E+06        -0.95223E+08         0.00000E+00
    0.00000E+00         0.00000E+00        -0.69063E+08
 
   -0.68864E+08         0.85180E+06         0.00000E+00
    0.85180E+06        -0.95169E+08         0.00000E+00
    0.00000E+00         0.00000E+00        -0.68901E+08
 
   -0.68702E+08         0.84668E+06         0.00000E+00
    0.84668E+06        -0.95115E+08         0.00000E+00
    0.00000E+00         0.00000E+00        -0.68737E+08
 
   -0.68539E+08         0.84125E+06         0.00000E+00
    0.84125E+06        -0.95062E+08         0.00000E+00
    0.00000E+00         0.00000E+00        -0.68572E+08
 
   -0.68377E+08         0.83543E+06         0.00000E+00
    0.83543E+06        -0.95010E+08         0.00000E+00
    0.00000E+00         0.00000E+00        -0.68405E+08
 
   -0.68214E+08         0.82914E+06         0.00000E+00
    0.82914E+06        -0.94959E+08         0.00000E+00
    0.00000E+00         0.00000E+00        -0.68236E+08
 
   -0.68051E+08         0.82229E+06         0.00000E+00
    0.82229E+06        -0.94909E+08         0.00000E+00
    0.00000E+00         0.00000E+00        -0.68066E+08
 
   -0.67888E+08         0.81479E+06         0.00000E+00
    0.81479E+06        -0.94860E+08         0.00000E+00
    0.00000E+00         0.00000E+00        -0.67894E+08
 
   -0.67725E+08         0.80652E+06         0.00000E+00
    0.80652E+06        -0.94812E+08         0.00000E+00
    0.00000E+00         0.00000E+00        -0.67720E+08
 
   -0.67563E+08         0.79734E+06         0.00000E+00
    0.79734E+06        -0.94766E+08         0.00000E+00
    0.00000E+00         0.00000E+00        -0.67544E+08
 
   -0.67400E+08         0.78712E+06         0.00000E+00
    0.78712E+06        -0.94722E+08         0.00000E+00
    0.00000E+00         0.00000E+00        -0.67366E+08
 
   -0.67237E+08         0.77569E+06         0.00000E+00
    0.77569E+06        -0.94679E+08         0.00000E+00
    0.00000E+00         0.00000E+00        -0.67186E+08
 
   -0.67075E+08         0.76286E+06         0.00000E+00
    0.76286E+06        -0.94639E+08         0.00000E+00
    0.00000E+00         0.00000E+00        -0.67003E+08
 
   -0.66914E+08         0.74843E+06         0.00000E+00
    0.74843E+06        -0.94601E+08         0.00000E+00
    0.00000E+00         0.00000E+00        -0.66819E+08
 
   -0.66754E+08         0.73214E+06         0.00000E+00
    0.73214E+06        -0.94565E+08         0.00000E+00
    0.00000E+00         0.00000E+00        -0.66632E+08
 
   -0.66594E+08         0.71375E+06         0.00000E+00
    0.71375E+06        -0.94532E+08         0.00000E+00
    0.00000E+00         0.00000E+00        -0.66443E+08
 
   -0.66436E+08         0.69295E+06         0.00000E+00
    0.69295E+06        -0.94503E+08         0.00000E+00
    0.00000E+00         0.00000E+00        -0.66251E+08
 
   -0.66280E+08         0.66941E+06         0.00000E+00
    0.66941E+06        -0.94477E+08         0.00000E+00
    0.00000E+00         0.00000E+00        -0.66058E+08
 
   -0.66125E+08         0.64279E+06         0.00000E+00
    0.64279E+06        -0.94454E+08         0.00000E+00
    0.00000E+00         0.00000E+00        -0.65862E+08
 
   -0.65972E+08         0.61274E+06         0.00000E+00
    0.61274E+06        -0.94435E+08         0.00000E+00
    0.00000E+00         0.00000E+00        -0.65664E+08
 
   -0.65822E+08         0.57889E+06         0.00000E+00
    0.57889E+06        -0.94421E+08         0.00000E+00
    0.00000E+00         0.00000E+00        -0.65464E+08
 
   -0.65674E+08         0.54091E+06         0.00000E+00
    0.54091E+06        -0.94410E+08         0.00000E+00
    0.00000E+00         0.00000E+00        -0.65261E+08
 
   -0.65528E+08         0.49852E+06         0.00000E+00
    0.49852E+06        -0.94403E+08         0.00000E+00
    0.00000E+00         0.00000E+00        -0.65057E+08
 
   -0.65385E+08         0.45156E+06         0.00000E+00
    0.45156E+06        -0.94400E+08         0.00000E+00
    0.00000E+00         0.00000E+00        -0.64850E+08
 
   -0.65244E+08         0.40004E+06         0.00000E+00
    0.40004E+06        -0.94400E+08         0.00000E+00
    0.00000E+00         0.00000E+00        -0.64640E+08
 
   -0.65105E+08         0.34422E+06         0.00000E+00
    0.34422E+06        -0.94401E+08         0.00000E+00
    0.00000E+00         0.00000E+00        -0.64426E+08
 
   -0.64968E+08         0.28481E+06         0.00000E+00
    0.28481E+06        -0.94403E+08         0.00000E+00
    0.00000E+00         0.00000E+00        -0.64208E+08
 
   -0.64833E+08         0.22310E+06         0.00000E+00
    0.22310E+06        -0.94403E+08         0.00000E+00
    0.00000E+00         0.00000E+00        -0.63984E+08
 
   -0.64700E+08         0.16125E+06         0.00000E+00
    0.16125E+06        -0.94399E+08         0.00000E+00
    0.00000E+00         0.00000E+00        -0.63751E+08
 
   -0.64568E+08         0.10259E+06         0.00000E+00
    0.10259E+06        -0.94386E+08         0.00000E+00
    0.00000E+00         0.00000E+00        -0.63507E+08
 
   -0.64438E+08         0.51699E+05         0.00000E+00
    0.51699E+05        -0.94360E+08         0.00000E+00
    0.00000E+00         0.00000E+00        -0.63245E+08
 
   -0.64313E+08         0.13715E+05         0.00000E+00
    0.13715E+05        -0.94316E+08         0.00000E+00
    0.00000E+00         0.00000E+00        -0.62960E+08
 
   -0.64196E+08        -0.75806E+04         0.00000E+00
   -0.75806E+04        -0.94248E+08         0.00000E+00
    0.00000E+00         0.00000E+00        -0.62642E+08
 
   -0.64094E+08        -0.12291E+05         0.00000E+00
   -0.12291E+05        -0.94152E+08         0.00000E+00
    0.00000E+00         0.00000E+00        -0.62283E+08
 
   -0.64015E+08        -0.54166E+04         0.00000E+00
   -0.54166E+04        -0.94024E+08         0.00000E+00
    0.00000E+00         0.00000E+00        -0.61873E+08
 
   -0.80384E+08        -0.15897E+05         0.00000E+00
   -0.15897E+05        -0.97819E+08         0.00000E+00
    0.00000E+00         0.00000E+00        -0.84735E+08
 
   -0.80341E+08        -0.27910E+05         0.00000E+00
   -0.27910E+05        -0.97653E+08         0.00000E+00
    0.00000E+00         0.00000E+00        -0.84079E+08
 
   -0.80247E+08         0.73358E+04         0.00000E+00
    0.73358E+04        -0.97487E+08         0.00000E+00
    0.00000E+00         0.00000E+00        -0.83484E+08
 
   -0.80123E+08         0.78223E+05         0.00000E+00
    0.78223E+05        -0.97381E+08         0.00000E+00
    0.00000E+00         0.00000E+00        -0.82949E+08
 
   -0.80012E+08         0.16374E+06         0.00000E+00
    0.16374E+06        -0.97335E+08         0.00000E+00
    0.00000E+00         0.00000E+00        -0.82460E+08
 
   -0.79897E+08         0.26558E+06         0.00000E+00
    0.26558E+06        -0.97351E+08         0.00000E+00
    0.00000E+00         0.00000E+00        -0.81999E+08
 
   -0.79776E+08         0.36580E+06         0.00000E+00
    0.36580E+06        -0.97390E+08         0.00000E+00
    0.00000E+00         0.00000E+00        -0.81578E+08
 
   -0.79629E+08         0.45237E+06         0.00000E+00
    0.45237E+06        -0.97424E+08         0.00000E+00
    0.00000E+00         0.00000E+00        -0.81184E+08
 
   -0.79465E+08         0.52567E+06         0.00000E+00
    0.52567E+06        -0.97441E+08         0.00000E+00
    0.00000E+00         0.00000E+00        -0.80814E+08
 
   -0.79290E+08         0.59422E+06         0.00000E+00
    0.59422E+06        -0.97444E+08         0.00000E+00
    0.00000E+00         0.00000E+00        -0.80461E+08
 
   -0.79103E+08         0.66052E+06         0.00000E+00
    0.66052E+06        -0.97445E+08         0.00000E+00
    0.00000E+00         0.00000E+00        -0.80123E+08
 
   -0.78907E+08         0.72331E+06         0.00000E+00
    0.72331E+06        -0.97448E+08         0.00000E+00
    0.00000E+00         0.00000E+00        -0.79798E+08
 
   -0.78703E+08         0.78059E+06         0.00000E+00
    0.78059E+06        -0.97457E+08         0.00000E+00
    0.00000E+00         0.00000E+00        -0.79481E+08
 
   -0.78494E+08         0.83128E+06         0.00000E+00
    0.83128E+06        -0.97471E+08         0.00000E+00
    0.00000E+00         0.00000E+00        -0.79173E+08
 
   -0.78280E+08         0.87521E+06         0.00000E+00
    0.87521E+06        -0.97487E+08         0.00000E+00
    0.00000E+00         0.00000E+00        -0.78870E+08
 
   -0.78063E+08         0.91276E+06         0.00000E+00
    0.91276E+06        -0.97503E+08         0.00000E+00
    0.00000E+00         0.00000E+00        -0.78573E+08
 
   -0.77844E+08         0.94449E+06         0.00000E+00
    0.94449E+06        -0.97519E+08         0.00000E+00
    0.00000E+00         0.00000E+00        -0.78280E+08
 
   -0.77622E+08         0.97103E+06         0.00000E+00
    0.97103E+06        -0.97534E+08         0.00000E+00
    0.00000E+00         0.00000E+00        -0.77991E+08
 
   -0.77397E+08         0.99298E+06         0.00000E+00
    0.99298E+06        -0.97547E+08         0.00000E+00
    0.00000E+00         0.00000E+00        -0.77706E+08
 
   -0.77170E+08         0.10109E+07         0.00000E+00
    0.10109E+07        -0.97558E+08         0.00000E+00
    0.00000E+00         0.00000E+00        -0.77424E+08
 
   -0.76941E+08         0.10254E+07         0.00000E+00
    0.10254E+07        -0.97568E+08         0.00000E+00
    0.00000E+00         0.00000E+00        -0.77146E+08
 
   -0.76710E+08         0.10368E+07         0.00000E+00
    0.10368E+07        -0.97575E+08         0.00000E+00
    0.00000E+00         0.00000E+00        -0.76870E+08
 
   -0.76477E+08         0.10457E+07         0.00000E+00
    0.10457E+07        -0.97582E+08         0.00000E+00
    0.00000E+00         0.00000E+00        -0.76597E+08
 
   -0.76243E+08         0.10524E+07         0.00000E+00
    0.10524E+07        -0.97587E+08         0.00000E+00
    0.00000E+00         0.00000E+00        -0.76328E+08
 
   -0.76023E+08         0.10558E+07         0.00000E+00
    0.10558E+07        -0.97575E+08         0.00000E+00
    0.00000E+00         0.00000E+00        -0.76076E+08
 
   -0.75830E+08         0.10548E+07         0.00000E+00
    0.10548E+07        -0.97533E+08         0.00000E+00
    0.00000E+00         0.00000E+00        -0.75856E+08
 
   -0.75643E+08         0.10519E+07         0.00000E+00
    0.10519E+07        -0.97483E+08         0.00000E+00
    0.00000E+00         0.00000E+00        -0.75645E+08
 
   -0.75457E+08         0.10479E+07         0.00000E+00
    0.10479E+07        -0.97431E+08         0.00000E+00
    0.00000E+00         0.00000E+00        -0.75438E+08
 
   -0.75271E+08         0.10430E+07         0.00000E+00
    0.10430E+07        -0.97378E+08         0.00000E+00
    0.00000E+00         0.00000E+00        -0.75235E+08
 
   -0.75085E+08         0.10375E+07         0.00000E+00
    0.10375E+07        -0.97324E+08         0.00000E+00
    0.00000E+00         0.00000E+00        -0.75035E+08
 
   -0.74901E+08         0.10314E+07         0.00000E+00
    0.10314E+07        -0.97270E+08         0.00000E+00
    0.00000E+00         0.00000E+00        -0.74839E+08
 
   -0.74717E+08         0.10248E+07         0.00000E+00
    0.10248E+07        -0.97214E+08         0.00000E+00
    0.00000E+00         0.00000E+00        -0.74646E+08
 
   -0.74535E+08         0.10179E+07         0.00000E+00
    0.10179E+07        -0.97158E+08         0.00000E+00
    0.00000E+00         0.00000E+00        -0.74455E+08
 
   -0.74353E+08         0.10106E+07         0.00000E+00
    0.10106E+07        -0.97101E+08         0.00000E+00
    0.00000E+00         0.00000E+00        -0.74268E+08
 
   -0.74173E+08         0.10032E+07         0.00000E+00
    0.10032E+07        -0.97043E+08         0.00000E+00
    0.00000E+00         0.00000E+00        -0.74084E+08
 
   -0.73994E+08         0.99571E+06         0.00000E+00
    0.99571E+06        -0.96985E+08         0.00000E+00
    0.00000E+00         0.00000E+00        -0.73903E+08
 
   -0.73816E+08         0.98808E+06         0.00000E+00
    0.98808E+06        -0.96927E+08         0.00000E+00
    0.00000E+00         0.00000E+00        -0.73724E+08
 
   -0.73640E+08         0.98042E+06         0.00000E+00
    0.98042E+06        -0.96868E+08         0.00000E+00
    0.00000E+00         0.00000E+00        -0.73547E+08
 
   -0.73465E+08         0.97276E+06         0.00000E+00
    0.97276E+06        -0.96809E+08         0.00000E+00
    0.00000E+00         0.00000E+00        -0.73373E+08
 
   -0.73291E+08         0.96515E+06         0.00000E+00
    0.96515E+06        -0.96750E+08         0.00000E+00
    0.00000E+00         0.00000E+00        -0.73201E+08
 
   -0.73118E+08         0.95760E+06         0.00000E+00
    0.95760E+06        -0.96690E+08         0.00000E+00
    0.00000E+00         0.00000E+00        -0.73031E+08
 
   -0.72946E+08         0.95016E+06         0.00000E+00
    0.95016E+06        -0.96631E+08         0.00000E+00
    0.00000E+00         0.00000E+00        -0.72863E+08
 
   -0.72775E+08         0.94284E+06         0.00000E+00
    0.94284E+06        -0.96571E+08         0.00000E+00
    0.00000E+00         0.00000E+00        -0.72697E+08
 
   -0.72606E+08         0.93566E+06         0.00000E+00
    0.93566E+06        -0.96511E+08         0.00000E+00
    0.00000E+00         0.00000E+00        -0.72532E+08
 
   -0.72437E+08         0.92865E+06         0.00000E+00
    0.92865E+06        -0.96452E+08         0.00000E+00
    0.00000E+00         0.00000E+00        -0.72369E+08
 
   -0.72270E+08         0.92181E+06         0.00000E+00
    0.92181E+06        -0.96392E+08         0.00000E+00
    0.00000E+00         0.00000E+00        -0.72207E+08
 
   -0.72103E+08         0.91517E+06         0.00000E+00
    0.91517E+06        -0.96332E+08         0.00000E+00
    0.00000E+00         0.00000E+00        -0.72046E+08
 
   -0.71938E+08         0.90872E+06         0.00000E+00
    0.90872E+06        -0.96272E+08         0.00000E+00
    0.00000E+00         0.00000E+00        -0.71887E+08
 
   -0.71773E+08         0.90248E+06         0.00000E+00
    0.90248E+06        -0.96212E+08         0.00000E+00
    0.00000E+00         0.00000E+00        -0.71729E+08
 
   -0.71608E+08         0.89645E+06         0.00000E+00
    0.89645E+06        -0.96152E+08         0.00000E+00
    0.00000E+00         0.00000E+00        -0.71571E+08
 
   -0.71445E+08         0.89062E+06         0.00000E+00
    0.89062E+06        -0.96093E+08         0.00000E+00
    0.00000E+00         0.00000E+00        -0.71414E+08
 
   -0.71282E+08         0.88501E+06         0.00000E+00
    0.88501E+06        -0.96033E+08         0.00000E+00
    0.00000E+00         0.00000E+00        -0.71258E+08
 
   -0.71119E+08         0.87959E+06         0.00000E+00
    0.87959E+06        -0.95973E+08         0.00000E+00
    0.00000E+00         0.00000E+00        -0.71102E+08
 
   -0.70957E+08         0.87438E+06         0.00000E+00
    0.87438E+06        -0.95914E+08         0.00000E+00
    0.00000E+00         0.00000E+00        -0.70947E+08
 
   -0.70795E+08         0.86935E+06         0.00000E+00
    0.86935E+06        -0.95855E+08         0.00000E+00
    0.00000E+00         0.00000E+00        -0.70792E+08
 
   -0.70634E+08         0.86449E+06         0.00000E+00
    0.86449E+06        -0.95796E+08         0.00000E+00
    0.00000E+00         0.00000E+00        -0.70637E+08
 
   -0.70473E+08         0.85979E+06         0.00000E+00
    0.85979E+06        -0.95737E+08         0.00000E+00
    0.00000E+00         0.00000E+00        -0.70481E+08
 
   -0.70312E+08         0.85523E+06         0.00000E+00
    0.85523E+06        -0.95679E+08         0.00000E+00
    0.00000E+00         0.00000E+00        -0.70326E+08
 
   -0.70151E+08         0.85078E+06         0.00000E+00
    0.85078E+06        -0.95621E+08         0.00000E+00
    0.00000E+00         0.00000E+00        -0.70170E+08
 
   -0.69990E+08         0.84642E+06         0.00000E+00
    0.84642E+06        -0.95563E+08         0.00000E+00
    0.00000E+00         0.00000E+00        -0.70014E+08
 
   -0.69829E+08         0.84213E+06         0.00000E+00
    0.84213E+06        -0.95506E+08         0.00000E+00
    0.00000E+00         0.00000E+00        -0.69858E+08
 
   -0.69668E+08         0.83787E+06         0.00000E+00
    0.83787E+06        -0.95448E+08         0.00000E+00
    0.00000E+00         0.00000E+00        -0.69701E+08
 
   -0.69507E+08         0.83360E+06         0.00000E+00
    0.83360E+06        -0.95392E+08         0.00000E+00
    0.00000E+00         0.00000E+00        -0.69542E+08
 
   -0.69346E+08         0.82930E+06         0.00000E+00
    0.82930E+06        -0.95335E+08         0.00000E+00
    0.00000E+00         0.00000E+00        -0.69384E+08
 
   -0.69184E+08         0.82491E+06         0.00000E+00
    0.82491E+06        -0.95280E+08         0.00000E+00
    0.00000E+00         0.00000E+00        -0.69224E+08
 
   -0.69023E+08         0.82038E+06         0.00000E+00
    0.82038E+06        -0.95225E+08         0.00000E+00
    0.00000E+00         0.00000E+00        -0.69062E+08
 
   -0.68861E+08         0.81567E+06         0.00000E+00
    0.81567E+06        -0.95170E+08         0.00000E+00
    0.00000E+00         0.00000E+00        -0.68900E+08
 
   -0.68699E+08         0.81073E+06         0.00000E+00
    0.81073E+06        -0.95116E+08         0.00000E+00
    0.00000E+00         0.00000E+00        -0.68736E+08
 
   -0.68537E+08         0.80548E+06         0.00000E+00
    0.80548E+06        -0.95063E+08         0.00000E+00
    0.00000E+00         0.00000E+00        -0.68571E+08
 
   -0.68374E+08         0.79985E+06         0.00000E+00
    0.79985E+06        -0.95011E+08         0.00000E+00
    0.00000E+00         0.00000E+00        -0.68404E+08
 
   -0.68211E+08         0.79377E+06         0.00000E+00
    0.79377E+06        -0.94960E+08         0.00000E+00
    0.00000E+00         0.00000E+00        -0.68236E+08
 
   -0.68049E+08         0.78716E+06         0.00000E+00
    0.78716E+06        -0.94910E+08         0.00000E+00
    0.00000E+00         0.00000E+00        -0.68066E+08
 
   -0.67886E+08         0.77991E+06         0.00000E+00
    0.77991E+06        -0.94861E+08         0.00000E+00
    0.00000E+00         0.00000E+00        -0.67893E+08
 
   -0.67723E+08         0.77192E+06         0.00000E+00
    0.77192E+06        -0.94813E+08         0.00000E+00
    0.00000E+00         0.00000E+00        -0.67719E+08
 
   -0.67560E+08         0.76307E+06         0.00000E+00
    0.76307E+06        -0.94767E+08         0.00000E+00
    0.00000E+00         0.00000E+00        -0.67543E+08
 
   -0.67398E+08         0.75320E+06         0.00000E+00
    0.75320E+06        -0.94722E+08         0.00000E+00
    0.00000E+00         0.00000E+00        -0.67365E+08
 
   -0.67235E+08         0.74217E+06         0.00000E+00
    0.74217E+06        -0.94680E+08         0.00000E+00
    0.00000E+00         0.00000E+00        -0.67184E+08
 
   -0.67074E+08         0.72978E+06         0.00000E+00
    0.72978E+06        -0.94639E+08         0.00000E+00
    0.00000E+00         0.00000E+00        -0.67002E+08
 
   -0.66913E+08         0.71584E+06         0.00000E+00
    0.71584E+06        -0.94601E+08         0.00000E+00
    0.00000E+00         0.00000E+00        -0.66817E+08
 
   -0.66752E+08         0.70011E+06         0.00000E+00
    0.70011E+06        -0.94565E+08         0.00000E+00
    0.00000E+00         0.00000E+00        -0.66629E+08
 
   -0.66593E+08         0.68232E+06         0.00000E+00
    0.68232E+06        -0.94531E+08         0.00000E+00
    0.00000E+00         0.00000E+00        -0.66439E+08
 
   -0.66436E+08         0.66218E+06         0.00000E+00
    0.66218E+06        -0.94501E+08         0.00000E+00
    0.00000E+00         0.00000E+00        -0.66247E+08
 
   -0.66280E+08         0.63937E+06         0.00000E+00
    0.63937E+06        -0.94475E+08         0.00000E+00
    0.00000E+00         0.00000E+00        -0.66053E+08
 
   -0.66126E+08         0.61354E+06         0.00000E+00
    0.61354E+06        -0.94451E+08         0.00000E+00
    0.00000E+00         0.00000E+00        -0.65856E+08
 
   -0.65974E+08         0.58433E+06         0.00000E+00
    0.58433E+06        -0.94432E+08         0.00000E+00
    0.00000E+00         0.00000E+00        -0.65657E+08
 
   -0.65824E+08         0.55137E+06         0.00000E+00
    0.55137E+06        -0.94417E+08         0.00000E+00
    0.00000E+00         0.00000E+00        -0.65456E+08
 
   -0.65677E+08         0.51433E+06         0.00000E+00
    0.51433E+06        -0.94405E+08         0.00000E+00
    0.00000E+00         0.00000E+00        -0.65252E+08
 
   -0.65532E+08         0.47293E+06         0.00000E+00
    0.47293E+06        -0.94398E+08         0.00000E+00
    0.00000E+00         0.00000E+00        -0.65045E+08
 
   -0.65391E+08         0.42698E+06         0.00000E+00
    0.42698E+06        -0.94394E+08         0.00000E+00
    0.00000E+00         0.00000E+00        -0.64836E+08
 
   -0.65252E+08         0.37648E+06         0.00000E+00
    0.37648E+06        -0.94394E+08         0.00000E+00
    0.00000E+00         0.00000E+00        -0.64624E+08
 
   -0.65116E+08         0.32172E+06         0.00000E+00
    0.32172E+06        -0.94395E+08         0.00000E+00
    0.00000E+00         0.00000E+00        -0.64409E+08
 
   -0.64982E+08         0.26339E+06         0.00000E+00
    0.26339E+06        -0.94397E+08         0.00000E+00
    0.00000E+00         0.00000E+00        -0.64188E+08
 
   -0.64850E+08         0.20279E+06         0.00000E+00
    0.20279E+06        -0.94398E+08         0.00000E+00
    0.00000E+00         0.00000E+00        -0.63962E+08
 
   -0.64721E+08         0.14212E+06         0.00000E+00
    0.14212E+06        -0.94395E+08         0.00000E+00
    0.00000E+00         0.00000E+00        -0.63727E+08
 
   -0.64594E+08         0.84781E+05         0.00000E+00
    0.84781E+05        -0.94385E+08         0.00000E+00
    0.00000E+00         0.00000E+00        -0.63481E+08
 
   -0.64469E+08         0.35496E+05         0.00000E+00
    0.35496E+05        -0.94363E+08         0.00000E+00
    0.00000E+00         0.00000E+00        -0.63219E+08
 
   -0.64348E+08        -0.31719E+03         0.00000E+00
   -0.31719E+03        -0.94323E+08         0.00000E+00
    0.00000E+00         0.00000E+00        -0.62935E+08
 
   -0.64234E+08        -0.18585E+05         0.00000E+00
   -0.18585E+05        -0.94260E+08         0.00000E+00
    0.00000E+00         0.00000E+00        -0.62620E+08
 
   -0.64134E+08        -0.19335E+05         0.00000E+00
   -0.19335E+05        -0.94168E+08         0.00000E+00
    0.00000E+00         0.00000E+00        -0.62263E+08
 
   -0.64056E+08        -0.78390E+04         0.00000E+00
   -0.78390E+04        -0.94042E+08         0.00000E+00
    0.00000E+00         0.00000E+00        -0.61855E+08
 
   -0.80302E+08        -0.19588E+05         0.00000E+00
   -0.19588E+05        -0.97812E+08         0.00000E+00
    0.00000E+00         0.00000E+00        -0.84766E+08
 
   -0.80265E+08        -0.39909E+05         0.00000E+00
   -0.39909E+05        -0.97654E+08         0.00000E+00
    0.00000E+00         0.00000E+00        -0.84115E+08
 
   -0.80184E+08        -0.14028E+05         0.00000E+00
   -0.14028E+05        -0.97496E+08         0.00000E+00
    0.00000E+00         0.00000E+00        -0.83525E+08
 
   -0.80072E+08         0.53756E+05         0.00000E+00
    0.53756E+05        -0.97393E+08         0.00000E+00
    0.00000E+00         0.00000E+00        -0.82988E+08
 
   -0.79962E+08         0.14267E+06         0.00000E+00
    0.14267E+06        -0.97359E+08         0.00000E+00
    0.00000E+00         0.00000E+00        -0.82495E+08
 
   -0.79858E+08         0.24239E+06         0.00000E+00
    0.24239E+06        -0.97373E+08         0.00000E+00
    0.00000E+00         0.00000E+00        -0.82039E+08
 
   -0.79737E+08         0.33915E+06         0.00000E+00
    0.33915E+06        -0.97408E+08         0.00000E+00
    0.00000E+00         0.00000E+00        -0.81614E+08
 
   -0.79595E+08         0.42149E+06         0.00000E+00
    0.42149E+06        -0.97439E+08         0.00000E+00
    0.00000E+00         0.00000E+00        -0.81215E+08
 
   -0.79437E+08         0.49236E+06         0.00000E+00
    0.49236E+06        -0.97455E+08         0.00000E+00
    0.00000E+00         0.00000E+00        -0.80839E+08
 
   -0.79267E+08         0.55851E+06         0.00000E+00
    0.55851E+06        -0.97458E+08         0.00000E+00
    0.00000E+00         0.00000E+00        -0.80480E+08
 
   -0.79085E+08         0.62261E+06         0.00000E+00
    0.62261E+06        -0.97457E+08         0.00000E+00
    0.00000E+00         0.00000E+00        -0.80138E+08
 
   -0.78892E+08         0.68353E+06         0.00000E+00
    0.68353E+06        -0.97460E+08         0.00000E+00
    0.00000E+00         0.00000E+00        -0.79807E+08
 
   -0.78691E+08         0.73940E+06         0.00000E+00
    0.73940E+06        -0.97468E+08         0.00000E+00
    0.00000E+00         0.00000E+00        -0.79487E+08
 
   -0.78484E+08         0.78907E+06         0.00000E+00
    0.78907E+06        -0.97480E+08         0.00000E+00
    0.00000E+00         0.00000E+00        -0.79175E+08
 
   -0.78272E+08         0.83224E+06         0.00000E+00
    0.83224E+06        -0.97495E+08         0.00000E+00
    0.00000E+00         0.00000E+00        -0.78869E+08
 
   -0.78056E+08         0.86917E+06         0.00000E+00
    0.86917E+06        -0.97510E+08         0.00000E+00
    0.00000E+00         0.00000E+00        -0.78570E+08
 
   -0.77837E+08         0.90035E+06         0.00000E+00
    0.90035E+06        -0.97525E+08         0.00000E+00
    0.00000E+00         0.00000E+00        -0.78275E+08
 
   -0.77615E+08         0.92638E+06         0.00000E+00
    0.92638E+06        -0.97539E+08         0.00000E+00
    0.00000E+00         0.00000E+00        -0.77985E+08
 
   -0.77391E+08         0.94785E+06         0.00000E+00
    0.94785E+06        -0.97551E+08         0.00000E+00
    0.00000E+00         0.00000E+00        -0.77698E+08
 
   -0.77165E+08         0.96535E+06         0.00000E+00
    0.96535E+06        -0.97561E+08         0.00000E+00
    0.00000E+00         0.00000E+00        -0.77415E+08
 
   -0.76936E+08         0.97939E+06         0.00000E+00
    0.97939E+06        -0.97570E+08         0.00000E+00
    0.00000E+00         0.00000E+00        -0.77136E+08
 
   -0.76705E+08         0.99048E+06         0.00000E+00
    0.99048E+06        -0.97577E+08         0.00000E+00
    0.00000E+00         0.00000E+00        -0.76860E+08
 
   -0.76472E+08         0.99905E+06         0.00000E+00
    0.99905E+06        -0.97583E+08         0.00000E+00
    0.00000E+00         0.00000E+00        -0.76587E+08
 
   -0.76239E+08         0.10055E+07         0.00000E+00
    0.10055E+07        -0.97588E+08         0.00000E+00
    0.00000E+00         0.00000E+00        -0.76317E+08
 
   -0.76020E+08         0.10086E+07         0.00000E+00
    0.10086E+07        -0.97575E+08         0.00000E+00
    0.00000E+00         0.00000E+00        -0.76067E+08
 
   -0.75828E+08         0.10075E+07         0.00000E+00
    0.10075E+07        -0.97531E+08         0.00000E+00
    0.00000E+00         0.00000E+00        -0.75847E+08
 
   -0.75641E+08         0.10048E+07         0.00000E+00
    0.10048E+07        -0.97481E+08         0.00000E+00
    0.00000E+00         0.00000E+00        -0.75637E+08
 
   -0.75455E+08         0.10010E+07         0.00000E+00
    0.10010E+07        -0.97429E+08         0.00000E+00
    0.00000E+00         0.00000E+00        -0.75430E+08
 
   -0.75269E+08         0.99636E+06         0.00000E+00
    0.99636E+06        -0.97377E+08         0.00000E+00
    0.00000E+00         0.00000E+00        -0.75227E+08
 
   -0.75083E+08         0.99107E+06         0.00000E+00
    0.99107E+06        -0.97323E+08         0.00000E+00
    0.00000E+00         0.00000E+00        -0.75027E+08
 
   -0.74899E+08         0.98525E+06         0.00000E+00
    0.98525E+06        -0.97268E+08         0.00000E+00
    0.00000E+00         0.00000E+00        -0.74831E+08
 
   -0.74715E+08         0.97899E+06         0.00000E+00
    0.97899E+06        -0.97213E+08         0.00000E+00
    0.00000E+00         0.00000E+00        -0.74638E+08
 
   -0.74533E+08         0.97240E+06         0.00000E+00
    0.97240E+06        -0.97156E+08         0.00000E+00
    0.00000E+00         0.00000E+00        -0.74448E+08
 
   -0.74352E+08         0.96556E+06         0.00000E+00
    0.96556E+06        -0.97100E+08         0.00000E+00
    0.00000E+00         0.00000E+00        -0.74261E+08
 
   -0.74171E+08         0.95853E+06         0.00000E+00
    0.95853E+06        -0.97042E+08         0.00000E+00
    0.00000E+00         0.00000E+00        -0.74077E+08
 
   -0.73993E+08         0.95137E+06         0.00000E+00
    0.95137E+06        -0.96984E+08         0.00000E+00
    0.00000E+00         0.00000E+00        -0.73896E+08
 
   -0.73815E+08         0.94413E+06         0.00000E+00
    0.94413E+06        -0.96926E+08         0.00000E+00
    0.00000E+00         0.00000E+00        -0.73717E+08
 
   -0.73638E+08         0.93685E+06         0.00000E+00
    0.93685E+06        -0.96867E+08         0.00000E+00
    0.00000E+00         0.00000E+00        -0.73541E+08
 
   -0.73463E+08         0.92958E+06         0.00000E+00
    0.92958E+06        -0.96809E+08         0.00000E+00
    0.00000E+00         0.00000E+00        -0.73367E+08
 
   -0.73289E+08         0.92235E+06         0.00000E+00
    0.92235E+06        -0.96750E+08         0.00000E+00
    0.00000E+00         0.00000E+00        -0.73195E+08
 
   -0.73116E+08         0.91518E+06         0.00000E+00
    0.91518E+06        -0.96690E+08         0.00000E+00
    0.00000E+00         0.00000E+00        -0.73025E+08
 
   -0.72945E+08         0.90811E+06         0.00000E+00
    0.90811E+06        -0.96631E+08         0.00000E+00
    0.00000E+00         0.00000E+00        -0.72857E+08
 
   -0.72774E+08         0.90115E+06         0.00000E+00
    0.90115E+06        -0.96571E+08         0.00000E+00
    0.00000E+00         0.00000E+00        -0.72691E+08
 
   -0.72604E+08         0.89433E+06         0.00000E+00
    0.89433E+06        -0.96511E+08         0.00000E+00
    0.00000E+00         0.00000E+00        -0.72527E+08
 
   -0.72436E+08         0.88766E+06         0.00000E+00
    0.88766E+06        -0.96452E+08         0.00000E+00
    0.00000E+00         0.00000E+00        -0.72364E+08
 
   -0.72268E+08         0.88116E+06         0.00000E+00
    0.88116E+06        -0.96392E+08         0.00000E+00
    0.00000E+00         0.00000E+00        -0.72203E+08
 
   -0.72102E+08         0.87483E+06         0.00000E+00
    0.87483E+06        -0.96332E+08         0.00000E+00
    0.00000E+00         0.00000E+00        -0.72042E+08
 
   -0.71936E+08         0.86869E+06         0.00000E+00
    0.86869E+06        -0.96272E+08         0.00000E+00
    0.00000E+00         0.00000E+00        -0.71883E+08
 
   -0.71771E+08         0.86275E+06         0.00000E+00
    0.86275E+06        -0.96212E+08         0.00000E+00
    0.00000E+00         0.00000E+00        -0.71725E+08
 
   -0.71606E+08         0.85699E+06         0.00000E+00
    0.85699E+06        -0.96153E+08         0.00000E+00
    0.00000E+00         0.00000E+00        -0.71568E+08
 
   -0.71443E+08         0.85144E+06         0.00000E+00
    0.85144E+06        -0.96093E+08         0.00000E+00
    0.00000E+00         0.00000E+00        -0.71411E+08
 
   -0.71280E+08         0.84608E+06         0.00000E+00
    0.84608E+06        -0.96034E+08         0.00000E+00
    0.00000E+00         0.00000E+00        -0.71255E+08
 
   -0.71117E+08         0.84091E+06         0.00000E+00
    0.84091E+06        -0.95974E+08         0.00000E+00
    0.00000E+00         0.00000E+00        -0.71100E+08
 
   -0.70955E+08         0.83593E+06         0.00000E+00
    0.83593E+06        -0.95915E+08         0.00000E+00
    0.00000E+00         0.00000E+00        -0.70945E+08
 
   -0.70793E+08         0.83112E+06         0.00000E+00
    0.83112E+06        -0.95856E+08         0.00000E+00
    0.00000E+00         0.00000E+00        -0.70790E+08
 
   -0.70631E+08         0.82647E+06         0.00000E+00
    0.82647E+06        -0.95797E+08         0.00000E+00
    0.00000E+00         0.00000E+00        -0.70635E+08
 
   -0.70470E+08         0.82197E+06         0.00000E+00
    0.82197E+06        -0.95738E+08         0.00000E+00
    0.00000E+00         0.00000E+00        -0.70480E+08
 
   -0.70309E+08         0.81760E+06         0.00000E+00
    0.81760E+06        -0.95680E+08         0.00000E+00
    0.00000E+00         0.00000E+00        -0.70325E+08
 
   -0.70148E+08         0.81333E+06         0.00000E+00
    0.81333E+06        -0.95622E+08         0.00000E+00
    0.00000E+00         0.00000E+00        -0.70169E+08
 
   -0.69987E+08         0.80915E+06         0.00000E+00
    0.80915E+06        -0.95564E+08         0.00000E+00
    0.00000E+00         0.00000E+00        -0.70013E+08
 
   -0.69826E+08         0.80503E+06         0.00000E+00
    0.80503E+06        -0.95507E+08         0.00000E+00
    0.00000E+00         0.00000E+00        -0.69857E+08
 
   -0.69665E+08         0.80093E+06         0.00000E+00
    0.80093E+06        -0.95450E+08         0.00000E+00
    0.00000E+00         0.00000E+00        -0.69700E+08
 
   -0.69504E+08         0.79682E+06         0.00000E+00
    0.79682E+06        -0.95393E+08         0.00000E+00
    0.00000E+00         0.00000E+00        -0.69542E+08
 
   -0.69343E+08         0.79268E+06         0.00000E+00
    0.79268E+06        -0.95337E+08         0.00000E+00
    0.00000E+00         0.00000E+00        -0.69383E+08
 
   -0.69181E+08         0.78844E+06         0.00000E+00
    0.78844E+06        -0.95281E+08         0.00000E+00
    0.00000E+00         0.00000E+00        -0.69223E+08
 
   -0.69020E+08         0.78408E+06         0.00000E+00
    0.78408E+06        -0.95226E+08         0.00000E+00
    0.00000E+00         0.00000E+00        -0.69062E+08
 
   -0.68858E+08         0.77954E+06         0.00000E+00
    0.77954E+06        -0.95171E+08         0.00000E+00
    0.00000E+00         0.00000E+00        -0.68900E+08
 
   -0.68696E+08         0.77477E+06         0.00000E+00
    0.77477E+06        -0.95118E+08         0.00000E+00
    0.00000E+00         0.00000E+00        -0.68736E+08
 
   -0.68534E+08         0.76970E+06         0.00000E+00
    0.76970E+06        -0.95065E+08         0.00000E+00
    0.00000E+00         0.00000E+00        -0.68571E+08
 
   -0.68371E+08         0.76428E+06         0.00000E+00
    0.76428E+06        -0.95012E+08         0.00000E+00
    0.00000E+00         0.00000E+00        -0.68404E+08
 
   -0.68209E+08         0.75842E+06         0.00000E+00
    0.75842E+06        -0.94961E+08         0.00000E+00
    0.00000E+00         0.00000E+00        -0.68236E+08
 
   -0.68046E+08         0.75204E+06         0.00000E+00
    0.75204E+06        -0.94911E+08         0.00000E+00
    0.00000E+00         0.00000E+00        -0.68065E+08
 
   -0.67883E+08         0.74506E+06         0.00000E+00
    0.74506E+06        -0.94862E+08         0.00000E+00
    0.00000E+00         0.00000E+00        -0.67893E+08
 
   -0.67720E+08         0.73736E+06         0.00000E+00
    0.73736E+06        -0.94814E+08         0.00000E+00
    0.00000E+00         0.00000E+00        -0.67719E+08
 
   -0.67558E+08         0.72882E+06         0.00000E+00
    0.72882E+06        -0.94768E+08         0.00000E+00
    0.00000E+00         0.00000E+00        -0.67542E+08
 
   -0.67395E+08         0.71932E+06         0.00000E+00
    0.71932E+06        -0.94723E+08         0.00000E+00
    0.00000E+00         0.00000E+00        -0.67364E+08
 
   -0.67233E+08         0.70869E+06         0.00000E+00
    0.70869E+06        -0.94680E+08         0.00000E+00
    0.00000E+00         0.00000E+00        -0.67183E+08
 
   -0.67072E+08         0.69675E+06         0.00000E+00
    0.69675E+06        -0.94639E+08         0.00000E+00
    0.00000E+00         0.00000E+00        -0.67000E+08
 
   -0.66911E+08         0.68332E+06         0.00000E+00
    0.68332E+06        -0.94600E+08         0.00000E+00
    0.00000E+00         0.00000E+00        -0.66815E+08
 
   -0.66751E+08         0.66814E+06         0.00000E+00
    0.66814E+06        -0.94564E+08         0.00000E+00
    0.00000E+00         0.00000E+00        -0.66627E+08
 
   -0.66592E+08         0.65098E+06         0.00000E+00
    0.65098E+06        -0.94531E+08         0.00000E+00
    0.00000E+00         0.00000E+00        -0.66436E+08
 
   -0.66435E+08         0.63152E+06         0.00000E+00
    0.63152E+06        -0.94500E+08         0.00000E+00
    0.00000E+00         0.00000E+00        -0.66244E+08
 
   -0.66280E+08         0.60946E+06         0.00000E+00
    0.60946E+06        -0.94473E+08         0.00000E+00
    0.00000E+00         0.00000E+00        -0.66048E+08
 
   -0.66126E+08         0.58444E+06         0.00000E+00
    0.58444E+06        -0.94449E+08         0.00000E+00
    0.00000E+00         0.00000E+00        -0.65851E+08
 
   -0.65975E+08         0.55611E+06         0.00000E+00
    0.55611E+06        -0.94429E+08         0.00000E+00
    0.00000E+00         0.00000E+00        -0.65650E+08
 
   -0.65826E+08         0.52410E+06         0.00000E+00
    0.52410E+06        -0.94413E+08         0.00000E+00
    0.00000E+00         0.00000E+00        -0.65448E+08
 
   -0.65680E+08         0.48805E+06         0.00000E+00
    0.48805E+06        -0.94401E+08         0.00000E+00
    0.00000E+00         0.00000E+00        -0.65242E+08
 
   -0.65537E+08         0.44770E+06         0.00000E+00
    0.44770E+06        -0.94393E+08         0.00000E+00
    0.00000E+00         0.00000E+00        -0.65034E+08
 
   -0.65397E+08         0.40284E+06         0.00000E+00
    0.40284E+06        -0.94389E+08         0.00000E+00
    0.00000E+00         0.00000E+00        -0.64823E+08
 
   -0.65260E+08         0.35348E+06         0.00000E+00
    0.35348E+06        -0.94388E+08         0.00000E+00
    0.00000E+00         0.00000E+00        -0.64609E+08
 
   -0.65126E+08         0.29988E+06         0.00000E+00
    0.29988E+06        -0.94389E+08         0.00000E+00
    0.00000E+00         0.00000E+00        -0.64391E+08
 
   -0.64996E+08         0.24274E+06         0.00000E+00
    0.24274E+06        -0.94391E+08         0.00000E+00
    0.00000E+00         0.00000E+00        -0.64168E+08
 
   -0.64868E+08         0.18337E+06         0.00000E+00
    0.18337E+06        -0.94393E+08         0.00000E+00
    0.00000E+00         0.00000E+00        -0.63940E+08
 
   -0.64743E+08         0.12398E+06         0.00000E+00
    0.12398E+06        -0.94392E+08         0.00000E+00
    0.00000E+00         0.00000E+00        -0.63703E+08
 
   -0.64620E+08         0.67977E+05         0.00000E+00
    0.67977E+05        -0.94384E+08         0.00000E+00
    0.00000E+00         0.00000E+00        -0.63456E+08
 
   -0.64500E+08         0.20211E+05         0.00000E+00
    0.20211E+05        -0.94366E+08         0.00000E+00
    0.00000E+00         0.00000E+00        -0.63194E+08
 
   -0.64383E+08        -0.13646E+05         0.00000E+00
   -0.13646E+05        -0.94331E+08         0.00000E+00
    0.00000E+00         0.00000E+00        -0.62911E+08
 
   -0.64273E+08        -0.29162E+05         0.00000E+00
   -0.29162E+05        -0.94273E+08         0.00000E+00
    0.00000E+00         0.00000E+00        -0.62598E+08
 
   -0.64175E+08        -0.26183E+05         0.00000E+00
   -0.26183E+05        -0.94185E+08         0.00000E+00
    0.00000E+00         0.00000E+00        -0.62243E+08
 
   -0.64098E+08        -0.10210E+05         0.00000E+00
   -0.10210E+05        -0.94061E+08         0.00000E+00
    0.00000E+00         0.00000E+00        -0.61837E+08
 
   -0.80222E+08        -0.22812E+05         0.00000E+00
   -0.22812E+05        -0.97804E+08         0.00000E+00
    0.00000E+00         0.00000E+00        -0.84796E+08
 
   -0.80189E+08        -0.50368E+05         0.00000E+00
   -0.50368E+05        -0.97653E+08         0.00000E+00
    0.00000E+00         0.00000E+00        -0.84150E+08
 
   -0.80120E+08        -0.32344E+05         0.00000E+00
   -0.32344E+05        -0.97506E+08         0.00000E+00
    0.00000E+00         0.00000E+00        -0.83565E+08
 
   -0.80024E+08         0.31754E+05         0.00000E+00
    0.31754E+05        -0.97409E+08         0.00000E+00
    0.00000E+00         0.00000E+00        -0.83031E+08
 
   -0.79922E+08         0.12176E+06         0.00000E+00
    0.12176E+06        -0.97378E+08         0.00000E+00
    0.00000E+00         0.00000E+00        -0.82538E+08
 
   -0.79819E+08         0.22023E+06         0.00000E+00
    0.22023E+06        -0.97393E+08         0.00000E+00
    0.00000E+00         0.00000E+00        -0.82079E+08
 
   -0.79700E+08         0.31293E+06         0.00000E+00
    0.31293E+06        -0.97425E+08         0.00000E+00
    0.00000E+00         0.00000E+00        -0.81650E+08
 
   -0.79563E+08         0.39184E+06         0.00000E+00
    0.39184E+06        -0.97454E+08         0.00000E+00
    0.00000E+00         0.00000E+00        -0.81245E+08
 
   -0.79411E+08         0.46004E+06         0.00000E+00
    0.46004E+06        -0.97468E+08         0.00000E+00
    0.00000E+00         0.00000E+00        -0.80863E+08
 
   -0.79245E+08         0.52373E+06         0.00000E+00
    0.52373E+06        -0.97471E+08         0.00000E+00
    0.00000E+00         0.00000E+00        -0.80500E+08
 
   -0.79067E+08         0.58547E+06         0.00000E+00
    0.58547E+06        -0.97470E+08         0.00000E+00
    0.00000E+00         0.00000E+00        -0.80152E+08
 
   -0.78878E+08         0.64439E+06         0.00000E+00
    0.64439E+06        -0.97472E+08         0.00000E+00
    0.00000E+00         0.00000E+00        -0.79817E+08
 
   -0.78680E+08         0.69870E+06         0.00000E+00
    0.69870E+06        -0.97479E+08         0.00000E+00
    0.00000E+00         0.00000E+00        -0.79492E+08
 
   -0.78475E+08         0.74722E+06         0.00000E+00
    0.74722E+06        -0.97489E+08         0.00000E+00
    0.00000E+00         0.00000E+00        -0.79177E+08
 
   -0.78264E+08         0.78953E+06         0.00000E+00
    0.78953E+06        -0.97503E+08         0.00000E+00
    0.00000E+00         0.00000E+00        -0.78869E+08
 
   -0.78049E+08         0.82575E+06         0.00000E+00
    0.82575E+06        -0.97517E+08         0.00000E+00
    0.00000E+00         0.00000E+00        -0.78566E+08
 
   -0.77831E+08         0.85634E+06         0.00000E+00
    0.85634E+06        -0.97531E+08         0.00000E+00
    0.00000E+00         0.00000E+00        -0.78270E+08
 
   -0.77610E+08         0.88182E+06         0.00000E+00
    0.88182E+06        -0.97543E+08         0.00000E+00
    0.00000E+00         0.00000E+00        -0.77978E+08
 
   -0.77386E+08         0.90279E+06         0.00000E+00
    0.90279E+06        -0.97555E+08         0.00000E+00
    0.00000E+00         0.00000E+00        -0.77690E+08
 
   -0.77160E+08         0.91982E+06         0.00000E+00
    0.91982E+06        -0.97564E+08         0.00000E+00
    0.00000E+00         0.00000E+00        -0.77406E+08
 
   -0.76931E+08         0.93344E+06         0.00000E+00
    0.93344E+06        -0.97573E+08         0.00000E+00
    0.00000E+00         0.00000E+00        -0.77126E+08
 
   -0.76701E+08         0.94416E+06         0.00000E+00
    0.94416E+06        -0.97579E+08         0.00000E+00
    0.00000E+00         0.00000E+00        -0.76850E+08
 
   -0.76468E+08         0.95242E+06         0.00000E+00
    0.95242E+06        -0.97585E+08         0.00000E+00
    0.00000E+00         0.00000E+00        -0.76577E+08
 
   -0.76235E+08         0.95860E+06         0.00000E+00
    0.95860E+06        -0.97589E+08         0.00000E+00
    0.00000E+00         0.00000E+00        -0.76307E+08
 
   -0.76017E+08         0.96148E+06         0.00000E+00
    0.96148E+06        -0.97575E+08         0.00000E+00
    0.00000E+00         0.00000E+00        -0.76057E+08
 
   -0.75826E+08         0.96039E+06         0.00000E+00
    0.96039E+06        -0.97530E+08         0.00000E+00
    0.00000E+00         0.00000E+00        -0.75839E+08
 
   -0.75639E+08         0.95775E+06         0.00000E+00
    0.95775E+06        -0.97480E+08         0.00000E+00
    0.00000E+00         0.00000E+00        -0.75628E+08
 
   -0.75453E+08         0.95415E+06         0.00000E+00
    0.95415E+06        -0.97428E+08         0.00000E+00
    0.00000E+00         0.00000E+00        -0.75421E+08
 
   -0.75267E+08         0.94976E+06         0.00000E+00
    0.94976E+06        -0.97375E+08         0.00000E+00
    0.00000E+00         0.00000E+00        -0.75218E+08
 
   -0.75082E+08         0.94473E+06         0.00000E+00
    0.94473E+06        -0.97322E+08         0.00000E+00
    0.00000E+00         0.00000E+00        -0.75019E+08
 
   -0.74897E+08         0.93919E+06         0.00000E+00
    0.93919E+06        -0.97267E+08         0.00000E+00
    0.00000E+00         0.00000E+00        -0.74823E+08
 
   -0.74714E+08         0.93326E+06         0.00000E+00
    0.93326E+06        -0.97211E+08         0.00000E+00
    0.00000E+00         0.00000E+00        -0.74630E+08
 
   -0.74532E+08         0.92701E+06         0.00000E+00
    0.92701E+06        -0.97155E+08         0.00000E+00
    0.00000E+00         0.00000E+00        -0.74440E+08
 
   -0.74350E+08         0.92052E+06         0.00000E+00
    0.92052E+06        -0.97099E+08         0.00000E+00
    0.00000E+00         0.00000E+00        -0.74253E+08
 
   -0.74170E+08         0.91385E+06         0.00000E+00
    0.91385E+06        -0.97041E+08         0.00000E+00
    0.00000E+00         0.00000E+00        -0.74070E+08
 
   -0.73991E+08         0.90707E+06         0.00000E+00
    0.90707E+06        -0.96984E+08         0.00000E+00
    0.00000E+00         0.00000E+00        -0.73889E+08
 
   -0.73814E+08         0.90021E+06         0.00000E+00
    0.90021E+06        -0.96925E+08         0.00000E+00
    0.00000E+00         0.00000E+00        -0.73710E+08
 
   -0.73637E+08         0.89332E+06         0.00000E+00
    0.89332E+06        -0.96867E+08         0.00000E+00
    0.00000E+00         0.00000E+00        -0.73534E+08
 
   -0.73462E+08         0.88643E+06         0.00000E+00
    0.88643E+06        -0.96808E+08         0.00000E+00
    0.00000E+00         0.00000E+00        -0.73361E+08
 
   -0.73288E+08         0.87957E+06         0.00000E+00
    0.87957E+06        -0.96749E+08         0.00000E+00
    0.00000E+00         0.00000E+00        -0.73189E+08
 
   -0.73115E+08         0.87278E+06         0.00000E+00
    0.87278E+06        -0.96690E+08         0.00000E+00
    0.00000E+00         0.00000E+00        -0.73020E+08
 
   -0.72943E+08         0.86607E+06         0.00000E+00
    0.86607E+06        -0.96631E+08         0.00000E+00
    0.00000E+00         0.00000E+00        -0.72852E+08
 
   -0.72773E+08         0.85947E+06         0.00000E+00
    0.85947E+06        -0.96571E+08         0.00000E+00
    0.00000E+00         0.00000E+00        -0.72686E+08
 
   -0.72603E+08         0.85300E+06         0.00000E+00
    0.85300E+06        -0.96512E+08         0.00000E+00
    0.00000E+00         0.00000E+00        -0.72522E+08
 
   -0.72435E+08         0.84667E+06         0.00000E+00
    0.84667E+06        -0.96452E+08         0.00000E+00
    0.00000E+00         0.00000E+00        -0.72360E+08
 
   -0.72267E+08         0.84049E+06         0.00000E+00
    0.84049E+06        -0.96392E+08         0.00000E+00
    0.00000E+00         0.00000E+00        -0.72198E+08
 
   -0.72100E+08         0.83448E+06         0.00000E+00
    0.83448E+06        -0.96332E+08         0.00000E+00
    0.00000E+00         0.00000E+00        -0.72038E+08
 
   -0.71934E+08         0.82865E+06         0.00000E+00
    0.82865E+06        -0.96273E+08         0.00000E+00
    0.00000E+00         0.00000E+00        -0.71879E+08
 
   -0.71769E+08         0.82299E+06         0.00000E+00
    0.82299E+06        -0.96213E+08         0.00000E+00
    0.00000E+00         0.00000E+00        -0.71722E+08
 
   -0.71605E+08         0.81752E+06         0.00000E+00
    0.81752E+06        -0.96153E+08         0.00000E+00
    0.00000E+00         0.00000E+00        -0.71565E+08
 
   -0.71441E+08         0.81224E+06         0.00000E+00
    0.81224E+06        -0.96094E+08         0.00000E+00
    0.00000E+00         0.00000E+00        -0.71408E+08
 
   -0.71278E+08         0.80713E+06         0.00000E+00
    0.80713E+06        -0.96034E+08         0.00000E+00
    0.00000E+00         0.00000E+00        -0.71252E+08
 
   -0.71115E+08         0.80221E+06         0.00000E+00
    0.80221E+06        -0.95975E+08         0.00000E+00
    0.00000E+00         0.00000E+00        -0.71097E+08
 
   -0.70953E+08         0.79746E+06         0.00000E+00
    0.79746E+06        -0.95916E+08         0.00000E+00
    0.00000E+00         0.00000E+00        -0.70942E+08
 
   -0.70791E+08         0.79287E+06         0.00000E+00
    0.79287E+06        -0.95857E+08         0.00000E+00
    0.00000E+00         0.00000E+00        -0.70787E+08
 
   -0.70629E+08         0.78843E+06         0.00000E+00
    0.78843E+06        -0.95798E+08         0.00000E+00
    0.00000E+00         0.00000E+00        -0.70633E+08
 
   -0.70468E+08         0.78413E+06         0.00000E+00
    0.78413E+06        -0.95739E+08         0.00000E+00
    0.00000E+00         0.00000E+00        -0.70478E+08
 
   -0.70307E+08         0.77995E+06         0.00000E+00
    0.77995E+06        -0.95681E+08         0.00000E+00
    0.00000E+00         0.00000E+00        -0.70323E+08
 
   -0.70146E+08         0.77586E+06         0.00000E+00
    0.77586E+06        -0.95623E+08         0.00000E+00
    0.00000E+00         0.00000E+00        -0.70168E+08
 
   -0.69985E+08         0.77186E+06         0.00000E+00
    0.77186E+06        -0.95565E+08         0.00000E+00
    0.00000E+00         0.00000E+00        -0.70012E+08
 
   -0.69824E+08         0.76790E+06         0.00000E+00
    0.76790E+06        -0.95508E+08         0.00000E+00
    0.00000E+00         0.00000E+00        -0.69856E+08
 
   -0.69662E+08         0.76397E+06         0.00000E+00
    0.76397E+06        -0.95451E+08         0.00000E+00
    0.00000E+00         0.00000E+00        -0.69699E+08
 
   -0.69501E+08         0.76003E+06         0.00000E+00
    0.76003E+06        -0.95394E+08         0.00000E+00
    0.00000E+00         0.00000E+00        -0.69541E+08
 
   -0.69340E+08         0.75604E+06         0.00000E+00
    0.75604E+06        -0.95338E+08         0.00000E+00
    0.00000E+00         0.00000E+00        -0.69382E+08
 
   -0.69179E+08         0.75197E+06         0.00000E+00
    0.75197E+06        -0.95282E+08         0.00000E+00
    0.00000E+00         0.00000E+00        -0.69223E+08
 
   -0.69017E+08         0.74777E+06         0.00000E+00
    0.74777E+06        -0.95227E+08         0.00000E+00
    0.00000E+00         0.00000E+00        -0.69062E+08
 
   -0.68855E+08         0.74340E+06         0.00000E+00
    0.74340E+06        -0.95172E+08         0.00000E+00
    0.00000E+00         0.00000E+00        -0.68899E+08
 
   -0.68693E+08         0.73881E+06         0.00000E+00
    0.73881E+06        -0.95119E+08         0.00000E+00
    0.00000E+00         0.00000E+00        -0.68736E+08
 
   -0.68531E+08         0.73393E+06         0.00000E+00
    0.73393E+06        -0.95066E+08         0.00000E+00
    0.00000E+00         0.00000E+00        -0.68571E+08
 
   -0.68369E+08         0.72871E+06         0.00000E+00
    0.72871E+06        -0.95013E+08         0.00000E+00
    0.00000E+00         0.00000E+00        -0.68404E+08
 
   -0.68206E+08         0.72307E+06         0.00000E+00
    0.72307E+06        -0.94962E+08         0.00000E+00
    0.00000E+00         0.00000E+00        -0.68235E+08
 
   -0.68043E+08         0.71694E+06         0.00000E+00
    0.71694E+06        -0.94912E+08         0.00000E+00
    0.00000E+00         0.00000E+00        -0.68065E+08
 
   -0.67881E+08         0.71022E+06         0.00000E+00
    0.71022E+06        -0.94863E+08         0.00000E+00
    0.00000E+00         0.00000E+00        -0.67893E+08
 
   -0.67718E+08         0.70281E+06         0.00000E+00
    0.70281E+06        -0.94815E+08         0.00000E+00
    0.00000E+00         0.00000E+00        -0.67718E+08
 
   -0.67555E+08         0.69460E+06         0.00000E+00
    0.69460E+06        -0.94768E+08         0.00000E+00
    0.00000E+00         0.00000E+00        -0.67542E+08
 
   -0.67393E+08         0.68547E+06         0.00000E+00
    0.68547E+06        -0.94723E+08         0.00000E+00
    0.00000E+00         0.00000E+00        -0.67363E+08
 
   -0.67231E+08         0.67525E+06         0.00000E+00
    0.67525E+06        -0.94680E+08         0.00000E+00
    0.00000E+00         0.00000E+00        -0.67182E+08
 
   -0.67070E+08         0.66378E+06         0.00000E+00
    0.66378E+06        -0.94639E+08         0.00000E+00
    0.00000E+00         0.00000E+00        -0.66999E+08
 
   -0.66909E+08         0.65085E+06         0.00000E+00
    0.65085E+06        -0.94600E+08         0.00000E+00
    0.00000E+00         0.00000E+00        -0.66813E+08
 
   -0.66750E+08         0.63625E+06         0.00000E+00
    0.63625E+06        -0.94564E+08         0.00000E+00
    0.00000E+00         0.00000E+00        -0.66624E+08
 
   -0.66591E+08         0.61972E+06         0.00000E+00
    0.61972E+06        -0.94530E+08         0.00000E+00
    0.00000E+00         0.00000E+00        -0.66434E+08
 
   -0.66435E+08         0.60097E+06         0.00000E+00
    0.60097E+06        -0.94499E+08         0.00000E+00
    0.00000E+00         0.00000E+00        -0.66240E+08
 
   -0.66280E+08         0.57968E+06         0.00000E+00
    0.57968E+06        -0.94471E+08         0.00000E+00
    0.00000E+00         0.00000E+00        -0.66044E+08
 
   -0.66127E+08         0.55551E+06         0.00000E+00
    0.55551E+06        -0.94447E+08         0.00000E+00
    0.00000E+00         0.00000E+00        -0.65845E+08
 
   -0.65976E+08         0.52809E+06         0.00000E+00
    0.52809E+06        -0.94426E+08         0.00000E+00
    0.00000E+00         0.00000E+00        -0.65644E+08
 
   -0.65828E+08         0.49706E+06         0.00000E+00
    0.49706E+06        -0.94409E+08         0.00000E+00
    0.00000E+00         0.00000E+00        -0.65440E+08
 
   -0.65683E+08         0.46208E+06         0.00000E+00
    0.46208E+06        -0.94397E+08         0.00000E+00
    0.00000E+00         0.00000E+00        -0.65233E+08
 
   -0.65542E+08         0.42284E+06         0.00000E+00
    0.42284E+06        -0.94388E+08         0.00000E+00
    0.00000E+00         0.00000E+00        -0.65023E+08
 
   -0.65403E+08         0.37916E+06         0.00000E+00
    0.37916E+06        -0.94383E+08         0.00000E+00
    0.00000E+00         0.00000E+00        -0.64811E+08
 
   -0.65269E+08         0.33103E+06         0.00000E+00
    0.33103E+06        -0.94382E+08         0.00000E+00
    0.00000E+00         0.00000E+00        -0.64594E+08
 
   -0.65137E+08         0.27871E+06         0.00000E+00
    0.27871E+06        -0.94383E+08         0.00000E+00
    0.00000E+00         0.00000E+00        -0.64374E+08
 
   -0.65010E+08         0.22289E+06         0.00000E+00
    0.22289E+06        -0.94386E+08         0.00000E+00
    0.00000E+00         0.00000E+00        -0.64149E+08
 
   -0.64886E+08         0.16487E+06         0.00000E+00
    0.16487E+06        -0.94388E+08         0.00000E+00
    0.00000E+00         0.00000E+00        -0.63918E+08
 
   -0.64765E+08         0.10684E+06         0.00000E+00
    0.10684E+06        -0.94389E+08         0.00000E+00
    0.00000E+00         0.00000E+00        -0.63679E+08
 
   -0.64647E+08         0.52211E+05         0.00000E+00
    0.52211E+05        -0.94384E+08         0.00000E+00
    0.00000E+00         0.00000E+00        -0.63430E+08
 
   -0.64532E+08         0.58803E+04         0.00000E+00
    0.58803E+04        -0.94369E+08         0.00000E+00
    0.00000E+00         0.00000E+00        -0.63168E+08
 
   -0.64420E+08        -0.26242E+05         0.00000E+00
   -0.26242E+05        -0.94339E+08         0.00000E+00
    0.00000E+00         0.00000E+00        -0.62886E+08
 
   -0.64313E+08        -0.39300E+05         0.00000E+00
   -0.39300E+05        -0.94286E+08         0.00000E+00
    0.00000E+00         0.00000E+00        -0.62576E+08
 
   -0.64217E+08        -0.32838E+05         0.00000E+00
   -0.32838E+05        -0.94203E+08         0.00000E+00
    0.00000E+00         0.00000E+00        -0.62224E+08
 
   -0.64142E+08        -0.12532E+05         0.00000E+00
   -0.12532E+05        -0.94081E+08         0.00000E+00
    0.00000E+00         0.00000E+00        -0.61820E+08
 
   -0.80141E+08        -0.25651E+05         0.00000E+00
   -0.25651E+05        -0.97794E+08         0.00000E+00
    0.00000E+00         0.00000E+00        -0.84825E+08
 
   -0.80113E+08        -0.59445E+05         0.00000E+00
   -0.59445E+05        -0.97651E+08         0.00000E+00
    0.00000E+00         0.00000E+00        -0.84185E+08
 
   -0.80054E+08        -0.47943E+05         0.00000E+00
   -0.47943E+05        -0.97514E+08         0.00000E+00
    0.00000E+00         0.00000E+00        -0.83605E+08
 
   -0.79971E+08         0.12386E+05         0.00000E+00
    0.12386E+05        -0.97425E+08         0.00000E+00
    0.00000E+00         0.00000E+00        -0.83073E+08
 
   -0.79879E+08         0.10178E+06         0.00000E+00
    0.10178E+06        -0.97397E+08         0.00000E+00
    0.00000E+00         0.00000E+00        -0.82581E+08
 
   -0.79779E+08         0.19850E+06         0.00000E+00
    0.19850E+06        -0.97412E+08         0.00000E+00
    0.00000E+00         0.00000E+00        -0.82119E+08
 
   -0.79665E+08         0.28762E+06         0.00000E+00
    0.28762E+06        -0.97442E+08         0.00000E+00
    0.00000E+00         0.00000E+00        -0.81685E+08
 
   -0.79533E+08         0.36323E+06         0.00000E+00
    0.36323E+06        -0.97468E+08         0.00000E+00
    0.00000E+00         0.00000E+00        -0.81275E+08
 
   -0.79386E+08         0.42871E+06         0.00000E+00
    0.42871E+06        -0.97481E+08         0.00000E+00
    0.00000E+00         0.00000E+00        -0.80887E+08
 
   -0.79224E+08         0.48981E+06         0.00000E+00
    0.48981E+06        -0.97483E+08         0.00000E+00
    0.00000E+00         0.00000E+00        -0.80518E+08
 
   -0.79050E+08         0.54908E+06         0.00000E+00
    0.54908E+06        -0.97482E+08         0.00000E+00
    0.00000E+00         0.00000E+00        -0.80165E+08
 
   -0.78865E+08         0.60586E+06         0.00000E+00
    0.60586E+06        -0.97483E+08         0.00000E+00
    0.00000E+00         0.00000E+00        -0.79826E+08
 
   -0.78669E+08         0.65850E+06         0.00000E+00
    0.65850E+06        -0.97489E+08         0.00000E+00
    0.00000E+00         0.00000E+00        -0.79498E+08
 
   -0.78466E+08         0.70574E+06         0.00000E+00
    0.70574E+06        -0.97498E+08         0.00000E+00
    0.00000E+00         0.00000E+00        -0.79179E+08
 
   -0.78257E+08         0.74708E+06         0.00000E+00
    0.74708E+06        -0.97510E+08         0.00000E+00
    0.00000E+00         0.00000E+00        -0.78867E+08
 
   -0.78043E+08         0.78253E+06         0.00000E+00
    0.78253E+06        -0.97523E+08         0.00000E+00
    0.00000E+00         0.00000E+00        -0.78563E+08
 
   -0.77826E+08         0.81245E+06         0.00000E+00
    0.81245E+06        -0.97536E+08         0.00000E+00
    0.00000E+00         0.00000E+00        -0.78264E+08
 
   -0.77605E+08         0.83735E+06         0.00000E+00
    0.83735E+06        -0.97548E+08         0.00000E+00
    0.00000E+00         0.00000E+00        -0.77971E+08
 
   -0.77382E+08         0.85779E+06         0.00000E+00
    0.85779E+06        -0.97558E+08         0.00000E+00
    0.00000E+00         0.00000E+00        -0.77682E+08
 
   -0.77156E+08         0.87434E+06         0.00000E+00
    0.87434E+06        -0.97567E+08         0.00000E+00
    0.00000E+00         0.00000E+00        -0.77397E+08
 
   -0.76928E+08         0.88754E+06         0.00000E+00
    0.88754E+06        -0.97575E+08         0.00000E+00
    0.00000E+00         0.00000E+00        -0.77117E+08
 
   -0.76697E+08         0.89788E+06         0.00000E+00
    0.89788E+06        -0.97581E+08         0.00000E+00
    0.00000E+00         0.00000E+00        -0.76840E+08
 
   -0.76465E+08         0.90581E+06         0.00000E+00
    0.90581E+06        -0.97586E+08         0.00000E+00
    0.00000E+00         0.00000E+00        -0.76566E+08
 
   -0.76231E+08         0.91173E+06         0.00000E+00
    0.91173E+06        -0.97590E+08         0.00000E+00
    0.00000E+00         0.00000E+00        -0.76296E+08
 
   -0.76015E+08         0.91441E+06         0.00000E+00
    0.91441E+06        -0.97574E+08         0.00000E+00
    0.00000E+00         0.00000E+00        -0.76048E+08
 
   -0.75825E+08         0.91330E+06         0.00000E+00
    0.91330E+06        -0.97529E+08         0.00000E+00
    0.00000E+00         0.00000E+00        -0.75830E+08
 
   -0.75638E+08         0.91081E+06         0.00000E+00
    0.91081E+06        -0.97478E+08         0.00000E+00
    0.00000E+00         0.00000E+00        -0.75620E+08
 
   -0.75452E+08         0.90738E+06         0.00000E+00
    0.90738E+06        -0.97427E+08         0.00000E+00
    0.00000E+00         0.00000E+00        -0.75413E+08
 
   -0.75266E+08         0.90321E+06         0.00000E+00
    0.90321E+06        -0.97374E+08         0.00000E+00
    0.00000E+00         0.00000E+00        -0.75210E+08
 
   -0.75081E+08         0.89845E+06         0.00000E+00
    0.89845E+06        -0.97320E+08         0.00000E+00
    0.00000E+00         0.00000E+00        -0.75011E+08
 
   -0.74896E+08         0.89320E+06         0.00000E+00
    0.89320E+06        -0.97266E+08         0.00000E+00
    0.00000E+00         0.00000E+00        -0.74815E+08
 
   -0.74713E+08         0.88758E+06         0.00000E+00
    0.88758E+06        -0.97210E+08         0.00000E+00
    0.00000E+00         0.00000E+00        -0.74622E+08
 
   -0.74531E+08         0.88166E+06         0.00000E+00
    0.88166E+06        -0.97154E+08         0.00000E+00
    0.00000E+00         0.00000E+00        -0.74433E+08
 
   -0.74349E+08         0.87552E+06         0.00000E+00
    0.87552E+06        -0.97098E+08         0.00000E+00
    0.00000E+00         0.00000E+00        -0.74246E+08
 
   -0.74169E+08         0.86922E+06         0.00000E+00
    0.86922E+06        -0.97040E+08         0.00000E+00
    0.00000E+00         0.00000E+00        -0.74063E+08
 
   -0.73990E+08         0.86281E+06         0.00000E+00
    0.86281E+06        -0.96983E+08         0.00000E+00
    0.00000E+00         0.00000E+00        -0.73882E+08
 
   -0.73813E+08         0.85632E+06         0.00000E+00
    0.85632E+06        -0.96925E+08         0.00000E+00
    0.00000E+00         0.00000E+00        -0.73704E+08
 
   -0.73636E+08         0.84980E+06         0.00000E+00
    0.84980E+06        -0.96866E+08         0.00000E+00
    0.00000E+00         0.00000E+00        -0.73528E+08
 
   -0.73461E+08         0.84329E+06         0.00000E+00
    0.84329E+06        -0.96808E+08         0.00000E+00
    0.00000E+00         0.00000E+00        -0.73355E+08
 
   -0.73287E+08         0.83681E+06         0.00000E+00
    0.83681E+06        -0.96749E+08         0.00000E+00
    0.00000E+00         0.00000E+00        -0.73183E+08
 
   -0.73114E+08         0.83038E+06         0.00000E+00
    0.83038E+06        -0.96690E+08         0.00000E+00
    0.00000E+00         0.00000E+00        -0.73014E+08
 
   -0.72942E+08         0.82404E+06         0.00000E+00
    0.82404E+06        -0.96631E+08         0.00000E+00
    0.00000E+00         0.00000E+00        -0.72847E+08
 
   -0.72772E+08         0.81779E+06         0.00000E+00
    0.81779E+06        -0.96571E+08         0.00000E+00
    0.00000E+00         0.00000E+00        -0.72681E+08
 
   -0.72602E+08         0.81166E+06         0.00000E+00
    0.81166E+06        -0.96512E+08         0.00000E+00
    0.00000E+00         0.00000E+00        -0.72518E+08
 
   -0.72433E+08         0.80567E+06         0.00000E+00
    0.80567E+06        -0.96452E+08         0.00000E+00
    0.00000E+00         0.00000E+00        -0.72355E+08
 
   -0.72266E+08         0.79982E+06         0.00000E+00
    0.79982E+06        -0.96392E+08         0.00000E+00
    0.00000E+00         0.00000E+00        -0.72194E+08
 
   -0.72099E+08         0.79412E+06         0.00000E+00
    0.79412E+06        -0.96333E+08         0.00000E+00
    0.00000E+00         0.00000E+00        -0.72034E+08
 
   -0.71933E+08         0.78859E+06         0.00000E+00
    0.78859E+06        -0.96273E+08         0.00000E+00
    0.00000E+00         0.00000E+00        -0.71876E+08
 
   -0.71768E+08         0.78322E+06         0.00000E+00
    0.78322E+06        -0.96213E+08         0.00000E+00
    0.00000E+00         0.00000E+00        -0.71718E+08
 
   -0.71603E+08         0.77803E+06         0.00000E+00
    0.77803E+06        -0.96154E+08         0.00000E+00
    0.00000E+00         0.00000E+00        -0.71561E+08
 
   -0.71439E+08         0.77301E+06         0.00000E+00
    0.77301E+06        -0.96094E+08         0.00000E+00
    0.00000E+00         0.00000E+00        -0.71405E+08
 
   -0.71276E+08         0.76816E+06         0.00000E+00
    0.76816E+06        -0.96035E+08         0.00000E+00
    0.00000E+00         0.00000E+00        -0.71250E+08
 
   -0.71113E+08         0.76348E+06         0.00000E+00
    0.76348E+06        -0.95976E+08         0.00000E+00
    0.00000E+00         0.00000E+00        -0.71095E+08
 
   -0.70951E+08         0.75896E+06         0.00000E+00
    0.75896E+06        -0.95917E+08         0.00000E+00
    0.00000E+00         0.00000E+00        -0.70940E+08
 
   -0.70789E+08         0.75459E+06         0.00000E+00
    0.75459E+06        -0.95858E+08         0.00000E+00
    0.00000E+00         0.00000E+00        -0.70785E+08
 
   -0.70627E+08         0.75036E+06         0.00000E+00
    0.75036E+06        -0.95799E+08         0.00000E+00
    0.00000E+00         0.00000E+00        -0.70631E+08
 
   -0.70466E+08         0.74626E+06         0.00000E+00
    0.74626E+06        -0.95740E+08         0.00000E+00
    0.00000E+00         0.00000E+00        -0.70476E+08
 
   -0.70304E+08         0.74227E+06         0.00000E+00
    0.74227E+06        -0.95682E+08         0.00000E+00
    0.00000E+00         0.00000E+00        -0.70322E+08
 
   -0.70143E+08         0.73837E+06         0.00000E+00
    0.73837E+06        -0.95624E+08         0.00000E+00
    0.00000E+00         0.00000E+00        -0.70167E+08
 
   -0.69982E+08         0.73454E+06         0.00000E+00
    0.73454E+06        -0.95566E+08         0.00000E+00
    0.00000E+00         0.00000E+00        -0.70011E+08
 
   -0.69821E+08         0.73075E+06         0.00000E+00
    0.73075E+06        -0.95509E+08         0.00000E+00
    0.00000E+00         0.00000E+00        -0.69855E+08
 
   -0.69660E+08         0.72699E+06         0.00000E+00
    0.72699E+06        -0.95452E+08         0.00000E+00
    0.00000E+00         0.00000E+00        -0.69698E+08
 
   -0.69499E+08         0.72321E+06         0.00000E+00
    0.72321E+06        -0.95395E+08         0.00000E+00
    0.00000E+00         0.00000E+00        -0.69540E+08
 
   -0.69337E+08         0.71939E+06         0.00000E+00
    0.71939E+06        -0.95339E+08         0.00000E+00
    0.00000E+00         0.00000E+00        -0.69382E+08
 
   -0.69176E+08         0.71548E+06         0.00000E+00
    0.71548E+06        -0.95283E+08         0.00000E+00
    0.00000E+00         0.00000E+00        -0.69222E+08
 
   -0.69014E+08         0.71145E+06         0.00000E+00
    0.71145E+06        -0.95228E+08         0.00000E+00
    0.00000E+00         0.00000E+00        -0.69061E+08
 
   -0.68852E+08         0.70726E+06         0.00000E+00
    0.70726E+06        -0.95174E+08         0.00000E+00
    0.00000E+00         0.00000E+00        -0.68899E+08
 
   -0.68690E+08         0.70285E+06         0.00000E+00
    0.70285E+06        -0.95120E+08         0.00000E+00
    0.00000E+00         0.00000E+00        -0.68736E+08
 
   -0.68528E+08         0.69816E+06         0.00000E+00
    0.69816E+06        -0.95067E+08         0.00000E+00
    0.00000E+00         0.00000E+00        -0.68571E+08
 
   -0.68366E+08         0.69315E+06         0.00000E+00
    0.69315E+06        -0.95014E+08         0.00000E+00
    0.00000E+00         0.00000E+00        -0.68404E+08
 
   -0.68203E+08         0.68773E+06         0.00000E+00
    0.68773E+06        -0.94963E+08         0.00000E+00
    0.00000E+00         0.00000E+00        -0.68235E+08
 
   -0.68041E+08         0.68184E+06         0.00000E+00
    0.68184E+06        -0.94913E+08         0.00000E+00
    0.00000E+00         0.00000E+00        -0.68065E+08
 
   -0.67878E+08         0.67539E+06         0.00000E+00
    0.67539E+06        -0.94863E+08         0.00000E+00
    0.00000E+00         0.00000E+00        -0.67892E+08
 
   -0.67715E+08         0.66829E+06         0.00000E+00
    0.66829E+06        -0.94815E+08         0.00000E+00
    0.00000E+00         0.00000E+00        -0.67718E+08
 
   -0.67553E+08         0.66042E+06         0.00000E+00
    0.66042E+06        -0.94769E+08         0.00000E+00
    0.00000E+00         0.00000E+00        -0.67541E+08
 
   -0.67391E+08         0.65165E+06         0.00000E+00
    0.65165E+06        -0.94724E+08         0.00000E+00
    0.00000E+00         0.00000E+00        -0.67362E+08
 
   -0.67229E+08         0.64185E+06         0.00000E+00
    0.64185E+06        -0.94681E+08         0.00000E+00
    0.00000E+00         0.00000E+00        -0.67181E+08
 
   -0.67068E+08         0.63085E+06         0.00000E+00
    0.63085E+06        -0.94639E+08         0.00000E+00
    0.00000E+00         0.00000E+00        -0.66997E+08
 
   -0.66908E+08         0.61845E+06         0.00000E+00
    0.61845E+06        -0.94600E+08         0.00000E+00
    0.00000E+00         0.00000E+00        -0.66811E+08
 
   -0.66748E+08         0.60443E+06         0.00000E+00
    0.60443E+06        -0.94563E+08         0.00000E+00
    0.00000E+00         0.00000E+00        -0.66622E+08
 
   -0.66590E+08         0.58855E+06         0.00000E+00
    0.58855E+06        -0.94529E+08         0.00000E+00
    0.00000E+00         0.00000E+00        -0.66431E+08
 
   -0.66434E+08         0.57052E+06         0.00000E+00
    0.57052E+06        -0.94497E+08         0.00000E+00
    0.00000E+00         0.00000E+00        -0.66237E+08
 
   -0.66279E+08         0.55003E+06         0.00000E+00
    0.55003E+06        -0.94469E+08         0.00000E+00
    0.00000E+00         0.00000E+00        -0.66040E+08
 
   -0.66127E+08         0.52673E+06         0.00000E+00
    0.52673E+06        -0.94444E+08         0.00000E+00
    0.00000E+00         0.00000E+00        -0.65840E+08
 
   -0.65977E+08         0.50027E+06         0.00000E+00
    0.50027E+06        -0.94423E+08         0.00000E+00
    0.00000E+00         0.00000E+00        -0.65638E+08
 
   -0.65830E+08         0.47028E+06         0.00000E+00
    0.47028E+06        -0.94406E+08         0.00000E+00
    0.00000E+00         0.00000E+00        -0.65432E+08
 
   -0.65686E+08         0.43641E+06         0.00000E+00
    0.43641E+06        -0.94393E+08         0.00000E+00
    0.00000E+00         0.00000E+00        -0.65224E+08
 
   -0.65546E+08         0.39836E+06         0.00000E+00
    0.39836E+06        -0.94384E+08         0.00000E+00
    0.00000E+00         0.00000E+00        -0.65013E+08
 
   -0.65410E+08         0.35595E+06         0.00000E+00
    0.35595E+06        -0.94378E+08         0.00000E+00
    0.00000E+00         0.00000E+00        -0.64798E+08
 
   -0.65277E+08         0.30915E+06         0.00000E+00
    0.30915E+06        -0.94377E+08         0.00000E+00
    0.00000E+00         0.00000E+00        -0.64580E+08
 
   -0.65148E+08         0.25822E+06         0.00000E+00
    0.25822E+06        -0.94378E+08         0.00000E+00
    0.00000E+00         0.00000E+00        -0.64357E+08
 
   -0.65024E+08         0.20385E+06         0.00000E+00
    0.20385E+06        -0.94381E+08         0.00000E+00
    0.00000E+00         0.00000E+00        -0.64130E+08
 
   -0.64904E+08         0.14730E+06         0.00000E+00
    0.14730E+06        -0.94384E+08         0.00000E+00
    0.00000E+00         0.00000E+00        -0.63896E+08
 
   -0.64787E+08         0.90729E+05         0.00000E+00
    0.90729E+05        -0.94386E+08         0.00000E+00
    0.00000E+00         0.00000E+00        -0.63656E+08
 
   -0.64674E+08         0.37515E+05         0.00000E+00
    0.37515E+05        -0.94384E+08         0.00000E+00
    0.00000E+00         0.00000E+00        -0.63405E+08
 
   -0.64564E+08        -0.74563E+04         0.00000E+00
   -0.74563E+04        -0.94373E+08         0.00000E+00
    0.00000E+00         0.00000E+00        -0.63143E+08
 
   -0.64457E+08        -0.38069E+05         0.00000E+00
   -0.38069E+05        -0.94348E+08         0.00000E+00
    0.00000E+00         0.00000E+00        -0.62862E+08
 
   -0.64354E+08        -0.48980E+05         0.00000E+00
   -0.48980E+05        -0.94301E+08         0.00000E+00
    0.00000E+00         0.00000E+00        -0.62554E+08
 
   -0.64261E+08        -0.39298E+05         0.00000E+00
   -0.39298E+05        -0.94222E+08         0.00000E+00
    0.00000E+00         0.00000E+00        -0.62206E+08
 
   -0.64186E+08        -0.14807E+05         0.00000E+00
   -0.14807E+05        -0.94103E+08         0.00000E+00
    0.00000E+00         0.00000E+00        -0.61804E+08
 
   -0.80062E+08        -0.28142E+05         0.00000E+00
   -0.28142E+05        -0.97784E+08         0.00000E+00
    0.00000E+00         0.00000E+00        -0.84853E+08
 
   -0.80037E+08        -0.67290E+05         0.00000E+00
   -0.67290E+05        -0.97647E+08         0.00000E+00
    0.00000E+00         0.00000E+00        -0.84219E+08
 
   -0.79987E+08        -0.61218E+05         0.00000E+00
   -0.61218E+05        -0.97521E+08         0.00000E+00
    0.00000E+00         0.00000E+00        -0.83644E+08
 
   -0.79916E+08        -0.45334E+04         0.00000E+00
   -0.45334E+04        -0.97441E+08         0.00000E+00
    0.00000E+00         0.00000E+00        -0.83116E+08
 
   -0.79834E+08         0.83177E+05         0.00000E+00
    0.83177E+05        -0.97417E+08         0.00000E+00
    0.00000E+00         0.00000E+00        -0.82622E+08
 
   -0.79740E+08         0.17761E+06         0.00000E+00
    0.17761E+06        -0.97431E+08         0.00000E+00
    0.00000E+00         0.00000E+00        -0.82158E+08
 
   -0.79631E+08         0.26331E+06         0.00000E+00
    0.26331E+06        -0.97459E+08         0.00000E+00
    0.00000E+00         0.00000E+00        -0.81719E+08
 
   -0.79504E+08         0.33567E+06         0.00000E+00
    0.33567E+06        -0.97482E+08         0.00000E+00
    0.00000E+00         0.00000E+00        -0.81305E+08
 
   -0.79361E+08         0.39831E+06         0.00000E+00
    0.39831E+06        -0.97493E+08         0.00000E+00
    0.00000E+00         0.00000E+00        -0.80911E+08
 
   -0.79204E+08         0.45671E+06         0.00000E+00
    0.45671E+06        -0.97495E+08         0.00000E+00
    0.00000E+00         0.00000E+00        -0.80537E+08
 
   -0.79034E+08         0.51340E+06         0.00000E+00
    0.51340E+06        -0.97493E+08         0.00000E+00
    0.00000E+00         0.00000E+00        -0.80179E+08
 
   -0.78852E+08         0.56794E+06         0.00000E+00
    0.56794E+06        -0.97494E+08         0.00000E+00
    0.00000E+00         0.00000E+00        -0.79835E+08
 
   -0.78659E+08         0.61877E+06         0.00000E+00
    0.61877E+06        -0.97499E+08         0.00000E+00
    0.00000E+00         0.00000E+00        -0.79502E+08
 
   -0.78458E+08         0.66463E+06         0.00000E+00
    0.66463E+06        -0.97507E+08         0.00000E+00
    0.00000E+00         0.00000E+00        -0.79180E+08
 
   -0.78251E+08         0.70490E+06         0.00000E+00
    0.70490E+06        -0.97518E+08         0.00000E+00
    0.00000E+00         0.00000E+00        -0.78866E+08
 
   -0.78038E+08         0.73950E+06         0.00000E+00
    0.73950E+06        -0.97530E+08         0.00000E+00
    0.00000E+00         0.00000E+00        -0.78559E+08
 
   -0.77822E+08         0.76870E+06         0.00000E+00
    0.76870E+06        -0.97542E+08         0.00000E+00
    0.00000E+00         0.00000E+00        -0.78259E+08
 
   -0.77602E+08         0.79298E+06         0.00000E+00
    0.79298E+06        -0.97552E+08         0.00000E+00
    0.00000E+00         0.00000E+00        -0.77964E+08
 
   -0.77379E+08         0.81286E+06         0.00000E+00
    0.81286E+06        -0.97562E+08         0.00000E+00
    0.00000E+00         0.00000E+00        -0.77674E+08
 
   -0.77153E+08         0.82891E+06         0.00000E+00
    0.82891E+06        -0.97570E+08         0.00000E+00
    0.00000E+00         0.00000E+00        -0.77389E+08
 
   -0.76925E+08         0.84166E+06         0.00000E+00
    0.84166E+06        -0.97577E+08         0.00000E+00
    0.00000E+00         0.00000E+00        -0.77107E+08
 
   -0.76694E+08         0.85163E+06         0.00000E+00
    0.85163E+06        -0.97583E+08         0.00000E+00
    0.00000E+00         0.00000E+00        -0.76830E+08
 
   -0.76462E+08         0.85924E+06         0.00000E+00
    0.85924E+06        -0.97588E+08         0.00000E+00
    0.00000E+00         0.00000E+00        -0.76556E+08
 
   -0.76229E+08         0.86490E+06         0.00000E+00
    0.86490E+06        -0.97591E+08         0.00000E+00
    0.00000E+00         0.00000E+00        -0.76286E+08
 
   -0.76013E+08         0.86739E+06         0.00000E+00
    0.86739E+06        -0.97574E+08         0.00000E+00
    0.00000E+00         0.00000E+00        -0.76039E+08
 
   -0.75824E+08         0.86628E+06         0.00000E+00
    0.86628E+06        -0.97527E+08         0.00000E+00
    0.00000E+00         0.00000E+00        -0.75822E+08
 
   -0.75637E+08         0.86392E+06         0.00000E+00
    0.86392E+06        -0.97477E+08         0.00000E+00
    0.00000E+00         0.00000E+00        -0.75611E+08
 
   -0.75451E+08         0.86068E+06         0.00000E+00
    0.86068E+06        -0.97425E+08         0.00000E+00
    0.00000E+00         0.00000E+00        -0.75405E+08
 
   -0.75265E+08         0.85673E+06         0.00000E+00
    0.85673E+06        -0.97373E+08         0.00000E+00
    0.00000E+00         0.00000E+00        -0.75202E+08
 
   -0.75080E+08         0.85222E+06         0.00000E+00
    0.85222E+06        -0.97319E+08         0.00000E+00
    0.00000E+00         0.00000E+00        -0.75003E+08
 
   -0.74896E+08         0.84726E+06         0.00000E+00
    0.84726E+06        -0.97265E+08         0.00000E+00
    0.00000E+00         0.00000E+00        -0.74807E+08
 
   -0.74712E+08         0.84195E+06         0.00000E+00
    0.84195E+06        -0.97209E+08         0.00000E+00
    0.00000E+00         0.00000E+00        -0.74614E+08
 
   -0.74530E+08         0.83636E+06         0.00000E+00
    0.83636E+06        -0.97153E+08         0.00000E+00
    0.00000E+00         0.00000E+00        -0.74425E+08
 
   -0.74349E+08         0.83057E+06         0.00000E+00
    0.83057E+06        -0.97097E+08         0.00000E+00
    0.00000E+00         0.00000E+00        -0.74239E+08
 
   -0.74169E+08         0.82463E+06         0.00000E+00
    0.82463E+06        -0.97040E+08         0.00000E+00
    0.00000E+00         0.00000E+00        -0.74056E+08
 
   -0.73990E+08         0.81858E+06         0.00000E+00
    0.81858E+06        -0.96982E+08         0.00000E+00
    0.00000E+00         0.00000E+00        -0.73875E+08
 
   -0.73812E+08         0.81246E+06         0.00000E+00
    0.81246E+06        -0.96924E+08         0.00000E+00
    0.00000E+00         0.00000E+00        -0.73697E+08
 
   -0.73636E+08         0.80631E+06         0.00000E+00
    0.80631E+06        -0.96866E+08         0.00000E+00
    0.00000E+00         0.00000E+00        -0.73522E+08
 
   -0.73460E+08         0.80017E+06         0.00000E+00
    0.80017E+06        -0.96808E+08         0.00000E+00
    0.00000E+00         0.00000E+00        -0.73349E+08
 
   -0.73286E+08         0.79406E+06         0.00000E+00
    0.79406E+06        -0.96749E+08         0.00000E+00
    0.00000E+00         0.00000E+00        -0.73178E+08
 
   -0.73113E+08         0.78799E+06         0.00000E+00
    0.78799E+06        -0.96690E+08         0.00000E+00
    0.00000E+00         0.00000E+00        -0.73009E+08
 
   -0.72942E+08         0.78201E+06         0.00000E+00
    0.78201E+06        -0.96631E+08         0.00000E+00
    0.00000E+00         0.00000E+00        -0.72842E+08
 
   -0.72771E+08         0.77611E+06         0.00000E+00
    0.77611E+06        -0.96571E+08         0.00000E+00
    0.00000E+00         0.00000E+00        -0.72677E+08
 
   -0.72601E+08         0.77032E+06         0.00000E+00
    0.77032E+06        -0.96512E+08         0.00000E+00
    0.00000E+00         0.00000E+00        -0.72513E+08
 
   -0.72432E+08         0.76466E+06         0.00000E+00
    0.76466E+06        -0.96452E+08         0.00000E+00
    0.00000E+00         0.00000E+00        -0.72351E+08
 
   -0.72265E+08         0.75913E+06         0.00000E+00
    0.75913E+06        -0.96393E+08         0.00000E+00
    0.00000E+00         0.00000E+00        -0.72190E+08
 
   -0.72098E+08         0.75374E+06         0.00000E+00
    0.75374E+06        -0.96333E+08         0.00000E+00
    0.00000E+00         0.00000E+00        -0.72031E+08
 
   -0.71932E+08         0.74851E+06         0.00000E+00
    0.74851E+06        -0.96274E+08         0.00000E+00
    0.00000E+00         0.00000E+00        -0.71872E+08
 
   -0.71766E+08         0.74343E+06         0.00000E+00
    0.74343E+06        -0.96214E+08         0.00000E+00
    0.00000E+00         0.00000E+00        -0.71715E+08
 
   -0.71602E+08         0.73852E+06         0.00000E+00
    0.73852E+06        -0.96154E+08         0.00000E+00
    0.00000E+00         0.00000E+00        -0.71558E+08
 
   -0.71438E+08         0.73376E+06         0.00000E+00
    0.73376E+06        -0.96095E+08         0.00000E+00
    0.00000E+00         0.00000E+00        -0.71403E+08
 
   -0.71274E+08         0.72916E+06         0.00000E+00
    0.72916E+06        -0.96036E+08         0.00000E+00
    0.00000E+00         0.00000E+00        -0.71247E+08
 
   -0.71111E+08         0.72472E+06         0.00000E+00
    0.72472E+06        -0.95976E+08         0.00000E+00
    0.00000E+00         0.00000E+00        -0.71092E+08
 
   -0.70949E+08         0.72043E+06         0.00000E+00
    0.72043E+06        -0.95917E+08         0.00000E+00
    0.00000E+00         0.00000E+00        -0.70938E+08
 
   -0.70787E+08         0.71628E+06         0.00000E+00
    0.71628E+06        -0.95858E+08         0.00000E+00
    0.00000E+00         0.00000E+00        -0.70784E+08
 
   -0.70625E+08         0.71226E+06         0.00000E+00
    0.71226E+06        -0.95800E+08         0.00000E+00
    0.00000E+00         0.00000E+00        -0.70629E+08
 
   -0.70464E+08         0.70836E+06         0.00000E+00
    0.70836E+06        -0.95741E+08         0.00000E+00
    0.00000E+00         0.00000E+00        -0.70475E+08
 
   -0.70302E+08         0.70456E+06         0.00000E+00
    0.70456E+06        -0.95683E+08         0.00000E+00
    0.00000E+00         0.00000E+00        -0.70320E+08
 
   -0.70141E+08         0.70085E+06         0.00000E+00
    0.70085E+06        -0.95625E+08         0.00000E+00
    0.00000E+00         0.00000E+00        -0.70165E+08
 
   -0.69980E+08         0.69719E+06         0.00000E+00
    0.69719E+06        -0.95567E+08         0.00000E+00
    0.00000E+00         0.00000E+00        -0.70010E+08
 
   -0.69818E+08         0.69358E+06         0.00000E+00
    0.69358E+06        -0.95510E+08         0.00000E+00
    0.00000E+00         0.00000E+00        -0.69854E+08
 
   -0.69657E+08         0.68999E+06         0.00000E+00
    0.68999E+06        -0.95453E+08         0.00000E+00
    0.00000E+00         0.00000E+00        -0.69697E+08
 
   -0.69496E+08         0.68638E+06         0.00000E+00
    0.68638E+06        -0.95396E+08         0.00000E+00
    0.00000E+00         0.00000E+00        -0.69540E+08
 
   -0.69335E+08         0.68272E+06         0.00000E+00
    0.68272E+06        -0.95340E+08         0.00000E+00
    0.00000E+00         0.00000E+00        -0.69382E+08
 
   -0.69173E+08         0.67898E+06         0.00000E+00
    0.67898E+06        -0.95284E+08         0.00000E+00
    0.00000E+00         0.00000E+00        -0.69222E+08
 
   -0.69011E+08         0.67512E+06         0.00000E+00
    0.67512E+06        -0.95229E+08         0.00000E+00
    0.00000E+00         0.00000E+00        -0.69061E+08
 
   -0.68850E+08         0.67111E+06         0.00000E+00
    0.67111E+06        -0.95174E+08         0.00000E+00
    0.00000E+00         0.00000E+00        -0.68899E+08
 
   -0.68688E+08         0.66688E+06         0.00000E+00
    0.66688E+06        -0.95121E+08         0.00000E+00
    0.00000E+00         0.00000E+00        -0.68736E+08
 
   -0.68525E+08         0.66239E+06         0.00000E+00
    0.66239E+06        -0.95068E+08         0.00000E+00
    0.00000E+00         0.00000E+00        -0.68571E+08
 
   -0.68363E+08         0.65758E+06         0.00000E+00
    0.65758E+06        -0.95015E+08         0.00000E+00
    0.00000E+00         0.00000E+00        -0.68404E+08
 
   -0.68201E+08         0.65240E+06         0.00000E+00
    0.65240E+06        -0.94964E+08         0.00000E+00
    0.00000E+00         0.00000E+00        -0.68235E+08
 
   -0.68038E+08         0.64676E+06         0.00000E+00
    0.64676E+06        -0.94913E+08         0.00000E+00
    0.00000E+00         0.00000E+00        -0.68065E+08
 
   -0.67875E+08         0.64059E+06         0.00000E+00
    0.64059E+06        -0.94864E+08         0.00000E+00
    0.00000E+00         0.00000E+00        -0.67892E+08
 
   -0.67713E+08         0.63379E+06         0.00000E+00
    0.63379E+06        -0.94816E+08         0.00000E+00
    0.00000E+00         0.00000E+00        -0.67718E+08
 
   -0.67551E+08         0.62625E+06         0.00000E+00
    0.62625E+06        -0.94769E+08         0.00000E+00
    0.00000E+00         0.00000E+00        -0.67541E+08
 
   -0.67389E+08         0.61787E+06         0.00000E+00
    0.61787E+06        -0.94724E+08         0.00000E+00
    0.00000E+00         0.00000E+00        -0.67362E+08
 
   -0.67227E+08         0.60850E+06         0.00000E+00
    0.60850E+06        -0.94681E+08         0.00000E+00
    0.00000E+00         0.00000E+00        -0.67180E+08
 
   -0.67066E+08         0.59797E+06         0.00000E+00
    0.59797E+06        -0.94639E+08         0.00000E+00
    0.00000E+00         0.00000E+00        -0.66996E+08
 
   -0.66906E+08         0.58610E+06         0.00000E+00
    0.58610E+06        -0.94600E+08         0.00000E+00
    0.00000E+00         0.00000E+00        -0.66810E+08
 
   -0.66747E+08         0.57268E+06         0.00000E+00
    0.57268E+06        -0.94563E+08         0.00000E+00
    0.00000E+00         0.00000E+00        -0.66620E+08
 
   -0.66589E+08         0.55747E+06         0.00000E+00
    0.55747E+06        -0.94528E+08         0.00000E+00
    0.00000E+00         0.00000E+00        -0.66428E+08
 
   -0.66433E+08         0.54018E+06         0.00000E+00
    0.54018E+06        -0.94496E+08         0.00000E+00
    0.00000E+00         0.00000E+00        -0.66234E+08
 
   -0.66279E+08         0.52051E+06         0.00000E+00
    0.52051E+06        -0.94468E+08         0.00000E+00
    0.00000E+00         0.00000E+00        -0.66036E+08
 
   -0.66127E+08         0.49812E+06         0.00000E+00
    0.49812E+06        -0.94442E+08         0.00000E+00
    0.00000E+00         0.00000E+00        -0.65836E+08
 
   -0.65978E+08         0.47265E+06         0.00000E+00
    0.47265E+06        -0.94421E+08         0.00000E+00
    0.00000E+00         0.00000E+00        -0.65632E+08
 
   -0.65832E+08         0.44374E+06         0.00000E+00
    0.44374E+06        -0.94403E+08         0.00000E+00
    0.00000E+00         0.00000E+00        -0.65425E+08
 
   -0.65690E+08         0.41104E+06         0.00000E+00
    0.41104E+06        -0.94389E+08         0.00000E+00
    0.00000E+00         0.00000E+00        -0.65216E+08
 
   -0.65551E+08         0.37426E+06         0.00000E+00
    0.37426E+06        -0.94379E+08         0.00000E+00
    0.00000E+00         0.00000E+00        -0.65003E+08
 
   -0.65416E+08         0.33320E+06         0.00000E+00
    0.33320E+06        -0.94374E+08         0.00000E+00
    0.00000E+00         0.00000E+00        -0.64786E+08
 
   -0.65285E+08         0.28784E+06         0.00000E+00
    0.28784E+06        -0.94372E+08         0.00000E+00
    0.00000E+00         0.00000E+00        -0.64566E+08
 
   -0.65160E+08         0.23842E+06         0.00000E+00
    0.23842E+06        -0.94373E+08         0.00000E+00
    0.00000E+00         0.00000E+00        -0.64341E+08
 
   -0.65038E+08         0.18561E+06         0.00000E+00
    0.18561E+06        -0.94376E+08         0.00000E+00
    0.00000E+00         0.00000E+00        -0.64111E+08
 
   -0.64922E+08         0.13066E+06         0.00000E+00
    0.13066E+06        -0.94380E+08         0.00000E+00
    0.00000E+00         0.00000E+00        -0.63875E+08
 
   -0.64810E+08         0.75672E+05         0.00000E+00
    0.75672E+05        -0.94384E+08         0.00000E+00
    0.00000E+00         0.00000E+00        -0.63632E+08
 
   -0.64702E+08         0.23924E+05         0.00000E+00
    0.23924E+05        -0.94384E+08         0.00000E+00
    0.00000E+00         0.00000E+00        -0.63380E+08
 
   -0.64597E+08        -0.19752E+05         0.00000E+00
   -0.19752E+05        -0.94377E+08         0.00000E+00
    0.00000E+00         0.00000E+00        -0.63117E+08
 
   -0.64495E+08        -0.49078E+05         0.00000E+00
   -0.49078E+05        -0.94357E+08         0.00000E+00
    0.00000E+00         0.00000E+00        -0.62837E+08
 
   -0.64396E+08        -0.58173E+05         0.00000E+00
   -0.58173E+05        -0.94316E+08         0.00000E+00
    0.00000E+00         0.00000E+00        -0.62532E+08
 
   -0.64305E+08        -0.45558E+05         0.00000E+00
   -0.45558E+05        -0.94242E+08         0.00000E+00
    0.00000E+00         0.00000E+00        -0.62187E+08
 
   -0.64231E+08        -0.17036E+05         0.00000E+00
   -0.17036E+05        -0.94126E+08         0.00000E+00
    0.00000E+00         0.00000E+00        -0.61788E+08
 
   -0.79982E+08        -0.30319E+05         0.00000E+00
   -0.30319E+05        -0.97772E+08         0.00000E+00
    0.00000E+00         0.00000E+00        -0.84881E+08
 
   -0.79960E+08        -0.74032E+05         0.00000E+00
   -0.74032E+05        -0.97642E+08         0.00000E+00
    0.00000E+00         0.00000E+00        -0.84253E+08
 
   -0.79919E+08        -0.72425E+05         0.00000E+00
   -0.72425E+05        -0.97527E+08         0.00000E+00
    0.00000E+00         0.00000E+00        -0.83683E+08
 
   -0.79860E+08        -0.19099E+05         0.00000E+00
   -0.19099E+05        -0.97456E+08         0.00000E+00
    0.00000E+00         0.00000E+00        -0.83158E+08
 
   -0.79787E+08         0.66244E+05         0.00000E+00
    0.66244E+05        -0.97436E+08         0.00000E+00
    0.00000E+00         0.00000E+00        -0.82664E+08
 
   -0.79701E+08         0.15786E+06         0.00000E+00
    0.15786E+06        -0.97449E+08         0.00000E+00
    0.00000E+00         0.00000E+00        -0.82197E+08
 
   -0.79597E+08         0.24008E+06         0.00000E+00
    0.24008E+06        -0.97474E+08         0.00000E+00
    0.00000E+00         0.00000E+00        -0.81753E+08
 
   -0.79475E+08         0.30912E+06         0.00000E+00
    0.30912E+06        -0.97495E+08         0.00000E+00
    0.00000E+00         0.00000E+00        -0.81333E+08
 
   -0.79338E+08         0.36882E+06         0.00000E+00
    0.36882E+06        -0.97505E+08         0.00000E+00
    0.00000E+00         0.00000E+00        -0.80934E+08
 
   -0.79185E+08         0.42441E+06         0.00000E+00
    0.42441E+06        -0.97506E+08         0.00000E+00
    0.00000E+00         0.00000E+00        -0.80555E+08
 
   -0.79018E+08         0.47843E+06         0.00000E+00
    0.47843E+06        -0.97504E+08         0.00000E+00
    0.00000E+00         0.00000E+00        -0.80192E+08
 
   -0.78839E+08         0.53062E+06         0.00000E+00
    0.53062E+06        -0.97504E+08         0.00000E+00
    0.00000E+00         0.00000E+00        -0.79843E+08
 
   -0.78649E+08         0.57954E+06         0.00000E+00
    0.57954E+06        -0.97508E+08         0.00000E+00
    0.00000E+00         0.00000E+00        -0.79507E+08
 
   -0.78450E+08         0.62391E+06         0.00000E+00
    0.62391E+06        -0.97516E+08         0.00000E+00
    0.00000E+00         0.00000E+00        -0.79181E+08
 
   -0.78245E+08         0.66301E+06         0.00000E+00
    0.66301E+06        -0.97525E+08         0.00000E+00
    0.00000E+00         0.00000E+00        -0.78865E+08
 
   -0.78034E+08         0.69668E+06         0.00000E+00
    0.69668E+06        -0.97536E+08         0.00000E+00
    0.00000E+00         0.00000E+00        -0.78556E+08
 
   -0.77818E+08         0.72510E+06         0.00000E+00
    0.72510E+06        -0.97547E+08         0.00000E+00
    0.00000E+00         0.00000E+00        -0.78253E+08
 
   -0.77599E+08         0.74870E+06         0.00000E+00
    0.74870E+06        -0.97557E+08         0.00000E+00
    0.00000E+00         0.00000E+00        -0.77957E+08
 
   -0.77376E+08         0.76799E+06         0.00000E+00
    0.76799E+06        -0.97566E+08         0.00000E+00
    0.00000E+00         0.00000E+00        -0.77666E+08
 
   -0.77150E+08         0.78352E+06         0.00000E+00
    0.78352E+06        -0.97573E+08         0.00000E+00
    0.00000E+00         0.00000E+00        -0.77380E+08
 
   -0.76922E+08         0.79583E+06         0.00000E+00
    0.79583E+06        -0.97579E+08         0.00000E+00
    0.00000E+00         0.00000E+00        -0.77098E+08
 
   -0.76692E+08         0.80540E+06         0.00000E+00
    0.80540E+06        -0.97585E+08         0.00000E+00
    0.00000E+00         0.00000E+00        -0.76820E+08
 
   -0.76460E+08         0.81269E+06         0.00000E+00
    0.81269E+06        -0.97589E+08         0.00000E+00
    0.00000E+00         0.00000E+00        -0.76546E+08
 
   -0.76227E+08         0.81809E+06         0.00000E+00
    0.81809E+06        -0.97592E+08         0.00000E+00
    0.00000E+00         0.00000E+00        -0.76276E+08
 
   -0.76012E+08         0.82040E+06         0.00000E+00
    0.82040E+06        -0.97574E+08         0.00000E+00
    0.00000E+00         0.00000E+00        -0.76029E+08
 
   -0.75824E+08         0.81931E+06         0.00000E+00
    0.81931E+06        -0.97526E+08         0.00000E+00
    0.00000E+00         0.00000E+00        -0.75813E+08
 
   -0.75637E+08         0.81708E+06         0.00000E+00
    0.81708E+06        -0.97476E+08         0.00000E+00
    0.00000E+00         0.00000E+00        -0.75603E+08
 
   -0.75451E+08         0.81402E+06         0.00000E+00
    0.81402E+06        -0.97424E+08         0.00000E+00
    0.00000E+00         0.00000E+00        -0.75396E+08
 
   -0.75265E+08         0.81030E+06         0.00000E+00
    0.81030E+06        -0.97372E+08         0.00000E+00
    0.00000E+00         0.00000E+00        -0.75194E+08
 
   -0.75080E+08         0.80604E+06         0.00000E+00
    0.80604E+06        -0.97318E+08         0.00000E+00
    0.00000E+00         0.00000E+00        -0.74995E+08
 
   -0.74895E+08         0.80137E+06         0.00000E+00
    0.80137E+06        -0.97264E+08         0.00000E+00
    0.00000E+00         0.00000E+00        -0.74799E+08
 
   -0.74712E+08         0.79636E+06         0.00000E+00
    0.79636E+06        -0.97208E+08         0.00000E+00
    0.00000E+00         0.00000E+00        -0.74607E+08
 
   -0.74530E+08         0.79111E+06         0.00000E+00
    0.79111E+06        -0.97153E+08         0.00000E+00
    0.00000E+00         0.00000E+00        -0.74418E+08
 
   -0.74348E+08         0.78566E+06         0.00000E+00
    0.78566E+06        -0.97096E+08         0.00000E+00
    0.00000E+00         0.00000E+00        -0.74232E+08
 
   -0.74168E+08         0.78006E+06         0.00000E+00
    0.78006E+06        -0.97039E+08         0.00000E+00
    0.00000E+00         0.00000E+00        -0.74049E+08
 
   -0.73989E+08         0.77437E+06         0.00000E+00
    0.77437E+06        -0.96982E+08         0.00000E+00
    0.00000E+00         0.00000E+00        -0.73869E+08
 
   -0.73812E+08         0.76862E+06         0.00000E+00
    0.76862E+06        -0.96924E+08         0.00000E+00
    0.00000E+00         0.00000E+00        -0.73691E+08
 
   -0.73635E+08         0.76284E+06         0.00000E+00
    0.76284E+06        -0.96866E+08         0.00000E+00
    0.00000E+00         0.00000E+00        -0.73516E+08
 
   -0.73460E+08         0.75706E+06         0.00000E+00
    0.75706E+06        -0.96807E+08         0.00000E+00
    0.00000E+00         0.00000E+00        -0.73343E+08
 
   -0.73286E+08         0.75131E+06         0.00000E+00
    0.75131E+06        -0.96749E+08         0.00000E+00
    0.00000E+00         0.00000E+00        -0.73172E+08
 
   -0.73113E+08         0.74561E+06         0.00000E+00
    0.74561E+06        -0.96690E+08         0.00000E+00
    0.00000E+00         0.00000E+00        -0.73004E+08
 
   -0.72941E+08         0.73997E+06         0.00000E+00
    0.73997E+06        -0.96631E+08         0.00000E+00
    0.00000E+00         0.00000E+00        -0.72837E+08
 
   -0.72770E+08         0.73442E+06         0.00000E+00
    0.73442E+06        -0.96571E+08         0.00000E+00
    0.00000E+00         0.00000E+00        -0.72672E+08
 
   -0.72600E+08         0.72897E+06         0.00000E+00
    0.72897E+06        -0.96512E+08         0.00000E+00
    0.00000E+00         0.00000E+00        -0.72509E+08
 
   -0.72432E+08         0.72363E+06         0.00000E+00
    0.72363E+06        -0.96453E+08         0.00000E+00
    0.00000E+00         0.00000E+00        -0.72347E+08
 
   -0.72264E+08         0.71842E+06         0.00000E+00
    0.71842E+06        -0.96393E+08         0.00000E+00
    0.00000E+00         0.00000E+00        -0.72186E+08
 
   -0.72097E+08         0.71334E+06         0.00000E+00
    0.71334E+06        -0.96334E+08         0.00000E+00
    0.00000E+00         0.00000E+00        -0.72027E+08
 
   -0.71931E+08         0.70841E+06         0.00000E+00
    0.70841E+06        -0.96274E+08         0.00000E+00
    0.00000E+00         0.00000E+00        -0.71869E+08
 
   -0.71765E+08         0.70362E+06         0.00000E+00
    0.70362E+06        -0.96214E+08         0.00000E+00
    0.00000E+00         0.00000E+00        -0.71712E+08
 
   -0.71601E+08         0.69897E+06         0.00000E+00
    0.69897E+06        -0.96155E+08         0.00000E+00
    0.00000E+00         0.00000E+00        -0.71555E+08
 
   -0.71436E+08         0.69448E+06         0.00000E+00
    0.69448E+06        -0.96096E+08         0.00000E+00
    0.00000E+00         0.00000E+00        -0.71400E+08
 
   -0.71273E+08         0.69014E+06         0.00000E+00
    0.69014E+06        -0.96036E+08         0.00000E+00
    0.00000E+00         0.00000E+00        -0.71245E+08
 
   -0.71110E+08         0.68593E+06         0.00000E+00
    0.68593E+06        -0.95977E+08         0.00000E+00
    0.00000E+00         0.00000E+00        -0.71090E+08
 
   -0.70947E+08         0.68187E+06         0.00000E+00
    0.68187E+06        -0.95918E+08         0.00000E+00
    0.00000E+00         0.00000E+00        -0.70936E+08
 
   -0.70785E+08         0.67794E+06         0.00000E+00
    0.67794E+06        -0.95859E+08         0.00000E+00
    0.00000E+00         0.00000E+00        -0.70782E+08
 
   -0.70623E+08         0.67413E+06         0.00000E+00
    0.67413E+06        -0.95800E+08         0.00000E+00
    0.00000E+00         0.00000E+00        -0.70628E+08
 
   -0.70461E+08         0.67043E+06         0.00000E+00
    0.67043E+06        -0.95742E+08         0.00000E+00
    0.00000E+00         0.00000E+00        -0.70474E+08
 
   -0.70300E+08         0.66683E+06         0.00000E+00
    0.66683E+06        -0.95684E+08         0.00000E+00
    0.00000E+00         0.00000E+00        -0.70319E+08
 
   -0.70139E+08         0.66330E+06         0.00000E+00
    0.66330E+06        -0.95626E+08         0.00000E+00
    0.00000E+00         0.00000E+00        -0.70164E+08
 
   -0.69977E+08         0.65982E+06         0.00000E+00
    0.65982E+06        -0.95568E+08         0.00000E+00
    0.00000E+00         0.00000E+00        -0.70009E+08
 
   -0.69816E+08         0.65639E+06         0.00000E+00
    0.65639E+06        -0.95510E+08         0.00000E+00
    0.00000E+00         0.00000E+00        -0.69853E+08
 
   -0.69655E+08         0.65296E+06         0.00000E+00
    0.65296E+06        -0.95453E+08         0.00000E+00
    0.00000E+00         0.00000E+00        -0.69697E+08
 
   -0.69493E+08         0.64952E+06         0.00000E+00
    0.64952E+06        -0.95397E+08         0.00000E+00
    0.00000E+00         0.00000E+00        -0.69540E+08
 
   -0.69332E+08         0.64603E+06         0.00000E+00
    0.64603E+06        -0.95341E+08         0.00000E+00
    0.00000E+00         0.00000E+00        -0.69381E+08
 
   -0.69170E+08         0.64246E+06         0.00000E+00
    0.64246E+06        -0.95285E+08         0.00000E+00
    0.00000E+00         0.00000E+00        -0.69222E+08
 
   -0.69009E+08         0.63878E+06         0.00000E+00
    0.63878E+06        -0.95230E+08         0.00000E+00
    0.00000E+00         0.00000E+00        -0.69061E+08
 
   -0.68847E+08         0.63494E+06         0.00000E+00
    0.63494E+06        -0.95175E+08         0.00000E+00
    0.00000E+00         0.00000E+00        -0.68899E+08
 
   -0.68685E+08         0.63090E+06         0.00000E+00
    0.63090E+06        -0.95121E+08         0.00000E+00
    0.00000E+00         0.00000E+00        -0.68736E+08
 
   -0.68523E+08         0.62662E+06         0.00000E+00
    0.62662E+06        -0.95068E+08         0.00000E+00
    0.00000E+00         0.00000E+00        -0.68571E+08
 
   -0.68360E+08         0.62203E+06         0.00000E+00
    0.62203E+06        -0.95016E+08         0.00000E+00
    0.00000E+00         0.00000E+00        -0.68404E+08
 
   -0.68198E+08         0.61707E+06         0.00000E+00
    0.61707E+06        -0.94965E+08         0.00000E+00
    0.00000E+00         0.00000E+00        -0.68235E+08
 
   -0.68035E+08         0.61169E+06         0.00000E+00
    0.61169E+06        -0.94914E+08         0.00000E+00
    0.00000E+00         0.00000E+00        -0.68065E+08
 
   -0.67873E+08         0.60580E+06         0.00000E+00
    0.60580E+06        -0.94865E+08         0.00000E+00
    0.00000E+00         0.00000E+00        -0.67892E+08
 
   -0.67710E+08         0.59931E+06         0.00000E+00
    0.59931E+06        -0.94817E+08         0.00000E+00
    0.00000E+00         0.00000E+00        -0.67718E+08
 
   -0.67548E+08         0.59212E+06         0.00000E+00
    0.59212E+06        -0.94770E+08         0.00000E+00
    0.00000E+00         0.00000E+00        -0.67541E+08
 
   -0.67386E+08         0.58413E+06         0.00000E+00
    0.58413E+06        -0.94725E+08         0.00000E+00
    0.00000E+00         0.00000E+00        -0.67361E+08
 
   -0.67225E+08         0.57519E+06         0.00000E+00
    0.57519E+06        -0.94681E+08         0.00000E+00
    0.00000E+00         0.00000E+00        -0.67180E+08
 
   -0.67064E+08         0.56514E+06         0.00000E+00
    0.56514E+06        -0.94639E+08         0.00000E+00
    0.00000E+00         0.00000E+00        -0.66995E+08
 
   -0.66904E+08         0.55382E+06         0.00000E+00
    0.55382E+06        -0.94600E+08         0.00000E+00
    0.00000E+00         0.00000E+00        -0.66808E+08
 
   -0.66746E+08         0.54101E+06         0.00000E+00
    0.54101E+06        -0.94562E+08         0.00000E+00
    0.00000E+00         0.00000E+00        -0.66619E+08
 
   -0.66588E+08         0.52648E+06         0.00000E+00
    0.52648E+06        -0.94527E+08         0.00000E+00
    0.00000E+00         0.00000E+00        -0.66426E+08
 
   -0.66433E+08         0.50995E+06         0.00000E+00
    0.50995E+06        -0.94495E+08         0.00000E+00
    0.00000E+00         0.00000E+00        -0.66231E+08
 
   -0.66279E+08         0.49112E+06         0.00000E+00
    0.49112E+06        -0.94466E+08         0.00000E+00
    0.00000E+00         0.00000E+00        -0.66032E+08
 
   -0.66128E+08         0.46967E+06         0.00000E+00
    0.46967E+06        -0.94440E+08         0.00000E+00
    0.00000E+00         0.00000E+00        -0.65831E+08
 
   -0.65980E+08         0.44523E+06         0.00000E+00
    0.44523E+06        -0.94418E+08         0.00000E+00
    0.00000E+00         0.00000E+00        -0.65627E+08
 
   -0.65834E+08         0.41746E+06         0.00000E+00
    0.41746E+06        -0.94400E+08         0.00000E+00
    0.00000E+00         0.00000E+00        -0.65419E+08
 
   -0.65693E+08         0.38599E+06         0.00000E+00
    0.38599E+06        -0.94386E+08         0.00000E+00
    0.00000E+00         0.00000E+00        -0.65208E+08
 
   -0.65555E+08         0.35055E+06         0.00000E+00
    0.35055E+06        -0.94375E+08         0.00000E+00
    0.00000E+00         0.00000E+00        -0.64993E+08
 
   -0.65422E+08         0.31093E+06         0.00000E+00
    0.31093E+06        -0.94369E+08         0.00000E+00
    0.00000E+00         0.00000E+00        -0.64774E+08
 
   -0.65294E+08         0.26710E+06         0.00000E+00
    0.26710E+06        -0.94367E+08         0.00000E+00
    0.00000E+00         0.00000E+00        -0.64552E+08
 
   -0.65171E+08         0.21932E+06         0.00000E+00
    0.21932E+06        -0.94368E+08         0.00000E+00
    0.00000E+00         0.00000E+00        -0.64325E+08
 
   -0.65053E+08         0.16821E+06         0.00000E+00
    0.16821E+06        -0.94372E+08         0.00000E+00
    0.00000E+00         0.00000E+00        -0.64092E+08
 
   -0.64940E+08         0.11499E+06         0.00000E+00
    0.11499E+06        -0.94377E+08         0.00000E+00
    0.00000E+00         0.00000E+00        -0.63854E+08
 
   -0.64833E+08         0.61685E+05         0.00000E+00
    0.61685E+05        -0.94382E+08         0.00000E+00
    0.00000E+00         0.00000E+00        -0.63609E+08
 
   -0.64730E+08         0.11469E+05         0.00000E+00
    0.11469E+05        -0.94384E+08         0.00000E+00
    0.00000E+00         0.00000E+00        -0.63355E+08
 
   -0.64630E+08        -0.30954E+05         0.00000E+00
   -0.30954E+05        -0.94382E+08         0.00000E+00
    0.00000E+00         0.00000E+00        -0.63091E+08
 
   -0.64533E+08        -0.59211E+05         0.00000E+00
   -0.59211E+05        -0.94367E+08         0.00000E+00
    0.00000E+00         0.00000E+00        -0.62812E+08
 
   -0.64438E+08        -0.66842E+05         0.00000E+00
   -0.66842E+05        -0.94332E+08         0.00000E+00
    0.00000E+00         0.00000E+00        -0.62510E+08
 
   -0.64350E+08        -0.51608E+05         0.00000E+00
   -0.51608E+05        -0.94263E+08         0.00000E+00
    0.00000E+00         0.00000E+00        -0.62169E+08
 
   -0.64278E+08        -0.19221E+05         0.00000E+00
   -0.19221E+05        -0.94150E+08         0.00000E+00
    0.00000E+00         0.00000E+00        -0.61772E+08
 
   -0.79902E+08        -0.32212E+05         0.00000E+00
   -0.32212E+05        -0.97759E+08         0.00000E+00
    0.00000E+00         0.00000E+00        -0.84908E+08
 
   -0.79884E+08        -0.79761E+05         0.00000E+00
   -0.79761E+05        -0.97637E+08         0.00000E+00
    0.00000E+00         0.00000E+00        -0.84286E+08
 
   -0.79849E+08        -0.81714E+05         0.00000E+00
   -0.81714E+05        -0.97532E+08         0.00000E+00
    0.00000E+00         0.00000E+00        -0.83722E+08
 
   -0.79801E+08        -0.31353E+05         0.00000E+00
   -0.31353E+05        -0.97471E+08         0.00000E+00
    0.00000E+00         0.00000E+00        -0.83199E+08
 
   -0.79740E+08         0.51182E+05         0.00000E+00
    0.51182E+05        -0.97454E+08         0.00000E+00
    0.00000E+00         0.00000E+00        -0.82705E+08
 
   -0.79661E+08         0.13946E+06         0.00000E+00
    0.13946E+06        -0.97466E+08         0.00000E+00
    0.00000E+00         0.00000E+00        -0.82234E+08
 
   -0.79564E+08         0.21798E+06         0.00000E+00
    0.21798E+06        -0.97489E+08         0.00000E+00
    0.00000E+00         0.00000E+00        -0.81787E+08
 
   -0.79448E+08         0.28359E+06         0.00000E+00
    0.28359E+06        -0.97507E+08         0.00000E+00
    0.00000E+00         0.00000E+00        -0.81361E+08
 
   -0.79314E+08         0.34021E+06         0.00000E+00
    0.34021E+06        -0.97516E+08         0.00000E+00
    0.00000E+00         0.00000E+00        -0.80957E+08
 
   -0.79166E+08         0.39288E+06         0.00000E+00
    0.39288E+06        -0.97517E+08         0.00000E+00
    0.00000E+00         0.00000E+00        -0.80572E+08
 
   -0.79003E+08         0.44414E+06         0.00000E+00
    0.44414E+06        -0.97515E+08         0.00000E+00
    0.00000E+00         0.00000E+00        -0.80204E+08
 
   -0.78827E+08         0.49389E+06         0.00000E+00
    0.49389E+06        -0.97514E+08         0.00000E+00
    0.00000E+00         0.00000E+00        -0.79851E+08
 
   -0.78640E+08         0.54080E+06         0.00000E+00
    0.54080E+06        -0.97517E+08         0.00000E+00
    0.00000E+00         0.00000E+00        -0.79511E+08
 
   -0.78443E+08         0.58358E+06         0.00000E+00
    0.58358E+06        -0.97524E+08         0.00000E+00
    0.00000E+00         0.00000E+00        -0.79182E+08
 
   -0.78239E+08         0.62142E+06         0.00000E+00
    0.62142E+06        -0.97533E+08         0.00000E+00
    0.00000E+00         0.00000E+00        -0.78863E+08
 
   -0.78029E+08         0.65407E+06         0.00000E+00
    0.65407E+06        -0.97542E+08         0.00000E+00
    0.00000E+00         0.00000E+00        -0.78552E+08
 
   -0.77815E+08         0.68165E+06         0.00000E+00
    0.68165E+06        -0.97552E+08         0.00000E+00
    0.00000E+00         0.00000E+00        -0.78248E+08
 
   -0.77596E+08         0.70453E+06         0.00000E+00
    0.70453E+06        -0.97561E+08         0.00000E+00
    0.00000E+00         0.00000E+00        -0.77950E+08
 
   -0.77374E+08         0.72320E+06         0.00000E+00
    0.72320E+06        -0.97569E+08         0.00000E+00
    0.00000E+00         0.00000E+00        -0.77658E+08
 
   -0.77149E+08         0.73818E+06         0.00000E+00
    0.73818E+06        -0.97576E+08         0.00000E+00
    0.00000E+00         0.00000E+00        -0.77371E+08
 
   -0.76921E+08         0.75002E+06         0.00000E+00
    0.75002E+06        -0.97582E+08         0.00000E+00
    0.00000E+00         0.00000E+00        -0.77088E+08
 
   -0.76691E+08         0.75920E+06         0.00000E+00
    0.75920E+06        -0.97586E+08         0.00000E+00
    0.00000E+00         0.00000E+00        -0.76810E+08
 
   -0.76459E+08         0.76616E+06         0.00000E+00
    0.76616E+06        -0.97590E+08         0.00000E+00
    0.00000E+00         0.00000E+00        -0.76536E+08
 
   -0.76226E+08         0.77130E+06         0.00000E+00
    0.77130E+06        -0.97593E+08         0.00000E+00
    0.00000E+00         0.00000E+00        -0.76266E+08
 
   -0.76012E+08         0.77345E+06         0.00000E+00
    0.77345E+06        -0.97574E+08         0.00000E+00
    0.00000E+00         0.00000E+00        -0.76020E+08
 
   -0.75824E+08         0.77238E+06         0.00000E+00
    0.77238E+06        -0.97525E+08         0.00000E+00
    0.00000E+00         0.00000E+00        -0.75805E+08
 
   -0.75637E+08         0.77029E+06         0.00000E+00
    0.77029E+06        -0.97475E+08         0.00000E+00
    0.00000E+00         0.00000E+00        -0.75595E+08
 
   -0.75451E+08         0.76741E+06         0.00000E+00
    0.76741E+06        -0.97423E+08         0.00000E+00
    0.00000E+00         0.00000E+00        -0.75388E+08
 
   -0.75265E+08         0.76391E+06         0.00000E+00
    0.76391E+06        -0.97371E+08         0.00000E+00
    0.00000E+00         0.00000E+00        -0.75186E+08
 
   -0.75080E+08         0.75991E+06         0.00000E+00
    0.75991E+06        -0.97317E+08         0.00000E+00
    0.00000E+00         0.00000E+00        -0.74987E+08
 
   -0.74895E+08         0.75552E+06         0.00000E+00
    0.75552E+06        -0.97263E+08         0.00000E+00
    0.00000E+00         0.00000E+00        -0.74792E+08
 
   -0.74712E+08         0.75082E+06         0.00000E+00
    0.75082E+06        -0.97208E+08         0.00000E+00
    0.00000E+00         0.00000E+00        -0.74600E+08
 
   -0.74530E+08         0.74589E+06         0.00000E+00
    0.74589E+06        -0.97152E+08         0.00000E+00
    0.00000E+00         0.00000E+00        -0.74411E+08
 
   -0.74349E+08         0.74077E+06         0.00000E+00
    0.74077E+06        -0.97095E+08         0.00000E+00
    0.00000E+00         0.00000E+00        -0.74225E+08
 
   -0.74168E+08         0.73553E+06         0.00000E+00
    0.73553E+06        -0.97039E+08         0.00000E+00
    0.00000E+00         0.00000E+00        -0.74042E+08
 
   -0.73990E+08         0.73019E+06         0.00000E+00
    0.73019E+06        -0.96981E+08         0.00000E+00
    0.00000E+00         0.00000E+00        -0.73862E+08
 
   -0.73812E+08         0.72480E+06         0.00000E+00
    0.72480E+06        -0.96924E+08         0.00000E+00
    0.00000E+00         0.00000E+00        -0.73685E+08
 
   -0.73635E+08         0.71938E+06         0.00000E+00
    0.71938E+06        -0.96866E+08         0.00000E+00
    0.00000E+00         0.00000E+00        -0.73510E+08
 
   -0.73460E+08         0.71396E+06         0.00000E+00
    0.71396E+06        -0.96807E+08         0.00000E+00
    0.00000E+00         0.00000E+00        -0.73337E+08
 
   -0.73286E+08         0.70857E+06         0.00000E+00
    0.70857E+06        -0.96749E+08         0.00000E+00
    0.00000E+00         0.00000E+00        -0.73167E+08
 
   -0.73113E+08         0.70322E+06         0.00000E+00
    0.70322E+06        -0.96690E+08         0.00000E+00
    0.00000E+00         0.00000E+00        -0.72999E+08
 
   -0.72941E+08         0.69793E+06         0.00000E+00
    0.69793E+06        -0.96631E+08         0.00000E+00
    0.00000E+00         0.00000E+00        -0.72832E+08
 
   -0.72770E+08         0.69272E+06         0.00000E+00
    0.69272E+06        -0.96572E+08         0.00000E+00
    0.00000E+00         0.00000E+00        -0.72667E+08
 
   -0.72600E+08         0.68761E+06         0.00000E+00
    0.68761E+06        -0.96512E+08         0.00000E+00
    0.00000E+00         0.00000E+00        -0.72504E+08
 
   -0.72431E+08         0.68259E+06         0.00000E+00
    0.68259E+06        -0.96453E+08         0.00000E+00
    0.00000E+00         0.00000E+00        -0.72343E+08
 
   -0.72263E+08         0.67770E+06         0.00000E+00
    0.67770E+06        -0.96393E+08         0.00000E+00
    0.00000E+00         0.00000E+00        -0.72183E+08
 
   -0.72096E+08         0.67292E+06         0.00000E+00
    0.67292E+06        -0.96334E+08         0.00000E+00
    0.00000E+00         0.00000E+00        -0.72024E+08
 
   -0.71930E+08         0.66828E+06         0.00000E+00
    0.66828E+06        -0.96274E+08         0.00000E+00
    0.00000E+00         0.00000E+00        -0.71866E+08
 
   -0.71764E+08         0.66377E+06         0.00000E+00
    0.66377E+06        -0.96215E+08         0.00000E+00
    0.00000E+00         0.00000E+00        -0.71709E+08
 
   -0.71599E+08         0.65940E+06         0.00000E+00
    0.65940E+06        -0.96156E+08         0.00000E+00
    0.00000E+00         0.00000E+00        -0.71553E+08
 
   -0.71435E+08         0.65517E+06         0.00000E+00
    0.65517E+06        -0.96096E+08         0.00000E+00
    0.00000E+00         0.00000E+00        -0.71397E+08
 
   -0.71272E+08         0.65108E+06         0.00000E+00
    0.65108E+06        -0.96037E+08         0.00000E+00
    0.00000E+00         0.00000E+00        -0.71242E+08
 
   -0.71108E+08         0.64712E+06         0.00000E+00
    0.64712E+06        -0.95978E+08         0.00000E+00
    0.00000E+00         0.00000E+00        -0.71088E+08
 
   -0.70946E+08         0.64328E+06         0.00000E+00
    0.64328E+06        -0.95919E+08         0.00000E+00
    0.00000E+00         0.00000E+00        -0.70934E+08
 
   -0.70783E+08         0.63957E+06         0.00000E+00
    0.63957E+06        -0.95860E+08         0.00000E+00
    0.00000E+00         0.00000E+00        -0.70780E+08
 
   -0.70621E+08         0.63597E+06         0.00000E+00
    0.63597E+06        -0.95801E+08         0.00000E+00
    0.00000E+00         0.00000E+00        -0.70626E+08
 
   -0.70459E+08         0.63247E+06         0.00000E+00
    0.63247E+06        -0.95743E+08         0.00000E+00
    0.00000E+00         0.00000E+00        -0.70472E+08
 
   -0.70298E+08         0.62906E+06         0.00000E+00
    0.62906E+06        -0.95684E+08         0.00000E+00
    0.00000E+00         0.00000E+00        -0.70318E+08
 
   -0.70136E+08         0.62572E+06         0.00000E+00
    0.62572E+06        -0.95626E+08         0.00000E+00
    0.00000E+00         0.00000E+00        -0.70164E+08
 
   -0.69975E+08         0.62243E+06         0.00000E+00
    0.62243E+06        -0.95569E+08         0.00000E+00
    0.00000E+00         0.00000E+00        -0.70009E+08
 
   -0.69814E+08         0.61916E+06         0.00000E+00
    0.61916E+06        -0.95511E+08         0.00000E+00
    0.00000E+00         0.00000E+00        -0.69853E+08
 
   -0.69652E+08         0.61591E+06         0.00000E+00
    0.61591E+06        -0.95454E+08         0.00000E+00
    0.00000E+00         0.00000E+00        -0.69697E+08
 
   -0.69491E+08         0.61264E+06         0.00000E+00
    0.61264E+06        -0.95398E+08         0.00000E+00
    0.00000E+00         0.00000E+00        -0.69539E+08
 
   -0.69329E+08         0.60933E+06         0.00000E+00
    0.60933E+06        -0.95341E+08         0.00000E+00
    0.00000E+00         0.00000E+00        -0.69381E+08
 
   -0.69168E+08         0.60593E+06         0.00000E+00
    0.60593E+06        -0.95286E+08         0.00000E+00
    0.00000E+00         0.00000E+00        -0.69222E+08
 
   -0.69006E+08         0.60243E+06         0.00000E+00
    0.60243E+06        -0.95231E+08         0.00000E+00
    0.00000E+00         0.00000E+00        -0.69061E+08
 
   -0.68844E+08         0.59877E+06         0.00000E+00
    0.59877E+06        -0.95176E+08         0.00000E+00
    0.00000E+00         0.00000E+00        -0.68899E+08
 
   -0.68682E+08         0.59493E+06         0.00000E+00
    0.59493E+06        -0.95122E+08         0.00000E+00
    0.00000E+00         0.00000E+00        -0.68736E+08
 
   -0.68520E+08         0.59084E+06         0.00000E+00
    0.59084E+06        -0.95069E+08         0.00000E+00
    0.00000E+00         0.00000E+00        -0.68571E+08
 
   -0.68357E+08         0.58647E+06         0.00000E+00
    0.58647E+06        -0.95017E+08         0.00000E+00
    0.00000E+00         0.00000E+00        -0.68404E+08
 
   -0.68195E+08         0.58176E+06         0.00000E+00
    0.58176E+06        -0.94965E+08         0.00000E+00
    0.00000E+00         0.00000E+00        -0.68236E+08
 
   -0.68033E+08         0.57663E+06         0.00000E+00
    0.57663E+06        -0.94915E+08         0.00000E+00
    0.00000E+00         0.00000E+00        -0.68065E+08
 
   -0.67870E+08         0.57102E+06         0.00000E+00
    0.57102E+06        -0.94865E+08         0.00000E+00
    0.00000E+00         0.00000E+00        -0.67892E+08
 
   -0.67708E+08         0.56485E+06         0.00000E+00
    0.56485E+06        -0.94817E+08         0.00000E+00
    0.00000E+00         0.00000E+00        -0.67718E+08
 
   -0.67546E+08         0.55802E+06         0.00000E+00
    0.55802E+06        -0.94770E+08         0.00000E+00
    0.00000E+00         0.00000E+00        -0.67541E+08
 
   -0.67384E+08         0.55042E+06         0.00000E+00
    0.55042E+06        -0.94725E+08         0.00000E+00
    0.00000E+00         0.00000E+00        -0.67361E+08
 
   -0.67223E+08         0.54192E+06         0.00000E+00
    0.54192E+06        -0.94681E+08         0.00000E+00
    0.00000E+00         0.00000E+00        -0.67179E+08
 
   -0.67062E+08         0.53237E+06         0.00000E+00
    0.53237E+06        -0.94639E+08         0.00000E+00
    0.00000E+00         0.00000E+00        -0.66995E+08
 
   -0.66903E+08         0.52160E+06         0.00000E+00
    0.52160E+06        -0.94599E+08         0.00000E+00
    0.00000E+00         0.00000E+00        -0.66807E+08
 
   -0.66744E+08         0.50941E+06         0.00000E+00
    0.50941E+06        -0.94562E+08         0.00000E+00
    0.00000E+00         0.00000E+00        -0.66617E+08
 
   -0.66587E+08         0.49558E+06         0.00000E+00
    0.49558E+06        -0.94527E+08         0.00000E+00
    0.00000E+00         0.00000E+00        -0.66424E+08
 
   -0.66432E+08         0.47983E+06         0.00000E+00
    0.47983E+06        -0.94494E+08         0.00000E+00
    0.00000E+00         0.00000E+00        -0.66228E+08
 
   -0.66279E+08         0.46187E+06         0.00000E+00
    0.46187E+06        -0.94465E+08         0.00000E+00
    0.00000E+00         0.00000E+00        -0.66029E+08
 
   -0.66128E+08         0.44138E+06         0.00000E+00
    0.44138E+06        -0.94439E+08         0.00000E+00
    0.00000E+00         0.00000E+00        -0.65827E+08
 
   -0.65981E+08         0.41802E+06         0.00000E+00
    0.41802E+06        -0.94416E+08         0.00000E+00
    0.00000E+00         0.00000E+00        -0.65621E+08
 
   -0.65836E+08         0.39142E+06         0.00000E+00
    0.39142E+06        -0.94397E+08         0.00000E+00
    0.00000E+00         0.00000E+00        -0.65412E+08
 
   -0.65696E+08         0.36126E+06         0.00000E+00
    0.36126E+06        -0.94382E+08         0.00000E+00
    0.00000E+00         0.00000E+00        -0.65200E+08
 
   -0.65560E+08         0.32723E+06         0.00000E+00
    0.32723E+06        -0.94372E+08         0.00000E+00
    0.00000E+00         0.00000E+00        -0.64984E+08
 
   -0.65429E+08         0.28913E+06         0.00000E+00
    0.28913E+06        -0.94365E+08         0.00000E+00
    0.00000E+00         0.00000E+00        -0.64763E+08
 
   -0.65302E+08         0.24695E+06         0.00000E+00
    0.24695E+06        -0.94363E+08         0.00000E+00
    0.00000E+00         0.00000E+00        -0.64539E+08
 
   -0.65182E+08         0.20091E+06         0.00000E+00
    0.20091E+06        -0.94364E+08         0.00000E+00
    0.00000E+00         0.00000E+00        -0.64309E+08
 
   -0.65067E+08         0.15163E+06         0.00000E+00
    0.15163E+06        -0.94368E+08         0.00000E+00
    0.00000E+00         0.00000E+00        -0.64074E+08
 
   -0.64959E+08         0.10027E+06         0.00000E+00
    0.10027E+06        -0.94373E+08         0.00000E+00
    0.00000E+00         0.00000E+00        -0.63834E+08
 
   -0.64856E+08         0.48785E+05         0.00000E+00
    0.48785E+05        -0.94380E+08         0.00000E+00
    0.00000E+00         0.00000E+00        -0.63586E+08
 
   -0.64758E+08         0.18567E+03         0.00000E+00
    0.18567E+03        -0.94385E+08         0.00000E+00
    0.00000E+00         0.00000E+00        -0.63331E+08
 
   -0.64664E+08        -0.41005E+05         0.00000E+00
   -0.41005E+05        -0.94386E+08         0.00000E+00
    0.00000E+00         0.00000E+00        -0.63066E+08
 
   -0.64573E+08        -0.68398E+05         0.00000E+00
   -0.68398E+05        -0.94377E+08         0.00000E+00
    0.00000E+00         0.00000E+00        -0.62788E+08
 
   -0.64482E+08        -0.74935E+05         0.00000E+00
   -0.74935E+05        -0.94348E+08         0.00000E+00
    0.00000E+00         0.00000E+00        -0.62488E+08
 
   -0.64397E+08        -0.57432E+05         0.00000E+00
   -0.57432E+05        -0.94285E+08         0.00000E+00
    0.00000E+00         0.00000E+00        -0.62151E+08
 
   -0.64325E+08        -0.21360E+05         0.00000E+00
   -0.21360E+05        -0.94176E+08         0.00000E+00
    0.00000E+00         0.00000E+00        -0.61757E+08
 
   -0.79822E+08        -0.33842E+05         0.00000E+00
   -0.33842E+05        -0.97746E+08         0.00000E+00
    0.00000E+00         0.00000E+00        -0.84934E+08
 
   -0.79807E+08        -0.84538E+05         0.00000E+00
   -0.84538E+05        -0.97630E+08         0.00000E+00
    0.00000E+00         0.00000E+00        -0.84319E+08
 
   -0.79780E+08        -0.89156E+05         0.00000E+00
   -0.89156E+05        -0.97537E+08         0.00000E+00
    0.00000E+00         0.00000E+00        -0.83761E+08
 
   -0.79743E+08        -0.41299E+05         0.00000E+00
   -0.41299E+05        -0.97485E+08         0.00000E+00
    0.00000E+00         0.00000E+00        -0.83241E+08
 
   -0.79692E+08         0.38113E+05         0.00000E+00
    0.38113E+05        -0.97472E+08         0.00000E+00
    0.00000E+00         0.00000E+00        -0.82745E+08
 
   -0.79622E+08         0.12254E+06         0.00000E+00
    0.12254E+06        -0.97483E+08         0.00000E+00
    0.00000E+00         0.00000E+00        -0.82271E+08
 
   -0.79531E+08         0.19706E+06         0.00000E+00
    0.19706E+06        -0.97503E+08         0.00000E+00
    0.00000E+00         0.00000E+00        -0.81819E+08
 
   -0.79420E+08         0.25906E+06         0.00000E+00
    0.25906E+06        -0.97519E+08         0.00000E+00
    0.00000E+00         0.00000E+00        -0.81388E+08
 
   -0.79292E+08         0.31246E+06         0.00000E+00
    0.31246E+06        -0.97527E+08         0.00000E+00
    0.00000E+00         0.00000E+00        -0.80978E+08
 
   -0.79147E+08         0.36210E+06         0.00000E+00
    0.36210E+06        -0.97527E+08         0.00000E+00
    0.00000E+00         0.00000E+00        -0.80588E+08
 
   -0.78988E+08         0.41053E+06         0.00000E+00
    0.41053E+06        -0.97525E+08         0.00000E+00
    0.00000E+00         0.00000E+00        -0.80215E+08
 
   -0.78815E+08         0.45776E+06         0.00000E+00
    0.45776E+06        -0.97524E+08         0.00000E+00
    0.00000E+00         0.00000E+00        -0.79858E+08
 
   -0.78631E+08         0.50257E+06         0.00000E+00
    0.50257E+06        -0.97526E+08         0.00000E+00
    0.00000E+00         0.00000E+00        -0.79515E+08
 
   -0.78436E+08         0.54366E+06         0.00000E+00
    0.54366E+06        -0.97532E+08         0.00000E+00
    0.00000E+00         0.00000E+00        -0.79183E+08
 
   -0.78234E+08         0.58015E+06         0.00000E+00
    0.58015E+06        -0.97540E+08         0.00000E+00
    0.00000E+00         0.00000E+00        -0.78861E+08
 
   -0.78026E+08         0.61170E+06         0.00000E+00
    0.61170E+06        -0.97548E+08         0.00000E+00
    0.00000E+00         0.00000E+00        -0.78547E+08
 
   -0.77812E+08         0.63837E+06         0.00000E+00
    0.63837E+06        -0.97557E+08         0.00000E+00
    0.00000E+00         0.00000E+00        -0.78242E+08
 
   -0.77594E+08         0.66047E+06         0.00000E+00
    0.66047E+06        -0.97565E+08         0.00000E+00
    0.00000E+00         0.00000E+00        -0.77943E+08
 
   -0.77373E+08         0.67848E+06         0.00000E+00
    0.67848E+06        -0.97572E+08         0.00000E+00
    0.00000E+00         0.00000E+00        -0.77649E+08
 
   -0.77148E+08         0.69289E+06         0.00000E+00
    0.69289E+06        -0.97578E+08         0.00000E+00
    0.00000E+00         0.00000E+00        -0.77362E+08
 
   -0.76920E+08         0.70424E+06         0.00000E+00
    0.70424E+06        -0.97584E+08         0.00000E+00
    0.00000E+00         0.00000E+00        -0.77079E+08
 
   -0.76690E+08         0.71301E+06         0.00000E+00
    0.71301E+06        -0.97588E+08         0.00000E+00
    0.00000E+00         0.00000E+00        -0.76801E+08
 
   -0.76459E+08         0.71965E+06         0.00000E+00
    0.71965E+06        -0.97591E+08         0.00000E+00
    0.00000E+00         0.00000E+00        -0.76527E+08
 
   -0.76225E+08         0.72452E+06         0.00000E+00
    0.72452E+06        -0.97594E+08         0.00000E+00
    0.00000E+00         0.00000E+00        -0.76257E+08
 
   -0.76012E+08         0.72651E+06         0.00000E+00
    0.72651E+06        -0.97574E+08         0.00000E+00
    0.00000E+00         0.00000E+00        -0.76011E+08
 
   -0.75825E+08         0.72550E+06         0.00000E+00
    0.72550E+06        -0.97524E+08         0.00000E+00
    0.00000E+00         0.00000E+00        -0.75797E+08
 
   -0.75638E+08         0.72354E+06         0.00000E+00
    0.72354E+06        -0.97474E+08         0.00000E+00
    0.00000E+00         0.00000E+00        -0.75586E+08
 
   -0.75452E+08         0.72085E+06         0.00000E+00
    0.72085E+06        -0.97422E+08         0.00000E+00
    0.00000E+00         0.00000E+00        -0.75380E+08
 
   -0.75266E+08         0.71756E+06         0.00000E+00
    0.71756E+06        -0.97370E+08         0.00000E+00
    0.00000E+00         0.00000E+00        -0.75178E+08
 
   -0.75080E+08         0.71381E+06         0.00000E+00
    0.71381E+06        -0.97316E+08         0.00000E+00
    0.00000E+00         0.00000E+00        -0.74979E+08
 
   -0.74896E+08         0.70970E+06         0.00000E+00
    0.70970E+06        -0.97262E+08         0.00000E+00
    0.00000E+00         0.00000E+00        -0.74784E+08
 
   -0.74713E+08         0.70531E+06         0.00000E+00
    0.70531E+06        -0.97207E+08         0.00000E+00
    0.00000E+00         0.00000E+00        -0.74592E+08
 
   -0.74530E+08         0.70069E+06         0.00000E+00
    0.70069E+06        -0.97151E+08         0.00000E+00
    0.00000E+00         0.00000E+00        -0.74404E+08
 
   -0.74349E+08         0.69591E+06         0.00000E+00
    0.69591E+06        -0.97095E+08         0.00000E+00
    0.00000E+00         0.00000E+00        -0.74218E+08
 
   -0.74169E+08         0.69101E+06         0.00000E+00
    0.69101E+06        -0.97038E+08         0.00000E+00
    0.00000E+00         0.00000E+00        -0.74036E+08
 
   -0.73990E+08         0.68603E+06         0.00000E+00
    0.68603E+06        -0.96981E+08         0.00000E+00
    0.00000E+00         0.00000E+00        -0.73856E+08
 
   -0.73812E+08         0.68099E+06         0.00000E+00
    0.68099E+06        -0.96923E+08         0.00000E+00
    0.00000E+00         0.00000E+00        -0.73679E+08
 
   -0.73636E+08         0.67593E+06         0.00000E+00
    0.67593E+06        -0.96865E+08         0.00000E+00
    0.00000E+00         0.00000E+00        -0.73504E+08
 
   -0.73460E+08         0.67087E+06         0.00000E+00
    0.67087E+06        -0.96807E+08         0.00000E+00
    0.00000E+00         0.00000E+00        -0.73332E+08
 
   -0.73286E+08         0.66583E+06         0.00000E+00
    0.66583E+06        -0.96749E+08         0.00000E+00
    0.00000E+00         0.00000E+00        -0.73162E+08
 
   -0.73113E+08         0.66083E+06         0.00000E+00
    0.66083E+06        -0.96690E+08         0.00000E+00
    0.00000E+00         0.00000E+00        -0.72994E+08
 
   -0.72941E+08         0.65588E+06         0.00000E+00
    0.65588E+06        -0.96631E+08         0.00000E+00
    0.00000E+00         0.00000E+00        -0.72827E+08
 
   -0.72770E+08         0.65101E+06         0.00000E+00
    0.65101E+06        -0.96572E+08         0.00000E+00
    0.00000E+00         0.00000E+00        -0.72663E+08
 
   -0.72600E+08         0.64622E+06         0.00000E+00
    0.64622E+06        -0.96513E+08         0.00000E+00
    0.00000E+00         0.00000E+00        -0.72500E+08
 
   -0.72431E+08         0.64153E+06         0.00000E+00
    0.64153E+06        -0.96453E+08         0.00000E+00
    0.00000E+00         0.00000E+00        -0.72339E+08
 
   -0.72263E+08         0.63695E+06         0.00000E+00
    0.63695E+06        -0.96394E+08         0.00000E+00
    0.00000E+00         0.00000E+00        -0.72179E+08
 
   -0.72095E+08         0.63248E+06         0.00000E+00
    0.63248E+06        -0.96334E+08         0.00000E+00
    0.00000E+00         0.00000E+00        -0.72020E+08
 
   -0.71929E+08         0.62813E+06         0.00000E+00
    0.62813E+06        -0.96275E+08         0.00000E+00
    0.00000E+00         0.00000E+00        -0.71863E+08
 
   -0.71763E+08         0.62390E+06         0.00000E+00
    0.62390E+06        -0.96215E+08         0.00000E+00
    0.00000E+00         0.00000E+00        -0.71706E+08
 
   -0.71598E+08         0.61980E+06         0.00000E+00
    0.61980E+06        -0.96156E+08         0.00000E+00
    0.00000E+00         0.00000E+00        -0.71550E+08
 
   -0.71434E+08         0.61583E+06         0.00000E+00
    0.61583E+06        -0.96097E+08         0.00000E+00
    0.00000E+00         0.00000E+00        -0.71395E+08
 
   -0.71270E+08         0.61198E+06         0.00000E+00
    0.61198E+06        -0.96037E+08         0.00000E+00
    0.00000E+00         0.00000E+00        -0.71240E+08
 
   -0.71107E+08         0.60826E+06         0.00000E+00
    0.60826E+06        -0.95978E+08         0.00000E+00
    0.00000E+00         0.00000E+00        -0.71086E+08
 
   -0.70944E+08         0.60466E+06         0.00000E+00
    0.60466E+06        -0.95919E+08         0.00000E+00
    0.00000E+00         0.00000E+00        -0.70932E+08
 
   -0.70782E+08         0.60117E+06         0.00000E+00
    0.60117E+06        -0.95860E+08         0.00000E+00
    0.00000E+00         0.00000E+00        -0.70779E+08
 
   -0.70620E+08         0.59778E+06         0.00000E+00
    0.59778E+06        -0.95802E+08         0.00000E+00
    0.00000E+00         0.00000E+00        -0.70625E+08
 
   -0.70458E+08         0.59448E+06         0.00000E+00
    0.59448E+06        -0.95743E+08         0.00000E+00
    0.00000E+00         0.00000E+00        -0.70471E+08
 
   -0.70296E+08         0.59126E+06         0.00000E+00
    0.59126E+06        -0.95685E+08         0.00000E+00
    0.00000E+00         0.00000E+00        -0.70317E+08
 
   -0.70134E+08         0.58811E+06         0.00000E+00
    0.58811E+06        -0.95627E+08         0.00000E+00
    0.00000E+00         0.00000E+00        -0.70163E+08
 
   -0.69973E+08         0.58500E+06         0.00000E+00
    0.58500E+06        -0.95569E+08         0.00000E+00
    0.00000E+00         0.00000E+00        -0.70008E+08
 
   -0.69811E+08         0.58192E+06         0.00000E+00
    0.58192E+06        -0.95512E+08         0.00000E+00
    0.00000E+00         0.00000E+00        -0.69852E+08
 
   -0.69650E+08         0.57884E+06         0.00000E+00
    0.57884E+06        -0.95455E+08         0.00000E+00
    0.00000E+00         0.00000E+00        -0.69696E+08
 
   -0.69488E+08         0.57574E+06         0.00000E+00
    0.57574E+06        -0.95398E+08         0.00000E+00
    0.00000E+00         0.00000E+00        -0.69539E+08
 
   -0.69327E+08         0.57260E+06         0.00000E+00
    0.57260E+06        -0.95342E+08         0.00000E+00
    0.00000E+00         0.00000E+00        -0.69381E+08
 
   -0.69165E+08         0.56938E+06         0.00000E+00
    0.56938E+06        -0.95287E+08         0.00000E+00
    0.00000E+00         0.00000E+00        -0.69222E+08
 
   -0.69003E+08         0.56606E+06         0.00000E+00
    0.56606E+06        -0.95231E+08         0.00000E+00
    0.00000E+00         0.00000E+00        -0.69061E+08
 
   -0.68841E+08         0.56259E+06         0.00000E+00
    0.56259E+06        -0.95177E+08         0.00000E+00
    0.00000E+00         0.00000E+00        -0.68899E+08
 
   -0.68679E+08         0.55894E+06         0.00000E+00
    0.55894E+06        -0.95123E+08         0.00000E+00
    0.00000E+00         0.00000E+00        -0.68736E+08
 
   -0.68517E+08         0.55507E+06         0.00000E+00
    0.55507E+06        -0.95070E+08         0.00000E+00
    0.00000E+00         0.00000E+00        -0.68571E+08
 
   -0.68355E+08         0.55092E+06         0.00000E+00
    0.55092E+06        -0.95017E+08         0.00000E+00
    0.00000E+00         0.00000E+00        -0.68404E+08
 
   -0.68192E+08         0.54645E+06         0.00000E+00
    0.54645E+06        -0.94966E+08         0.00000E+00
    0.00000E+00         0.00000E+00        -0.68236E+08
 
   -0.68030E+08         0.54159E+06         0.00000E+00
    0.54159E+06        -0.94915E+08         0.00000E+00
    0.00000E+00         0.00000E+00        -0.68065E+08
 
   -0.67868E+08         0.53627E+06         0.00000E+00
    0.53627E+06        -0.94866E+08         0.00000E+00
    0.00000E+00         0.00000E+00        -0.67893E+08
 
   -0.67705E+08         0.53042E+06         0.00000E+00
    0.53042E+06        -0.94818E+08         0.00000E+00
    0.00000E+00         0.00000E+00        -0.67718E+08
 
   -0.67543E+08         0.52395E+06         0.00000E+00
    0.52395E+06        -0.94771E+08         0.00000E+00
    0.00000E+00         0.00000E+00        -0.67541E+08
 
   -0.67382E+08         0.51674E+06         0.00000E+00
    0.51674E+06        -0.94725E+08         0.00000E+00
    0.00000E+00         0.00000E+00        -0.67361E+08
 
   -0.67221E+08         0.50869E+06         0.00000E+00
    0.50869E+06        -0.94682E+08         0.00000E+00
    0.00000E+00         0.00000E+00        -0.67179E+08
 
   -0.67061E+08         0.49965E+06         0.00000E+00
    0.49965E+06        -0.94639E+08         0.00000E+00
    0.00000E+00         0.00000E+00        -0.66994E+08
 
   -0.66901E+08         0.48944E+06         0.00000E+00
    0.48944E+06        -0.94599E+08         0.00000E+00
    0.00000E+00         0.00000E+00        -0.66807E+08
 
   -0.66743E+08         0.47789E+06         0.00000E+00
    0.47789E+06        -0.94561E+08         0.00000E+00
    0.00000E+00         0.00000E+00        -0.66616E+08
 
   -0.66586E+08         0.46477E+06         0.00000E+00
    0.46477E+06        -0.94526E+08         0.00000E+00
    0.00000E+00         0.00000E+00        -0.66423E+08
 
   -0.66431E+08         0.44982E+06         0.00000E+00
    0.44982E+06        -0.94493E+08         0.00000E+00
    0.00000E+00         0.00000E+00        -0.66226E+08
 
   -0.66279E+08         0.43275E+06         0.00000E+00
    0.43275E+06        -0.94463E+08         0.00000E+00
    0.00000E+00         0.00000E+00        -0.66026E+08
 
   -0.66129E+08         0.41327E+06         0.00000E+00
    0.41327E+06        -0.94437E+08         0.00000E+00
    0.00000E+00         0.00000E+00        -0.65823E+08
 
   -0.65982E+08         0.39101E+06         0.00000E+00
    0.39101E+06        -0.94414E+08         0.00000E+00
    0.00000E+00         0.00000E+00        -0.65617E+08
 
   -0.65838E+08         0.36565E+06         0.00000E+00
    0.36565E+06        -0.94395E+08         0.00000E+00
    0.00000E+00         0.00000E+00        -0.65406E+08
 
   -0.65699E+08         0.33684E+06         0.00000E+00
    0.33684E+06        -0.94379E+08         0.00000E+00
    0.00000E+00         0.00000E+00        -0.65193E+08
 
   -0.65564E+08         0.30429E+06         0.00000E+00
    0.30429E+06        -0.94368E+08         0.00000E+00
    0.00000E+00         0.00000E+00        -0.64975E+08
 
   -0.65435E+08         0.26782E+06         0.00000E+00
    0.26782E+06        -0.94361E+08         0.00000E+00
    0.00000E+00         0.00000E+00        -0.64752E+08
 
   -0.65311E+08         0.22738E+06         0.00000E+00
    0.22738E+06        -0.94359E+08         0.00000E+00
    0.00000E+00         0.00000E+00        -0.64526E+08
 
   -0.65193E+08         0.18321E+06         0.00000E+00
    0.18321E+06        -0.94360E+08         0.00000E+00
    0.00000E+00         0.00000E+00        -0.64294E+08
 
   -0.65082E+08         0.13588E+06         0.00000E+00
    0.13588E+06        -0.94364E+08         0.00000E+00
    0.00000E+00         0.00000E+00        -0.64057E+08
 
   -0.64977E+08         0.86529E+05         0.00000E+00
    0.86529E+05        -0.94371E+08         0.00000E+00
    0.00000E+00         0.00000E+00        -0.63814E+08
 
   -0.64879E+08         0.36987E+05         0.00000E+00
    0.36987E+05        -0.94379E+08         0.00000E+00
    0.00000E+00         0.00000E+00        -0.63564E+08
 
   -0.64786E+08        -0.98964E+04         0.00000E+00
   -0.98964E+04        -0.94387E+08         0.00000E+00
    0.00000E+00         0.00000E+00        -0.63306E+08
 
   -0.64698E+08        -0.49844E+05         0.00000E+00
   -0.49844E+05        -0.94391E+08         0.00000E+00
    0.00000E+00         0.00000E+00        -0.63040E+08
 
   -0.64613E+08        -0.76556E+05         0.00000E+00
   -0.76556E+05        -0.94387E+08         0.00000E+00
    0.00000E+00         0.00000E+00        -0.62762E+08
 
   -0.64527E+08        -0.82389E+05         0.00000E+00
   -0.82389E+05        -0.94365E+08         0.00000E+00
    0.00000E+00         0.00000E+00        -0.62465E+08
 
   -0.64445E+08        -0.63010E+05         0.00000E+00
   -0.63010E+05        -0.94309E+08         0.00000E+00
    0.00000E+00         0.00000E+00        -0.62132E+08
 
   -0.64375E+08        -0.23452E+05         0.00000E+00
   -0.23452E+05        -0.94203E+08         0.00000E+00
    0.00000E+00         0.00000E+00        -0.61741E+08
 
   -0.79742E+08        -0.35225E+05         0.00000E+00
   -0.35225E+05        -0.97732E+08         0.00000E+00
    0.00000E+00         0.00000E+00        -0.84961E+08
 
   -0.79730E+08        -0.88385E+05         0.00000E+00
   -0.88385E+05        -0.97623E+08         0.00000E+00
    0.00000E+00         0.00000E+00        -0.84353E+08
 
   -0.79710E+08        -0.94759E+05         0.00000E+00
   -0.94759E+05        -0.97542E+08         0.00000E+00
    0.00000E+00         0.00000E+00        -0.83801E+08
 
   -0.79684E+08        -0.48923E+05         0.00000E+00
   -0.48923E+05        -0.97499E+08         0.00000E+00
    0.00000E+00         0.00000E+00        -0.83282E+08
 
   -0.79644E+08         0.27094E+05         0.00000E+00
    0.27094E+05        -0.97489E+08         0.00000E+00
    0.00000E+00         0.00000E+00        -0.82785E+08
 
   -0.79583E+08         0.10716E+06         0.00000E+00
    0.10716E+06        -0.97499E+08         0.00000E+00
    0.00000E+00         0.00000E+00        -0.82308E+08
 
   -0.79499E+08         0.17734E+06         0.00000E+00
    0.17734E+06        -0.97516E+08         0.00000E+00
    0.00000E+00         0.00000E+00        -0.81850E+08
 
   -0.79393E+08         0.23552E+06         0.00000E+00
    0.23552E+06        -0.97530E+08         0.00000E+00
    0.00000E+00         0.00000E+00        -0.81414E+08
 
   -0.79269E+08         0.28556E+06         0.00000E+00
    0.28556E+06        -0.97536E+08         0.00000E+00
    0.00000E+00         0.00000E+00        -0.80999E+08
 
   -0.79129E+08         0.33207E+06         0.00000E+00
    0.33207E+06        -0.97536E+08         0.00000E+00
    0.00000E+00         0.00000E+00        -0.80603E+08
 
   -0.78973E+08         0.37759E+06         0.00000E+00
    0.37759E+06        -0.97534E+08         0.00000E+00
    0.00000E+00         0.00000E+00        -0.80226E+08
 
   -0.78804E+08         0.42223E+06         0.00000E+00
    0.42223E+06        -0.97533E+08         0.00000E+00
    0.00000E+00         0.00000E+00        -0.79865E+08
 
   -0.78622E+08         0.46486E+06         0.00000E+00
    0.46486E+06        -0.97535E+08         0.00000E+00
    0.00000E+00         0.00000E+00        -0.79517E+08
 
   -0.78430E+08         0.50416E+06         0.00000E+00
    0.50416E+06        -0.97539E+08         0.00000E+00
    0.00000E+00         0.00000E+00        -0.79182E+08
 
   -0.78230E+08         0.53920E+06         0.00000E+00
    0.53920E+06        -0.97546E+08         0.00000E+00
    0.00000E+00         0.00000E+00        -0.78858E+08
 
   -0.78023E+08         0.56957E+06         0.00000E+00
    0.56957E+06        -0.97554E+08         0.00000E+00
    0.00000E+00         0.00000E+00        -0.78543E+08
 
   -0.77810E+08         0.59526E+06         0.00000E+00
    0.59526E+06        -0.97562E+08         0.00000E+00
    0.00000E+00         0.00000E+00        -0.78235E+08
 
   -0.77593E+08         0.61654E+06         0.00000E+00
    0.61654E+06        -0.97569E+08         0.00000E+00
    0.00000E+00         0.00000E+00        -0.77935E+08
 
   -0.77372E+08         0.63383E+06         0.00000E+00
    0.63383E+06        -0.97575E+08         0.00000E+00
    0.00000E+00         0.00000E+00        -0.77641E+08
 
   -0.77147E+08         0.64765E+06         0.00000E+00
    0.64765E+06        -0.97581E+08         0.00000E+00
    0.00000E+00         0.00000E+00        -0.77353E+08
 
   -0.76920E+08         0.65850E+06         0.00000E+00
    0.65850E+06        -0.97586E+08         0.00000E+00
    0.00000E+00         0.00000E+00        -0.77070E+08
 
   -0.76690E+08         0.66685E+06         0.00000E+00
    0.66685E+06        -0.97589E+08         0.00000E+00
    0.00000E+00         0.00000E+00        -0.76791E+08
 
   -0.76459E+08         0.67315E+06         0.00000E+00
    0.67315E+06        -0.97592E+08         0.00000E+00
    0.00000E+00         0.00000E+00        -0.76517E+08
 
   -0.76226E+08         0.67776E+06         0.00000E+00
    0.67776E+06        -0.97595E+08         0.00000E+00
    0.00000E+00         0.00000E+00        -0.76247E+08
 
   -0.76014E+08         0.67958E+06         0.00000E+00
    0.67958E+06        -0.97573E+08         0.00000E+00
    0.00000E+00         0.00000E+00        -0.76003E+08
 
   -0.75826E+08         0.67864E+06         0.00000E+00
    0.67864E+06        -0.97524E+08         0.00000E+00
    0.00000E+00         0.00000E+00        -0.75788E+08
 
   -0.75639E+08         0.67683E+06         0.00000E+00
    0.67683E+06        -0.97473E+08         0.00000E+00
    0.00000E+00         0.00000E+00        -0.75578E+08
 
   -0.75453E+08         0.67431E+06         0.00000E+00
    0.67431E+06        -0.97422E+08         0.00000E+00
    0.00000E+00         0.00000E+00        -0.75372E+08
 
   -0.75267E+08         0.67125E+06         0.00000E+00
    0.67125E+06        -0.97369E+08         0.00000E+00
    0.00000E+00         0.00000E+00        -0.75170E+08
 
   -0.75081E+08         0.66775E+06         0.00000E+00
    0.66775E+06        -0.97315E+08         0.00000E+00
    0.00000E+00         0.00000E+00        -0.74972E+08
 
   -0.74897E+08         0.66392E+06         0.00000E+00
    0.66392E+06        -0.97261E+08         0.00000E+00
    0.00000E+00         0.00000E+00        -0.74777E+08
 
   -0.74714E+08         0.65982E+06         0.00000E+00
    0.65982E+06        -0.97206E+08         0.00000E+00
    0.00000E+00         0.00000E+00        -0.74585E+08
 
   -0.74531E+08         0.65553E+06         0.00000E+00
    0.65553E+06        -0.97151E+08         0.00000E+00
    0.00000E+00         0.00000E+00        -0.74397E+08
 
   -0.74350E+08         0.65108E+06         0.00000E+00
    0.65108E+06        -0.97095E+08         0.00000E+00
    0.00000E+00         0.00000E+00        -0.74212E+08
 
   -0.74170E+08         0.64652E+06         0.00000E+00
    0.64652E+06        -0.97038E+08         0.00000E+00
    0.00000E+00         0.00000E+00        -0.74030E+08
 
   -0.73991E+08         0.64188E+06         0.00000E+00
    0.64188E+06        -0.96981E+08         0.00000E+00
    0.00000E+00         0.00000E+00        -0.73850E+08
 
   -0.73813E+08         0.63719E+06         0.00000E+00
    0.63719E+06        -0.96923E+08         0.00000E+00
    0.00000E+00         0.00000E+00        -0.73673E+08
 
   -0.73636E+08         0.63248E+06         0.00000E+00
    0.63248E+06        -0.96865E+08         0.00000E+00
    0.00000E+00         0.00000E+00        -0.73499E+08
 
   -0.73461E+08         0.62777E+06         0.00000E+00
    0.62777E+06        -0.96807E+08         0.00000E+00
    0.00000E+00         0.00000E+00        -0.73327E+08
 
   -0.73286E+08         0.62308E+06         0.00000E+00
    0.62308E+06        -0.96749E+08         0.00000E+00
    0.00000E+00         0.00000E+00        -0.73157E+08
 
   -0.73113E+08         0.61843E+06         0.00000E+00
    0.61843E+06        -0.96690E+08         0.00000E+00
    0.00000E+00         0.00000E+00        -0.72989E+08
 
   -0.72941E+08         0.61382E+06         0.00000E+00
    0.61382E+06        -0.96631E+08         0.00000E+00
    0.00000E+00         0.00000E+00        -0.72823E+08
 
   -0.72770E+08         0.60929E+06         0.00000E+00
    0.60929E+06        -0.96572E+08         0.00000E+00
    0.00000E+00         0.00000E+00        -0.72659E+08
 
   -0.72600E+08         0.60482E+06         0.00000E+00
    0.60482E+06        -0.96513E+08         0.00000E+00
    0.00000E+00         0.00000E+00        -0.72496E+08
 
   -0.72431E+08         0.60045E+06         0.00000E+00
    0.60045E+06        -0.96454E+08         0.00000E+00
    0.00000E+00         0.00000E+00        -0.72335E+08
 
   -0.72262E+08         0.59618E+06         0.00000E+00
    0.59618E+06        -0.96394E+08         0.00000E+00
    0.00000E+00         0.00000E+00        -0.72175E+08
 
   -0.72095E+08         0.59201E+06         0.00000E+00
    0.59201E+06        -0.96335E+08         0.00000E+00
    0.00000E+00         0.00000E+00        -0.72017E+08
 
   -0.71928E+08         0.58794E+06         0.00000E+00
    0.58794E+06        -0.96275E+08         0.00000E+00
    0.00000E+00         0.00000E+00        -0.71859E+08
 
   -0.71763E+08         0.58400E+06         0.00000E+00
    0.58400E+06        -0.96216E+08         0.00000E+00
    0.00000E+00         0.00000E+00        -0.71703E+08
 
   -0.71598E+08         0.58017E+06         0.00000E+00
    0.58017E+06        -0.96157E+08         0.00000E+00
    0.00000E+00         0.00000E+00        -0.71547E+08
 
   -0.71433E+08         0.57645E+06         0.00000E+00
    0.57645E+06        -0.96097E+08         0.00000E+00
    0.00000E+00         0.00000E+00        -0.71393E+08
 
   -0.71269E+08         0.57286E+06         0.00000E+00
    0.57286E+06        -0.96038E+08         0.00000E+00
    0.00000E+00         0.00000E+00        -0.71238E+08
 
   -0.71106E+08         0.56937E+06         0.00000E+00
    0.56937E+06        -0.95979E+08         0.00000E+00
    0.00000E+00         0.00000E+00        -0.71084E+08
 
   -0.70943E+08         0.56600E+06         0.00000E+00
    0.56600E+06        -0.95920E+08         0.00000E+00
    0.00000E+00         0.00000E+00        -0.70931E+08
 
   -0.70780E+08         0.56273E+06         0.00000E+00
    0.56273E+06        -0.95861E+08         0.00000E+00
    0.00000E+00         0.00000E+00        -0.70777E+08
 
   -0.70618E+08         0.55955E+06         0.00000E+00
    0.55955E+06        -0.95802E+08         0.00000E+00
    0.00000E+00         0.00000E+00        -0.70624E+08
 
   -0.70456E+08         0.55645E+06         0.00000E+00
    0.55645E+06        -0.95744E+08         0.00000E+00
    0.00000E+00         0.00000E+00        -0.70470E+08
 
   -0.70294E+08         0.55343E+06         0.00000E+00
    0.55343E+06        -0.95686E+08         0.00000E+00
    0.00000E+00         0.00000E+00        -0.70316E+08
 
   -0.70132E+08         0.55047E+06         0.00000E+00
    0.55047E+06        -0.95628E+08         0.00000E+00
    0.00000E+00         0.00000E+00        -0.70162E+08
 
   -0.69971E+08         0.54754E+06         0.00000E+00
    0.54754E+06        -0.95570E+08         0.00000E+00
    0.00000E+00         0.00000E+00        -0.70007E+08
 
   -0.69809E+08         0.54464E+06         0.00000E+00
    0.54464E+06        -0.95513E+08         0.00000E+00
    0.00000E+00         0.00000E+00        -0.69852E+08
 
   -0.69648E+08         0.54174E+06         0.00000E+00
    0.54174E+06        -0.95456E+08         0.00000E+00
    0.00000E+00         0.00000E+00        -0.69696E+08
 
   -0.69486E+08         0.53882E+06         0.00000E+00
    0.53882E+06        -0.95399E+08         0.00000E+00
    0.00000E+00         0.00000E+00        -0.69539E+08
 
   -0.69324E+08         0.53585E+06         0.00000E+00
    0.53585E+06        -0.95343E+08         0.00000E+00
    0.00000E+00         0.00000E+00        -0.69381E+08
 
   -0.69162E+08         0.53282E+06         0.00000E+00
    0.53282E+06        -0.95287E+08         0.00000E+00
    0.00000E+00         0.00000E+00        -0.69222E+08
 
   -0.69001E+08         0.52968E+06         0.00000E+00
    0.52968E+06        -0.95232E+08         0.00000E+00
    0.00000E+00         0.00000E+00        -0.69061E+08
 
   -0.68839E+08         0.52640E+06         0.00000E+00
    0.52640E+06        -0.95177E+08         0.00000E+00
    0.00000E+00         0.00000E+00        -0.68900E+08
 
   -0.68677E+08         0.52295E+06         0.00000E+00
    0.52295E+06        -0.95124E+08         0.00000E+00
    0.00000E+00         0.00000E+00        -0.68736E+08
 
   -0.68514E+08         0.51929E+06         0.00000E+00
    0.51929E+06        -0.95070E+08         0.00000E+00
    0.00000E+00         0.00000E+00        -0.68572E+08
 
   -0.68352E+08         0.51537E+06         0.00000E+00
    0.51537E+06        -0.95018E+08         0.00000E+00
    0.00000E+00         0.00000E+00        -0.68405E+08
 
   -0.68190E+08         0.51115E+06         0.00000E+00
    0.51115E+06        -0.94967E+08         0.00000E+00
    0.00000E+00         0.00000E+00        -0.68236E+08
 
   -0.68027E+08         0.50655E+06         0.00000E+00
    0.50655E+06        -0.94916E+08         0.00000E+00
    0.00000E+00         0.00000E+00        -0.68066E+08
 
   -0.67865E+08         0.50153E+06         0.00000E+00
    0.50153E+06        -0.94867E+08         0.00000E+00
    0.00000E+00         0.00000E+00        -0.67893E+08
 
   -0.67703E+08         0.49601E+06         0.00000E+00
    0.49601E+06        -0.94818E+08         0.00000E+00
    0.00000E+00         0.00000E+00        -0.67718E+08
 
   -0.67541E+08         0.48990E+06         0.00000E+00
    0.48990E+06        -0.94771E+08         0.00000E+00
    0.00000E+00         0.00000E+00        -0.67541E+08
 
   -0.67380E+08         0.48311E+06         0.00000E+00
    0.48311E+06        -0.94726E+08         0.00000E+00
    0.00000E+00         0.00000E+00        -0.67361E+08
 
   -0.67219E+08         0.47551E+06         0.00000E+00
    0.47551E+06        -0.94682E+08         0.00000E+00
    0.00000E+00         0.00000E+00        -0.67179E+08
 
   -0.67059E+08         0.46698E+06         0.00000E+00
    0.46698E+06        -0.94640E+08         0.00000E+00
    0.00000E+00         0.00000E+00        -0.66994E+08
 
   -0.66899E+08         0.45735E+06         0.00000E+00
    0.45735E+06        -0.94599E+08         0.00000E+00
    0.00000E+00         0.00000E+00        -0.66806E+08
 
   -0.66742E+08         0.44644E+06         0.00000E+00
    0.44644E+06        -0.94561E+08         0.00000E+00
    0.00000E+00         0.00000E+00        -0.66615E+08
 
   -0.66585E+08         0.43405E+06         0.00000E+00
    0.43405E+06        -0.94526E+08         0.00000E+00
    0.00000E+00         0.00000E+00        -0.66421E+08
 
   -0.66431E+08         0.41992E+06         0.00000E+00
    0.41992E+06        -0.94492E+08         0.00000E+00
    0.00000E+00         0.00000E+00        -0.66224E+08
 
   -0.66279E+08         0.40378E+06         0.00000E+00
    0.40378E+06        -0.94462E+08         0.00000E+00
    0.00000E+00         0.00000E+00        -0.66024E+08
 
   -0.66129E+08         0.38532E+06         0.00000E+00
    0.38532E+06        -0.94435E+08         0.00000E+00
    0.00000E+00         0.00000E+00        -0.65820E+08
 
   -0.65983E+08         0.36421E+06         0.00000E+00
    0.36421E+06        -0.94412E+08         0.00000E+00
    0.00000E+00         0.00000E+00        -0.65612E+08
 
   -0.65840E+08         0.34013E+06         0.00000E+00
    0.34013E+06        -0.94392E+08         0.00000E+00
    0.00000E+00         0.00000E+00        -0.65401E+08
 
   -0.65702E+08         0.31274E+06         0.00000E+00
    0.31274E+06        -0.94377E+08         0.00000E+00
    0.00000E+00         0.00000E+00        -0.65186E+08
 
   -0.65569E+08         0.28175E+06         0.00000E+00
    0.28175E+06        -0.94365E+08         0.00000E+00
    0.00000E+00         0.00000E+00        -0.64966E+08
 
   -0.65441E+08         0.24699E+06         0.00000E+00
    0.24699E+06        -0.94358E+08         0.00000E+00
    0.00000E+00         0.00000E+00        -0.64742E+08
 
   -0.65320E+08         0.20840E+06         0.00000E+00
    0.20840E+06        -0.94355E+08         0.00000E+00
    0.00000E+00         0.00000E+00        -0.64513E+08
 
   -0.65204E+08         0.16621E+06         0.00000E+00
    0.16621E+06        -0.94356E+08         0.00000E+00
    0.00000E+00         0.00000E+00        -0.64279E+08
 
   -0.65096E+08         0.12098E+06         0.00000E+00
    0.12098E+06        -0.94361E+08         0.00000E+00
    0.00000E+00         0.00000E+00        -0.64040E+08
 
   -0.64996E+08         0.73761E+05         0.00000E+00
    0.73761E+05        -0.94368E+08         0.00000E+00
    0.00000E+00         0.00000E+00        -0.63794E+08
 
   -0.64902E+08         0.26301E+05         0.00000E+00
    0.26301E+05        -0.94378E+08         0.00000E+00
    0.00000E+00         0.00000E+00        -0.63542E+08
 
   -0.64815E+08        -0.18748E+05         0.00000E+00
   -0.18748E+05        -0.94388E+08         0.00000E+00
    0.00000E+00         0.00000E+00        -0.63282E+08
 
   -0.64733E+08        -0.57410E+05         0.00000E+00
   -0.57410E+05        -0.94396E+08         0.00000E+00
    0.00000E+00         0.00000E+00        -0.63014E+08
 
   -0.64654E+08        -0.83589E+05         0.00000E+00
   -0.83589E+05        -0.94398E+08         0.00000E+00
    0.00000E+00         0.00000E+00        -0.62737E+08
 
   -0.64573E+08        -0.89122E+05         0.00000E+00
   -0.89122E+05        -0.94382E+08         0.00000E+00
    0.00000E+00         0.00000E+00        -0.62442E+08
 
   -0.64494E+08        -0.68311E+05         0.00000E+00
   -0.68311E+05        -0.94333E+08         0.00000E+00
    0.00000E+00         0.00000E+00        -0.62114E+08
 
   -0.64425E+08        -0.25496E+05         0.00000E+00
   -0.25496E+05        -0.94231E+08         0.00000E+00
    0.00000E+00         0.00000E+00        -0.61726E+08
 
   -0.79662E+08        -0.36368E+05         0.00000E+00
   -0.36368E+05        -0.97718E+08         0.00000E+00
    0.00000E+00         0.00000E+00        -0.84987E+08
 
   -0.79653E+08        -0.91292E+05         0.00000E+00
   -0.91292E+05        -0.97616E+08         0.00000E+00
    0.00000E+00         0.00000E+00        -0.84386E+08
 
   -0.79641E+08        -0.98482E+05         0.00000E+00
   -0.98482E+05        -0.97546E+08         0.00000E+00
    0.00000E+00         0.00000E+00        -0.83840E+08
 
   -0.79625E+08        -0.54207E+05         0.00000E+00
   -0.54207E+05        -0.97512E+08         0.00000E+00
    0.00000E+00         0.00000E+00        -0.83323E+08
 
   -0.79596E+08         0.18130E+05         0.00000E+00
    0.18130E+05        -0.97505E+08         0.00000E+00
    0.00000E+00         0.00000E+00        -0.82825E+08
 
   -0.79544E+08         0.93321E+05         0.00000E+00
    0.93321E+05        -0.97514E+08         0.00000E+00
    0.00000E+00         0.00000E+00        -0.82343E+08
 
   -0.79467E+08         0.15881E+06         0.00000E+00
    0.15881E+06        -0.97529E+08         0.00000E+00
    0.00000E+00         0.00000E+00        -0.81881E+08
 
   -0.79367E+08         0.21296E+06         0.00000E+00
    0.21296E+06        -0.97541E+08         0.00000E+00
    0.00000E+00         0.00000E+00        -0.81439E+08
 
   -0.79247E+08         0.25948E+06         0.00000E+00
    0.25948E+06        -0.97546E+08         0.00000E+00
    0.00000E+00         0.00000E+00        -0.81018E+08
 
   -0.79110E+08         0.30279E+06         0.00000E+00
    0.30279E+06        -0.97545E+08         0.00000E+00
    0.00000E+00         0.00000E+00        -0.80618E+08
 
   -0.78958E+08         0.34534E+06         0.00000E+00
    0.34534E+06        -0.97543E+08         0.00000E+00
    0.00000E+00         0.00000E+00        -0.80236E+08
 
   -0.78792E+08         0.38733E+06         0.00000E+00
    0.38733E+06        -0.97541E+08         0.00000E+00
    0.00000E+00         0.00000E+00        -0.79870E+08
 
   -0.78613E+08         0.42768E+06         0.00000E+00
    0.42768E+06        -0.97543E+08         0.00000E+00
    0.00000E+00         0.00000E+00        -0.79520E+08
 
   -0.78424E+08         0.46511E+06         0.00000E+00
    0.46511E+06        -0.97547E+08         0.00000E+00
    0.00000E+00         0.00000E+00        -0.79182E+08
 
   -0.78226E+08         0.49861E+06         0.00000E+00
    0.49861E+06        -0.97553E+08         0.00000E+00
    0.00000E+00         0.00000E+00        -0.78855E+08
 
   -0.78020E+08         0.52771E+06         0.00000E+00
    0.52771E+06        -0.97559E+08         0.00000E+00
    0.00000E+00         0.00000E+00        -0.78538E+08
 
   -0.77809E+08         0.55234E+06         0.00000E+00
    0.55234E+06        -0.97566E+08         0.00000E+00
    0.00000E+00         0.00000E+00        -0.78229E+08
 
   -0.77593E+08         0.57273E+06         0.00000E+00
    0.57273E+06        -0.97573E+08         0.00000E+00
    0.00000E+00         0.00000E+00        -0.77928E+08
 
   -0.77372E+08         0.58928E+06         0.00000E+00
    0.58928E+06        -0.97578E+08         0.00000E+00
    0.00000E+00         0.00000E+00        -0.77633E+08
 
   -0.77148E+08         0.60246E+06         0.00000E+00
    0.60246E+06        -0.97583E+08         0.00000E+00
    0.00000E+00         0.00000E+00        -0.77344E+08
 
   -0.76921E+08         0.61279E+06         0.00000E+00
    0.61279E+06        -0.97587E+08         0.00000E+00
    0.00000E+00         0.00000E+00        -0.77060E+08
 
   -0.76691E+08         0.62071E+06         0.00000E+00
    0.62071E+06        -0.97591E+08         0.00000E+00
    0.00000E+00         0.00000E+00        -0.76782E+08
 
   -0.76459E+08         0.62667E+06         0.00000E+00
    0.62667E+06        -0.97593E+08         0.00000E+00
    0.00000E+00         0.00000E+00        -0.76507E+08
 
   -0.76226E+08         0.63101E+06         0.00000E+00
    0.63101E+06        -0.97596E+08         0.00000E+00
    0.00000E+00         0.00000E+00        -0.76237E+08
 
   -0.76015E+08         0.63267E+06         0.00000E+00
    0.63267E+06        -0.97572E+08         0.00000E+00
    0.00000E+00         0.00000E+00        -0.75995E+08
 
   -0.75828E+08         0.63182E+06         0.00000E+00
    0.63182E+06        -0.97523E+08         0.00000E+00
    0.00000E+00         0.00000E+00        -0.75780E+08
 
   -0.75641E+08         0.63014E+06         0.00000E+00
    0.63014E+06        -0.97472E+08         0.00000E+00
    0.00000E+00         0.00000E+00        -0.75570E+08
 
   -0.75454E+08         0.62780E+06         0.00000E+00
    0.62780E+06        -0.97421E+08         0.00000E+00
    0.00000E+00         0.00000E+00        -0.75364E+08
 
   -0.75268E+08         0.62496E+06         0.00000E+00
    0.62496E+06        -0.97368E+08         0.00000E+00
    0.00000E+00         0.00000E+00        -0.75162E+08
 
   -0.75083E+08         0.62171E+06         0.00000E+00
    0.62171E+06        -0.97315E+08         0.00000E+00
    0.00000E+00         0.00000E+00        -0.74964E+08
 
   -0.74898E+08         0.61816E+06         0.00000E+00
    0.61816E+06        -0.97261E+08         0.00000E+00
    0.00000E+00         0.00000E+00        -0.74769E+08
 
   -0.74715E+08         0.61436E+06         0.00000E+00
    0.61436E+06        -0.97206E+08         0.00000E+00
    0.00000E+00         0.00000E+00        -0.74578E+08
 
   -0.74532E+08         0.61038E+06         0.00000E+00
    0.61038E+06        -0.97150E+08         0.00000E+00
    0.00000E+00         0.00000E+00        -0.74390E+08
 
   -0.74351E+08         0.60626E+06         0.00000E+00
    0.60626E+06        -0.97094E+08         0.00000E+00
    0.00000E+00         0.00000E+00        -0.74205E+08
 
   -0.74171E+08         0.60203E+06         0.00000E+00
    0.60203E+06        -0.97038E+08         0.00000E+00
    0.00000E+00         0.00000E+00        -0.74023E+08
 
   -0.73992E+08         0.59774E+06         0.00000E+00
    0.59774E+06        -0.96981E+08         0.00000E+00
    0.00000E+00         0.00000E+00        -0.73844E+08
 
   -0.73814E+08         0.59340E+06         0.00000E+00
    0.59340E+06        -0.96923E+08         0.00000E+00
    0.00000E+00         0.00000E+00        -0.73667E+08
 
   -0.73637E+08         0.58904E+06         0.00000E+00
    0.58904E+06        -0.96865E+08         0.00000E+00
    0.00000E+00         0.00000E+00        -0.73493E+08
 
   -0.73461E+08         0.58467E+06         0.00000E+00
    0.58467E+06        -0.96807E+08         0.00000E+00
    0.00000E+00         0.00000E+00        -0.73321E+08
 
   -0.73287E+08         0.58033E+06         0.00000E+00
    0.58033E+06        -0.96749E+08         0.00000E+00
    0.00000E+00         0.00000E+00        -0.73152E+08
 
   -0.73114E+08         0.57601E+06         0.00000E+00
    0.57601E+06        -0.96690E+08         0.00000E+00
    0.00000E+00         0.00000E+00        -0.72984E+08
 
   -0.72941E+08         0.57175E+06         0.00000E+00
    0.57175E+06        -0.96631E+08         0.00000E+00
    0.00000E+00         0.00000E+00        -0.72818E+08
 
   -0.72770E+08         0.56754E+06         0.00000E+00
    0.56754E+06        -0.96572E+08         0.00000E+00
    0.00000E+00         0.00000E+00        -0.72654E+08
 
   -0.72600E+08         0.56340E+06         0.00000E+00
    0.56340E+06        -0.96513E+08         0.00000E+00
    0.00000E+00         0.00000E+00        -0.72492E+08
 
   -0.72431E+08         0.55934E+06         0.00000E+00
    0.55934E+06        -0.96454E+08         0.00000E+00
    0.00000E+00         0.00000E+00        -0.72331E+08
 
   -0.72262E+08         0.55537E+06         0.00000E+00
    0.55537E+06        -0.96395E+08         0.00000E+00
    0.00000E+00         0.00000E+00        -0.72172E+08
 
   -0.72095E+08         0.55150E+06         0.00000E+00
    0.55150E+06        -0.96335E+08         0.00000E+00
    0.00000E+00         0.00000E+00        -0.72014E+08
 
   -0.71928E+08         0.54773E+06         0.00000E+00
    0.54773E+06        -0.96276E+08         0.00000E+00
    0.00000E+00         0.00000E+00        -0.71857E+08
 
   -0.71762E+08         0.54406E+06         0.00000E+00
    0.54406E+06        -0.96217E+08         0.00000E+00
    0.00000E+00         0.00000E+00        -0.71700E+08
 
   -0.71597E+08         0.54050E+06         0.00000E+00
    0.54050E+06        -0.96157E+08         0.00000E+00
    0.00000E+00         0.00000E+00        -0.71545E+08
 
   -0.71432E+08         0.53704E+06         0.00000E+00
    0.53704E+06        -0.96098E+08         0.00000E+00
    0.00000E+00         0.00000E+00        -0.71390E+08
 
   -0.71268E+08         0.53369E+06         0.00000E+00
    0.53369E+06        -0.96039E+08         0.00000E+00
    0.00000E+00         0.00000E+00        -0.71236E+08
 
   -0.71105E+08         0.53045E+06         0.00000E+00
    0.53045E+06        -0.95979E+08         0.00000E+00
    0.00000E+00         0.00000E+00        -0.71082E+08
 
   -0.70942E+08         0.52730E+06         0.00000E+00
    0.52730E+06        -0.95920E+08         0.00000E+00
    0.00000E+00         0.00000E+00        -0.70929E+08
 
   -0.70779E+08         0.52425E+06         0.00000E+00
    0.52425E+06        -0.95862E+08         0.00000E+00
    0.00000E+00         0.00000E+00        -0.70776E+08
 
   -0.70616E+08         0.52128E+06         0.00000E+00
    0.52128E+06        -0.95803E+08         0.00000E+00
    0.00000E+00         0.00000E+00        -0.70622E+08
 
   -0.70454E+08         0.51839E+06         0.00000E+00
    0.51839E+06        -0.95744E+08         0.00000E+00
    0.00000E+00         0.00000E+00        -0.70469E+08
 
   -0.70292E+08         0.51557E+06         0.00000E+00
    0.51557E+06        -0.95686E+08         0.00000E+00
    0.00000E+00         0.00000E+00        -0.70315E+08
 
   -0.70130E+08         0.51279E+06         0.00000E+00
    0.51279E+06        -0.95628E+08         0.00000E+00
    0.00000E+00         0.00000E+00        -0.70161E+08
 
   -0.69969E+08         0.51005E+06         0.00000E+00
    0.51005E+06        -0.95571E+08         0.00000E+00
    0.00000E+00         0.00000E+00        -0.70007E+08
 
   -0.69807E+08         0.50733E+06         0.00000E+00
    0.50733E+06        -0.95513E+08         0.00000E+00
    0.00000E+00         0.00000E+00        -0.69852E+08
 
   -0.69645E+08         0.50461E+06         0.00000E+00
    0.50461E+06        -0.95456E+08         0.00000E+00
    0.00000E+00         0.00000E+00        -0.69696E+08
 
   -0.69484E+08         0.50187E+06         0.00000E+00
    0.50187E+06        -0.95400E+08         0.00000E+00
    0.00000E+00         0.00000E+00        -0.69539E+08
 
   -0.69322E+08         0.49909E+06         0.00000E+00
    0.49909E+06        -0.95343E+08         0.00000E+00
    0.00000E+00         0.00000E+00        -0.69381E+08
 
   -0.69160E+08         0.49623E+06         0.00000E+00
    0.49623E+06        -0.95288E+08         0.00000E+00
    0.00000E+00         0.00000E+00        -0.69222E+08
 
   -0.68998E+08         0.49328E+06         0.00000E+00
    0.49328E+06        -0.95233E+08         0.00000E+00
    0.00000E+00         0.00000E+00        -0.69062E+08
 
   -0.68836E+08         0.49020E+06         0.00000E+00
    0.49020E+06        -0.95178E+08         0.00000E+00
    0.00000E+00         0.00000E+00        -0.68900E+08
 
   -0.68674E+08         0.48695E+06         0.00000E+00
    0.48695E+06        -0.95124E+08         0.00000E+00
    0.00000E+00         0.00000E+00        -0.68737E+08
 
   -0.68512E+08         0.48351E+06         0.00000E+00
    0.48351E+06        -0.95071E+08         0.00000E+00
    0.00000E+00         0.00000E+00        -0.68572E+08
 
   -0.68349E+08         0.47982E+06         0.00000E+00
    0.47982E+06        -0.95019E+08         0.00000E+00
    0.00000E+00         0.00000E+00        -0.68405E+08
 
   -0.68187E+08         0.47585E+06         0.00000E+00
    0.47585E+06        -0.94967E+08         0.00000E+00
    0.00000E+00         0.00000E+00        -0.68237E+08
 
   -0.68025E+08         0.47153E+06         0.00000E+00
    0.47153E+06        -0.94917E+08         0.00000E+00
    0.00000E+00         0.00000E+00        -0.68066E+08
 
   -0.67862E+08         0.46682E+06         0.00000E+00
    0.46682E+06        -0.94867E+08         0.00000E+00
    0.00000E+00         0.00000E+00        -0.67894E+08
 
   -0.67700E+08         0.46163E+06         0.00000E+00
    0.46163E+06        -0.94819E+08         0.00000E+00
    0.00000E+00         0.00000E+00        -0.67719E+08
 
   -0.67539E+08         0.45589E+06         0.00000E+00
    0.45589E+06        -0.94772E+08         0.00000E+00
    0.00000E+00         0.00000E+00        -0.67541E+08
 
   -0.67377E+08         0.44951E+06         0.00000E+00
    0.44951E+06        -0.94726E+08         0.00000E+00
    0.00000E+00         0.00000E+00        -0.67361E+08
 
   -0.67217E+08         0.44238E+06         0.00000E+00
    0.44238E+06        -0.94682E+08         0.00000E+00
    0.00000E+00         0.00000E+00        -0.67179E+08
 
   -0.67057E+08         0.43436E+06         0.00000E+00
    0.43436E+06        -0.94640E+08         0.00000E+00
    0.00000E+00         0.00000E+00        -0.66994E+08
 
   -0.66898E+08         0.42532E+06         0.00000E+00
    0.42532E+06        -0.94599E+08         0.00000E+00
    0.00000E+00         0.00000E+00        -0.66805E+08
 
   -0.66740E+08         0.41508E+06         0.00000E+00
    0.41508E+06        -0.94561E+08         0.00000E+00
    0.00000E+00         0.00000E+00        -0.66614E+08
 
   -0.66584E+08         0.40342E+06         0.00000E+00
    0.40342E+06        -0.94525E+08         0.00000E+00
    0.00000E+00         0.00000E+00        -0.66420E+08
 
   -0.66430E+08         0.39013E+06         0.00000E+00
    0.39013E+06        -0.94492E+08         0.00000E+00
    0.00000E+00         0.00000E+00        -0.66222E+08
 
   -0.66278E+08         0.37493E+06         0.00000E+00
    0.37493E+06        -0.94461E+08         0.00000E+00
    0.00000E+00         0.00000E+00        -0.66021E+08
 
   -0.66130E+08         0.35754E+06         0.00000E+00
    0.35754E+06        -0.94434E+08         0.00000E+00
    0.00000E+00         0.00000E+00        -0.65817E+08
 
   -0.65984E+08         0.33762E+06         0.00000E+00
    0.33762E+06        -0.94410E+08         0.00000E+00
    0.00000E+00         0.00000E+00        -0.65608E+08
 
   -0.65843E+08         0.31487E+06         0.00000E+00
    0.31487E+06        -0.94390E+08         0.00000E+00
    0.00000E+00         0.00000E+00        -0.65396E+08
 
   -0.65705E+08         0.28895E+06         0.00000E+00
    0.28895E+06        -0.94374E+08         0.00000E+00
    0.00000E+00         0.00000E+00        -0.65179E+08
 
   -0.65574E+08         0.25961E+06         0.00000E+00
    0.25961E+06        -0.94363E+08         0.00000E+00
    0.00000E+00         0.00000E+00        -0.64958E+08
 
   -0.65448E+08         0.22664E+06         0.00000E+00
    0.22664E+06        -0.94355E+08         0.00000E+00
    0.00000E+00         0.00000E+00        -0.64732E+08
 
   -0.65328E+08         0.19001E+06         0.00000E+00
    0.19001E+06        -0.94352E+08         0.00000E+00
    0.00000E+00         0.00000E+00        -0.64502E+08
 
   -0.65216E+08         0.14992E+06         0.00000E+00
    0.14992E+06        -0.94353E+08         0.00000E+00
    0.00000E+00         0.00000E+00        -0.64265E+08
 
   -0.65111E+08         0.10691E+06         0.00000E+00
    0.10691E+06        -0.94358E+08         0.00000E+00
    0.00000E+00         0.00000E+00        -0.64023E+08
 
   -0.65014E+08         0.61973E+05         0.00000E+00
    0.61973E+05        -0.94367E+08         0.00000E+00
    0.00000E+00         0.00000E+00        -0.63775E+08
 
   -0.64925E+08         0.16737E+05         0.00000E+00
    0.16737E+05        -0.94378E+08         0.00000E+00
    0.00000E+00         0.00000E+00        -0.63520E+08
 
   -0.64844E+08        -0.26346E+05         0.00000E+00
   -0.26346E+05        -0.94390E+08         0.00000E+00
    0.00000E+00         0.00000E+00        -0.63258E+08
 
   -0.64768E+08        -0.63640E+05         0.00000E+00
   -0.63640E+05        -0.94402E+08         0.00000E+00
    0.00000E+00         0.00000E+00        -0.62989E+08
 
   -0.64695E+08        -0.89392E+05         0.00000E+00
   -0.89392E+05        -0.94408E+08         0.00000E+00
    0.00000E+00         0.00000E+00        -0.62711E+08
 
   -0.64621E+08        -0.95034E+05         0.00000E+00
   -0.95034E+05        -0.94399E+08         0.00000E+00
    0.00000E+00         0.00000E+00        -0.62419E+08
 
   -0.64545E+08        -0.73298E+05         0.00000E+00
   -0.73298E+05        -0.94357E+08         0.00000E+00
    0.00000E+00         0.00000E+00        -0.62095E+08
 
   -0.64478E+08        -0.27488E+05         0.00000E+00
   -0.27488E+05        -0.94261E+08         0.00000E+00
    0.00000E+00         0.00000E+00        -0.61711E+08
 
   -0.79582E+08        -0.37272E+05         0.00000E+00
   -0.37272E+05        -0.97703E+08         0.00000E+00
    0.00000E+00         0.00000E+00        -0.85013E+08
 
   -0.79576E+08        -0.93218E+05         0.00000E+00
   -0.93218E+05        -0.97609E+08         0.00000E+00
    0.00000E+00         0.00000E+00        -0.84420E+08
 
   -0.79572E+08        -0.10025E+06         0.00000E+00
   -0.10025E+06        -0.97550E+08         0.00000E+00
    0.00000E+00         0.00000E+00        -0.83880E+08
 
   -0.79568E+08        -0.57143E+05         0.00000E+00
   -0.57143E+05        -0.97524E+08         0.00000E+00
    0.00000E+00         0.00000E+00        -0.83364E+08
 
   -0.79550E+08         0.11164E+05         0.00000E+00
    0.11164E+05        -0.97520E+08         0.00000E+00
    0.00000E+00         0.00000E+00        -0.82864E+08
 
   -0.79506E+08         0.80982E+05         0.00000E+00
    0.80982E+05        -0.97528E+08         0.00000E+00
    0.00000E+00         0.00000E+00        -0.82378E+08
 
   -0.79435E+08         0.14144E+06         0.00000E+00
    0.14144E+06        -0.97540E+08         0.00000E+00
    0.00000E+00         0.00000E+00        -0.81910E+08
 
   -0.79339E+08         0.19135E+06         0.00000E+00
    0.19135E+06        -0.97550E+08         0.00000E+00
    0.00000E+00         0.00000E+00        -0.81463E+08
 
   -0.79224E+08         0.23423E+06         0.00000E+00
    0.23423E+06        -0.97554E+08         0.00000E+00
    0.00000E+00         0.00000E+00        -0.81037E+08
 
   -0.79092E+08         0.27425E+06         0.00000E+00
    0.27425E+06        -0.97554E+08         0.00000E+00
    0.00000E+00         0.00000E+00        -0.80631E+08
 
   -0.78943E+08         0.31377E+06         0.00000E+00
    0.31377E+06        -0.97551E+08         0.00000E+00
    0.00000E+00         0.00000E+00        -0.80245E+08
 
   -0.78780E+08         0.35305E+06         0.00000E+00
    0.35305E+06        -0.97550E+08         0.00000E+00
    0.00000E+00         0.00000E+00        -0.79875E+08
 
   -0.78604E+08         0.39107E+06         0.00000E+00
    0.39107E+06        -0.97550E+08         0.00000E+00
    0.00000E+00         0.00000E+00        -0.79521E+08
 
   -0.78418E+08         0.42652E+06         0.00000E+00
    0.42652E+06        -0.97554E+08         0.00000E+00
    0.00000E+00         0.00000E+00        -0.79180E+08
 
   -0.78222E+08         0.45839E+06         0.00000E+00
    0.45839E+06        -0.97559E+08         0.00000E+00
    0.00000E+00         0.00000E+00        -0.78851E+08
 
   -0.78018E+08         0.48613E+06         0.00000E+00
    0.48613E+06        -0.97565E+08         0.00000E+00
    0.00000E+00         0.00000E+00        -0.78532E+08
 
   -0.77808E+08         0.50963E+06         0.00000E+00
    0.50963E+06        -0.97571E+08         0.00000E+00
    0.00000E+00         0.00000E+00        -0.78222E+08
 
   -0.77592E+08         0.52906E+06         0.00000E+00
    0.52906E+06        -0.97576E+08         0.00000E+00
    0.00000E+00         0.00000E+00        -0.77920E+08
 
   -0.77372E+08         0.54481E+06         0.00000E+00
    0.54481E+06        -0.97581E+08         0.00000E+00
    0.00000E+00         0.00000E+00        -0.77624E+08
 
   -0.77149E+08         0.55734E+06         0.00000E+00
    0.55734E+06        -0.97586E+08         0.00000E+00
    0.00000E+00         0.00000E+00        -0.77335E+08
 
   -0.76922E+08         0.56711E+06         0.00000E+00
    0.56711E+06        -0.97589E+08         0.00000E+00
    0.00000E+00         0.00000E+00        -0.77051E+08
 
   -0.76692E+08         0.57459E+06         0.00000E+00
    0.57459E+06        -0.97592E+08         0.00000E+00
    0.00000E+00         0.00000E+00        -0.76772E+08
 
   -0.76461E+08         0.58020E+06         0.00000E+00
    0.58020E+06        -0.97594E+08         0.00000E+00
    0.00000E+00         0.00000E+00        -0.76498E+08
 
   -0.76228E+08         0.58427E+06         0.00000E+00
    0.58427E+06        -0.97596E+08         0.00000E+00
    0.00000E+00         0.00000E+00        -0.76228E+08
 
   -0.76018E+08         0.58578E+06         0.00000E+00
    0.58578E+06        -0.97572E+08         0.00000E+00
    0.00000E+00         0.00000E+00        -0.75986E+08
 
   -0.75830E+08         0.58501E+06         0.00000E+00
    0.58501E+06        -0.97522E+08         0.00000E+00
    0.00000E+00         0.00000E+00        -0.75772E+08
 
   -0.75643E+08         0.58347E+06         0.00000E+00
    0.58347E+06        -0.97472E+08         0.00000E+00
    0.00000E+00         0.00000E+00        -0.75562E+08
 
   -0.75456E+08         0.58132E+06         0.00000E+00
    0.58132E+06        -0.97420E+08         0.00000E+00
    0.00000E+00         0.00000E+00        -0.75356E+08
 
   -0.75270E+08         0.57869E+06         0.00000E+00
    0.57869E+06        -0.97368E+08         0.00000E+00
    0.00000E+00         0.00000E+00        -0.75155E+08
 
   -0.75085E+08         0.57570E+06         0.00000E+00
    0.57570E+06        -0.97314E+08         0.00000E+00
    0.00000E+00         0.00000E+00        -0.74957E+08
 
   -0.74900E+08         0.57242E+06         0.00000E+00
    0.57242E+06        -0.97260E+08         0.00000E+00
    0.00000E+00         0.00000E+00        -0.74762E+08
 
   -0.74717E+08         0.56891E+06         0.00000E+00
    0.56891E+06        -0.97206E+08         0.00000E+00
    0.00000E+00         0.00000E+00        -0.74571E+08
 
   -0.74534E+08         0.56524E+06         0.00000E+00
    0.56524E+06        -0.97150E+08         0.00000E+00
    0.00000E+00         0.00000E+00        -0.74384E+08
 
   -0.74352E+08         0.56145E+06         0.00000E+00
    0.56145E+06        -0.97094E+08         0.00000E+00
    0.00000E+00         0.00000E+00        -0.74199E+08
 
   -0.74172E+08         0.55755E+06         0.00000E+00
    0.55755E+06        -0.97038E+08         0.00000E+00
    0.00000E+00         0.00000E+00        -0.74017E+08
 
   -0.73993E+08         0.55360E+06         0.00000E+00
    0.55360E+06        -0.96981E+08         0.00000E+00
    0.00000E+00         0.00000E+00        -0.73838E+08
 
   -0.73815E+08         0.54960E+06         0.00000E+00
    0.54960E+06        -0.96923E+08         0.00000E+00
    0.00000E+00         0.00000E+00        -0.73662E+08
 
   -0.73638E+08         0.54558E+06         0.00000E+00
    0.54558E+06        -0.96866E+08         0.00000E+00
    0.00000E+00         0.00000E+00        -0.73488E+08
 
   -0.73462E+08         0.54157E+06         0.00000E+00
    0.54157E+06        -0.96807E+08         0.00000E+00
    0.00000E+00         0.00000E+00        -0.73316E+08
 
   -0.73288E+08         0.53756E+06         0.00000E+00
    0.53756E+06        -0.96749E+08         0.00000E+00
    0.00000E+00         0.00000E+00        -0.73147E+08
 
   -0.73114E+08         0.53358E+06         0.00000E+00
    0.53358E+06        -0.96691E+08         0.00000E+00
    0.00000E+00         0.00000E+00        -0.72980E+08
 
   -0.72942E+08         0.52965E+06         0.00000E+00
    0.52965E+06        -0.96632E+08         0.00000E+00
    0.00000E+00         0.00000E+00        -0.72814E+08
 
   -0.72771E+08         0.52577E+06         0.00000E+00
    0.52577E+06        -0.96573E+08         0.00000E+00
    0.00000E+00         0.00000E+00        -0.72650E+08
 
   -0.72600E+08         0.52195E+06         0.00000E+00
    0.52195E+06        -0.96514E+08         0.00000E+00
    0.00000E+00         0.00000E+00        -0.72488E+08
 
   -0.72431E+08         0.51821E+06         0.00000E+00
    0.51821E+06        -0.96454E+08         0.00000E+00
    0.00000E+00         0.00000E+00        -0.72328E+08
 
   -0.72262E+08         0.51454E+06         0.00000E+00
    0.51454E+06        -0.96395E+08         0.00000E+00
    0.00000E+00         0.00000E+00        -0.72169E+08
 
   -0.72095E+08         0.51096E+06         0.00000E+00
    0.51096E+06        -0.96336E+08         0.00000E+00
    0.00000E+00         0.00000E+00        -0.72011E+08
 
   -0.71928E+08         0.50748E+06         0.00000E+00
    0.50748E+06        -0.96276E+08         0.00000E+00
    0.00000E+00         0.00000E+00        -0.71854E+08
 
   -0.71762E+08         0.50408E+06         0.00000E+00
    0.50408E+06        -0.96217E+08         0.00000E+00
    0.00000E+00         0.00000E+00        -0.71698E+08
 
   -0.71596E+08         0.50079E+06         0.00000E+00
    0.50079E+06        -0.96158E+08         0.00000E+00
    0.00000E+00         0.00000E+00        -0.71543E+08
 
   -0.71432E+08         0.49759E+06         0.00000E+00
    0.49759E+06        -0.96098E+08         0.00000E+00
    0.00000E+00         0.00000E+00        -0.71388E+08
 
   -0.71267E+08         0.49449E+06         0.00000E+00
    0.49449E+06        -0.96039E+08         0.00000E+00
    0.00000E+00         0.00000E+00        -0.71234E+08
 
   -0.71104E+08         0.49148E+06         0.00000E+00
    0.49148E+06        -0.95980E+08         0.00000E+00
    0.00000E+00         0.00000E+00        -0.71081E+08
 
   -0.70940E+08         0.48857E+06         0.00000E+00
    0.48857E+06        -0.95921E+08         0.00000E+00
    0.00000E+00         0.00000E+00        -0.70927E+08
 
   -0.70777E+08         0.48573E+06         0.00000E+00
    0.48573E+06        -0.95862E+08         0.00000E+00
    0.00000E+00         0.00000E+00        -0.70774E+08
 
   -0.70615E+08         0.48298E+06         0.00000E+00
    0.48298E+06        -0.95803E+08         0.00000E+00
    0.00000E+00         0.00000E+00        -0.70621E+08
 
   -0.70452E+08         0.48029E+06         0.00000E+00
    0.48029E+06        -0.95745E+08         0.00000E+00
    0.00000E+00         0.00000E+00        -0.70468E+08
 
   -0.70290E+08         0.47766E+06         0.00000E+00
    0.47766E+06        -0.95687E+08         0.00000E+00
    0.00000E+00         0.00000E+00        -0.70315E+08
 
   -0.70128E+08         0.47508E+06         0.00000E+00
    0.47508E+06        -0.95629E+08         0.00000E+00
    0.00000E+00         0.00000E+00        -0.70161E+08
 
   -0.69967E+08         0.47253E+06         0.00000E+00
    0.47253E+06        -0.95571E+08         0.00000E+00
    0.00000E+00         0.00000E+00        -0.70006E+08
 
   -0.69805E+08         0.46999E+06         0.00000E+00
    0.46999E+06        -0.95514E+08         0.00000E+00
    0.00000E+00         0.00000E+00        -0.69851E+08
 
   -0.69643E+08         0.46746E+06         0.00000E+00
    0.46746E+06        -0.95457E+08         0.00000E+00
    0.00000E+00         0.00000E+00        -0.69696E+08
 
   -0.69481E+08         0.46490E+06         0.00000E+00
    0.46490E+06        -0.95400E+08         0.00000E+00
    0.00000E+00         0.00000E+00        -0.69539E+08
 
   -0.69319E+08         0.46229E+06         0.00000E+00
    0.46229E+06        -0.95344E+08         0.00000E+00
    0.00000E+00         0.00000E+00        -0.69381E+08
 
   -0.69157E+08         0.45963E+06         0.00000E+00
    0.45963E+06        -0.95288E+08         0.00000E+00
    0.00000E+00         0.00000E+00        -0.69222E+08
 
   -0.68995E+08         0.45687E+06         0.00000E+00
    0.45687E+06        -0.95233E+08         0.00000E+00
    0.00000E+00         0.00000E+00        -0.69062E+08
 
   -0.68833E+08         0.45398E+06         0.00000E+00
    0.45398E+06        -0.95179E+08         0.00000E+00
    0.00000E+00         0.00000E+00        -0.68901E+08
 
   -0.68671E+08         0.45095E+06         0.00000E+00
    0.45095E+06        -0.95125E+08         0.00000E+00
    0.00000E+00         0.00000E+00        -0.68737E+08
 
   -0.68509E+08         0.44773E+06         0.00000E+00
    0.44773E+06        -0.95071E+08         0.00000E+00
    0.00000E+00         0.00000E+00        -0.68573E+08
 
   -0.68347E+08         0.44428E+06         0.00000E+00
    0.44428E+06        -0.95019E+08         0.00000E+00
    0.00000E+00         0.00000E+00        -0.68406E+08
 
   -0.68184E+08         0.44056E+06         0.00000E+00
    0.44056E+06        -0.94968E+08         0.00000E+00
    0.00000E+00         0.00000E+00        -0.68238E+08
 
   -0.68022E+08         0.43653E+06         0.00000E+00
    0.43653E+06        -0.94917E+08         0.00000E+00
    0.00000E+00         0.00000E+00        -0.68067E+08
 
   -0.67860E+08         0.43212E+06         0.00000E+00
    0.43212E+06        -0.94867E+08         0.00000E+00
    0.00000E+00         0.00000E+00        -0.67894E+08
 
   -0.67698E+08         0.42727E+06         0.00000E+00
    0.42727E+06        -0.94819E+08         0.00000E+00
    0.00000E+00         0.00000E+00        -0.67719E+08
 
   -0.67536E+08         0.42191E+06         0.00000E+00
    0.42191E+06        -0.94772E+08         0.00000E+00
    0.00000E+00         0.00000E+00        -0.67542E+08
 
   -0.67375E+08         0.41595E+06         0.00000E+00
    0.41595E+06        -0.94726E+08         0.00000E+00
    0.00000E+00         0.00000E+00        -0.67362E+08
 
   -0.67214E+08         0.40928E+06         0.00000E+00
    0.40928E+06        -0.94682E+08         0.00000E+00
    0.00000E+00         0.00000E+00        -0.67179E+08
 
   -0.67055E+08         0.40180E+06         0.00000E+00
    0.40180E+06        -0.94640E+08         0.00000E+00
    0.00000E+00         0.00000E+00        -0.66994E+08
 
   -0.66896E+08         0.39336E+06         0.00000E+00
    0.39336E+06        -0.94599E+08         0.00000E+00
    0.00000E+00         0.00000E+00        -0.66805E+08
 
   -0.66739E+08         0.38379E+06         0.00000E+00
    0.38379E+06        -0.94561E+08         0.00000E+00
    0.00000E+00         0.00000E+00        -0.66614E+08
 
   -0.66583E+08         0.37289E+06         0.00000E+00
    0.37289E+06        -0.94525E+08         0.00000E+00
    0.00000E+00         0.00000E+00        -0.66419E+08
 
   -0.66429E+08         0.36046E+06         0.00000E+00
    0.36046E+06        -0.94491E+08         0.00000E+00
    0.00000E+00         0.00000E+00        -0.66221E+08
 
   -0.66278E+08         0.34623E+06         0.00000E+00
    0.34623E+06        -0.94461E+08         0.00000E+00
    0.00000E+00         0.00000E+00        -0.66019E+08
 
   -0.66130E+08         0.32993E+06         0.00000E+00
    0.32993E+06        -0.94433E+08         0.00000E+00
    0.00000E+00         0.00000E+00        -0.65814E+08
 
   -0.65985E+08         0.31124E+06         0.00000E+00
    0.31124E+06        -0.94409E+08         0.00000E+00
    0.00000E+00         0.00000E+00        -0.65604E+08
 
   -0.65845E+08         0.28987E+06         0.00000E+00
    0.28987E+06        -0.94389E+08         0.00000E+00
    0.00000E+00         0.00000E+00        -0.65391E+08
 
   -0.65709E+08         0.26549E+06         0.00000E+00
    0.26549E+06        -0.94372E+08         0.00000E+00
    0.00000E+00         0.00000E+00        -0.65173E+08
 
   -0.65578E+08         0.23785E+06         0.00000E+00
    0.23785E+06        -0.94360E+08         0.00000E+00
    0.00000E+00         0.00000E+00        -0.64951E+08
 
   -0.65454E+08         0.20677E+06         0.00000E+00
    0.20677E+06        -0.94353E+08         0.00000E+00
    0.00000E+00         0.00000E+00        -0.64723E+08
 
   -0.65337E+08         0.17220E+06         0.00000E+00
    0.17220E+06        -0.94349E+08         0.00000E+00
    0.00000E+00         0.00000E+00        -0.64490E+08
 
   -0.65227E+08         0.13434E+06         0.00000E+00
    0.13434E+06        -0.94351E+08         0.00000E+00
    0.00000E+00         0.00000E+00        -0.64252E+08
 
   -0.65126E+08         0.93678E+05         0.00000E+00
    0.93678E+05        -0.94356E+08         0.00000E+00
    0.00000E+00         0.00000E+00        -0.64007E+08
 
   -0.65033E+08         0.51164E+05         0.00000E+00
    0.51164E+05        -0.94365E+08         0.00000E+00
    0.00000E+00         0.00000E+00        -0.63756E+08
 
   -0.64949E+08         0.83000E+04         0.00000E+00
    0.83000E+04        -0.94378E+08         0.00000E+00
    0.00000E+00         0.00000E+00        -0.63499E+08
 
   -0.64873E+08        -0.32669E+05         0.00000E+00
   -0.32669E+05        -0.94392E+08         0.00000E+00
    0.00000E+00         0.00000E+00        -0.63234E+08
 
   -0.64803E+08        -0.68475E+05         0.00000E+00
   -0.68475E+05        -0.94407E+08         0.00000E+00
    0.00000E+00         0.00000E+00        -0.62963E+08
 
   -0.64737E+08        -0.93846E+05         0.00000E+00
   -0.93846E+05        -0.94419E+08         0.00000E+00
    0.00000E+00         0.00000E+00        -0.62685E+08
 
   -0.64669E+08        -0.10000E+06         0.00000E+00
   -0.10000E+06        -0.94417E+08         0.00000E+00
    0.00000E+00         0.00000E+00        -0.62394E+08
 
   -0.64598E+08        -0.77919E+05         0.00000E+00
   -0.77919E+05        -0.94383E+08         0.00000E+00
    0.00000E+00         0.00000E+00        -0.62075E+08
 
   -0.64532E+08        -0.29424E+05         0.00000E+00
   -0.29424E+05        -0.94291E+08         0.00000E+00
    0.00000E+00         0.00000E+00        -0.61696E+08
 
   -0.79502E+08        -0.37930E+05         0.00000E+00
   -0.37930E+05        -0.97688E+08         0.00000E+00
    0.00000E+00         0.00000E+00        -0.85039E+08
 
   -0.79500E+08        -0.94090E+05         0.00000E+00
   -0.94090E+05        -0.97601E+08         0.00000E+00
    0.00000E+00         0.00000E+00        -0.84455E+08
 
   -0.79505E+08        -0.99944E+05         0.00000E+00
   -0.99944E+05        -0.97554E+08         0.00000E+00
    0.00000E+00         0.00000E+00        -0.83920E+08
 
   -0.79512E+08        -0.57750E+05         0.00000E+00
   -0.57750E+05        -0.97537E+08         0.00000E+00
    0.00000E+00         0.00000E+00        -0.83405E+08
 
   -0.79504E+08         0.60834E+04         0.00000E+00
    0.60834E+04        -0.97534E+08         0.00000E+00
    0.00000E+00         0.00000E+00        -0.82902E+08
 
   -0.79467E+08         0.70051E+05         0.00000E+00
    0.70051E+05        -0.97541E+08         0.00000E+00
    0.00000E+00         0.00000E+00        -0.82411E+08
 
   -0.79402E+08         0.12518E+06         0.00000E+00
    0.12518E+06        -0.97551E+08         0.00000E+00
    0.00000E+00         0.00000E+00        -0.81938E+08
 
   -0.79312E+08         0.17067E+06         0.00000E+00
    0.17067E+06        -0.97559E+08         0.00000E+00
    0.00000E+00         0.00000E+00        -0.81485E+08
 
   -0.79201E+08         0.20981E+06         0.00000E+00
    0.20981E+06        -0.97562E+08         0.00000E+00
    0.00000E+00         0.00000E+00        -0.81054E+08
 
   -0.79073E+08         0.24647E+06         0.00000E+00
    0.24647E+06        -0.97561E+08         0.00000E+00
    0.00000E+00         0.00000E+00        -0.80643E+08
 
   -0.78928E+08         0.28293E+06         0.00000E+00
    0.28293E+06        -0.97559E+08         0.00000E+00
    0.00000E+00         0.00000E+00        -0.80252E+08
 
   -0.78768E+08         0.31944E+06         0.00000E+00
    0.31944E+06        -0.97557E+08         0.00000E+00
    0.00000E+00         0.00000E+00        -0.79879E+08
 
   -0.78596E+08         0.35503E+06         0.00000E+00
    0.35503E+06        -0.97558E+08         0.00000E+00
    0.00000E+00         0.00000E+00        -0.79522E+08
 
   -0.78412E+08         0.38842E+06         0.00000E+00
    0.38842E+06        -0.97560E+08         0.00000E+00
    0.00000E+00         0.00000E+00        -0.79178E+08
 
   -0.78218E+08         0.41856E+06         0.00000E+00
    0.41856E+06        -0.97565E+08         0.00000E+00
    0.00000E+00         0.00000E+00        -0.78847E+08
 
   -0.78016E+08         0.44485E+06         0.00000E+00
    0.44485E+06        -0.97570E+08         0.00000E+00
    0.00000E+00         0.00000E+00        -0.78526E+08
 
   -0.77808E+08         0.46713E+06         0.00000E+00
    0.46713E+06        -0.97575E+08         0.00000E+00
    0.00000E+00         0.00000E+00        -0.78215E+08
 
   -0.77593E+08         0.48555E+06         0.00000E+00
    0.48555E+06        -0.97580E+08         0.00000E+00
    0.00000E+00         0.00000E+00        -0.77912E+08
 
   -0.77374E+08         0.50045E+06         0.00000E+00
    0.50045E+06        -0.97584E+08         0.00000E+00
    0.00000E+00         0.00000E+00        -0.77615E+08
 
   -0.77150E+08         0.51227E+06         0.00000E+00
    0.51227E+06        -0.97588E+08         0.00000E+00
    0.00000E+00         0.00000E+00        -0.77326E+08
 
   -0.76924E+08         0.52147E+06         0.00000E+00
    0.52147E+06        -0.97591E+08         0.00000E+00
    0.00000E+00         0.00000E+00        -0.77041E+08
 
   -0.76694E+08         0.52849E+06         0.00000E+00
    0.52849E+06        -0.97593E+08         0.00000E+00
    0.00000E+00         0.00000E+00        -0.76763E+08
 
   -0.76463E+08         0.53374E+06         0.00000E+00
    0.53374E+06        -0.97595E+08         0.00000E+00
    0.00000E+00         0.00000E+00        -0.76488E+08
 
   -0.76230E+08         0.53754E+06         0.00000E+00
    0.53754E+06        -0.97597E+08         0.00000E+00
    0.00000E+00         0.00000E+00        -0.76218E+08
 
   -0.76021E+08         0.53892E+06         0.00000E+00
    0.53892E+06        -0.97572E+08         0.00000E+00
    0.00000E+00         0.00000E+00        -0.75978E+08
 
   -0.75833E+08         0.53823E+06         0.00000E+00
    0.53823E+06        -0.97522E+08         0.00000E+00
    0.00000E+00         0.00000E+00        -0.75764E+08
 
   -0.75646E+08         0.53682E+06         0.00000E+00
    0.53682E+06        -0.97471E+08         0.00000E+00
    0.00000E+00         0.00000E+00        -0.75554E+08
 
   -0.75459E+08         0.53485E+06         0.00000E+00
    0.53485E+06        -0.97420E+08         0.00000E+00
    0.00000E+00         0.00000E+00        -0.75349E+08
 
   -0.75273E+08         0.53244E+06         0.00000E+00
    0.53244E+06        -0.97367E+08         0.00000E+00
    0.00000E+00         0.00000E+00        -0.75147E+08
 
   -0.75087E+08         0.52969E+06         0.00000E+00
    0.52969E+06        -0.97314E+08         0.00000E+00
    0.00000E+00         0.00000E+00        -0.74949E+08
 
   -0.74902E+08         0.52669E+06         0.00000E+00
    0.52669E+06        -0.97260E+08         0.00000E+00
    0.00000E+00         0.00000E+00        -0.74755E+08
 
   -0.74719E+08         0.52348E+06         0.00000E+00
    0.52348E+06        -0.97205E+08         0.00000E+00
    0.00000E+00         0.00000E+00        -0.74565E+08
 
   -0.74536E+08         0.52012E+06         0.00000E+00
    0.52012E+06        -0.97150E+08         0.00000E+00
    0.00000E+00         0.00000E+00        -0.74377E+08
 
   -0.74354E+08         0.51664E+06         0.00000E+00
    0.51664E+06        -0.97094E+08         0.00000E+00
    0.00000E+00         0.00000E+00        -0.74193E+08
 
   -0.74174E+08         0.51308E+06         0.00000E+00
    0.51308E+06        -0.97038E+08         0.00000E+00
    0.00000E+00         0.00000E+00        -0.74011E+08
 
   -0.73995E+08         0.50946E+06         0.00000E+00
    0.50946E+06        -0.96981E+08         0.00000E+00
    0.00000E+00         0.00000E+00        -0.73833E+08
 
   -0.73816E+08         0.50580E+06         0.00000E+00
    0.50580E+06        -0.96923E+08         0.00000E+00
    0.00000E+00         0.00000E+00        -0.73656E+08
 
   -0.73640E+08         0.50212E+06         0.00000E+00
    0.50212E+06        -0.96866E+08         0.00000E+00
    0.00000E+00         0.00000E+00        -0.73483E+08
 
   -0.73464E+08         0.49844E+06         0.00000E+00
    0.49844E+06        -0.96808E+08         0.00000E+00
    0.00000E+00         0.00000E+00        -0.73311E+08
 
   -0.73289E+08         0.49478E+06         0.00000E+00
    0.49478E+06        -0.96749E+08         0.00000E+00
    0.00000E+00         0.00000E+00        -0.73142E+08
 
   -0.73115E+08         0.49113E+06         0.00000E+00
    0.49113E+06        -0.96691E+08         0.00000E+00
    0.00000E+00         0.00000E+00        -0.72975E+08
 
   -0.72943E+08         0.48753E+06         0.00000E+00
    0.48753E+06        -0.96632E+08         0.00000E+00
    0.00000E+00         0.00000E+00        -0.72810E+08
 
   -0.72771E+08         0.48397E+06         0.00000E+00
    0.48397E+06        -0.96573E+08         0.00000E+00
    0.00000E+00         0.00000E+00        -0.72647E+08
 
   -0.72601E+08         0.48047E+06         0.00000E+00
    0.48047E+06        -0.96514E+08         0.00000E+00
    0.00000E+00         0.00000E+00        -0.72485E+08
 
   -0.72431E+08         0.47704E+06         0.00000E+00
    0.47704E+06        -0.96455E+08         0.00000E+00
    0.00000E+00         0.00000E+00        -0.72324E+08
 
   -0.72263E+08         0.47367E+06         0.00000E+00
    0.47367E+06        -0.96396E+08         0.00000E+00
    0.00000E+00         0.00000E+00        -0.72165E+08
 
   -0.72095E+08         0.47039E+06         0.00000E+00
    0.47039E+06        -0.96336E+08         0.00000E+00
    0.00000E+00         0.00000E+00        -0.72008E+08
 
   -0.71928E+08         0.46719E+06         0.00000E+00
    0.46719E+06        -0.96277E+08         0.00000E+00
    0.00000E+00         0.00000E+00        -0.71851E+08
 
   -0.71762E+08         0.46407E+06         0.00000E+00
    0.46407E+06        -0.96218E+08         0.00000E+00
    0.00000E+00         0.00000E+00        -0.71695E+08
 
   -0.71596E+08         0.46104E+06         0.00000E+00
    0.46104E+06        -0.96158E+08         0.00000E+00
    0.00000E+00         0.00000E+00        -0.71540E+08
 
   -0.71431E+08         0.45810E+06         0.00000E+00
    0.45810E+06        -0.96099E+08         0.00000E+00
    0.00000E+00         0.00000E+00        -0.71386E+08
 
   -0.71267E+08         0.45524E+06         0.00000E+00
    0.45524E+06        -0.96040E+08         0.00000E+00
    0.00000E+00         0.00000E+00        -0.71232E+08
 
   -0.71103E+08         0.45247E+06         0.00000E+00
    0.45247E+06        -0.95981E+08         0.00000E+00
    0.00000E+00         0.00000E+00        -0.71079E+08
 
   -0.70939E+08         0.44979E+06         0.00000E+00
    0.44979E+06        -0.95922E+08         0.00000E+00
    0.00000E+00         0.00000E+00        -0.70926E+08
 
   -0.70776E+08         0.44717E+06         0.00000E+00
    0.44717E+06        -0.95863E+08         0.00000E+00
    0.00000E+00         0.00000E+00        -0.70773E+08
 
   -0.70613E+08         0.44463E+06         0.00000E+00
    0.44463E+06        -0.95804E+08         0.00000E+00
    0.00000E+00         0.00000E+00        -0.70620E+08
 
   -0.70451E+08         0.44215E+06         0.00000E+00
    0.44215E+06        -0.95745E+08         0.00000E+00
    0.00000E+00         0.00000E+00        -0.70467E+08
 
   -0.70289E+08         0.43972E+06         0.00000E+00
    0.43972E+06        -0.95687E+08         0.00000E+00
    0.00000E+00         0.00000E+00        -0.70314E+08
 
   -0.70127E+08         0.43733E+06         0.00000E+00
    0.43733E+06        -0.95629E+08         0.00000E+00
    0.00000E+00         0.00000E+00        -0.70160E+08
 
   -0.69965E+08         0.43497E+06         0.00000E+00
    0.43497E+06        -0.95572E+08         0.00000E+00
    0.00000E+00         0.00000E+00        -0.70006E+08
 
   -0.69803E+08         0.43262E+06         0.00000E+00
    0.43262E+06        -0.95514E+08         0.00000E+00
    0.00000E+00         0.00000E+00        -0.69851E+08
 
   -0.69641E+08         0.43027E+06         0.00000E+00
    0.43027E+06        -0.95457E+08         0.00000E+00
    0.00000E+00         0.00000E+00        -0.69696E+08
 
   -0.69479E+08         0.42790E+06         0.00000E+00
    0.42790E+06        -0.95400E+08         0.00000E+00
    0.00000E+00         0.00000E+00        -0.69539E+08
 
   -0.69317E+08         0.42548E+06         0.00000E+00
    0.42548E+06        -0.95344E+08         0.00000E+00
    0.00000E+00         0.00000E+00        -0.69382E+08
 
   -0.69155E+08         0.42300E+06         0.00000E+00
    0.42300E+06        -0.95289E+08         0.00000E+00
    0.00000E+00         0.00000E+00        -0.69223E+08
 
   -0.68993E+08         0.42044E+06         0.00000E+00
    0.42044E+06        -0.95233E+08         0.00000E+00
    0.00000E+00         0.00000E+00        -0.69063E+08
 
   -0.68831E+08         0.41776E+06         0.00000E+00
    0.41776E+06        -0.95179E+08         0.00000E+00
    0.00000E+00         0.00000E+00        -0.68901E+08
 
   -0.68668E+08         0.41494E+06         0.00000E+00
    0.41494E+06        -0.95125E+08         0.00000E+00
    0.00000E+00         0.00000E+00        -0.68738E+08
 
   -0.68506E+08         0.41194E+06         0.00000E+00
    0.41194E+06        -0.95072E+08         0.00000E+00
    0.00000E+00         0.00000E+00        -0.68573E+08
 
   -0.68344E+08         0.40874E+06         0.00000E+00
    0.40874E+06        -0.95019E+08         0.00000E+00
    0.00000E+00         0.00000E+00        -0.68407E+08
 
   -0.68182E+08         0.40528E+06         0.00000E+00
    0.40528E+06        -0.94968E+08         0.00000E+00
    0.00000E+00         0.00000E+00        -0.68238E+08
 
   -0.68019E+08         0.40153E+06         0.00000E+00
    0.40153E+06        -0.94917E+08         0.00000E+00
    0.00000E+00         0.00000E+00        -0.68068E+08
 
   -0.67857E+08         0.39743E+06         0.00000E+00
    0.39743E+06        -0.94868E+08         0.00000E+00
    0.00000E+00         0.00000E+00        -0.67895E+08
 
   -0.67695E+08         0.39293E+06         0.00000E+00
    0.39293E+06        -0.94819E+08         0.00000E+00
    0.00000E+00         0.00000E+00        -0.67720E+08
 
   -0.67534E+08         0.38795E+06         0.00000E+00
    0.38795E+06        -0.94772E+08         0.00000E+00
    0.00000E+00         0.00000E+00        -0.67542E+08
 
   -0.67373E+08         0.38242E+06         0.00000E+00
    0.38242E+06        -0.94727E+08         0.00000E+00
    0.00000E+00         0.00000E+00        -0.67362E+08
 
   -0.67212E+08         0.37624E+06         0.00000E+00
    0.37624E+06        -0.94682E+08         0.00000E+00
    0.00000E+00         0.00000E+00        -0.67180E+08
 
   -0.67053E+08         0.36930E+06         0.00000E+00
    0.36930E+06        -0.94640E+08         0.00000E+00
    0.00000E+00         0.00000E+00        -0.66994E+08
 
   -0.66894E+08         0.36146E+06         0.00000E+00
    0.36146E+06        -0.94599E+08         0.00000E+00
    0.00000E+00         0.00000E+00        -0.66805E+08
 
   -0.66737E+08         0.35258E+06         0.00000E+00
    0.35258E+06        -0.94561E+08         0.00000E+00
    0.00000E+00         0.00000E+00        -0.66613E+08
 
   -0.66582E+08         0.34246E+06         0.00000E+00
    0.34246E+06        -0.94525E+08         0.00000E+00
    0.00000E+00         0.00000E+00        -0.66418E+08
 
   -0.66429E+08         0.33090E+06         0.00000E+00
    0.33090E+06        -0.94491E+08         0.00000E+00
    0.00000E+00         0.00000E+00        -0.66220E+08
 
   -0.66278E+08         0.31767E+06         0.00000E+00
    0.31767E+06        -0.94460E+08         0.00000E+00
    0.00000E+00         0.00000E+00        -0.66017E+08
 
   -0.66130E+08         0.30249E+06         0.00000E+00
    0.30249E+06        -0.94432E+08         0.00000E+00
    0.00000E+00         0.00000E+00        -0.65811E+08
 
   -0.65986E+08         0.28508E+06         0.00000E+00
    0.28508E+06        -0.94408E+08         0.00000E+00
    0.00000E+00         0.00000E+00        -0.65601E+08
 
   -0.65847E+08         0.26513E+06         0.00000E+00
    0.26513E+06        -0.94387E+08         0.00000E+00
    0.00000E+00         0.00000E+00        -0.65387E+08
 
   -0.65712E+08         0.24235E+06         0.00000E+00
    0.24235E+06        -0.94371E+08         0.00000E+00
    0.00000E+00         0.00000E+00        -0.65167E+08
 
   -0.65583E+08         0.21650E+06         0.00000E+00
    0.21650E+06        -0.94358E+08         0.00000E+00
    0.00000E+00         0.00000E+00        -0.64944E+08
 
   -0.65461E+08         0.18739E+06         0.00000E+00
    0.18739E+06        -0.94351E+08         0.00000E+00
    0.00000E+00         0.00000E+00        -0.64714E+08
 
   -0.65345E+08         0.15498E+06         0.00000E+00
    0.15498E+06        -0.94347E+08         0.00000E+00
    0.00000E+00         0.00000E+00        -0.64480E+08
 
   -0.65238E+08         0.11946E+06         0.00000E+00
    0.11946E+06        -0.94349E+08         0.00000E+00
    0.00000E+00         0.00000E+00        -0.64239E+08
 
   -0.65140E+08         0.81285E+05         0.00000E+00
    0.81285E+05        -0.94354E+08         0.00000E+00
    0.00000E+00         0.00000E+00        -0.63992E+08
 
   -0.65051E+08         0.41335E+05         0.00000E+00
    0.41335E+05        -0.94364E+08         0.00000E+00
    0.00000E+00         0.00000E+00        -0.63738E+08
 
   -0.64972E+08         0.99346E+03         0.00000E+00
    0.99346E+03        -0.94378E+08         0.00000E+00
    0.00000E+00         0.00000E+00        -0.63478E+08
 
   -0.64901E+08        -0.37704E+05         0.00000E+00
   -0.37704E+05        -0.94395E+08         0.00000E+00
    0.00000E+00         0.00000E+00        -0.63211E+08
 
   -0.64838E+08        -0.71863E+05         0.00000E+00
   -0.71863E+05        -0.94413E+08         0.00000E+00
    0.00000E+00         0.00000E+00        -0.62937E+08
 
   -0.64779E+08        -0.96826E+05         0.00000E+00
   -0.96826E+05        -0.94429E+08         0.00000E+00
    0.00000E+00         0.00000E+00        -0.62658E+08
 
   -0.64719E+08        -0.10387E+06         0.00000E+00
   -0.10387E+06        -0.94434E+08         0.00000E+00
    0.00000E+00         0.00000E+00        -0.62369E+08
 
   -0.64652E+08        -0.82104E+05         0.00000E+00
   -0.82104E+05        -0.94409E+08         0.00000E+00
    0.00000E+00         0.00000E+00        -0.62054E+08
 
   -0.64588E+08        -0.31299E+05         0.00000E+00
   -0.31299E+05        -0.94323E+08         0.00000E+00
    0.00000E+00         0.00000E+00        -0.61680E+08
 
   -0.79423E+08        -0.38332E+05         0.00000E+00
   -0.38332E+05        -0.97672E+08         0.00000E+00
    0.00000E+00         0.00000E+00        -0.85066E+08
 
   -0.79425E+08        -0.93807E+05         0.00000E+00
   -0.93807E+05        -0.97594E+08         0.00000E+00
    0.00000E+00         0.00000E+00        -0.84490E+08
 
   -0.79439E+08        -0.97458E+05         0.00000E+00
   -0.97458E+05        -0.97559E+08         0.00000E+00
    0.00000E+00         0.00000E+00        -0.83960E+08
 
   -0.79458E+08        -0.56099E+05         0.00000E+00
   -0.56099E+05        -0.97548E+08         0.00000E+00
    0.00000E+00         0.00000E+00        -0.83446E+08
 
   -0.79458E+08         0.27142E+04         0.00000E+00
    0.27142E+04        -0.97547E+08         0.00000E+00
    0.00000E+00         0.00000E+00        -0.82939E+08
 
   -0.79429E+08         0.60403E+05         0.00000E+00
    0.60403E+05        -0.97552E+08         0.00000E+00
    0.00000E+00         0.00000E+00        -0.82443E+08
 
   -0.79369E+08         0.10997E+06         0.00000E+00
    0.10997E+06        -0.97561E+08         0.00000E+00
    0.00000E+00         0.00000E+00        -0.81965E+08
 
   -0.79284E+08         0.15090E+06         0.00000E+00
    0.15090E+06        -0.97567E+08         0.00000E+00
    0.00000E+00         0.00000E+00        -0.81506E+08
 
   -0.79177E+08         0.18621E+06         0.00000E+00
    0.18621E+06        -0.97569E+08         0.00000E+00
    0.00000E+00         0.00000E+00        -0.81070E+08
 
   -0.79053E+08         0.21948E+06         0.00000E+00
    0.21948E+06        -0.97568E+08         0.00000E+00
    0.00000E+00         0.00000E+00        -0.80654E+08
 
   -0.78912E+08         0.25282E+06         0.00000E+00
    0.25282E+06        -0.97566E+08         0.00000E+00
    0.00000E+00         0.00000E+00        -0.80259E+08
 
   -0.78756E+08         0.28652E+06         0.00000E+00
    0.28652E+06        -0.97564E+08         0.00000E+00
    0.00000E+00         0.00000E+00        -0.79882E+08
 
   -0.78587E+08         0.31962E+06         0.00000E+00
    0.31962E+06        -0.97564E+08         0.00000E+00
    0.00000E+00         0.00000E+00        -0.79522E+08
 
   -0.78406E+08         0.35085E+06         0.00000E+00
    0.35085E+06        -0.97567E+08         0.00000E+00
    0.00000E+00         0.00000E+00        -0.79176E+08
 
   -0.78215E+08         0.37915E+06         0.00000E+00
    0.37915E+06        -0.97570E+08         0.00000E+00
    0.00000E+00         0.00000E+00        -0.78842E+08
 
   -0.78015E+08         0.40389E+06         0.00000E+00
    0.40389E+06        -0.97574E+08         0.00000E+00
    0.00000E+00         0.00000E+00        -0.78520E+08
 
   -0.77808E+08         0.42487E+06         0.00000E+00
    0.42487E+06        -0.97579E+08         0.00000E+00
    0.00000E+00         0.00000E+00        -0.78208E+08
 
   -0.77594E+08         0.44219E+06         0.00000E+00
    0.44219E+06        -0.97583E+08         0.00000E+00
    0.00000E+00         0.00000E+00        -0.77903E+08
 
   -0.77375E+08         0.45619E+06         0.00000E+00
    0.45619E+06        -0.97587E+08         0.00000E+00
    0.00000E+00         0.00000E+00        -0.77607E+08
 
   -0.77152E+08         0.46727E+06         0.00000E+00
    0.46727E+06        -0.97590E+08         0.00000E+00
    0.00000E+00         0.00000E+00        -0.77316E+08
 
   -0.76926E+08         0.47587E+06         0.00000E+00
    0.47587E+06        -0.97592E+08         0.00000E+00
    0.00000E+00         0.00000E+00        -0.77032E+08
 
   -0.76697E+08         0.48241E+06         0.00000E+00
    0.48241E+06        -0.97595E+08         0.00000E+00
    0.00000E+00         0.00000E+00        -0.76753E+08
 
   -0.76466E+08         0.48728E+06         0.00000E+00
    0.48728E+06        -0.97596E+08         0.00000E+00
    0.00000E+00         0.00000E+00        -0.76479E+08
 
   -0.76233E+08         0.49080E+06         0.00000E+00
    0.49080E+06        -0.97597E+08         0.00000E+00
    0.00000E+00         0.00000E+00        -0.76209E+08
 
   -0.76024E+08         0.49206E+06         0.00000E+00
    0.49206E+06        -0.97571E+08         0.00000E+00
    0.00000E+00         0.00000E+00        -0.75970E+08
 
   -0.75836E+08         0.49146E+06         0.00000E+00
    0.49146E+06        -0.97522E+08         0.00000E+00
    0.00000E+00         0.00000E+00        -0.75756E+08
 
   -0.75649E+08         0.49018E+06         0.00000E+00
    0.49018E+06        -0.97471E+08         0.00000E+00
    0.00000E+00         0.00000E+00        -0.75546E+08
 
   -0.75462E+08         0.48839E+06         0.00000E+00
    0.48839E+06        -0.97420E+08         0.00000E+00
    0.00000E+00         0.00000E+00        -0.75341E+08
 
   -0.75275E+08         0.48620E+06         0.00000E+00
    0.48620E+06        -0.97367E+08         0.00000E+00
    0.00000E+00         0.00000E+00        -0.75140E+08
 
   -0.75090E+08         0.48370E+06         0.00000E+00
    0.48370E+06        -0.97314E+08         0.00000E+00
    0.00000E+00         0.00000E+00        -0.74942E+08
 
   -0.74905E+08         0.48097E+06         0.00000E+00
    0.48097E+06        -0.97260E+08         0.00000E+00
    0.00000E+00         0.00000E+00        -0.74748E+08
 
   -0.74721E+08         0.47805E+06         0.00000E+00
    0.47805E+06        -0.97205E+08         0.00000E+00
    0.00000E+00         0.00000E+00        -0.74558E+08
 
   -0.74538E+08         0.47500E+06         0.00000E+00
    0.47500E+06        -0.97150E+08         0.00000E+00
    0.00000E+00         0.00000E+00        -0.74371E+08
 
   -0.74357E+08         0.47184E+06         0.00000E+00
    0.47184E+06        -0.97094E+08         0.00000E+00
    0.00000E+00         0.00000E+00        -0.74187E+08
 
   -0.74176E+08         0.46860E+06         0.00000E+00
    0.46860E+06        -0.97038E+08         0.00000E+00
    0.00000E+00         0.00000E+00        -0.74005E+08
 
   -0.73997E+08         0.46531E+06         0.00000E+00
    0.46531E+06        -0.96981E+08         0.00000E+00
    0.00000E+00         0.00000E+00        -0.73827E+08
 
   -0.73818E+08         0.46199E+06         0.00000E+00
    0.46199E+06        -0.96924E+08         0.00000E+00
    0.00000E+00         0.00000E+00        -0.73651E+08
 
   -0.73641E+08         0.45865E+06         0.00000E+00
    0.45865E+06        -0.96866E+08         0.00000E+00
    0.00000E+00         0.00000E+00        -0.73478E+08
 
   -0.73465E+08         0.45530E+06         0.00000E+00
    0.45530E+06        -0.96808E+08         0.00000E+00
    0.00000E+00         0.00000E+00        -0.73307E+08
 
   -0.73290E+08         0.45197E+06         0.00000E+00
    0.45197E+06        -0.96750E+08         0.00000E+00
    0.00000E+00         0.00000E+00        -0.73138E+08
 
   -0.73117E+08         0.44866E+06         0.00000E+00
    0.44866E+06        -0.96691E+08         0.00000E+00
    0.00000E+00         0.00000E+00        -0.72971E+08
 
   -0.72944E+08         0.44538E+06         0.00000E+00
    0.44538E+06        -0.96633E+08         0.00000E+00
    0.00000E+00         0.00000E+00        -0.72806E+08
 
   -0.72772E+08         0.44215E+06         0.00000E+00
    0.44215E+06        -0.96574E+08         0.00000E+00
    0.00000E+00         0.00000E+00        -0.72643E+08
 
   -0.72602E+08         0.43896E+06         0.00000E+00
    0.43896E+06        -0.96515E+08         0.00000E+00
    0.00000E+00         0.00000E+00        -0.72481E+08
 
   -0.72432E+08         0.43583E+06         0.00000E+00
    0.43583E+06        -0.96456E+08         0.00000E+00
    0.00000E+00         0.00000E+00        -0.72321E+08
 
   -0.72263E+08         0.43277E+06         0.00000E+00
    0.43277E+06        -0.96396E+08         0.00000E+00
    0.00000E+00         0.00000E+00        -0.72162E+08
 
   -0.72095E+08         0.42977E+06         0.00000E+00
    0.42977E+06        -0.96337E+08         0.00000E+00
    0.00000E+00         0.00000E+00        -0.72005E+08
 
   -0.71928E+08         0.42685E+06         0.00000E+00
    0.42685E+06        -0.96278E+08         0.00000E+00
    0.00000E+00         0.00000E+00        -0.71848E+08
 
   -0.71762E+08         0.42401E+06         0.00000E+00
    0.42401E+06        -0.96218E+08         0.00000E+00
    0.00000E+00         0.00000E+00        -0.71693E+08
 
   -0.71596E+08         0.42125E+06         0.00000E+00
    0.42125E+06        -0.96159E+08         0.00000E+00
    0.00000E+00         0.00000E+00        -0.71538E+08
 
   -0.71431E+08         0.41856E+06         0.00000E+00
    0.41856E+06        -0.96099E+08         0.00000E+00
    0.00000E+00         0.00000E+00        -0.71384E+08
 
   -0.71266E+08         0.41595E+06         0.00000E+00
    0.41595E+06        -0.96040E+08         0.00000E+00
    0.00000E+00         0.00000E+00        -0.71231E+08
 
   -0.71102E+08         0.41342E+06         0.00000E+00
    0.41342E+06        -0.95981E+08         0.00000E+00
    0.00000E+00         0.00000E+00        -0.71078E+08
 
   -0.70938E+08         0.41096E+06         0.00000E+00
    0.41096E+06        -0.95922E+08         0.00000E+00
    0.00000E+00         0.00000E+00        -0.70925E+08
 
   -0.70775E+08         0.40857E+06         0.00000E+00
    0.40857E+06        -0.95863E+08         0.00000E+00
    0.00000E+00         0.00000E+00        -0.70772E+08
 
   -0.70612E+08         0.40624E+06         0.00000E+00
    0.40624E+06        -0.95804E+08         0.00000E+00
    0.00000E+00         0.00000E+00        -0.70619E+08
 
   -0.70450E+08         0.40397E+06         0.00000E+00
    0.40397E+06        -0.95746E+08         0.00000E+00
    0.00000E+00         0.00000E+00        -0.70467E+08
 
   -0.70287E+08         0.40174E+06         0.00000E+00
    0.40174E+06        -0.95688E+08         0.00000E+00
    0.00000E+00         0.00000E+00        -0.70313E+08
 
   -0.70125E+08         0.39955E+06         0.00000E+00
    0.39955E+06        -0.95630E+08         0.00000E+00
    0.00000E+00         0.00000E+00        -0.70160E+08
 
   -0.69963E+08         0.39738E+06         0.00000E+00
    0.39738E+06        -0.95572E+08         0.00000E+00
    0.00000E+00         0.00000E+00        -0.70006E+08
 
   -0.69801E+08         0.39522E+06         0.00000E+00
    0.39522E+06        -0.95515E+08         0.00000E+00
    0.00000E+00         0.00000E+00        -0.69851E+08
 
   -0.69639E+08         0.39305E+06         0.00000E+00
    0.39305E+06        -0.95457E+08         0.00000E+00
    0.00000E+00         0.00000E+00        -0.69696E+08
 
   -0.69477E+08         0.39087E+06         0.00000E+00
    0.39087E+06        -0.95401E+08         0.00000E+00
    0.00000E+00         0.00000E+00        -0.69539E+08
 
   -0.69315E+08         0.38864E+06         0.00000E+00
    0.38864E+06        -0.95345E+08         0.00000E+00
    0.00000E+00         0.00000E+00        -0.69382E+08
 
   -0.69152E+08         0.38636E+06         0.00000E+00
    0.38636E+06        -0.95289E+08         0.00000E+00
    0.00000E+00         0.00000E+00        -0.69223E+08
 
   -0.68990E+08         0.38399E+06         0.00000E+00
    0.38399E+06        -0.95234E+08         0.00000E+00
    0.00000E+00         0.00000E+00        -0.69063E+08
 
   -0.68828E+08         0.38152E+06         0.00000E+00
    0.38152E+06        -0.95179E+08         0.00000E+00
    0.00000E+00         0.00000E+00        -0.68902E+08
 
   -0.68666E+08         0.37892E+06         0.00000E+00
    0.37892E+06        -0.95125E+08         0.00000E+00
    0.00000E+00         0.00000E+00        -0.68739E+08
 
   -0.68504E+08         0.37615E+06         0.00000E+00
    0.37615E+06        -0.95072E+08         0.00000E+00
    0.00000E+00         0.00000E+00        -0.68574E+08
 
   -0.68341E+08         0.37319E+06         0.00000E+00
    0.37319E+06        -0.95020E+08         0.00000E+00
    0.00000E+00         0.00000E+00        -0.68408E+08
 
   -0.68179E+08         0.37001E+06         0.00000E+00
    0.37001E+06        -0.94968E+08         0.00000E+00
    0.00000E+00         0.00000E+00        -0.68239E+08
 
   -0.68017E+08         0.36655E+06         0.00000E+00
    0.36655E+06        -0.94918E+08         0.00000E+00
    0.00000E+00         0.00000E+00        -0.68069E+08
 
   -0.67855E+08         0.36277E+06         0.00000E+00
    0.36277E+06        -0.94868E+08         0.00000E+00
    0.00000E+00         0.00000E+00        -0.67896E+08
 
   -0.67693E+08         0.35862E+06         0.00000E+00
    0.35862E+06        -0.94820E+08         0.00000E+00
    0.00000E+00         0.00000E+00        -0.67721E+08
 
   -0.67531E+08         0.35403E+06         0.00000E+00
    0.35403E+06        -0.94773E+08         0.00000E+00
    0.00000E+00         0.00000E+00        -0.67543E+08
 
   -0.67370E+08         0.34894E+06         0.00000E+00
    0.34894E+06        -0.94727E+08         0.00000E+00
    0.00000E+00         0.00000E+00        -0.67363E+08
 
   -0.67210E+08         0.34325E+06         0.00000E+00
    0.34325E+06        -0.94683E+08         0.00000E+00
    0.00000E+00         0.00000E+00        -0.67180E+08
 
   -0.67051E+08         0.33685E+06         0.00000E+00
    0.33685E+06        -0.94640E+08         0.00000E+00
    0.00000E+00         0.00000E+00        -0.66994E+08
 
   -0.66893E+08         0.32963E+06         0.00000E+00
    0.32963E+06        -0.94599E+08         0.00000E+00
    0.00000E+00         0.00000E+00        -0.66805E+08
 
   -0.66736E+08         0.32145E+06         0.00000E+00
    0.32145E+06        -0.94561E+08         0.00000E+00
    0.00000E+00         0.00000E+00        -0.66613E+08
 
   -0.66581E+08         0.31212E+06         0.00000E+00
    0.31212E+06        -0.94525E+08         0.00000E+00
    0.00000E+00         0.00000E+00        -0.66418E+08
 
   -0.66428E+08         0.30147E+06         0.00000E+00
    0.30147E+06        -0.94491E+08         0.00000E+00
    0.00000E+00         0.00000E+00        -0.66219E+08
 
   -0.66278E+08         0.28925E+06         0.00000E+00
    0.28925E+06        -0.94460E+08         0.00000E+00
    0.00000E+00         0.00000E+00        -0.66016E+08
 
   -0.66131E+08         0.27523E+06         0.00000E+00
    0.27523E+06        -0.94432E+08         0.00000E+00
    0.00000E+00         0.00000E+00        -0.65809E+08
 
   -0.65987E+08         0.25912E+06         0.00000E+00
    0.25912E+06        -0.94407E+08         0.00000E+00
    0.00000E+00         0.00000E+00        -0.65598E+08
 
   -0.65849E+08         0.24065E+06         0.00000E+00
    0.24065E+06        -0.94386E+08         0.00000E+00
    0.00000E+00         0.00000E+00        -0.65383E+08
 
   -0.65715E+08         0.21953E+06         0.00000E+00
    0.21953E+06        -0.94370E+08         0.00000E+00
    0.00000E+00         0.00000E+00        -0.65162E+08
 
   -0.65588E+08         0.19554E+06         0.00000E+00
    0.19554E+06        -0.94357E+08         0.00000E+00
    0.00000E+00         0.00000E+00        -0.64937E+08
 
   -0.65467E+08         0.16849E+06         0.00000E+00
    0.16849E+06        -0.94349E+08         0.00000E+00
    0.00000E+00         0.00000E+00        -0.64706E+08
 
   -0.65354E+08         0.13835E+06         0.00000E+00
    0.13835E+06        -0.94346E+08         0.00000E+00
    0.00000E+00         0.00000E+00        -0.64470E+08
 
   -0.65250E+08         0.10528E+06         0.00000E+00
    0.10528E+06        -0.94347E+08         0.00000E+00
    0.00000E+00         0.00000E+00        -0.64227E+08
 
   -0.65155E+08         0.69726E+05         0.00000E+00
    0.69726E+05        -0.94353E+08         0.00000E+00
    0.00000E+00         0.00000E+00        -0.63977E+08
 
   -0.65070E+08         0.32484E+05         0.00000E+00
    0.32484E+05        -0.94364E+08         0.00000E+00
    0.00000E+00         0.00000E+00        -0.63721E+08
 
   -0.64995E+08        -0.51817E+04         0.00000E+00
   -0.51817E+04        -0.94379E+08         0.00000E+00
    0.00000E+00         0.00000E+00        -0.63458E+08
 
   -0.64930E+08        -0.41442E+05         0.00000E+00
   -0.41442E+05        -0.94398E+08         0.00000E+00
    0.00000E+00         0.00000E+00        -0.63188E+08
 
   -0.64874E+08        -0.73764E+05         0.00000E+00
   -0.73764E+05        -0.94418E+08         0.00000E+00
    0.00000E+00         0.00000E+00        -0.62912E+08
 
   -0.64822E+08        -0.98203E+05         0.00000E+00
   -0.98203E+05        -0.94439E+08         0.00000E+00
    0.00000E+00         0.00000E+00        -0.62631E+08
 
   -0.64769E+08        -0.10647E+06         0.00000E+00
   -0.10647E+06        -0.94452E+08         0.00000E+00
    0.00000E+00         0.00000E+00        -0.62343E+08
 
   -0.64708E+08        -0.85762E+05         0.00000E+00
   -0.85762E+05        -0.94435E+08         0.00000E+00
    0.00000E+00         0.00000E+00        -0.62033E+08
 
   -0.64647E+08        -0.33104E+05         0.00000E+00
   -0.33104E+05        -0.94357E+08         0.00000E+00
    0.00000E+00         0.00000E+00        -0.61664E+08
 
   -0.79345E+08        -0.38466E+05         0.00000E+00
   -0.38466E+05        -0.97656E+08         0.00000E+00
    0.00000E+00         0.00000E+00        -0.85093E+08
 
   -0.79352E+08        -0.92235E+05         0.00000E+00
   -0.92235E+05        -0.97588E+08         0.00000E+00
    0.00000E+00         0.00000E+00        -0.84526E+08
 
   -0.79376E+08        -0.92671E+05         0.00000E+00
   -0.92671E+05        -0.97564E+08         0.00000E+00
    0.00000E+00         0.00000E+00        -0.84001E+08
 
   -0.79406E+08        -0.52331E+05         0.00000E+00
   -0.52331E+05        -0.97559E+08         0.00000E+00
    0.00000E+00         0.00000E+00        -0.83486E+08
 
   -0.79414E+08         0.81972E+03         0.00000E+00
    0.81972E+03        -0.97559E+08         0.00000E+00
    0.00000E+00         0.00000E+00        -0.82975E+08
 
   -0.79391E+08         0.51886E+05         0.00000E+00
    0.51886E+05        -0.97563E+08         0.00000E+00
    0.00000E+00         0.00000E+00        -0.82474E+08
 
   -0.79336E+08         0.95737E+05         0.00000E+00
    0.95737E+05        -0.97569E+08         0.00000E+00
    0.00000E+00         0.00000E+00        -0.81990E+08
 
   -0.79255E+08         0.13202E+06         0.00000E+00
    0.13202E+06        -0.97574E+08         0.00000E+00
    0.00000E+00         0.00000E+00        -0.81526E+08
 
   -0.79153E+08         0.16344E+06         0.00000E+00
    0.16344E+06        -0.97576E+08         0.00000E+00
    0.00000E+00         0.00000E+00        -0.81084E+08
 
   -0.79032E+08         0.19329E+06         0.00000E+00
    0.19329E+06        -0.97575E+08         0.00000E+00
    0.00000E+00         0.00000E+00        -0.80664E+08
 
   -0.78896E+08         0.22350E+06         0.00000E+00
    0.22350E+06        -0.97572E+08         0.00000E+00
    0.00000E+00         0.00000E+00        -0.80264E+08
 
   -0.78744E+08         0.25433E+06         0.00000E+00
    0.25433E+06        -0.97571E+08         0.00000E+00
    0.00000E+00         0.00000E+00        -0.79884E+08
 
   -0.78578E+08         0.28486E+06         0.00000E+00
    0.28486E+06        -0.97571E+08         0.00000E+00
    0.00000E+00         0.00000E+00        -0.79521E+08
 
   -0.78400E+08         0.31384E+06         0.00000E+00
    0.31384E+06        -0.97572E+08         0.00000E+00
    0.00000E+00         0.00000E+00        -0.79172E+08
 
   -0.78212E+08         0.34019E+06         0.00000E+00
    0.34019E+06        -0.97575E+08         0.00000E+00
    0.00000E+00         0.00000E+00        -0.78837E+08
 
   -0.78014E+08         0.36328E+06         0.00000E+00
    0.36328E+06        -0.97579E+08         0.00000E+00
    0.00000E+00         0.00000E+00        -0.78513E+08
 
   -0.77808E+08         0.38286E+06         0.00000E+00
    0.38286E+06        -0.97582E+08         0.00000E+00
    0.00000E+00         0.00000E+00        -0.78200E+08
 
   -0.77596E+08         0.39902E+06         0.00000E+00
    0.39902E+06        -0.97586E+08         0.00000E+00
    0.00000E+00         0.00000E+00        -0.77895E+08
 
   -0.77378E+08         0.41205E+06         0.00000E+00
    0.41205E+06        -0.97589E+08         0.00000E+00
    0.00000E+00         0.00000E+00        -0.77597E+08
 
   -0.77155E+08         0.42234E+06         0.00000E+00
    0.42234E+06        -0.97592E+08         0.00000E+00
    0.00000E+00         0.00000E+00        -0.77307E+08
 
   -0.76929E+08         0.43031E+06         0.00000E+00
    0.43031E+06        -0.97594E+08         0.00000E+00
    0.00000E+00         0.00000E+00        -0.77023E+08
 
   -0.76700E+08         0.43636E+06         0.00000E+00
    0.43636E+06        -0.97596E+08         0.00000E+00
    0.00000E+00         0.00000E+00        -0.76744E+08
 
   -0.76469E+08         0.44084E+06         0.00000E+00
    0.44084E+06        -0.97597E+08         0.00000E+00
    0.00000E+00         0.00000E+00        -0.76470E+08
 
   -0.76236E+08         0.44407E+06         0.00000E+00
    0.44407E+06        -0.97598E+08         0.00000E+00
    0.00000E+00         0.00000E+00        -0.76200E+08
 
   -0.76028E+08         0.44522E+06         0.00000E+00
    0.44522E+06        -0.97571E+08         0.00000E+00
    0.00000E+00         0.00000E+00        -0.75961E+08
 
   -0.75840E+08         0.44469E+06         0.00000E+00
    0.44469E+06        -0.97521E+08         0.00000E+00
    0.00000E+00         0.00000E+00        -0.75747E+08
 
   -0.75653E+08         0.44355E+06         0.00000E+00
    0.44355E+06        -0.97471E+08         0.00000E+00
    0.00000E+00         0.00000E+00        -0.75538E+08
 
   -0.75465E+08         0.44194E+06         0.00000E+00
    0.44194E+06        -0.97419E+08         0.00000E+00
    0.00000E+00         0.00000E+00        -0.75333E+08
 
   -0.75279E+08         0.43997E+06         0.00000E+00
    0.43997E+06        -0.97367E+08         0.00000E+00
    0.00000E+00         0.00000E+00        -0.75132E+08
 
   -0.75093E+08         0.43772E+06         0.00000E+00
    0.43772E+06        -0.97314E+08         0.00000E+00
    0.00000E+00         0.00000E+00        -0.74935E+08
 
   -0.74908E+08         0.43525E+06         0.00000E+00
    0.43525E+06        -0.97260E+08         0.00000E+00
    0.00000E+00         0.00000E+00        -0.74742E+08
 
   -0.74724E+08         0.43263E+06         0.00000E+00
    0.43263E+06        -0.97205E+08         0.00000E+00
    0.00000E+00         0.00000E+00        -0.74551E+08
 
   -0.74541E+08         0.42987E+06         0.00000E+00
    0.42987E+06        -0.97150E+08         0.00000E+00
    0.00000E+00         0.00000E+00        -0.74364E+08
 
   -0.74359E+08         0.42703E+06         0.00000E+00
    0.42703E+06        -0.97094E+08         0.00000E+00
    0.00000E+00         0.00000E+00        -0.74181E+08
 
   -0.74179E+08         0.42411E+06         0.00000E+00
    0.42411E+06        -0.97038E+08         0.00000E+00
    0.00000E+00         0.00000E+00        -0.74000E+08
 
   -0.73999E+08         0.42115E+06         0.00000E+00
    0.42115E+06        -0.96981E+08         0.00000E+00
    0.00000E+00         0.00000E+00        -0.73821E+08
 
   -0.73821E+08         0.41816E+06         0.00000E+00
    0.41816E+06        -0.96924E+08         0.00000E+00
    0.00000E+00         0.00000E+00        -0.73646E+08
 
   -0.73643E+08         0.41515E+06         0.00000E+00
    0.41515E+06        -0.96866E+08         0.00000E+00
    0.00000E+00         0.00000E+00        -0.73473E+08
 
   -0.73467E+08         0.41214E+06         0.00000E+00
    0.41214E+06        -0.96809E+08         0.00000E+00
    0.00000E+00         0.00000E+00        -0.73302E+08
 
   -0.73292E+08         0.40914E+06         0.00000E+00
    0.40914E+06        -0.96750E+08         0.00000E+00
    0.00000E+00         0.00000E+00        -0.73133E+08
 
   -0.73118E+08         0.40616E+06         0.00000E+00
    0.40616E+06        -0.96692E+08         0.00000E+00
    0.00000E+00         0.00000E+00        -0.72967E+08
 
   -0.72945E+08         0.40320E+06         0.00000E+00
    0.40320E+06        -0.96633E+08         0.00000E+00
    0.00000E+00         0.00000E+00        -0.72802E+08
 
   -0.72774E+08         0.40028E+06         0.00000E+00
    0.40028E+06        -0.96574E+08         0.00000E+00
    0.00000E+00         0.00000E+00        -0.72639E+08
 
   -0.72603E+08         0.39741E+06         0.00000E+00
    0.39741E+06        -0.96515E+08         0.00000E+00
    0.00000E+00         0.00000E+00        -0.72478E+08
 
   -0.72433E+08         0.39459E+06         0.00000E+00
    0.39459E+06        -0.96456E+08         0.00000E+00
    0.00000E+00         0.00000E+00        -0.72318E+08
 
   -0.72264E+08         0.39182E+06         0.00000E+00
    0.39182E+06        -0.96397E+08         0.00000E+00
    0.00000E+00         0.00000E+00        -0.72159E+08
 
   -0.72096E+08         0.38912E+06         0.00000E+00
    0.38912E+06        -0.96337E+08         0.00000E+00
    0.00000E+00         0.00000E+00        -0.72002E+08
 
   -0.71928E+08         0.38648E+06         0.00000E+00
    0.38648E+06        -0.96278E+08         0.00000E+00
    0.00000E+00         0.00000E+00        -0.71846E+08
 
   -0.71762E+08         0.38391E+06         0.00000E+00
    0.38391E+06        -0.96219E+08         0.00000E+00
    0.00000E+00         0.00000E+00        -0.71691E+08
 
   -0.71596E+08         0.38141E+06         0.00000E+00
    0.38141E+06        -0.96159E+08         0.00000E+00
    0.00000E+00         0.00000E+00        -0.71536E+08
 
   -0.71430E+08         0.37898E+06         0.00000E+00
    0.37898E+06        -0.96100E+08         0.00000E+00
    0.00000E+00         0.00000E+00        -0.71382E+08
 
   -0.71266E+08         0.37662E+06         0.00000E+00
    0.37662E+06        -0.96041E+08         0.00000E+00
    0.00000E+00         0.00000E+00        -0.71229E+08
 
   -0.71101E+08         0.37432E+06         0.00000E+00
    0.37432E+06        -0.95982E+08         0.00000E+00
    0.00000E+00         0.00000E+00        -0.71076E+08
 
   -0.70938E+08         0.37209E+06         0.00000E+00
    0.37209E+06        -0.95923E+08         0.00000E+00
    0.00000E+00         0.00000E+00        -0.70924E+08
 
   -0.70774E+08         0.36992E+06         0.00000E+00
    0.36992E+06        -0.95864E+08         0.00000E+00
    0.00000E+00         0.00000E+00        -0.70771E+08
 
   -0.70611E+08         0.36781E+06         0.00000E+00
    0.36781E+06        -0.95805E+08         0.00000E+00
    0.00000E+00         0.00000E+00        -0.70619E+08
 
   -0.70448E+08         0.36574E+06         0.00000E+00
    0.36574E+06        -0.95746E+08         0.00000E+00
    0.00000E+00         0.00000E+00        -0.70466E+08
 
   -0.70286E+08         0.36372E+06         0.00000E+00
    0.36372E+06        -0.95688E+08         0.00000E+00
    0.00000E+00         0.00000E+00        -0.70313E+08
 
   -0.70123E+08         0.36172E+06         0.00000E+00
    0.36172E+06        -0.95630E+08         0.00000E+00
    0.00000E+00         0.00000E+00        -0.70160E+08
 
   -0.69961E+08         0.35975E+06         0.00000E+00
    0.35975E+06        -0.95572E+08         0.00000E+00
    0.00000E+00         0.00000E+00        -0.70006E+08
 
   -0.69799E+08         0.35778E+06         0.00000E+00
    0.35778E+06        -0.95515E+08         0.00000E+00
    0.00000E+00         0.00000E+00        -0.69851E+08
 
   -0.69637E+08         0.35580E+06         0.00000E+00
    0.35580E+06        -0.95458E+08         0.00000E+00
    0.00000E+00         0.00000E+00        -0.69696E+08
 
   -0.69474E+08         0.35381E+06         0.00000E+00
    0.35381E+06        -0.95401E+08         0.00000E+00
    0.00000E+00         0.00000E+00        -0.69540E+08
 
   -0.69312E+08         0.35178E+06         0.00000E+00
    0.35178E+06        -0.95345E+08         0.00000E+00
    0.00000E+00         0.00000E+00        -0.69382E+08
 
   -0.69150E+08         0.34969E+06         0.00000E+00
    0.34969E+06        -0.95289E+08         0.00000E+00
    0.00000E+00         0.00000E+00        -0.69224E+08
 
   -0.68988E+08         0.34753E+06         0.00000E+00
    0.34753E+06        -0.95234E+08         0.00000E+00
    0.00000E+00         0.00000E+00        -0.69064E+08
 
   -0.68826E+08         0.34527E+06         0.00000E+00
    0.34527E+06        -0.95179E+08         0.00000E+00
    0.00000E+00         0.00000E+00        -0.68903E+08
 
   -0.68663E+08         0.34289E+06         0.00000E+00
    0.34289E+06        -0.95126E+08         0.00000E+00
    0.00000E+00         0.00000E+00        -0.68740E+08
 
   -0.68501E+08         0.34036E+06         0.00000E+00
    0.34036E+06        -0.95072E+08         0.00000E+00
    0.00000E+00         0.00000E+00        -0.68575E+08
 
   -0.68339E+08         0.33765E+06         0.00000E+00
    0.33765E+06        -0.95020E+08         0.00000E+00
    0.00000E+00         0.00000E+00        -0.68409E+08
 
   -0.68176E+08         0.33474E+06         0.00000E+00
    0.33474E+06        -0.94968E+08         0.00000E+00
    0.00000E+00         0.00000E+00        -0.68240E+08
 
   -0.68014E+08         0.33158E+06         0.00000E+00
    0.33158E+06        -0.94918E+08         0.00000E+00
    0.00000E+00         0.00000E+00        -0.68070E+08
 
   -0.67852E+08         0.32813E+06         0.00000E+00
    0.32813E+06        -0.94868E+08         0.00000E+00
    0.00000E+00         0.00000E+00        -0.67897E+08
 
   -0.67690E+08         0.32433E+06         0.00000E+00
    0.32433E+06        -0.94820E+08         0.00000E+00
    0.00000E+00         0.00000E+00        -0.67722E+08
 
   -0.67529E+08         0.32015E+06         0.00000E+00
    0.32015E+06        -0.94773E+08         0.00000E+00
    0.00000E+00         0.00000E+00        -0.67544E+08
 
   -0.67368E+08         0.31549E+06         0.00000E+00
    0.31549E+06        -0.94727E+08         0.00000E+00
    0.00000E+00         0.00000E+00        -0.67364E+08
 
   -0.67208E+08         0.31030E+06         0.00000E+00
    0.31030E+06        -0.94683E+08         0.00000E+00
    0.00000E+00         0.00000E+00        -0.67181E+08
 
   -0.67049E+08         0.30446E+06         0.00000E+00
    0.30446E+06        -0.94640E+08         0.00000E+00
    0.00000E+00         0.00000E+00        -0.66995E+08
 
   -0.66891E+08         0.29787E+06         0.00000E+00
    0.29787E+06        -0.94600E+08         0.00000E+00
    0.00000E+00         0.00000E+00        -0.66806E+08
 
   -0.66734E+08         0.29040E+06         0.00000E+00
    0.29040E+06        -0.94561E+08         0.00000E+00
    0.00000E+00         0.00000E+00        -0.66613E+08
 
   -0.66580E+08         0.28189E+06         0.00000E+00
    0.28189E+06        -0.94525E+08         0.00000E+00
    0.00000E+00         0.00000E+00        -0.66418E+08
 
   -0.66427E+08         0.27215E+06         0.00000E+00
    0.27215E+06        -0.94491E+08         0.00000E+00
    0.00000E+00         0.00000E+00        -0.66218E+08
 
   -0.66278E+08         0.26097E+06         0.00000E+00
    0.26097E+06        -0.94460E+08         0.00000E+00
    0.00000E+00         0.00000E+00        -0.66015E+08
 
   -0.66131E+08         0.24814E+06         0.00000E+00
    0.24814E+06        -0.94432E+08         0.00000E+00
    0.00000E+00         0.00000E+00        -0.65807E+08
 
   -0.65989E+08         0.23338E+06         0.00000E+00
    0.23338E+06        -0.94407E+08         0.00000E+00
    0.00000E+00         0.00000E+00        -0.65596E+08
 
   -0.65851E+08         0.21643E+06         0.00000E+00
    0.21643E+06        -0.94386E+08         0.00000E+00
    0.00000E+00         0.00000E+00        -0.65379E+08
 
   -0.65718E+08         0.19704E+06         0.00000E+00
    0.19704E+06        -0.94369E+08         0.00000E+00
    0.00000E+00         0.00000E+00        -0.65158E+08
 
   -0.65592E+08         0.17497E+06         0.00000E+00
    0.17497E+06        -0.94356E+08         0.00000E+00
    0.00000E+00         0.00000E+00        -0.64931E+08
 
   -0.65473E+08         0.15008E+06         0.00000E+00
    0.15008E+06        -0.94348E+08         0.00000E+00
    0.00000E+00         0.00000E+00        -0.64699E+08
 
   -0.65363E+08         0.12231E+06         0.00000E+00
    0.12231E+06        -0.94345E+08         0.00000E+00
    0.00000E+00         0.00000E+00        -0.64460E+08
 
   -0.65261E+08         0.91814E+05         0.00000E+00
    0.91814E+05        -0.94346E+08         0.00000E+00
    0.00000E+00         0.00000E+00        -0.64215E+08
 
   -0.65170E+08         0.59002E+05         0.00000E+00
    0.59002E+05        -0.94353E+08         0.00000E+00
    0.00000E+00         0.00000E+00        -0.63963E+08
 
   -0.65089E+08         0.24608E+05         0.00000E+00
    0.24608E+05        -0.94365E+08         0.00000E+00
    0.00000E+00         0.00000E+00        -0.63705E+08
 
   -0.65019E+08        -0.10226E+05         0.00000E+00
   -0.10226E+05        -0.94381E+08         0.00000E+00
    0.00000E+00         0.00000E+00        -0.63438E+08
 
   -0.64960E+08        -0.43879E+05         0.00000E+00
   -0.43879E+05        -0.94401E+08         0.00000E+00
    0.00000E+00         0.00000E+00        -0.63166E+08
 
   -0.64910E+08        -0.74150E+05         0.00000E+00
   -0.74150E+05        -0.94424E+08         0.00000E+00
    0.00000E+00         0.00000E+00        -0.62887E+08
 
   -0.64866E+08        -0.97851E+05         0.00000E+00
   -0.97851E+05        -0.94449E+08         0.00000E+00
    0.00000E+00         0.00000E+00        -0.62603E+08
 
   -0.64821E+08        -0.10756E+06         0.00000E+00
   -0.10756E+06        -0.94468E+08         0.00000E+00
    0.00000E+00         0.00000E+00        -0.62315E+08
 
   -0.64767E+08        -0.88769E+05         0.00000E+00
   -0.88769E+05        -0.94462E+08         0.00000E+00
    0.00000E+00         0.00000E+00        -0.62010E+08
 
   -0.64708E+08        -0.34831E+05         0.00000E+00
   -0.34831E+05        -0.94391E+08         0.00000E+00
    0.00000E+00         0.00000E+00        -0.61647E+08
 
   -0.79270E+08        -0.38323E+05         0.00000E+00
   -0.38323E+05        -0.97640E+08         0.00000E+00
    0.00000E+00         0.00000E+00        -0.85120E+08
 
   -0.79282E+08        -0.89213E+05         0.00000E+00
   -0.89213E+05        -0.97582E+08         0.00000E+00
    0.00000E+00         0.00000E+00        -0.84563E+08
 
   -0.79317E+08        -0.85499E+05         0.00000E+00
   -0.85499E+05        -0.97570E+08         0.00000E+00
    0.00000E+00         0.00000E+00        -0.84043E+08
 
   -0.79356E+08        -0.46693E+05         0.00000E+00
   -0.46693E+05        -0.97569E+08         0.00000E+00
    0.00000E+00         0.00000E+00        -0.83526E+08
 
   -0.79371E+08         0.10548E+03         0.00000E+00
    0.10548E+03        -0.97569E+08         0.00000E+00
    0.00000E+00         0.00000E+00        -0.83010E+08
 
   -0.79352E+08         0.44332E+05         0.00000E+00
    0.44332E+05        -0.97572E+08         0.00000E+00
    0.00000E+00         0.00000E+00        -0.82503E+08
 
   -0.79301E+08         0.82407E+05         0.00000E+00
    0.82407E+05        -0.97577E+08         0.00000E+00
    0.00000E+00         0.00000E+00        -0.82013E+08
 
   -0.79225E+08         0.11400E+06         0.00000E+00
    0.11400E+06        -0.97581E+08         0.00000E+00
    0.00000E+00         0.00000E+00        -0.81544E+08
 
   -0.79127E+08         0.14153E+06         0.00000E+00
    0.14153E+06        -0.97582E+08         0.00000E+00
    0.00000E+00         0.00000E+00        -0.81096E+08
 
   -0.79011E+08         0.16794E+06         0.00000E+00
    0.16794E+06        -0.97580E+08         0.00000E+00
    0.00000E+00         0.00000E+00        -0.80672E+08
 
   -0.78879E+08         0.19501E+06         0.00000E+00
    0.19501E+06        -0.97578E+08         0.00000E+00
    0.00000E+00         0.00000E+00        -0.80268E+08
 
   -0.78731E+08         0.22292E+06         0.00000E+00
    0.22292E+06        -0.97577E+08         0.00000E+00
    0.00000E+00         0.00000E+00        -0.79885E+08
 
   -0.78569E+08         0.25080E+06         0.00000E+00
    0.25080E+06        -0.97576E+08         0.00000E+00
    0.00000E+00         0.00000E+00        -0.79518E+08
 
   -0.78395E+08         0.27742E+06         0.00000E+00
    0.27742E+06        -0.97578E+08         0.00000E+00
    0.00000E+00         0.00000E+00        -0.79168E+08
 
   -0.78209E+08         0.30172E+06         0.00000E+00
    0.30172E+06        -0.97580E+08         0.00000E+00
    0.00000E+00         0.00000E+00        -0.78831E+08
 
   -0.78013E+08         0.32303E+06         0.00000E+00
    0.32303E+06        -0.97583E+08         0.00000E+00
    0.00000E+00         0.00000E+00        -0.78506E+08
 
   -0.77809E+08         0.34111E+06         0.00000E+00
    0.34111E+06        -0.97586E+08         0.00000E+00
    0.00000E+00         0.00000E+00        -0.78191E+08
 
   -0.77598E+08         0.35602E+06         0.00000E+00
    0.35602E+06        -0.97589E+08         0.00000E+00
    0.00000E+00         0.00000E+00        -0.77886E+08
 
   -0.77380E+08         0.36803E+06         0.00000E+00
    0.36803E+06        -0.97591E+08         0.00000E+00
    0.00000E+00         0.00000E+00        -0.77588E+08
 
   -0.77159E+08         0.37749E+06         0.00000E+00
    0.37749E+06        -0.97593E+08         0.00000E+00
    0.00000E+00         0.00000E+00        -0.77297E+08
 
   -0.76933E+08         0.38479E+06         0.00000E+00
    0.38479E+06        -0.97595E+08         0.00000E+00
    0.00000E+00         0.00000E+00        -0.77013E+08
 
   -0.76704E+08         0.39032E+06         0.00000E+00
    0.39032E+06        -0.97597E+08         0.00000E+00
    0.00000E+00         0.00000E+00        -0.76734E+08
 
   -0.76473E+08         0.39441E+06         0.00000E+00
    0.39441E+06        -0.97598E+08         0.00000E+00
    0.00000E+00         0.00000E+00        -0.76460E+08
 
   -0.76240E+08         0.39734E+06         0.00000E+00
    0.39734E+06        -0.97598E+08         0.00000E+00
    0.00000E+00         0.00000E+00        -0.76192E+08
 
   -0.76032E+08         0.39839E+06         0.00000E+00
    0.39839E+06        -0.97571E+08         0.00000E+00
    0.00000E+00         0.00000E+00        -0.75953E+08
 
   -0.75844E+08         0.39793E+06         0.00000E+00
    0.39793E+06        -0.97521E+08         0.00000E+00
    0.00000E+00         0.00000E+00        -0.75739E+08
 
   -0.75657E+08         0.39693E+06         0.00000E+00
    0.39693E+06        -0.97471E+08         0.00000E+00
    0.00000E+00         0.00000E+00        -0.75530E+08
 
   -0.75469E+08         0.39549E+06         0.00000E+00
    0.39549E+06        -0.97419E+08         0.00000E+00
    0.00000E+00         0.00000E+00        -0.75326E+08
 
   -0.75282E+08         0.39374E+06         0.00000E+00
    0.39374E+06        -0.97367E+08         0.00000E+00
    0.00000E+00         0.00000E+00        -0.75125E+08
 
   -0.75096E+08         0.39173E+06         0.00000E+00
    0.39173E+06        -0.97314E+08         0.00000E+00
    0.00000E+00         0.00000E+00        -0.74928E+08
 
   -0.74911E+08         0.38954E+06         0.00000E+00
    0.38954E+06        -0.97260E+08         0.00000E+00
    0.00000E+00         0.00000E+00        -0.74735E+08
 
   -0.74727E+08         0.38719E+06         0.00000E+00
    0.38719E+06        -0.97205E+08         0.00000E+00
    0.00000E+00         0.00000E+00        -0.74545E+08
 
   -0.74544E+08         0.38474E+06         0.00000E+00
    0.38474E+06        -0.97150E+08         0.00000E+00
    0.00000E+00         0.00000E+00        -0.74358E+08
 
   -0.74362E+08         0.38221E+06         0.00000E+00
    0.38221E+06        -0.97095E+08         0.00000E+00
    0.00000E+00         0.00000E+00        -0.74175E+08
 
   -0.74181E+08         0.37962E+06         0.00000E+00
    0.37962E+06        -0.97038E+08         0.00000E+00
    0.00000E+00         0.00000E+00        -0.73994E+08
 
   -0.74002E+08         0.37698E+06         0.00000E+00
    0.37698E+06        -0.96982E+08         0.00000E+00
    0.00000E+00         0.00000E+00        -0.73816E+08
 
   -0.73823E+08         0.37431E+06         0.00000E+00
    0.37431E+06        -0.96925E+08         0.00000E+00
    0.00000E+00         0.00000E+00        -0.73641E+08
 
   -0.73646E+08         0.37164E+06         0.00000E+00
    0.37164E+06        -0.96867E+08         0.00000E+00
    0.00000E+00         0.00000E+00        -0.73468E+08
 
   -0.73469E+08         0.36895E+06         0.00000E+00
    0.36895E+06        -0.96809E+08         0.00000E+00
    0.00000E+00         0.00000E+00        -0.73297E+08
 
   -0.73294E+08         0.36628E+06         0.00000E+00
    0.36628E+06        -0.96751E+08         0.00000E+00
    0.00000E+00         0.00000E+00        -0.73129E+08
 
   -0.73120E+08         0.36362E+06         0.00000E+00
    0.36362E+06        -0.96692E+08         0.00000E+00
    0.00000E+00         0.00000E+00        -0.72963E+08
 
   -0.72947E+08         0.36099E+06         0.00000E+00
    0.36099E+06        -0.96634E+08         0.00000E+00
    0.00000E+00         0.00000E+00        -0.72798E+08
 
   -0.72775E+08         0.35838E+06         0.00000E+00
    0.35838E+06        -0.96575E+08         0.00000E+00
    0.00000E+00         0.00000E+00        -0.72636E+08
 
   -0.72604E+08         0.35582E+06         0.00000E+00
    0.35582E+06        -0.96516E+08         0.00000E+00
    0.00000E+00         0.00000E+00        -0.72474E+08
 
   -0.72434E+08         0.35330E+06         0.00000E+00
    0.35330E+06        -0.96457E+08         0.00000E+00
    0.00000E+00         0.00000E+00        -0.72315E+08
 
   -0.72265E+08         0.35083E+06         0.00000E+00
    0.35083E+06        -0.96397E+08         0.00000E+00
    0.00000E+00         0.00000E+00        -0.72157E+08
 
   -0.72096E+08         0.34841E+06         0.00000E+00
    0.34841E+06        -0.96338E+08         0.00000E+00
    0.00000E+00         0.00000E+00        -0.72000E+08
 
   -0.71929E+08         0.34606E+06         0.00000E+00
    0.34606E+06        -0.96279E+08         0.00000E+00
    0.00000E+00         0.00000E+00        -0.71844E+08
 
   -0.71762E+08         0.34376E+06         0.00000E+00
    0.34376E+06        -0.96219E+08         0.00000E+00
    0.00000E+00         0.00000E+00        -0.71689E+08
 
   -0.71596E+08         0.34152E+06         0.00000E+00
    0.34152E+06        -0.96160E+08         0.00000E+00
    0.00000E+00         0.00000E+00        -0.71534E+08
 
   -0.71430E+08         0.33934E+06         0.00000E+00
    0.33934E+06        -0.96101E+08         0.00000E+00
    0.00000E+00         0.00000E+00        -0.71381E+08
 
   -0.71265E+08         0.33723E+06         0.00000E+00
    0.33723E+06        -0.96041E+08         0.00000E+00
    0.00000E+00         0.00000E+00        -0.71228E+08
 
   -0.71101E+08         0.33517E+06         0.00000E+00
    0.33517E+06        -0.95982E+08         0.00000E+00
    0.00000E+00         0.00000E+00        -0.71075E+08
 
   -0.70937E+08         0.33318E+06         0.00000E+00
    0.33318E+06        -0.95923E+08         0.00000E+00
    0.00000E+00         0.00000E+00        -0.70923E+08
 
   -0.70773E+08         0.33123E+06         0.00000E+00
    0.33123E+06        -0.95864E+08         0.00000E+00
    0.00000E+00         0.00000E+00        -0.70770E+08
 
   -0.70610E+08         0.32933E+06         0.00000E+00
    0.32933E+06        -0.95805E+08         0.00000E+00
    0.00000E+00         0.00000E+00        -0.70618E+08
 
   -0.70447E+08         0.32747E+06         0.00000E+00
    0.32747E+06        -0.95747E+08         0.00000E+00
    0.00000E+00         0.00000E+00        -0.70465E+08
 
   -0.70284E+08         0.32565E+06         0.00000E+00
    0.32565E+06        -0.95688E+08         0.00000E+00
    0.00000E+00         0.00000E+00        -0.70313E+08
 
   -0.70122E+08         0.32386E+06         0.00000E+00
    0.32386E+06        -0.95630E+08         0.00000E+00
    0.00000E+00         0.00000E+00        -0.70160E+08
 
   -0.69959E+08         0.32208E+06         0.00000E+00
    0.32208E+06        -0.95573E+08         0.00000E+00
    0.00000E+00         0.00000E+00        -0.70006E+08
 
   -0.69797E+08         0.32030E+06         0.00000E+00
    0.32030E+06        -0.95515E+08         0.00000E+00
    0.00000E+00         0.00000E+00        -0.69851E+08
 
   -0.69634E+08         0.31852E+06         0.00000E+00
    0.31852E+06        -0.95458E+08         0.00000E+00
    0.00000E+00         0.00000E+00        -0.69696E+08
 
   -0.69472E+08         0.31672E+06         0.00000E+00
    0.31672E+06        -0.95401E+08         0.00000E+00
    0.00000E+00         0.00000E+00        -0.69540E+08
 
   -0.69310E+08         0.31489E+06         0.00000E+00
    0.31489E+06        -0.95345E+08         0.00000E+00
    0.00000E+00         0.00000E+00        -0.69383E+08
 
   -0.69148E+08         0.31300E+06         0.00000E+00
    0.31300E+06        -0.95289E+08         0.00000E+00
    0.00000E+00         0.00000E+00        -0.69225E+08
 
   -0.68985E+08         0.31104E+06         0.00000E+00
    0.31104E+06        -0.95234E+08         0.00000E+00
    0.00000E+00         0.00000E+00        -0.69065E+08
 
   -0.68823E+08         0.30900E+06         0.00000E+00
    0.30900E+06        -0.95180E+08         0.00000E+00
    0.00000E+00         0.00000E+00        -0.68904E+08
 
   -0.68661E+08         0.30685E+06         0.00000E+00
    0.30685E+06        -0.95126E+08         0.00000E+00
    0.00000E+00         0.00000E+00        -0.68741E+08
 
   -0.68498E+08         0.30456E+06         0.00000E+00
    0.30456E+06        -0.95073E+08         0.00000E+00
    0.00000E+00         0.00000E+00        -0.68576E+08
 
   -0.68336E+08         0.30211E+06         0.00000E+00
    0.30211E+06        -0.95020E+08         0.00000E+00
    0.00000E+00         0.00000E+00        -0.68410E+08
 
   -0.68174E+08         0.29948E+06         0.00000E+00
    0.29948E+06        -0.94969E+08         0.00000E+00
    0.00000E+00         0.00000E+00        -0.68241E+08
 
   -0.68011E+08         0.29662E+06         0.00000E+00
    0.29662E+06        -0.94918E+08         0.00000E+00
    0.00000E+00         0.00000E+00        -0.68071E+08
 
   -0.67850E+08         0.29350E+06         0.00000E+00
    0.29350E+06        -0.94869E+08         0.00000E+00
    0.00000E+00         0.00000E+00        -0.67898E+08
 
   -0.67688E+08         0.29007E+06         0.00000E+00
    0.29007E+06        -0.94820E+08         0.00000E+00
    0.00000E+00         0.00000E+00        -0.67723E+08
 
   -0.67527E+08         0.28629E+06         0.00000E+00
    0.28629E+06        -0.94773E+08         0.00000E+00
    0.00000E+00         0.00000E+00        -0.67545E+08
 
   -0.67366E+08         0.28209E+06         0.00000E+00
    0.28209E+06        -0.94727E+08         0.00000E+00
    0.00000E+00         0.00000E+00        -0.67365E+08
 
   -0.67206E+08         0.27740E+06         0.00000E+00
    0.27740E+06        -0.94683E+08         0.00000E+00
    0.00000E+00         0.00000E+00        -0.67182E+08
 
   -0.67047E+08         0.27213E+06         0.00000E+00
    0.27213E+06        -0.94641E+08         0.00000E+00
    0.00000E+00         0.00000E+00        -0.66996E+08
 
   -0.66889E+08         0.26619E+06         0.00000E+00
    0.26619E+06        -0.94600E+08         0.00000E+00
    0.00000E+00         0.00000E+00        -0.66806E+08
 
   -0.66733E+08         0.25944E+06         0.00000E+00
    0.25944E+06        -0.94561E+08         0.00000E+00
    0.00000E+00         0.00000E+00        -0.66614E+08
 
   -0.66579E+08         0.25175E+06         0.00000E+00
    0.25175E+06        -0.94525E+08         0.00000E+00
    0.00000E+00         0.00000E+00        -0.66418E+08
 
   -0.66427E+08         0.24295E+06         0.00000E+00
    0.24295E+06        -0.94491E+08         0.00000E+00
    0.00000E+00         0.00000E+00        -0.66218E+08
 
   -0.66277E+08         0.23284E+06         0.00000E+00
    0.23284E+06        -0.94460E+08         0.00000E+00
    0.00000E+00         0.00000E+00        -0.66014E+08
 
   -0.66131E+08         0.22122E+06         0.00000E+00
    0.22122E+06        -0.94431E+08         0.00000E+00
    0.00000E+00         0.00000E+00        -0.65806E+08
 
   -0.65990E+08         0.20785E+06         0.00000E+00
    0.20785E+06        -0.94407E+08         0.00000E+00
    0.00000E+00         0.00000E+00        -0.65594E+08
 
   -0.65853E+08         0.19248E+06         0.00000E+00
    0.19248E+06        -0.94386E+08         0.00000E+00
    0.00000E+00         0.00000E+00        -0.65376E+08
 
   -0.65722E+08         0.17487E+06         0.00000E+00
    0.17487E+06        -0.94368E+08         0.00000E+00
    0.00000E+00         0.00000E+00        -0.65154E+08
 
   -0.65597E+08         0.15480E+06         0.00000E+00
    0.15480E+06        -0.94356E+08         0.00000E+00
    0.00000E+00         0.00000E+00        -0.64926E+08
 
   -0.65480E+08         0.13214E+06         0.00000E+00
    0.13214E+06        -0.94348E+08         0.00000E+00
    0.00000E+00         0.00000E+00        -0.64692E+08
 
   -0.65371E+08         0.10685E+06         0.00000E+00
    0.10685E+06        -0.94344E+08         0.00000E+00
    0.00000E+00         0.00000E+00        -0.64452E+08
 
   -0.65273E+08         0.79046E+05         0.00000E+00
    0.79046E+05        -0.94346E+08         0.00000E+00
    0.00000E+00         0.00000E+00        -0.64204E+08
 
   -0.65184E+08         0.49109E+05         0.00000E+00
    0.49109E+05        -0.94353E+08         0.00000E+00
    0.00000E+00         0.00000E+00        -0.63950E+08
 
   -0.65108E+08         0.17706E+05         0.00000E+00
    0.17706E+05        -0.94366E+08         0.00000E+00
    0.00000E+00         0.00000E+00        -0.63689E+08
 
   -0.65042E+08        -0.14141E+05         0.00000E+00
   -0.14141E+05        -0.94383E+08         0.00000E+00
    0.00000E+00         0.00000E+00        -0.63420E+08
 
   -0.64989E+08        -0.45013E+05         0.00000E+00
   -0.45013E+05        -0.94405E+08         0.00000E+00
    0.00000E+00         0.00000E+00        -0.63144E+08
 
   -0.64945E+08        -0.73009E+05         0.00000E+00
   -0.73009E+05        -0.94430E+08         0.00000E+00
    0.00000E+00         0.00000E+00        -0.62862E+08
 
   -0.64909E+08        -0.95660E+05         0.00000E+00
   -0.95660E+05        -0.94459E+08         0.00000E+00
    0.00000E+00         0.00000E+00        -0.62575E+08
 
   -0.64873E+08        -0.10689E+06         0.00000E+00
   -0.10689E+06        -0.94484E+08         0.00000E+00
    0.00000E+00         0.00000E+00        -0.62287E+08
 
   -0.64827E+08        -0.90955E+05         0.00000E+00
   -0.90955E+05        -0.94489E+08         0.00000E+00
    0.00000E+00         0.00000E+00        -0.61986E+08
 
   -0.64772E+08        -0.36470E+05         0.00000E+00
   -0.36470E+05        -0.94427E+08         0.00000E+00
    0.00000E+00         0.00000E+00        -0.61630E+08
 
   -0.79197E+08        -0.37903E+05         0.00000E+00
   -0.37903E+05        -0.97624E+08         0.00000E+00
    0.00000E+00         0.00000E+00        -0.85149E+08
 
   -0.79215E+08        -0.84544E+05         0.00000E+00
   -0.84544E+05        -0.97578E+08         0.00000E+00
    0.00000E+00         0.00000E+00        -0.84601E+08
 
   -0.79261E+08        -0.75927E+05         0.00000E+00
   -0.75927E+05        -0.97576E+08         0.00000E+00
    0.00000E+00         0.00000E+00        -0.84085E+08
 
   -0.79309E+08        -0.39563E+05         0.00000E+00
   -0.39563E+05        -0.97578E+08         0.00000E+00
    0.00000E+00         0.00000E+00        -0.83565E+08
 
   -0.79328E+08         0.23012E+03         0.00000E+00
    0.23012E+03        -0.97578E+08         0.00000E+00
    0.00000E+00         0.00000E+00        -0.83043E+08
 
   -0.79313E+08         0.37568E+05         0.00000E+00
    0.37568E+05        -0.97580E+08         0.00000E+00
    0.00000E+00         0.00000E+00        -0.82531E+08
 
   -0.79266E+08         0.69900E+05         0.00000E+00
    0.69900E+05        -0.97583E+08         0.00000E+00
    0.00000E+00         0.00000E+00        -0.82035E+08
 
   -0.79193E+08         0.96835E+05         0.00000E+00
    0.96835E+05        -0.97586E+08         0.00000E+00
    0.00000E+00         0.00000E+00        -0.81560E+08
 
   -0.79100E+08         0.12050E+06         0.00000E+00
    0.12050E+06        -0.97587E+08         0.00000E+00
    0.00000E+00         0.00000E+00        -0.81107E+08
 
   -0.78988E+08         0.14350E+06         0.00000E+00
    0.14350E+06        -0.97585E+08         0.00000E+00
    0.00000E+00         0.00000E+00        -0.80678E+08
 
   -0.78861E+08         0.16740E+06         0.00000E+00
    0.16740E+06        -0.97583E+08         0.00000E+00
    0.00000E+00         0.00000E+00        -0.80271E+08
 
   -0.78717E+08         0.19235E+06         0.00000E+00
    0.19235E+06        -0.97582E+08         0.00000E+00
    0.00000E+00         0.00000E+00        -0.79884E+08
 
   -0.78560E+08         0.21750E+06         0.00000E+00
    0.21750E+06        -0.97582E+08         0.00000E+00
    0.00000E+00         0.00000E+00        -0.79515E+08
 
   -0.78389E+08         0.24164E+06         0.00000E+00
    0.24164E+06        -0.97583E+08         0.00000E+00
    0.00000E+00         0.00000E+00        -0.79163E+08
 
   -0.78206E+08         0.26375E+06         0.00000E+00
    0.26375E+06        -0.97584E+08         0.00000E+00
    0.00000E+00         0.00000E+00        -0.78824E+08
 
   -0.78013E+08         0.28318E+06         0.00000E+00
    0.28318E+06        -0.97587E+08         0.00000E+00
    0.00000E+00         0.00000E+00        -0.78498E+08
 
   -0.77810E+08         0.29966E+06         0.00000E+00
    0.29966E+06        -0.97589E+08         0.00000E+00
    0.00000E+00         0.00000E+00        -0.78183E+08
 
   -0.77600E+08         0.31323E+06         0.00000E+00
    0.31323E+06        -0.97591E+08         0.00000E+00
    0.00000E+00         0.00000E+00        -0.77877E+08
 
   -0.77384E+08         0.32414E+06         0.00000E+00
    0.32414E+06        -0.97593E+08         0.00000E+00
    0.00000E+00         0.00000E+00        -0.77579E+08
 
   -0.77163E+08         0.33272E+06         0.00000E+00
    0.33272E+06        -0.97595E+08         0.00000E+00
    0.00000E+00         0.00000E+00        -0.77288E+08
 
   -0.76937E+08         0.33933E+06         0.00000E+00
    0.33933E+06        -0.97596E+08         0.00000E+00
    0.00000E+00         0.00000E+00        -0.77003E+08
 
   -0.76708E+08         0.34431E+06         0.00000E+00
    0.34431E+06        -0.97598E+08         0.00000E+00
    0.00000E+00         0.00000E+00        -0.76725E+08
 
   -0.76477E+08         0.34799E+06         0.00000E+00
    0.34799E+06        -0.97598E+08         0.00000E+00
    0.00000E+00         0.00000E+00        -0.76451E+08
 
   -0.76245E+08         0.35061E+06         0.00000E+00
    0.35061E+06        -0.97598E+08         0.00000E+00
    0.00000E+00         0.00000E+00        -0.76183E+08
 
   -0.76037E+08         0.35156E+06         0.00000E+00
    0.35156E+06        -0.97571E+08         0.00000E+00
    0.00000E+00         0.00000E+00        -0.75945E+08
 
   -0.75849E+08         0.35118E+06         0.00000E+00
    0.35118E+06        -0.97521E+08         0.00000E+00
    0.00000E+00         0.00000E+00        -0.75731E+08
 
   -0.75661E+08         0.35030E+06         0.00000E+00
    0.35030E+06        -0.97471E+08         0.00000E+00
    0.00000E+00         0.00000E+00        -0.75523E+08
 
   -0.75474E+08         0.34905E+06         0.00000E+00
    0.34905E+06        -0.97419E+08         0.00000E+00
    0.00000E+00         0.00000E+00        -0.75318E+08
 
   -0.75287E+08         0.34750E+06         0.00000E+00
    0.34750E+06        -0.97367E+08         0.00000E+00
    0.00000E+00         0.00000E+00        -0.75118E+08
 
   -0.75100E+08         0.34574E+06         0.00000E+00
    0.34574E+06        -0.97314E+08         0.00000E+00
    0.00000E+00         0.00000E+00        -0.74921E+08
 
   -0.74915E+08         0.34381E+06         0.00000E+00
    0.34381E+06        -0.97260E+08         0.00000E+00
    0.00000E+00         0.00000E+00        -0.74728E+08
 
   -0.74731E+08         0.34175E+06         0.00000E+00
    0.34175E+06        -0.97206E+08         0.00000E+00
    0.00000E+00         0.00000E+00        -0.74539E+08
 
   -0.74548E+08         0.33960E+06         0.00000E+00
    0.33960E+06        -0.97151E+08         0.00000E+00
    0.00000E+00         0.00000E+00        -0.74352E+08
 
   -0.74366E+08         0.33738E+06         0.00000E+00
    0.33738E+06        -0.97095E+08         0.00000E+00
    0.00000E+00         0.00000E+00        -0.74169E+08
 
   -0.74185E+08         0.33510E+06         0.00000E+00
    0.33510E+06        -0.97039E+08         0.00000E+00
    0.00000E+00         0.00000E+00        -0.73989E+08
 
   -0.74005E+08         0.33278E+06         0.00000E+00
    0.33278E+06        -0.96982E+08         0.00000E+00
    0.00000E+00         0.00000E+00        -0.73811E+08
 
   -0.73826E+08         0.33044E+06         0.00000E+00
    0.33044E+06        -0.96925E+08         0.00000E+00
    0.00000E+00         0.00000E+00        -0.73636E+08
 
   -0.73648E+08         0.32809E+06         0.00000E+00
    0.32809E+06        -0.96868E+08         0.00000E+00
    0.00000E+00         0.00000E+00        -0.73463E+08
 
   -0.73472E+08         0.32573E+06         0.00000E+00
    0.32573E+06        -0.96810E+08         0.00000E+00
    0.00000E+00         0.00000E+00        -0.73293E+08
 
   -0.73297E+08         0.32338E+06         0.00000E+00
    0.32338E+06        -0.96752E+08         0.00000E+00
    0.00000E+00         0.00000E+00        -0.73125E+08
 
   -0.73122E+08         0.32105E+06         0.00000E+00
    0.32105E+06        -0.96693E+08         0.00000E+00
    0.00000E+00         0.00000E+00        -0.72959E+08
 
   -0.72949E+08         0.31873E+06         0.00000E+00
    0.31873E+06        -0.96634E+08         0.00000E+00
    0.00000E+00         0.00000E+00        -0.72795E+08
 
   -0.72777E+08         0.31644E+06         0.00000E+00
    0.31644E+06        -0.96576E+08         0.00000E+00
    0.00000E+00         0.00000E+00        -0.72632E+08
 
   -0.72606E+08         0.31418E+06         0.00000E+00
    0.31418E+06        -0.96517E+08         0.00000E+00
    0.00000E+00         0.00000E+00        -0.72471E+08
 
   -0.72435E+08         0.31197E+06         0.00000E+00
    0.31197E+06        -0.96457E+08         0.00000E+00
    0.00000E+00         0.00000E+00        -0.72312E+08
 
   -0.72266E+08         0.30979E+06         0.00000E+00
    0.30979E+06        -0.96398E+08         0.00000E+00
    0.00000E+00         0.00000E+00        -0.72154E+08
 
   -0.72097E+08         0.30766E+06         0.00000E+00
    0.30766E+06        -0.96339E+08         0.00000E+00
    0.00000E+00         0.00000E+00        -0.71997E+08
 
   -0.71930E+08         0.30558E+06         0.00000E+00
    0.30558E+06        -0.96279E+08         0.00000E+00
    0.00000E+00         0.00000E+00        -0.71841E+08
 
   -0.71763E+08         0.30356E+06         0.00000E+00
    0.30356E+06        -0.96220E+08         0.00000E+00
    0.00000E+00         0.00000E+00        -0.71686E+08
 
   -0.71596E+08         0.30158E+06         0.00000E+00
    0.30158E+06        -0.96160E+08         0.00000E+00
    0.00000E+00         0.00000E+00        -0.71532E+08
 
   -0.71430E+08         0.29966E+06         0.00000E+00
    0.29966E+06        -0.96101E+08         0.00000E+00
    0.00000E+00         0.00000E+00        -0.71379E+08
 
   -0.71265E+08         0.29779E+06         0.00000E+00
    0.29779E+06        -0.96042E+08         0.00000E+00
    0.00000E+00         0.00000E+00        -0.71226E+08
 
   -0.71101E+08         0.29597E+06         0.00000E+00
    0.29597E+06        -0.95983E+08         0.00000E+00
    0.00000E+00         0.00000E+00        -0.71074E+08
 
   -0.70936E+08         0.29421E+06         0.00000E+00
    0.29421E+06        -0.95923E+08         0.00000E+00
    0.00000E+00         0.00000E+00        -0.70922E+08
 
   -0.70772E+08         0.29248E+06         0.00000E+00
    0.29248E+06        -0.95864E+08         0.00000E+00
    0.00000E+00         0.00000E+00        -0.70769E+08
 
   -0.70609E+08         0.29080E+06         0.00000E+00
    0.29080E+06        -0.95806E+08         0.00000E+00
    0.00000E+00         0.00000E+00        -0.70617E+08
 
   -0.70446E+08         0.28916E+06         0.00000E+00
    0.28916E+06        -0.95747E+08         0.00000E+00
    0.00000E+00         0.00000E+00        -0.70465E+08
 
   -0.70283E+08         0.28754E+06         0.00000E+00
    0.28754E+06        -0.95689E+08         0.00000E+00
    0.00000E+00         0.00000E+00        -0.70312E+08
 
   -0.70120E+08         0.28595E+06         0.00000E+00
    0.28595E+06        -0.95631E+08         0.00000E+00
    0.00000E+00         0.00000E+00        -0.70159E+08
 
   -0.69957E+08         0.28437E+06         0.00000E+00
    0.28437E+06        -0.95573E+08         0.00000E+00
    0.00000E+00         0.00000E+00        -0.70006E+08
 
   -0.69795E+08         0.28279E+06         0.00000E+00
    0.28279E+06        -0.95515E+08         0.00000E+00
    0.00000E+00         0.00000E+00        -0.69852E+08
 
   -0.69632E+08         0.28121E+06         0.00000E+00
    0.28121E+06        -0.95458E+08         0.00000E+00
    0.00000E+00         0.00000E+00        -0.69697E+08
 
   -0.69470E+08         0.27960E+06         0.00000E+00
    0.27960E+06        -0.95402E+08         0.00000E+00
    0.00000E+00         0.00000E+00        -0.69541E+08
 
   -0.69308E+08         0.27797E+06         0.00000E+00
    0.27797E+06        -0.95345E+08         0.00000E+00
    0.00000E+00         0.00000E+00        -0.69384E+08
 
   -0.69145E+08         0.27629E+06         0.00000E+00
    0.27629E+06        -0.95290E+08         0.00000E+00
    0.00000E+00         0.00000E+00        -0.69225E+08
 
   -0.68983E+08         0.27454E+06         0.00000E+00
    0.27454E+06        -0.95234E+08         0.00000E+00
    0.00000E+00         0.00000E+00        -0.69066E+08
 
   -0.68820E+08         0.27272E+06         0.00000E+00
    0.27272E+06        -0.95180E+08         0.00000E+00
    0.00000E+00         0.00000E+00        -0.68905E+08
 
   -0.68658E+08         0.27080E+06         0.00000E+00
    0.27080E+06        -0.95126E+08         0.00000E+00
    0.00000E+00         0.00000E+00        -0.68742E+08
 
   -0.68496E+08         0.26876E+06         0.00000E+00
    0.26876E+06        -0.95073E+08         0.00000E+00
    0.00000E+00         0.00000E+00        -0.68577E+08
 
   -0.68333E+08         0.26657E+06         0.00000E+00
    0.26657E+06        -0.95020E+08         0.00000E+00
    0.00000E+00         0.00000E+00        -0.68411E+08
 
   -0.68171E+08         0.26422E+06         0.00000E+00
    0.26422E+06        -0.94969E+08         0.00000E+00
    0.00000E+00         0.00000E+00        -0.68243E+08
 
   -0.68009E+08         0.26167E+06         0.00000E+00
    0.26167E+06        -0.94918E+08         0.00000E+00
    0.00000E+00         0.00000E+00        -0.68072E+08
 
   -0.67847E+08         0.25889E+06         0.00000E+00
    0.25889E+06        -0.94869E+08         0.00000E+00
    0.00000E+00         0.00000E+00        -0.67899E+08
 
   -0.67685E+08         0.25584E+06         0.00000E+00
    0.25584E+06        -0.94820E+08         0.00000E+00
    0.00000E+00         0.00000E+00        -0.67724E+08
 
   -0.67524E+08         0.25247E+06         0.00000E+00
    0.25247E+06        -0.94773E+08         0.00000E+00
    0.00000E+00         0.00000E+00        -0.67547E+08
 
   -0.67364E+08         0.24873E+06         0.00000E+00
    0.24873E+06        -0.94728E+08         0.00000E+00
    0.00000E+00         0.00000E+00        -0.67366E+08
 
   -0.67204E+08         0.24455E+06         0.00000E+00
    0.24455E+06        -0.94683E+08         0.00000E+00
    0.00000E+00         0.00000E+00        -0.67183E+08
 
   -0.67045E+08         0.23987E+06         0.00000E+00
    0.23987E+06        -0.94641E+08         0.00000E+00
    0.00000E+00         0.00000E+00        -0.66997E+08
 
   -0.66888E+08         0.23457E+06         0.00000E+00
    0.23457E+06        -0.94600E+08         0.00000E+00
    0.00000E+00         0.00000E+00        -0.66807E+08
 
   -0.66732E+08         0.22856E+06         0.00000E+00
    0.22856E+06        -0.94561E+08         0.00000E+00
    0.00000E+00         0.00000E+00        -0.66614E+08
 
   -0.66578E+08         0.22171E+06         0.00000E+00
    0.22171E+06        -0.94525E+08         0.00000E+00
    0.00000E+00         0.00000E+00        -0.66418E+08
 
   -0.66426E+08         0.21387E+06         0.00000E+00
    0.21387E+06        -0.94491E+08         0.00000E+00
    0.00000E+00         0.00000E+00        -0.66218E+08
 
   -0.66277E+08         0.20486E+06         0.00000E+00
    0.20486E+06        -0.94460E+08         0.00000E+00
    0.00000E+00         0.00000E+00        -0.66014E+08
 
   -0.66132E+08         0.19448E+06         0.00000E+00
    0.19448E+06        -0.94432E+08         0.00000E+00
    0.00000E+00         0.00000E+00        -0.65805E+08
 
   -0.65991E+08         0.18254E+06         0.00000E+00
    0.18254E+06        -0.94407E+08         0.00000E+00
    0.00000E+00         0.00000E+00        -0.65592E+08
 
   -0.65855E+08         0.16879E+06         0.00000E+00
    0.16879E+06        -0.94386E+08         0.00000E+00
    0.00000E+00         0.00000E+00        -0.65374E+08
 
   -0.65725E+08         0.15302E+06         0.00000E+00
    0.15302E+06        -0.94368E+08         0.00000E+00
    0.00000E+00         0.00000E+00        -0.65150E+08
 
   -0.65602E+08         0.13503E+06         0.00000E+00
    0.13503E+06        -0.94356E+08         0.00000E+00
    0.00000E+00         0.00000E+00        -0.64921E+08
 
   -0.65486E+08         0.11470E+06         0.00000E+00
    0.11470E+06        -0.94348E+08         0.00000E+00
    0.00000E+00         0.00000E+00        -0.64686E+08
 
   -0.65380E+08         0.91974E+05         0.00000E+00
    0.91974E+05        -0.94345E+08         0.00000E+00
    0.00000E+00         0.00000E+00        -0.64444E+08
 
   -0.65284E+08         0.66980E+05         0.00000E+00
    0.66980E+05        -0.94347E+08         0.00000E+00
    0.00000E+00         0.00000E+00        -0.64194E+08
 
   -0.65199E+08         0.40047E+05         0.00000E+00
    0.40047E+05        -0.94355E+08         0.00000E+00
    0.00000E+00         0.00000E+00        -0.63938E+08
 
   -0.65126E+08         0.11775E+05         0.00000E+00
    0.11775E+05        -0.94368E+08         0.00000E+00
    0.00000E+00         0.00000E+00        -0.63674E+08
 
   -0.65066E+08        -0.16928E+05         0.00000E+00
   -0.16928E+05        -0.94386E+08         0.00000E+00
    0.00000E+00         0.00000E+00        -0.63402E+08
 
   -0.65018E+08        -0.44846E+05         0.00000E+00
   -0.44846E+05        -0.94409E+08         0.00000E+00
    0.00000E+00         0.00000E+00        -0.63123E+08
 
   -0.64981E+08        -0.70347E+05         0.00000E+00
   -0.70347E+05        -0.94437E+08         0.00000E+00
    0.00000E+00         0.00000E+00        -0.62837E+08
 
   -0.64953E+08        -0.91552E+05         0.00000E+00
   -0.91552E+05        -0.94468E+08         0.00000E+00
    0.00000E+00         0.00000E+00        -0.62548E+08
 
   -0.64927E+08        -0.10416E+06         0.00000E+00
   -0.10416E+06        -0.94500E+08         0.00000E+00
    0.00000E+00         0.00000E+00        -0.62257E+08
 
   -0.64890E+08        -0.92081E+05         0.00000E+00
   -0.92081E+05        -0.94515E+08         0.00000E+00
    0.00000E+00         0.00000E+00        -0.61959E+08
 
   -0.64839E+08        -0.38010E+05         0.00000E+00
   -0.38010E+05        -0.94464E+08         0.00000E+00
    0.00000E+00         0.00000E+00        -0.61611E+08
 
   -0.79129E+08        -0.37232E+05         0.00000E+00
   -0.37232E+05        -0.97608E+08         0.00000E+00
    0.00000E+00         0.00000E+00        -0.85178E+08
 
   -0.79154E+08        -0.78010E+05         0.00000E+00
   -0.78010E+05        -0.97575E+08         0.00000E+00
    0.00000E+00         0.00000E+00        -0.84641E+08
 
   -0.79211E+08        -0.64076E+05         0.00000E+00
   -0.64076E+05        -0.97582E+08         0.00000E+00
    0.00000E+00         0.00000E+00        -0.84127E+08
 
   -0.79265E+08        -0.31480E+05         0.00000E+00
   -0.31480E+05        -0.97586E+08         0.00000E+00
    0.00000E+00         0.00000E+00        -0.83603E+08
 
   -0.79286E+08         0.82851E+03         0.00000E+00
    0.82851E+03        -0.97585E+08         0.00000E+00
    0.00000E+00         0.00000E+00        -0.83076E+08
 
   -0.79272E+08         0.31426E+05         0.00000E+00
    0.31426E+05        -0.97586E+08         0.00000E+00
    0.00000E+00         0.00000E+00        -0.82557E+08
 
   -0.79228E+08         0.58141E+05         0.00000E+00
    0.58141E+05        -0.97589E+08         0.00000E+00
    0.00000E+00         0.00000E+00        -0.82055E+08
 
   -0.79160E+08         0.80521E+05         0.00000E+00
    0.80521E+05        -0.97591E+08         0.00000E+00
    0.00000E+00         0.00000E+00        -0.81574E+08
 
   -0.79071E+08         0.10040E+06         0.00000E+00
    0.10040E+06        -0.97591E+08         0.00000E+00
    0.00000E+00         0.00000E+00        -0.81116E+08
 
   -0.78964E+08         0.12002E+06         0.00000E+00
    0.12002E+06        -0.97590E+08         0.00000E+00
    0.00000E+00         0.00000E+00        -0.80683E+08
 
   -0.78842E+08         0.14075E+06         0.00000E+00
    0.14075E+06        -0.97588E+08         0.00000E+00
    0.00000E+00         0.00000E+00        -0.80272E+08
 
   -0.78703E+08         0.16269E+06         0.00000E+00
    0.16269E+06        -0.97587E+08         0.00000E+00
    0.00000E+00         0.00000E+00        -0.79882E+08
 
   -0.78550E+08         0.18500E+06         0.00000E+00
    0.18500E+06        -0.97586E+08         0.00000E+00
    0.00000E+00         0.00000E+00        -0.79511E+08
 
   -0.78383E+08         0.20655E+06         0.00000E+00
    0.20655E+06        -0.97587E+08         0.00000E+00
    0.00000E+00         0.00000E+00        -0.79156E+08
 
   -0.78203E+08         0.22634E+06         0.00000E+00
    0.22634E+06        -0.97588E+08         0.00000E+00
    0.00000E+00         0.00000E+00        -0.78816E+08
 
   -0.78013E+08         0.24375E+06         0.00000E+00
    0.24375E+06        -0.97590E+08         0.00000E+00
    0.00000E+00         0.00000E+00        -0.78489E+08
 
   -0.77812E+08         0.25851E+06         0.00000E+00
    0.25851E+06        -0.97592E+08         0.00000E+00
    0.00000E+00         0.00000E+00        -0.78173E+08
 
   -0.77603E+08         0.27065E+06         0.00000E+00
    0.27065E+06        -0.97594E+08         0.00000E+00
    0.00000E+00         0.00000E+00        -0.77867E+08
 
   -0.77388E+08         0.28040E+06         0.00000E+00
    0.28040E+06        -0.97595E+08         0.00000E+00
    0.00000E+00         0.00000E+00        -0.77569E+08
 
   -0.77167E+08         0.28804E+06         0.00000E+00
    0.28804E+06        -0.97596E+08         0.00000E+00
    0.00000E+00         0.00000E+00        -0.77278E+08
 
   -0.76942E+08         0.29391E+06         0.00000E+00
    0.29391E+06        -0.97597E+08         0.00000E+00
    0.00000E+00         0.00000E+00        -0.76994E+08
 
   -0.76714E+08         0.29833E+06         0.00000E+00
    0.29833E+06        -0.97598E+08         0.00000E+00
    0.00000E+00         0.00000E+00        -0.76715E+08
 
   -0.76483E+08         0.30158E+06         0.00000E+00
    0.30158E+06        -0.97599E+08         0.00000E+00
    0.00000E+00         0.00000E+00        -0.76442E+08
 
   -0.76251E+08         0.30388E+06         0.00000E+00
    0.30388E+06        -0.97598E+08         0.00000E+00
    0.00000E+00         0.00000E+00        -0.76174E+08
 
   -0.76043E+08         0.30473E+06         0.00000E+00
    0.30473E+06        -0.97571E+08         0.00000E+00
    0.00000E+00         0.00000E+00        -0.75936E+08
 
   -0.75854E+08         0.30442E+06         0.00000E+00
    0.30442E+06        -0.97521E+08         0.00000E+00
    0.00000E+00         0.00000E+00        -0.75723E+08
 
   -0.75666E+08         0.30367E+06         0.00000E+00
    0.30367E+06        -0.97471E+08         0.00000E+00
    0.00000E+00         0.00000E+00        -0.75515E+08
 
   -0.75478E+08         0.30259E+06         0.00000E+00
    0.30259E+06        -0.97419E+08         0.00000E+00
    0.00000E+00         0.00000E+00        -0.75311E+08
 
   -0.75291E+08         0.30126E+06         0.00000E+00
    0.30126E+06        -0.97367E+08         0.00000E+00
    0.00000E+00         0.00000E+00        -0.75111E+08
 
   -0.75105E+08         0.29974E+06         0.00000E+00
    0.29974E+06        -0.97314E+08         0.00000E+00
    0.00000E+00         0.00000E+00        -0.74914E+08
 
   -0.74920E+08         0.29807E+06         0.00000E+00
    0.29807E+06        -0.97261E+08         0.00000E+00
    0.00000E+00         0.00000E+00        -0.74722E+08
 
   -0.74735E+08         0.29630E+06         0.00000E+00
    0.29630E+06        -0.97206E+08         0.00000E+00
    0.00000E+00         0.00000E+00        -0.74532E+08
 
   -0.74552E+08         0.29444E+06         0.00000E+00
    0.29444E+06        -0.97151E+08         0.00000E+00
    0.00000E+00         0.00000E+00        -0.74346E+08
 
   -0.74369E+08         0.29252E+06         0.00000E+00
    0.29252E+06        -0.97096E+08         0.00000E+00
    0.00000E+00         0.00000E+00        -0.74163E+08
 
   -0.74188E+08         0.29056E+06         0.00000E+00
    0.29056E+06        -0.97039E+08         0.00000E+00
    0.00000E+00         0.00000E+00        -0.73983E+08
 
   -0.74008E+08         0.28856E+06         0.00000E+00
    0.28856E+06        -0.96983E+08         0.00000E+00
    0.00000E+00         0.00000E+00        -0.73806E+08
 
   -0.73829E+08         0.28654E+06         0.00000E+00
    0.28654E+06        -0.96926E+08         0.00000E+00
    0.00000E+00         0.00000E+00        -0.73631E+08
 
   -0.73651E+08         0.28451E+06         0.00000E+00
    0.28451E+06        -0.96868E+08         0.00000E+00
    0.00000E+00         0.00000E+00        -0.73459E+08
 
   -0.73475E+08         0.28248E+06         0.00000E+00
    0.28248E+06        -0.96810E+08         0.00000E+00
    0.00000E+00         0.00000E+00        -0.73289E+08
 
   -0.73299E+08         0.28045E+06         0.00000E+00
    0.28045E+06        -0.96752E+08         0.00000E+00
    0.00000E+00         0.00000E+00        -0.73121E+08
 
   -0.73125E+08         0.27843E+06         0.00000E+00
    0.27843E+06        -0.96694E+08         0.00000E+00
    0.00000E+00         0.00000E+00        -0.72955E+08
 
   -0.72951E+08         0.27643E+06         0.00000E+00
    0.27643E+06        -0.96635E+08         0.00000E+00
    0.00000E+00         0.00000E+00        -0.72791E+08
 
   -0.72779E+08         0.27445E+06         0.00000E+00
    0.27445E+06        -0.96576E+08         0.00000E+00
    0.00000E+00         0.00000E+00        -0.72629E+08
 
   -0.72607E+08         0.27250E+06         0.00000E+00
    0.27250E+06        -0.96517E+08         0.00000E+00
    0.00000E+00         0.00000E+00        -0.72468E+08
 
   -0.72437E+08         0.27058E+06         0.00000E+00
    0.27058E+06        -0.96458E+08         0.00000E+00
    0.00000E+00         0.00000E+00        -0.72309E+08
 
   -0.72267E+08         0.26870E+06         0.00000E+00
    0.26870E+06        -0.96399E+08         0.00000E+00
    0.00000E+00         0.00000E+00        -0.72151E+08
 
   -0.72098E+08         0.26686E+06         0.00000E+00
    0.26686E+06        -0.96339E+08         0.00000E+00
    0.00000E+00         0.00000E+00        -0.71995E+08
 
   -0.71930E+08         0.26506E+06         0.00000E+00
    0.26506E+06        -0.96280E+08         0.00000E+00
    0.00000E+00         0.00000E+00        -0.71839E+08
 
   -0.71763E+08         0.26330E+06         0.00000E+00
    0.26330E+06        -0.96221E+08         0.00000E+00
    0.00000E+00         0.00000E+00        -0.71685E+08
 
   -0.71597E+08         0.26159E+06         0.00000E+00
    0.26159E+06        -0.96161E+08         0.00000E+00
    0.00000E+00         0.00000E+00        -0.71531E+08
 
   -0.71431E+08         0.25992E+06         0.00000E+00
    0.25992E+06        -0.96102E+08         0.00000E+00
    0.00000E+00         0.00000E+00        -0.71378E+08
 
   -0.71265E+08         0.25830E+06         0.00000E+00
    0.25830E+06        -0.96042E+08         0.00000E+00
    0.00000E+00         0.00000E+00        -0.71225E+08
 
   -0.71100E+08         0.25672E+06         0.00000E+00
    0.25672E+06        -0.95983E+08         0.00000E+00
    0.00000E+00         0.00000E+00        -0.71073E+08
 
   -0.70936E+08         0.25519E+06         0.00000E+00
    0.25519E+06        -0.95924E+08         0.00000E+00
    0.00000E+00         0.00000E+00        -0.70921E+08
 
   -0.70772E+08         0.25369E+06         0.00000E+00
    0.25369E+06        -0.95865E+08         0.00000E+00
    0.00000E+00         0.00000E+00        -0.70769E+08
 
   -0.70608E+08         0.25223E+06         0.00000E+00
    0.25223E+06        -0.95806E+08         0.00000E+00
    0.00000E+00         0.00000E+00        -0.70617E+08
 
   -0.70445E+08         0.25079E+06         0.00000E+00
    0.25079E+06        -0.95747E+08         0.00000E+00
    0.00000E+00         0.00000E+00        -0.70465E+08
 
   -0.70282E+08         0.24938E+06         0.00000E+00
    0.24938E+06        -0.95689E+08         0.00000E+00
    0.00000E+00         0.00000E+00        -0.70312E+08
 
   -0.70119E+08         0.24799E+06         0.00000E+00
    0.24799E+06        -0.95631E+08         0.00000E+00
    0.00000E+00         0.00000E+00        -0.70159E+08
 
   -0.69956E+08         0.24661E+06         0.00000E+00
    0.24661E+06        -0.95573E+08         0.00000E+00
    0.00000E+00         0.00000E+00        -0.70006E+08
 
   -0.69793E+08         0.24524E+06         0.00000E+00
    0.24524E+06        -0.95515E+08         0.00000E+00
    0.00000E+00         0.00000E+00        -0.69852E+08
 
   -0.69631E+08         0.24385E+06         0.00000E+00
    0.24385E+06        -0.95458E+08         0.00000E+00
    0.00000E+00         0.00000E+00        -0.69697E+08
 
   -0.69468E+08         0.24245E+06         0.00000E+00
    0.24245E+06        -0.95402E+08         0.00000E+00
    0.00000E+00         0.00000E+00        -0.69541E+08
 
   -0.69305E+08         0.24102E+06         0.00000E+00
    0.24102E+06        -0.95345E+08         0.00000E+00
    0.00000E+00         0.00000E+00        -0.69384E+08
 
   -0.69143E+08         0.23955E+06         0.00000E+00
    0.23955E+06        -0.95290E+08         0.00000E+00
    0.00000E+00         0.00000E+00        -0.69226E+08
 
   -0.68980E+08         0.23802E+06         0.00000E+00
    0.23802E+06        -0.95234E+08         0.00000E+00
    0.00000E+00         0.00000E+00        -0.69067E+08
 
   -0.68818E+08         0.23642E+06         0.00000E+00
    0.23642E+06        -0.95180E+08         0.00000E+00
    0.00000E+00         0.00000E+00        -0.68906E+08
 
   -0.68655E+08         0.23474E+06         0.00000E+00
    0.23474E+06        -0.95126E+08         0.00000E+00
    0.00000E+00         0.00000E+00        -0.68743E+08
 
   -0.68493E+08         0.23295E+06         0.00000E+00
    0.23295E+06        -0.95073E+08         0.00000E+00
    0.00000E+00         0.00000E+00        -0.68579E+08
 
   -0.68331E+08         0.23104E+06         0.00000E+00
    0.23104E+06        -0.95020E+08         0.00000E+00
    0.00000E+00         0.00000E+00        -0.68412E+08
 
   -0.68168E+08         0.22898E+06         0.00000E+00
    0.22898E+06        -0.94969E+08         0.00000E+00
    0.00000E+00         0.00000E+00        -0.68244E+08
 
   -0.68006E+08         0.22674E+06         0.00000E+00
    0.22674E+06        -0.94918E+08         0.00000E+00
    0.00000E+00         0.00000E+00        -0.68074E+08
 
   -0.67844E+08         0.22431E+06         0.00000E+00
    0.22431E+06        -0.94869E+08         0.00000E+00
    0.00000E+00         0.00000E+00        -0.67901E+08
 
   -0.67683E+08         0.22164E+06         0.00000E+00
    0.22164E+06        -0.94821E+08         0.00000E+00
    0.00000E+00         0.00000E+00        -0.67726E+08
 
   -0.67522E+08         0.21869E+06         0.00000E+00
    0.21869E+06        -0.94773E+08         0.00000E+00
    0.00000E+00         0.00000E+00        -0.67548E+08
 
   -0.67361E+08         0.21541E+06         0.00000E+00
    0.21541E+06        -0.94728E+08         0.00000E+00
    0.00000E+00         0.00000E+00        -0.67368E+08
 
   -0.67202E+08         0.21176E+06         0.00000E+00
    0.21176E+06        -0.94684E+08         0.00000E+00
    0.00000E+00         0.00000E+00        -0.67184E+08
 
   -0.67043E+08         0.20766E+06         0.00000E+00
    0.20766E+06        -0.94641E+08         0.00000E+00
    0.00000E+00         0.00000E+00        -0.66998E+08
 
   -0.66886E+08         0.20303E+06         0.00000E+00
    0.20303E+06        -0.94601E+08         0.00000E+00
    0.00000E+00         0.00000E+00        -0.66808E+08
 
   -0.66730E+08         0.19777E+06         0.00000E+00
    0.19777E+06        -0.94562E+08         0.00000E+00
    0.00000E+00         0.00000E+00        -0.66615E+08
 
   -0.66576E+08         0.19178E+06         0.00000E+00
    0.19178E+06        -0.94525E+08         0.00000E+00
    0.00000E+00         0.00000E+00        -0.66419E+08
 
   -0.66425E+08         0.18491E+06         0.00000E+00
    0.18491E+06        -0.94492E+08         0.00000E+00
    0.00000E+00         0.00000E+00        -0.66218E+08
 
   -0.66277E+08         0.17702E+06         0.00000E+00
    0.17702E+06        -0.94460E+08         0.00000E+00
    0.00000E+00         0.00000E+00        -0.66013E+08
 
   -0.66132E+08         0.16793E+06         0.00000E+00
    0.16793E+06        -0.94432E+08         0.00000E+00
    0.00000E+00         0.00000E+00        -0.65804E+08
 
   -0.65992E+08         0.15744E+06         0.00000E+00
    0.15744E+06        -0.94407E+08         0.00000E+00
    0.00000E+00         0.00000E+00        -0.65591E+08
 
   -0.65857E+08         0.14536E+06         0.00000E+00
    0.14536E+06        -0.94386E+08         0.00000E+00
    0.00000E+00         0.00000E+00        -0.65372E+08
 
   -0.65728E+08         0.13149E+06         0.00000E+00
    0.13149E+06        -0.94369E+08         0.00000E+00
    0.00000E+00         0.00000E+00        -0.65147E+08
 
   -0.65606E+08         0.11566E+06         0.00000E+00
    0.11566E+06        -0.94356E+08         0.00000E+00
    0.00000E+00         0.00000E+00        -0.64917E+08
 
   -0.65493E+08         0.97735E+05         0.00000E+00
    0.97735E+05        -0.94348E+08         0.00000E+00
    0.00000E+00         0.00000E+00        -0.64680E+08
 
   -0.65389E+08         0.77686E+05         0.00000E+00
    0.77686E+05        -0.94346E+08         0.00000E+00
    0.00000E+00         0.00000E+00        -0.64436E+08
 
   -0.65295E+08         0.55615E+05         0.00000E+00
    0.55615E+05        -0.94348E+08         0.00000E+00
    0.00000E+00         0.00000E+00        -0.64185E+08
 
   -0.65214E+08         0.31816E+05         0.00000E+00
    0.31816E+05        -0.94357E+08         0.00000E+00
    0.00000E+00         0.00000E+00        -0.63926E+08
 
   -0.65145E+08         0.68156E+04         0.00000E+00
    0.68156E+04        -0.94370E+08         0.00000E+00
    0.00000E+00         0.00000E+00        -0.63659E+08
 
   -0.65089E+08        -0.18591E+05         0.00000E+00
   -0.18591E+05        -0.94390E+08         0.00000E+00
    0.00000E+00         0.00000E+00        -0.63385E+08
 
   -0.65047E+08        -0.43376E+05         0.00000E+00
   -0.43376E+05        -0.94415E+08         0.00000E+00
    0.00000E+00         0.00000E+00        -0.63102E+08
 
   -0.65017E+08        -0.66179E+05         0.00000E+00
   -0.66179E+05        -0.94444E+08         0.00000E+00
    0.00000E+00         0.00000E+00        -0.62813E+08
 
   -0.64996E+08        -0.85495E+05         0.00000E+00
   -0.85495E+05        -0.94478E+08         0.00000E+00
    0.00000E+00         0.00000E+00        -0.62520E+08
 
   -0.64981E+08        -0.99044E+05         0.00000E+00
   -0.99044E+05        -0.94514E+08         0.00000E+00
    0.00000E+00         0.00000E+00        -0.62225E+08
 
   -0.64955E+08        -0.91814E+05         0.00000E+00
   -0.91814E+05        -0.94540E+08         0.00000E+00
    0.00000E+00         0.00000E+00        -0.61930E+08
 
   -0.64910E+08        -0.39442E+05         0.00000E+00
   -0.39442E+05        -0.94502E+08         0.00000E+00
    0.00000E+00         0.00000E+00        -0.61590E+08
 
   -0.79067E+08        -0.36390E+05         0.00000E+00
   -0.36390E+05        -0.97592E+08         0.00000E+00
    0.00000E+00         0.00000E+00        -0.85209E+08
 
   -0.79100E+08        -0.69368E+05         0.00000E+00
   -0.69368E+05        -0.97574E+08         0.00000E+00
    0.00000E+00         0.00000E+00        -0.84682E+08
 
   -0.79167E+08        -0.50298E+05         0.00000E+00
   -0.50298E+05        -0.97589E+08         0.00000E+00
    0.00000E+00         0.00000E+00        -0.84169E+08
 
   -0.79222E+08        -0.23157E+05         0.00000E+00
   -0.23157E+05        -0.97592E+08         0.00000E+00
    0.00000E+00         0.00000E+00        -0.83640E+08
 
   -0.79243E+08         0.15479E+04         0.00000E+00
    0.15479E+04        -0.97591E+08         0.00000E+00
    0.00000E+00         0.00000E+00        -0.83106E+08
 
   -0.79230E+08         0.25749E+05         0.00000E+00
    0.25749E+05        -0.97592E+08         0.00000E+00
    0.00000E+00         0.00000E+00        -0.82581E+08
 
   -0.79189E+08         0.47064E+05         0.00000E+00
    0.47064E+05        -0.97594E+08         0.00000E+00
    0.00000E+00         0.00000E+00        -0.82072E+08
 
   -0.79124E+08         0.65065E+05         0.00000E+00
    0.65065E+05        -0.97595E+08         0.00000E+00
    0.00000E+00         0.00000E+00        -0.81586E+08
 
   -0.79040E+08         0.81263E+05         0.00000E+00
    0.81263E+05        -0.97595E+08         0.00000E+00
    0.00000E+00         0.00000E+00        -0.81123E+08
 
   -0.78939E+08         0.97567E+05         0.00000E+00
    0.97567E+05        -0.97593E+08         0.00000E+00
    0.00000E+00         0.00000E+00        -0.80685E+08
 
   -0.78821E+08         0.11514E+06         0.00000E+00
    0.11514E+06        -0.97592E+08         0.00000E+00
    0.00000E+00         0.00000E+00        -0.80271E+08
 
   -0.78688E+08         0.13401E+06         0.00000E+00
    0.13401E+06        -0.97591E+08         0.00000E+00
    0.00000E+00         0.00000E+00        -0.79878E+08
 
   -0.78540E+08         0.15338E+06         0.00000E+00
    0.15338E+06        -0.97591E+08         0.00000E+00
    0.00000E+00         0.00000E+00        -0.79505E+08
 
   -0.78377E+08         0.17219E+06         0.00000E+00
    0.17219E+06        -0.97591E+08         0.00000E+00
    0.00000E+00         0.00000E+00        -0.79149E+08
 
   -0.78201E+08         0.18951E+06         0.00000E+00
    0.18951E+06        -0.97592E+08         0.00000E+00
    0.00000E+00         0.00000E+00        -0.78808E+08
 
   -0.78013E+08         0.20476E+06         0.00000E+00
    0.20476E+06        -0.97593E+08         0.00000E+00
    0.00000E+00         0.00000E+00        -0.78480E+08
 
   -0.77814E+08         0.21768E+06         0.00000E+00
    0.21768E+06        -0.97594E+08         0.00000E+00
    0.00000E+00         0.00000E+00        -0.78164E+08
 
   -0.77607E+08         0.22830E+06         0.00000E+00
    0.22830E+06        -0.97596E+08         0.00000E+00
    0.00000E+00         0.00000E+00        -0.77857E+08
 
   -0.77392E+08         0.23680E+06         0.00000E+00
    0.23680E+06        -0.97597E+08         0.00000E+00
    0.00000E+00         0.00000E+00        -0.77559E+08
 
   -0.77172E+08         0.24345E+06         0.00000E+00
    0.24345E+06        -0.97598E+08         0.00000E+00
    0.00000E+00         0.00000E+00        -0.77268E+08
 
   -0.76948E+08         0.24855E+06         0.00000E+00
    0.24855E+06        -0.97598E+08         0.00000E+00
    0.00000E+00         0.00000E+00        -0.76984E+08
 
   -0.76719E+08         0.25237E+06         0.00000E+00
    0.25237E+06        -0.97599E+08         0.00000E+00
    0.00000E+00         0.00000E+00        -0.76706E+08
 
   -0.76488E+08         0.25518E+06         0.00000E+00
    0.25518E+06        -0.97599E+08         0.00000E+00
    0.00000E+00         0.00000E+00        -0.76433E+08
 
   -0.76257E+08         0.25715E+06         0.00000E+00
    0.25715E+06        -0.97599E+08         0.00000E+00
    0.00000E+00         0.00000E+00        -0.76166E+08
 
   -0.76049E+08         0.25790E+06         0.00000E+00
    0.25790E+06        -0.97571E+08         0.00000E+00
    0.00000E+00         0.00000E+00        -0.75928E+08
 
   -0.75860E+08         0.25765E+06         0.00000E+00
    0.25765E+06        -0.97522E+08         0.00000E+00
    0.00000E+00         0.00000E+00        -0.75716E+08
 
   -0.75672E+08         0.25703E+06         0.00000E+00
    0.25703E+06        -0.97471E+08         0.00000E+00
    0.00000E+00         0.00000E+00        -0.75507E+08
 
   -0.75484E+08         0.25612E+06         0.00000E+00
    0.25612E+06        -0.97420E+08         0.00000E+00
    0.00000E+00         0.00000E+00        -0.75304E+08
 
   -0.75296E+08         0.25500E+06         0.00000E+00
    0.25500E+06        -0.97368E+08         0.00000E+00
    0.00000E+00         0.00000E+00        -0.75104E+08
 
   -0.75110E+08         0.25372E+06         0.00000E+00
    0.25372E+06        -0.97315E+08         0.00000E+00
    0.00000E+00         0.00000E+00        -0.74908E+08
 
   -0.74924E+08         0.25232E+06         0.00000E+00
    0.25232E+06        -0.97261E+08         0.00000E+00
    0.00000E+00         0.00000E+00        -0.74715E+08
 
   -0.74740E+08         0.25083E+06         0.00000E+00
    0.25083E+06        -0.97207E+08         0.00000E+00
    0.00000E+00         0.00000E+00        -0.74526E+08
 
   -0.74556E+08         0.24926E+06         0.00000E+00
    0.24926E+06        -0.97152E+08         0.00000E+00
    0.00000E+00         0.00000E+00        -0.74341E+08
 
   -0.74373E+08         0.24765E+06         0.00000E+00
    0.24765E+06        -0.97096E+08         0.00000E+00
    0.00000E+00         0.00000E+00        -0.74158E+08
 
   -0.74192E+08         0.24599E+06         0.00000E+00
    0.24599E+06        -0.97040E+08         0.00000E+00
    0.00000E+00         0.00000E+00        -0.73978E+08
 
   -0.74012E+08         0.24431E+06         0.00000E+00
    0.24431E+06        -0.96984E+08         0.00000E+00
    0.00000E+00         0.00000E+00        -0.73801E+08
 
   -0.73833E+08         0.24261E+06         0.00000E+00
    0.24261E+06        -0.96927E+08         0.00000E+00
    0.00000E+00         0.00000E+00        -0.73626E+08
 
   -0.73655E+08         0.24090E+06         0.00000E+00
    0.24090E+06        -0.96869E+08         0.00000E+00
    0.00000E+00         0.00000E+00        -0.73454E+08
 
   -0.73478E+08         0.23918E+06         0.00000E+00
    0.23918E+06        -0.96811E+08         0.00000E+00
    0.00000E+00         0.00000E+00        -0.73285E+08
 
   -0.73302E+08         0.23747E+06         0.00000E+00
    0.23747E+06        -0.96753E+08         0.00000E+00
    0.00000E+00         0.00000E+00        -0.73117E+08
 
   -0.73127E+08         0.23577E+06         0.00000E+00
    0.23577E+06        -0.96695E+08         0.00000E+00
    0.00000E+00         0.00000E+00        -0.72951E+08
 
   -0.72954E+08         0.23408E+06         0.00000E+00
    0.23408E+06        -0.96636E+08         0.00000E+00
    0.00000E+00         0.00000E+00        -0.72788E+08
 
   -0.72781E+08         0.23241E+06         0.00000E+00
    0.23241E+06        -0.96577E+08         0.00000E+00
    0.00000E+00         0.00000E+00        -0.72626E+08
 
   -0.72609E+08         0.23077E+06         0.00000E+00
    0.23077E+06        -0.96518E+08         0.00000E+00
    0.00000E+00         0.00000E+00        -0.72465E+08
 
   -0.72439E+08         0.22915E+06         0.00000E+00
    0.22915E+06        -0.96459E+08         0.00000E+00
    0.00000E+00         0.00000E+00        -0.72306E+08
 
   -0.72269E+08         0.22755E+06         0.00000E+00
    0.22755E+06        -0.96400E+08         0.00000E+00
    0.00000E+00         0.00000E+00        -0.72149E+08
 
   -0.72100E+08         0.22600E+06         0.00000E+00
    0.22600E+06        -0.96340E+08         0.00000E+00
    0.00000E+00         0.00000E+00        -0.71992E+08
 
   -0.71931E+08         0.22447E+06         0.00000E+00
    0.22447E+06        -0.96281E+08         0.00000E+00
    0.00000E+00         0.00000E+00        -0.71837E+08
 
   -0.71764E+08         0.22299E+06         0.00000E+00
    0.22299E+06        -0.96221E+08         0.00000E+00
    0.00000E+00         0.00000E+00        -0.71683E+08
 
   -0.71597E+08         0.22154E+06         0.00000E+00
    0.22154E+06        -0.96162E+08         0.00000E+00
    0.00000E+00         0.00000E+00        -0.71529E+08
 
   -0.71431E+08         0.22013E+06         0.00000E+00
    0.22013E+06        -0.96102E+08         0.00000E+00
    0.00000E+00         0.00000E+00        -0.71376E+08
 
   -0.71265E+08         0.21875E+06         0.00000E+00
    0.21875E+06        -0.96043E+08         0.00000E+00
    0.00000E+00         0.00000E+00        -0.71224E+08
 
   -0.71100E+08         0.21741E+06         0.00000E+00
    0.21741E+06        -0.95983E+08         0.00000E+00
    0.00000E+00         0.00000E+00        -0.71072E+08
 
   -0.70936E+08         0.21611E+06         0.00000E+00
    0.21611E+06        -0.95924E+08         0.00000E+00
    0.00000E+00         0.00000E+00        -0.70920E+08
 
   -0.70771E+08         0.21484E+06         0.00000E+00
    0.21484E+06        -0.95865E+08         0.00000E+00
    0.00000E+00         0.00000E+00        -0.70768E+08
 
   -0.70607E+08         0.21359E+06         0.00000E+00
    0.21359E+06        -0.95806E+08         0.00000E+00
    0.00000E+00         0.00000E+00        -0.70616E+08
 
   -0.70444E+08         0.21238E+06         0.00000E+00
    0.21238E+06        -0.95748E+08         0.00000E+00
    0.00000E+00         0.00000E+00        -0.70464E+08
 
   -0.70280E+08         0.21118E+06         0.00000E+00
    0.21118E+06        -0.95689E+08         0.00000E+00
    0.00000E+00         0.00000E+00        -0.70312E+08
 
   -0.70117E+08         0.20999E+06         0.00000E+00
    0.20999E+06        -0.95631E+08         0.00000E+00
    0.00000E+00         0.00000E+00        -0.70160E+08
 
   -0.69954E+08         0.20882E+06         0.00000E+00
    0.20882E+06        -0.95573E+08         0.00000E+00
    0.00000E+00         0.00000E+00        -0.70006E+08
 
   -0.69791E+08         0.20764E+06         0.00000E+00
    0.20764E+06        -0.95516E+08         0.00000E+00
    0.00000E+00         0.00000E+00        -0.69852E+08
 
   -0.69629E+08         0.20646E+06         0.00000E+00
    0.20646E+06        -0.95458E+08         0.00000E+00
    0.00000E+00         0.00000E+00        -0.69698E+08
 
   -0.69466E+08         0.20526E+06         0.00000E+00
    0.20526E+06        -0.95402E+08         0.00000E+00
    0.00000E+00         0.00000E+00        -0.69542E+08
 
   -0.69303E+08         0.20404E+06         0.00000E+00
    0.20404E+06        -0.95345E+08         0.00000E+00
    0.00000E+00         0.00000E+00        -0.69385E+08
 
   -0.69141E+08         0.20278E+06         0.00000E+00
    0.20278E+06        -0.95290E+08         0.00000E+00
    0.00000E+00         0.00000E+00        -0.69227E+08
 
   -0.68978E+08         0.20147E+06         0.00000E+00
    0.20147E+06        -0.95234E+08         0.00000E+00
    0.00000E+00         0.00000E+00        -0.69068E+08
 
   -0.68815E+08         0.20011E+06         0.00000E+00
    0.20011E+06        -0.95180E+08         0.00000E+00
    0.00000E+00         0.00000E+00        -0.68907E+08
 
   -0.68653E+08         0.19867E+06         0.00000E+00
    0.19867E+06        -0.95126E+08         0.00000E+00
    0.00000E+00         0.00000E+00        -0.68744E+08
 
   -0.68490E+08         0.19714E+06         0.00000E+00
    0.19714E+06        -0.95073E+08         0.00000E+00
    0.00000E+00         0.00000E+00        -0.68580E+08
 
   -0.68328E+08         0.19550E+06         0.00000E+00
    0.19550E+06        -0.95020E+08         0.00000E+00
    0.00000E+00         0.00000E+00        -0.68414E+08
 
   -0.68166E+08         0.19374E+06         0.00000E+00
    0.19374E+06        -0.94969E+08         0.00000E+00
    0.00000E+00         0.00000E+00        -0.68246E+08
 
   -0.68004E+08         0.19182E+06         0.00000E+00
    0.19182E+06        -0.94918E+08         0.00000E+00
    0.00000E+00         0.00000E+00        -0.68075E+08
 
   -0.67842E+08         0.18974E+06         0.00000E+00
    0.18974E+06        -0.94869E+08         0.00000E+00
    0.00000E+00         0.00000E+00        -0.67902E+08
 
   -0.67680E+08         0.18746E+06         0.00000E+00
    0.18746E+06        -0.94821E+08         0.00000E+00
    0.00000E+00         0.00000E+00        -0.67727E+08
 
   -0.67519E+08         0.18494E+06         0.00000E+00
    0.18494E+06        -0.94774E+08         0.00000E+00
    0.00000E+00         0.00000E+00        -0.67550E+08
 
   -0.67359E+08         0.18214E+06         0.00000E+00
    0.18214E+06        -0.94728E+08         0.00000E+00
    0.00000E+00         0.00000E+00        -0.67369E+08
 
   -0.67200E+08         0.17902E+06         0.00000E+00
    0.17902E+06        -0.94684E+08         0.00000E+00
    0.00000E+00         0.00000E+00        -0.67186E+08
 
   -0.67041E+08         0.17552E+06         0.00000E+00
    0.17552E+06        -0.94642E+08         0.00000E+00
    0.00000E+00         0.00000E+00        -0.66999E+08
 
   -0.66884E+08         0.17156E+06         0.00000E+00
    0.17156E+06        -0.94601E+08         0.00000E+00
    0.00000E+00         0.00000E+00        -0.66810E+08
 
   -0.66729E+08         0.16708E+06         0.00000E+00
    0.16708E+06        -0.94562E+08         0.00000E+00
    0.00000E+00         0.00000E+00        -0.66616E+08
 
   -0.66575E+08         0.16196E+06         0.00000E+00
    0.16196E+06        -0.94526E+08         0.00000E+00
    0.00000E+00         0.00000E+00        -0.66420E+08
 
   -0.66425E+08         0.15609E+06         0.00000E+00
    0.15609E+06        -0.94492E+08         0.00000E+00
    0.00000E+00         0.00000E+00        -0.66219E+08
 
   -0.66277E+08         0.14934E+06         0.00000E+00
    0.14934E+06        -0.94461E+08         0.00000E+00
    0.00000E+00         0.00000E+00        -0.66014E+08
 
   -0.66133E+08         0.14155E+06         0.00000E+00
    0.14155E+06        -0.94433E+08         0.00000E+00
    0.00000E+00         0.00000E+00        -0.65804E+08
 
   -0.65993E+08         0.13257E+06         0.00000E+00
    0.13257E+06        -0.94408E+08         0.00000E+00
    0.00000E+00         0.00000E+00        -0.65590E+08
 
   -0.65859E+08         0.12221E+06         0.00000E+00
    0.12221E+06        -0.94387E+08         0.00000E+00
    0.00000E+00         0.00000E+00        -0.65370E+08
 
   -0.65731E+08         0.11030E+06         0.00000E+00
    0.11030E+06        -0.94370E+08         0.00000E+00
    0.00000E+00         0.00000E+00        -0.65145E+08
 
   -0.65611E+08         0.96685E+05         0.00000E+00
    0.96685E+05        -0.94358E+08         0.00000E+00
    0.00000E+00         0.00000E+00        -0.64913E+08
 
   -0.65499E+08         0.81258E+05         0.00000E+00
    0.81258E+05        -0.94350E+08         0.00000E+00
    0.00000E+00         0.00000E+00        -0.64675E+08
 
   -0.65397E+08         0.63985E+05         0.00000E+00
    0.63985E+05        -0.94347E+08         0.00000E+00
    0.00000E+00         0.00000E+00        -0.64430E+08
 
   -0.65307E+08         0.44954E+05         0.00000E+00
    0.44954E+05        -0.94351E+08         0.00000E+00
    0.00000E+00         0.00000E+00        -0.64177E+08
 
   -0.65229E+08         0.24417E+05         0.00000E+00
    0.24417E+05        -0.94359E+08         0.00000E+00
    0.00000E+00         0.00000E+00        -0.63916E+08
 
   -0.65164E+08         0.28288E+04         0.00000E+00
    0.28288E+04        -0.94374E+08         0.00000E+00
    0.00000E+00         0.00000E+00        -0.63646E+08
 
   -0.65113E+08        -0.19131E+05         0.00000E+00
   -0.19131E+05        -0.94395E+08         0.00000E+00
    0.00000E+00         0.00000E+00        -0.63368E+08
 
   -0.65076E+08        -0.40599E+05         0.00000E+00
   -0.40599E+05        -0.94421E+08         0.00000E+00
    0.00000E+00         0.00000E+00        -0.63083E+08
 
   -0.65053E+08        -0.60518E+05         0.00000E+00
   -0.60518E+05        -0.94452E+08         0.00000E+00
    0.00000E+00         0.00000E+00        -0.62790E+08
 
   -0.65040E+08        -0.77530E+05         0.00000E+00
   -0.77530E+05        -0.94487E+08         0.00000E+00
    0.00000E+00         0.00000E+00        -0.62492E+08
 
   -0.65035E+08        -0.91211E+05         0.00000E+00
   -0.91211E+05        -0.94527E+08         0.00000E+00
    0.00000E+00         0.00000E+00        -0.62193E+08
 
   -0.65022E+08        -0.89670E+05         0.00000E+00
   -0.89670E+05        -0.94564E+08         0.00000E+00
    0.00000E+00         0.00000E+00        -0.61899E+08
 
   -0.64985E+08        -0.40761E+05         0.00000E+00
   -0.40761E+05        -0.94541E+08         0.00000E+00
    0.00000E+00         0.00000E+00        -0.61567E+08
 
   -0.79014E+08        -0.35563E+05         0.00000E+00
   -0.35563E+05        -0.97577E+08         0.00000E+00
    0.00000E+00         0.00000E+00        -0.85241E+08
 
   -0.79056E+08        -0.58384E+05         0.00000E+00
   -0.58384E+05        -0.97576E+08         0.00000E+00
    0.00000E+00         0.00000E+00        -0.84725E+08
 
   -0.79129E+08        -0.35317E+05         0.00000E+00
   -0.35317E+05        -0.97595E+08         0.00000E+00
    0.00000E+00         0.00000E+00        -0.84211E+08
 
   -0.79182E+08        -0.15455E+05         0.00000E+00
   -0.15455E+05        -0.97596E+08         0.00000E+00
    0.00000E+00         0.00000E+00        -0.83675E+08
 
   -0.79199E+08         0.20933E+04         0.00000E+00
    0.20933E+04        -0.97596E+08         0.00000E+00
    0.00000E+00         0.00000E+00        -0.83135E+08
 
   -0.79186E+08         0.20385E+05         0.00000E+00
    0.20385E+05        -0.97596E+08         0.00000E+00
    0.00000E+00         0.00000E+00        -0.82603E+08
 
   -0.79147E+08         0.36616E+05         0.00000E+00
    0.36616E+05        -0.97597E+08         0.00000E+00
    0.00000E+00         0.00000E+00        -0.82088E+08
 
   -0.79086E+08         0.50491E+05         0.00000E+00
    0.50491E+05        -0.97598E+08         0.00000E+00
    0.00000E+00         0.00000E+00        -0.81595E+08
 
   -0.79007E+08         0.63171E+05         0.00000E+00
    0.63171E+05        -0.97598E+08         0.00000E+00
    0.00000E+00         0.00000E+00        -0.81128E+08
 
   -0.78911E+08         0.76246E+05         0.00000E+00
    0.76246E+05        -0.97597E+08         0.00000E+00
    0.00000E+00         0.00000E+00        -0.80686E+08
 
   -0.78800E+08         0.90664E+05         0.00000E+00
    0.90664E+05        -0.97595E+08         0.00000E+00
    0.00000E+00         0.00000E+00        -0.80268E+08
 
   -0.78673E+08         0.10640E+06         0.00000E+00
    0.10640E+06        -0.97595E+08         0.00000E+00
    0.00000E+00         0.00000E+00        -0.79873E+08
 
   -0.78530E+08         0.12270E+06         0.00000E+00
    0.12270E+06        -0.97594E+08         0.00000E+00
    0.00000E+00         0.00000E+00        -0.79498E+08
 
   -0.78371E+08         0.13862E+06         0.00000E+00
    0.13862E+06        -0.97594E+08         0.00000E+00
    0.00000E+00         0.00000E+00        -0.79140E+08
 
   -0.78199E+08         0.15331E+06         0.00000E+00
    0.15331E+06        -0.97595E+08         0.00000E+00
    0.00000E+00         0.00000E+00        -0.78799E+08
 
   -0.78013E+08         0.16625E+06         0.00000E+00
    0.16625E+06        -0.97596E+08         0.00000E+00
    0.00000E+00         0.00000E+00        -0.78470E+08
 
   -0.77817E+08         0.17720E+06         0.00000E+00
    0.17720E+06        -0.97597E+08         0.00000E+00
    0.00000E+00         0.00000E+00        -0.78153E+08
 
   -0.77611E+08         0.18619E+06         0.00000E+00
    0.18619E+06        -0.97597E+08         0.00000E+00
    0.00000E+00         0.00000E+00        -0.77847E+08
 
   -0.77398E+08         0.19336E+06         0.00000E+00
    0.19336E+06        -0.97598E+08         0.00000E+00
    0.00000E+00         0.00000E+00        -0.77549E+08
 
   -0.77178E+08         0.19896E+06         0.00000E+00
    0.19896E+06        -0.97599E+08         0.00000E+00
    0.00000E+00         0.00000E+00        -0.77258E+08
 
   -0.76954E+08         0.20324E+06         0.00000E+00
    0.20324E+06        -0.97599E+08         0.00000E+00
    0.00000E+00         0.00000E+00        -0.76974E+08
 
   -0.76726E+08         0.20644E+06         0.00000E+00
    0.20644E+06        -0.97600E+08         0.00000E+00
    0.00000E+00         0.00000E+00        -0.76696E+08
 
   -0.76495E+08         0.20879E+06         0.00000E+00
    0.20879E+06        -0.97600E+08         0.00000E+00
    0.00000E+00         0.00000E+00        -0.76424E+08
 
   -0.76263E+08         0.21043E+06         0.00000E+00
    0.21043E+06        -0.97599E+08         0.00000E+00
    0.00000E+00         0.00000E+00        -0.76157E+08
 
   -0.76055E+08         0.21107E+06         0.00000E+00
    0.21107E+06        -0.97571E+08         0.00000E+00
    0.00000E+00         0.00000E+00        -0.75920E+08
 
   -0.75866E+08         0.21088E+06         0.00000E+00
    0.21088E+06        -0.97522E+08         0.00000E+00
    0.00000E+00         0.00000E+00        -0.75708E+08
 
   -0.75678E+08         0.21037E+06         0.00000E+00
    0.21037E+06        -0.97471E+08         0.00000E+00
    0.00000E+00         0.00000E+00        -0.75500E+08
 
   -0.75489E+08         0.20964E+06         0.00000E+00
    0.20964E+06        -0.97420E+08         0.00000E+00
    0.00000E+00         0.00000E+00        -0.75296E+08
 
   -0.75302E+08         0.20873E+06         0.00000E+00
    0.20873E+06        -0.97368E+08         0.00000E+00
    0.00000E+00         0.00000E+00        -0.75097E+08
 
   -0.75115E+08         0.20769E+06         0.00000E+00
    0.20769E+06        -0.97315E+08         0.00000E+00
    0.00000E+00         0.00000E+00        -0.74901E+08
 
   -0.74929E+08         0.20654E+06         0.00000E+00
    0.20654E+06        -0.97262E+08         0.00000E+00
    0.00000E+00         0.00000E+00        -0.74709E+08
 
   -0.74744E+08         0.20533E+06         0.00000E+00
    0.20533E+06        -0.97207E+08         0.00000E+00
    0.00000E+00         0.00000E+00        -0.74520E+08
 
   -0.74561E+08         0.20405E+06         0.00000E+00
    0.20405E+06        -0.97153E+08         0.00000E+00
    0.00000E+00         0.00000E+00        -0.74335E+08
 
   -0.74378E+08         0.20274E+06         0.00000E+00
    0.20274E+06        -0.97097E+08         0.00000E+00
    0.00000E+00         0.00000E+00        -0.74152E+08
 
   -0.74196E+08         0.20139E+06         0.00000E+00
    0.20139E+06        -0.97041E+08         0.00000E+00
    0.00000E+00         0.00000E+00        -0.73973E+08
 
   -0.74016E+08         0.20002E+06         0.00000E+00
    0.20002E+06        -0.96984E+08         0.00000E+00
    0.00000E+00         0.00000E+00        -0.73796E+08
 
   -0.73837E+08         0.19863E+06         0.00000E+00
    0.19863E+06        -0.96927E+08         0.00000E+00
    0.00000E+00         0.00000E+00        -0.73622E+08
 
   -0.73658E+08         0.19724E+06         0.00000E+00
    0.19724E+06        -0.96870E+08         0.00000E+00
    0.00000E+00         0.00000E+00        -0.73450E+08
 
   -0.73481E+08         0.19584E+06         0.00000E+00
    0.19584E+06        -0.96812E+08         0.00000E+00
    0.00000E+00         0.00000E+00        -0.73281E+08
 
   -0.73305E+08         0.19445E+06         0.00000E+00
    0.19445E+06        -0.96754E+08         0.00000E+00
    0.00000E+00         0.00000E+00        -0.73113E+08
 
   -0.73130E+08         0.19306E+06         0.00000E+00
    0.19306E+06        -0.96696E+08         0.00000E+00
    0.00000E+00         0.00000E+00        -0.72948E+08
 
   -0.72956E+08         0.19168E+06         0.00000E+00
    0.19168E+06        -0.96637E+08         0.00000E+00
    0.00000E+00         0.00000E+00        -0.72784E+08
 
   -0.72784E+08         0.19032E+06         0.00000E+00
    0.19032E+06        -0.96578E+08         0.00000E+00
    0.00000E+00         0.00000E+00        -0.72623E+08
 
   -0.72612E+08         0.18897E+06         0.00000E+00
    0.18897E+06        -0.96519E+08         0.00000E+00
    0.00000E+00         0.00000E+00        -0.72462E+08
 
   -0.72441E+08         0.18765E+06         0.00000E+00
    0.18765E+06        -0.96460E+08         0.00000E+00
    0.00000E+00         0.00000E+00        -0.72304E+08
 
   -0.72270E+08         0.18635E+06         0.00000E+00
    0.18635E+06        -0.96400E+08         0.00000E+00
    0.00000E+00         0.00000E+00        -0.72147E+08
 
   -0.72101E+08         0.18508E+06         0.00000E+00
    0.18508E+06        -0.96341E+08         0.00000E+00
    0.00000E+00         0.00000E+00        -0.71990E+08
 
   -0.71933E+08         0.18383E+06         0.00000E+00
    0.18383E+06        -0.96281E+08         0.00000E+00
    0.00000E+00         0.00000E+00        -0.71835E+08
 
   -0.71765E+08         0.18261E+06         0.00000E+00
    0.18261E+06        -0.96222E+08         0.00000E+00
    0.00000E+00         0.00000E+00        -0.71681E+08
 
   -0.71598E+08         0.18143E+06         0.00000E+00
    0.18143E+06        -0.96162E+08         0.00000E+00
    0.00000E+00         0.00000E+00        -0.71528E+08
 
   -0.71431E+08         0.18027E+06         0.00000E+00
    0.18027E+06        -0.96103E+08         0.00000E+00
    0.00000E+00         0.00000E+00        -0.71375E+08
 
   -0.71266E+08         0.17914E+06         0.00000E+00
    0.17914E+06        -0.96043E+08         0.00000E+00
    0.00000E+00         0.00000E+00        -0.71223E+08
 
   -0.71100E+08         0.17804E+06         0.00000E+00
    0.17804E+06        -0.95984E+08         0.00000E+00
    0.00000E+00         0.00000E+00        -0.71071E+08
 
   -0.70935E+08         0.17697E+06         0.00000E+00
    0.17697E+06        -0.95925E+08         0.00000E+00
    0.00000E+00         0.00000E+00        -0.70919E+08
 
   -0.70771E+08         0.17593E+06         0.00000E+00
    0.17593E+06        -0.95866E+08         0.00000E+00
    0.00000E+00         0.00000E+00        -0.70768E+08
 
   -0.70607E+08         0.17491E+06         0.00000E+00
    0.17491E+06        -0.95807E+08         0.00000E+00
    0.00000E+00         0.00000E+00        -0.70616E+08
 
   -0.70443E+08         0.17391E+06         0.00000E+00
    0.17391E+06        -0.95748E+08         0.00000E+00
    0.00000E+00         0.00000E+00        -0.70464E+08
 
   -0.70279E+08         0.17292E+06         0.00000E+00
    0.17292E+06        -0.95689E+08         0.00000E+00
    0.00000E+00         0.00000E+00        -0.70312E+08
 
   -0.70116E+08         0.17194E+06         0.00000E+00
    0.17194E+06        -0.95631E+08         0.00000E+00
    0.00000E+00         0.00000E+00        -0.70160E+08
 
   -0.69953E+08         0.17098E+06         0.00000E+00
    0.17098E+06        -0.95573E+08         0.00000E+00
    0.00000E+00         0.00000E+00        -0.70007E+08
 
   -0.69790E+08         0.17001E+06         0.00000E+00
    0.17001E+06        -0.95516E+08         0.00000E+00
    0.00000E+00         0.00000E+00        -0.69853E+08
 
   -0.69627E+08         0.16903E+06         0.00000E+00
    0.16903E+06        -0.95458E+08         0.00000E+00
    0.00000E+00         0.00000E+00        -0.69698E+08
 
   -0.69464E+08         0.16804E+06         0.00000E+00
    0.16804E+06        -0.95402E+08         0.00000E+00
    0.00000E+00         0.00000E+00        -0.69543E+08
 
   -0.69301E+08         0.16703E+06         0.00000E+00
    0.16703E+06        -0.95345E+08         0.00000E+00
    0.00000E+00         0.00000E+00        -0.69386E+08
 
   -0.69138E+08         0.16599E+06         0.00000E+00
    0.16599E+06        -0.95289E+08         0.00000E+00
    0.00000E+00         0.00000E+00        -0.69228E+08
 
   -0.68976E+08         0.16491E+06         0.00000E+00
    0.16491E+06        -0.95234E+08         0.00000E+00
    0.00000E+00         0.00000E+00        -0.69069E+08
 
   -0.68813E+08         0.16378E+06         0.00000E+00
    0.16378E+06        -0.95180E+08         0.00000E+00
    0.00000E+00         0.00000E+00        -0.68908E+08
 
   -0.68650E+08         0.16258E+06         0.00000E+00
    0.16258E+06        -0.95126E+08         0.00000E+00
    0.00000E+00         0.00000E+00        -0.68746E+08
 
   -0.68488E+08         0.16132E+06         0.00000E+00
    0.16132E+06        -0.95073E+08         0.00000E+00
    0.00000E+00         0.00000E+00        -0.68581E+08
 
   -0.68325E+08         0.15996E+06         0.00000E+00
    0.15996E+06        -0.95020E+08         0.00000E+00
    0.00000E+00         0.00000E+00        -0.68415E+08
 
   -0.68163E+08         0.15850E+06         0.00000E+00
    0.15850E+06        -0.94969E+08         0.00000E+00
    0.00000E+00         0.00000E+00        -0.68247E+08
 
   -0.68001E+08         0.15692E+06         0.00000E+00
    0.15692E+06        -0.94918E+08         0.00000E+00
    0.00000E+00         0.00000E+00        -0.68077E+08
 
   -0.67839E+08         0.15520E+06         0.00000E+00
    0.15520E+06        -0.94869E+08         0.00000E+00
    0.00000E+00         0.00000E+00        -0.67904E+08
 
   -0.67678E+08         0.15331E+06         0.00000E+00
    0.15331E+06        -0.94821E+08         0.00000E+00
    0.00000E+00         0.00000E+00        -0.67729E+08
 
   -0.67517E+08         0.15122E+06         0.00000E+00
    0.15122E+06        -0.94774E+08         0.00000E+00
    0.00000E+00         0.00000E+00        -0.67551E+08
 
   -0.67357E+08         0.14891E+06         0.00000E+00
    0.14891E+06        -0.94728E+08         0.00000E+00
    0.00000E+00         0.00000E+00        -0.67371E+08
 
   -0.67197E+08         0.14634E+06         0.00000E+00
    0.14634E+06        -0.94684E+08         0.00000E+00
    0.00000E+00         0.00000E+00        -0.67187E+08
 
   -0.67039E+08         0.14344E+06         0.00000E+00
    0.14344E+06        -0.94642E+08         0.00000E+00
    0.00000E+00         0.00000E+00        -0.67001E+08
 
   -0.66882E+08         0.14018E+06         0.00000E+00
    0.14018E+06        -0.94601E+08         0.00000E+00
    0.00000E+00         0.00000E+00        -0.66811E+08
 
   -0.66727E+08         0.13647E+06         0.00000E+00
    0.13647E+06        -0.94563E+08         0.00000E+00
    0.00000E+00         0.00000E+00        -0.66618E+08
 
   -0.66574E+08         0.13224E+06         0.00000E+00
    0.13224E+06        -0.94527E+08         0.00000E+00
    0.00000E+00         0.00000E+00        -0.66421E+08
 
   -0.66424E+08         0.12739E+06         0.00000E+00
    0.12739E+06        -0.94493E+08         0.00000E+00
    0.00000E+00         0.00000E+00        -0.66220E+08
 
   -0.66277E+08         0.12180E+06         0.00000E+00
    0.12180E+06        -0.94462E+08         0.00000E+00
    0.00000E+00         0.00000E+00        -0.66014E+08
 
   -0.66133E+08         0.11536E+06         0.00000E+00
    0.11536E+06        -0.94434E+08         0.00000E+00
    0.00000E+00         0.00000E+00        -0.65804E+08
 
   -0.65995E+08         0.10791E+06         0.00000E+00
    0.10791E+06        -0.94409E+08         0.00000E+00
    0.00000E+00         0.00000E+00        -0.65589E+08
 
   -0.65861E+08         0.99320E+05         0.00000E+00
    0.99320E+05        -0.94388E+08         0.00000E+00
    0.00000E+00         0.00000E+00        -0.65369E+08
 
   -0.65735E+08         0.89429E+05         0.00000E+00
    0.89429E+05        -0.94372E+08         0.00000E+00
    0.00000E+00         0.00000E+00        -0.65143E+08
 
   -0.65616E+08         0.78110E+05         0.00000E+00
    0.78110E+05        -0.94359E+08         0.00000E+00
    0.00000E+00         0.00000E+00        -0.64910E+08
 
   -0.65506E+08         0.65268E+05         0.00000E+00
    0.65268E+05        -0.94352E+08         0.00000E+00
    0.00000E+00         0.00000E+00        -0.64671E+08
 
   -0.65406E+08         0.50873E+05         0.00000E+00
    0.50873E+05        -0.94350E+08         0.00000E+00
    0.00000E+00         0.00000E+00        -0.64424E+08
 
   -0.65318E+08         0.34999E+05         0.00000E+00
    0.34999E+05        -0.94354E+08         0.00000E+00
    0.00000E+00         0.00000E+00        -0.64169E+08
 
   -0.65243E+08         0.17854E+05         0.00000E+00
    0.17854E+05        -0.94363E+08         0.00000E+00
    0.00000E+00         0.00000E+00        -0.63906E+08
 
   -0.65183E+08        -0.18021E+03         0.00000E+00
   -0.18021E+03        -0.94379E+08         0.00000E+00
    0.00000E+00         0.00000E+00        -0.63634E+08
 
   -0.65137E+08        -0.18546E+05         0.00000E+00
   -0.18546E+05        -0.94400E+08         0.00000E+00
    0.00000E+00         0.00000E+00        -0.63353E+08
 
   -0.65105E+08        -0.36516E+05         0.00000E+00
   -0.36516E+05        -0.94427E+08         0.00000E+00
    0.00000E+00         0.00000E+00        -0.63064E+08
 
   -0.65089E+08        -0.53361E+05         0.00000E+00
   -0.53361E+05        -0.94460E+08         0.00000E+00
    0.00000E+00         0.00000E+00        -0.62767E+08
 
   -0.65084E+08        -0.67772E+05         0.00000E+00
   -0.67772E+05        -0.94497E+08         0.00000E+00
    0.00000E+00         0.00000E+00        -0.62465E+08
 
   -0.65089E+08        -0.80396E+05         0.00000E+00
   -0.80396E+05        -0.94539E+08         0.00000E+00
    0.00000E+00         0.00000E+00        -0.62160E+08
 
   -0.65091E+08        -0.84943E+05         0.00000E+00
   -0.84943E+05        -0.94586E+08         0.00000E+00
    0.00000E+00         0.00000E+00        -0.61863E+08
 
   -0.65065E+08        -0.41970E+05         0.00000E+00
   -0.41970E+05        -0.94581E+08         0.00000E+00
    0.00000E+00         0.00000E+00        -0.61541E+08
 
   -0.78973E+08        -0.35159E+05         0.00000E+00
   -0.35159E+05        -0.97561E+08         0.00000E+00
    0.00000E+00         0.00000E+00        -0.85275E+08
 
   -0.79023E+08        -0.44878E+05         0.00000E+00
   -0.44878E+05        -0.97581E+08         0.00000E+00
    0.00000E+00         0.00000E+00        -0.84769E+08
 
   -0.79098E+08        -0.20441E+05         0.00000E+00
   -0.20441E+05        -0.97601E+08         0.00000E+00
    0.00000E+00         0.00000E+00        -0.84252E+08
 
   -0.79141E+08        -0.92740E+04         0.00000E+00
   -0.92740E+04        -0.97599E+08         0.00000E+00
    0.00000E+00         0.00000E+00        -0.83709E+08
 
   -0.79153E+08         0.22638E+04         0.00000E+00
    0.22638E+04        -0.97599E+08         0.00000E+00
    0.00000E+00         0.00000E+00        -0.83161E+08
 
   -0.79140E+08         0.15183E+05         0.00000E+00
    0.15183E+05        -0.97599E+08         0.00000E+00
    0.00000E+00         0.00000E+00        -0.82622E+08
 
   -0.79102E+08         0.26769E+05         0.00000E+00
    0.26769E+05        -0.97600E+08         0.00000E+00
    0.00000E+00         0.00000E+00        -0.82101E+08
 
   -0.79045E+08         0.36840E+05         0.00000E+00
    0.36840E+05        -0.97600E+08         0.00000E+00
    0.00000E+00         0.00000E+00        -0.81603E+08
 
   -0.78971E+08         0.46207E+05         0.00000E+00
    0.46207E+05        -0.97600E+08         0.00000E+00
    0.00000E+00         0.00000E+00        -0.81130E+08
 
   -0.78882E+08         0.56160E+05         0.00000E+00
    0.56160E+05        -0.97599E+08         0.00000E+00
    0.00000E+00         0.00000E+00        -0.80684E+08
 
   -0.78777E+08         0.67432E+05         0.00000E+00
    0.67432E+05        -0.97598E+08         0.00000E+00
    0.00000E+00         0.00000E+00        -0.80264E+08
 
   -0.78656E+08         0.79948E+05         0.00000E+00
    0.79948E+05        -0.97597E+08         0.00000E+00
    0.00000E+00         0.00000E+00        -0.79866E+08
 
   -0.78519E+08         0.93051E+05         0.00000E+00
    0.93051E+05        -0.97597E+08         0.00000E+00
    0.00000E+00         0.00000E+00        -0.79489E+08
 
   -0.78365E+08         0.10590E+06         0.00000E+00
    0.10590E+06        -0.97597E+08         0.00000E+00
    0.00000E+00         0.00000E+00        -0.79131E+08
 
   -0.78197E+08         0.11778E+06         0.00000E+00
    0.11778E+06        -0.97597E+08         0.00000E+00
    0.00000E+00         0.00000E+00        -0.78788E+08
 
   -0.78014E+08         0.12824E+06         0.00000E+00
    0.12824E+06        -0.97598E+08         0.00000E+00
    0.00000E+00         0.00000E+00        -0.78460E+08
 
   -0.77820E+08         0.13708E+06         0.00000E+00
    0.13708E+06        -0.97598E+08         0.00000E+00
    0.00000E+00         0.00000E+00        -0.78143E+08
 
   -0.77616E+08         0.14432E+06         0.00000E+00
    0.14432E+06        -0.97599E+08         0.00000E+00
    0.00000E+00         0.00000E+00        -0.77836E+08
 
   -0.77403E+08         0.15009E+06         0.00000E+00
    0.15009E+06        -0.97599E+08         0.00000E+00
    0.00000E+00         0.00000E+00        -0.77538E+08
 
   -0.77185E+08         0.15457E+06         0.00000E+00
    0.15457E+06        -0.97600E+08         0.00000E+00
    0.00000E+00         0.00000E+00        -0.77248E+08
 
   -0.76961E+08         0.15799E+06         0.00000E+00
    0.15799E+06        -0.97600E+08         0.00000E+00
    0.00000E+00         0.00000E+00        -0.76965E+08
 
   -0.76733E+08         0.16054E+06         0.00000E+00
    0.16054E+06        -0.97600E+08         0.00000E+00
    0.00000E+00         0.00000E+00        -0.76687E+08
 
   -0.76502E+08         0.16240E+06         0.00000E+00
    0.16240E+06        -0.97600E+08         0.00000E+00
    0.00000E+00         0.00000E+00        -0.76415E+08
 
   -0.76270E+08         0.16371E+06         0.00000E+00
    0.16371E+06        -0.97599E+08         0.00000E+00
    0.00000E+00         0.00000E+00        -0.76149E+08
 
   -0.76062E+08         0.16422E+06         0.00000E+00
    0.16422E+06        -0.97572E+08         0.00000E+00
    0.00000E+00         0.00000E+00        -0.75912E+08
 
   -0.75873E+08         0.16409E+06         0.00000E+00
    0.16409E+06        -0.97522E+08         0.00000E+00
    0.00000E+00         0.00000E+00        -0.75700E+08
 
   -0.75684E+08         0.16370E+06         0.00000E+00
    0.16370E+06        -0.97472E+08         0.00000E+00
    0.00000E+00         0.00000E+00        -0.75492E+08
 
   -0.75496E+08         0.16314E+06         0.00000E+00
    0.16314E+06        -0.97421E+08         0.00000E+00
    0.00000E+00         0.00000E+00        -0.75289E+08
 
   -0.75308E+08         0.16243E+06         0.00000E+00
    0.16243E+06        -0.97369E+08         0.00000E+00
    0.00000E+00         0.00000E+00        -0.75090E+08
 
   -0.75121E+08         0.16162E+06         0.00000E+00
    0.16162E+06        -0.97316E+08         0.00000E+00
    0.00000E+00         0.00000E+00        -0.74895E+08
 
   -0.74935E+08         0.16074E+06         0.00000E+00
    0.16074E+06        -0.97263E+08         0.00000E+00
    0.00000E+00         0.00000E+00        -0.74703E+08
 
   -0.74750E+08         0.15980E+06         0.00000E+00
    0.15980E+06        -0.97208E+08         0.00000E+00
    0.00000E+00         0.00000E+00        -0.74515E+08
 
   -0.74566E+08         0.15881E+06         0.00000E+00
    0.15881E+06        -0.97153E+08         0.00000E+00
    0.00000E+00         0.00000E+00        -0.74329E+08
 
   -0.74383E+08         0.15779E+06         0.00000E+00
    0.15779E+06        -0.97098E+08         0.00000E+00
    0.00000E+00         0.00000E+00        -0.74147E+08
 
   -0.74201E+08         0.15675E+06         0.00000E+00
    0.15675E+06        -0.97042E+08         0.00000E+00
    0.00000E+00         0.00000E+00        -0.73968E+08
 
   -0.74020E+08         0.15569E+06         0.00000E+00
    0.15569E+06        -0.96985E+08         0.00000E+00
    0.00000E+00         0.00000E+00        -0.73791E+08
 
   -0.73841E+08         0.15461E+06         0.00000E+00
    0.15461E+06        -0.96928E+08         0.00000E+00
    0.00000E+00         0.00000E+00        -0.73617E+08
 
   -0.73662E+08         0.15353E+06         0.00000E+00
    0.15353E+06        -0.96871E+08         0.00000E+00
    0.00000E+00         0.00000E+00        -0.73446E+08
 
   -0.73485E+08         0.15245E+06         0.00000E+00
    0.15245E+06        -0.96813E+08         0.00000E+00
    0.00000E+00         0.00000E+00        -0.73277E+08
 
   -0.73309E+08         0.15137E+06         0.00000E+00
    0.15137E+06        -0.96755E+08         0.00000E+00
    0.00000E+00         0.00000E+00        -0.73109E+08
 
   -0.73134E+08         0.15029E+06         0.00000E+00
    0.15029E+06        -0.96697E+08         0.00000E+00
    0.00000E+00         0.00000E+00        -0.72944E+08
 
   -0.72959E+08         0.14922E+06         0.00000E+00
    0.14922E+06        -0.96638E+08         0.00000E+00
    0.00000E+00         0.00000E+00        -0.72781E+08
 
   -0.72786E+08         0.14817E+06         0.00000E+00
    0.14817E+06        -0.96579E+08         0.00000E+00
    0.00000E+00         0.00000E+00        -0.72620E+08
 
   -0.72614E+08         0.14712E+06         0.00000E+00
    0.14712E+06        -0.96520E+08         0.00000E+00
    0.00000E+00         0.00000E+00        -0.72460E+08
 
   -0.72443E+08         0.14609E+06         0.00000E+00
    0.14609E+06        -0.96461E+08         0.00000E+00
    0.00000E+00         0.00000E+00        -0.72301E+08
 
   -0.72272E+08         0.14508E+06         0.00000E+00
    0.14508E+06        -0.96401E+08         0.00000E+00
    0.00000E+00         0.00000E+00        -0.72144E+08
 
   -0.72103E+08         0.14409E+06         0.00000E+00
    0.14409E+06        -0.96342E+08         0.00000E+00
    0.00000E+00         0.00000E+00        -0.71988E+08
 
   -0.71934E+08         0.14312E+06         0.00000E+00
    0.14312E+06        -0.96282E+08         0.00000E+00
    0.00000E+00         0.00000E+00        -0.71833E+08
 
   -0.71766E+08         0.14218E+06         0.00000E+00
    0.14218E+06        -0.96222E+08         0.00000E+00
    0.00000E+00         0.00000E+00        -0.71680E+08
 
   -0.71599E+08         0.14125E+06         0.00000E+00
    0.14125E+06        -0.96163E+08         0.00000E+00
    0.00000E+00         0.00000E+00        -0.71526E+08
 
   -0.71432E+08         0.14035E+06         0.00000E+00
    0.14035E+06        -0.96103E+08         0.00000E+00
    0.00000E+00         0.00000E+00        -0.71374E+08
 
   -0.71266E+08         0.13947E+06         0.00000E+00
    0.13947E+06        -0.96044E+08         0.00000E+00
    0.00000E+00         0.00000E+00        -0.71222E+08
 
   -0.71100E+08         0.13862E+06         0.00000E+00
    0.13862E+06        -0.95984E+08         0.00000E+00
    0.00000E+00         0.00000E+00        -0.71070E+08
 
   -0.70935E+08         0.13778E+06         0.00000E+00
    0.13778E+06        -0.95925E+08         0.00000E+00
    0.00000E+00         0.00000E+00        -0.70919E+08
 
   -0.70771E+08         0.13696E+06         0.00000E+00
    0.13696E+06        -0.95866E+08         0.00000E+00
    0.00000E+00         0.00000E+00        -0.70767E+08
 
   -0.70606E+08         0.13617E+06         0.00000E+00
    0.13617E+06        -0.95807E+08         0.00000E+00
    0.00000E+00         0.00000E+00        -0.70616E+08
 
   -0.70442E+08         0.13538E+06         0.00000E+00
    0.13538E+06        -0.95748E+08         0.00000E+00
    0.00000E+00         0.00000E+00        -0.70464E+08
 
   -0.70278E+08         0.13461E+06         0.00000E+00
    0.13461E+06        -0.95689E+08         0.00000E+00
    0.00000E+00         0.00000E+00        -0.70312E+08
 
   -0.70115E+08         0.13385E+06         0.00000E+00
    0.13385E+06        -0.95631E+08         0.00000E+00
    0.00000E+00         0.00000E+00        -0.70160E+08
 
   -0.69951E+08         0.13309E+06         0.00000E+00
    0.13309E+06        -0.95573E+08         0.00000E+00
    0.00000E+00         0.00000E+00        -0.70007E+08
 
   -0.69788E+08         0.13233E+06         0.00000E+00
    0.13233E+06        -0.95516E+08         0.00000E+00
    0.00000E+00         0.00000E+00        -0.69854E+08
 
   -0.69625E+08         0.13156E+06         0.00000E+00
    0.13156E+06        -0.95458E+08         0.00000E+00
    0.00000E+00         0.00000E+00        -0.69699E+08
 
   -0.69462E+08         0.13078E+06         0.00000E+00
    0.13078E+06        -0.95401E+08         0.00000E+00
    0.00000E+00         0.00000E+00        -0.69544E+08
 
   -0.69299E+08         0.12999E+06         0.00000E+00
    0.12999E+06        -0.95345E+08         0.00000E+00
    0.00000E+00         0.00000E+00        -0.69387E+08
 
   -0.69136E+08         0.12917E+06         0.00000E+00
    0.12917E+06        -0.95289E+08         0.00000E+00
    0.00000E+00         0.00000E+00        -0.69229E+08
 
   -0.68973E+08         0.12832E+06         0.00000E+00
    0.12832E+06        -0.95234E+08         0.00000E+00
    0.00000E+00         0.00000E+00        -0.69070E+08
 
   -0.68811E+08         0.12743E+06         0.00000E+00
    0.12743E+06        -0.95179E+08         0.00000E+00
    0.00000E+00         0.00000E+00        -0.68910E+08
 
   -0.68648E+08         0.12649E+06         0.00000E+00
    0.12649E+06        -0.95126E+08         0.00000E+00
    0.00000E+00         0.00000E+00        -0.68747E+08
 
   -0.68485E+08         0.12549E+06         0.00000E+00
    0.12549E+06        -0.95072E+08         0.00000E+00
    0.00000E+00         0.00000E+00        -0.68583E+08
 
   -0.68323E+08         0.12442E+06         0.00000E+00
    0.12442E+06        -0.95020E+08         0.00000E+00
    0.00000E+00         0.00000E+00        -0.68417E+08
 
   -0.68160E+08         0.12327E+06         0.00000E+00
    0.12327E+06        -0.94969E+08         0.00000E+00
    0.00000E+00         0.00000E+00        -0.68249E+08
 
   -0.67998E+08         0.12203E+06         0.00000E+00
    0.12203E+06        -0.94918E+08         0.00000E+00
    0.00000E+00         0.00000E+00        -0.68079E+08
 
   -0.67837E+08         0.12067E+06         0.00000E+00
    0.12067E+06        -0.94869E+08         0.00000E+00
    0.00000E+00         0.00000E+00        -0.67906E+08
 
   -0.67675E+08         0.11919E+06         0.00000E+00
    0.11919E+06        -0.94821E+08         0.00000E+00
    0.00000E+00         0.00000E+00        -0.67731E+08
 
   -0.67514E+08         0.11755E+06         0.00000E+00
    0.11755E+06        -0.94774E+08         0.00000E+00
    0.00000E+00         0.00000E+00        -0.67553E+08
 
   -0.67354E+08         0.11573E+06         0.00000E+00
    0.11573E+06        -0.94728E+08         0.00000E+00
    0.00000E+00         0.00000E+00        -0.67373E+08
 
   -0.67195E+08         0.11371E+06         0.00000E+00
    0.11371E+06        -0.94685E+08         0.00000E+00
    0.00000E+00         0.00000E+00        -0.67189E+08
 
   -0.67037E+08         0.11143E+06         0.00000E+00
    0.11143E+06        -0.94642E+08         0.00000E+00
    0.00000E+00         0.00000E+00        -0.67003E+08
 
   -0.66881E+08         0.10887E+06         0.00000E+00
    0.10887E+06        -0.94602E+08         0.00000E+00
    0.00000E+00         0.00000E+00        -0.66813E+08
 
   -0.66726E+08         0.10596E+06         0.00000E+00
    0.10596E+06        -0.94564E+08         0.00000E+00
    0.00000E+00         0.00000E+00        -0.66619E+08
 
   -0.66573E+08         0.10263E+06         0.00000E+00
    0.10263E+06        -0.94528E+08         0.00000E+00
    0.00000E+00         0.00000E+00        -0.66422E+08
 
   -0.66423E+08         0.98817E+05         0.00000E+00
    0.98817E+05        -0.94494E+08         0.00000E+00
    0.00000E+00         0.00000E+00        -0.66221E+08
 
   -0.66277E+08         0.94424E+05         0.00000E+00
    0.94424E+05        -0.94463E+08         0.00000E+00
    0.00000E+00         0.00000E+00        -0.66015E+08
 
   -0.66134E+08         0.89351E+05         0.00000E+00
    0.89351E+05        -0.94435E+08         0.00000E+00
    0.00000E+00         0.00000E+00        -0.65805E+08
 
   -0.65996E+08         0.83484E+05         0.00000E+00
    0.83484E+05        -0.94411E+08         0.00000E+00
    0.00000E+00         0.00000E+00        -0.65590E+08
 
   -0.65863E+08         0.76703E+05         0.00000E+00
    0.76703E+05        -0.94390E+08         0.00000E+00
    0.00000E+00         0.00000E+00        -0.65369E+08
 
   -0.65738E+08         0.68890E+05         0.00000E+00
    0.68890E+05        -0.94374E+08         0.00000E+00
    0.00000E+00         0.00000E+00        -0.65142E+08
 
   -0.65620E+08         0.59937E+05         0.00000E+00
    0.59937E+05        -0.94362E+08         0.00000E+00
    0.00000E+00         0.00000E+00        -0.64908E+08
 
   -0.65512E+08         0.49767E+05         0.00000E+00
    0.49767E+05        -0.94355E+08         0.00000E+00
    0.00000E+00         0.00000E+00        -0.64668E+08
 
   -0.65415E+08         0.38354E+05         0.00000E+00
    0.38354E+05        -0.94353E+08         0.00000E+00
    0.00000E+00         0.00000E+00        -0.64419E+08
 
   -0.65330E+08         0.25754E+05         0.00000E+00
    0.25754E+05        -0.94358E+08         0.00000E+00
    0.00000E+00         0.00000E+00        -0.64163E+08
 
   -0.65258E+08         0.12132E+05         0.00000E+00
    0.12132E+05        -0.94368E+08         0.00000E+00
    0.00000E+00         0.00000E+00        -0.63897E+08
 
   -0.65202E+08        -0.22038E+04         0.00000E+00
   -0.22038E+04        -0.94384E+08         0.00000E+00
    0.00000E+00         0.00000E+00        -0.63623E+08
 
   -0.65160E+08        -0.16827E+05         0.00000E+00
   -0.16827E+05        -0.94407E+08         0.00000E+00
    0.00000E+00         0.00000E+00        -0.63339E+08
 
   -0.65135E+08        -0.31131E+05         0.00000E+00
   -0.31131E+05        -0.94435E+08         0.00000E+00
    0.00000E+00         0.00000E+00        -0.63046E+08
 
   -0.65125E+08        -0.44666E+05         0.00000E+00
   -0.44666E+05        -0.94469E+08         0.00000E+00
    0.00000E+00         0.00000E+00        -0.62745E+08
 
   -0.65128E+08        -0.56389E+05         0.00000E+00
   -0.56389E+05        -0.94508E+08         0.00000E+00
    0.00000E+00         0.00000E+00        -0.62438E+08
 
   -0.65143E+08        -0.66526E+05         0.00000E+00
   -0.66526E+05        -0.94551E+08         0.00000E+00
    0.00000E+00         0.00000E+00        -0.62127E+08
 
   -0.65161E+08        -0.76588E+05         0.00000E+00
   -0.76588E+05        -0.94604E+08         0.00000E+00
    0.00000E+00         0.00000E+00        -0.61825E+08
 
   -0.65151E+08        -0.43082E+05         0.00000E+00
   -0.43082E+05        -0.94621E+08         0.00000E+00
    0.00000E+00         0.00000E+00        -0.61511E+08
 
   -0.78950E+08        -0.36032E+05         0.00000E+00
   -0.36032E+05        -0.97545E+08         0.00000E+00
    0.00000E+00         0.00000E+00        -0.85312E+08
 
   -0.79007E+08        -0.28821E+05         0.00000E+00
   -0.28821E+05        -0.97590E+08         0.00000E+00
    0.00000E+00         0.00000E+00        -0.84815E+08
 
   -0.79071E+08        -0.78468E+04         0.00000E+00
   -0.78468E+04        -0.97604E+08         0.00000E+00
    0.00000E+00         0.00000E+00        -0.84292E+08
 
   -0.79100E+08        -0.52980E+04         0.00000E+00
   -0.52980E+04        -0.97601E+08         0.00000E+00
    0.00000E+00         0.00000E+00        -0.83740E+08
 
   -0.79105E+08         0.19306E+04         0.00000E+00
    0.19306E+04        -0.97602E+08         0.00000E+00
    0.00000E+00         0.00000E+00        -0.83185E+08
 
   -0.79089E+08         0.99889E+04         0.00000E+00
    0.99889E+04        -0.97602E+08         0.00000E+00
    0.00000E+00         0.00000E+00        -0.82639E+08
 
   -0.79054E+08         0.17537E+05         0.00000E+00
    0.17537E+05        -0.97602E+08         0.00000E+00
    0.00000E+00         0.00000E+00        -0.82111E+08
 
   -0.79001E+08         0.24167E+05         0.00000E+00
    0.24167E+05        -0.97602E+08         0.00000E+00
    0.00000E+00         0.00000E+00        -0.81607E+08
 
   -0.78933E+08         0.30477E+05         0.00000E+00
    0.30477E+05        -0.97602E+08         0.00000E+00
    0.00000E+00         0.00000E+00        -0.81130E+08
 
   -0.78850E+08         0.37437E+05         0.00000E+00
    0.37437E+05        -0.97601E+08         0.00000E+00
    0.00000E+00         0.00000E+00        -0.80681E+08
 
   -0.78752E+08         0.45569E+05         0.00000E+00
    0.45569E+05        -0.97600E+08         0.00000E+00
    0.00000E+00         0.00000E+00        -0.80257E+08
 
   -0.78639E+08         0.54775E+05         0.00000E+00
    0.54775E+05        -0.97600E+08         0.00000E+00
    0.00000E+00         0.00000E+00        -0.79858E+08
 
   -0.78508E+08         0.64508E+05         0.00000E+00
    0.64508E+05        -0.97599E+08         0.00000E+00
    0.00000E+00         0.00000E+00        -0.79479E+08
 
   -0.78359E+08         0.74093E+05         0.00000E+00
    0.74093E+05        -0.97599E+08         0.00000E+00
    0.00000E+00         0.00000E+00        -0.79120E+08
 
   -0.78195E+08         0.82963E+05         0.00000E+00
    0.82963E+05        -0.97599E+08         0.00000E+00
    0.00000E+00         0.00000E+00        -0.78777E+08
 
   -0.78016E+08         0.90763E+05         0.00000E+00
    0.90763E+05        -0.97600E+08         0.00000E+00
    0.00000E+00         0.00000E+00        -0.78448E+08
 
   -0.77824E+08         0.97344E+05         0.00000E+00
    0.97344E+05        -0.97600E+08         0.00000E+00
    0.00000E+00         0.00000E+00        -0.78131E+08
 
   -0.77621E+08         0.10272E+06         0.00000E+00
    0.10272E+06        -0.97600E+08         0.00000E+00
    0.00000E+00         0.00000E+00        -0.77825E+08
 
   -0.77410E+08         0.10698E+06         0.00000E+00
    0.10698E+06        -0.97600E+08         0.00000E+00
    0.00000E+00         0.00000E+00        -0.77527E+08
 
   -0.77192E+08         0.11029E+06         0.00000E+00
    0.11029E+06        -0.97600E+08         0.00000E+00
    0.00000E+00         0.00000E+00        -0.77238E+08
 
   -0.76968E+08         0.11280E+06         0.00000E+00
    0.11280E+06        -0.97600E+08         0.00000E+00
    0.00000E+00         0.00000E+00        -0.76955E+08
 
   -0.76741E+08         0.11467E+06         0.00000E+00
    0.11467E+06        -0.97600E+08         0.00000E+00
    0.00000E+00         0.00000E+00        -0.76678E+08
 
   -0.76510E+08         0.11603E+06         0.00000E+00
    0.11603E+06        -0.97601E+08         0.00000E+00
    0.00000E+00         0.00000E+00        -0.76406E+08
 
   -0.76278E+08         0.11698E+06         0.00000E+00
    0.11698E+06        -0.97599E+08         0.00000E+00
    0.00000E+00         0.00000E+00        -0.76140E+08
 
   -0.76070E+08         0.11737E+06         0.00000E+00
    0.11737E+06        -0.97572E+08         0.00000E+00
    0.00000E+00         0.00000E+00        -0.75904E+08
 
   -0.75880E+08         0.11728E+06         0.00000E+00
    0.11728E+06        -0.97523E+08         0.00000E+00
    0.00000E+00         0.00000E+00        -0.75692E+08
 
   -0.75691E+08         0.11701E+06         0.00000E+00
    0.11701E+06        -0.97473E+08         0.00000E+00
    0.00000E+00         0.00000E+00        -0.75485E+08
 
   -0.75502E+08         0.11661E+06         0.00000E+00
    0.11661E+06        -0.97422E+08         0.00000E+00
    0.00000E+00         0.00000E+00        -0.75282E+08
 
   -0.75314E+08         0.11611E+06         0.00000E+00
    0.11611E+06        -0.97370E+08         0.00000E+00
    0.00000E+00         0.00000E+00        -0.75083E+08
 
   -0.75127E+08         0.11553E+06         0.00000E+00
    0.11553E+06        -0.97317E+08         0.00000E+00
    0.00000E+00         0.00000E+00        -0.74888E+08
 
   -0.74941E+08         0.11490E+06         0.00000E+00
    0.11490E+06        -0.97263E+08         0.00000E+00
    0.00000E+00         0.00000E+00        -0.74697E+08
 
   -0.74756E+08         0.11423E+06         0.00000E+00
    0.11423E+06        -0.97209E+08         0.00000E+00
    0.00000E+00         0.00000E+00        -0.74509E+08
 
   -0.74571E+08         0.11353E+06         0.00000E+00
    0.11353E+06        -0.97154E+08         0.00000E+00
    0.00000E+00         0.00000E+00        -0.74324E+08
 
   -0.74388E+08         0.11280E+06         0.00000E+00
    0.11280E+06        -0.97099E+08         0.00000E+00
    0.00000E+00         0.00000E+00        -0.74142E+08
 
   -0.74206E+08         0.11206E+06         0.00000E+00
    0.11206E+06        -0.97043E+08         0.00000E+00
    0.00000E+00         0.00000E+00        -0.73963E+08
 
   -0.74025E+08         0.11131E+06         0.00000E+00
    0.11131E+06        -0.96987E+08         0.00000E+00
    0.00000E+00         0.00000E+00        -0.73787E+08
 
   -0.73845E+08         0.11054E+06         0.00000E+00
    0.11054E+06        -0.96930E+08         0.00000E+00
    0.00000E+00         0.00000E+00        -0.73613E+08
 
   -0.73667E+08         0.10978E+06         0.00000E+00
    0.10978E+06        -0.96872E+08         0.00000E+00
    0.00000E+00         0.00000E+00        -0.73442E+08
 
   -0.73489E+08         0.10900E+06         0.00000E+00
    0.10900E+06        -0.96814E+08         0.00000E+00
    0.00000E+00         0.00000E+00        -0.73273E+08
 
   -0.73312E+08         0.10823E+06         0.00000E+00
    0.10823E+06        -0.96756E+08         0.00000E+00
    0.00000E+00         0.00000E+00        -0.73106E+08
 
   -0.73137E+08         0.10747E+06         0.00000E+00
    0.10747E+06        -0.96698E+08         0.00000E+00
    0.00000E+00         0.00000E+00        -0.72941E+08
 
   -0.72963E+08         0.10671E+06         0.00000E+00
    0.10671E+06        -0.96639E+08         0.00000E+00
    0.00000E+00         0.00000E+00        -0.72778E+08
 
   -0.72789E+08         0.10595E+06         0.00000E+00
    0.10595E+06        -0.96580E+08         0.00000E+00
    0.00000E+00         0.00000E+00        -0.72617E+08
 
   -0.72617E+08         0.10521E+06         0.00000E+00
    0.10521E+06        -0.96521E+08         0.00000E+00
    0.00000E+00         0.00000E+00        -0.72457E+08
 
   -0.72445E+08         0.10447E+06         0.00000E+00
    0.10447E+06        -0.96461E+08         0.00000E+00
    0.00000E+00         0.00000E+00        -0.72299E+08
 
   -0.72275E+08         0.10375E+06         0.00000E+00
    0.10375E+06        -0.96402E+08         0.00000E+00
    0.00000E+00         0.00000E+00        -0.72142E+08
 
   -0.72105E+08         0.10304E+06         0.00000E+00
    0.10304E+06        -0.96342E+08         0.00000E+00
    0.00000E+00         0.00000E+00        -0.71986E+08
 
   -0.71936E+08         0.10235E+06         0.00000E+00
    0.10235E+06        -0.96283E+08         0.00000E+00
    0.00000E+00         0.00000E+00        -0.71832E+08
 
   -0.71767E+08         0.10167E+06         0.00000E+00
    0.10167E+06        -0.96223E+08         0.00000E+00
    0.00000E+00         0.00000E+00        -0.71678E+08
 
   -0.71600E+08         0.10101E+06         0.00000E+00
    0.10101E+06        -0.96163E+08         0.00000E+00
    0.00000E+00         0.00000E+00        -0.71525E+08
 
   -0.71433E+08         0.10037E+06         0.00000E+00
    0.10037E+06        -0.96104E+08         0.00000E+00
    0.00000E+00         0.00000E+00        -0.71373E+08
 
   -0.71267E+08         0.99736E+05         0.00000E+00
    0.99736E+05        -0.96044E+08         0.00000E+00
    0.00000E+00         0.00000E+00        -0.71221E+08
 
   -0.71101E+08         0.99123E+05         0.00000E+00
    0.99123E+05        -0.95985E+08         0.00000E+00
    0.00000E+00         0.00000E+00        -0.71069E+08
 
   -0.70935E+08         0.98523E+05         0.00000E+00
    0.98523E+05        -0.95925E+08         0.00000E+00
    0.00000E+00         0.00000E+00        -0.70918E+08
 
   -0.70770E+08         0.97938E+05         0.00000E+00
    0.97938E+05        -0.95866E+08         0.00000E+00
    0.00000E+00         0.00000E+00        -0.70767E+08
 
   -0.70606E+08         0.97364E+05         0.00000E+00
    0.97364E+05        -0.95807E+08         0.00000E+00
    0.00000E+00         0.00000E+00        -0.70616E+08
 
   -0.70441E+08         0.96801E+05         0.00000E+00
    0.96801E+05        -0.95748E+08         0.00000E+00
    0.00000E+00         0.00000E+00        -0.70464E+08
 
   -0.70277E+08         0.96246E+05         0.00000E+00
    0.96246E+05        -0.95689E+08         0.00000E+00
    0.00000E+00         0.00000E+00        -0.70313E+08
 
   -0.70114E+08         0.95696E+05         0.00000E+00
    0.95696E+05        -0.95631E+08         0.00000E+00
    0.00000E+00         0.00000E+00        -0.70161E+08
 
   -0.69950E+08         0.95148E+05         0.00000E+00
    0.95148E+05        -0.95573E+08         0.00000E+00
    0.00000E+00         0.00000E+00        -0.70008E+08
 
   -0.69787E+08         0.94600E+05         0.00000E+00
    0.94600E+05        -0.95515E+08         0.00000E+00
    0.00000E+00         0.00000E+00        -0.69854E+08
 
   -0.69623E+08         0.94047E+05         0.00000E+00
    0.94047E+05        -0.95458E+08         0.00000E+00
    0.00000E+00         0.00000E+00        -0.69700E+08
 
   -0.69460E+08         0.93485E+05         0.00000E+00
    0.93485E+05        -0.95401E+08         0.00000E+00
    0.00000E+00         0.00000E+00        -0.69545E+08
 
   -0.69297E+08         0.92911E+05         0.00000E+00
    0.92911E+05        -0.95345E+08         0.00000E+00
    0.00000E+00         0.00000E+00        -0.69388E+08
 
   -0.69134E+08         0.92318E+05         0.00000E+00
    0.92318E+05        -0.95289E+08         0.00000E+00
    0.00000E+00         0.00000E+00        -0.69231E+08
 
   -0.68971E+08         0.91703E+05         0.00000E+00
    0.91703E+05        -0.95234E+08         0.00000E+00
    0.00000E+00         0.00000E+00        -0.69072E+08
 
   -0.68808E+08         0.91058E+05         0.00000E+00
    0.91058E+05        -0.95179E+08         0.00000E+00
    0.00000E+00         0.00000E+00        -0.68911E+08
 
   -0.68645E+08         0.90378E+05         0.00000E+00
    0.90378E+05        -0.95125E+08         0.00000E+00
    0.00000E+00         0.00000E+00        -0.68749E+08
 
   -0.68483E+08         0.89655E+05         0.00000E+00
    0.89655E+05        -0.95072E+08         0.00000E+00
    0.00000E+00         0.00000E+00        -0.68585E+08
 
   -0.68320E+08         0.88883E+05         0.00000E+00
    0.88883E+05        -0.95020E+08         0.00000E+00
    0.00000E+00         0.00000E+00        -0.68419E+08
 
   -0.68158E+08         0.88051E+05         0.00000E+00
    0.88051E+05        -0.94968E+08         0.00000E+00
    0.00000E+00         0.00000E+00        -0.68251E+08
 
   -0.67996E+08         0.87151E+05         0.00000E+00
    0.87151E+05        -0.94918E+08         0.00000E+00
    0.00000E+00         0.00000E+00        -0.68081E+08
 
   -0.67834E+08         0.86170E+05         0.00000E+00
    0.86170E+05        -0.94869E+08         0.00000E+00
    0.00000E+00         0.00000E+00        -0.67908E+08
 
   -0.67673E+08         0.85095E+05         0.00000E+00
    0.85095E+05        -0.94821E+08         0.00000E+00
    0.00000E+00         0.00000E+00        -0.67733E+08
 
   -0.67512E+08         0.83911E+05         0.00000E+00
    0.83911E+05        -0.94774E+08         0.00000E+00
    0.00000E+00         0.00000E+00        -0.67555E+08
 
   -0.67352E+08         0.82599E+05         0.00000E+00
    0.82599E+05        -0.94729E+08         0.00000E+00
    0.00000E+00         0.00000E+00        -0.67375E+08
 
   -0.67193E+08         0.81136E+05         0.00000E+00
    0.81136E+05        -0.94685E+08         0.00000E+00
    0.00000E+00         0.00000E+00        -0.67191E+08
 
   -0.67035E+08         0.79494E+05         0.00000E+00
    0.79494E+05        -0.94643E+08         0.00000E+00
    0.00000E+00         0.00000E+00        -0.67005E+08
 
   -0.66879E+08         0.77642E+05         0.00000E+00
    0.77642E+05        -0.94603E+08         0.00000E+00
    0.00000E+00         0.00000E+00        -0.66815E+08
 
   -0.66724E+08         0.75539E+05         0.00000E+00
    0.75539E+05        -0.94565E+08         0.00000E+00
    0.00000E+00         0.00000E+00        -0.66621E+08
 
   -0.66572E+08         0.73137E+05         0.00000E+00
    0.73137E+05        -0.94529E+08         0.00000E+00
    0.00000E+00         0.00000E+00        -0.66424E+08
 
   -0.66423E+08         0.70381E+05         0.00000E+00
    0.70381E+05        -0.94495E+08         0.00000E+00
    0.00000E+00         0.00000E+00        -0.66222E+08
 
   -0.66276E+08         0.67204E+05         0.00000E+00
    0.67204E+05        -0.94465E+08         0.00000E+00
    0.00000E+00         0.00000E+00        -0.66017E+08
 
   -0.66134E+08         0.63531E+05         0.00000E+00
    0.63531E+05        -0.94437E+08         0.00000E+00
    0.00000E+00         0.00000E+00        -0.65806E+08
 
   -0.65997E+08         0.59280E+05         0.00000E+00
    0.59280E+05        -0.94413E+08         0.00000E+00
    0.00000E+00         0.00000E+00        -0.65590E+08
 
   -0.65866E+08         0.54360E+05         0.00000E+00
    0.54360E+05        -0.94393E+08         0.00000E+00
    0.00000E+00         0.00000E+00        -0.65369E+08
 
   -0.65741E+08         0.48683E+05         0.00000E+00
    0.48683E+05        -0.94376E+08         0.00000E+00
    0.00000E+00         0.00000E+00        -0.65141E+08
 
   -0.65625E+08         0.42169E+05         0.00000E+00
    0.42169E+05        -0.94365E+08         0.00000E+00
    0.00000E+00         0.00000E+00        -0.64907E+08
 
   -0.65519E+08         0.34759E+05         0.00000E+00
    0.34759E+05        -0.94359E+08         0.00000E+00
    0.00000E+00         0.00000E+00        -0.64665E+08
 
   -0.65424E+08         0.26430E+05         0.00000E+00
    0.26430E+05        -0.94358E+08         0.00000E+00
    0.00000E+00         0.00000E+00        -0.64415E+08
 
   -0.65341E+08         0.17225E+05         0.00000E+00
    0.17225E+05        -0.94363E+08         0.00000E+00
    0.00000E+00         0.00000E+00        -0.64157E+08
 
   -0.65273E+08         0.72613E+04         0.00000E+00
    0.72613E+04        -0.94374E+08         0.00000E+00
    0.00000E+00         0.00000E+00        -0.63889E+08
 
   -0.65221E+08        -0.32339E+04         0.00000E+00
   -0.32339E+04        -0.94391E+08         0.00000E+00
    0.00000E+00         0.00000E+00        -0.63612E+08
 
   -0.65184E+08        -0.13950E+05         0.00000E+00
   -0.13950E+05        -0.94415E+08         0.00000E+00
    0.00000E+00         0.00000E+00        -0.63326E+08
 
   -0.65165E+08        -0.24464E+05         0.00000E+00
   -0.24464E+05        -0.94445E+08         0.00000E+00
    0.00000E+00         0.00000E+00        -0.63029E+08
 
   -0.65161E+08        -0.34366E+05         0.00000E+00
   -0.34366E+05        -0.94479E+08         0.00000E+00
    0.00000E+00         0.00000E+00        -0.62724E+08
 
   -0.65173E+08        -0.43491E+05         0.00000E+00
   -0.43491E+05        -0.94520E+08         0.00000E+00
    0.00000E+00         0.00000E+00        -0.62412E+08
 
   -0.65197E+08        -0.49953E+05         0.00000E+00
   -0.49953E+05        -0.94562E+08         0.00000E+00
    0.00000E+00         0.00000E+00        -0.62094E+08
 
   -0.65231E+08        -0.63055E+05         0.00000E+00
   -0.63055E+05        -0.94619E+08         0.00000E+00
    0.00000E+00         0.00000E+00        -0.61782E+08
 
   -0.65245E+08        -0.44094E+05         0.00000E+00
   -0.44094E+05        -0.94662E+08         0.00000E+00
    0.00000E+00         0.00000E+00        -0.61476E+08
 
   -0.78953E+08        -0.40002E+05         0.00000E+00
   -0.40002E+05        -0.97528E+08         0.00000E+00
    0.00000E+00         0.00000E+00        -0.85352E+08
 
   -0.79010E+08        -0.10512E+05         0.00000E+00
   -0.10512E+05        -0.97604E+08         0.00000E+00
    0.00000E+00         0.00000E+00        -0.84861E+08
 
   -0.79046E+08        -0.93718E+03         0.00000E+00
   -0.93718E+03        -0.97603E+08         0.00000E+00
    0.00000E+00         0.00000E+00        -0.84329E+08
 
   -0.79055E+08        -0.34724E+04         0.00000E+00
   -0.34724E+04        -0.97602E+08         0.00000E+00
    0.00000E+00         0.00000E+00        -0.83770E+08
 
   -0.79053E+08         0.84359E+03         0.00000E+00
    0.84359E+03        -0.97603E+08         0.00000E+00
    0.00000E+00         0.00000E+00        -0.83207E+08
 
   -0.79035E+08         0.47202E+04         0.00000E+00
    0.47202E+04        -0.97603E+08         0.00000E+00
    0.00000E+00         0.00000E+00        -0.82653E+08
 
   -0.79001E+08         0.89543E+04         0.00000E+00
    0.89543E+04        -0.97603E+08         0.00000E+00
    0.00000E+00         0.00000E+00        -0.82119E+08
 
   -0.78952E+08         0.12543E+05         0.00000E+00
    0.12543E+05        -0.97603E+08         0.00000E+00
    0.00000E+00         0.00000E+00        -0.81609E+08
 
   -0.78891E+08         0.16116E+05         0.00000E+00
    0.16116E+05        -0.97603E+08         0.00000E+00
    0.00000E+00         0.00000E+00        -0.81128E+08
 
   -0.78816E+08         0.20225E+05         0.00000E+00
    0.20225E+05        -0.97602E+08         0.00000E+00
    0.00000E+00         0.00000E+00        -0.80675E+08
 
   -0.78726E+08         0.25222E+05         0.00000E+00
    0.25222E+05        -0.97602E+08         0.00000E+00
    0.00000E+00         0.00000E+00        -0.80249E+08
 
   -0.78620E+08         0.31000E+05         0.00000E+00
    0.31000E+05        -0.97601E+08         0.00000E+00
    0.00000E+00         0.00000E+00        -0.79847E+08
 
   -0.78496E+08         0.37169E+05         0.00000E+00
    0.37169E+05        -0.97601E+08         0.00000E+00
    0.00000E+00         0.00000E+00        -0.79468E+08
 
   -0.78353E+08         0.43264E+05         0.00000E+00
    0.43264E+05        -0.97601E+08         0.00000E+00
    0.00000E+00         0.00000E+00        -0.79108E+08
 
   -0.78193E+08         0.48901E+05         0.00000E+00
    0.48901E+05        -0.97601E+08         0.00000E+00
    0.00000E+00         0.00000E+00        -0.78765E+08
 
   -0.78018E+08         0.53845E+05         0.00000E+00
    0.53845E+05        -0.97601E+08         0.00000E+00
    0.00000E+00         0.00000E+00        -0.78436E+08
 
   -0.77828E+08         0.58002E+05         0.00000E+00
    0.58002E+05        -0.97601E+08         0.00000E+00
    0.00000E+00         0.00000E+00        -0.78119E+08
 
   -0.77627E+08         0.61380E+05         0.00000E+00
    0.61380E+05        -0.97601E+08         0.00000E+00
    0.00000E+00         0.00000E+00        -0.77813E+08
 
   -0.77417E+08         0.64052E+05         0.00000E+00
    0.64052E+05        -0.97601E+08         0.00000E+00
    0.00000E+00         0.00000E+00        -0.77516E+08
 
   -0.77199E+08         0.66114E+05         0.00000E+00
    0.66114E+05        -0.97601E+08         0.00000E+00
    0.00000E+00         0.00000E+00        -0.77227E+08
 
   -0.76976E+08         0.67673E+05         0.00000E+00
    0.67673E+05        -0.97601E+08         0.00000E+00
    0.00000E+00         0.00000E+00        -0.76945E+08
 
   -0.76749E+08         0.68827E+05         0.00000E+00
    0.68827E+05        -0.97601E+08         0.00000E+00
    0.00000E+00         0.00000E+00        -0.76668E+08
 
   -0.76518E+08         0.69663E+05         0.00000E+00
    0.69663E+05        -0.97601E+08         0.00000E+00
    0.00000E+00         0.00000E+00        -0.76397E+08
 
   -0.76287E+08         0.70247E+05         0.00000E+00
    0.70247E+05        -0.97600E+08         0.00000E+00
    0.00000E+00         0.00000E+00        -0.76132E+08
 
   -0.76078E+08         0.70498E+05         0.00000E+00
    0.70498E+05        -0.97573E+08         0.00000E+00
    0.00000E+00         0.00000E+00        -0.75896E+08
 
   -0.75888E+08         0.70446E+05         0.00000E+00
    0.70446E+05        -0.97523E+08         0.00000E+00
    0.00000E+00         0.00000E+00        -0.75684E+08
 
   -0.75699E+08         0.70286E+05         0.00000E+00
    0.70286E+05        -0.97473E+08         0.00000E+00
    0.00000E+00         0.00000E+00        -0.75478E+08
 
   -0.75510E+08         0.70046E+05         0.00000E+00
    0.70046E+05        -0.97422E+08         0.00000E+00
    0.00000E+00         0.00000E+00        -0.75275E+08
 
   -0.75321E+08         0.69746E+05         0.00000E+00
    0.69746E+05        -0.97371E+08         0.00000E+00
    0.00000E+00         0.00000E+00        -0.75077E+08
 
   -0.75134E+08         0.69402E+05         0.00000E+00
    0.69402E+05        -0.97318E+08         0.00000E+00
    0.00000E+00         0.00000E+00        -0.74882E+08
 
   -0.74947E+08         0.69025E+05         0.00000E+00
    0.69025E+05        -0.97265E+08         0.00000E+00
    0.00000E+00         0.00000E+00        -0.74691E+08
 
   -0.74762E+08         0.68623E+05         0.00000E+00
    0.68623E+05        -0.97210E+08         0.00000E+00
    0.00000E+00         0.00000E+00        -0.74503E+08
 
   -0.74577E+08         0.68203E+05         0.00000E+00
    0.68203E+05        -0.97156E+08         0.00000E+00
    0.00000E+00         0.00000E+00        -0.74319E+08
 
   -0.74394E+08         0.67770E+05         0.00000E+00
    0.67770E+05        -0.97100E+08         0.00000E+00
    0.00000E+00         0.00000E+00        -0.74137E+08
 
   -0.74211E+08         0.67326E+05         0.00000E+00
    0.67326E+05        -0.97044E+08         0.00000E+00
    0.00000E+00         0.00000E+00        -0.73958E+08
 
   -0.74030E+08         0.66875E+05         0.00000E+00
    0.66875E+05        -0.96988E+08         0.00000E+00
    0.00000E+00         0.00000E+00        -0.73782E+08
 
   -0.73850E+08         0.66418E+05         0.00000E+00
    0.66418E+05        -0.96931E+08         0.00000E+00
    0.00000E+00         0.00000E+00        -0.73609E+08
 
   -0.73671E+08         0.65958E+05         0.00000E+00
    0.65958E+05        -0.96873E+08         0.00000E+00
    0.00000E+00         0.00000E+00        -0.73438E+08
 
   -0.73493E+08         0.65497E+05         0.00000E+00
    0.65497E+05        -0.96816E+08         0.00000E+00
    0.00000E+00         0.00000E+00        -0.73269E+08
 
   -0.73317E+08         0.65036E+05         0.00000E+00
    0.65036E+05        -0.96757E+08         0.00000E+00
    0.00000E+00         0.00000E+00        -0.73103E+08
 
   -0.73141E+08         0.64577E+05         0.00000E+00
    0.64577E+05        -0.96699E+08         0.00000E+00
    0.00000E+00         0.00000E+00        -0.72938E+08
 
   -0.72966E+08         0.64120E+05         0.00000E+00
    0.64120E+05        -0.96640E+08         0.00000E+00
    0.00000E+00         0.00000E+00        -0.72775E+08
 
   -0.72792E+08         0.63668E+05         0.00000E+00
    0.63668E+05        -0.96581E+08         0.00000E+00
    0.00000E+00         0.00000E+00        -0.72614E+08
 
   -0.72620E+08         0.63221E+05         0.00000E+00
    0.63221E+05        -0.96522E+08         0.00000E+00
    0.00000E+00         0.00000E+00        -0.72455E+08
 
   -0.72448E+08         0.62781E+05         0.00000E+00
    0.62781E+05        -0.96462E+08         0.00000E+00
    0.00000E+00         0.00000E+00        -0.72297E+08
 
   -0.72277E+08         0.62348E+05         0.00000E+00
    0.62348E+05        -0.96403E+08         0.00000E+00
    0.00000E+00         0.00000E+00        -0.72140E+08
 
   -0.72107E+08         0.61923E+05         0.00000E+00
    0.61923E+05        -0.96343E+08         0.00000E+00
    0.00000E+00         0.00000E+00        -0.71985E+08
 
   -0.71938E+08         0.61506E+05         0.00000E+00
    0.61506E+05        -0.96284E+08         0.00000E+00
    0.00000E+00         0.00000E+00        -0.71830E+08
 
   -0.71769E+08         0.61099E+05         0.00000E+00
    0.61099E+05        -0.96224E+08         0.00000E+00
    0.00000E+00         0.00000E+00        -0.71677E+08
 
   -0.71601E+08         0.60701E+05         0.00000E+00
    0.60701E+05        -0.96164E+08         0.00000E+00
    0.00000E+00         0.00000E+00        -0.71524E+08
 
   -0.71434E+08         0.60312E+05         0.00000E+00
    0.60312E+05        -0.96104E+08         0.00000E+00
    0.00000E+00         0.00000E+00        -0.71372E+08
 
   -0.71267E+08         0.59933E+05         0.00000E+00
    0.59933E+05        -0.96045E+08         0.00000E+00
    0.00000E+00         0.00000E+00        -0.71220E+08
 
   -0.71101E+08         0.59563E+05         0.00000E+00
    0.59563E+05        -0.95985E+08         0.00000E+00
    0.00000E+00         0.00000E+00        -0.71069E+08
 
   -0.70935E+08         0.59202E+05         0.00000E+00
    0.59202E+05        -0.95926E+08         0.00000E+00
    0.00000E+00         0.00000E+00        -0.70918E+08
 
   -0.70770E+08         0.58848E+05         0.00000E+00
    0.58848E+05        -0.95866E+08         0.00000E+00
    0.00000E+00         0.00000E+00        -0.70767E+08
 
   -0.70605E+08         0.58502E+05         0.00000E+00
    0.58502E+05        -0.95807E+08         0.00000E+00
    0.00000E+00         0.00000E+00        -0.70616E+08
 
   -0.70441E+08         0.58161E+05         0.00000E+00
    0.58161E+05        -0.95748E+08         0.00000E+00
    0.00000E+00         0.00000E+00        -0.70465E+08
 
   -0.70277E+08         0.57825E+05         0.00000E+00
    0.57825E+05        -0.95690E+08         0.00000E+00
    0.00000E+00         0.00000E+00        -0.70313E+08
 
   -0.70113E+08         0.57491E+05         0.00000E+00
    0.57491E+05        -0.95631E+08         0.00000E+00
    0.00000E+00         0.00000E+00        -0.70161E+08
 
   -0.69949E+08         0.57159E+05         0.00000E+00
    0.57159E+05        -0.95573E+08         0.00000E+00
    0.00000E+00         0.00000E+00        -0.70009E+08
 
   -0.69785E+08         0.56826E+05         0.00000E+00
    0.56826E+05        -0.95515E+08         0.00000E+00
    0.00000E+00         0.00000E+00        -0.69855E+08
 
   -0.69622E+08         0.56490E+05         0.00000E+00
    0.56490E+05        -0.95458E+08         0.00000E+00
    0.00000E+00         0.00000E+00        -0.69701E+08
 
   -0.69458E+08         0.56149E+05         0.00000E+00
    0.56149E+05        -0.95401E+08         0.00000E+00
    0.00000E+00         0.00000E+00        -0.69546E+08
 
   -0.69295E+08         0.55799E+05         0.00000E+00
    0.55799E+05        -0.95345E+08         0.00000E+00
    0.00000E+00         0.00000E+00        -0.69390E+08
 
   -0.69132E+08         0.55438E+05         0.00000E+00
    0.55438E+05        -0.95289E+08         0.00000E+00
    0.00000E+00         0.00000E+00        -0.69232E+08
 
   -0.68969E+08         0.55063E+05         0.00000E+00
    0.55063E+05        -0.95233E+08         0.00000E+00
    0.00000E+00         0.00000E+00        -0.69073E+08
 
   -0.68806E+08         0.54670E+05         0.00000E+00
    0.54670E+05        -0.95179E+08         0.00000E+00
    0.00000E+00         0.00000E+00        -0.68913E+08
 
   -0.68643E+08         0.54255E+05         0.00000E+00
    0.54255E+05        -0.95125E+08         0.00000E+00
    0.00000E+00         0.00000E+00        -0.68751E+08
 
   -0.68480E+08         0.53814E+05         0.00000E+00
    0.53814E+05        -0.95072E+08         0.00000E+00
    0.00000E+00         0.00000E+00        -0.68587E+08
 
   -0.68318E+08         0.53343E+05         0.00000E+00
    0.53343E+05        -0.95019E+08         0.00000E+00
    0.00000E+00         0.00000E+00        -0.68421E+08
 
   -0.68155E+08         0.52836E+05         0.00000E+00
    0.52836E+05        -0.94968E+08         0.00000E+00
    0.00000E+00         0.00000E+00        -0.68253E+08
 
   -0.67993E+08         0.52287E+05         0.00000E+00
    0.52287E+05        -0.94918E+08         0.00000E+00
    0.00000E+00         0.00000E+00        -0.68083E+08
 
   -0.67831E+08         0.51689E+05         0.00000E+00
    0.51689E+05        -0.94869E+08         0.00000E+00
    0.00000E+00         0.00000E+00        -0.67910E+08
 
   -0.67670E+08         0.51034E+05         0.00000E+00
    0.51034E+05        -0.94821E+08         0.00000E+00
    0.00000E+00         0.00000E+00        -0.67735E+08
 
   -0.67510E+08         0.50313E+05         0.00000E+00
    0.50313E+05        -0.94774E+08         0.00000E+00
    0.00000E+00         0.00000E+00        -0.67558E+08
 
   -0.67350E+08         0.49515E+05         0.00000E+00
    0.49515E+05        -0.94729E+08         0.00000E+00
    0.00000E+00         0.00000E+00        -0.67377E+08
 
   -0.67191E+08         0.48624E+05         0.00000E+00
    0.48624E+05        -0.94685E+08         0.00000E+00
    0.00000E+00         0.00000E+00        -0.67194E+08
 
   -0.67033E+08         0.47626E+05         0.00000E+00
    0.47626E+05        -0.94643E+08         0.00000E+00
    0.00000E+00         0.00000E+00        -0.67007E+08
 
   -0.66877E+08         0.46499E+05         0.00000E+00
    0.46499E+05        -0.94603E+08         0.00000E+00
    0.00000E+00         0.00000E+00        -0.66817E+08
 
   -0.66723E+08         0.45220E+05         0.00000E+00
    0.45220E+05        -0.94565E+08         0.00000E+00
    0.00000E+00         0.00000E+00        -0.66623E+08
 
   -0.66571E+08         0.43759E+05         0.00000E+00
    0.43759E+05        -0.94530E+08         0.00000E+00
    0.00000E+00         0.00000E+00        -0.66426E+08
 
   -0.66422E+08         0.42080E+05         0.00000E+00
    0.42080E+05        -0.94497E+08         0.00000E+00
    0.00000E+00         0.00000E+00        -0.66224E+08
 
   -0.66276E+08         0.40144E+05         0.00000E+00
    0.40144E+05        -0.94466E+08         0.00000E+00
    0.00000E+00         0.00000E+00        -0.66018E+08
 
   -0.66135E+08         0.37903E+05         0.00000E+00
    0.37903E+05        -0.94439E+08         0.00000E+00
    0.00000E+00         0.00000E+00        -0.65807E+08
 
   -0.65998E+08         0.35304E+05         0.00000E+00
    0.35304E+05        -0.94415E+08         0.00000E+00
    0.00000E+00         0.00000E+00        -0.65591E+08
 
   -0.65868E+08         0.32293E+05         0.00000E+00
    0.32293E+05        -0.94395E+08         0.00000E+00
    0.00000E+00         0.00000E+00        -0.65369E+08
 
   -0.65745E+08         0.28811E+05         0.00000E+00
    0.28811E+05        -0.94380E+08         0.00000E+00
    0.00000E+00         0.00000E+00        -0.65141E+08
 
   -0.65630E+08         0.24809E+05         0.00000E+00
    0.24809E+05        -0.94369E+08         0.00000E+00
    0.00000E+00         0.00000E+00        -0.64906E+08
 
   -0.65526E+08         0.20246E+05         0.00000E+00
    0.20246E+05        -0.94363E+08         0.00000E+00
    0.00000E+00         0.00000E+00        -0.64663E+08
 
   -0.65433E+08         0.15109E+05         0.00000E+00
    0.15109E+05        -0.94363E+08         0.00000E+00
    0.00000E+00         0.00000E+00        -0.64412E+08
 
   -0.65353E+08         0.94192E+04         0.00000E+00
    0.94192E+04        -0.94369E+08         0.00000E+00
    0.00000E+00         0.00000E+00        -0.64152E+08
 
   -0.65288E+08         0.32553E+04         0.00000E+00
    0.32553E+04        -0.94381E+08         0.00000E+00
    0.00000E+00         0.00000E+00        -0.63883E+08
 
   -0.65240E+08        -0.32602E+04         0.00000E+00
   -0.32602E+04        -0.94399E+08         0.00000E+00
    0.00000E+00         0.00000E+00        -0.63603E+08
 
   -0.65208E+08        -0.98849E+04         0.00000E+00
   -0.98849E+04        -0.94424E+08         0.00000E+00
    0.00000E+00         0.00000E+00        -0.63313E+08
 
   -0.65195E+08        -0.16504E+05         0.00000E+00
   -0.16504E+05        -0.94455E+08         0.00000E+00
    0.00000E+00         0.00000E+00        -0.63014E+08
 
   -0.65198E+08        -0.22477E+05         0.00000E+00
   -0.22477E+05        -0.94491E+08         0.00000E+00
    0.00000E+00         0.00000E+00        -0.62704E+08
 
   -0.65218E+08        -0.28837E+05         0.00000E+00
   -0.28837E+05        -0.94532E+08         0.00000E+00
    0.00000E+00         0.00000E+00        -0.62387E+08
 
   -0.65251E+08        -0.31884E+05         0.00000E+00
   -0.31884E+05        -0.94576E+08         0.00000E+00
    0.00000E+00         0.00000E+00        -0.62062E+08
 
   -0.65299E+08        -0.42066E+05         0.00000E+00
   -0.42066E+05        -0.94627E+08         0.00000E+00
    0.00000E+00         0.00000E+00        -0.61735E+08
 
   -0.65348E+08        -0.44905E+05         0.00000E+00
   -0.44905E+05        -0.94703E+08         0.00000E+00
    0.00000E+00         0.00000E+00        -0.61434E+08
 
   -0.78996E+08        -0.51055E+05         0.00000E+00
   -0.51055E+05        -0.97509E+08         0.00000E+00
    0.00000E+00         0.00000E+00        -0.85396E+08
 
   -0.79033E+08         0.92087E+04         0.00000E+00
    0.92087E+04        -0.97627E+08         0.00000E+00
    0.00000E+00         0.00000E+00        -0.84906E+08
 
   -0.79016E+08        -0.47282E+04         0.00000E+00
   -0.47282E+04        -0.97596E+08         0.00000E+00
    0.00000E+00         0.00000E+00        -0.84362E+08
 
   -0.79008E+08        -0.20690E+04         0.00000E+00
   -0.20690E+04        -0.97606E+08         0.00000E+00
    0.00000E+00         0.00000E+00        -0.83797E+08
 
   -0.78996E+08        -0.19527E+04         0.00000E+00
   -0.19527E+04        -0.97603E+08         0.00000E+00
    0.00000E+00         0.00000E+00        -0.83226E+08
 
   -0.78976E+08        -0.33259E+03         0.00000E+00
   -0.33259E+03        -0.97604E+08         0.00000E+00
    0.00000E+00         0.00000E+00        -0.82665E+08
 
   -0.78944E+08         0.95153E+03         0.00000E+00
    0.95153E+03        -0.97604E+08         0.00000E+00
    0.00000E+00         0.00000E+00        -0.82123E+08
 
   -0.78900E+08         0.21177E+04         0.00000E+00
    0.21177E+04        -0.97604E+08         0.00000E+00
    0.00000E+00         0.00000E+00        -0.81608E+08
 
   -0.78845E+08         0.32623E+04         0.00000E+00
    0.32623E+04        -0.97603E+08         0.00000E+00
    0.00000E+00         0.00000E+00        -0.81122E+08
 
   -0.78779E+08         0.46998E+04         0.00000E+00
    0.46998E+04        -0.97603E+08         0.00000E+00
    0.00000E+00         0.00000E+00        -0.80666E+08
 
   -0.78698E+08         0.65501E+04         0.00000E+00
    0.65501E+04        -0.97603E+08         0.00000E+00
    0.00000E+00         0.00000E+00        -0.80238E+08
 
   -0.78601E+08         0.87561E+04         0.00000E+00
    0.87561E+04        -0.97602E+08         0.00000E+00
    0.00000E+00         0.00000E+00        -0.79835E+08
 
   -0.78484E+08         0.11134E+05         0.00000E+00
    0.11134E+05        -0.97602E+08         0.00000E+00
    0.00000E+00         0.00000E+00        -0.79455E+08
 
   -0.78348E+08         0.13482E+05         0.00000E+00
    0.13482E+05        -0.97602E+08         0.00000E+00
    0.00000E+00         0.00000E+00        -0.79095E+08
 
   -0.78192E+08         0.15639E+05         0.00000E+00
    0.15639E+05        -0.97602E+08         0.00000E+00
    0.00000E+00         0.00000E+00        -0.78751E+08
 
   -0.78020E+08         0.17513E+05         0.00000E+00
    0.17513E+05        -0.97601E+08         0.00000E+00
    0.00000E+00         0.00000E+00        -0.78423E+08
 
   -0.77833E+08         0.19071E+05         0.00000E+00
    0.19071E+05        -0.97601E+08         0.00000E+00
    0.00000E+00         0.00000E+00        -0.78107E+08
 
   -0.77634E+08         0.20324E+05         0.00000E+00
    0.20324E+05        -0.97601E+08         0.00000E+00
    0.00000E+00         0.00000E+00        -0.77801E+08
 
   -0.77425E+08         0.21302E+05         0.00000E+00
    0.21302E+05        -0.97601E+08         0.00000E+00
    0.00000E+00         0.00000E+00        -0.77505E+08
 
   -0.77208E+08         0.22049E+05         0.00000E+00
    0.22049E+05        -0.97601E+08         0.00000E+00
    0.00000E+00         0.00000E+00        -0.77216E+08
 
   -0.76985E+08         0.22606E+05         0.00000E+00
    0.22606E+05        -0.97601E+08         0.00000E+00
    0.00000E+00         0.00000E+00        -0.76935E+08
 
   -0.76758E+08         0.23013E+05         0.00000E+00
    0.23013E+05        -0.97601E+08         0.00000E+00
    0.00000E+00         0.00000E+00        -0.76659E+08
 
   -0.76528E+08         0.23304E+05         0.00000E+00
    0.23304E+05        -0.97601E+08         0.00000E+00
    0.00000E+00         0.00000E+00        -0.76389E+08
 
   -0.76296E+08         0.23505E+05         0.00000E+00
    0.23505E+05        -0.97600E+08         0.00000E+00
    0.00000E+00         0.00000E+00        -0.76124E+08
 
   -0.76086E+08         0.23607E+05         0.00000E+00
    0.23607E+05        -0.97573E+08         0.00000E+00
    0.00000E+00         0.00000E+00        -0.75888E+08
 
   -0.75896E+08         0.23589E+05         0.00000E+00
    0.23589E+05        -0.97524E+08         0.00000E+00
    0.00000E+00         0.00000E+00        -0.75677E+08
 
   -0.75707E+08         0.23534E+05         0.00000E+00
    0.23534E+05        -0.97474E+08         0.00000E+00
    0.00000E+00         0.00000E+00        -0.75470E+08
 
   -0.75517E+08         0.23451E+05         0.00000E+00
    0.23451E+05        -0.97423E+08         0.00000E+00
    0.00000E+00         0.00000E+00        -0.75268E+08
 
   -0.75329E+08         0.23348E+05         0.00000E+00
    0.23348E+05        -0.97372E+08         0.00000E+00
    0.00000E+00         0.00000E+00        -0.75070E+08
 
   -0.75141E+08         0.23231E+05         0.00000E+00
    0.23231E+05        -0.97319E+08         0.00000E+00
    0.00000E+00         0.00000E+00        -0.74876E+08
 
   -0.74954E+08         0.23104E+05         0.00000E+00
    0.23104E+05        -0.97266E+08         0.00000E+00
    0.00000E+00         0.00000E+00        -0.74685E+08
 
   -0.74768E+08         0.22969E+05         0.00000E+00
    0.22969E+05        -0.97212E+08         0.00000E+00
    0.00000E+00         0.00000E+00        -0.74498E+08
 
   -0.74584E+08         0.22828E+05         0.00000E+00
    0.22828E+05        -0.97157E+08         0.00000E+00
    0.00000E+00         0.00000E+00        -0.74314E+08
 
   -0.74400E+08         0.22682E+05         0.00000E+00
    0.22682E+05        -0.97102E+08         0.00000E+00
    0.00000E+00         0.00000E+00        -0.74132E+08
 
   -0.74217E+08         0.22534E+05         0.00000E+00
    0.22534E+05        -0.97046E+08         0.00000E+00
    0.00000E+00         0.00000E+00        -0.73954E+08
 
   -0.74036E+08         0.22383E+05         0.00000E+00
    0.22383E+05        -0.96989E+08         0.00000E+00
    0.00000E+00         0.00000E+00        -0.73778E+08
 
   -0.73855E+08         0.22231E+05         0.00000E+00
    0.22231E+05        -0.96932E+08         0.00000E+00
    0.00000E+00         0.00000E+00        -0.73605E+08
 
   -0.73676E+08         0.22078E+05         0.00000E+00
    0.22078E+05        -0.96875E+08         0.00000E+00
    0.00000E+00         0.00000E+00        -0.73434E+08
 
   -0.73498E+08         0.21924E+05         0.00000E+00
    0.21924E+05        -0.96817E+08         0.00000E+00
    0.00000E+00         0.00000E+00        -0.73266E+08
 
   -0.73321E+08         0.21770E+05         0.00000E+00
    0.21770E+05        -0.96759E+08         0.00000E+00
    0.00000E+00         0.00000E+00        -0.73099E+08
 
   -0.73145E+08         0.21617E+05         0.00000E+00
    0.21617E+05        -0.96700E+08         0.00000E+00
    0.00000E+00         0.00000E+00        -0.72935E+08
 
   -0.72970E+08         0.21465E+05         0.00000E+00
    0.21465E+05        -0.96641E+08         0.00000E+00
    0.00000E+00         0.00000E+00        -0.72772E+08
 
   -0.72796E+08         0.21314E+05         0.00000E+00
    0.21314E+05        -0.96582E+08         0.00000E+00
    0.00000E+00         0.00000E+00        -0.72612E+08
 
   -0.72623E+08         0.21164E+05         0.00000E+00
    0.21164E+05        -0.96523E+08         0.00000E+00
    0.00000E+00         0.00000E+00        -0.72453E+08
 
   -0.72451E+08         0.21017E+05         0.00000E+00
    0.21017E+05        -0.96463E+08         0.00000E+00
    0.00000E+00         0.00000E+00        -0.72295E+08
 
   -0.72280E+08         0.20872E+05         0.00000E+00
    0.20872E+05        -0.96404E+08         0.00000E+00
    0.00000E+00         0.00000E+00        -0.72138E+08
 
   -0.72109E+08         0.20729E+05         0.00000E+00
    0.20729E+05        -0.96344E+08         0.00000E+00
    0.00000E+00         0.00000E+00        -0.71983E+08
 
   -0.71940E+08         0.20589E+05         0.00000E+00
    0.20589E+05        -0.96284E+08         0.00000E+00
    0.00000E+00         0.00000E+00        -0.71829E+08
 
   -0.71771E+08         0.20452E+05         0.00000E+00
    0.20452E+05        -0.96225E+08         0.00000E+00
    0.00000E+00         0.00000E+00        -0.71676E+08
 
   -0.71603E+08         0.20319E+05         0.00000E+00
    0.20319E+05        -0.96165E+08         0.00000E+00
    0.00000E+00         0.00000E+00        -0.71523E+08
 
   -0.71435E+08         0.20188E+05         0.00000E+00
    0.20188E+05        -0.96105E+08         0.00000E+00
    0.00000E+00         0.00000E+00        -0.71371E+08
 
   -0.71268E+08         0.20060E+05         0.00000E+00
    0.20060E+05        -0.96045E+08         0.00000E+00
    0.00000E+00         0.00000E+00        -0.71220E+08
 
   -0.71102E+08         0.19935E+05         0.00000E+00
    0.19935E+05        -0.95985E+08         0.00000E+00
    0.00000E+00         0.00000E+00        -0.71068E+08
 
   -0.70936E+08         0.19813E+05         0.00000E+00
    0.19813E+05        -0.95926E+08         0.00000E+00
    0.00000E+00         0.00000E+00        -0.70918E+08
 
   -0.70770E+08         0.19693E+05         0.00000E+00
    0.19693E+05        -0.95866E+08         0.00000E+00
    0.00000E+00         0.00000E+00        -0.70767E+08
 
   -0.70605E+08         0.19575E+05         0.00000E+00
    0.19575E+05        -0.95807E+08         0.00000E+00
    0.00000E+00         0.00000E+00        -0.70616E+08
 
   -0.70440E+08         0.19459E+05         0.00000E+00
    0.19459E+05        -0.95748E+08         0.00000E+00
    0.00000E+00         0.00000E+00        -0.70465E+08
 
   -0.70276E+08         0.19345E+05         0.00000E+00
    0.19345E+05        -0.95689E+08         0.00000E+00
    0.00000E+00         0.00000E+00        -0.70314E+08
 
   -0.70112E+08         0.19231E+05         0.00000E+00
    0.19231E+05        -0.95631E+08         0.00000E+00
    0.00000E+00         0.00000E+00        -0.70162E+08
 
   -0.69948E+08         0.19118E+05         0.00000E+00
    0.19118E+05        -0.95573E+08         0.00000E+00
    0.00000E+00         0.00000E+00        -0.70009E+08
 
   -0.69784E+08         0.19003E+05         0.00000E+00
    0.19003E+05        -0.95515E+08         0.00000E+00
    0.00000E+00         0.00000E+00        -0.69856E+08
 
   -0.69620E+08         0.18888E+05         0.00000E+00
    0.18888E+05        -0.95458E+08         0.00000E+00
    0.00000E+00         0.00000E+00        -0.69702E+08
 
   -0.69457E+08         0.18771E+05         0.00000E+00
    0.18771E+05        -0.95401E+08         0.00000E+00
    0.00000E+00         0.00000E+00        -0.69547E+08
 
   -0.69293E+08         0.18650E+05         0.00000E+00
    0.18650E+05        -0.95344E+08         0.00000E+00
    0.00000E+00         0.00000E+00        -0.69391E+08
 
   -0.69130E+08         0.18526E+05         0.00000E+00
    0.18526E+05        -0.95288E+08         0.00000E+00
    0.00000E+00         0.00000E+00        -0.69234E+08
 
   -0.68967E+08         0.18396E+05         0.00000E+00
    0.18396E+05        -0.95233E+08         0.00000E+00
    0.00000E+00         0.00000E+00        -0.69075E+08
 
   -0.68803E+08         0.18260E+05         0.00000E+00
    0.18260E+05        -0.95178E+08         0.00000E+00
    0.00000E+00         0.00000E+00        -0.68914E+08
 
   -0.68640E+08         0.18117E+05         0.00000E+00
    0.18117E+05        -0.95124E+08         0.00000E+00
    0.00000E+00         0.00000E+00        -0.68752E+08
 
   -0.68478E+08         0.17965E+05         0.00000E+00
    0.17965E+05        -0.95071E+08         0.00000E+00
    0.00000E+00         0.00000E+00        -0.68589E+08
 
   -0.68315E+08         0.17802E+05         0.00000E+00
    0.17802E+05        -0.95019E+08         0.00000E+00
    0.00000E+00         0.00000E+00        -0.68423E+08
 
   -0.68152E+08         0.17626E+05         0.00000E+00
    0.17626E+05        -0.94968E+08         0.00000E+00
    0.00000E+00         0.00000E+00        -0.68255E+08
 
   -0.67990E+08         0.17437E+05         0.00000E+00
    0.17437E+05        -0.94918E+08         0.00000E+00
    0.00000E+00         0.00000E+00        -0.68085E+08
 
   -0.67829E+08         0.17230E+05         0.00000E+00
    0.17230E+05        -0.94869E+08         0.00000E+00
    0.00000E+00         0.00000E+00        -0.67912E+08
 
   -0.67668E+08         0.17004E+05         0.00000E+00
    0.17004E+05        -0.94821E+08         0.00000E+00
    0.00000E+00         0.00000E+00        -0.67738E+08
 
   -0.67507E+08         0.16756E+05         0.00000E+00
    0.16756E+05        -0.94774E+08         0.00000E+00
    0.00000E+00         0.00000E+00        -0.67560E+08
 
   -0.67347E+08         0.16481E+05         0.00000E+00
    0.16481E+05        -0.94729E+08         0.00000E+00
    0.00000E+00         0.00000E+00        -0.67379E+08
 
   -0.67189E+08         0.16174E+05         0.00000E+00
    0.16174E+05        -0.94686E+08         0.00000E+00
    0.00000E+00         0.00000E+00        -0.67196E+08
 
   -0.67031E+08         0.15831E+05         0.00000E+00
    0.15831E+05        -0.94644E+08         0.00000E+00
    0.00000E+00         0.00000E+00        -0.67009E+08
 
   -0.66876E+08         0.15443E+05         0.00000E+00
    0.15443E+05        -0.94604E+08         0.00000E+00
    0.00000E+00         0.00000E+00        -0.66819E+08
 
   -0.66722E+08         0.15003E+05         0.00000E+00
    0.15003E+05        -0.94567E+08         0.00000E+00
    0.00000E+00         0.00000E+00        -0.66626E+08
 
   -0.66570E+08         0.14498E+05         0.00000E+00
    0.14498E+05        -0.94531E+08         0.00000E+00
    0.00000E+00         0.00000E+00        -0.66428E+08
 
   -0.66421E+08         0.13918E+05         0.00000E+00
    0.13918E+05        -0.94498E+08         0.00000E+00
    0.00000E+00         0.00000E+00        -0.66227E+08
 
   -0.66276E+08         0.13247E+05         0.00000E+00
    0.13247E+05        -0.94468E+08         0.00000E+00
    0.00000E+00         0.00000E+00        -0.66020E+08
 
   -0.66135E+08         0.12468E+05         0.00000E+00
    0.12468E+05        -0.94442E+08         0.00000E+00
    0.00000E+00         0.00000E+00        -0.65809E+08
 
   -0.66000E+08         0.11560E+05         0.00000E+00
    0.11560E+05        -0.94418E+08         0.00000E+00
    0.00000E+00         0.00000E+00        -0.65593E+08
 
   -0.65870E+08         0.10504E+05         0.00000E+00
    0.10504E+05        -0.94399E+08         0.00000E+00
    0.00000E+00         0.00000E+00        -0.65371E+08
 
   -0.65748E+08         0.92774E+04         0.00000E+00
    0.92774E+04        -0.94384E+08         0.00000E+00
    0.00000E+00         0.00000E+00        -0.65142E+08
 
   -0.65635E+08         0.78597E+04         0.00000E+00
    0.78597E+04        -0.94373E+08         0.00000E+00
    0.00000E+00         0.00000E+00        -0.64906E+08
 
   -0.65532E+08         0.62353E+04         0.00000E+00
    0.62353E+04        -0.94368E+08         0.00000E+00
    0.00000E+00         0.00000E+00        -0.64662E+08
 
   -0.65442E+08         0.43965E+04         0.00000E+00
    0.43965E+04        -0.94369E+08         0.00000E+00
    0.00000E+00         0.00000E+00        -0.64410E+08
 
   -0.65365E+08         0.23507E+04         0.00000E+00
    0.23507E+04        -0.94376E+08         0.00000E+00
    0.00000E+00         0.00000E+00        -0.64149E+08
 
   -0.65304E+08         0.12081E+03         0.00000E+00
    0.12081E+03        -0.94389E+08         0.00000E+00
    0.00000E+00         0.00000E+00        -0.63877E+08
 
   -0.65259E+08        -0.22366E+04         0.00000E+00
   -0.22366E+04        -0.94409E+08         0.00000E+00
    0.00000E+00         0.00000E+00        -0.63595E+08
 
   -0.65233E+08        -0.46732E+04         0.00000E+00
   -0.46732E+04        -0.94435E+08         0.00000E+00
    0.00000E+00         0.00000E+00        -0.63303E+08
 
   -0.65225E+08        -0.70319E+04         0.00000E+00
   -0.70319E+04        -0.94467E+08         0.00000E+00
    0.00000E+00         0.00000E+00        -0.62999E+08
 
   -0.65236E+08        -0.94681E+04         0.00000E+00
   -0.94681E+04        -0.94505E+08         0.00000E+00
    0.00000E+00         0.00000E+00        -0.62686E+08
 
   -0.65263E+08        -0.11168E+05         0.00000E+00
   -0.11168E+05        -0.94544E+08         0.00000E+00
    0.00000E+00         0.00000E+00        -0.62361E+08
 
   -0.65310E+08        -0.15073E+05         0.00000E+00
   -0.15073E+05        -0.94595E+08         0.00000E+00
    0.00000E+00         0.00000E+00        -0.62034E+08
 
   -0.65360E+08        -0.10376E+05         0.00000E+00
   -0.10376E+05        -0.94627E+08         0.00000E+00
    0.00000E+00         0.00000E+00        -0.61687E+08
 
   -0.65465E+08        -0.45024E+05         0.00000E+00
   -0.45024E+05        -0.94742E+08         0.00000E+00
    0.00000E+00         0.00000E+00        -0.61382E+08
 
SCALARS stresss double 
LOOKUP_TABLE default
  -88534739.8472723     
  -88132654.8311461     
  -87763734.8054774     
  -87421989.6201909     
  -87104198.7641543     
  -86806480.8821239     
  -86526676.0981788     
  -86263681.4273841     
  -86030803.5898812     
  -85852765.6902778     
  -85696085.9746277     
  -85545343.1584337     
  -85398262.5535929     
  -85251488.6790593     
  -85103206.6843243     
  -84952363.2054944     
  -84798459.1184032     
  -84641338.7793093     
  -84481081.6493276     
  -84317920.2392029     
  -84152183.8909862     
  -83984256.6431208     
  -83814546.3868530     
  -83643462.3044725     
  -83471398.9183450     
  -83298725.3118972     
  -83131542.7618841     
  -82977089.5469131     
  -82824487.6110289     
  -82672419.9232517     
  -82521055.4088515     
  -82370533.6936720     
  -82220967.1458516     
  -82072443.2473912     
  -81925027.0968685     
  -81778763.9041832     
  -81633681.3850582     
  -81489791.9987054     
  -81347094.9985296     
  -81205578.2846227     
  -81065220.0597696     
  -80925990.2991023     
  -80787852.0485662     
  -80650762.5699386     
  -80514674.3510298     
  -80379535.9994392     
  -80245293.0372809     
  -80111888.6129557     
  -79979264.1445367     
  -79847359.9078046     
  -79716115.5805522     
  -79585470.7535073     
  -79455365.4171150     
  -79325740.4325888     
  -79196537.9949770     
  -79067702.0955707     
  -78939178.9907769     
  -78810917.6845714     
  -78682870.4318407     
  -78554993.2702433     
  -78427246.5886990     
  -78299595.7411254     
  -78172011.7145000     
  -78044471.8606600     
  -77916960.7011951     
  -77789470.8141126     
  -77662003.8093025     
  -77534571.3967182     
  -77407196.5459174     
  -77279914.7274470     
  -77152775.2143763     
  -77025842.4048284     
  -76899197.1021128     
  -76772937.6561992     
  -76647180.8268880     
  -76522062.1730667     
  -76397735.7020732     
  -76274372.4271292     
  -76152157.3788054     
  -76031284.5001850     
  -75911948.7299485     
  -75794334.4517829     
  -75678599.3814052     
  -75564852.8955252     
  -75453127.8416460     
  -75343345.0216524     
  -75235270.0661594     
  -75128463.0595777     
  -75022223.4568297     
  -74915533.4878876     
  -74807012.3540026     
  -74694883.4511855     
  -74577005.9127490     
  -74450900.0470800     
  -74314049.8496900     
  -74163714.5370709     
  -73998431.1171923     
  -73814639.6329275     
  -73617562.4911832     
  -73384963.7715257     
  -88489364.2273454     
  -88106652.5860444     
  -87742618.0405691     
  -87405553.0456461     
  -87090838.6579617     
  -86795949.1363754     
  -86518706.7530748     
  -86258923.7992966     
  -86027018.6392509     
  -85839626.4651661     
  -85678679.9178520     
  -85526652.6840031     
  -85378832.7982199     
  -85231857.4162491     
  -85083642.6727415     
  -84933060.5258922     
  -84779542.3314456     
  -84622896.3016122     
  -84463175.0455909     
  -84300592.9715580     
  -84135465.7520906     
  -83968167.0652992     
  -83799096.6562186     
  -83628657.2505514     
  -83457238.2107304     
  -83285204.4997527     
  -83119426.2077130     
  -82966147.0661957     
  -82813924.4166859     
  -82662241.0822285     
  -82511263.6531852     
  -82361129.6586097     
  -82211949.6154412     
  -82063809.3979563     
  -81916772.7312871     
  -81770883.6720255     
  -81626168.9853614     
  -81482640.3635504     
  -81340296.4566297     
  -81199124.7049114     
  -81059102.9755225     
  -80920201.0134919     
  -80782381.7227638     
  -80645602.2949834     
  -80509815.2047127     
  -80374969.0894035     
  -80241009.5314716     
  -80107879.7584350     
  -79975521.2755626     
  -79843874.4439405     
  -79712879.0154358     
  -79582474.6347741     
  -79452601.3178509     
  -79323199.9145583     
  -79194212.5637693     
  -79065583.1477065     
  -78937257.7527357     
  -78809185.1436371     
  -78681317.2586157     
  -78553609.7326737     
  -78426022.4574606     
  -78298520.1862855     
  -78171073.1934813     
  -78043657.9977006     
  -77916258.1587557     
  -77788865.1570192     
  -77661479.3628851     
  -77534111.1007784     
  -77406781.8071176     
  -77279525.2736244     
  -77152388.9553955     
  -77025435.3059004     
  -76898743.0770142     
  -76772408.4895237     
  -76646546.1362862     
  -76521289.4242928     
  -76396790.2914152     
  -76273217.8471882     
  -76150755.4841725     
  -76029595.8889428     
  -75909933.2536406     
  -75791951.8606579     
  -75675810.0972875     
  -75561618.8898240     
  -75449413.5442944     
  -75339118.1814628     
  -75230502.2594367     
  -75123129.8061052     
  -75016302.6046262     
  -74909003.3534014     
  -74799841.9745744     
  -74687031.2894744     
  -74568373.9956023     
  -74441381.4881426     
  -74303270.8219025     
  -74151553.3114505     
  -73983270.4538932     
  -73797526.4750261     
  -73589684.1103118     
  -73351785.4235228     
  -88447201.1737465     
  -88078317.8421308     
  -87720924.1283924     
  -87388144.3885686     
  -87076838.9188165     
  -86784796.6701005     
  -86510228.7380246     
  -86253438.6826194     
  -86021841.6093174     
  -85827812.7733669     
  -85662682.4306521     
  -85509230.5807624     
  -85360654.5683404     
  -85213379.3685955     
  -85065147.1586321     
  -84914734.7819317     
  -84761517.1970250     
  -84605264.6628782     
  -84446004.6630506     
  -84283933.2761693     
  -84119352.5572996     
  -83952625.5675282     
  -83784143.6226927     
  -83614302.6331893     
  -83443486.4144808     
  -83272055.4012959     
  -83107750.4637011     
  -82955498.9383837     
  -82803636.1309730     
  -82652319.3768970     
  -82501712.7346197     
  -82351951.4567559     
  -82203144.0474095     
  -82055374.6294044     
  -81908705.4279238     
  -81763179.2358779     
  -81618821.7723333     
  -81475643.8803081     
  -81333643.5359945     
  -81192807.6597882     
  -81053113.7319889     
  -80914531.2240645     
  -80777022.8610890     
  -80640545.7333180     
  -80505052.2755700     
  -80370491.1327051     
  -80236807.9284486     
  -80103945.9534086     
  -79971846.7865973     
  -79840450.8632165     
  -79709698.0000473     
  -79579527.8885090     
  -79449880.5643800     
  -79320696.8623266     
  -79191918.8627671     
  -79063490.3381948     
  -78935357.2059085     
  -78807467.9941333     
  -78679774.3287423     
  -78552231.4481774     
  -78424798.7546967     
  -78297440.4106769     
  -78170125.9892605     
  -78042831.1890932     
  -77915538.6229938     
  -77788238.6899059     
  -77660930.5380796     
  -77533623.1245413     
  -77406336.3709927     
  -77279102.4084545     
  -77151966.8911741     
  -77024990.3433072     
  -76898249.4780299     
  -76771838.3962913     
  -76645869.5293249     
  -76520474.1331975     
  -76395802.0731461     
  -76272020.5487013     
  -76149311.3071258     
  -76027865.7737640     
  -75907877.3978854     
  -75789530.3796303     
  -75672983.8248050     
  -75558350.2907122     
  -75445667.6902299     
  -75334863.6460395     
  -75225711.8113700     
  -75117780.3477307     
  -75010374.4080354     
  -74902476.1953649     
  -74792691.1018371     
  -74679210.5637562     
  -74559811.8614959     
  -74431916.2647092     
  -74292691.2330427     
  -74139348.8055456     
  -73968848.1926902     
  -73779737.0037509     
  -73564441.0505970     
  -73324787.6750331     
  -88407230.5856746     
  -88048698.5064341     
  -87698354.6964107     
  -87369943.1779938     
  -87062163.4968819     
  -86773053.4619966     
  -86501227.3955770     
  -86247175.1681626     
  -86015790.3575663     
  -85816923.3729522     
  -85648039.0334360     
  -85493059.9333409     
  -85343700.2877949     
  -85196042.4229114     
  -85047706.1173869     
  -84897375.2781044     
  -84744373.5183788     
  -84588434.9070595     
  -84429562.4206467     
  -84267934.0562764     
  -84103838.1458519     
  -83937626.9187369     
  -83769682.9425146     
  -83600394.9458887     
  -83430140.7971503     
  -83259275.9890124     
  -83097026.5008900     
  -82945141.6514938     
  -82793619.8402561     
  -82642652.4318275     
  -82492400.7562584     
  -82342997.6123653     
  -82194549.3332727     
  -82047138.1508456     
  -81900824.6684070     
  -81755650.3095057     
  -81611639.6561040     
  -81468802.6240991     
  -81327136.4494672     
  -81186627.4763259     
  -81047252.7504029     
  -80908981.4292258     
  -80771776.0248800     
  -80635593.4974149     
  -80500386.2175755     
  -80366102.8171008     
  -80232688.9437332     
  -80100087.9366568     
  -79968241.4365262     
  -79837089.9426902     
  -79706573.3287950     
  -79576631.3266747     
  -79447203.9873792     
  -79318232.1273493     
  -79189657.7671373     
  -79061424.5696890     
  -78933478.2850363     
  -78805767.2083069     
  -78678242.6582005     
  -78550859.4834987     
  -78423576.6057385     
  -78296357.6068069     
  -78169171.3708429     
  -78041992.7903313     
  -77914803.5464535     
  -77787592.9733652     
  -77660359.0147655     
  -77533109.2783854     
  -77405862.1892589     
  -77278648.2350006     
  -77151511.2847322     
  -77024509.9465274     
  -76897718.9046338     
  -76771230.1455349     
  -76645153.9390285     
  -76519619.3848199     
  -76394774.2645807     
  -76270783.8524525     
  -76147828.2328736     
  -76026097.5544531     
  -75905784.5163128     
  -75787073.2470687     
  -75670123.6110707     
  -75555049.8863463     
  -75441892.7428327     
  -75330583.5678191     
  -75220900.5428593     
  -75112416.5817061     
  -75004440.6625499     
  -74895956.0097078     
  -74785563.0609552     
  -74671436.7200355     
  -74551322.3125539     
  -74422569.4131775     
  -74282272.6050969     
  -74127376.1486927     
  -73954888.4795954     
  -73762169.4869640     
  -73542035.0632146     
  -73302517.7438532     
  -88368764.2734834     
  -88018319.3726251     
  -87674882.6288099     
  -87351008.0475172     
  -87046827.6719247     
  -86760734.1043725     
  -86491682.4452387     
  -86240171.2451379     
  -86009144.0430029     
  -85806751.4433930     
  -85634652.2843197     
  -85478122.9358703     
  -85327942.4009719     
  -85179830.0217644     
  -85031304.3220673     
  -84880969.1274393     
  -84728099.8003813     
  -84572396.8175965     
  -84413839.2805985     
  -84252587.3994903     
  -84088915.6940001     
  -83923165.3343592     
  -83755709.8131433     
  -83586930.2994355     
  -83417198.3072823     
  -83246863.9691719     
  -83086646.9023217     
  -82935071.7091614     
  -82783872.6496826     
  -82633237.8917416     
  -82483325.8415020     
  -82334266.6693212     
  -82186164.3829872     
  -82039099.1883376     
  -81893129.9496644     
  -81748296.6202743     
  -81604622.5587246     
  -81462116.6803496     
  -81320775.4186748     
  -81180584.4889646     
  -81041520.4580606     
  -80903552.1322479     
  -80766641.7792476     
  -80630746.2025191     
  -80495817.6865565     
  -80361804.8313526     
  -80228653.2930593     
  -80096306.4464212     
  -79964705.9829728     
  -79833792.4574482     
  -79703505.7934069     
  -79573785.7578276     
  -79444572.4133632     
  -79315806.5561188     
  -79187430.1462219     
  -79059386.7380796     
  -78931621.9170693     
  -78804083.7494801     
  -78676723.2527929     
  -78549494.8938207     
  -78422357.1228304     
  -78295272.9524272     
  -78168210.5906645     
  -78041144.1383897     
  -77914054.3610989     
  -77786929.5452721     
  -77659766.4479487     
  -77532571.3457280     
  -77405361.1847697     
  -77278164.8259110     
  -77151024.3676847     
  -77023996.5134831     
  -76897153.9257818     
  -76770586.4784312     
  -76644402.2753824     
  -76518728.2487575     
  -76393710.0787036     
  -76269511.0903335     
  -76146309.6784482     
  -76024294.6894369     
  -75903658.0553589     
  -75784583.8354708     
  -75667232.6891665     
  -75551720.7054887     
  -75438091.4835173     
  -75326280.4593426     
  -75216070.7859908     
  -75107040.7748663     
  -74998504.1191812     
  -74889446.3592464     
  -74778464.2289245     
  -74663719.2262263     
  -74542923.4343036     
  -74413369.7758487     
  -74272053.5066158     
  -74115748.3135453     
  -73941379.0643302     
  -73745402.6496543     
  -73522397.6450207     
  -73284004.9659099     
  -88331309.6309380     
  -87987436.4941625     
  -87650571.9675031     
  -87331368.6606827     
  -87030857.0779156     
  -86747849.7316237     
  -86481582.5226550     
  -86232487.4821378     
  -86002063.0617669     
  -85797180.9779632     
  -85622425.1332614     
  -85464392.2533038     
  -85313354.2237280     
  -85164721.8979776     
  -85015924.8242870     
  -84865501.5438303     
  -84712683.1142479     
  -84557138.9713774     
  -84398825.2252112     
  -84237884.5892925     
  -84074577.7166675     
  -83909234.4847960     
  -83742218.9813636     
  -83573904.4315187     
  -83404655.5841377     
  -83234963.7536919     
  -83076570.5140833     
  -82925285.6354046     
  -82774391.6879394     
  -82624073.4261179     
  -82474486.1383959     
  -82325757.1951590     
  -82177988.1286196     
  -82031256.9881880     
  -81885620.7868629     
  -81741117.9117432     
  -81597770.4164364     
  -81455586.1467649     
  -81314560.6757304     
  -81174679.0409719     
  -81035917.2895641     
  -80898243.8423214     
  -80761620.6939583     
  -80626004.4673822     
  -80491347.3407978     
  -80357597.8657149     
  -80224701.6927584     
  -80092602.2206987     
  -79961241.1825129     
  -79830559.1807464     
  -79700496.1830023     
  -79570991.9871289     
  -79441986.6646374     
  -79313420.9900616     
  -79185236.8633819     
  -79057377.7322876     
  -78929789.0209086     
  -78802418.5717422     
  -78675217.1077870     
  -78548138.7223578     
  -78421141.4046759     
  -78294187.6100324     
  -78167244.8840453     
  -78040286.5511375     
  -77913292.4776918     
  -77786249.9201340     
  -77659154.4670938     
  -77532011.0823539     
  -77404835.2508587     
  -77277654.2227982     
  -77150508.3396862     
  -77023452.4100839     
  -76896557.0795951     
  -76769910.1081710     
  -76643617.4254336     
  -76517803.7795521     
  -76392612.7248885     
  -76268205.6064492     
  -76144759.0941639     
  -76022460.6976944     
  -75901501.5561895     
  -75782065.6542289     
  -75664314.4785710     
  -75548366.0224089     
  -75434267.0003621     
  -75321957.2154968     
  -75211225.3033782     
  -75101655.7205839     
  -74992567.9982959     
  -74882951.4274516     
  -74771401.2317095     
  -74656067.8315290     
  -74534633.7823665     
  -74404341.3233650     
  -74262085.5402058     
  -74104527.6088662     
  -73928413.7307786     
  -73729787.9100774     
  -73505354.2372844     
  -73268576.5245626     
  -88294494.0348999     
  -87956164.1161585     
  -87625506.9858803     
  -87311053.3381281     
  -87014277.3148547     
  -86734411.8551906     
  -86470926.5194488     
  -86224182.2727434     
  -85994644.0526035     
  -85788141.1894646     
  -85611273.2418023     
  -85451832.8940760     
  -85299908.3110368     
  -85150695.0626871     
  -85001548.6263561     
  -84850955.9849056     
  -84698109.0624825     
  -84542648.7556417     
  -84384509.2585261     
  -84223816.1123953     
  -84060816.0755228     
  -83895827.5049282     
  -83729204.7537190     
  -83561312.7175586     
  -83392508.9685906     
  -83224082.1259850     
  -83066793.2113007     
  -82915779.9794699     
  -82765174.1120419     
  -82615156.7337863     
  -82465879.8239419     
  -82317467.7850420     
  -82170019.5279562     
  -82023610.8201945     
  -81878296.7162879     
  -81734113.9462010     
  -81591083.1818867     
  -81449211.1352506     
  -81308492.4648897     
  -81168911.4858617     
  -81030443.6880286     
  -80893057.0755749     
  -80756713.3442899     
  -80621368.9149734     
  -80486975.8416252     
  -80353482.6124063     
  -80220834.8601316     
  -80088975.9975268     
  -79957847.7908777     
  -79827390.8841426     
  -79697545.2841609     
  -79568250.8163509     
  -79439447.5592479     
  -79311076.2654347     
  -79183078.7758431     
  -79055398.4340598     
  -78927980.5071532     
  -78800772.6196474     
  -78673725.2075645     
  -78546791.9999585     
  -78419930.5359929     
  -78293102.7263677     
  -78166275.4686536     
  -78039421.3267626     
  -77912519.2851771     
  -77785555.5884444     
  -77658524.6754579     
  -77531430.2157373     
  -77404286.2506669     
  -77277118.4355901     
  -77149965.3678286     
  -77022879.9697015     
  -76895930.8729454     
  -76769203.7196905     
  -76642802.2532158     
  -76516849.0168472     
  -76391485.4093260     
  -76266870.7578468     
  -76143179.9646701     
  -76020599.1600667     
  -75899318.6562976     
  -75779522.3510302     
  -75661372.5867494     
  -75544989.3563236     
  -75430422.6885737     
  -75317617.1040570     
  -75206367.2870182     
  -75096264.7004623     
  -74986635.9855652     
  -74876475.9322539     
  -74764380.8110937     
  -74648492.8591968     
  -74526470.3963221     
  -74395508.7861033     
  -74252416.1051763     
  -74093765.1965670     
  -73916114.1763879     
  -73715522.9208565     
  -73490699.8027325     
  -73255751.0821286     
  -88258020.6001732     
  -87924540.0644253     
  -87599766.9044668     
  -87290094.6567194     
  -86997112.5113330     
  -86720433.6957036     
  -86459721.1718101     
  -86215303.3165033     
  -85986946.3284651     
  -85779585.8945511     
  -85601126.8824344     
  -85440405.5415930     
  -85287575.3154375     
  -85137724.3105518     
  -84988154.6245283     
  -84837314.1952973     
  -84684361.7941688     
  -84528912.3772482     
  -84370879.4179839     
  -84210371.6687830     
  -84047621.9905813     
  -83882937.0059527     
  -83716661.0088175     
  -83549150.1829795     
  -83380754.5151394     
  -83213548.5236387     
  -83057310.8931564     
  -82906551.3207726     
  -82756217.1121580     
  -82606485.5475184     
  -82457505.1083772     
  -82309397.0656865     
  -82162257.5680568     
  -82016159.9808234     
  -81871157.2981596     
  -81727284.5071402     
  -81584560.8262869     
  -81442991.7737818     
  -81302571.0441599     
  -81163282.1887703     
  -81025100.1062534     
  -80887992.3560646     
  -80751920.3118593     
  -80616840.1731660     
  -80482703.8539674     
  -80349459.7660633     
  -80217053.5138067     
  -80085428.5152534     
  -79954526.5631505     
  -79824288.3376219     
  -79694653.8809832     
  -79565563.0438818     
  -79436955.9109313     
  -79308773.2132243     
  -79180956.7345441     
  -79053449.7177672     
  -78926197.2778513     
  -78799146.8279205     
  -78672248.5252800     
  -78545455.7447158     
  -78418725.5870782     
  -78292019.4319496     
  -78165303.5439817     
  -78038549.7432030     
  -77911736.1500766     
  -77784848.0160444     
  -77657878.6494234     
  -77530830.4443590     
  -77403716.0164538     
  -77276559.4418518     
  -77149397.5859938     
  -77022281.4925760     
  -76895277.7809395     
  -76768469.9692691     
  -76641959.5994901     
  -76515866.9853083     
  -76390331.3351562     
  -76265509.9148778     
  -76141575.8095539     
  -76018713.7200718     
  -75897113.0904467     
  -75776957.7127556     
  -75658410.8097504     
  -75541594.4709450     
  -75426562.2489015     
  -75313263.7592032     
  -75201500.3521199     
  -75090871.4546388     
  -74980712.2304344     
  -74870025.0017717     
  -74757409.9146433     
  -74641004.7435292     
  -74518449.1647010     
  -74386897.0392147     
  -74243085.9845888     
  -74083511.4819020     
  -73904594.3779209     
  -73702704.6009430     
  -73478232.5012754     
  -73245174.7983553     
  -88221640.6681119     
  -87892560.6720531     
  -87573419.3271263     
  -87268528.5903611     
  -86979385.7653061     
  -86705930.7280105     
  -86447978.4196532     
  -86205885.0196867     
  -85979005.0861876     
  -85771484.1938168     
  -85591929.8309440     
  -85430069.0631131     
  -85276323.5703291     
  -85125782.4097571     
  -84975719.6731832     
  -84824556.2286257     
  -84671424.0354511     
  -84515914.8778992     
  -84357922.7910245     
  -84197540.1861592     
  -84034986.0547959     
  -83870555.0897421     
  -83704581.2114951     
  -83537411.5169602     
  -83369388.0050550     
  -83203348.5026287     
  -83048119.4879766     
  -82897596.2739467     
  -82747517.9164768     
  -82598057.6386186     
  -82449360.2394267     
  -82301543.6992418     
  -82154701.2687507     
  -82008903.7963282     
  -81864202.1193884     
  -81720629.4016729     
  -81578203.3415141     
  -81436928.2082209     
  -81296796.6868617     
  -81157791.5277905     
  -81019887.0078526     
  -80883050.2167269     
  -80747242.1854208     
  -80612418.8753984     
  -80478532.0468980     
  -80345530.0241750     
  -80213358.3740796     
  -80081960.5127959     
  -79951278.2539490     
  -79821252.3097148     
  -79691822.7551488     
  -79562929.4647247     
  -79434512.5290613     
  -79306512.6590417     
  -79178871.5839843     
  -79051532.4502083     
  -78924440.2262561     
  -78797542.1211655     
  -78670788.0225255     
  -78544130.9615881     
  -78417527.6133819     
  -78290938.8405954     
  -78164330.2908313     
  -78037673.0575902     
  -77910944.4158933     
  -77784128.6434880     
  -77657217.9378311     
  -77530213.4370140     
  -77403126.3488908     
  -77275979.1860758     
  -77148807.0941559     
  -77021659.2451477     
  -76894600.2463056     
  -76767711.4839890     
  -76641092.2813054     
  -76514860.6943095     
  -76389153.7023030     
  -76264126.4611997     
  -76139950.1835027     
  -76016808.0842014     
  -75894888.6910225     
  -75774375.6657560     
  -75655433.1320786     
  -75538185.3736372     
  -75422689.6850331     
  -75308901.1765887     
  -75196628.5271549     
  -75085480.1645942     
  -74974801.3219732     
  -74863604.1119746     
  -74750495.6867355     
  -74633613.7367222     
  -74510585.1466732     
  -74378529.8194371     
  -74234130.4391461     
  -74073816.1239701     
  -73893946.7885435     
  -73691365.6111040     
  -73467767.4699840     
  -73236581.4064511     
  -88185135.4306133     
  -87860200.3486481     
  -87546521.0817850     
  -87246392.4766348     
  -86961119.4616825     
  -86690920.9498272     
  -86435713.7273253     
  -86195947.6133357     
  -85970838.0329945     
  -85763816.7212977     
  -85583637.7628722     
  -85420781.9118599     
  -85266119.1234100     
  -85114840.1752529     
  -84964218.6773531     
  -84812660.4805379     
  -84659277.1246747     
  -84503640.1576728     
  -84345625.5361040     
  -84185309.8387481     
  -84022898.2517239     
  -83858673.3656961     
  -83692958.4288827     
  -83526091.0876712     
  -83358404.9606806     
  -83193477.9320461     
  -83039214.9585252     
  -82888911.4940085     
  -82739073.7961287     
  -82589870.8215212     
  -82441443.5065310     
  -82293906.3871266     
  -82147349.6860774     
  -82001841.6258066     
  -81857430.7962673     
  -81714148.4628825     
  -81572010.7421547     
  -81431020.6040807     
  -81291169.6831419     
  -81152439.8952620     
  -81014804.8683505     
  -80878231.2003005     
  -80742679.5616345     
  -80608105.6613104     
  -80474461.0941538     
  -80341694.0874995     
  -80209750.1632411     
  -80078572.7298879     
  -79948103.6176014     
  -79818283.5676064     
  -79689052.6859655     
  -79560350.8704946     
  -79432118.2185945     
  -79304295.4230206     
  -79176824.1620751     
  -79049647.4904141     
  -78922710.2365880     
  -78795959.4135853     
  -78669344.6490036     
  -78542818.6420272     
  -78416337.6550924     
  -78289862.0489624     
  -78163356.8708086     
  -78036792.5057009     
  -77910145.4025180     
  -77783398.8854115     
  -77656544.0613158     
  -77529580.8321141     
  -77402519.0163391     
  -77275379.5789440     
  -77148195.9576369     
  -77021015.4593187     
  -76893900.6786742     
  -76766930.8610551     
  -76640203.0913755     
  -76513833.1373830     
  -76387955.7070118     
  -76262723.7934077     
  -76138306.6760238     
  -76014886.0217044     
  -75892649.3878071     
  -75771780.2754885     
  -75652443.7259529     
  -75534766.3139560     
  -75418809.3006493     
  -75304533.7083776     
  -75191756.2442043     
  -75080095.4395225     
  -74968908.2612402     
  -74857219.0522383     
  -74743645.4068988     
  -74626329.7818170     
  -74502892.5990634     
  -74370428.9217074     
  -74225580.3711210     
  -74064725.3668024     
  -73884239.1972664     
  -73681498.7937891     
  -73459141.2302820     
  -73229766.4731880     
  -88148302.5019341     
  -87827423.4562827     
  -87519121.7976161     
  -87223723.2755397     
  -86942335.0960379     
  -86675424.9851613     
  -86422945.8005998     
  -86185496.2050790     
  -85962448.3145334     
  -85756575.1792350     
  -85576216.8265570     
  -85412502.6079098     
  -85256925.9917229     
  -85104866.5214536     
  -84953624.6821549     
  -84801603.7383803     
  -84647901.0514323     
  -84492071.0060580     
  -84333972.9084320     
  -84173668.0702010     
  -84011347.9763407     
  -83847282.9700597     
  -83681785.3483979     
  -83515182.9590070     
  -83347800.6608969     
  -83183932.5963735     
  -83030593.3075140     
  -82880493.6816472     
  -82730882.0701641     
  -82581922.9583987     
  -82433753.2450525     
  -82286483.8738228     
  -82140201.9156745     
  -81994972.8641969     
  -81850842.9771017     
  -81707841.5521191     
  -81565983.0674912     
  -81425269.1482346     
  -81285690.3414376     
  -81147227.6990170     
  -81009854.1762341     
  -80873535.8602111     
  -80738233.0458056     
  -80603901.1773525     
  -80470491.6746323     
  -80337952.6604628     
  -80206229.6058872     
  -80075265.9073116     
  -79945003.4083093     
  -79815382.8772379     
  -79686344.4504153     
  -79557828.0494103     
  -79429773.7800136     
  -79302122.3197143     
  -79174815.2999921     
  -79047795.6894561     
  -78921008.1837986     
  -78794399.6087023     
  -78667919.3422075     
  -78541519.7636154     
  -78415156.7367296     
  -78288790.1360980     
  -78162384.4258302     
  -78035909.3014190     
  -77909340.4056504     
  -77782660.1299088     
  -77655858.5116384     
  -77528934.2369841     
  -77401895.7541091     
  -77274762.4965557     
  -77147566.2063103     
  -77020352.3316420     
  -76893181.4537598     
  -76766130.6669781     
  -76639294.7972714     
  -76512787.2914325     
  -76386740.5410871     
  -76261305.3202972     
  -76136648.9107253     
  -76012951.3638531     
  -75890399.2071714     
  -75769175.7455263     
  -75649446.9499469     
  -75531341.7815982     
  -75414925.6961946     
  -75300166.0580977     
  -75186888.3304526     
  -75074722.3036997     
  -74963038.4382284     
  -74850875.8980052     
  -74736866.4255530     
  -74619162.4532559     
  -74495384.8543074     
  -74362613.8434783     
  -74217462.8777577     
  -74056279.5128718     
  -73875516.3802854     
  -73673073.2700397     
  -73452211.8108804     
  -73224570.3125462     
  -88110944.9070649     
  -87794192.6955262     
  -87491268.3470297     
  -87200556.2459183     
  -86923052.7185623     
  -86659465.8873084     
  -86409698.1113216     
  -86174518.8366580     
  -85953824.8803336     
  -85749764.5670114     
  -85569642.2857810     
  -85405189.5374364     
  -85248706.5357063     
  -85095828.5092256     
  -84943908.9606715     
  -84791361.2431538     
  -84637274.5008477     
  -84481189.1395609     
  -84322949.2904984     
  -84162601.6204909     
  -84000324.0589828     
  -83836374.5877004     
  -83671054.2976621     
  -83504680.9088163     
  -83337570.1577523     
  -83174708.2061013     
  -83022250.5833395     
  -82872339.5886455     
  -82722940.1105918     
  -82574211.9637838     
  -82426287.8404634     
  -82279274.9506285     
  -82133257.0961116     
  -81988296.9452141     
  -81844438.3447791     
  -81701708.5612298     
  -81560120.3834282     
  -81419674.0505720     
  -81280358.9898894     
  -81142155.3635815     
  -81005035.4339677     
  -80868964.7614227     
  -80733903.2525910     
  -80599806.0773686     
  -80466624.4728648     
  -80334306.4515356     
  -80202797.4292127     
  -80072040.7871174     
  -79941978.3803016     
  -79812551.0034001     
  -79683698.8231921     
  -79555361.7862829     
  -79427480.0092682     
  -79299994.1579913     
  -79172845.8220279     
  -79045977.8902589     
  -78919334.9333425     
  -78792863.5990886     
  -78666513.0271089     
  -78540235.2897122     
  -78413985.8667491     
  -78287724.1630001     
  -78161414.0776399     
  -78035024.6362059     
  -77908530.6962213     
  -77781913.7379102     
  -77655162.7510169     
  -77528275.2271461     
  -77401258.2637014     
  -77274129.7796260     
  -77146919.8337587     
  -77019672.0224363     
  -76892444.9124389     
  -76765313.4366178     
  -76638370.1404308     
  -76511726.1157093     
  -76385511.3908368     
  -76259874.4617668     
  -76134980.5441597     
  -76011008.0026992     
  -75888142.2706943     
  -75766566.4159493     
  -75646447.3470067     
  -75527916.5038027     
  -75411043.7653190     
  -75295803.2754795     
  -75182030.0006617     
  -75069366.1851073     
  -74957197.6141555     
  -74844580.9862984     
  -74730166.1147639     
  -74612120.9141425     
  -74488074.1742732     
  -74355101.6662288     
  -74209801.3199035     
  -74048511.3207545     
  -73867803.5571117     
  -73666044.8920947     
  -73446857.0557507     
  -73220866.3434299     
  -88072860.6957627     
  -87760476.7150447     
  -87463009.3825391     
  -87176923.7048416     
  -86903290.3464854     
  -86643068.1137407     
  -86396003.0892467     
  -86162982.7493663     
  -85944940.4296270     
  -85743408.6783811     
  -85563896.5514240     
  -85398800.3629683     
  -85241421.9251224     
  -85087691.3557315     
  -84935041.1196180     
  -84781906.7543425     
  -84627374.9054562     
  -84470975.2448679     
  -84312538.2273600     
  -84152096.5567165     
  -83989814.7923558     
  -83825938.4763374     
  -83660757.2663277     
  -83494578.4486312     
  -83327708.2942555     
  -83165800.4089751     
  -83014182.8860524     
  -82864446.0234362     
  -82715245.3474887     
  -82566735.8092086     
  -82419045.7325146     
  -82272278.4593728     
  -82126514.4121694     
  -81981813.3442270     
  -81838216.6192732     
  -81695749.4147273     
  -81554422.7843606     
  -81414235.5455977     
  -81275175.9777044     
  -81137223.3313293     
  -81000349.1589666     
  -80864518.4812515     
  -80729690.8066762     
  -80595821.0231525     
  -80462860.1794681     
  -80330756.1735933     
  -80199454.3632900     
  -80068898.1128307     
  -79939029.2879757     
  -79809788.7098185     
  -79681116.5767342     
  -79552952.8624995     
  -79425237.6977140     
  -79297911.7409320     
  -79170916.5454478     
  -79044194.9274138     
  -78917691.3409518     
  -78791352.2661017     
  -78665126.6158544     
  -78538966.1691086     
  -78412826.0371540     
  -78286665.1721873     
  -78160446.9273331     
  -78034139.6785811     
  -77907717.5198276     
  -77781161.0425658     
  -77654458.2114619     
  -77527605.3456004     
  -77400608.2120321     
  -77273483.2326525     
  -77146258.7963785     
  -77018976.6548304     
  -76891693.3597261     
  -76764481.6720868     
  -76637431.8349872     
  -76510652.5505550     
  -76384271.4357156     
  -76258434.6473531     
  -76133305.2642299     
  -76009059.8893205     
  -75885882.7932078     
  -75763956.7611172     
  -75643449.6418550     
  -75524495.4422231     
  -75407168.6909753     
  -75291450.7513675     
  -75177186.8504392     
  -75064032.9058480     
  -74951391.9081978     
  -74838340.8955054     
  -74723551.8352352     
  -74605213.8777497     
  -74480971.6356007     
  -74347907.0271271     
  -74202615.1617718     
  -74041445.3338644     
  -73861110.2014154     
  -73660362.9285923     
  -73442972.3048379     
  -73218552.9684222     
  -88033831.5724832     
  -87726259.2960356     
  -87434399.4954688     
  -87152853.2790967     
  -86883064.1426595     
  -86626254.2879504     
  -86381910.8648088     
  -86150827.7248005     
  -85935746.2236122     
  -85737560.8081497     
  -85558965.0018213     
  -85393291.6696918     
  -85235032.6007427     
  -85080418.3808312     
  -84926989.2484800     
  -84773212.6030128     
  -84618178.5099497     
  -84461409.0251690     
  -84302722.4672114     
  -84142138.3075007     
  -83979807.9616146     
  -83815964.4931816     
  -83650885.9298010     
  -83484868.8448833     
  -83318209.7233204     
  -83157204.8018799     
  -83006386.3735660     
  -82856809.8568013     
  -82707795.2741756     
  -82559492.5278622     
  -82412025.4193905     
  -82265493.2960899     
  -82119973.0980678     
  -81975521.5810739     
  -81832177.5600857     
  -81689964.0718961     
  -81548890.3949812     
  -81408953.8939741     
  -81270141.6764672     
  -81132432.0635919     
  -80995795.8845277     
  -80860197.6101440     
  -80725596.3434199     
  -80591946.6849759     
  -80459199.4915709     
  -80327302.5442535     
  -80196201.1413290     
  -80065838.6296437     
  -79936156.8860300     
  -79807096.7592283     
  -79678598.4812506     
  -79550602.0560030     
  -79423047.6320486     
  -79295875.8657243     
  -79169028.2803453     
  -79042447.6269977     
  -78916078.2524154     
  -78789866.4796251     
  -78663761.0074670     
  -78537713.3356904     
  -78411678.2231189     
  -78285614.1872792     
  -78159484.0548929     
  -78033255.5736107     
  -77906902.0961702     
  -77780403.3486327     
  -77653746.2941071     
  -77526926.1020976     
  -77399947.2306389     
  -77272824.6230514     
  -77145585.0124402     
  -77018268.3137348     
  -76890929.0636505     
  -76763637.8415197     
  -76636482.5664146     
  -76509569.5159095     
  -76383023.8466797     
  -76256989.3144053     
  -76131626.7881613     
  -76007111.0315638     
  -75883625.0802714     
  -75761351.3868369     
  -75640458.7377835     
  -75521083.7892606     
  -75403305.9411824     
  -75287114.2127263     
  -75172364.8502535     
  -75058728.6745786     
  -74945627.7880583     
  -74832162.4311616     
  -74717030.9167536     
  -74598449.5762478     
  -74474087.0593833     
  -74341042.1143296     
  -74195919.7755477     
  -74035097.9110929     
  -73855433.5583263     
  -73655974.2557618     
  -73440468.0020228     
  -73217547.7875948     
  -87993608.6563011     
  -87691552.9677437     
  -87405502.3609957     
  -87128364.5845342     
  -86862391.3626075     
  -86609036.4124903     
  -86367506.5509266     
  -86137954.4998926     
  -85926161.8478673     
  -85732323.9803739     
  -85554825.9761053     
  -85388620.5797754     
  -85229498.1651324     
  -85073971.0338813     
  -84919720.0878747     
  -84765249.7291236     
  -84609660.4538998     
  -84452469.2458067     
  -84293484.0088227     
  -84132711.7000833     
  -83970290.8777706     
  -83806442.1238133     
  -83641431.6748848     
  -83475545.1415714     
  -83309068.9278570     
  -83148916.9433489     
  -82998857.2681063     
  -82849428.0277161     
  -82700587.4524671     
  -82552480.2192703     
  -82405225.4618477     
  -82258918.4146544     
  -82113632.4406390     
  -81969421.2228155     
  -81826320.9686240     
  -81684352.5288353     
  -81543523.3720258     
  -81403829.3840083     
  -81265256.4813998     
  -81127782.0417185     
  -80991376.1607202     
  -80856002.7524185     
  -80721620.5094651     
  -80588183.7420878     
  -80455643.1132164     
  -80323946.2861945     
  -80193038.4999212     
  -80062863.0845938     
  -79933361.9295824     
  -79804475.9134413     
  -79676145.3047404     
  -79548310.1412675     
  -79420910.5942461     
  -79293887.3235578     
  -79167181.8294991     
  -79040736.8063922     
  -78914496.5033634     
  -78788407.0978170     
  -78662417.0875568     
  -78536477.7081102     
  -78410543.3826210     
  -78284572.2125854     
  -78158526.5187385     
  -78032373.4424073     
  -77906085.6185043     
  -77779641.9318691     
  -77653028.3685414     
  -77526238.9724026     
  -77399276.9148708     
  -77272155.6802637     
  -77144900.3610967     
  -77017549.0447425     
  -76890154.2540311     
  -76762784.3777035     
  -76635524.9899939     
  -76508479.9095883     
  -76381771.7842451     
  -76255541.9059014     
  -76129948.8600434     
  -76005165.4912824     
  -75881373.5250800     
  -75758755.0269138     
  -75637479.7128343     
  -75517686.9638683     
  -75399461.2644499     
  -75282799.7177171     
  -75167570.3401903     
  -75053460.0809625     
  -74939912.0641702     
  -74826052.6185549     
  -74710610.6499325     
  -74591835.7422596     
  -74467428.9811337     
  -74334516.6694806     
  -74189726.3170667     
  -74029477.7060244     
  -73850761.6264258     
  -73652825.9073522     
  -73439267.4714540     
  -73217783.3965686     
  -87951892.6849597     
  -87656421.3617056     
  -87376391.7796822     
  -87103461.9522487     
  -86841301.1603491     
  -86591393.7298452     
  -86352944.4510691     
  -86124204.4588868     
  -85916055.7670665     
  -85727889.8374433     
  -85551426.6450943     
  -85384753.1728365     
  -85224774.4900485     
  -85068309.9026732     
  -84913198.8788836     
  -84757987.8193266     
  -84601794.8345793     
  -84444133.7897888     
  -84284804.1529690     
  -84123801.0004224     
  -83961250.4144036     
  -83797360.5131512     
  -83632385.6273721     
  -83466600.1843230     
  -83300280.2420058     
  -83141337.2512578     
  -82991591.8629153     
  -82842297.5493370     
  -82693619.5179964     
  -82545697.0539949     
  -82398644.4873387     
  -82252552.8303792     
  -82107491.7824474     
  -81963511.8864277     
  -81820646.6905143     
  -81678914.8204367     
  -81538321.9059587     
  -81398862.3330811     
  -81260520.8125667     
  -81123273.7680900     
  -80987090.5552313     
  -80851934.5269677     
  -80717763.9633194     
  -80584532.8831874     
  -80452191.7557418     
  -80320688.1274543     
  -80189967.1792672     
  -80059972.2267272     
  -79930645.1742791     
  -79801926.9334058     
  -79673757.8130043     
  -79546077.8892685     
  -79418827.3614889     
  -79291946.8995185     
  -79165377.9882328     
  -79039063.2741083     
  -78912946.9190556     
  -78786974.9668623     
  -78661095.7280386     
  -78535260.1894682     
  -78409422.4560823     
  -78283540.2327081     
  -78157575.3552783     
  -78031494.3816381     
  -77905269.2530932     
  -77778878.0384306     
  -77652305.7721408     
  -77525545.3975530     
  -77398598.8230633     
  -77271478.0948302     
  -77144206.6813477     
  -77016820.8529617     
  -76889371.1211552     
  -76761923.6765778     
  -76634561.7291046     
  -76507386.6053317     
  -76380518.3962627     
  -76254095.8679093     
  -76128275.2479450     
  -76003227.3810750     
  -75879132.6048078     
  -75756172.5390970     
  -75634517.8153719     
  -75514310.6068155     
  -75395640.6848544     
  -75278513.6508166     
  -75162810.0254419     
  -75048234.0920518     
  -74934251.8875292     
  -74820018.7022630     
  -74704298.2883870     
  -74585379.6071227     
  -74461004.6538957     
  -74328338.0031493     
  -74184041.7127900     
  -74024586.3877280     
  -73847075.5594763     
  -73650866.5500922     
  -73439304.9497717     
  -73219204.2819948     
  -87908304.4476128     
  -87621017.2869642     
  -87347149.1459172     
  -87078117.1271255     
  -86819866.0235116     
  -86573219.1526386     
  -86338517.0092137     
  -86109323.1461256     
  -85905207.8207971     
  -85724615.7839462     
  -85548625.4451896     
  -85381692.7950241     
  -85220800.8065623     
  -85063400.2954051     
  -84907387.2345227     
  -84751396.2725737     
  -84594554.4414819     
  -84436379.8495772     
  -84276663.5066218     
  -84115389.9763674     
  -83952673.0397076     
  -83788708.5014941     
  -83623738.6803915     
  -83458026.6462568     
  -83291837.8733229     
  -83134243.1742663     
  -82984586.5291744     
  -82835415.5151466     
  -82686889.1856095     
  -82539141.2783559     
  -82392281.1941196     
  -82246395.6235713     
  -82101550.5248547     
  -81957793.2414325     
  -81815154.6178478     
  -81673651.0222962     
  -81533286.2225930     
  -81394053.0890147     
  -81255935.1160272     
  -81118907.7670839     
  -80982939.6541715     
  -80847993.5679235     
  -80714027.3759002     
  -80580994.8068661     
  -80448846.1381312     
  -80317528.8017046     
  -80186987.9233838     
  -80057166.8072476     
  -79928007.3763901     
  -79799450.5792547     
  -79671436.7696512     
  -79543906.0674491     
  -79416798.7060956     
  -79290055.3724826     
  -79163617.5442728     
  -79037427.8296116     
  -78911430.3141744     
  -78785570.9207331     
  -78659797.7868577     
  -78534061.6670008     
  -78408316.3660204     
  -78282519.2121517     
  -78156631.5784782     
  -78030619.4630420     
  -77904454.1386730     
  -77778112.8842736     
  -77651579.8094019     
  -77524846.7831126     
  -77397914.4756962     
  -77270793.5174405     
  -77143505.7709574     
  -77016085.7017795     
  -76888581.8143613     
  -76761058.0956031     
  -76633595.3733404     
  -76506292.4506283     
  -76379266.8154052     
  -76252654.6466945     
  -76126609.7406039     
  -76001300.8605267     
  -75876906.8763872     
  -75753608.9004171     
  -75631578.4590379     
  -75510960.5753965     
  -75391850.4967540     
  -75274262.7179419     
  -75158090.9724768     
  -75043058.0504869     
  -74928654.7511204     
  -74814068.1524157     
  -74698101.0612427     
  -74579087.9175535     
  -74454820.0793040     
  -74322511.0345318     
  -74178868.7590245     
  -74020419.4555443     
  -73844351.5306233     
  -73650047.2596390     
  -73440523.8885703     
  -73221764.4918460     
  -87862334.2681098     
  -87585664.5207179     
  -87317813.2518702     
  -87052333.2112951     
  -86798023.1243049     
  -86554833.0986636     
  -86323228.5319721     
  -86101734.6980205     
  -85901392.2375489     
  -85721495.4968497     
  -85546745.5044574     
  -85379279.9808285     
  -85217571.1837094     
  -85059186.9005023     
  -84902252.2591074     
  -84745441.1010671     
  -84587911.9603652     
  -84429183.5972711     
  -84269042.1791140     
  -84107461.8969286     
  -83944544.8751711     
  -83780474.6542512     
  -83615481.5275259     
  -83449817.0541539     
  -83283871.2251014     
  -83127417.3855835     
  -82977837.7232391     
  -82828779.1052255     
  -82680394.2548428     
  -82532811.2191722     
  -82386134.3553428     
  -82240445.9430478     
  -82095808.1310294     
  -81952265.0124622     
  -81809844.6913618     
  -81668561.2525611     
  -81528416.5846506     
  -81389402.0313851     
  -81251499.8649343     
  -81114684.5859907     
  -80978924.0628340     
  -80844180.5252852     
  -80710411.4310476     
  -80577570.2220226     
  -80445606.9873464     
  -80314469.0485082     
  -80184101.4802968     
  -80054447.5796531     
  -79925449.2928959     
  -79797047.6103440     
  -79669182.9360977     
  -79541795.4396820     
  -79414825.3954479     
  -79288213.5150091     
  -79161901.2776109     
  -79035831.2631523     
  -78909947.4926233     
  -78784195.7809545     
  -78658524.1077214     
  -78532883.0117789     
  -78407226.0167105     
  -78281510.0949438     
  -78155696.1794389     
  -78029749.7329599     
  -77903641.3859257     
  -77777347.6545636     
  -77650851.7512760     
  -77524144.4984168     
  -77397225.3545363     
  -77270103.5579548     
  -77142799.3853295     
  -77015345.5115593     
  -76887788.4405282     
  -76760189.9520000     
  -76632628.4764550     
  -76505200.2643189     
  -76378020.1563763     
  -76251221.6854859     
  -76124956.1436996     
  -75999390.1319596     
  -75874700.9717303     
  -75751069.2019107     
  -75628667.2170850     
  -75507642.9375771     
  -75388097.2591074     
  -75270053.9415354     
  -75153420.6058236     
  -75037939.6743904     
  -74923128.4948450     
  -74808208.6773748     
  -74692026.1960857     
  -74572966.9709549     
  -74448880.0640725     
  -74317038.3648223     
  -74174206.3154470     
  -74016967.0523275     
  -73842562.1341554     
  -73650321.8439987     
  -73442875.5087229     
  -73225425.8623707     
  -87814344.4553212     
  -87551446.9413551     
  -87288161.2640396     
  -87026121.3483536     
  -86775878.1660058     
  -86536015.7701973     
  -86307703.2764524     
  -86094484.8874968     
  -85899324.8342429     
  -85719431.3127131     
  -85545462.1673268     
  -85377570.2974966     
  -85215005.5948372     
  -85055637.9383274     
  -84897751.5639653     
  -84740090.1975224     
  -84581838.2787390     
  -84422520.8663898     
  -84261919.6319543     
  -84099999.6562445     
  -83936851.7146117     
  -83772647.3084868     
  -83607604.6925205     
  -83441963.8177375     
  -83276688.1272043     
  -83120855.5879078     
  -82971341.9940189     
  -82822385.5927026     
  -82674132.6154594     
  -82526705.2885247     
  -82380202.8231301     
  -82234703.0096102     
  -82090264.1288978     
  -81946926.9817615     
  -81804716.9025510     
  -81663645.6737076     
  -81523713.2932533     
  -81384909.5727718     
  -81247215.5605767     
  -81110604.7958794     
  -80975044.4064113     
  -80840496.0655068     
  -80706916.8260016     
  -80574259.8482469     
  -80442475.0386297     
  -80311509.6135529     
  -80181308.6022146     
  -80051815.2998547     
  -79922971.6815583     
  -79794718.7852856     
  -79666997.0715589     
  -79539746.7662254     
  -79412908.1919143     
  -79286422.0932324     
  -79160229.9603645     
  -79034274.3555968     
  -78908499.2473277     
  -78782850.3563756     
  -78657275.5198405     
  -78531725.0784160     
  -78406152.2938556     
  -78280513.8042671     
  -78154770.1259835     
  -78028886.2118703     
  -77902832.0769596     
  -77776583.5030896     
  -77650122.8345057     
  -77523439.8758171     
  -77396532.9017694     
  -77269409.7843989     
  -77142089.2363384     
  -77014602.1582803     
  -76886993.0624730     
  -76759321.5208658     
  -76631663.5541444     
  -76504112.8339844     
  -76376781.5128464     
  -76249800.4208966     
  -76123318.2757123     
  -75997499.4356937     
  -75872519.5923911     
  -75748558.6427371     
  -75625789.8160821     
  -75504363.9655573     
  -75384387.7893628     
  -75265894.6555504     
  -75148806.7053677     
  -75032887.0588158     
  -74917681.3137620     
  -74802448.2425016     
  -74686080.9523497     
  -74567022.6688637     
  -74443188.3012174     
  -74311920.3895136     
  -74170049.5690035     
  -74014214.7201396     
  -73841677.4054312     
  -73651646.8762395     
  -73446317.5755461     
  -73230156.6514579     
  -87791180.8556553     
  -87521714.5643989     
  -87256955.7623094     
  -86999919.5678484     
  -86753270.0060517     
  -86516944.1456071     
  -86291630.2843550     
  -86086324.4397309     
  -85897560.2413113     
  -85718389.6090873     
  -85544771.8123967     
  -85376502.6335526     
  -85213063.4539865     
  -85052706.2980136     
  -84893846.7502860     
  -84735308.8290826     
  -84576304.1569292     
  -84416366.6797316     
  -84255274.9310776     
  -84092985.7628326     
  -83929579.0932691     
  -83765214.6050747     
  -83600098.5663186     
  -83434459.2582716     
  -83269805.2857954     
  -83114553.5802839     
  -82965095.9907107     
  -82816232.3503142     
  -82668102.2530687     
  -82520821.9885319     
  -82374485.5326265     
  -82229166.1194730     
  -82084918.1140374     
  -81941778.9916202     
  -81799771.2957105     
  -81658904.4942518     
  -81519176.6893537     
  -81380576.1599460     
  -81243082.7333660     
  -81106668.9924146     
  -80971301.3306655     
  -80836940.8720450     
  -80703544.2718478     
  -80571064.4161749     
  -80439451.0357818     
  -80308651.2488634     
  -80178610.0456818     
  -80049270.7262811     
  -79920575.3009822     
  -79792464.8619661     
  -79664879.9330344     
  -79537760.8036744     
  -79411047.8527698     
  -79284681.8667524     
  -79158604.3566399     
  -79032757.8782621     
  -78907086.3600423     
  -78781535.4429476     
  -78656052.8376746     
  -78530588.7047808     
  -78405096.0642669     
  -78279531.2421012     
  -78153854.3622554     
  -78028029.8939393     
  -77902027.2647999     
  -77775821.5516866     
  -77649394.2609633     
  -77522734.2099190     
  -77395838.5191188     
  -77268713.7219352     
  -77141376.9911234     
  -77013857.4721085     
  -76886197.6972645     
  -76758455.0331692     
  -76630703.0816645     
  -76503032.9131224     
  -76375553.9541166     
  -76248394.2790118     
  -76121699.9633736     
  -75995633.0448239     
  -75870367.5036702     
  -75746082.5236758     
  -75622952.1289771     
  -75501130.1287292     
  -75380729.1568797     
  -75261792.5002748     
  -75144257.4040509     
  -75027908.6785779     
  -74912321.7693899     
  -74796795.0946606     
  -74680272.6649138     
  -74561260.5877731     
  -74437747.4761369     
  -74307155.4510807     
  -74166390.3454047     
  -74012144.0701948     
  -73841665.5332063     
  -73653981.5416513     
  -73450813.3608606     
  -73235930.4731001     
  -87775368.6483584     
  -87491990.1521199     
  -87225408.0820594     
  -86973405.5837289     
  -86730228.1601669     
  -86497848.2354449     
  -86274464.1558488     
  -86077458.9940824     
  -85896407.7102260     
  -85718122.1312051     
  -85544708.4609673     
  -85376006.6358333     
  -85211703.4368555     
  -85050344.4304177     
  -84890498.1037832     
  -84731061.6982049     
  -84571279.6093964     
  -84410695.5815813     
  -84249086.7225426     
  -84086402.4293971     
  -83922712.3251468     
  -83758164.5347459     
  -83592953.4415011     
  -83427295.6398536     
  -83263217.1081709     
  -83108507.2675093     
  -82959096.4706893     
  -82810316.8571293     
  -82662301.2548036     
  -82515159.9161419     
  -82368981.5060320     
  -82223834.6476463     
  -82079769.7525092     
  -81936820.9467397     
  -81795007.9699076     
  -81654337.9703907     
  -81514807.1550943     
  -81376402.2749998     
  -81239101.9437681     
  -81102877.7966214     
  -80967695.5025561     
  -80833515.6458686     
  -80700294.4939257     
  -80567984.6678140     
  -80436535.7314161     
  -80305894.7129931     
  -80176006.5717183     
  -80046814.6199701     
  -79918260.9106643     
  -79790286.5975594     
  -79662832.2752851     
  -79535838.3049094     
  -79409245.1301155     
  -79282993.5885267     
  -79157025.2223964     
  -79031282.5927536     
  -78905709.6011615     
  -78780251.8235067     
  -78654856.8606896     
  -78529474.7117246     
  -78404058.1755554     
  -78278563.2888762     
  -78152949.8083289     
  -78027181.7465802     
  -77901227.9728880     
  -77775062.8896630     
  -77648667.1969929     
  -77522028.7568201     
  -77395143.5669537     
  -77268016.8518136     
  -77140664.2708432     
  -77013113.2359170     
  -76885404.3144507     
  -76757592.6736317     
  -76629749.4912949     
  -76501963.2181193     
  -76374340.5215236     
  -76247006.6711463     
  -76120105.0367159     
  -75993795.2595190     
  -75868249.5281664     
  -75743646.2400127     
  -75620160.1675134     
  -75497948.0860011     
  -75377128.6758327     
  -75257755.4169003     
  -75139781.1858402     
  -75023013.3922745     
  -74907058.8037677     
  -74791257.7920419     
  -74674608.7974262     
  -74555686.0664529     
  -74432559.3977335     
  -74302740.0308421     
  -74163217.4498603     
  -74010733.3573378     
  -73842493.3278437     
  -73657287.3667483     
  -73456330.7593633     
  -73242725.4579935     
  -87756670.6329246     
  -87460988.9700359     
  -87193480.4382120     
  -86946740.0668891     
  -86706646.6267573     
  -86478750.5726048     
  -86259565.7073529     
  -86069455.6095343     
  -85895730.0764151     
  -85718582.9073363     
  -85545217.7251380     
  -85376039.1567718     
  -85210873.3442286     
  -85048507.0566494     
  -84887664.0948714     
  -84727313.1489916     
  -84566733.9958697     
  -84405481.7072344     
  -84243333.3103286     
  -84080231.6286789     
  -83916236.5561023     
  -83751484.9810908     
  -83586159.5500246     
  -83420465.2012314     
  -83256918.0553494     
  -83102712.6697967     
  -82953340.3076690     
  -82804636.7053977     
  -82656727.8150637     
  -82509717.7679354     
  -82363689.8566059     
  -82218708.0512698     
  -82074818.7836254     
  -81932052.8165277     
  -81790427.0808823     
  -81649946.4075701     
  -81510605.1151031     
  -81372388.4364097     
  -81235273.7831760     
  -81099231.8555995     
  -80964227.6108197     
  -80830221.1059268     
  -80697168.2322044     
  -80565021.3568387     
  -80433729.8871858     
  -80303240.7711924     
  -80173498.9459367     
  -80044447.7446433     
  -79916029.2710290     
  -79788184.7485292     
  -79660854.8508048     
  -79533980.0190362     
  -79407500.7707921     
  -79281358.0047583     
  -79155493.3053109     
  -79029849.2508055     
  -78904369.7295355     
  -78779000.2675654     
  -78653688.3731192     
  -78528383.9028121     
  -78403039.4558312     
  -78277610.8031352     
  -78152057.3598295     
  -78026342.7100233     
  -77900435.1945932     
  -77774308.5732383     
  -77647942.7727596     
  -77521324.7333471     
  -77394449.3633885     
  -77267320.6103018     
  -77139952.6493985     
  -77012371.1837499     
  -76884614.8342100     
  -76756736.5784967     
  -76628805.1696522     
  -76500906.4250261     
  -76373144.2245886     
  -76245640.9892857     
  -76118537.3237269     
  -75991990.4008482     
  -75866170.5387797     
  -75741255.2738020     
  -75617420.0739770     
  -75494824.6774695     
  -75373593.8975493     
  -75253791.6417621     
  -75135386.8838257     
  -75018210.4472650     
  -74901901.7559162     
  -74785845.2388292     
  -74669097.0046829     
  -74550304.3088002     
  -74427625.1543869     
  -74298668.9774284     
  -74160517.0242734     
  -74009957.9611446     
  -73844126.4974992     
  -73661527.8722293     
  -73462841.5298321     
  -73250523.5861074     
  -87736557.5937407     
  -87430042.2407411     
  -87162662.9538588     
  -86919467.2327431     
  -86682799.7415167     
  -86459025.8831911     
  -86250689.4307809     
  -86064885.6835276     
  -85895379.5411375     
  -85719761.9337714     
  -85546222.4667697     
  -85376560.0907844     
  -85210518.6222866     
  -85047148.3235817     
  -84885302.4718033     
  -84724026.9423224     
  -84562636.2240292     
  -84400698.8321747     
  -84237992.7401313     
  -84074455.1524434     
  -83910136.8183212     
  -83745163.7658151     
  -83579707.1021575     
  -83413960.1888384     
  -83250902.6622586     
  -83097165.9328112     
  -82947824.5000861     
  -82799189.6075305     
  -82651380.2413159     
  -82504494.3449304     
  -82358609.7926420     
  -82213785.8728924     
  -82070065.0226524     
  -81927474.6373211     
  -81786028.8428706     
  -81645730.1619821     
  -81506571.0377186     
  -81368535.2000379     
  -81231598.8747261     
  -81095731.8431855     
  -80960898.3665041     
  -80827057.9895783     
  -80694166.2416214     
  -80562175.2488540     
  -80431034.2739842     
  -80300690.1955566     
  -80171087.9386444     
  -80042170.8667659     
  -79913881.1434534     
  -79786160.0706202     
  -79658948.4097833     
  -79532186.6913242     
  -79405815.5162928     
  -79279775.8547851     
  -79154009.3446427     
  -79028458.5941236     
  -78903067.4922890     
  -78777781.5311071     
  -78652548.1437350     
  -78527317.0640652     
  -78402040.7134161     
  -78276674.6212103     
  -78151177.8875671     
  -78025513.6968988     
  -77899649.8927326     
  -77773559.6249892     
  -77647222.0815987     
  -77520623.3162917     
  -77393757.1833759     
  -77266626.3875979     
  -77139243.6521199     
  -77011632.9992349     
  -76883831.1254252     
  -76755888.8331905     
  -76627872.4548596     
  -76499865.1661398     
  -76371968.0369176     
  -76244300.6012110     
  -76117000.6446188     
  -75990222.8041384     
  -75864135.4511599     
  -75738915.1855071     
  -75614738.1122686     
  -75491766.9153935     
  -75370132.6022188     
  -75249909.7001414     
  -75131083.6782777     
  -75013509.4853612     
  -74896860.3803175     
  -74780566.7241419     
  -74663745.2032120     
  -74545120.5011305     
  -74422945.2940538     
  -74294935.7688762     
  -74158272.9135804     
  -74009790.7829946     
  -73846529.7739965     
  -73666668.1750247     
  -73470320.6350391     
  -73259310.1515051     
  -87716295.3941473     
  -87409735.3355937     
  -87136410.1453692     
  -86890088.0856158     
  -86659610.6379561     
  -86437543.5765830     
  -86243813.9575125     
  -86067926.9309369     
  -85895823.7513119     
  -85721471.1682240     
  -85547694.6714662     
  -85377510.0283217     
  -85210589.0305947     
  -85046219.9963826     
  -84883370.8787531     
  -84721166.2325224     
  -84558954.8758878     
  -84396320.4541098     
  -84233042.8747132     
  -84069054.6769023     
  -83904398.0854141     
  -83739188.6961903     
  -83573586.3265971     
  -83407772.8909338     
  -83245165.5585527     
  -83091863.3380613     
  -82942546.1796938     
  -82793973.4032025     
  -82646256.9599438     
  -82499488.5573913     
  -82353740.6214096     
  -82209067.7436971     
  -82065508.3634436     
  -81923086.5145332     
  -81781813.5303552     
  -81641689.6419881     
  -81502705.4361450     
  -81364843.1600696     
  -81228077.8740559     
  -81092378.4605629     
  -80957708.5034583     
  -80824027.0529797     
  -80691289.2923870     
  -80559447.1216303     
  -80428449.6721208     
  -80298243.7651509     
  -80168774.3249242     
  -80039984.7555915     
  -79911817.2902779     
  -79784213.3188405     
  -79657113.7000624     
  -79530459.0631379     
  -79404190.1026728     
  -79278247.8709683     
  -79152574.0711013     
  -79027111.3542293     
  -78901803.6246465     
  -78776596.3563879     
  -78651436.9256242     
  -78526274.9637133     
  -78401062.7365635     
  -78275755.5569084     
  -78150312.2371802     
  -78024695.5918312     
  -77898872.9991025     
  -77772817.0333038     
  -77646506.1793795     
  -77519925.6416500     
  -77393068.2577938     
  -77265935.5267283     
  -77138538.7544302     
  -77010900.3139521     
  -76883055.0036898     
  -76755051.4698903     
  -76626953.6335789     
  -76498842.0264061     
  -76370814.8918672     
  -76242988.8453200     
  -76115498.8057193     
  -75988496.8118750     
  -75862149.2156156     
  -75736631.6050151     
  -75612120.6582848     
  -75488781.9744509     
  -75366752.7899162     
  -75246118.3995286     
  -75126881.0944989     
  -75008920.5489421     
  -74891944.8669675     
  -74775431.9646012     
  -74658561.6490576     
  -74540139.9426205     
  -74418520.0271978     
  -74291532.8056021     
  -74156467.0387969     
  -74010202.5728832     
  -73849666.9214264     
  -73672674.5530154     
  -73478745.6573142     
  -73269073.3299739     
  -87699091.2321659     
  -87397882.1815967     
  -87110000.3695802     
  -86861373.0618141     
  -86635246.1791572     
  -86425863.4630826     
  -86240343.0206412     
  -86069668.5969113     
  -85897786.2141818     
  -85723420.7242816     
  -85549642.5728580     
  -85378811.7047840     
  -85211039.1414497     
  -85045671.0764893     
  -84881827.2302810     
  -84718693.5469090     
  -84555658.3646094     
  -84392319.8585914     
  -84228461.4814879     
  -84064011.8260253     
  -83899005.3313024     
  -83733547.6133493     
  -83567787.5121467     
  -83401895.6726069     
  -83239701.4900821     
  -83086801.3136024     
  -82937502.6203775     
  -82788986.0665673     
  -82641356.5221432     
  -82494699.4296300     
  -82349081.7530550     
  -82204553.3866636     
  -82061148.7809999     
  -81918888.6247233     
  -81777781.4797360     
  -81637825.3094643     
  -81499008.8695369     
  -81361312.9498834     
  -81224711.4700003     
  -81089172.4368187     
  -80954658.7787731     
  -80821129.0714305     
  -80688538.1702527     
  -80556837.7653074     
  -80425976.8714702     
  -80295902.2661125     
  -80166558.8846978     
  -80037890.1831909     
  -79909838.4748066     
  -79782345.2474359     
  -79655351.4670849     
  -79528797.8718634     
  -79402625.2604542     
  -79276774.7785764     
  -79151188.2067131     
  -79025808.2523107     
  -78900578.8497609     
  -78775445.4717458     
  -78650355.4559761     
  -78525258.3519547     
  -78400106.2931902     
  -78274854.4012086     
  -78149461.2287930     
  -78023889.2510441     
  -77898105.4140250     
  -77772081.7518492     
  -77645796.0838683     
  -77519232.8038643     
  -77392383.7725305     
  -77265249.3224334     
  -77137839.3804802     
  -77010174.7057572     
  -76882288.2292476     
  -76754226.4649920     
  -76626050.9379116     
  -76497839.5396440     
  -76369687.6779774     
  -76241709.0251583     
  -76114035.5929927     
  -75986816.7661473     
  -75860216.8084785     
  -75734410.2220174     
  -75609574.1895900     
  -75485877.1812371     
  -75363462.6708714     
  -75242426.8222298     
  -75122789.0002808     
  -75004454.0872049     
  -74887165.8625412     
  -74770451.1497990     
  -74653555.0216410     
  -74535368.1873617     
  -74414349.4507181     
  -74288451.7320109     
  -74155079.7784103     
  -74011162.2024910     
  -73853500.6536744     
  -73679513.9780385     
  -73488096.2691281     
  -73279803.8273029     
  -87682263.0005215     
  -87383600.6772619     
  -87094158.3138960     
  -86840177.6127778     
  -86618590.1751897     
  -86418601.2658810     
  -86236961.5889329     
  -86072219.0481860     
  -85900286.1692929     
  -85725858.3823244     
  -85551897.6262043     
  -85380442.4216386     
  -85211803.7787946     
  -85045456.2846842     
  -84880626.9546305     
  -84716571.8760783     
  -84552714.7010906     
  -84388670.3263411     
  -84224226.2731215     
  -84059308.2545182     
  -83893943.5847086     
  -83728228.4442859     
  -83562301.0497911     
  -83396321.0119597     
  -83234505.3408394     
  -83081976.4451089     
  -82932691.2471469     
  -82784225.7135806     
  -82636677.6098501     
  -82490126.1047929     
  -82344632.7044572     
  -82200242.6196672     
  -82056986.3339548     
  -81914881.2175860     
  -81773933.0909191     
  -81634137.6810736     
  -81495481.9440108     
  -81357945.2428568     
  -81221500.3852317     
  -81086114.5294472     
  -80951749.9731756     
  -80818364.8396811     
  -80685913.6767454     
  -80554347.9825670     
  -80423616.6715951     
  -80293666.4917331     
  -80164442.4027736     
  -80035887.9244677     
  -79907945.4612951     
  -79780556.6098523     
  -79653662.4538368     
  -79527203.8508311     
  -79401121.7145313     
  -79275357.2956739     
  -79149852.4646899     
  -79024549.9990716     
  -78899393.8785449     
  -78774329.5914130     
  -78649304.4558743     
  -78524267.9607255     
  -78399172.1306192     
  -78273971.9219723     
  -78148625.6566844     
  -78023095.5019824     
  -77897348.0059034     
  -77771354.6990483     
  -77645092.7741083     
  -77518545.8550728     
  -77391704.8675693     
  -77264569.0200449     
  -77137146.9017640     
  -77009457.6970721     
  -76881532.5048762     
  -76753415.7364962     
  -76625166.5421827     
  -76496860.1846064     
  -76368589.2341874     
  -76240464.4036625     
  -76112614.7652037     
  -75985187.0006523     
  -75858343.2229331     
  -75732256.7757644     
  -75607105.2743655     
  -75483060.0029733     
  -75360270.6549225     
  -75238844.3172105     
  -75118817.6027744     
  -75000120.9622294     
  -74882534.4921651     
  -74765634.9898637     
  -74648734.5124612     
  -74530811.1962439     
  -74410433.7905663     
  -74285683.7850735     
  -74154090.3630077     
  -74012636.9030035     
  -73857992.4821325     
  -73687153.6171606     
  -73498353.7397444     
  -73291494.5913473     
  -87664824.3145722     
  -87368951.5779428     
  -87078645.6034875     
  -86830196.4147778     
  -86610064.1606167     
  -86415150.4160050     
  -86242322.2856783     
  -86075193.9178917     
  -85903323.8354156     
  -85728653.7182893     
  -85554424.3762029     
  -85382329.7618027     
  -85212833.4346415     
  -85045524.1512196     
  -84879727.1931267     
  -84714763.3911161     
  -84550092.0757323     
  -84385345.0643573     
  -84220315.0460699     
  -84054925.6999259     
  -83889197.9966910     
  -83723219.2513423     
  -83557117.4772134     
  -83391041.5366417     
  -83229572.1555856     
  -83077385.4871769     
  -82928109.6453426     
  -82779690.6094072     
  -82632219.0416985     
  -82485767.8496304     
  -82340393.1030332     
  -82196135.3585070     
  -82053021.1669785     
  -81911064.6178571     
  -81770268.8288261     
  -81630627.3294543     
  -81492125.3135844     
  -81354740.7531034     
  -81218445.3768369     
  -81083205.5248003     
  -80948982.8913768     
  -80815735.1721951     
  -80683416.6293634     
  -80551978.5887744     
  -80421369.8818426     
  -80291537.2425157     
  -80162425.6688684     
  -80033978.7571553     
  -79906139.0149230     
  -79778848.1586889     
  -79652047.4007812     
  -79525677.7292320     
  -79399680.1840699     
  -79273996.1330042     
  -79148567.5492980     
  -79023337.2945859     
  -78898249.4095121     
  -78773249.4153379     
  -78648284.6300987     
  -78523304.5034792     
  -78398260.9753324     
  -78273108.8636644     
  -78147806.2889707     
  -78022315.1429440     
  -77896601.6107934     
  -77770636.7575690     
  -77644397.1898051     
  -77517865.8043632     
  -77391032.6360737     
  -77263895.8143546     
  -77136462.6357164     
  -77008750.7531381     
  -76880789.4737152     
  -76752621.1413112     
  -76624302.5596067     
  -76495906.3808851     
  -76367522.3448421     
  -76239258.1971347     
  -76111240.0467344     
  -75983611.8322658     
  -75856533.4593133     
  -75730177.0441803     
  -75604720.5596252     
  -75480338.0353844     
  -75357185.3400783     
  -75235380.4910414     
  -75114977.4445664     
  -74995932.4545263     
  -74878062.3812613     
  -74760994.7642804     
  -74644109.9172763     
  -74526475.4966161     
  -74406773.6602637     
  -74283220.1685322     
  -74153477.2905358     
  -74014592.4878957     
  -73863102.5116658     
  -73695560.2981086     
  -73509500.4598138     
  -73304140.5748785     
  -87645976.6543496     
  -87357524.5290735     
  -87072378.8193918     
  -86817729.9398935     
  -86602591.3767317     
  -86415474.5048123     
  -86247739.4054567     
  -86078971.0695408     
  -85906650.3444079     
  -85731764.1306375     
  -85557147.4148596     
  -85384415.0241725     
  -85214071.6132245     
  -85045825.2120773     
  -84879084.0489034     
  -84713230.5683699     
  -84547758.6105419     
  -84382317.4272298     
  -84216705.7216478     
  -84050846.0711230     
  -83884753.8978360     
  -83718508.2871222     
  -83552227.5228724     
  -83386050.0616187     
  -83224897.1627949     
  -83073025.3749973     
  -82923755.5699836     
  -82775379.1759217     
  -82627979.7789904     
  -82481624.0592338     
  -82336362.6904846     
  -82192231.6198573     
  -82049253.5130979     
  -81907439.2271316     
  -81766789.2248147     
  -81627294.8843300     
  -81488939.6810385     
  -81351700.2361427     
  -81215547.2368327     
  -81080446.2384817     
  -80946358.3623708     
  -80813240.9033737     
  -80681047.8617380     
  -80549730.4120917     
  -80419237.3214153     
  -80289515.3262124     
  -80160509.4776201     
  -80032163.4618022     
  -79904419.9017598     
  -79777220.6456424     
  -79650507.0457847     
  -79524220.2320295     
  -79398301.3824044     
  -79272691.9938732     
  -79147334.1557286     
  -79022170.8281537     
  -78897146.1286147     
  -78772205.6290106     
  -78647296.6669336     
  -78522368.6749754     
  -78397373.5327345     
  -78272265.9470871     
  -78147003.8673022     
  -78021548.9427264     
  -77895867.0319876     
  -77769928.7738311     
  -77643710.2307267     
  -77517193.6170370     
  -77390368.1234765     
  -77263230.8484843     
  -77135787.8442969     
  -77008055.2802424     
  -76880060.7170493     
  -76751844.4724876     
  -76623461.0388494     
  -76494980.4846691     
  -76366489.7345008     
  -76238093.5689552     
  -76109915.1200640     
  -75982095.5521846     
  -75854792.5148777     
  -75728176.8323469     
  -75602426.7586762     
  -75477718.9897136     
  -75354215.5001239     
  -75232045.1978352     
  -75111279.3987583     
  -74991900.2677325     
  -74873761.6769097     
  -74756542.3710538     
  -74639691.7303421     
  -74522368.3474617     
  -74403370.3321027     
  -74281052.4514599     
  -74153218.7712784     
  -74016993.5828686     
  -73868789.2015863     
  -73704699.9315970     
  -73521519.4656946     
  -73317738.5390298     
  -87626822.7894002     
  -87344574.7156163     
  -87068337.8213704     
  -86817735.5865424     
  -86605448.2480743     
  -86423260.0073207     
  -86252979.8155627     
  -86083241.2567544     
  -85910240.4759501     
  -85735074.8869122     
  -85560009.0923662     
  -85386631.9703431     
  -85215463.0357441     
  -85046309.0566762     
  -84878653.8494942     
  -84711935.8811731     
  -84545682.6256509     
  -84379560.9586391     
  -84213376.4537624     
  -84047051.5157288     
  -83880596.8650255     
  -83714084.0477329     
  -83547622.1519854     
  -83381339.6272333     
  -83220475.7981437     
  -83068893.2362426     
  -82919626.9552903     
  -82771289.9992636     
  -82623958.9316714     
  -82477694.2617372     
  -82332541.3264763     
  -82188531.5241377     
  -82045683.6959263     
  -81904005.5255911     
  -81763494.8780127     
  -81624141.0335356     
  -81485925.7987041     
  -81348824.4894985     
  -81212806.7926212     
  -81077837.5156878     
  -80943877.2396861     
  -80810882.8877364     
  -80678808.2237583     
  -80547604.2935555     
  -80417219.8194139     
  -80287601.5578376     
  -80158694.6285732     
  -80030442.8217384     
  -79902788.8887111     
  -79775674.8214421     
  -79649042.1240383     
  -79522832.0798653     
  -79396986.0169323     
  -79271445.5740326     
  -79146152.9699679     
  -79021051.2781605     
  -78896084.7090933     
  -78771198.9032946     
  -78646341.2379849     
  -78521461.1510767     
  -78396510.4869283     
  -78271443.8691260     
  -78146219.1065705     
  -78020797.6402910     
  -77895145.0396145     
  -77769231.5575211     
  -77643032.7561169     
  -77516530.2138853     
  -77389712.3265791     
  -77262575.2127499     
  -77135123.7325650     
  -77007372.6239257     
  -76879347.7520477     
  -76751087.4563847     
  -76622643.9604969     
  -76494084.7843682     
  -76365494.0625646     
  -76236973.6230504     
  -76108643.6179298     
  -75980642.4166618     
  -75853125.3730645     
  -75726261.9603483     
  -75600230.6378179     
  -75475210.6788442     
  -75351370.0711988     
  -75228848.5280409     
  -75107734.6628349     
  -74988036.5321040     
  -74869645.0681694     
  -74752290.3752781     
  -74635491.2391871     
  -74518497.9076340     
  -74400226.0173573     
  -74279172.9894531     
  -74153293.2126111     
  -74019803.8874700     
  -73875009.1088629     
  -73714536.8808935     
  -73534393.9441514     
  -73332286.8892135     
  -87607167.9570464     
  -87330740.5118164     
  -87063436.9453838     
  -86821288.2186228     
  -86612718.7948541     
  -86430168.8281634     
  -86258545.6476941     
  -86087666.9661014     
  -85914054.1859912     
  -85738481.4373065     
  -85562942.8585424     
  -85388915.6512262     
  -85216950.9232748     
  -85046925.3992981     
  -84878392.9314714     
  -84710842.0408297     
  -84543832.7070974     
  -84377049.5089674     
  -84210305.7115824     
  -84043524.4990794     
  -83876712.7859895     
  -83709935.3284077     
  -83543292.6128377     
  -83376903.5379885     
  -83216303.7283208     
  -83064986.4032348     
  -82915721.9243351     
  -82767421.8374548     
  -82620155.7642996     
  -82473978.1229663     
  -82328928.9922430     
  -82185035.2982965     
  -82042312.1318002     
  -81900764.0736359     
  -81760386.4565616     
  -81621166.5239589     
  -81483084.4691708     
  -81346114.3532300     
  -81210224.9073800     
  -81075380.2314938     
  -80941540.4015887     
  -80808662.0000581     
  -80676698.5816606     
  -80545601.0871281     
  -80415318.2148572     
  -80285796.7596614     
  -80156981.9261520     
  -80028817.6230301     
  -79901246.7434600     
  -79774211.4357719     
  -79647653.3679696     
  -79521513.9889630     
  -79395734.7890068     
  -79270257.5615614     
  -79145024.6686714     
  -79019979.3119395     
  -78895065.8113261     
  -78770229.8942687     
  -78645418.9980053     
  -78520582.5885579     
  -78395672.5005021     
  -78270643.3025095     
  -78145452.6946346     
  -78020061.9444386     
  -77894436.3702557     
  -77768545.8811322     
  -77642365.5841210     
  -77515876.4704743     
  -77389066.1926550     
  -77261929.9435356     
  -77134471.4472504     
  -77006704.0671682     
  -76878652.0294766     
  -76750351.7497863     
  -76621853.2334396     
  -76493221.4961146     
  -76364537.9177276     
  -76235901.3971254     
  -76107429.1151759     
  -75979256.6373427     
  -75851536.9922436     
  -75724438.2504883     
  -75598139.0022665     
  -75472821.0024845     
  -75348658.1372777     
  -75225800.7959767     
  -75104354.7511137     
  -74984353.8064498     
  -74865725.8047630     
  -74748252.0561571     
  -74631520.6183530     
  -74514873.4045895     
  -74397344.1514180     
  -74277575.3658322     
  -74153679.7536060     
  -74022986.4958872     
  -73881716.6335437     
  -73725033.2670813     
  -73548106.6957106     
  -73347785.5368445     
  -87586963.2748703     
  -87316189.8480847     
  -87057453.9871934     
  -86823401.0055410     
  -86618932.0381956     
  -86436725.1262943     
  -86264104.2764799     
  -86092214.6235262     
  -85917949.1183411     
  -85741910.6818056     
  -85565869.2575462     
  -85391203.1998986     
  -85218477.0832614     
  -85047624.1821435     
  -84878257.7753153     
  -84709912.1155562     
  -84542177.8231063     
  -84374757.3380630     
  -84207472.3705117     
  -84040247.8823819     
  -83873087.9260343     
  -83706051.2797487     
  -83539230.4839083     
  -83372735.4017417     
  -83212376.8751752     
  -83061302.4253370     
  -82912038.7988150     
  -82763773.6280452     
  -82616569.7019900     
  -82470475.4510299     
  -82325525.7941112     
  -82181743.2784944     
  -82039139.3318158     
  -81897715.5134214     
  -81757464.6987631     
  -81618372.1623927     
  -81480416.5459151     
  -81343570.7103877     
  -81207802.4803914     
  -81073075.2910813     
  -80939348.7512346     
  -80806579.1354694     
  -80674719.8180808     
  -80543721.6597150     
  -80413533.3566711     
  -80284101.7611770     
  -80155372.1796120     
  -80027288.6544167     
  -79899794.2343891     
  -79772831.2371872     
  -79646341.5071480     
  -79520266.6710226     
  -79394548.3938227     
  -79269128.6367451     
  -79143949.9190323     
  -79018955.5856347     
  -78894090.0826866     
  -78769299.2430695     
  -78644530.5847263     
  -78519733.6249231     
  -78394860.2143260     
  -78269864.8955813     
  -78144705.2920580     
  -78019342.5335015     
  -77893741.7265774     
  -77767872.4795100     
  -77641709.4912339     
  -77515233.2164540     
  -77388430.6185714     
  -77261296.0221710     
  -77133832.0753233     
  -77006050.8285686     
  -76877974.9313778     
  -76749638.9369635     
  -76621090.6911767     
  -76492392.7591509     
  -76363623.8122704     
  -76234879.8556789     
  -76106275.1203119     
  -75977942.3712115     
  -75850032.2939692     
  -75722711.5138713     
  -75596158.6812924     
  -75470557.9313920     
  -75346088.9144889     
  -75222912.5259770     
  -75101151.4855583     
  -74980865.0781696     
  -74862017.7135594     
  -74744441.4514887     
  -74627793.0204987     
  -74511505.3009734     
  -74394729.6793904     
  -74276254.8487540     
  -74154358.8584668     
  -74026504.3078444     
  -73888863.7915465     
  -73736148.1972523     
  -73562639.5310556     
  -73364235.7812062     
  -87566209.2441883     
  -87300977.0258421     
  -87050550.6531425     
  -86824368.4806703     
  -86624256.0125008     
  -86442893.2369447     
  -86269563.3873111     
  -86096761.5263792     
  -85921820.2140935     
  -85745272.4563655     
  -85568712.8431757     
  -85393428.4251364     
  -85219983.8415308     
  -85048355.1330009     
  -84878205.3148637     
  -84709109.5994957     
  -84540687.4599619     
  -84372659.2148355     
  -84204855.8067304     
  -84037205.0018185     
  -83869708.9960938     
  -83702421.4647684     
  -83535427.7215906     
  -83368829.1692454     
  -83208691.4401221     
  -83057839.0815489     
  -82908576.1089198     
  -82760344.4957809     
  -82613200.3363217     
  -82467186.2008385     
  -82322331.9669298     
  -82178655.9126890     
  -82036165.9037585     
  -81894860.5702872     
  -81754730.4141335     
  -81615758.8163022     
  -81477922.9338493     
  -81341194.4874011     
  -81205540.4473055     
  -81070923.6299130     
  -80937303.2167793     
  -80804635.2095086     
  -80672872.8320713     
  -80541966.8911530     
  -80411866.1036550     
  -80282517.3990516     
  -80153866.2029741     
  -80025856.7072334     
  -79898432.1304973     
  -79771534.9730197     
  -79645107.2681828     
  -79519090.8331138     
  -79393427.5203056     
  -79268059.4719583     
  -79142929.3786595     
  -79017980.7440694     
  -78893158.1573990     
  -78768407.5757429     
  -78643676.6187003     
  -78518914.8782330     
  -78394074.2473623     
  -78269109.2720867     
  -78143977.5318624     
  -78018640.0550552     
  -77893061.7769815     
  -77767212.0494268     
  -77641065.2117594     
  -77514601.2348742     
  -77387806.4499206     
  -77260674.3738229     
  -77133206.6425686     
  -77005414.0605155     
  -76877317.7687344     
  -76748950.5267027     
  -76620358.0880628     
  -76491600.6311204     
  -76362754.1762125     
  -76233911.8828178     
  -76105185.0667949     
  -75976703.7101744     
  -75848616.1507472     
  -75721087.5363686     
  -75594296.5125683     
  -75468429.4906067     
  -75343671.7342071     
  -75220194.4370389     
  -75098136.9847610     
  -74977583.7610344     
  -74858535.2122787     
  -74740873.3986661     
  -74624322.6632250     
  -74508405.4564347     
  -74392389.3374838     
  -74275208.8582252     
  -74155312.9752417     
  -74030320.5643121     
  -73896400.0483988     
  -73747836.9025820     
  -73577972.5689321     
  -73381640.2063516     
  -87544923.3091956     
  -87285176.5722872     
  -87042904.5861277     
  -86824447.3495323     
  -86628838.4286396     
  -86448651.0641349     
  -86274830.3454797     
  -86101190.8322222     
  -85925560.5683435     
  -85748475.3816409     
  -85571396.1758252     
  -85395524.4132283     
  -85221413.2337160     
  -85049068.2592562     
  -84878192.9410616     
  -84708398.5890373     
  -84539331.7261483     
  -84370730.5306612     
  -84202435.9896536     
  -84034379.7503524     
  -83866563.2213809     
  -83699035.9168110     
  -83531876.7083285     
  -83365179.1739503     
  -83205243.9287437     
  -83054594.3932880     
  -82905332.6032757     
  -82757133.7602684     
  -82610047.4311942     
  -82464110.4785367     
  -82319347.8773926     
  -82175773.7631072     
  -82033392.5539232     
  -81892200.0540825     
  -81752184.4843514     
  -81613327.4144921     
  -81475604.5897841     
  -81338986.6543872     
  -81203439.7803398     
  -81068926.2138484     
  -80935404.7514291     
  -80802831.1581343     
  -80671158.5390805     
  -80540337.6741661     
  -80410317.3244213     
  -80281044.5170499     
  -80152464.8149400     
  -80024522.5753197     
  -79897161.2012972     
  -79770323.3892721     
  -79643951.3746136     
  -79517987.1775599     
  -79392372.8509913     
  -79267050.7315402     
  -79141963.6954494     
  -79017055.4206159     
  -78892270.6564087     
  -78767555.5031046     
  -78642857.7031483     
  -78518126.9469421     
  -78393315.1964870     
  -78268377.0309699     
  -78143270.0192968     
  -78017955.1256428     
  -77892397.1552725     
  -77766565.2491698     
  -77640433.4372973     
  -77513981.2615276     
  -77387194.4801734     
  -77260065.8663965     
  -77132596.1121708     
  -77004794.8473601     
  -76876681.7791215     
  -76748287.9493067     
  -76619657.0954965     
  -76490847.0832735     
  -76361931.3513320     
  -76233000.2748820     
  -76104162.3040497     
  -75975544.6702818     
  -75847293.3733334     
  -75719572.0639576     
  -75592559.3257181     
  -75466443.7416665     
  -75341416.0248573     
  -75217657.4258423     
  -75095323.6508856     
  -74974523.6903869     
  -74855293.3198585     
  -74737563.5712377     
  -74621124.9099598     
  -74505587.2820456     
  -74390331.9254747     
  -74274437.4347374     
  -74156527.2618454     
  -74034399.5462860     
  -73904272.2599834     
  -73760049.7745786     
  -73594083.3954908     
  -73400002.5880967     
  -87523141.0927075     
  -87268885.1245666     
  -87034705.3444919     
  -86823868.1024483     
  -86632806.9207379     
  -86453979.7538185     
  -86279812.9232815     
  -86105387.9855873     
  -85929062.2488185     
  -85751426.4729921     
  -85573840.2849732     
  -85397423.5567274     
  -85222707.2188955     
  -85049713.9567868     
  -84878178.6601578     
  -84707743.9080577     
  -84538081.4795103     
  -84368947.4078988     
  -84200193.5786893     
  -84031756.6599409     
  -83863638.4112840     
  -83695885.1979728     
  -83528570.3011311     
  -83361780.1719303     
  -83202031.1755226     
  -83051566.6373205     
  -82902307.2589363     
  -82754140.9436162     
  -82607110.9286126     
  -82461248.5458346     
  -82316574.0272535     
  -82173097.5085951     
  -82030820.0888151     
  -81889734.8603770     
  -81749827.8641071     
  -81611078.9476880     
  -81473462.5228103     
  -81336948.2253900     
  -81201501.4884115     
  -81067084.0392035     
  -80933654.3334524     
  -80801167.9376966     
  -80669577.8708970     
  -80538834.9142918     
  -80408887.8973069     
  -80279683.9659381     
  -80151168.8387893     
  -80023287.0549107     
  -79895982.2167081     
  -79769197.2305050     
  -79642874.5467944     
  -79516956.4018239     
  -79391385.0619065     
  -79266103.0716739     
  -79141053.5074621     
  -79016180.2370671     
  -78891428.1872467     
  -78766743.6206011     
  -78642074.4238194     
  -78517370.4097475     
  -78392583.6363253     
  -78267668.7461904     
  -78142583.3316219     
  -78017288.3305216     
  -77891748.4603477     
  -77765932.6981515     
  -77639814.8162444     
  -77513373.9843119     
  -77386595.4498507     
  -77259471.3094631     
  -77132001.3833147     
  -77004194.2035988     
  -76876068.1243549     
  -76747652.5535714     
  -76618989.2980704     
  -76490133.9955982     
  -76361157.5850735     
  -76232147.7329068     
  -76103210.0882523     
  -75974469.1806270     
  -75846068.6975808     
  -75718170.7874578     
  -75590953.9250681     
  -75464608.7637835     
  -75339331.2923799     
  -75215312.5480567     
  -75092724.1543834     
  -74971699.1154266     
  -74852307.6629533     
  -74734528.5101406     
  -74618216.3433012     
  -74503065.8847646     
  -74388568.5657808     
  -74273943.6990298     
  -74157990.3746281     
  -74038707.4772221     
  -73912424.7839790     
  -73772731.2918849     
  -73610946.0327369     
  -73419327.8058330     
  -87500918.2094252     
  -87252223.1480098     
  -87026153.9898144     
  -86822841.5080464     
  -86636268.4775848     
  -86458856.6227585     
  -86284417.9612010     
  -86109238.6998805     
  -85932216.2478636     
  -85754031.1174753     
  -85575964.9042515     
  -85399057.6943664     
  -85223807.8483949     
  -85050243.1541612     
  -84878121.2440460     
  -84707111.2445142     
  -84536908.4543477     
  -84367286.8121730     
  -84198110.0211046     
  -84029320.9852028     
  -83860923.0299727     
  -83692960.4580356     
  -83525501.8802933     
  -83358627.3818219     
  -83199113.5587698     
  -83048754.3588122     
  -82899499.2913992     
  -82751365.7780307     
  -82604390.9543799     
  -82458600.8242298     
  -82314011.0564073     
  -82170627.9468442     
  -82028449.4167236     
  -81887465.9715554     
  -81747661.5818392     
  -81609014.4690139     
  -81471497.7945921     
  -81335080.2585392     
  -81199726.6172048     
  -81065398.1327519     
  -80932052.9661332     
  -80799646.5248628     
  -80668131.7755578     
  -80537459.5297749     
  -80407578.7102600     
  -80278436.6033670     
  -80149979.1022595     
  -80022150.9445148     
  -79894895.9469289     
  -79768157.2397142     
  -79641877.5017705     
  -79515999.1983804     
  -79390464.8224456     
  -79265217.1402615     
  -79140199.4427970     
  -79015355.8035135     
  -78890631.3439053     
  -78765972.5081822     
  -78641327.3488548     
  -78516645.8254459     
  -78391880.1190931     
  -78266984.9665493     
  -78141918.0179108     
  -78016640.2234244     
  -77891116.2559040     
  -77765314.9765432     
  -77639209.9533259     
  -77512780.0426148     
  -77386010.0457232     
  -77258891.4532058     
  -77131423.2897996     
  -77003613.0720672     
  -76875477.8881466     
  -76747045.6037575     
  -76618356.1896908     
  -76489463.1518953     
  -76360435.0243588     
  -76231356.8549255     
  -76102331.5728872     
  -75973481.0719214     
  -75844946.7708432     
  -75716889.3266791     
  -75589487.0716000     
  -75462932.6339636     
  -75337427.0993069     
  -75213170.9978129     
  -75090351.4163117     
  -74969124.6882854     
  -74849594.4780296     
  -74731785.6487624     
  -74615614.8292172     
  -74500858.1993118     
  -74387112.9452446     
  -74273734.2906875     
  -74159695.3051327     
  -74043213.6691815     
  -73920799.8499215     
  -73785818.8391065     
  -73628529.6464206     
  -73439621.7529688     
  -87478332.6385259     
  -87235337.4397014     
  -87017464.3011802     
  -86821561.6790898     
  -86639307.9295013     
  -86463249.9683558     
  -86288549.3715719     
  -86112627.5503829     
  -85934912.1741001     
  -85756193.1195142     
  -85577688.6461548     
  -85400358.2788357     
  -85224657.4328891     
  -85050607.4710883     
  -84877980.3843337     
  -84706467.2932256     
  -84535785.3913177     
  -84365726.6672540     
  -84196167.6514957     
  -84027058.7882151     
  -83858406.2676864     
  -83690253.4937453     
  -83522665.3981998     
  -83355716.5246569     
  -83196510.7184060     
  -83046156.3844738     
  -82896908.1646130     
  -82748808.2133420     
  -82601887.8236834     
  -82456167.8990923     
  -82311659.7458388     
  -82168365.9964758     
  -82026281.5491711     
  -81885394.4577874     
  -81745686.7403643     
  -81607135.0943752     
  -81469711.5195715     
  -81333383.8561340     
  -81198116.2491718     
  -81063869.5516707     
  -80930601.6776819     
  -80798267.9165044     
  -80666821.2172179     
  -80536212.4514333     
  -80406390.6607038     
  -80277303.2937316     
  -80148896.4374073     
  -80021115.0447786     
  -79893903.1623071     
  -79767204.1581968     
  -79640960.9531488     
  -79515116.2545913     
  -79389612.7952458     
  -79264393.5768031     
  -79139402.1194716     
  -79014582.7182195     
  -78889880.7067167     
  -78765242.7301783     
  -78640617.0286635     
  -78515953.7328024     
  -78391205.1744604     
  -78266326.2155319     
  -78141274.5988686     
  -78016011.3263427     
  -77890501.0701691     
  -77764712.6249304     
  -77638619.4091484     
  -77512200.0267331     
  -77385438.9000359     
  -77258326.9873915     
  -77130862.5986885     
  -77003052.3221544     
  -76874912.0737675     
  -76746468.2765647     
  -76617759.1696792     
  -76488836.2348118     
  -76359765.7093188     
  -76230630.1281540     
  -76101529.7991105     
  -75972584.0647782     
  -75843932.1379686     
  -75715733.2139826     
  -75588165.4641148     
  -75461423.4060552     
  -75335713.0423982     
  -75211244.0852626     
  -75088218.5880771     
  -74966815.4496002     
  -74847170.6085917     
  -74729353.3310626     
  -74613339.5706654     
  -74498983.1047668     
  -74385981.5364791     
  -74273819.7728321     
  -74161640.2381497     
  -74047891.9465601     
  -73929338.3079796     
  -73799241.4365986     
  -73646796.8990517     
  -73460891.2380073     
  -87455487.8386806     
  -87218404.8562208     
  -87008864.5676388     
  -86820206.4163876     
  -86641985.4831592     
  -86467115.0705928     
  -86292106.1051110     
  -86115436.8388660     
  -85937037.8913684     
  -85757814.7420504     
  -85578929.1610415     
  -85401256.5542520     
  -85225198.7178011     
  -85050759.3872403     
  -84877716.8530438     
  -84705779.9041029     
  -84534686.1708462     
  -84364245.9723918     
  -84194349.7928940     
  -84024957.0243180     
  -83856078.1125802     
  -83687756.8082945     
  -83520055.4280709     
  -83353043.8634474     
  -83194147.1784821     
  -83043771.8357488     
  -82894533.6009464     
  -82746468.4244318     
  -82599602.0465490     
  -82453950.5236052     
  -82309521.0204160     
  -82166312.6989777     
  -82024317.6022123     
  -81883521.4778732     
  -81743904.5173888     
  -81605442.0027341     
  -81468104.8650857     
  -81331860.1646495     
  -81196671.5034632     
  -81062499.3834239     
  -80929301.5210921     
  -80797033.1295373     
  -80665647.1759882     
  -80535094.6224906     
  -80405324.6553680     
  -80276284.9080111     
  -80147921.6804511     
  -80020180.1583341     
  -79893004.6331896     
  -79766338.7254102     
  -79640125.6109599     
  -79514308.2525711     
  -79388829.6360550     
  -79263633.0122684     
  -79138662.1452979     
  -79013861.5675064     
  -78889176.8422350     
  -78764554.8351835     
  -78639943.9958030     
  -78515294.6504298     
  -78390559.3094191     
  -78265692.9911632     
  -78140653.5666672     
  -78015402.1293271     
  -77889903.3956529     
  -77764126.1439951     
  -77638043.6997795     
  -77511634.4773108     
  -77384882.5897604     
  -77257778.5403766     
  -77130320.0089782     
  -77002512.7480478     
  -76874371.6017402     
  -76745921.6581094     
  -76617199.5388746     
  -76488254.8208412     
  -76359151.5669619     
  -76229969.9210526     
  -76100807.6859315     
  -75971781.7577337     
  -75843029.2268966     
  -75714707.8772831     
  -75586995.7196129     
  -75460089.0887238     
  -75334198.7288152     
  -75209543.2121470     
  -75086339.0284586     
  -74964786.8103386     
  -74845053.4970588     
  -74727250.8220553     
  -74611411.1494245     
  -74497461.5229378     
  -74385193.7963180     
  -74274214.9918470     
  -74163829.3891442     
  -74052722.3651998     
  -73937980.9178195     
  -73812918.4321951     
  -73665701.8187310     
  -73483143.8652229     
  -87432516.9045669     
  -87201637.5591272     
  -87000599.2534966     
  -86818934.9897802     
  -86644333.3829702     
  -86470391.0757694     
  -86294980.3440855     
  -86117545.6193851     
  -85938479.1753840     
  -85758796.7355552     
  -85579603.2924955     
  -85401683.7414407     
  -85225375.0695230     
  -85050652.4214417     
  -84877292.6710268     
  -84705018.2360266     
  -84533585.9503548     
  -84362824.9221430     
  -84192640.8594629     
  -84023003.6288224     
  -83853929.4229784     
  -83685463.6708500     
  -83517667.2125068     
  -83350606.2423935     
  -83191990.3544348     
  -83041600.1420233     
  -82892375.5910852     
  -82744346.8185361     
  -82597534.3331420     
  -82451949.6225413     
  -82307595.9515169     
  -82164469.2204837     
  -82022558.7975947     
  -81881848.2799518     
  -81742316.1659015     
  -81603936.4362862     
  -81466679.0513899     
  -81330510.3746604     
  -81195393.5357928     
  -81061288.7455917     
  -80928153.5739467     
  -80795943.2007228     
  -80664610.6477327     
  -80534106.9983787     
  -80404381.6101023     
  -80275382.3235836     
  -80147055.6715973     
  -80019347.0896311     
  -79892201.1297643     
  -79765561.6788219     
  -79639372.1815133     
  -79513575.8690496     
  -79388115.9936049     
  -79262936.0689710     
  -79137980.1177622     
  -79013192.9256335     
  -78888520.3031225     
  -78763909.3559451     
  -78639308.7648713     
  -78514669.0766759     
  -78389943.0081683     
  -78265085.7658855     
  -78140055.3847982     
  -78014813.0903111     
  -77889323.6889229     
  -77763555.9942200     
  -77637483.2963588     
  -77511083.8848141     
  -77384341.6358901     
  -77257246.6781490     
  -77129796.1503106     
  -77001995.0670097     
  -76873857.3075549     
  -76745406.7409339     
  -76616678.4957361     
  -76487720.3753195     
  -76358594.4047978     
  -76229378.4753071     
  -76100168.0202419     
  -75971077.6150140     
  -75842242.3338865     
  -75713818.6225162     
  -75585984.3529029     
  -75458937.6223470     
  -75332893.7508016     
  -75208079.8452914     
  -75084726.2777765     
  -74963054.5296504     
  -74843261.1709026     
  -74725498.3099624     
  -74609851.5552455     
  -74496316.4953933     
  -74384772.3389183     
  -74274939.3860176     
  -74166273.7636255     
  -74057693.2124874     
  -73946670.3889806     
  -73826758.2625334     
  -73685187.0043960     
  -73506387.8787696     
  -87409588.1802548     
  -87185290.0865752     
  -86992929.8436748     
  -86817883.1799313     
  -86646351.8873301     
  -86472998.6700686     
  -86297056.0155438     
  -86118828.8573008     
  -85939119.4137730     
  -85759038.3623608     
  -85579627.2341162     
  -85401571.2326247     
  -85225130.6737763     
  -85050241.3220047     
  -84876671.2848286     
  -84704152.9167483     
  -84532461.3055130     
  -84361445.0287477     
  -84191026.4607208     
  -84021187.6045041     
  -83851951.9998991     
  -83683368.1759777     
  -83515496.7116626     
  -83348401.1255582     
  -83190039.3002006     
  -83039641.0537955     
  -82890434.4038185     
  -82742444.0423945     
  -82595685.5988867     
  -82450166.2958485     
  -82305885.7594791     
  -82162836.8533813     
  -82021006.4637589     
  -81880376.2020728     
  -81740923.0144437     
  -81602619.7005224     
  -81465435.3515873     
  -81329335.7206884     
  -81194283.5382331     
  -81060238.7856366     
  -80927158.9381781     
  -80794999.1864239     
  -80663712.6438328     
  -80533250.5465120     
  -80403562.4496567     
  -80274596.4240268     
  -80146299.2548478     
  -80018616.6447591     
  -79891493.4218932     
  -79764873.7537472     
  -79638701.3672480     
  -79512919.7752289     
  -79387472.5094720     
  -79262303.3604432     
  -79137356.6239054     
  -79012577.3546868     
  -78887911.6280447     
  -78763306.8092626     
  -78638711.8324078     
  -78514077.4895266     
  -78389356.7320097     
  -78264504.9864414     
  -78139480.4879434     
  -78014244.6349519     
  -77888762.3704039     
  -77763002.5956272     
  -77636938.6247398     
  -77510548.6890415     
  -77383816.5027614     
  -77256731.9034051     
  -77129291.5817244     
  -77001499.9176949     
  -76873369.9394241     
  -76744924.4210436     
  -76616197.1324748     
  -76487234.2474174     
  -76358095.9044385     
  -76228857.8977384     
  -76099613.4467140     
  -75970474.9540892     
  -75841575.6084032     
  -75713070.6155880     
  -75585137.7554676     
  -75457976.8548368     
  -75331807.6588423     
  -75206865.4879932     
  -75083394.0290826     
  -74961634.6885419     
  -74841812.2227189     
  -74724116.8993230     
  -74608684.2018683     
  -74495573.2362311     
  -74384743.0795854     
  -74276017.2455425     
  -74168991.7695096     
  -74062803.2170532     
  -73955354.4392557     
  -73840657.4901261     
  -73705179.9162972     
  -73530631.9456345     
  -87386912.9134082     
  -87169668.6460472     
  -86986133.9393345     
  -86817155.1932242     
  -86648004.9192820     
  -86474838.5693341     
  -86298207.6261833     
  -86119156.7231635     
  -85938839.3603116     
  -85758437.4245717     
  -85578916.6920871     
  -85400850.7976580     
  -85224410.7475007     
  -85049482.2691928     
  -84875817.7527615     
  -84703156.2092355     
  -84531290.3757226     
  -84360089.2471046     
  -84189493.5072274     
  -84019499.1097513     
  -83850138.6596695     
  -83681465.3027815     
  -83513540.6508978     
  -83346445.2345982     
  -83188293.4555663     
  -83037894.6557753     
  -82888710.5956801     
  -82740760.9892073     
  -82594056.9693843     
  -82448601.8220401     
  -82304391.8158504     
  -82161417.0177386     
  -82019662.0366774     
  -81879106.6726197     
  -81739726.4672511     
  -81601493.1641853     
  -81464375.0914649     
  -81328337.4809633     
  -81193342.7389377     
  -81059350.6806137     
  -80926318.7397728     
  -80794202.1623212     
  -80662954.1909148     
  -80532526.2460307     
  -80402868.1074435     
  -80273928.0988883     
  -80145653.2777925     
  -80017989.6312518     
  -79890882.2789274     
  -79764275.6831836     
  -79638113.8665739     
  -79512340.6366389     
  -79386899.8179439     
  -79261735.4913067     
  -79136792.2402025     
  -79012015.4044674     
  -78887351.3415659     
  -78762747.6958878     
  -78638153.6768003     
  -78513520.3465154     
  -78388800.9192605     
  -78263951.0737798     
  -78138929.2818668     
  -78013697.1565002     
  -77888219.8242033     
  -77762466.3275376     
  -77636410.0651590     
  -77510029.2786672     
  -77383307.5974231     
  -77256234.6546762     
  -77128806.7904510     
  -77001027.8585193     
  -76872910.1560935     
  -76744475.4949903     
  -76615756.4312208     
  -76486797.6651583     
  -76357657.6151951     
  -76228410.1521678     
  -76099146.4575970     
  -75969976.9330427     
  -75841033.0376915     
  -75712468.8638370     
  -75584462.1735924     
  -75457214.5164007     
  -75330949.9333082     
  -75205911.6492479     
  -75082356.0962853     
  -74960543.6592054     
  -74840725.7840387     
  -74723128.5943044     
  -74607933.9297113     
  -74495259.1587490     
  -74385135.3414865     
  -74277477.9375983     
  -74172009.6146656     
  -74068063.8044960     
  -73963990.1860519     
  -73854500.4915680     
  -73725587.8969025     
  -73555884.8389225     
  -87364755.8067811     
  -87155143.1375616     
  -86980501.1630746     
  -86816811.9755479     
  -86649216.0118240     
  -86475790.8801713     
  -86298299.3642936     
  -86118394.0378433     
  -85937516.9460947     
  -85756890.3020783     
  -85577387.0582055     
  -85399454.8039824     
  -85223161.7659333     
  -85048333.0908957     
  -84874698.9409201     
  -84702002.1849015     
  -84530053.0140263     
  -84358742.1023754     
  -84188030.3176404     
  -84017929.5472296     
  -83848483.3064661     
  -83679750.9735742     
  -83511796.5677143     
  -83344757.5031808     
  -83186752.6636362     
  -83036361.3798545     
  -82887205.0203928     
  -82739298.8053748     
  -82592649.7851023     
  -82447257.6613480     
  -82303115.6454286     
  -82160211.2625403     
  -82018527.0605187     
  -81878041.2105848     
  -81738728.0042647     
  -81600558.2591080     
  -81463499.6492296     
  -81327516.9771038     
  -81192572.4017986     
  -81058625.6368195     
  -80925634.1284321     
  -80793553.2230863     
  -80662336.3305406     
  -80531935.0875111     
  -80402299.5252720     
  -80273378.2434452     
  -80145118.5913824     
  -80017466.8578787     
  -79890368.4695171     
  -79763768.1976302     
  -79637610.3737096     
  -79511839.1129820     
  -79386398.5458781     
  -79261233.0571463     
  -79136287.5324480     
  -79011507.6123828     
  -78886839.9540484     
  -78762232.5004372     
  -78637634.7582027     
  -78512998.0846455     
  -78388275.9851740     
  -78263424.4229777     
  -78138402.1433219     
  -78013171.0156799     
  -77887696.3979614     
  -77761947.5283656     
  -77635897.9519486     
  -77509525.9908274     
  -77382815.2690455     
  -77255755.3054990     
  -77128342.1907652     
  -77000579.3660800     
  -76872478.5246991     
  -76744060.6570096     
  -76615357.2602331     
  -76486411.7304691     
  -76357280.9476878     
  -76228037.0512643     
  -76098769.3824364     
  -75969586.5377661     
  -75840618.4310682     
  -75712018.1970505     
  -75583963.6858064     
  -75456658.1932651     
  -75330329.9545713     
  -75205229.8107978     
  -75081626.3791521     
  -74959798.0697746     
  -74840021.4928041     
  -74722556.2715570     
  -74607626.9946954     
  -74495403.8770803     
  -74385981.9109527     
  -74279356.1191321     
  -74175361.4504664     
  -74073501.0983141     
  -73972550.1990105     
  -73868160.4613770     
  -73746291.4175749     
  -73582154.9596930     
  -87343449.7776566     
  -87142162.5152687     
  -86976323.5392260     
  -86816855.5802042     
  -86649865.5277031     
  -86475715.3036177     
  -86297184.3893133     
  -86116399.8974010     
  -85935027.1404505     
  -85754292.0071436     
  -85574953.5977650     
  -85397316.4526315     
  -85221331.7068252     
  -85046753.4926699     
  -84873283.7299511     
  -84700666.9041378     
  -84528730.9416178     
  -84357389.8202251     
  -84186626.7270448     
  -84016471.6528755     
  -83846981.0045793     
  -83678222.1118846     
  -83510262.8577933     
  -83343317.8891063     
  -83185417.1882177     
  -83035042.0178949     
  -82885918.8380810     
  -82738058.8969738     
  -82591465.6057959     
  -82446135.4586371     
  -82302058.9280733     
  -82159221.2667145     
  -82017603.1881336     
  -81877181.4256825     
  -81737929.1810026     
  -81599816.4799407     
  -81462810.4551483     
  -81326875.5737153     
  -81191973.8260282     
  -81058064.8893815     
  -80925106.2771735     
  -80793053.4820095     
  -80661860.1188659     
  -80531478.0726525     
  -80401857.6530557     
  -80272947.7584343     
  -80144696.0496841     
  -80017049.1344213     
  -79889952.7614067     
  -79763352.0249029     
  -79637191.5785089     
  -79511415.8579816     
  -79385969.3125589     
  -79260796.6443750     
  -79135843.0556344     
  -79011054.5033429     
  -78886377.9615618     
  -78761761.6913080     
  -78637155.5184591     
  -78512511.1203224     
  -78387782.3218772     
  -78262925.4031716     
  -78137899.4199800     
  -78012666.5406070     
  -77887192.4027276     
  -77761446.4954421     
  -77635402.5732745     
  -77509039.1107413     
  -77382339.8083787     
  -77255294.1636384     
  -77127898.1228946     
  -77000154.8336420     
  -76872075.5186981     
  -76743680.4962271     
  -76615000.3701844     
  -76486077.4142899     
  -76356967.1674917     
  -76227740.2483938     
  -76098484.3777449     
  -75969306.5690450     
  -75840335.4039712     
  -75711723.2480530     
  -75583648.1796460     
  -75456315.3003787     
  -75329956.9716210     
  -75204831.3919548     
  -75081218.8251792     
  -74959414.7643674     
  -74839719.4544608     
  -74722423.6424270     
  -74607791.0412266     
  -74496039.1887531     
  -74387319.0207520     
  -74281691.9554714     
  -74179089.2997574     
  -74079157.1824829     
  -73981030.4569912     
  -73881502.8888043     
  -73767134.8288958     
  -73609449.5964213     
  -87323417.0112388     
  -87131274.0879267     
  -86973876.5359679     
  -86817209.8182157     
  -86649790.5476671     
  -86474451.9138916     
  -86294704.2630160     
  -86113027.5092700     
  -85931241.8419613     
  -85750536.2651738     
  -85571531.6550426     
  -85394370.0332263     
  -85218870.3139123     
  -85044705.3033945     
  -84871543.2334077     
  -84699128.6045639     
  -84527307.9071154     
  -84356020.4596698     
  -84185274.1964174     
  -84015119.5850517     
  -83845628.0501826     
  -83676876.6995745     
  -83508938.8199348     
  -83342111.0938730     
  -83184287.7310618     
  -83033937.7342774     
  -82884853.5241971     
  -82737042.9359392     
  -82590506.2146453     
  -82445237.0460420     
  -82301223.5002689     
  -82158448.8399442     
  -82016892.1813460     
  -81876529.0183003     
  -81737331.6282951     
  -81599269.3837517     
  -81462308.9910813     
  -81326414.6778987     
  -81191548.3456714     
  -81057669.7017881     
  -80924736.3818936     
  -80792704.0705886     
  -80661526.6262617     
  -80531156.2139277     
  -80401543.4484980     
  -80272637.5497670     
  -80144386.5096229     
  -80016737.2714381     
  -79889635.9212217     
  -79763027.8899394     
  -79636858.1662868     
  -79511071.5192170     
  -79385612.7295552     
  -79260426.8301127     
  -79135459.3538396     
  -79010656.5896567     
  -78885965.8457921     
  -78761335.7206001     
  -78636716.3810403     
  -78512059.8492980     
  -78387320.2983231     
  -78262454.3575153     
  -78137421.4303810     
  -78012184.0267163     
  -77886708.1128667     
  -77760963.4848754     
  -77634924.1709203     
  -77508568.8713832     
  -77381881.4472581     
  -77254851.4703730     
  -77127474.8519872     
  -76999754.5696917     
  -76871701.5158717     
  -76743335.4939380     
  -76614686.3905127     
  -76485795.5517515     
  -76356717.3888410     
  -76227521.2294929     
  -76098293.4166535     
  -75969139.6295382     
  -75840187.3617974     
  -75711588.4329252     
  -75583521.3278079     
  -75456193.0531346     
  -75329840.0692072     
  -75204727.7122093     
  -75081147.3883416     
  -74959410.7583316     
  -74839840.1963069     
  -74722755.2057473     
  -74608455.0545282     
  -74497199.0490869     
  -74389186.2432042     
  -74284531.3229275     
  -74183242.9581429     
  -74085089.9448107     
  -73989460.1350801     
  -73894393.5055459     
  -73787913.5770762     
  -73637773.7546842     
  -87305199.7584587     
  -87123147.0211682     
  -86973384.5772494     
  -86817698.9046611     
  -86648789.1010738     
  -86471821.8262119     
  -86290688.6226242     
  -86108124.2365327     
  -85926029.7745804     
  -85745515.6358887     
  -85567036.8758612     
  -85390551.2024744     
  -85215729.3815179     
  -85042152.7380052     
  -84869451.0285237     
  -84697367.8973919     
  -84525769.8507223     
  -84354624.0484839     
  -84183965.9230638     
  -84013869.0136199     
  -83844422.0423772     
  -83675713.8328436     
  -83507824.6996706     
  -83341116.7499111     
  -83183365.4488819     
  -83033050.0781502     
  -82884010.8781130     
  -82736252.8659039     
  -82589773.6220662     
  -82444564.4453112     
  -82300611.3564282     
  -82157895.9232446     
  -82016395.9110484     
  -81876085.7792791     
  -81736937.0518724     
  -81598918.5895130     
  -81461996.7899214     
  -81326135.7386758     
  -81191297.3290445     
  -81057441.3653561     
  -80924525.6608688     
  -80792506.1380775     
  -80661336.9368979     
  -80530970.5342109     
  -80401357.8767539     
  -80272448.5282232     
  -80144190.8307050     
  -80016532.0800153     
  -79889418.7142425     
  -79762796.5145957     
  -79636610.8176339     
  -79510806.7379641     
  -79385329.4005710     
  -79260124.1820470     
  -79135136.9601116     
  -79010314.3709347     
  -78885604.0739588     
  -78760955.0240480     
  -78636317.7509862     
  -78511644.6466277     
  -78386890.2602541     
  -78262011.6031466     
  -78136968.4638980     
  -78011723.7367242     
  -77886243.7659940     
  -77760498.7114351     
  -77634462.9401083     
  -77508115.4531950     
  -77381440.3581657     
  -77254427.3998301     
  -77127072.5671560     
  -76999378.7965700     
  -76871356.7964085     
  -76743026.0209864     
  -76614415.8258753     
  -76485566.8374494     
  -76356532.5684091     
  -76227381.3050066     
  -76098198.2785822     
  -75969088.1107031     
  -75840177.4835761     
  -75711617.9308772     
  -75583588.5637020     
  -75456298.4381523     
  -75329988.1335497     
  -75204929.9516505     
  -75081425.9846253     
  -74959803.1890420     
  -74840404.6138539     
  -74723576.1943093     
  -74609649.2856019     
  -74498919.5455858     
  -74391626.3059358     
  -74287925.8679127     
  -74187880.2855119     
  -74091370.7248412     
  -73997912.3220722     
  -73906714.1397132     
  -73808356.3920744     
  -73667128.2766778     
  -87289506.8188824     
  -87118599.0753404     
  -86974961.1311750     
  -86818029.1118726     
  -86646630.0220589     
  -86467626.5715901     
  -86284955.5065052     
  -86101531.7213166     
  -85919256.3931322     
  -85739121.6847527     
  -85561385.4448240     
  -85385797.2927317     
  -85211863.0614919     
  -85039062.6792731     
  -84866983.4001071     
  -84695367.9723073     
  -84524105.0733465     
  -84353192.7210534     
  -84182696.9518299     
  -84012717.2086992     
  -83843361.9532355     
  -83674733.7768496     
  -83506921.7313354     
  -83340336.4022069     
  -83182651.9700722     
  -83032380.9953056     
  -82883393.0313176     
  -82735690.9076595     
  -82589270.0691698     
  -82444119.8698284     
  -82300224.6499084     
  -82157564.5892991     
  -82016116.3570827     
  -81875853.5895140     
  -81736747.2318010     
  -81598765.7774526     
  -81461875.4349190     
  -81326040.2463289     
  -81191222.1781051     
  -81057381.1986413     
  -80924475.3542143     
  -80792460.8509874     
  -80661292.1482985     
  -80530922.0663728     
  -80401301.9100664     
  -80272381.6091272     
  -80144109.8747238     
  -80016434.3715033     
  -79889301.9041673     
  -79762658.6174340     
  -79636450.2082286     
  -79510622.1490209     
  -79385119.9212959     
  -79259889.2583067     
  -79134876.3963525     
  -79010028.3339887     
  -78885293.0987315     
  -78760620.0209544     
  -78635960.0148575     
  -78511265.8666317     
  -78386492.5301787     
  -78261597.4311751     
  -78136540.7807298     
  -78011285.9006085     
  -77885799.5629345     
  -77760052.3484837     
  -77634019.0293600     
  -77507678.9838496     
  -77381016.6538444     
  -77254022.0583968     
  -77126691.3805877     
  -76999027.6491842     
  -76871041.5410906     
  -76742752.3352335     
  -76614189.0526998     
  -76485391.8208137     
  -76356413.4991973     
  -76227321.6019038     
  -76098200.5389433     
  -75969154.1797020     
  -75840308.7055096     
  -75711815.6638410     
  -75583855.0565046     
  -75456638.1831611     
  -75330409.8166201     
  -75205449.1093616     
  -75082068.4440099     
  -74960609.2631820     
  -74841433.9073477     
  -74724912.5180078     
  -74611405.1487196     
  -74501238.8519642     
  -74394684.9318293     
  -74291932.6059947     
  -74193068.5268962     
  -74098079.3252196     
  -74006512.8773121     
  -73918392.3808749     
  -73828100.2959021     
  -73697506.7791189     
  -87277286.3810464     
  -87118622.1007460     
  -86978508.0637061     
  -86817785.1799385     
  -86643067.3439848     
  -86461644.9483235     
  -86277313.1331174     
  -86093085.7007921     
  -85910783.9112972     
  -85731245.1756746     
  -85554494.3457449     
  -85380047.6554165     
  -85207228.1938669     
  -85035404.9809759     
  -84864119.5980225     
  -84693114.8113657     
  -84522304.4106550     
  -84351720.8585588     
  -84181464.2868263     
  -84011663.1288080     
  -83842448.1965603     
  -83673938.0186871     
  -83506232.1783320     
  -83339772.3193915     
  -83182149.4110424     
  -83031932.8396177     
  -82883002.4551696     
  -82735359.5641869     
  -82588998.0308250     
  -82443905.7262891     
  -82300065.6937271     
  -82157457.0425327     
  -82016055.6079086     
  -81875834.4193704     
  -81736764.0217703     
  -81598812.6882862     
  -81461946.5589070     
  -81326129.7316472     
  -81191324.3277436     
  -81057490.5467868     
  -80924586.7232895     
  -80792569.3925524     
  -80661393.3708563     
  -80531011.8528468     
  -80401376.5273794     
  -80272437.7119989     
  -80144144.5054548     
  -80016444.9572420     
  -79889286.2528695     
  -79762614.9135041     
  -79636377.0086426     
  -79510518.3805389     
  -79384984.8792544     
  -79259722.6073289     
  -79134678.1732092     
  -79009798.9527419     
  -78885033.3581581     
  -78760331.1141360     
  -78635643.5406984     
  -78510923.8428782     
  -78386127.4073669     
  -78261212.1066859     
  -78136138.6119083     
  -78010870.7156181     
  -77885375.6677230     
  -77759624.5279347     
  -77633592.5404022     
  -77507259.5380642     
  -77380610.3869772     
  -77253635.4841960     
  -77126331.3267427     
  -76998701.1738175     
  -76870755.8295741     
  -76742514.5791525     
  -76614006.3158659     
  -76485270.9016168     
  -76356360.8045351     
  -76227343.0557950     
  -76098301.5589268     
  -75969339.7663170     
  -75840583.7044368     
  -75712185.2758215     
  -75584325.6856816     
  -75457218.7261268     
  -75331113.4989448     
  -75206295.9600843     
  -75083088.4585687     
  -74961846.2009353     
  -74842949.5094157     
  -74726790.6963356     
  -74613755.1229022     
  -74504197.0633414     
  -74398410.9611006     
  -74296612.5581380     
  -74198887.1549765     
  -74105297.5393071     
  -74015440.5518309     
  -73929455.2275626     
  -73846655.3465328     
  -73728890.6224566     
  -87269845.2717115     
  -87124392.5790594     
  -86983552.0492567     
  -86816466.1413227     
  -86637850.8881594     
  -86453628.1904750     
  -86267563.7575251     
  -86082614.9023761     
  -85900471.7492760     
  -85721776.1573503     
  -85546281.6974471     
  -85373244.0276274     
  -85201784.6688484     
  -85031152.7929928     
  -84860842.1092792     
  -84690597.4121968     
  -84520361.4119728     
  -84350205.2312929     
  -84180267.0033596     
  -84010707.5080745     
  -83841682.6950186     
  -83673329.3184083     
  -83505759.3713413     
  -83339427.5190058     
  -83181860.3920687     
  -83031708.3839570     
  -82882841.9681354     
  -82735261.6252127     
  -82588960.2182997     
  -82443924.6160003     
  -82300136.9609584     
  -82157575.6189144     
  -82016215.8600338     
  -81876030.3279119     
  -81736989.3482156     
  -81599061.1223133     
  -81462211.8434156     
  -81326405.7650890     
  -81191605.2450052     
  -81057770.7808098     
  -80924861.0500535     
  -80792832.9621492     
  -80661641.7273188     
  -80531240.9451704     
  -80401582.7139290     
  -80272617.7601901     
  -80144295.5883271     
  -80016564.6482715     
  -79889372.5201370     
  -79762666.1141162     
  -79636391.8841358     
  -79510496.0538442     
  -79384924.8536517     
  -79259624.7677235     
  -79134542.7899579     
  -79009626.6881352     
  -78884825.2755914     
  -78760088.6898713     
  -78635368.6780021     
  -78510618.8881691     
  -78385795.1678531     
  -78260855.8687601     
  -78135762.1593304     
  -78010478.3463035     
  -77884972.2076215     
  -77759215.3402508     
  -77633183.5281127     
  -77506857.1374674     
  -77380221.5499181     
  -77253267.6466309     
  -77125992.3616289     
  -76998399.3270323     
  -76870499.6387831     
  -76742312.7775318     
  -76613867.7255177     
  -76485204.3256226     
  -76356374.9322351     
  -76227446.4031957     
  -76098502.4753973     
  -75969646.5499366     
  -75841004.8812498     
  -75712730.1120896     
  -75585005.0150918     
  -75458046.1836631     
  -75332107.2510609     
  -75207481.0088672     
  -75084499.5281672     
  -74963531.1724021     
  -74844973.0184618     
  -74729237.7411763     
  -74616732.7541996     
  -74507835.7101369     
  -74402857.0881223     
  -74302028.2226852     
  -74205431.0677076     
  -74113107.1741412     
  -74024902.9577422     
  -73940124.3106524     
  -73863354.7454742     
  -73761240.6303775     
  -87269054.0716687     
  -87137230.0329544     
  -86988990.3809523     
  -86813608.1508150     
  -86630706.6334500     
  -86443302.9143423     
  -86255507.1029291     
  -86069939.2464253     
  -85888177.5800325     
  -85710603.7690623     
  -85536667.2712969     
  -85365330.8775772     
  -85195495.8448154     
  -85026282.9012019     
  -84857136.9489769     
  -84687808.0194235     
  -84518272.5243934     
  -84348645.1426757     
  -84179106.3597575     
  -84009852.9421208     
  -83841068.9453057     
  -83672911.7577707     
  -83505507.7441802     
  -83339305.7913745     
  -83181788.0525675     
  -83031710.8305088     
  -82882914.7424554     
  -82735400.1712408     
  -82589159.5814330     
  -82444179.3357814     
  -82300441.0847849     
  -82157922.7854704     
  -82016599.4172124     
  -81876443.4619265     
  -81737425.2092813     
  -81599512.9383764     
  -81462673.0176752     
  -81326869.9558502     
  -81192066.4282359     
  -81058223.2968315     
  -80925299.6363724     
  -80793252.7746812     
  -80662038.3522344     
  -80531610.4034953     
  -80401921.4608086     
  -80272922.6805026     
  -80144563.9900862     
  -80016794.2550333     
  -79889561.4634101     
  -79762812.9266026     
  -79636495.4944544     
  -79510555.7832567     
  -79384940.4152140     
  -79259596.2681456     
  -79134470.7343967     
  -79009511.9880397     
  -78884669.2596261     
  -78759893.1178593     
  -78635135.7576925     
  -78510351.2945390     
  -78385496.0644613     
  -78260528.9305114     
  -78135411.5958109     
  -78010108.9245790     
  -77884589.2731782     
  -77758824.8344848     
  -77632792.0005181     
  -77506471.7505171     
  -77379850.0745047     
  -77252918.4460150     
  -77125674.3621735     
  -76998121.9746799     
  -76870272.8414235     
  -76742146.8353321     
  -76613773.2540275     
  -76485192.1803891     
  -76356456.1489119     
  -76227632.1739519     
  -76098804.1909310     
  -75970075.9466271     
  -75841574.3443454     
  -75713453.1981986     
  -75585897.2668580     
  -75459126.3183793     
  -75333398.7948590     
  -75209014.4408658     
  -75086314.9110127     
  -74965681.2100233     
  -74847526.1725849     
  -74732280.9260444     
  -74620372.8492428     
  -74512196.9320455     
  -74408080.7420602     
  -74308242.2079255     
  -74212806.6309710     
  -74121611.1612324     
  -74035055.4134323     
  -73950983.2905495     
  -73877284.2853572     
  -73794483.6065687     
  -87277719.4521750     
  -87158407.2878819     
  -86992726.5709377     
  -86809078.0125114     
  -86621220.7298931     
  -86430416.9328693     
  -86240927.7423468     
  -86054873.4076460     
  -85873756.8165925     
  -85697616.4529890     
  -85525573.0063872     
  -85356255.7738533     
  -85188329.0243841     
  -85020776.0789487     
  -84852993.9749120     
  -84684742.3620285     
  -84516037.2830955     
  -84347042.5740165     
  -84177985.9089351     
  -84009103.9720705     
  -83840612.0809814     
  -83672690.7863333     
  -83505482.8670381     
  -83339411.7218914     
  -83181936.0656769     
  -83031943.8203990     
  -82883224.3101622     
  -82735778.5770033     
  -82589599.3103098     
  -82444672.8784336     
  -82300980.8581857     
  -82158501.1395001     
  -82017208.6893892     
  -81877076.0547500     
  -81738073.6736145     
  -81600170.0526932     
  -81463331.8575123     
  -81327523.9508459     
  -81192709.4061583     
  -81058849.5152391     
  -80925903.8032751     
  -80793830.0599140     
  -80662584.3913703     
  -80532121.2960732     
  -80402393.7645173     
  -80273353.4027855     
  -80144950.5784382     
  -80017134.5870510     
  -79889853.8375012     
  -79763056.0540810     
  -79636688.4936141     
  -79510698.1759062     
  -79385032.1260328     
  -79259637.6271560     
  -79134462.4827341     
  -79009455.2871713     
  -78884565.7040371     
  -78759744.7511777     
  -78634945.0921113     
  -78510121.3332703     
  -78385230.3268339     
  -78260231.4791489     
  -78135087.0651575     
  -78009762.5498087     
  -77884226.9183181     
  -77758453.0183486     
  -77632417.9188322     
  -77506103.2924789     
  -77379495.8319194     
  -77252587.7132751     
  -77125377.1256899     
  -76997868.8910193     
  -76870075.2046275     
  -76742016.5356759     
  -76613722.7331280     
  -76485234.3912653     
  -76356604.5344969     
  -76227900.6838479     
  -76099207.3640491     
  -75970629.0963095     
  -75842293.8932327     
  -75714357.2186988     
  -75587006.2955065     
  -75460464.5044360     
  -75334995.4663489     
  -75210906.0645069     
  -75088547.5793542     
  -74968313.1084159     
  -74850630.8072952     
  -74735947.6523561     
  -74624711.1919862     
  -74517324.2450374     
  -74414139.9970428     
  -74315329.4237947     
  -74221093.7772994     
  -74131027.0512012     
  -74045793.9367903     
  -73963270.9893234     
  -73887183.4627770     
  -73828491.1588662     
  -87300299.4146289     
  -87188569.8904509     
  -86991238.1895810     
  -86803663.5687394     
  -86608483.4483957     
  -86414927.7843355     
  -86223509.4108478     
  -86037264.7005100     
  -85857046.7887506     
  -85682708.7783360     
  -85512920.8278919     
  -85345970.9298042     
  -85180255.5164875     
  -85014617.6461884     
  -84848407.1482069     
  -84681399.9278623     
  -84513658.4952569     
  -84345402.3343916     
  -84176911.6073147     
  -84008467.1669312     
  -83840318.9322643     
  -83672673.2646297     
  -83505691.4767068     
  -83339750.7115318     
  -83182308.6520301     
  -83032411.4425398     
  -82883774.5683871     
  -82736400.5142852     
  -82590282.8363831     
  -82445408.4327469     
  -82301759.2332477     
  -82159313.4074702     
  -82018046.1913866     
  -81877930.4248768     
  -81738936.8789881     
  -81601034.4375391     
  -81464190.1841278     
  -81328369.4335968     
  -81193535.7368671     
  -81059650.8797988     
  -80926674.8901623     
  -80794566.0617810     
  -80663281.0010988     
  -80532774.6987125     
  -80403000.6264780     
  -80273910.8595158     
  -80145456.2216816     
  -80017586.4526138     
  -79890250.3943133     
  -79763396.1951966     
  -79636971.5296828     
  -79510923.8315417     
  -79385200.5394069     
  -79259749.3530903     
  -79134518.4994833     
  -79009457.0070085     
  -78884514.9877196     
  -78759643.9262577     
  -78634796.9750129     
  -78509929.2549136     
  -78384998.1614836     
  -78259963.6760437     
  -78134788.6822648     
  -78009439.2889176     
  -77883885.1604593     
  -77758099.8583314     
  -77632061.1975521     
  -77505751.6254672     
  -77379158.6326373     
  -77252275.2097472     
  -77125100.3694376     
  -76997639.7579595     
  -76869906.3887392     
  -76741921.5380052     
  -76613715.8512201     
  -76485330.7175817     
  -76356819.9769577     
  -76228252.0274708     
  -76099712.3995907     
  -75971306.8503329     
  -75843165.0017076     
  -75715444.4973253     
  -75588335.5581080     
  -75462065.7023825     
  -75336904.1523145     
  -75213165.3168332     
  -75091210.0118966     
  -74971443.7196836     
  -74854307.8281437     
  -74740267.6663805     
  -74629778.6897347     
  -74523276.0209271     
  -74421061.3870673     
  -74323447.8836876     
  -74230194.5319175     
  -74141973.9953099     
  -74056281.2607753     
  -73979394.7993345     
  -73891310.9738619     
  -73863049.5647626     
SCALARS elementIsPlast double 
LOOKUP_TABLE default
  0.000000000000000E+000
  0.000000000000000E+000
  0.000000000000000E+000
  0.000000000000000E+000
  0.000000000000000E+000
  0.000000000000000E+000
  0.000000000000000E+000
  0.000000000000000E+000
  0.000000000000000E+000
  0.000000000000000E+000
  0.000000000000000E+000
  0.000000000000000E+000
  0.000000000000000E+000
  0.000000000000000E+000
  0.000000000000000E+000
  0.000000000000000E+000
  0.000000000000000E+000
  0.000000000000000E+000
  0.000000000000000E+000
  0.000000000000000E+000
  0.000000000000000E+000
  0.000000000000000E+000
  0.000000000000000E+000
  0.000000000000000E+000
  0.000000000000000E+000
  0.000000000000000E+000
   1.00000000000000     
   1.00000000000000     
   1.00000000000000     
   1.00000000000000     
   1.00000000000000     
   1.00000000000000     
   1.00000000000000     
   1.00000000000000     
   1.00000000000000     
   1.00000000000000     
   1.00000000000000     
   1.00000000000000     
   1.00000000000000     
   1.00000000000000     
   1.00000000000000     
   1.00000000000000     
   1.00000000000000     
   1.00000000000000     
   1.00000000000000     
   1.00000000000000     
   1.00000000000000     
   1.00000000000000     
   1.00000000000000     
   1.00000000000000     
   1.00000000000000     
   1.00000000000000     
   1.00000000000000     
   1.00000000000000     
   1.00000000000000     
   1.00000000000000     
   1.00000000000000     
   1.00000000000000     
   1.00000000000000     
   1.00000000000000     
   1.00000000000000     
   1.00000000000000     
   1.00000000000000     
   1.00000000000000     
   1.00000000000000     
   1.00000000000000     
   1.00000000000000     
   1.00000000000000     
   1.00000000000000     
   1.00000000000000     
   1.00000000000000     
   1.00000000000000     
   1.00000000000000     
   1.00000000000000     
   1.00000000000000     
   1.00000000000000     
   1.00000000000000     
   1.00000000000000     
   1.00000000000000     
   1.00000000000000     
   1.00000000000000     
   1.00000000000000     
   1.00000000000000     
   1.00000000000000     
   1.00000000000000     
   1.00000000000000     
   1.00000000000000     
   1.00000000000000     
   1.00000000000000     
   1.00000000000000     
   1.00000000000000     
   1.00000000000000     
   1.00000000000000     
   1.00000000000000     
   1.00000000000000     
   1.00000000000000     
   1.00000000000000     
   1.00000000000000     
   1.00000000000000     
   1.00000000000000     
  0.000000000000000E+000
  0.000000000000000E+000
  0.000000000000000E+000
  0.000000000000000E+000
  0.000000000000000E+000
  0.000000000000000E+000
  0.000000000000000E+000
  0.000000000000000E+000
  0.000000000000000E+000
  0.000000000000000E+000
  0.000000000000000E+000
  0.000000000000000E+000
  0.000000000000000E+000
  0.000000000000000E+000
  0.000000000000000E+000
  0.000000000000000E+000
  0.000000000000000E+000
  0.000000000000000E+000
  0.000000000000000E+000
  0.000000000000000E+000
  0.000000000000000E+000
  0.000000000000000E+000
  0.000000000000000E+000
  0.000000000000000E+000
  0.000000000000000E+000
  0.000000000000000E+000
   1.00000000000000     
   1.00000000000000     
   1.00000000000000     
   1.00000000000000     
   1.00000000000000     
   1.00000000000000     
   1.00000000000000     
   1.00000000000000     
   1.00000000000000     
   1.00000000000000     
   1.00000000000000     
   1.00000000000000     
   1.00000000000000     
   1.00000000000000     
   1.00000000000000     
   1.00000000000000     
   1.00000000000000     
   1.00000000000000     
   1.00000000000000     
   1.00000000000000     
   1.00000000000000     
   1.00000000000000     
   1.00000000000000     
   1.00000000000000     
   1.00000000000000     
   1.00000000000000     
   1.00000000000000     
   1.00000000000000     
   1.00000000000000     
   1.00000000000000     
   1.00000000000000     
   1.00000000000000     
   1.00000000000000     
   1.00000000000000     
   1.00000000000000     
   1.00000000000000     
   1.00000000000000     
   1.00000000000000     
   1.00000000000000     
   1.00000000000000     
   1.00000000000000     
   1.00000000000000     
   1.00000000000000     
   1.00000000000000     
   1.00000000000000     
   1.00000000000000     
   1.00000000000000     
   1.00000000000000     
   1.00000000000000     
   1.00000000000000     
   1.00000000000000     
   1.00000000000000     
   1.00000000000000     
   1.00000000000000     
   1.00000000000000     
   1.00000000000000     
   1.00000000000000     
   1.00000000000000     
   1.00000000000000     
   1.00000000000000     
   1.00000000000000     
   1.00000000000000     
   1.00000000000000     
   1.00000000000000     
   1.00000000000000     
   1.00000000000000     
   1.00000000000000     
   1.00000000000000     
   1.00000000000000     
   1.00000000000000     
   1.00000000000000     
   1.00000000000000     
   1.00000000000000     
   1.00000000000000     
  0.000000000000000E+000
  0.000000000000000E+000
  0.000000000000000E+000
  0.000000000000000E+000
  0.000000000000000E+000
  0.000000000000000E+000
  0.000000000000000E+000
  0.000000000000000E+000
  0.000000000000000E+000
  0.000000000000000E+000
  0.000000000000000E+000
  0.000000000000000E+000
  0.000000000000000E+000
  0.000000000000000E+000
  0.000000000000000E+000
  0.000000000000000E+000
  0.000000000000000E+000
  0.000000000000000E+000
  0.000000000000000E+000
  0.000000000000000E+000
  0.000000000000000E+000
  0.000000000000000E+000
  0.000000000000000E+000
  0.000000000000000E+000
  0.000000000000000E+000
  0.000000000000000E+000
   1.00000000000000     
   1.00000000000000     
   1.00000000000000     
   1.00000000000000     
   1.00000000000000     
   1.00000000000000     
   1.00000000000000     
   1.00000000000000     
   1.00000000000000     
   1.00000000000000     
   1.00000000000000     
   1.00000000000000     
   1.00000000000000     
   1.00000000000000     
   1.00000000000000     
   1.00000000000000     
   1.00000000000000     
   1.00000000000000     
   1.00000000000000     
   1.00000000000000     
   1.00000000000000     
   1.00000000000000     
   1.00000000000000     
   1.00000000000000     
   1.00000000000000     
   1.00000000000000     
   1.00000000000000     
   1.00000000000000     
   1.00000000000000     
   1.00000000000000     
   1.00000000000000     
   1.00000000000000     
   1.00000000000000     
   1.00000000000000     
   1.00000000000000     
   1.00000000000000     
   1.00000000000000     
   1.00000000000000     
   1.00000000000000     
   1.00000000000000     
   1.00000000000000     
   1.00000000000000     
   1.00000000000000     
   1.00000000000000     
   1.00000000000000     
   1.00000000000000     
   1.00000000000000     
   1.00000000000000     
   1.00000000000000     
   1.00000000000000     
   1.00000000000000     
   1.00000000000000     
   1.00000000000000     
   1.00000000000000     
   1.00000000000000     
   1.00000000000000     
   1.00000000000000     
   1.00000000000000     
   1.00000000000000     
   1.00000000000000     
   1.00000000000000     
   1.00000000000000     
   1.00000000000000     
   1.00000000000000     
   1.00000000000000     
   1.00000000000000     
   1.00000000000000     
   1.00000000000000     
   1.00000000000000     
   1.00000000000000     
   1.00000000000000     
   1.00000000000000     
   1.00000000000000     
   1.00000000000000     
  0.000000000000000E+000
  0.000000000000000E+000
  0.000000000000000E+000
  0.000000000000000E+000
  0.000000000000000E+000
  0.000000000000000E+000
  0.000000000000000E+000
  0.000000000000000E+000
  0.000000000000000E+000
  0.000000000000000E+000
  0.000000000000000E+000
  0.000000000000000E+000
  0.000000000000000E+000
  0.000000000000000E+000
  0.000000000000000E+000
  0.000000000000000E+000
  0.000000000000000E+000
  0.000000000000000E+000
  0.000000000000000E+000
  0.000000000000000E+000
  0.000000000000000E+000
  0.000000000000000E+000
  0.000000000000000E+000
  0.000000000000000E+000
  0.000000000000000E+000
  0.000000000000000E+000
   1.00000000000000     
   1.00000000000000     
   1.00000000000000     
   1.00000000000000     
   1.00000000000000     
   1.00000000000000     
   1.00000000000000     
   1.00000000000000     
   1.00000000000000     
   1.00000000000000     
   1.00000000000000     
   1.00000000000000     
   1.00000000000000     
   1.00000000000000     
   1.00000000000000     
   1.00000000000000     
   1.00000000000000     
   1.00000000000000     
   1.00000000000000     
   1.00000000000000     
   1.00000000000000     
   1.00000000000000     
   1.00000000000000     
   1.00000000000000     
   1.00000000000000     
   1.00000000000000     
   1.00000000000000     
   1.00000000000000     
   1.00000000000000     
   1.00000000000000     
   1.00000000000000     
   1.00000000000000     
   1.00000000000000     
   1.00000000000000     
   1.00000000000000     
   1.00000000000000     
   1.00000000000000     
   1.00000000000000     
   1.00000000000000     
   1.00000000000000     
   1.00000000000000     
   1.00000000000000     
   1.00000000000000     
   1.00000000000000     
   1.00000000000000     
   1.00000000000000     
   1.00000000000000     
   1.00000000000000     
   1.00000000000000     
   1.00000000000000     
   1.00000000000000     
   1.00000000000000     
   1.00000000000000     
   1.00000000000000     
   1.00000000000000     
   1.00000000000000     
   1.00000000000000     
   1.00000000000000     
   1.00000000000000     
   1.00000000000000     
   1.00000000000000     
   1.00000000000000     
   1.00000000000000     
   1.00000000000000     
   1.00000000000000     
   1.00000000000000     
   1.00000000000000     
   1.00000000000000     
   1.00000000000000     
   1.00000000000000     
   1.00000000000000     
   1.00000000000000     
   1.00000000000000     
   1.00000000000000     
  0.000000000000000E+000
  0.000000000000000E+000
  0.000000000000000E+000
  0.000000000000000E+000
  0.000000000000000E+000
  0.000000000000000E+000
  0.000000000000000E+000
  0.000000000000000E+000
  0.000000000000000E+000
  0.000000000000000E+000
  0.000000000000000E+000
  0.000000000000000E+000
  0.000000000000000E+000
  0.000000000000000E+000
  0.000000000000000E+000
  0.000000000000000E+000
  0.000000000000000E+000
  0.000000000000000E+000
  0.000000000000000E+000
  0.000000000000000E+000
  0.000000000000000E+000
  0.000000000000000E+000
  0.000000000000000E+000
  0.000000000000000E+000
  0.000000000000000E+000
  0.000000000000000E+000
   1.00000000000000     
   1.00000000000000     
   1.00000000000000     
   1.00000000000000     
   1.00000000000000     
   1.00000000000000     
   1.00000000000000     
   1.00000000000000     
   1.00000000000000     
   1.00000000000000     
   1.00000000000000     
   1.00000000000000     
   1.00000000000000     
   1.00000000000000     
   1.00000000000000     
   1.00000000000000     
   1.00000000000000     
   1.00000000000000     
   1.00000000000000     
   1.00000000000000     
   1.00000000000000     
   1.00000000000000     
   1.00000000000000     
   1.00000000000000     
   1.00000000000000     
   1.00000000000000     
   1.00000000000000     
   1.00000000000000     
   1.00000000000000     
   1.00000000000000     
   1.00000000000000     
   1.00000000000000     
   1.00000000000000     
   1.00000000000000     
   1.00000000000000     
   1.00000000000000     
   1.00000000000000     
   1.00000000000000     
   1.00000000000000     
   1.00000000000000     
   1.00000000000000     
   1.00000000000000     
   1.00000000000000     
   1.00000000000000     
   1.00000000000000     
   1.00000000000000     
   1.00000000000000     
   1.00000000000000     
   1.00000000000000     
   1.00000000000000     
   1.00000000000000     
   1.00000000000000     
   1.00000000000000     
   1.00000000000000     
   1.00000000000000     
   1.00000000000000     
   1.00000000000000     
   1.00000000000000     
   1.00000000000000     
   1.00000000000000     
   1.00000000000000     
   1.00000000000000     
   1.00000000000000     
   1.00000000000000     
   1.00000000000000     
   1.00000000000000     
   1.00000000000000     
   1.00000000000000     
   1.00000000000000     
   1.00000000000000     
   1.00000000000000     
   1.00000000000000     
   1.00000000000000     
   1.00000000000000     
  0.000000000000000E+000
  0.000000000000000E+000
  0.000000000000000E+000
  0.000000000000000E+000
  0.000000000000000E+000
  0.000000000000000E+000
  0.000000000000000E+000
  0.000000000000000E+000
  0.000000000000000E+000
  0.000000000000000E+000
  0.000000000000000E+000
  0.000000000000000E+000
  0.000000000000000E+000
  0.000000000000000E+000
  0.000000000000000E+000
  0.000000000000000E+000
  0.000000000000000E+000
  0.000000000000000E+000
  0.000000000000000E+000
  0.000000000000000E+000
  0.000000000000000E+000
  0.000000000000000E+000
  0.000000000000000E+000
  0.000000000000000E+000
  0.000000000000000E+000
   1.00000000000000     
   1.00000000000000     
   1.00000000000000     
   1.00000000000000     
   1.00000000000000     
   1.00000000000000     
   1.00000000000000     
   1.00000000000000     
   1.00000000000000     
   1.00000000000000     
   1.00000000000000     
   1.00000000000000     
   1.00000000000000     
   1.00000000000000     
   1.00000000000000     
   1.00000000000000     
   1.00000000000000     
   1.00000000000000     
   1.00000000000000     
   1.00000000000000     
   1.00000000000000     
   1.00000000000000     
   1.00000000000000     
   1.00000000000000     
   1.00000000000000     
   1.00000000000000     
   1.00000000000000     
   1.00000000000000     
   1.00000000000000     
   1.00000000000000     
   1.00000000000000     
   1.00000000000000     
   1.00000000000000     
   1.00000000000000     
   1.00000000000000     
   1.00000000000000     
   1.00000000000000     
   1.00000000000000     
   1.00000000000000     
   1.00000000000000     
   1.00000000000000     
   1.00000000000000     
   1.00000000000000     
   1.00000000000000     
   1.00000000000000     
   1.00000000000000     
   1.00000000000000     
   1.00000000000000     
   1.00000000000000     
   1.00000000000000     
   1.00000000000000     
   1.00000000000000     
   1.00000000000000     
   1.00000000000000     
   1.00000000000000     
   1.00000000000000     
   1.00000000000000     
   1.00000000000000     
   1.00000000000000     
   1.00000000000000     
   1.00000000000000     
   1.00000000000000     
   1.00000000000000     
   1.00000000000000     
   1.00000000000000     
   1.00000000000000     
   1.00000000000000     
   1.00000000000000     
   1.00000000000000     
   1.00000000000000     
   1.00000000000000     
   1.00000000000000     
   1.00000000000000     
   1.00000000000000     
   1.00000000000000     
  0.000000000000000E+000
  0.000000000000000E+000
  0.000000000000000E+000
  0.000000000000000E+000
  0.000000000000000E+000
  0.000000000000000E+000
  0.000000000000000E+000
  0.000000000000000E+000
  0.000000000000000E+000
  0.000000000000000E+000
  0.000000000000000E+000
  0.000000000000000E+000
  0.000000000000000E+000
  0.000000000000000E+000
  0.000000000000000E+000
  0.000000000000000E+000
  0.000000000000000E+000
  0.000000000000000E+000
  0.000000000000000E+000
  0.000000000000000E+000
  0.000000000000000E+000
  0.000000000000000E+000
  0.000000000000000E+000
  0.000000000000000E+000
  0.000000000000000E+000
   1.00000000000000     
   1.00000000000000     
   1.00000000000000     
   1.00000000000000     
   1.00000000000000     
   1.00000000000000     
   1.00000000000000     
   1.00000000000000     
   1.00000000000000     
   1.00000000000000     
   1.00000000000000     
   1.00000000000000     
   1.00000000000000     
   1.00000000000000     
   1.00000000000000     
   1.00000000000000     
   1.00000000000000     
   1.00000000000000     
   1.00000000000000     
   1.00000000000000     
   1.00000000000000     
   1.00000000000000     
   1.00000000000000     
   1.00000000000000     
   1.00000000000000     
   1.00000000000000     
   1.00000000000000     
   1.00000000000000     
   1.00000000000000     
   1.00000000000000     
   1.00000000000000     
   1.00000000000000     
   1.00000000000000     
   1.00000000000000     
   1.00000000000000     
   1.00000000000000     
   1.00000000000000     
   1.00000000000000     
   1.00000000000000     
   1.00000000000000     
   1.00000000000000     
   1.00000000000000     
   1.00000000000000     
   1.00000000000000     
   1.00000000000000     
   1.00000000000000     
   1.00000000000000     
   1.00000000000000     
   1.00000000000000     
   1.00000000000000     
   1.00000000000000     
   1.00000000000000     
   1.00000000000000     
   1.00000000000000     
   1.00000000000000     
   1.00000000000000     
   1.00000000000000     
   1.00000000000000     
   1.00000000000000     
   1.00000000000000     
   1.00000000000000     
   1.00000000000000     
   1.00000000000000     
   1.00000000000000     
   1.00000000000000     
   1.00000000000000     
   1.00000000000000     
   1.00000000000000     
   1.00000000000000     
   1.00000000000000     
   1.00000000000000     
   1.00000000000000     
   1.00000000000000     
   1.00000000000000     
   1.00000000000000     
  0.000000000000000E+000
  0.000000000000000E+000
  0.000000000000000E+000
  0.000000000000000E+000
  0.000000000000000E+000
  0.000000000000000E+000
  0.000000000000000E+000
  0.000000000000000E+000
  0.000000000000000E+000
  0.000000000000000E+000
  0.000000000000000E+000
  0.000000000000000E+000
  0.000000000000000E+000
  0.000000000000000E+000
  0.000000000000000E+000
  0.000000000000000E+000
  0.000000000000000E+000
  0.000000000000000E+000
  0.000000000000000E+000
  0.000000000000000E+000
  0.000000000000000E+000
  0.000000000000000E+000
  0.000000000000000E+000
  0.000000000000000E+000
  0.000000000000000E+000
   1.00000000000000     
   1.00000000000000     
   1.00000000000000     
   1.00000000000000     
   1.00000000000000     
   1.00000000000000     
   1.00000000000000     
   1.00000000000000     
   1.00000000000000     
   1.00000000000000     
   1.00000000000000     
   1.00000000000000     
   1.00000000000000     
   1.00000000000000     
   1.00000000000000     
   1.00000000000000     
   1.00000000000000     
   1.00000000000000     
   1.00000000000000     
   1.00000000000000     
   1.00000000000000     
   1.00000000000000     
   1.00000000000000     
   1.00000000000000     
   1.00000000000000     
   1.00000000000000     
   1.00000000000000     
   1.00000000000000     
   1.00000000000000     
   1.00000000000000     
   1.00000000000000     
   1.00000000000000     
   1.00000000000000     
   1.00000000000000     
   1.00000000000000     
   1.00000000000000     
   1.00000000000000     
   1.00000000000000     
   1.00000000000000     
   1.00000000000000     
   1.00000000000000     
   1.00000000000000     
   1.00000000000000     
   1.00000000000000     
   1.00000000000000     
   1.00000000000000     
   1.00000000000000     
   1.00000000000000     
   1.00000000000000     
   1.00000000000000     
   1.00000000000000     
   1.00000000000000     
   1.00000000000000     
   1.00000000000000     
   1.00000000000000     
   1.00000000000000     
   1.00000000000000     
   1.00000000000000     
   1.00000000000000     
   1.00000000000000     
   1.00000000000000     
   1.00000000000000     
   1.00000000000000     
   1.00000000000000     
   1.00000000000000     
   1.00000000000000     
   1.00000000000000     
   1.00000000000000     
   1.00000000000000     
   1.00000000000000     
   1.00000000000000     
   1.00000000000000     
   1.00000000000000     
   1.00000000000000     
   1.00000000000000     
  0.000000000000000E+000
  0.000000000000000E+000
  0.000000000000000E+000
  0.000000000000000E+000
  0.000000000000000E+000
  0.000000000000000E+000
  0.000000000000000E+000
  0.000000000000000E+000
  0.000000000000000E+000
  0.000000000000000E+000
  0.000000000000000E+000
  0.000000000000000E+000
  0.000000000000000E+000
  0.000000000000000E+000
  0.000000000000000E+000
  0.000000000000000E+000
  0.000000000000000E+000
  0.000000000000000E+000
  0.000000000000000E+000
  0.000000000000000E+000
  0.000000000000000E+000
  0.000000000000000E+000
  0.000000000000000E+000
  0.000000000000000E+000
  0.000000000000000E+000
   1.00000000000000     
   1.00000000000000     
   1.00000000000000     
   1.00000000000000     
   1.00000000000000     
   1.00000000000000     
   1.00000000000000     
   1.00000000000000     
   1.00000000000000     
   1.00000000000000     
   1.00000000000000     
   1.00000000000000     
   1.00000000000000     
   1.00000000000000     
   1.00000000000000     
   1.00000000000000     
   1.00000000000000     
   1.00000000000000     
   1.00000000000000     
   1.00000000000000     
   1.00000000000000     
   1.00000000000000     
   1.00000000000000     
   1.00000000000000     
   1.00000000000000     
   1.00000000000000     
   1.00000000000000     
   1.00000000000000     
   1.00000000000000     
   1.00000000000000     
   1.00000000000000     
   1.00000000000000     
   1.00000000000000     
   1.00000000000000     
   1.00000000000000     
   1.00000000000000     
   1.00000000000000     
   1.00000000000000     
   1.00000000000000     
   1.00000000000000     
   1.00000000000000     
   1.00000000000000     
   1.00000000000000     
   1.00000000000000     
   1.00000000000000     
   1.00000000000000     
   1.00000000000000     
   1.00000000000000     
   1.00000000000000     
   1.00000000000000     
   1.00000000000000     
   1.00000000000000     
   1.00000000000000     
   1.00000000000000     
   1.00000000000000     
   1.00000000000000     
   1.00000000000000     
   1.00000000000000     
   1.00000000000000     
   1.00000000000000     
   1.00000000000000     
   1.00000000000000     
   1.00000000000000     
   1.00000000000000     
   1.00000000000000     
   1.00000000000000     
   1.00000000000000     
   1.00000000000000     
   1.00000000000000     
   1.00000000000000     
   1.00000000000000     
   1.00000000000000     
   1.00000000000000     
   1.00000000000000     
   1.00000000000000     
  0.000000000000000E+000
  0.000000000000000E+000
  0.000000000000000E+000
  0.000000000000000E+000
  0.000000000000000E+000
  0.000000000000000E+000
  0.000000000000000E+000
  0.000000000000000E+000
  0.000000000000000E+000
  0.000000000000000E+000
  0.000000000000000E+000
  0.000000000000000E+000
  0.000000000000000E+000
  0.000000000000000E+000
  0.000000000000000E+000
  0.000000000000000E+000
  0.000000000000000E+000
  0.000000000000000E+000
  0.000000000000000E+000
  0.000000000000000E+000
  0.000000000000000E+000
  0.000000000000000E+000
  0.000000000000000E+000
  0.000000000000000E+000
  0.000000000000000E+000
   1.00000000000000     
   1.00000000000000     
   1.00000000000000     
   1.00000000000000     
   1.00000000000000     
   1.00000000000000     
   1.00000000000000     
   1.00000000000000     
   1.00000000000000     
   1.00000000000000     
   1.00000000000000     
   1.00000000000000     
   1.00000000000000     
   1.00000000000000     
   1.00000000000000     
   1.00000000000000     
   1.00000000000000     
   1.00000000000000     
   1.00000000000000     
   1.00000000000000     
   1.00000000000000     
   1.00000000000000     
   1.00000000000000     
   1.00000000000000     
   1.00000000000000     
   1.00000000000000     
   1.00000000000000     
   1.00000000000000     
   1.00000000000000     
   1.00000000000000     
   1.00000000000000     
   1.00000000000000     
   1.00000000000000     
   1.00000000000000     
   1.00000000000000     
   1.00000000000000     
   1.00000000000000     
   1.00000000000000     
   1.00000000000000     
   1.00000000000000     
   1.00000000000000     
   1.00000000000000     
   1.00000000000000     
   1.00000000000000     
   1.00000000000000     
   1.00000000000000     
   1.00000000000000     
   1.00000000000000     
   1.00000000000000     
   1.00000000000000     
   1.00000000000000     
   1.00000000000000     
   1.00000000000000     
   1.00000000000000     
   1.00000000000000     
   1.00000000000000     
   1.00000000000000     
   1.00000000000000     
   1.00000000000000     
   1.00000000000000     
   1.00000000000000     
   1.00000000000000     
   1.00000000000000     
   1.00000000000000     
   1.00000000000000     
   1.00000000000000     
   1.00000000000000     
   1.00000000000000     
   1.00000000000000     
   1.00000000000000     
   1.00000000000000     
   1.00000000000000     
   1.00000000000000     
   1.00000000000000     
   1.00000000000000     
  0.000000000000000E+000
  0.000000000000000E+000
  0.000000000000000E+000
  0.000000000000000E+000
  0.000000000000000E+000
  0.000000000000000E+000
  0.000000000000000E+000
  0.000000000000000E+000
  0.000000000000000E+000
  0.000000000000000E+000
  0.000000000000000E+000
  0.000000000000000E+000
  0.000000000000000E+000
  0.000000000000000E+000
  0.000000000000000E+000
  0.000000000000000E+000
  0.000000000000000E+000
  0.000000000000000E+000
  0.000000000000000E+000
  0.000000000000000E+000
  0.000000000000000E+000
  0.000000000000000E+000
  0.000000000000000E+000
  0.000000000000000E+000
  0.000000000000000E+000
   1.00000000000000     
   1.00000000000000     
   1.00000000000000     
   1.00000000000000     
   1.00000000000000     
   1.00000000000000     
   1.00000000000000     
   1.00000000000000     
   1.00000000000000     
   1.00000000000000     
   1.00000000000000     
   1.00000000000000     
   1.00000000000000     
   1.00000000000000     
   1.00000000000000     
   1.00000000000000     
   1.00000000000000     
   1.00000000000000     
   1.00000000000000     
   1.00000000000000     
   1.00000000000000     
   1.00000000000000     
   1.00000000000000     
   1.00000000000000     
   1.00000000000000     
   1.00000000000000     
   1.00000000000000     
   1.00000000000000     
   1.00000000000000     
   1.00000000000000     
   1.00000000000000     
   1.00000000000000     
   1.00000000000000     
   1.00000000000000     
   1.00000000000000     
   1.00000000000000     
   1.00000000000000     
   1.00000000000000     
   1.00000000000000     
   1.00000000000000     
   1.00000000000000     
   1.00000000000000     
   1.00000000000000     
   1.00000000000000     
   1.00000000000000     
   1.00000000000000     
   1.00000000000000     
   1.00000000000000     
   1.00000000000000     
   1.00000000000000     
   1.00000000000000     
   1.00000000000000     
   1.00000000000000     
   1.00000000000000     
   1.00000000000000     
   1.00000000000000     
   1.00000000000000     
   1.00000000000000     
   1.00000000000000     
   1.00000000000000     
   1.00000000000000     
   1.00000000000000     
   1.00000000000000     
   1.00000000000000     
   1.00000000000000     
   1.00000000000000     
   1.00000000000000     
   1.00000000000000     
   1.00000000000000     
   1.00000000000000     
   1.00000000000000     
   1.00000000000000     
   1.00000000000000     
   1.00000000000000     
   1.00000000000000     
  0.000000000000000E+000
  0.000000000000000E+000
  0.000000000000000E+000
  0.000000000000000E+000
  0.000000000000000E+000
  0.000000000000000E+000
  0.000000000000000E+000
  0.000000000000000E+000
  0.000000000000000E+000
  0.000000000000000E+000
  0.000000000000000E+000
  0.000000000000000E+000
  0.000000000000000E+000
  0.000000000000000E+000
  0.000000000000000E+000
  0.000000000000000E+000
  0.000000000000000E+000
  0.000000000000000E+000
  0.000000000000000E+000
  0.000000000000000E+000
  0.000000000000000E+000
  0.000000000000000E+000
  0.000000000000000E+000
  0.000000000000000E+000
  0.000000000000000E+000
   1.00000000000000     
   1.00000000000000     
   1.00000000000000     
   1.00000000000000     
   1.00000000000000     
   1.00000000000000     
   1.00000000000000     
   1.00000000000000     
   1.00000000000000     
   1.00000000000000     
   1.00000000000000     
   1.00000000000000     
   1.00000000000000     
   1.00000000000000     
   1.00000000000000     
   1.00000000000000     
   1.00000000000000     
   1.00000000000000     
   1.00000000000000     
   1.00000000000000     
   1.00000000000000     
   1.00000000000000     
   1.00000000000000     
   1.00000000000000     
   1.00000000000000     
   1.00000000000000     
   1.00000000000000     
   1.00000000000000     
   1.00000000000000     
   1.00000000000000     
   1.00000000000000     
   1.00000000000000     
   1.00000000000000     
   1.00000000000000     
   1.00000000000000     
   1.00000000000000     
   1.00000000000000     
   1.00000000000000     
   1.00000000000000     
   1.00000000000000     
   1.00000000000000     
   1.00000000000000     
   1.00000000000000     
   1.00000000000000     
   1.00000000000000     
   1.00000000000000     
   1.00000000000000     
   1.00000000000000     
   1.00000000000000     
   1.00000000000000     
   1.00000000000000     
   1.00000000000000     
   1.00000000000000     
   1.00000000000000     
   1.00000000000000     
   1.00000000000000     
   1.00000000000000     
   1.00000000000000     
   1.00000000000000     
   1.00000000000000     
   1.00000000000000     
   1.00000000000000     
   1.00000000000000     
   1.00000000000000     
   1.00000000000000     
   1.00000000000000     
   1.00000000000000     
   1.00000000000000     
   1.00000000000000     
   1.00000000000000     
   1.00000000000000     
   1.00000000000000     
   1.00000000000000     
   1.00000000000000     
   1.00000000000000     
  0.000000000000000E+000
  0.000000000000000E+000
  0.000000000000000E+000
  0.000000000000000E+000
  0.000000000000000E+000
  0.000000000000000E+000
  0.000000000000000E+000
  0.000000000000000E+000
  0.000000000000000E+000
  0.000000000000000E+000
  0.000000000000000E+000
  0.000000000000000E+000
  0.000000000000000E+000
  0.000000000000000E+000
  0.000000000000000E+000
  0.000000000000000E+000
  0.000000000000000E+000
  0.000000000000000E+000
  0.000000000000000E+000
  0.000000000000000E+000
  0.000000000000000E+000
  0.000000000000000E+000
  0.000000000000000E+000
  0.000000000000000E+000
  0.000000000000000E+000
   1.00000000000000     
   1.00000000000000     
   1.00000000000000     
   1.00000000000000     
   1.00000000000000     
   1.00000000000000     
   1.00000000000000     
   1.00000000000000     
   1.00000000000000     
   1.00000000000000     
   1.00000000000000     
   1.00000000000000     
   1.00000000000000     
   1.00000000000000     
   1.00000000000000     
   1.00000000000000     
   1.00000000000000     
   1.00000000000000     
   1.00000000000000     
   1.00000000000000     
   1.00000000000000     
   1.00000000000000     
   1.00000000000000     
   1.00000000000000     
   1.00000000000000     
   1.00000000000000     
   1.00000000000000     
   1.00000000000000     
   1.00000000000000     
   1.00000000000000     
   1.00000000000000     
   1.00000000000000     
   1.00000000000000     
   1.00000000000000     
   1.00000000000000     
   1.00000000000000     
   1.00000000000000     
   1.00000000000000     
   1.00000000000000     
   1.00000000000000     
   1.00000000000000     
   1.00000000000000     
   1.00000000000000     
   1.00000000000000     
   1.00000000000000     
   1.00000000000000     
   1.00000000000000     
   1.00000000000000     
   1.00000000000000     
   1.00000000000000     
   1.00000000000000     
   1.00000000000000     
   1.00000000000000     
   1.00000000000000     
   1.00000000000000     
   1.00000000000000     
   1.00000000000000     
   1.00000000000000     
   1.00000000000000     
   1.00000000000000     
   1.00000000000000     
   1.00000000000000     
   1.00000000000000     
   1.00000000000000     
   1.00000000000000     
   1.00000000000000     
   1.00000000000000     
   1.00000000000000     
   1.00000000000000     
   1.00000000000000     
   1.00000000000000     
   1.00000000000000     
   1.00000000000000     
   1.00000000000000     
   1.00000000000000     
  0.000000000000000E+000
  0.000000000000000E+000
  0.000000000000000E+000
  0.000000000000000E+000
  0.000000000000000E+000
  0.000000000000000E+000
  0.000000000000000E+000
  0.000000000000000E+000
  0.000000000000000E+000
  0.000000000000000E+000
  0.000000000000000E+000
  0.000000000000000E+000
  0.000000000000000E+000
  0.000000000000000E+000
  0.000000000000000E+000
  0.000000000000000E+000
  0.000000000000000E+000
  0.000000000000000E+000
  0.000000000000000E+000
  0.000000000000000E+000
  0.000000000000000E+000
  0.000000000000000E+000
  0.000000000000000E+000
  0.000000000000000E+000
  0.000000000000000E+000
   1.00000000000000     
   1.00000000000000     
   1.00000000000000     
   1.00000000000000     
   1.00000000000000     
   1.00000000000000     
   1.00000000000000     
   1.00000000000000     
   1.00000000000000     
   1.00000000000000     
   1.00000000000000     
   1.00000000000000     
   1.00000000000000     
   1.00000000000000     
   1.00000000000000     
   1.00000000000000     
   1.00000000000000     
   1.00000000000000     
   1.00000000000000     
   1.00000000000000     
   1.00000000000000     
   1.00000000000000     
   1.00000000000000     
   1.00000000000000     
   1.00000000000000     
   1.00000000000000     
   1.00000000000000     
   1.00000000000000     
   1.00000000000000     
   1.00000000000000     
   1.00000000000000     
   1.00000000000000     
   1.00000000000000     
   1.00000000000000     
   1.00000000000000     
   1.00000000000000     
   1.00000000000000     
   1.00000000000000     
   1.00000000000000     
   1.00000000000000     
   1.00000000000000     
   1.00000000000000     
   1.00000000000000     
   1.00000000000000     
   1.00000000000000     
   1.00000000000000     
   1.00000000000000     
   1.00000000000000     
   1.00000000000000     
   1.00000000000000     
   1.00000000000000     
   1.00000000000000     
   1.00000000000000     
   1.00000000000000     
   1.00000000000000     
   1.00000000000000     
   1.00000000000000     
   1.00000000000000     
   1.00000000000000     
   1.00000000000000     
   1.00000000000000     
   1.00000000000000     
   1.00000000000000     
   1.00000000000000     
   1.00000000000000     
   1.00000000000000     
   1.00000000000000     
   1.00000000000000     
   1.00000000000000     
   1.00000000000000     
   1.00000000000000     
   1.00000000000000     
   1.00000000000000     
   1.00000000000000     
   1.00000000000000     
  0.000000000000000E+000
  0.000000000000000E+000
  0.000000000000000E+000
  0.000000000000000E+000
  0.000000000000000E+000
  0.000000000000000E+000
  0.000000000000000E+000
  0.000000000000000E+000
  0.000000000000000E+000
  0.000000000000000E+000
  0.000000000000000E+000
  0.000000000000000E+000
  0.000000000000000E+000
  0.000000000000000E+000
  0.000000000000000E+000
  0.000000000000000E+000
  0.000000000000000E+000
  0.000000000000000E+000
  0.000000000000000E+000
  0.000000000000000E+000
  0.000000000000000E+000
  0.000000000000000E+000
  0.000000000000000E+000
  0.000000000000000E+000
  0.000000000000000E+000
   1.00000000000000     
   1.00000000000000     
   1.00000000000000     
   1.00000000000000     
   1.00000000000000     
   1.00000000000000     
   1.00000000000000     
   1.00000000000000     
   1.00000000000000     
   1.00000000000000     
   1.00000000000000     
   1.00000000000000     
   1.00000000000000     
   1.00000000000000     
   1.00000000000000     
   1.00000000000000     
   1.00000000000000     
   1.00000000000000     
   1.00000000000000     
   1.00000000000000     
   1.00000000000000     
   1.00000000000000     
   1.00000000000000     
   1.00000000000000     
   1.00000000000000     
   1.00000000000000     
   1.00000000000000     
   1.00000000000000     
   1.00000000000000     
   1.00000000000000     
   1.00000000000000     
   1.00000000000000     
   1.00000000000000     
   1.00000000000000     
   1.00000000000000     
   1.00000000000000     
   1.00000000000000     
   1.00000000000000     
   1.00000000000000     
   1.00000000000000     
   1.00000000000000     
   1.00000000000000     
   1.00000000000000     
   1.00000000000000     
   1.00000000000000     
   1.00000000000000     
   1.00000000000000     
   1.00000000000000     
   1.00000000000000     
   1.00000000000000     
   1.00000000000000     
   1.00000000000000     
   1.00000000000000     
   1.00000000000000     
   1.00000000000000     
   1.00000000000000     
   1.00000000000000     
   1.00000000000000     
   1.00000000000000     
   1.00000000000000     
   1.00000000000000     
   1.00000000000000     
   1.00000000000000     
   1.00000000000000     
   1.00000000000000     
   1.00000000000000     
   1.00000000000000     
   1.00000000000000     
   1.00000000000000     
   1.00000000000000     
   1.00000000000000     
   1.00000000000000     
   1.00000000000000     
   1.00000000000000     
   1.00000000000000     
  0.000000000000000E+000
  0.000000000000000E+000
  0.000000000000000E+000
  0.000000000000000E+000
  0.000000000000000E+000
  0.000000000000000E+000
  0.000000000000000E+000
  0.000000000000000E+000
  0.000000000000000E+000
  0.000000000000000E+000
  0.000000000000000E+000
  0.000000000000000E+000
  0.000000000000000E+000
  0.000000000000000E+000
  0.000000000000000E+000
  0.000000000000000E+000
  0.000000000000000E+000
  0.000000000000000E+000
  0.000000000000000E+000
  0.000000000000000E+000
  0.000000000000000E+000
  0.000000000000000E+000
  0.000000000000000E+000
  0.000000000000000E+000
  0.000000000000000E+000
   1.00000000000000     
   1.00000000000000     
   1.00000000000000     
   1.00000000000000     
   1.00000000000000     
   1.00000000000000     
   1.00000000000000     
   1.00000000000000     
   1.00000000000000     
   1.00000000000000     
   1.00000000000000     
   1.00000000000000     
   1.00000000000000     
   1.00000000000000     
   1.00000000000000     
   1.00000000000000     
   1.00000000000000     
   1.00000000000000     
   1.00000000000000     
   1.00000000000000     
   1.00000000000000     
   1.00000000000000     
   1.00000000000000     
   1.00000000000000     
   1.00000000000000     
   1.00000000000000     
   1.00000000000000     
   1.00000000000000     
   1.00000000000000     
   1.00000000000000     
   1.00000000000000     
   1.00000000000000     
   1.00000000000000     
   1.00000000000000     
   1.00000000000000     
   1.00000000000000     
   1.00000000000000     
   1.00000000000000     
   1.00000000000000     
   1.00000000000000     
   1.00000000000000     
   1.00000000000000     
   1.00000000000000     
   1.00000000000000     
   1.00000000000000     
   1.00000000000000     
   1.00000000000000     
   1.00000000000000     
   1.00000000000000     
   1.00000000000000     
   1.00000000000000     
   1.00000000000000     
   1.00000000000000     
   1.00000000000000     
   1.00000000000000     
   1.00000000000000     
   1.00000000000000     
   1.00000000000000     
   1.00000000000000     
   1.00000000000000     
   1.00000000000000     
   1.00000000000000     
   1.00000000000000     
   1.00000000000000     
   1.00000000000000     
   1.00000000000000     
   1.00000000000000     
   1.00000000000000     
   1.00000000000000     
   1.00000000000000     
   1.00000000000000     
   1.00000000000000     
   1.00000000000000     
   1.00000000000000     
   1.00000000000000     
  0.000000000000000E+000
  0.000000000000000E+000
  0.000000000000000E+000
  0.000000000000000E+000
  0.000000000000000E+000
  0.000000000000000E+000
  0.000000000000000E+000
  0.000000000000000E+000
  0.000000000000000E+000
  0.000000000000000E+000
  0.000000000000000E+000
  0.000000000000000E+000
  0.000000000000000E+000
  0.000000000000000E+000
  0.000000000000000E+000
  0.000000000000000E+000
  0.000000000000000E+000
  0.000000000000000E+000
  0.000000000000000E+000
  0.000000000000000E+000
  0.000000000000000E+000
  0.000000000000000E+000
  0.000000000000000E+000
  0.000000000000000E+000
  0.000000000000000E+000
   1.00000000000000     
   1.00000000000000     
   1.00000000000000     
   1.00000000000000     
   1.00000000000000     
   1.00000000000000     
   1.00000000000000     
   1.00000000000000     
   1.00000000000000     
   1.00000000000000     
   1.00000000000000     
   1.00000000000000     
   1.00000000000000     
   1.00000000000000     
   1.00000000000000     
   1.00000000000000     
   1.00000000000000     
   1.00000000000000     
   1.00000000000000     
   1.00000000000000     
   1.00000000000000     
   1.00000000000000     
   1.00000000000000     
   1.00000000000000     
   1.00000000000000     
   1.00000000000000     
   1.00000000000000     
   1.00000000000000     
   1.00000000000000     
   1.00000000000000     
   1.00000000000000     
   1.00000000000000     
   1.00000000000000     
   1.00000000000000     
   1.00000000000000     
   1.00000000000000     
   1.00000000000000     
   1.00000000000000     
   1.00000000000000     
   1.00000000000000     
   1.00000000000000     
   1.00000000000000     
   1.00000000000000     
   1.00000000000000     
   1.00000000000000     
   1.00000000000000     
   1.00000000000000     
   1.00000000000000     
   1.00000000000000     
   1.00000000000000     
   1.00000000000000     
   1.00000000000000     
   1.00000000000000     
   1.00000000000000     
   1.00000000000000     
   1.00000000000000     
   1.00000000000000     
   1.00000000000000     
   1.00000000000000     
   1.00000000000000     
   1.00000000000000     
   1.00000000000000     
   1.00000000000000     
   1.00000000000000     
   1.00000000000000     
   1.00000000000000     
   1.00000000000000     
   1.00000000000000     
   1.00000000000000     
   1.00000000000000     
   1.00000000000000     
   1.00000000000000     
   1.00000000000000     
   1.00000000000000     
   1.00000000000000     
  0.000000000000000E+000
  0.000000000000000E+000
  0.000000000000000E+000
  0.000000000000000E+000
  0.000000000000000E+000
  0.000000000000000E+000
  0.000000000000000E+000
  0.000000000000000E+000
  0.000000000000000E+000
  0.000000000000000E+000
  0.000000000000000E+000
  0.000000000000000E+000
  0.000000000000000E+000
  0.000000000000000E+000
  0.000000000000000E+000
  0.000000000000000E+000
  0.000000000000000E+000
  0.000000000000000E+000
  0.000000000000000E+000
  0.000000000000000E+000
  0.000000000000000E+000
  0.000000000000000E+000
  0.000000000000000E+000
  0.000000000000000E+000
   1.00000000000000     
   1.00000000000000     
   1.00000000000000     
   1.00000000000000     
   1.00000000000000     
   1.00000000000000     
   1.00000000000000     
   1.00000000000000     
   1.00000000000000     
   1.00000000000000     
   1.00000000000000     
   1.00000000000000     
   1.00000000000000     
   1.00000000000000     
   1.00000000000000     
   1.00000000000000     
   1.00000000000000     
   1.00000000000000     
   1.00000000000000     
   1.00000000000000     
   1.00000000000000     
   1.00000000000000     
   1.00000000000000     
   1.00000000000000     
   1.00000000000000     
   1.00000000000000     
   1.00000000000000     
   1.00000000000000     
   1.00000000000000     
   1.00000000000000     
   1.00000000000000     
   1.00000000000000     
   1.00000000000000     
   1.00000000000000     
   1.00000000000000     
   1.00000000000000     
   1.00000000000000     
   1.00000000000000     
   1.00000000000000     
   1.00000000000000     
   1.00000000000000     
   1.00000000000000     
   1.00000000000000     
   1.00000000000000     
   1.00000000000000     
   1.00000000000000     
   1.00000000000000     
   1.00000000000000     
   1.00000000000000     
   1.00000000000000     
   1.00000000000000     
   1.00000000000000     
   1.00000000000000     
   1.00000000000000     
   1.00000000000000     
   1.00000000000000     
   1.00000000000000     
   1.00000000000000     
   1.00000000000000     
   1.00000000000000     
   1.00000000000000     
   1.00000000000000     
   1.00000000000000     
   1.00000000000000     
   1.00000000000000     
   1.00000000000000     
   1.00000000000000     
   1.00000000000000     
   1.00000000000000     
   1.00000000000000     
   1.00000000000000     
   1.00000000000000     
   1.00000000000000     
   1.00000000000000     
   1.00000000000000     
   1.00000000000000     
  0.000000000000000E+000
  0.000000000000000E+000
  0.000000000000000E+000
  0.000000000000000E+000
  0.000000000000000E+000
  0.000000000000000E+000
  0.000000000000000E+000
  0.000000000000000E+000
  0.000000000000000E+000
  0.000000000000000E+000
  0.000000000000000E+000
  0.000000000000000E+000
  0.000000000000000E+000
  0.000000000000000E+000
  0.000000000000000E+000
  0.000000000000000E+000
  0.000000000000000E+000
  0.000000000000000E+000
  0.000000000000000E+000
  0.000000000000000E+000
  0.000000000000000E+000
  0.000000000000000E+000
  0.000000000000000E+000
  0.000000000000000E+000
   1.00000000000000     
   1.00000000000000     
   1.00000000000000     
   1.00000000000000     
   1.00000000000000     
   1.00000000000000     
   1.00000000000000     
   1.00000000000000     
   1.00000000000000     
   1.00000000000000     
   1.00000000000000     
   1.00000000000000     
   1.00000000000000     
   1.00000000000000     
   1.00000000000000     
   1.00000000000000     
   1.00000000000000     
   1.00000000000000     
   1.00000000000000     
   1.00000000000000     
   1.00000000000000     
   1.00000000000000     
   1.00000000000000     
   1.00000000000000     
   1.00000000000000     
   1.00000000000000     
   1.00000000000000     
   1.00000000000000     
   1.00000000000000     
   1.00000000000000     
   1.00000000000000     
   1.00000000000000     
   1.00000000000000     
   1.00000000000000     
   1.00000000000000     
   1.00000000000000     
   1.00000000000000     
   1.00000000000000     
   1.00000000000000     
   1.00000000000000     
   1.00000000000000     
   1.00000000000000     
   1.00000000000000     
   1.00000000000000     
   1.00000000000000     
   1.00000000000000     
   1.00000000000000     
   1.00000000000000     
   1.00000000000000     
   1.00000000000000     
   1.00000000000000     
   1.00000000000000     
   1.00000000000000     
   1.00000000000000     
   1.00000000000000     
   1.00000000000000     
   1.00000000000000     
   1.00000000000000     
   1.00000000000000     
   1.00000000000000     
   1.00000000000000     
   1.00000000000000     
   1.00000000000000     
   1.00000000000000     
   1.00000000000000     
   1.00000000000000     
   1.00000000000000     
   1.00000000000000     
   1.00000000000000     
   1.00000000000000     
   1.00000000000000     
   1.00000000000000     
   1.00000000000000     
   1.00000000000000     
   1.00000000000000     
   1.00000000000000     
  0.000000000000000E+000
  0.000000000000000E+000
  0.000000000000000E+000
  0.000000000000000E+000
  0.000000000000000E+000
  0.000000000000000E+000
  0.000000000000000E+000
  0.000000000000000E+000
  0.000000000000000E+000
  0.000000000000000E+000
  0.000000000000000E+000
  0.000000000000000E+000
  0.000000000000000E+000
  0.000000000000000E+000
  0.000000000000000E+000
  0.000000000000000E+000
  0.000000000000000E+000
  0.000000000000000E+000
  0.000000000000000E+000
  0.000000000000000E+000
  0.000000000000000E+000
  0.000000000000000E+000
  0.000000000000000E+000
  0.000000000000000E+000
   1.00000000000000     
   1.00000000000000     
   1.00000000000000     
   1.00000000000000     
   1.00000000000000     
   1.00000000000000     
   1.00000000000000     
   1.00000000000000     
   1.00000000000000     
   1.00000000000000     
   1.00000000000000     
   1.00000000000000     
   1.00000000000000     
   1.00000000000000     
   1.00000000000000     
   1.00000000000000     
   1.00000000000000     
   1.00000000000000     
   1.00000000000000     
   1.00000000000000     
   1.00000000000000     
   1.00000000000000     
   1.00000000000000     
   1.00000000000000     
   1.00000000000000     
   1.00000000000000     
   1.00000000000000     
   1.00000000000000     
   1.00000000000000     
   1.00000000000000     
   1.00000000000000     
   1.00000000000000     
   1.00000000000000     
   1.00000000000000     
   1.00000000000000     
   1.00000000000000     
   1.00000000000000     
   1.00000000000000     
   1.00000000000000     
   1.00000000000000     
   1.00000000000000     
   1.00000000000000     
   1.00000000000000     
   1.00000000000000     
   1.00000000000000     
   1.00000000000000     
   1.00000000000000     
   1.00000000000000     
   1.00000000000000     
   1.00000000000000     
   1.00000000000000     
   1.00000000000000     
   1.00000000000000     
   1.00000000000000     
   1.00000000000000     
   1.00000000000000     
   1.00000000000000     
   1.00000000000000     
   1.00000000000000     
   1.00000000000000     
   1.00000000000000     
   1.00000000000000     
   1.00000000000000     
   1.00000000000000     
   1.00000000000000     
   1.00000000000000     
   1.00000000000000     
   1.00000000000000     
   1.00000000000000     
   1.00000000000000     
   1.00000000000000     
   1.00000000000000     
   1.00000000000000     
   1.00000000000000     
   1.00000000000000     
   1.00000000000000     
  0.000000000000000E+000
  0.000000000000000E+000
  0.000000000000000E+000
  0.000000000000000E+000
  0.000000000000000E+000
  0.000000000000000E+000
  0.000000000000000E+000
  0.000000000000000E+000
  0.000000000000000E+000
  0.000000000000000E+000
  0.000000000000000E+000
  0.000000000000000E+000
  0.000000000000000E+000
  0.000000000000000E+000
  0.000000000000000E+000
  0.000000000000000E+000
  0.000000000000000E+000
  0.000000000000000E+000
  0.000000000000000E+000
  0.000000000000000E+000
  0.000000000000000E+000
  0.000000000000000E+000
  0.000000000000000E+000
  0.000000000000000E+000
   1.00000000000000     
   1.00000000000000     
   1.00000000000000     
   1.00000000000000     
   1.00000000000000     
   1.00000000000000     
   1.00000000000000     
   1.00000000000000     
   1.00000000000000     
   1.00000000000000     
   1.00000000000000     
   1.00000000000000     
   1.00000000000000     
   1.00000000000000     
   1.00000000000000     
   1.00000000000000     
   1.00000000000000     
   1.00000000000000     
   1.00000000000000     
   1.00000000000000     
   1.00000000000000     
   1.00000000000000     
   1.00000000000000     
   1.00000000000000     
   1.00000000000000     
   1.00000000000000     
   1.00000000000000     
   1.00000000000000     
   1.00000000000000     
   1.00000000000000     
   1.00000000000000     
   1.00000000000000     
   1.00000000000000     
   1.00000000000000     
   1.00000000000000     
   1.00000000000000     
   1.00000000000000     
   1.00000000000000     
   1.00000000000000     
   1.00000000000000     
   1.00000000000000     
   1.00000000000000     
   1.00000000000000     
   1.00000000000000     
   1.00000000000000     
   1.00000000000000     
   1.00000000000000     
   1.00000000000000     
   1.00000000000000     
   1.00000000000000     
   1.00000000000000     
   1.00000000000000     
   1.00000000000000     
   1.00000000000000     
   1.00000000000000     
   1.00000000000000     
   1.00000000000000     
   1.00000000000000     
   1.00000000000000     
   1.00000000000000     
   1.00000000000000     
   1.00000000000000     
   1.00000000000000     
   1.00000000000000     
   1.00000000000000     
   1.00000000000000     
   1.00000000000000     
   1.00000000000000     
   1.00000000000000     
   1.00000000000000     
   1.00000000000000     
   1.00000000000000     
   1.00000000000000     
   1.00000000000000     
   1.00000000000000     
   1.00000000000000     
  0.000000000000000E+000
  0.000000000000000E+000
  0.000000000000000E+000
  0.000000000000000E+000
  0.000000000000000E+000
  0.000000000000000E+000
  0.000000000000000E+000
  0.000000000000000E+000
  0.000000000000000E+000
  0.000000000000000E+000
  0.000000000000000E+000
  0.000000000000000E+000
  0.000000000000000E+000
  0.000000000000000E+000
  0.000000000000000E+000
  0.000000000000000E+000
  0.000000000000000E+000
  0.000000000000000E+000
  0.000000000000000E+000
  0.000000000000000E+000
  0.000000000000000E+000
  0.000000000000000E+000
  0.000000000000000E+000
  0.000000000000000E+000
   1.00000000000000     
   1.00000000000000     
   1.00000000000000     
   1.00000000000000     
   1.00000000000000     
   1.00000000000000     
   1.00000000000000     
   1.00000000000000     
   1.00000000000000     
   1.00000000000000     
   1.00000000000000     
   1.00000000000000     
   1.00000000000000     
   1.00000000000000     
   1.00000000000000     
   1.00000000000000     
   1.00000000000000     
   1.00000000000000     
   1.00000000000000     
   1.00000000000000     
   1.00000000000000     
   1.00000000000000     
   1.00000000000000     
   1.00000000000000     
   1.00000000000000     
   1.00000000000000     
   1.00000000000000     
   1.00000000000000     
   1.00000000000000     
   1.00000000000000     
   1.00000000000000     
   1.00000000000000     
   1.00000000000000     
   1.00000000000000     
   1.00000000000000     
   1.00000000000000     
   1.00000000000000     
   1.00000000000000     
   1.00000000000000     
   1.00000000000000     
   1.00000000000000     
   1.00000000000000     
   1.00000000000000     
   1.00000000000000     
   1.00000000000000     
   1.00000000000000     
   1.00000000000000     
   1.00000000000000     
   1.00000000000000     
   1.00000000000000     
   1.00000000000000     
   1.00000000000000     
   1.00000000000000     
   1.00000000000000     
   1.00000000000000     
   1.00000000000000     
   1.00000000000000     
   1.00000000000000     
   1.00000000000000     
   1.00000000000000     
   1.00000000000000     
   1.00000000000000     
   1.00000000000000     
   1.00000000000000     
   1.00000000000000     
   1.00000000000000     
   1.00000000000000     
   1.00000000000000     
   1.00000000000000     
   1.00000000000000     
   1.00000000000000     
   1.00000000000000     
   1.00000000000000     
   1.00000000000000     
   1.00000000000000     
   1.00000000000000     
  0.000000000000000E+000
  0.000000000000000E+000
  0.000000000000000E+000
  0.000000000000000E+000
  0.000000000000000E+000
  0.000000000000000E+000
  0.000000000000000E+000
  0.000000000000000E+000
  0.000000000000000E+000
  0.000000000000000E+000
  0.000000000000000E+000
  0.000000000000000E+000
  0.000000000000000E+000
  0.000000000000000E+000
  0.000000000000000E+000
  0.000000000000000E+000
  0.000000000000000E+000
  0.000000000000000E+000
  0.000000000000000E+000
  0.000000000000000E+000
  0.000000000000000E+000
  0.000000000000000E+000
  0.000000000000000E+000
  0.000000000000000E+000
   1.00000000000000     
   1.00000000000000     
   1.00000000000000     
   1.00000000000000     
   1.00000000000000     
   1.00000000000000     
   1.00000000000000     
   1.00000000000000     
   1.00000000000000     
   1.00000000000000     
   1.00000000000000     
   1.00000000000000     
   1.00000000000000     
   1.00000000000000     
   1.00000000000000     
   1.00000000000000     
   1.00000000000000     
   1.00000000000000     
   1.00000000000000     
   1.00000000000000     
   1.00000000000000     
   1.00000000000000     
   1.00000000000000     
   1.00000000000000     
   1.00000000000000     
   1.00000000000000     
   1.00000000000000     
   1.00000000000000     
   1.00000000000000     
   1.00000000000000     
   1.00000000000000     
   1.00000000000000     
   1.00000000000000     
   1.00000000000000     
   1.00000000000000     
   1.00000000000000     
   1.00000000000000     
   1.00000000000000     
   1.00000000000000     
   1.00000000000000     
   1.00000000000000     
   1.00000000000000     
   1.00000000000000     
   1.00000000000000     
   1.00000000000000     
   1.00000000000000     
   1.00000000000000     
   1.00000000000000     
   1.00000000000000     
   1.00000000000000     
   1.00000000000000     
   1.00000000000000     
   1.00000000000000     
   1.00000000000000     
   1.00000000000000     
   1.00000000000000     
   1.00000000000000     
   1.00000000000000     
   1.00000000000000     
   1.00000000000000     
   1.00000000000000     
   1.00000000000000     
   1.00000000000000     
   1.00000000000000     
   1.00000000000000     
   1.00000000000000     
   1.00000000000000     
   1.00000000000000     
   1.00000000000000     
   1.00000000000000     
   1.00000000000000     
   1.00000000000000     
   1.00000000000000     
   1.00000000000000     
   1.00000000000000     
   1.00000000000000     
  0.000000000000000E+000
  0.000000000000000E+000
  0.000000000000000E+000
  0.000000000000000E+000
  0.000000000000000E+000
  0.000000000000000E+000
  0.000000000000000E+000
  0.000000000000000E+000
  0.000000000000000E+000
  0.000000000000000E+000
  0.000000000000000E+000
  0.000000000000000E+000
  0.000000000000000E+000
  0.000000000000000E+000
  0.000000000000000E+000
  0.000000000000000E+000
  0.000000000000000E+000
  0.000000000000000E+000
  0.000000000000000E+000
  0.000000000000000E+000
  0.000000000000000E+000
  0.000000000000000E+000
  0.000000000000000E+000
  0.000000000000000E+000
   1.00000000000000     
   1.00000000000000     
   1.00000000000000     
   1.00000000000000     
   1.00000000000000     
   1.00000000000000     
   1.00000000000000     
   1.00000000000000     
   1.00000000000000     
   1.00000000000000     
   1.00000000000000     
   1.00000000000000     
   1.00000000000000     
   1.00000000000000     
   1.00000000000000     
   1.00000000000000     
   1.00000000000000     
   1.00000000000000     
   1.00000000000000     
   1.00000000000000     
   1.00000000000000     
   1.00000000000000     
   1.00000000000000     
   1.00000000000000     
   1.00000000000000     
   1.00000000000000     
   1.00000000000000     
   1.00000000000000     
   1.00000000000000     
   1.00000000000000     
   1.00000000000000     
   1.00000000000000     
   1.00000000000000     
   1.00000000000000     
   1.00000000000000     
   1.00000000000000     
   1.00000000000000     
   1.00000000000000     
   1.00000000000000     
   1.00000000000000     
   1.00000000000000     
   1.00000000000000     
   1.00000000000000     
   1.00000000000000     
   1.00000000000000     
   1.00000000000000     
   1.00000000000000     
   1.00000000000000     
   1.00000000000000     
   1.00000000000000     
   1.00000000000000     
   1.00000000000000     
   1.00000000000000     
   1.00000000000000     
   1.00000000000000     
   1.00000000000000     
   1.00000000000000     
   1.00000000000000     
   1.00000000000000     
   1.00000000000000     
   1.00000000000000     
   1.00000000000000     
   1.00000000000000     
   1.00000000000000     
   1.00000000000000     
   1.00000000000000     
   1.00000000000000     
   1.00000000000000     
   1.00000000000000     
   1.00000000000000     
   1.00000000000000     
   1.00000000000000     
   1.00000000000000     
   1.00000000000000     
   1.00000000000000     
   1.00000000000000     
  0.000000000000000E+000
  0.000000000000000E+000
  0.000000000000000E+000
  0.000000000000000E+000
  0.000000000000000E+000
  0.000000000000000E+000
  0.000000000000000E+000
  0.000000000000000E+000
  0.000000000000000E+000
  0.000000000000000E+000
  0.000000000000000E+000
  0.000000000000000E+000
  0.000000000000000E+000
  0.000000000000000E+000
  0.000000000000000E+000
  0.000000000000000E+000
  0.000000000000000E+000
  0.000000000000000E+000
  0.000000000000000E+000
  0.000000000000000E+000
  0.000000000000000E+000
  0.000000000000000E+000
  0.000000000000000E+000
  0.000000000000000E+000
   1.00000000000000     
   1.00000000000000     
   1.00000000000000     
   1.00000000000000     
   1.00000000000000     
   1.00000000000000     
   1.00000000000000     
   1.00000000000000     
   1.00000000000000     
   1.00000000000000     
   1.00000000000000     
   1.00000000000000     
   1.00000000000000     
   1.00000000000000     
   1.00000000000000     
   1.00000000000000     
   1.00000000000000     
   1.00000000000000     
   1.00000000000000     
   1.00000000000000     
   1.00000000000000     
   1.00000000000000     
   1.00000000000000     
   1.00000000000000     
   1.00000000000000     
   1.00000000000000     
   1.00000000000000     
   1.00000000000000     
   1.00000000000000     
   1.00000000000000     
   1.00000000000000     
   1.00000000000000     
   1.00000000000000     
   1.00000000000000     
   1.00000000000000     
   1.00000000000000     
   1.00000000000000     
   1.00000000000000     
   1.00000000000000     
   1.00000000000000     
   1.00000000000000     
   1.00000000000000     
   1.00000000000000     
   1.00000000000000     
   1.00000000000000     
   1.00000000000000     
   1.00000000000000     
   1.00000000000000     
   1.00000000000000     
   1.00000000000000     
   1.00000000000000     
   1.00000000000000     
   1.00000000000000     
   1.00000000000000     
   1.00000000000000     
   1.00000000000000     
   1.00000000000000     
   1.00000000000000     
   1.00000000000000     
   1.00000000000000     
   1.00000000000000     
   1.00000000000000     
   1.00000000000000     
   1.00000000000000     
   1.00000000000000     
   1.00000000000000     
   1.00000000000000     
   1.00000000000000     
   1.00000000000000     
   1.00000000000000     
   1.00000000000000     
   1.00000000000000     
   1.00000000000000     
   1.00000000000000     
   1.00000000000000     
   1.00000000000000     
  0.000000000000000E+000
  0.000000000000000E+000
  0.000000000000000E+000
  0.000000000000000E+000
  0.000000000000000E+000
  0.000000000000000E+000
  0.000000000000000E+000
  0.000000000000000E+000
  0.000000000000000E+000
  0.000000000000000E+000
  0.000000000000000E+000
  0.000000000000000E+000
  0.000000000000000E+000
  0.000000000000000E+000
  0.000000000000000E+000
  0.000000000000000E+000
  0.000000000000000E+000
  0.000000000000000E+000
  0.000000000000000E+000
  0.000000000000000E+000
  0.000000000000000E+000
  0.000000000000000E+000
  0.000000000000000E+000
  0.000000000000000E+000
   1.00000000000000     
   1.00000000000000     
   1.00000000000000     
   1.00000000000000     
   1.00000000000000     
   1.00000000000000     
   1.00000000000000     
   1.00000000000000     
   1.00000000000000     
   1.00000000000000     
   1.00000000000000     
   1.00000000000000     
   1.00000000000000     
   1.00000000000000     
   1.00000000000000     
   1.00000000000000     
   1.00000000000000     
   1.00000000000000     
   1.00000000000000     
   1.00000000000000     
   1.00000000000000     
   1.00000000000000     
   1.00000000000000     
   1.00000000000000     
   1.00000000000000     
   1.00000000000000     
   1.00000000000000     
   1.00000000000000     
   1.00000000000000     
   1.00000000000000     
   1.00000000000000     
   1.00000000000000     
   1.00000000000000     
   1.00000000000000     
   1.00000000000000     
   1.00000000000000     
   1.00000000000000     
   1.00000000000000     
   1.00000000000000     
   1.00000000000000     
   1.00000000000000     
   1.00000000000000     
   1.00000000000000     
   1.00000000000000     
   1.00000000000000     
   1.00000000000000     
   1.00000000000000     
   1.00000000000000     
   1.00000000000000     
   1.00000000000000     
   1.00000000000000     
   1.00000000000000     
   1.00000000000000     
   1.00000000000000     
   1.00000000000000     
   1.00000000000000     
   1.00000000000000     
   1.00000000000000     
   1.00000000000000     
   1.00000000000000     
   1.00000000000000     
   1.00000000000000     
   1.00000000000000     
   1.00000000000000     
   1.00000000000000     
   1.00000000000000     
   1.00000000000000     
   1.00000000000000     
   1.00000000000000     
   1.00000000000000     
   1.00000000000000     
   1.00000000000000     
   1.00000000000000     
   1.00000000000000     
   1.00000000000000     
   1.00000000000000     
  0.000000000000000E+000
  0.000000000000000E+000
  0.000000000000000E+000
  0.000000000000000E+000
  0.000000000000000E+000
  0.000000000000000E+000
  0.000000000000000E+000
  0.000000000000000E+000
  0.000000000000000E+000
  0.000000000000000E+000
  0.000000000000000E+000
  0.000000000000000E+000
  0.000000000000000E+000
  0.000000000000000E+000
  0.000000000000000E+000
  0.000000000000000E+000
  0.000000000000000E+000
  0.000000000000000E+000
  0.000000000000000E+000
  0.000000000000000E+000
  0.000000000000000E+000
  0.000000000000000E+000
  0.000000000000000E+000
  0.000000000000000E+000
   1.00000000000000     
   1.00000000000000     
   1.00000000000000     
   1.00000000000000     
   1.00000000000000     
   1.00000000000000     
   1.00000000000000     
   1.00000000000000     
   1.00000000000000     
   1.00000000000000     
   1.00000000000000     
   1.00000000000000     
   1.00000000000000     
   1.00000000000000     
   1.00000000000000     
   1.00000000000000     
   1.00000000000000     
   1.00000000000000     
   1.00000000000000     
   1.00000000000000     
   1.00000000000000     
   1.00000000000000     
   1.00000000000000     
   1.00000000000000     
   1.00000000000000     
   1.00000000000000     
   1.00000000000000     
   1.00000000000000     
   1.00000000000000     
   1.00000000000000     
   1.00000000000000     
   1.00000000000000     
   1.00000000000000     
   1.00000000000000     
   1.00000000000000     
   1.00000000000000     
   1.00000000000000     
   1.00000000000000     
   1.00000000000000     
   1.00000000000000     
   1.00000000000000     
   1.00000000000000     
   1.00000000000000     
   1.00000000000000     
   1.00000000000000     
   1.00000000000000     
   1.00000000000000     
   1.00000000000000     
   1.00000000000000     
   1.00000000000000     
   1.00000000000000     
   1.00000000000000     
   1.00000000000000     
   1.00000000000000     
   1.00000000000000     
   1.00000000000000     
   1.00000000000000     
   1.00000000000000     
   1.00000000000000     
   1.00000000000000     
   1.00000000000000     
   1.00000000000000     
   1.00000000000000     
   1.00000000000000     
   1.00000000000000     
   1.00000000000000     
   1.00000000000000     
   1.00000000000000     
   1.00000000000000     
   1.00000000000000     
   1.00000000000000     
   1.00000000000000     
   1.00000000000000     
   1.00000000000000     
   1.00000000000000     
   1.00000000000000     
  0.000000000000000E+000
  0.000000000000000E+000
  0.000000000000000E+000
  0.000000000000000E+000
  0.000000000000000E+000
  0.000000000000000E+000
  0.000000000000000E+000
  0.000000000000000E+000
  0.000000000000000E+000
  0.000000000000000E+000
  0.000000000000000E+000
  0.000000000000000E+000
  0.000000000000000E+000
  0.000000000000000E+000
  0.000000000000000E+000
  0.000000000000000E+000
  0.000000000000000E+000
  0.000000000000000E+000
  0.000000000000000E+000
  0.000000000000000E+000
  0.000000000000000E+000
  0.000000000000000E+000
  0.000000000000000E+000
  0.000000000000000E+000
   1.00000000000000     
   1.00000000000000     
   1.00000000000000     
   1.00000000000000     
   1.00000000000000     
   1.00000000000000     
   1.00000000000000     
   1.00000000000000     
   1.00000000000000     
   1.00000000000000     
   1.00000000000000     
   1.00000000000000     
   1.00000000000000     
   1.00000000000000     
   1.00000000000000     
   1.00000000000000     
   1.00000000000000     
   1.00000000000000     
   1.00000000000000     
   1.00000000000000     
   1.00000000000000     
   1.00000000000000     
   1.00000000000000     
   1.00000000000000     
   1.00000000000000     
   1.00000000000000     
   1.00000000000000     
   1.00000000000000     
   1.00000000000000     
   1.00000000000000     
   1.00000000000000     
   1.00000000000000     
   1.00000000000000     
   1.00000000000000     
   1.00000000000000     
   1.00000000000000     
   1.00000000000000     
   1.00000000000000     
   1.00000000000000     
   1.00000000000000     
   1.00000000000000     
   1.00000000000000     
   1.00000000000000     
   1.00000000000000     
   1.00000000000000     
   1.00000000000000     
   1.00000000000000     
   1.00000000000000     
   1.00000000000000     
   1.00000000000000     
   1.00000000000000     
   1.00000000000000     
   1.00000000000000     
   1.00000000000000     
   1.00000000000000     
   1.00000000000000     
   1.00000000000000     
   1.00000000000000     
   1.00000000000000     
   1.00000000000000     
   1.00000000000000     
   1.00000000000000     
   1.00000000000000     
   1.00000000000000     
   1.00000000000000     
   1.00000000000000     
   1.00000000000000     
   1.00000000000000     
   1.00000000000000     
   1.00000000000000     
   1.00000000000000     
   1.00000000000000     
   1.00000000000000     
   1.00000000000000     
   1.00000000000000     
   1.00000000000000     
  0.000000000000000E+000
  0.000000000000000E+000
  0.000000000000000E+000
  0.000000000000000E+000
  0.000000000000000E+000
  0.000000000000000E+000
  0.000000000000000E+000
  0.000000000000000E+000
  0.000000000000000E+000
  0.000000000000000E+000
  0.000000000000000E+000
  0.000000000000000E+000
  0.000000000000000E+000
  0.000000000000000E+000
  0.000000000000000E+000
  0.000000000000000E+000
  0.000000000000000E+000
  0.000000000000000E+000
  0.000000000000000E+000
  0.000000000000000E+000
  0.000000000000000E+000
  0.000000000000000E+000
  0.000000000000000E+000
  0.000000000000000E+000
   1.00000000000000     
   1.00000000000000     
   1.00000000000000     
   1.00000000000000     
   1.00000000000000     
   1.00000000000000     
   1.00000000000000     
   1.00000000000000     
   1.00000000000000     
   1.00000000000000     
   1.00000000000000     
   1.00000000000000     
   1.00000000000000     
   1.00000000000000     
   1.00000000000000     
   1.00000000000000     
   1.00000000000000     
   1.00000000000000     
   1.00000000000000     
   1.00000000000000     
   1.00000000000000     
   1.00000000000000     
   1.00000000000000     
   1.00000000000000     
   1.00000000000000     
   1.00000000000000     
   1.00000000000000     
   1.00000000000000     
   1.00000000000000     
   1.00000000000000     
   1.00000000000000     
   1.00000000000000     
   1.00000000000000     
   1.00000000000000     
   1.00000000000000     
   1.00000000000000     
   1.00000000000000     
   1.00000000000000     
   1.00000000000000     
   1.00000000000000     
   1.00000000000000     
   1.00000000000000     
   1.00000000000000     
   1.00000000000000     
   1.00000000000000     
   1.00000000000000     
   1.00000000000000     
   1.00000000000000     
   1.00000000000000     
   1.00000000000000     
   1.00000000000000     
   1.00000000000000     
   1.00000000000000     
   1.00000000000000     
   1.00000000000000     
   1.00000000000000     
   1.00000000000000     
   1.00000000000000     
   1.00000000000000     
   1.00000000000000     
   1.00000000000000     
   1.00000000000000     
   1.00000000000000     
   1.00000000000000     
   1.00000000000000     
   1.00000000000000     
   1.00000000000000     
   1.00000000000000     
   1.00000000000000     
   1.00000000000000     
   1.00000000000000     
   1.00000000000000     
   1.00000000000000     
   1.00000000000000     
   1.00000000000000     
   1.00000000000000     
  0.000000000000000E+000
  0.000000000000000E+000
  0.000000000000000E+000
  0.000000000000000E+000
  0.000000000000000E+000
  0.000000000000000E+000
  0.000000000000000E+000
  0.000000000000000E+000
  0.000000000000000E+000
  0.000000000000000E+000
  0.000000000000000E+000
  0.000000000000000E+000
  0.000000000000000E+000
  0.000000000000000E+000
  0.000000000000000E+000
  0.000000000000000E+000
  0.000000000000000E+000
  0.000000000000000E+000
  0.000000000000000E+000
  0.000000000000000E+000
  0.000000000000000E+000
  0.000000000000000E+000
  0.000000000000000E+000
  0.000000000000000E+000
   1.00000000000000     
   1.00000000000000     
   1.00000000000000     
   1.00000000000000     
   1.00000000000000     
   1.00000000000000     
   1.00000000000000     
   1.00000000000000     
   1.00000000000000     
   1.00000000000000     
   1.00000000000000     
   1.00000000000000     
   1.00000000000000     
   1.00000000000000     
   1.00000000000000     
   1.00000000000000     
   1.00000000000000     
   1.00000000000000     
   1.00000000000000     
   1.00000000000000     
   1.00000000000000     
   1.00000000000000     
   1.00000000000000     
   1.00000000000000     
   1.00000000000000     
   1.00000000000000     
   1.00000000000000     
   1.00000000000000     
   1.00000000000000     
   1.00000000000000     
   1.00000000000000     
   1.00000000000000     
   1.00000000000000     
   1.00000000000000     
   1.00000000000000     
   1.00000000000000     
   1.00000000000000     
   1.00000000000000     
   1.00000000000000     
   1.00000000000000     
   1.00000000000000     
   1.00000000000000     
   1.00000000000000     
   1.00000000000000     
   1.00000000000000     
   1.00000000000000     
   1.00000000000000     
   1.00000000000000     
   1.00000000000000     
   1.00000000000000     
   1.00000000000000     
   1.00000000000000     
   1.00000000000000     
   1.00000000000000     
   1.00000000000000     
   1.00000000000000     
   1.00000000000000     
   1.00000000000000     
   1.00000000000000     
   1.00000000000000     
   1.00000000000000     
   1.00000000000000     
   1.00000000000000     
   1.00000000000000     
   1.00000000000000     
   1.00000000000000     
   1.00000000000000     
   1.00000000000000     
   1.00000000000000     
   1.00000000000000     
   1.00000000000000     
   1.00000000000000     
   1.00000000000000     
   1.00000000000000     
   1.00000000000000     
   1.00000000000000     
  0.000000000000000E+000
  0.000000000000000E+000
  0.000000000000000E+000
  0.000000000000000E+000
  0.000000000000000E+000
  0.000000000000000E+000
  0.000000000000000E+000
  0.000000000000000E+000
  0.000000000000000E+000
  0.000000000000000E+000
  0.000000000000000E+000
  0.000000000000000E+000
  0.000000000000000E+000
  0.000000000000000E+000
  0.000000000000000E+000
  0.000000000000000E+000
  0.000000000000000E+000
  0.000000000000000E+000
  0.000000000000000E+000
  0.000000000000000E+000
  0.000000000000000E+000
  0.000000000000000E+000
  0.000000000000000E+000
  0.000000000000000E+000
   1.00000000000000     
   1.00000000000000     
   1.00000000000000     
   1.00000000000000     
   1.00000000000000     
   1.00000000000000     
   1.00000000000000     
   1.00000000000000     
   1.00000000000000     
   1.00000000000000     
   1.00000000000000     
   1.00000000000000     
   1.00000000000000     
   1.00000000000000     
   1.00000000000000     
   1.00000000000000     
   1.00000000000000     
   1.00000000000000     
   1.00000000000000     
   1.00000000000000     
   1.00000000000000     
   1.00000000000000     
   1.00000000000000     
   1.00000000000000     
   1.00000000000000     
   1.00000000000000     
   1.00000000000000     
   1.00000000000000     
   1.00000000000000     
   1.00000000000000     
   1.00000000000000     
   1.00000000000000     
   1.00000000000000     
   1.00000000000000     
   1.00000000000000     
   1.00000000000000     
   1.00000000000000     
   1.00000000000000     
   1.00000000000000     
   1.00000000000000     
   1.00000000000000     
   1.00000000000000     
   1.00000000000000     
   1.00000000000000     
   1.00000000000000     
   1.00000000000000     
   1.00000000000000     
   1.00000000000000     
   1.00000000000000     
   1.00000000000000     
   1.00000000000000     
   1.00000000000000     
   1.00000000000000     
   1.00000000000000     
   1.00000000000000     
   1.00000000000000     
   1.00000000000000     
   1.00000000000000     
   1.00000000000000     
   1.00000000000000     
   1.00000000000000     
   1.00000000000000     
   1.00000000000000     
   1.00000000000000     
   1.00000000000000     
   1.00000000000000     
   1.00000000000000     
   1.00000000000000     
   1.00000000000000     
   1.00000000000000     
   1.00000000000000     
   1.00000000000000     
   1.00000000000000     
   1.00000000000000     
   1.00000000000000     
   1.00000000000000     
  0.000000000000000E+000
  0.000000000000000E+000
  0.000000000000000E+000
  0.000000000000000E+000
  0.000000000000000E+000
  0.000000000000000E+000
  0.000000000000000E+000
  0.000000000000000E+000
  0.000000000000000E+000
  0.000000000000000E+000
  0.000000000000000E+000
  0.000000000000000E+000
  0.000000000000000E+000
  0.000000000000000E+000
  0.000000000000000E+000
  0.000000000000000E+000
  0.000000000000000E+000
  0.000000000000000E+000
  0.000000000000000E+000
  0.000000000000000E+000
  0.000000000000000E+000
  0.000000000000000E+000
  0.000000000000000E+000
  0.000000000000000E+000
   1.00000000000000     
   1.00000000000000     
   1.00000000000000     
   1.00000000000000     
   1.00000000000000     
   1.00000000000000     
   1.00000000000000     
   1.00000000000000     
   1.00000000000000     
   1.00000000000000     
   1.00000000000000     
   1.00000000000000     
   1.00000000000000     
   1.00000000000000     
   1.00000000000000     
   1.00000000000000     
   1.00000000000000     
   1.00000000000000     
   1.00000000000000     
   1.00000000000000     
   1.00000000000000     
   1.00000000000000     
   1.00000000000000     
   1.00000000000000     
   1.00000000000000     
   1.00000000000000     
   1.00000000000000     
   1.00000000000000     
   1.00000000000000     
   1.00000000000000     
   1.00000000000000     
   1.00000000000000     
   1.00000000000000     
   1.00000000000000     
   1.00000000000000     
   1.00000000000000     
   1.00000000000000     
   1.00000000000000     
   1.00000000000000     
   1.00000000000000     
   1.00000000000000     
   1.00000000000000     
   1.00000000000000     
   1.00000000000000     
   1.00000000000000     
   1.00000000000000     
   1.00000000000000     
   1.00000000000000     
   1.00000000000000     
   1.00000000000000     
   1.00000000000000     
   1.00000000000000     
   1.00000000000000     
   1.00000000000000     
   1.00000000000000     
   1.00000000000000     
   1.00000000000000     
   1.00000000000000     
   1.00000000000000     
   1.00000000000000     
   1.00000000000000     
   1.00000000000000     
   1.00000000000000     
   1.00000000000000     
   1.00000000000000     
   1.00000000000000     
   1.00000000000000     
   1.00000000000000     
   1.00000000000000     
   1.00000000000000     
   1.00000000000000     
   1.00000000000000     
   1.00000000000000     
   1.00000000000000     
   1.00000000000000     
   1.00000000000000     
  0.000000000000000E+000
  0.000000000000000E+000
  0.000000000000000E+000
  0.000000000000000E+000
  0.000000000000000E+000
  0.000000000000000E+000
  0.000000000000000E+000
  0.000000000000000E+000
  0.000000000000000E+000
  0.000000000000000E+000
  0.000000000000000E+000
  0.000000000000000E+000
  0.000000000000000E+000
  0.000000000000000E+000
  0.000000000000000E+000
  0.000000000000000E+000
  0.000000000000000E+000
  0.000000000000000E+000
  0.000000000000000E+000
  0.000000000000000E+000
  0.000000000000000E+000
  0.000000000000000E+000
  0.000000000000000E+000
  0.000000000000000E+000
   1.00000000000000     
   1.00000000000000     
   1.00000000000000     
   1.00000000000000     
   1.00000000000000     
   1.00000000000000     
   1.00000000000000     
   1.00000000000000     
   1.00000000000000     
   1.00000000000000     
   1.00000000000000     
   1.00000000000000     
   1.00000000000000     
   1.00000000000000     
   1.00000000000000     
   1.00000000000000     
   1.00000000000000     
   1.00000000000000     
   1.00000000000000     
   1.00000000000000     
   1.00000000000000     
   1.00000000000000     
   1.00000000000000     
   1.00000000000000     
   1.00000000000000     
   1.00000000000000     
   1.00000000000000     
   1.00000000000000     
   1.00000000000000     
   1.00000000000000     
   1.00000000000000     
   1.00000000000000     
   1.00000000000000     
   1.00000000000000     
   1.00000000000000     
   1.00000000000000     
   1.00000000000000     
   1.00000000000000     
   1.00000000000000     
   1.00000000000000     
   1.00000000000000     
   1.00000000000000     
   1.00000000000000     
   1.00000000000000     
   1.00000000000000     
   1.00000000000000     
   1.00000000000000     
   1.00000000000000     
   1.00000000000000     
   1.00000000000000     
   1.00000000000000     
   1.00000000000000     
   1.00000000000000     
   1.00000000000000     
   1.00000000000000     
   1.00000000000000     
   1.00000000000000     
   1.00000000000000     
   1.00000000000000     
   1.00000000000000     
   1.00000000000000     
   1.00000000000000     
   1.00000000000000     
   1.00000000000000     
   1.00000000000000     
   1.00000000000000     
   1.00000000000000     
   1.00000000000000     
   1.00000000000000     
   1.00000000000000     
   1.00000000000000     
   1.00000000000000     
   1.00000000000000     
   1.00000000000000     
   1.00000000000000     
   1.00000000000000     
  0.000000000000000E+000
  0.000000000000000E+000
  0.000000000000000E+000
  0.000000000000000E+000
  0.000000000000000E+000
  0.000000000000000E+000
  0.000000000000000E+000
  0.000000000000000E+000
  0.000000000000000E+000
  0.000000000000000E+000
  0.000000000000000E+000
  0.000000000000000E+000
  0.000000000000000E+000
  0.000000000000000E+000
  0.000000000000000E+000
  0.000000000000000E+000
  0.000000000000000E+000
  0.000000000000000E+000
  0.000000000000000E+000
  0.000000000000000E+000
  0.000000000000000E+000
  0.000000000000000E+000
  0.000000000000000E+000
  0.000000000000000E+000
   1.00000000000000     
   1.00000000000000     
   1.00000000000000     
   1.00000000000000     
   1.00000000000000     
   1.00000000000000     
   1.00000000000000     
   1.00000000000000     
   1.00000000000000     
   1.00000000000000     
   1.00000000000000     
   1.00000000000000     
   1.00000000000000     
   1.00000000000000     
   1.00000000000000     
   1.00000000000000     
   1.00000000000000     
   1.00000000000000     
   1.00000000000000     
   1.00000000000000     
   1.00000000000000     
   1.00000000000000     
   1.00000000000000     
   1.00000000000000     
   1.00000000000000     
   1.00000000000000     
   1.00000000000000     
   1.00000000000000     
   1.00000000000000     
   1.00000000000000     
   1.00000000000000     
   1.00000000000000     
   1.00000000000000     
   1.00000000000000     
   1.00000000000000     
   1.00000000000000     
   1.00000000000000     
   1.00000000000000     
   1.00000000000000     
   1.00000000000000     
   1.00000000000000     
   1.00000000000000     
   1.00000000000000     
   1.00000000000000     
   1.00000000000000     
   1.00000000000000     
   1.00000000000000     
   1.00000000000000     
   1.00000000000000     
   1.00000000000000     
   1.00000000000000     
   1.00000000000000     
   1.00000000000000     
   1.00000000000000     
   1.00000000000000     
   1.00000000000000     
   1.00000000000000     
   1.00000000000000     
   1.00000000000000     
   1.00000000000000     
   1.00000000000000     
   1.00000000000000     
   1.00000000000000     
   1.00000000000000     
   1.00000000000000     
   1.00000000000000     
   1.00000000000000     
   1.00000000000000     
   1.00000000000000     
   1.00000000000000     
   1.00000000000000     
   1.00000000000000     
   1.00000000000000     
   1.00000000000000     
   1.00000000000000     
   1.00000000000000     
  0.000000000000000E+000
  0.000000000000000E+000
  0.000000000000000E+000
  0.000000000000000E+000
  0.000000000000000E+000
  0.000000000000000E+000
  0.000000000000000E+000
  0.000000000000000E+000
  0.000000000000000E+000
  0.000000000000000E+000
  0.000000000000000E+000
  0.000000000000000E+000
  0.000000000000000E+000
  0.000000000000000E+000
  0.000000000000000E+000
  0.000000000000000E+000
  0.000000000000000E+000
  0.000000000000000E+000
  0.000000000000000E+000
  0.000000000000000E+000
  0.000000000000000E+000
  0.000000000000000E+000
  0.000000000000000E+000
  0.000000000000000E+000
   1.00000000000000     
   1.00000000000000     
   1.00000000000000     
   1.00000000000000     
   1.00000000000000     
   1.00000000000000     
   1.00000000000000     
   1.00000000000000     
   1.00000000000000     
   1.00000000000000     
   1.00000000000000     
   1.00000000000000     
   1.00000000000000     
   1.00000000000000     
   1.00000000000000     
   1.00000000000000     
   1.00000000000000     
   1.00000000000000     
   1.00000000000000     
   1.00000000000000     
   1.00000000000000     
   1.00000000000000     
   1.00000000000000     
   1.00000000000000     
   1.00000000000000     
   1.00000000000000     
   1.00000000000000     
   1.00000000000000     
   1.00000000000000     
   1.00000000000000     
   1.00000000000000     
   1.00000000000000     
   1.00000000000000     
   1.00000000000000     
   1.00000000000000     
   1.00000000000000     
   1.00000000000000     
   1.00000000000000     
   1.00000000000000     
   1.00000000000000     
   1.00000000000000     
   1.00000000000000     
   1.00000000000000     
   1.00000000000000     
   1.00000000000000     
   1.00000000000000     
   1.00000000000000     
   1.00000000000000     
   1.00000000000000     
   1.00000000000000     
   1.00000000000000     
   1.00000000000000     
   1.00000000000000     
   1.00000000000000     
   1.00000000000000     
   1.00000000000000     
   1.00000000000000     
   1.00000000000000     
   1.00000000000000     
   1.00000000000000     
   1.00000000000000     
   1.00000000000000     
   1.00000000000000     
   1.00000000000000     
   1.00000000000000     
   1.00000000000000     
   1.00000000000000     
   1.00000000000000     
   1.00000000000000     
   1.00000000000000     
   1.00000000000000     
   1.00000000000000     
   1.00000000000000     
   1.00000000000000     
   1.00000000000000     
   1.00000000000000     
  0.000000000000000E+000
  0.000000000000000E+000
  0.000000000000000E+000
  0.000000000000000E+000
  0.000000000000000E+000
  0.000000000000000E+000
  0.000000000000000E+000
  0.000000000000000E+000
  0.000000000000000E+000
  0.000000000000000E+000
  0.000000000000000E+000
  0.000000000000000E+000
  0.000000000000000E+000
  0.000000000000000E+000
  0.000000000000000E+000
  0.000000000000000E+000
  0.000000000000000E+000
  0.000000000000000E+000
  0.000000000000000E+000
  0.000000000000000E+000
  0.000000000000000E+000
  0.000000000000000E+000
  0.000000000000000E+000
  0.000000000000000E+000
   1.00000000000000     
   1.00000000000000     
   1.00000000000000     
   1.00000000000000     
   1.00000000000000     
   1.00000000000000     
   1.00000000000000     
   1.00000000000000     
   1.00000000000000     
   1.00000000000000     
   1.00000000000000     
   1.00000000000000     
   1.00000000000000     
   1.00000000000000     
   1.00000000000000     
   1.00000000000000     
   1.00000000000000     
   1.00000000000000     
   1.00000000000000     
   1.00000000000000     
   1.00000000000000     
   1.00000000000000     
   1.00000000000000     
   1.00000000000000     
   1.00000000000000     
   1.00000000000000     
   1.00000000000000     
   1.00000000000000     
   1.00000000000000     
   1.00000000000000     
   1.00000000000000     
   1.00000000000000     
   1.00000000000000     
   1.00000000000000     
   1.00000000000000     
   1.00000000000000     
   1.00000000000000     
   1.00000000000000     
   1.00000000000000     
   1.00000000000000     
   1.00000000000000     
   1.00000000000000     
   1.00000000000000     
   1.00000000000000     
   1.00000000000000     
   1.00000000000000     
   1.00000000000000     
   1.00000000000000     
   1.00000000000000     
   1.00000000000000     
   1.00000000000000     
   1.00000000000000     
   1.00000000000000     
   1.00000000000000     
   1.00000000000000     
   1.00000000000000     
   1.00000000000000     
   1.00000000000000     
   1.00000000000000     
   1.00000000000000     
   1.00000000000000     
   1.00000000000000     
   1.00000000000000     
   1.00000000000000     
   1.00000000000000     
   1.00000000000000     
   1.00000000000000     
   1.00000000000000     
   1.00000000000000     
   1.00000000000000     
   1.00000000000000     
   1.00000000000000     
   1.00000000000000     
   1.00000000000000     
   1.00000000000000     
   1.00000000000000     
  0.000000000000000E+000
  0.000000000000000E+000
  0.000000000000000E+000
  0.000000000000000E+000
  0.000000000000000E+000
  0.000000000000000E+000
  0.000000000000000E+000
  0.000000000000000E+000
  0.000000000000000E+000
  0.000000000000000E+000
  0.000000000000000E+000
  0.000000000000000E+000
  0.000000000000000E+000
  0.000000000000000E+000
  0.000000000000000E+000
  0.000000000000000E+000
  0.000000000000000E+000
  0.000000000000000E+000
  0.000000000000000E+000
  0.000000000000000E+000
  0.000000000000000E+000
  0.000000000000000E+000
  0.000000000000000E+000
  0.000000000000000E+000
   1.00000000000000     
   1.00000000000000     
   1.00000000000000     
   1.00000000000000     
   1.00000000000000     
   1.00000000000000     
   1.00000000000000     
   1.00000000000000     
   1.00000000000000     
   1.00000000000000     
   1.00000000000000     
   1.00000000000000     
   1.00000000000000     
   1.00000000000000     
   1.00000000000000     
   1.00000000000000     
   1.00000000000000     
   1.00000000000000     
   1.00000000000000     
   1.00000000000000     
   1.00000000000000     
   1.00000000000000     
   1.00000000000000     
   1.00000000000000     
   1.00000000000000     
   1.00000000000000     
   1.00000000000000     
   1.00000000000000     
   1.00000000000000     
   1.00000000000000     
   1.00000000000000     
   1.00000000000000     
   1.00000000000000     
   1.00000000000000     
   1.00000000000000     
   1.00000000000000     
   1.00000000000000     
   1.00000000000000     
   1.00000000000000     
   1.00000000000000     
   1.00000000000000     
   1.00000000000000     
   1.00000000000000     
   1.00000000000000     
   1.00000000000000     
   1.00000000000000     
   1.00000000000000     
   1.00000000000000     
   1.00000000000000     
   1.00000000000000     
   1.00000000000000     
   1.00000000000000     
   1.00000000000000     
   1.00000000000000     
   1.00000000000000     
   1.00000000000000     
   1.00000000000000     
   1.00000000000000     
   1.00000000000000     
   1.00000000000000     
   1.00000000000000     
   1.00000000000000     
   1.00000000000000     
   1.00000000000000     
   1.00000000000000     
   1.00000000000000     
   1.00000000000000     
   1.00000000000000     
   1.00000000000000     
   1.00000000000000     
   1.00000000000000     
   1.00000000000000     
   1.00000000000000     
   1.00000000000000     
   1.00000000000000     
   1.00000000000000     
  0.000000000000000E+000
  0.000000000000000E+000
  0.000000000000000E+000
  0.000000000000000E+000
  0.000000000000000E+000
  0.000000000000000E+000
  0.000000000000000E+000
  0.000000000000000E+000
  0.000000000000000E+000
  0.000000000000000E+000
  0.000000000000000E+000
  0.000000000000000E+000
  0.000000000000000E+000
  0.000000000000000E+000
  0.000000000000000E+000
  0.000000000000000E+000
  0.000000000000000E+000
  0.000000000000000E+000
  0.000000000000000E+000
  0.000000000000000E+000
  0.000000000000000E+000
  0.000000000000000E+000
  0.000000000000000E+000
  0.000000000000000E+000
   1.00000000000000     
   1.00000000000000     
   1.00000000000000     
   1.00000000000000     
   1.00000000000000     
   1.00000000000000     
   1.00000000000000     
   1.00000000000000     
   1.00000000000000     
   1.00000000000000     
   1.00000000000000     
   1.00000000000000     
   1.00000000000000     
   1.00000000000000     
   1.00000000000000     
   1.00000000000000     
   1.00000000000000     
   1.00000000000000     
   1.00000000000000     
   1.00000000000000     
   1.00000000000000     
   1.00000000000000     
   1.00000000000000     
   1.00000000000000     
   1.00000000000000     
   1.00000000000000     
   1.00000000000000     
   1.00000000000000     
   1.00000000000000     
   1.00000000000000     
   1.00000000000000     
   1.00000000000000     
   1.00000000000000     
   1.00000000000000     
   1.00000000000000     
   1.00000000000000     
   1.00000000000000     
   1.00000000000000     
   1.00000000000000     
   1.00000000000000     
   1.00000000000000     
   1.00000000000000     
   1.00000000000000     
   1.00000000000000     
   1.00000000000000     
   1.00000000000000     
   1.00000000000000     
   1.00000000000000     
   1.00000000000000     
   1.00000000000000     
   1.00000000000000     
   1.00000000000000     
   1.00000000000000     
   1.00000000000000     
   1.00000000000000     
   1.00000000000000     
   1.00000000000000     
   1.00000000000000     
   1.00000000000000     
   1.00000000000000     
   1.00000000000000     
   1.00000000000000     
   1.00000000000000     
   1.00000000000000     
   1.00000000000000     
   1.00000000000000     
   1.00000000000000     
   1.00000000000000     
   1.00000000000000     
   1.00000000000000     
   1.00000000000000     
   1.00000000000000     
   1.00000000000000     
   1.00000000000000     
   1.00000000000000     
   1.00000000000000     
  0.000000000000000E+000
  0.000000000000000E+000
  0.000000000000000E+000
  0.000000000000000E+000
  0.000000000000000E+000
  0.000000000000000E+000
  0.000000000000000E+000
  0.000000000000000E+000
  0.000000000000000E+000
  0.000000000000000E+000
  0.000000000000000E+000
  0.000000000000000E+000
  0.000000000000000E+000
  0.000000000000000E+000
  0.000000000000000E+000
  0.000000000000000E+000
  0.000000000000000E+000
  0.000000000000000E+000
  0.000000000000000E+000
  0.000000000000000E+000
  0.000000000000000E+000
  0.000000000000000E+000
  0.000000000000000E+000
  0.000000000000000E+000
   1.00000000000000     
   1.00000000000000     
   1.00000000000000     
   1.00000000000000     
   1.00000000000000     
   1.00000000000000     
   1.00000000000000     
   1.00000000000000     
   1.00000000000000     
   1.00000000000000     
   1.00000000000000     
   1.00000000000000     
   1.00000000000000     
   1.00000000000000     
   1.00000000000000     
   1.00000000000000     
   1.00000000000000     
   1.00000000000000     
   1.00000000000000     
   1.00000000000000     
   1.00000000000000     
   1.00000000000000     
   1.00000000000000     
   1.00000000000000     
   1.00000000000000     
   1.00000000000000     
   1.00000000000000     
   1.00000000000000     
   1.00000000000000     
   1.00000000000000     
   1.00000000000000     
   1.00000000000000     
   1.00000000000000     
   1.00000000000000     
   1.00000000000000     
   1.00000000000000     
   1.00000000000000     
   1.00000000000000     
   1.00000000000000     
   1.00000000000000     
   1.00000000000000     
   1.00000000000000     
   1.00000000000000     
   1.00000000000000     
   1.00000000000000     
   1.00000000000000     
   1.00000000000000     
   1.00000000000000     
   1.00000000000000     
   1.00000000000000     
   1.00000000000000     
   1.00000000000000     
   1.00000000000000     
   1.00000000000000     
   1.00000000000000     
   1.00000000000000     
   1.00000000000000     
   1.00000000000000     
   1.00000000000000     
   1.00000000000000     
   1.00000000000000     
   1.00000000000000     
   1.00000000000000     
   1.00000000000000     
   1.00000000000000     
   1.00000000000000     
   1.00000000000000     
   1.00000000000000     
   1.00000000000000     
   1.00000000000000     
   1.00000000000000     
   1.00000000000000     
   1.00000000000000     
   1.00000000000000     
   1.00000000000000     
   1.00000000000000     
  0.000000000000000E+000
  0.000000000000000E+000
  0.000000000000000E+000
  0.000000000000000E+000
  0.000000000000000E+000
  0.000000000000000E+000
  0.000000000000000E+000
  0.000000000000000E+000
  0.000000000000000E+000
  0.000000000000000E+000
  0.000000000000000E+000
  0.000000000000000E+000
  0.000000000000000E+000
  0.000000000000000E+000
  0.000000000000000E+000
  0.000000000000000E+000
  0.000000000000000E+000
  0.000000000000000E+000
  0.000000000000000E+000
  0.000000000000000E+000
  0.000000000000000E+000
  0.000000000000000E+000
  0.000000000000000E+000
   1.00000000000000     
   1.00000000000000     
   1.00000000000000     
   1.00000000000000     
   1.00000000000000     
   1.00000000000000     
   1.00000000000000     
   1.00000000000000     
   1.00000000000000     
   1.00000000000000     
   1.00000000000000     
   1.00000000000000     
   1.00000000000000     
   1.00000000000000     
   1.00000000000000     
   1.00000000000000     
   1.00000000000000     
   1.00000000000000     
   1.00000000000000     
   1.00000000000000     
   1.00000000000000     
   1.00000000000000     
   1.00000000000000     
   1.00000000000000     
   1.00000000000000     
   1.00000000000000     
   1.00000000000000     
   1.00000000000000     
   1.00000000000000     
   1.00000000000000     
   1.00000000000000     
   1.00000000000000     
   1.00000000000000     
   1.00000000000000     
   1.00000000000000     
   1.00000000000000     
   1.00000000000000     
   1.00000000000000     
   1.00000000000000     
   1.00000000000000     
   1.00000000000000     
   1.00000000000000     
   1.00000000000000     
   1.00000000000000     
   1.00000000000000     
   1.00000000000000     
   1.00000000000000     
   1.00000000000000     
   1.00000000000000     
   1.00000000000000     
   1.00000000000000     
   1.00000000000000     
   1.00000000000000     
   1.00000000000000     
   1.00000000000000     
   1.00000000000000     
   1.00000000000000     
   1.00000000000000     
   1.00000000000000     
   1.00000000000000     
   1.00000000000000     
   1.00000000000000     
   1.00000000000000     
   1.00000000000000     
   1.00000000000000     
   1.00000000000000     
   1.00000000000000     
   1.00000000000000     
   1.00000000000000     
   1.00000000000000     
   1.00000000000000     
   1.00000000000000     
   1.00000000000000     
   1.00000000000000     
   1.00000000000000     
   1.00000000000000     
   1.00000000000000     
  0.000000000000000E+000
  0.000000000000000E+000
  0.000000000000000E+000
  0.000000000000000E+000
  0.000000000000000E+000
  0.000000000000000E+000
  0.000000000000000E+000
  0.000000000000000E+000
  0.000000000000000E+000
  0.000000000000000E+000
  0.000000000000000E+000
  0.000000000000000E+000
  0.000000000000000E+000
  0.000000000000000E+000
  0.000000000000000E+000
  0.000000000000000E+000
  0.000000000000000E+000
  0.000000000000000E+000
  0.000000000000000E+000
  0.000000000000000E+000
  0.000000000000000E+000
  0.000000000000000E+000
  0.000000000000000E+000
   1.00000000000000     
   1.00000000000000     
   1.00000000000000     
   1.00000000000000     
   1.00000000000000     
   1.00000000000000     
   1.00000000000000     
   1.00000000000000     
   1.00000000000000     
   1.00000000000000     
   1.00000000000000     
   1.00000000000000     
   1.00000000000000     
   1.00000000000000     
   1.00000000000000     
   1.00000000000000     
   1.00000000000000     
   1.00000000000000     
   1.00000000000000     
   1.00000000000000     
   1.00000000000000     
   1.00000000000000     
   1.00000000000000     
   1.00000000000000     
   1.00000000000000     
   1.00000000000000     
   1.00000000000000     
   1.00000000000000     
   1.00000000000000     
   1.00000000000000     
   1.00000000000000     
   1.00000000000000     
   1.00000000000000     
   1.00000000000000     
   1.00000000000000     
   1.00000000000000     
   1.00000000000000     
   1.00000000000000     
   1.00000000000000     
   1.00000000000000     
   1.00000000000000     
   1.00000000000000     
   1.00000000000000     
   1.00000000000000     
   1.00000000000000     
   1.00000000000000     
   1.00000000000000     
   1.00000000000000     
   1.00000000000000     
   1.00000000000000     
   1.00000000000000     
   1.00000000000000     
   1.00000000000000     
   1.00000000000000     
   1.00000000000000     
   1.00000000000000     
   1.00000000000000     
   1.00000000000000     
   1.00000000000000     
   1.00000000000000     
   1.00000000000000     
   1.00000000000000     
   1.00000000000000     
   1.00000000000000     
   1.00000000000000     
   1.00000000000000     
   1.00000000000000     
   1.00000000000000     
   1.00000000000000     
   1.00000000000000     
   1.00000000000000     
   1.00000000000000     
   1.00000000000000     
   1.00000000000000     
   1.00000000000000     
   1.00000000000000     
   1.00000000000000     
  0.000000000000000E+000
  0.000000000000000E+000
  0.000000000000000E+000
  0.000000000000000E+000
  0.000000000000000E+000
  0.000000000000000E+000
  0.000000000000000E+000
  0.000000000000000E+000
  0.000000000000000E+000
  0.000000000000000E+000
  0.000000000000000E+000
  0.000000000000000E+000
  0.000000000000000E+000
  0.000000000000000E+000
  0.000000000000000E+000
  0.000000000000000E+000
  0.000000000000000E+000
  0.000000000000000E+000
  0.000000000000000E+000
  0.000000000000000E+000
  0.000000000000000E+000
  0.000000000000000E+000
  0.000000000000000E+000
   1.00000000000000     
   1.00000000000000     
   1.00000000000000     
   1.00000000000000     
   1.00000000000000     
   1.00000000000000     
   1.00000000000000     
   1.00000000000000     
   1.00000000000000     
   1.00000000000000     
   1.00000000000000     
   1.00000000000000     
   1.00000000000000     
   1.00000000000000     
   1.00000000000000     
   1.00000000000000     
   1.00000000000000     
   1.00000000000000     
   1.00000000000000     
   1.00000000000000     
   1.00000000000000     
   1.00000000000000     
   1.00000000000000     
   1.00000000000000     
   1.00000000000000     
   1.00000000000000     
   1.00000000000000     
   1.00000000000000     
   1.00000000000000     
   1.00000000000000     
   1.00000000000000     
   1.00000000000000     
   1.00000000000000     
   1.00000000000000     
   1.00000000000000     
   1.00000000000000     
   1.00000000000000     
   1.00000000000000     
   1.00000000000000     
   1.00000000000000     
   1.00000000000000     
   1.00000000000000     
   1.00000000000000     
   1.00000000000000     
   1.00000000000000     
   1.00000000000000     
   1.00000000000000     
   1.00000000000000     
   1.00000000000000     
   1.00000000000000     
   1.00000000000000     
   1.00000000000000     
   1.00000000000000     
   1.00000000000000     
   1.00000000000000     
   1.00000000000000     
   1.00000000000000     
   1.00000000000000     
   1.00000000000000     
   1.00000000000000     
   1.00000000000000     
   1.00000000000000     
   1.00000000000000     
   1.00000000000000     
   1.00000000000000     
   1.00000000000000     
   1.00000000000000     
   1.00000000000000     
   1.00000000000000     
   1.00000000000000     
   1.00000000000000     
   1.00000000000000     
   1.00000000000000     
   1.00000000000000     
   1.00000000000000     
   1.00000000000000     
   1.00000000000000     
  0.000000000000000E+000
  0.000000000000000E+000
  0.000000000000000E+000
  0.000000000000000E+000
  0.000000000000000E+000
  0.000000000000000E+000
  0.000000000000000E+000
  0.000000000000000E+000
  0.000000000000000E+000
  0.000000000000000E+000
  0.000000000000000E+000
  0.000000000000000E+000
  0.000000000000000E+000
  0.000000000000000E+000
  0.000000000000000E+000
  0.000000000000000E+000
  0.000000000000000E+000
  0.000000000000000E+000
  0.000000000000000E+000
  0.000000000000000E+000
  0.000000000000000E+000
  0.000000000000000E+000
  0.000000000000000E+000
   1.00000000000000     
   1.00000000000000     
   1.00000000000000     
   1.00000000000000     
   1.00000000000000     
   1.00000000000000     
   1.00000000000000     
   1.00000000000000     
   1.00000000000000     
   1.00000000000000     
   1.00000000000000     
   1.00000000000000     
   1.00000000000000     
   1.00000000000000     
   1.00000000000000     
   1.00000000000000     
   1.00000000000000     
   1.00000000000000     
   1.00000000000000     
   1.00000000000000     
   1.00000000000000     
   1.00000000000000     
   1.00000000000000     
   1.00000000000000     
   1.00000000000000     
   1.00000000000000     
   1.00000000000000     
   1.00000000000000     
   1.00000000000000     
   1.00000000000000     
   1.00000000000000     
   1.00000000000000     
   1.00000000000000     
   1.00000000000000     
   1.00000000000000     
   1.00000000000000     
   1.00000000000000     
   1.00000000000000     
   1.00000000000000     
   1.00000000000000     
   1.00000000000000     
   1.00000000000000     
   1.00000000000000     
   1.00000000000000     
   1.00000000000000     
   1.00000000000000     
   1.00000000000000     
   1.00000000000000     
   1.00000000000000     
   1.00000000000000     
   1.00000000000000     
   1.00000000000000     
   1.00000000000000     
   1.00000000000000     
   1.00000000000000     
   1.00000000000000     
   1.00000000000000     
   1.00000000000000     
   1.00000000000000     
   1.00000000000000     
   1.00000000000000     
   1.00000000000000     
   1.00000000000000     
   1.00000000000000     
   1.00000000000000     
   1.00000000000000     
   1.00000000000000     
   1.00000000000000     
   1.00000000000000     
   1.00000000000000     
   1.00000000000000     
   1.00000000000000     
   1.00000000000000     
   1.00000000000000     
   1.00000000000000     
   1.00000000000000     
   1.00000000000000     
  0.000000000000000E+000
  0.000000000000000E+000
  0.000000000000000E+000
  0.000000000000000E+000
  0.000000000000000E+000
  0.000000000000000E+000
  0.000000000000000E+000
  0.000000000000000E+000
  0.000000000000000E+000
  0.000000000000000E+000
  0.000000000000000E+000
  0.000000000000000E+000
  0.000000000000000E+000
  0.000000000000000E+000
  0.000000000000000E+000
  0.000000000000000E+000
  0.000000000000000E+000
  0.000000000000000E+000
  0.000000000000000E+000
  0.000000000000000E+000
  0.000000000000000E+000
  0.000000000000000E+000
  0.000000000000000E+000
   1.00000000000000     
   1.00000000000000     
   1.00000000000000     
   1.00000000000000     
   1.00000000000000     
   1.00000000000000     
   1.00000000000000     
   1.00000000000000     
   1.00000000000000     
   1.00000000000000     
   1.00000000000000     
   1.00000000000000     
   1.00000000000000     
   1.00000000000000     
   1.00000000000000     
   1.00000000000000     
   1.00000000000000     
   1.00000000000000     
   1.00000000000000     
   1.00000000000000     
   1.00000000000000     
   1.00000000000000     
   1.00000000000000     
   1.00000000000000     
   1.00000000000000     
   1.00000000000000     
   1.00000000000000     
   1.00000000000000     
   1.00000000000000     
   1.00000000000000     
   1.00000000000000     
   1.00000000000000     
   1.00000000000000     
   1.00000000000000     
   1.00000000000000     
   1.00000000000000     
   1.00000000000000     
   1.00000000000000     
   1.00000000000000     
   1.00000000000000     
   1.00000000000000     
   1.00000000000000     
   1.00000000000000     
   1.00000000000000     
   1.00000000000000     
   1.00000000000000     
   1.00000000000000     
   1.00000000000000     
   1.00000000000000     
   1.00000000000000     
   1.00000000000000     
   1.00000000000000     
   1.00000000000000     
   1.00000000000000     
   1.00000000000000     
   1.00000000000000     
   1.00000000000000     
   1.00000000000000     
   1.00000000000000     
   1.00000000000000     
   1.00000000000000     
   1.00000000000000     
   1.00000000000000     
   1.00000000000000     
   1.00000000000000     
   1.00000000000000     
   1.00000000000000     
   1.00000000000000     
   1.00000000000000     
   1.00000000000000     
   1.00000000000000     
   1.00000000000000     
   1.00000000000000     
   1.00000000000000     
   1.00000000000000     
   1.00000000000000     
   1.00000000000000     
  0.000000000000000E+000
  0.000000000000000E+000
  0.000000000000000E+000
  0.000000000000000E+000
  0.000000000000000E+000
  0.000000000000000E+000
  0.000000000000000E+000
  0.000000000000000E+000
  0.000000000000000E+000
  0.000000000000000E+000
  0.000000000000000E+000
  0.000000000000000E+000
  0.000000000000000E+000
  0.000000000000000E+000
  0.000000000000000E+000
  0.000000000000000E+000
  0.000000000000000E+000
  0.000000000000000E+000
  0.000000000000000E+000
  0.000000000000000E+000
  0.000000000000000E+000
  0.000000000000000E+000
  0.000000000000000E+000
   1.00000000000000     
   1.00000000000000     
   1.00000000000000     
   1.00000000000000     
   1.00000000000000     
   1.00000000000000     
   1.00000000000000     
   1.00000000000000     
   1.00000000000000     
   1.00000000000000     
   1.00000000000000     
   1.00000000000000     
   1.00000000000000     
   1.00000000000000     
   1.00000000000000     
   1.00000000000000     
   1.00000000000000     
   1.00000000000000     
   1.00000000000000     
   1.00000000000000     
   1.00000000000000     
   1.00000000000000     
   1.00000000000000     
   1.00000000000000     
   1.00000000000000     
   1.00000000000000     
   1.00000000000000     
   1.00000000000000     
   1.00000000000000     
   1.00000000000000     
   1.00000000000000     
   1.00000000000000     
   1.00000000000000     
   1.00000000000000     
   1.00000000000000     
   1.00000000000000     
   1.00000000000000     
   1.00000000000000     
   1.00000000000000     
   1.00000000000000     
   1.00000000000000     
   1.00000000000000     
   1.00000000000000     
   1.00000000000000     
   1.00000000000000     
   1.00000000000000     
   1.00000000000000     
   1.00000000000000     
   1.00000000000000     
   1.00000000000000     
   1.00000000000000     
   1.00000000000000     
   1.00000000000000     
   1.00000000000000     
   1.00000000000000     
   1.00000000000000     
   1.00000000000000     
   1.00000000000000     
   1.00000000000000     
   1.00000000000000     
   1.00000000000000     
   1.00000000000000     
   1.00000000000000     
   1.00000000000000     
   1.00000000000000     
   1.00000000000000     
   1.00000000000000     
   1.00000000000000     
   1.00000000000000     
   1.00000000000000     
   1.00000000000000     
   1.00000000000000     
   1.00000000000000     
   1.00000000000000     
   1.00000000000000     
   1.00000000000000     
   1.00000000000000     
  0.000000000000000E+000
  0.000000000000000E+000
  0.000000000000000E+000
  0.000000000000000E+000
  0.000000000000000E+000
  0.000000000000000E+000
  0.000000000000000E+000
  0.000000000000000E+000
  0.000000000000000E+000
  0.000000000000000E+000
  0.000000000000000E+000
  0.000000000000000E+000
  0.000000000000000E+000
  0.000000000000000E+000
  0.000000000000000E+000
  0.000000000000000E+000
  0.000000000000000E+000
  0.000000000000000E+000
  0.000000000000000E+000
  0.000000000000000E+000
  0.000000000000000E+000
  0.000000000000000E+000
  0.000000000000000E+000
   1.00000000000000     
   1.00000000000000     
   1.00000000000000     
   1.00000000000000     
   1.00000000000000     
   1.00000000000000     
   1.00000000000000     
   1.00000000000000     
   1.00000000000000     
   1.00000000000000     
   1.00000000000000     
   1.00000000000000     
   1.00000000000000     
   1.00000000000000     
   1.00000000000000     
   1.00000000000000     
   1.00000000000000     
   1.00000000000000     
   1.00000000000000     
   1.00000000000000     
   1.00000000000000     
   1.00000000000000     
   1.00000000000000     
   1.00000000000000     
   1.00000000000000     
   1.00000000000000     
   1.00000000000000     
   1.00000000000000     
   1.00000000000000     
   1.00000000000000     
   1.00000000000000     
   1.00000000000000     
   1.00000000000000     
   1.00000000000000     
   1.00000000000000     
   1.00000000000000     
   1.00000000000000     
   1.00000000000000     
   1.00000000000000     
   1.00000000000000     
   1.00000000000000     
   1.00000000000000     
   1.00000000000000     
   1.00000000000000     
   1.00000000000000     
   1.00000000000000     
   1.00000000000000     
   1.00000000000000     
   1.00000000000000     
   1.00000000000000     
   1.00000000000000     
   1.00000000000000     
   1.00000000000000     
   1.00000000000000     
   1.00000000000000     
   1.00000000000000     
   1.00000000000000     
   1.00000000000000     
   1.00000000000000     
   1.00000000000000     
   1.00000000000000     
   1.00000000000000     
   1.00000000000000     
   1.00000000000000     
   1.00000000000000     
   1.00000000000000     
   1.00000000000000     
   1.00000000000000     
   1.00000000000000     
   1.00000000000000     
   1.00000000000000     
   1.00000000000000     
   1.00000000000000     
   1.00000000000000     
   1.00000000000000     
   1.00000000000000     
   1.00000000000000     
  0.000000000000000E+000
  0.000000000000000E+000
  0.000000000000000E+000
  0.000000000000000E+000
  0.000000000000000E+000
  0.000000000000000E+000
  0.000000000000000E+000
  0.000000000000000E+000
  0.000000000000000E+000
  0.000000000000000E+000
  0.000000000000000E+000
  0.000000000000000E+000
  0.000000000000000E+000
  0.000000000000000E+000
  0.000000000000000E+000
  0.000000000000000E+000
  0.000000000000000E+000
  0.000000000000000E+000
  0.000000000000000E+000
  0.000000000000000E+000
  0.000000000000000E+000
  0.000000000000000E+000
  0.000000000000000E+000
   1.00000000000000     
   1.00000000000000     
   1.00000000000000     
   1.00000000000000     
   1.00000000000000     
   1.00000000000000     
   1.00000000000000     
   1.00000000000000     
   1.00000000000000     
   1.00000000000000     
   1.00000000000000     
   1.00000000000000     
   1.00000000000000     
   1.00000000000000     
   1.00000000000000     
   1.00000000000000     
   1.00000000000000     
   1.00000000000000     
   1.00000000000000     
   1.00000000000000     
   1.00000000000000     
   1.00000000000000     
   1.00000000000000     
   1.00000000000000     
   1.00000000000000     
   1.00000000000000     
   1.00000000000000     
   1.00000000000000     
   1.00000000000000     
   1.00000000000000     
   1.00000000000000     
   1.00000000000000     
   1.00000000000000     
   1.00000000000000     
   1.00000000000000     
   1.00000000000000     
   1.00000000000000     
   1.00000000000000     
   1.00000000000000     
   1.00000000000000     
   1.00000000000000     
   1.00000000000000     
   1.00000000000000     
   1.00000000000000     
   1.00000000000000     
   1.00000000000000     
   1.00000000000000     
   1.00000000000000     
   1.00000000000000     
   1.00000000000000     
   1.00000000000000     
   1.00000000000000     
   1.00000000000000     
   1.00000000000000     
   1.00000000000000     
   1.00000000000000     
   1.00000000000000     
   1.00000000000000     
   1.00000000000000     
   1.00000000000000     
   1.00000000000000     
   1.00000000000000     
   1.00000000000000     
   1.00000000000000     
   1.00000000000000     
   1.00000000000000     
   1.00000000000000     
   1.00000000000000     
   1.00000000000000     
   1.00000000000000     
   1.00000000000000     
   1.00000000000000     
   1.00000000000000     
   1.00000000000000     
   1.00000000000000     
   1.00000000000000     
   1.00000000000000     
  0.000000000000000E+000
  0.000000000000000E+000
  0.000000000000000E+000
  0.000000000000000E+000
  0.000000000000000E+000
  0.000000000000000E+000
  0.000000000000000E+000
  0.000000000000000E+000
  0.000000000000000E+000
  0.000000000000000E+000
  0.000000000000000E+000
  0.000000000000000E+000
  0.000000000000000E+000
  0.000000000000000E+000
  0.000000000000000E+000
  0.000000000000000E+000
  0.000000000000000E+000
  0.000000000000000E+000
  0.000000000000000E+000
  0.000000000000000E+000
  0.000000000000000E+000
  0.000000000000000E+000
  0.000000000000000E+000
   1.00000000000000     
   1.00000000000000     
   1.00000000000000     
   1.00000000000000     
   1.00000000000000     
   1.00000000000000     
   1.00000000000000     
   1.00000000000000     
   1.00000000000000     
   1.00000000000000     
   1.00000000000000     
   1.00000000000000     
   1.00000000000000     
   1.00000000000000     
   1.00000000000000     
   1.00000000000000     
   1.00000000000000     
   1.00000000000000     
   1.00000000000000     
   1.00000000000000     
   1.00000000000000     
   1.00000000000000     
   1.00000000000000     
   1.00000000000000     
   1.00000000000000     
   1.00000000000000     
   1.00000000000000     
   1.00000000000000     
   1.00000000000000     
   1.00000000000000     
   1.00000000000000     
   1.00000000000000     
   1.00000000000000     
   1.00000000000000     
   1.00000000000000     
   1.00000000000000     
   1.00000000000000     
   1.00000000000000     
   1.00000000000000     
   1.00000000000000     
   1.00000000000000     
   1.00000000000000     
   1.00000000000000     
   1.00000000000000     
   1.00000000000000     
   1.00000000000000     
   1.00000000000000     
   1.00000000000000     
   1.00000000000000     
   1.00000000000000     
   1.00000000000000     
   1.00000000000000     
   1.00000000000000     
   1.00000000000000     
   1.00000000000000     
   1.00000000000000     
   1.00000000000000     
   1.00000000000000     
   1.00000000000000     
   1.00000000000000     
   1.00000000000000     
   1.00000000000000     
   1.00000000000000     
   1.00000000000000     
   1.00000000000000     
   1.00000000000000     
   1.00000000000000     
   1.00000000000000     
   1.00000000000000     
   1.00000000000000     
   1.00000000000000     
   1.00000000000000     
   1.00000000000000     
   1.00000000000000     
   1.00000000000000     
   1.00000000000000     
   1.00000000000000     
  0.000000000000000E+000
  0.000000000000000E+000
  0.000000000000000E+000
  0.000000000000000E+000
  0.000000000000000E+000
  0.000000000000000E+000
  0.000000000000000E+000
  0.000000000000000E+000
  0.000000000000000E+000
  0.000000000000000E+000
  0.000000000000000E+000
  0.000000000000000E+000
  0.000000000000000E+000
  0.000000000000000E+000
  0.000000000000000E+000
  0.000000000000000E+000
  0.000000000000000E+000
  0.000000000000000E+000
  0.000000000000000E+000
  0.000000000000000E+000
  0.000000000000000E+000
  0.000000000000000E+000
  0.000000000000000E+000
   1.00000000000000     
   1.00000000000000     
   1.00000000000000     
   1.00000000000000     
   1.00000000000000     
   1.00000000000000     
   1.00000000000000     
   1.00000000000000     
   1.00000000000000     
   1.00000000000000     
   1.00000000000000     
   1.00000000000000     
   1.00000000000000     
   1.00000000000000     
   1.00000000000000     
   1.00000000000000     
   1.00000000000000     
   1.00000000000000     
   1.00000000000000     
   1.00000000000000     
   1.00000000000000     
   1.00000000000000     
   1.00000000000000     
   1.00000000000000     
   1.00000000000000     
   1.00000000000000     
   1.00000000000000     
   1.00000000000000     
   1.00000000000000     
   1.00000000000000     
   1.00000000000000     
   1.00000000000000     
   1.00000000000000     
   1.00000000000000     
   1.00000000000000     
   1.00000000000000     
   1.00000000000000     
   1.00000000000000     
   1.00000000000000     
   1.00000000000000     
   1.00000000000000     
   1.00000000000000     
   1.00000000000000     
   1.00000000000000     
   1.00000000000000     
   1.00000000000000     
   1.00000000000000     
   1.00000000000000     
   1.00000000000000     
   1.00000000000000     
   1.00000000000000     
   1.00000000000000     
   1.00000000000000     
   1.00000000000000     
   1.00000000000000     
   1.00000000000000     
   1.00000000000000     
   1.00000000000000     
   1.00000000000000     
   1.00000000000000     
   1.00000000000000     
   1.00000000000000     
   1.00000000000000     
   1.00000000000000     
   1.00000000000000     
   1.00000000000000     
   1.00000000000000     
   1.00000000000000     
   1.00000000000000     
   1.00000000000000     
   1.00000000000000     
   1.00000000000000     
   1.00000000000000     
   1.00000000000000     
   1.00000000000000     
   1.00000000000000     
   1.00000000000000     
  0.000000000000000E+000
  0.000000000000000E+000
  0.000000000000000E+000
  0.000000000000000E+000
  0.000000000000000E+000
  0.000000000000000E+000
  0.000000000000000E+000
  0.000000000000000E+000
  0.000000000000000E+000
  0.000000000000000E+000
  0.000000000000000E+000
  0.000000000000000E+000
  0.000000000000000E+000
  0.000000000000000E+000
  0.000000000000000E+000
  0.000000000000000E+000
  0.000000000000000E+000
  0.000000000000000E+000
  0.000000000000000E+000
  0.000000000000000E+000
  0.000000000000000E+000
  0.000000000000000E+000
  0.000000000000000E+000
   1.00000000000000     
   1.00000000000000     
   1.00000000000000     
   1.00000000000000     
   1.00000000000000     
   1.00000000000000     
   1.00000000000000     
   1.00000000000000     
   1.00000000000000     
   1.00000000000000     
   1.00000000000000     
   1.00000000000000     
   1.00000000000000     
   1.00000000000000     
   1.00000000000000     
   1.00000000000000     
   1.00000000000000     
   1.00000000000000     
   1.00000000000000     
   1.00000000000000     
   1.00000000000000     
   1.00000000000000     
   1.00000000000000     
   1.00000000000000     
   1.00000000000000     
   1.00000000000000     
   1.00000000000000     
   1.00000000000000     
   1.00000000000000     
   1.00000000000000     
   1.00000000000000     
   1.00000000000000     
   1.00000000000000     
   1.00000000000000     
   1.00000000000000     
   1.00000000000000     
   1.00000000000000     
   1.00000000000000     
   1.00000000000000     
   1.00000000000000     
   1.00000000000000     
   1.00000000000000     
   1.00000000000000     
   1.00000000000000     
   1.00000000000000     
   1.00000000000000     
   1.00000000000000     
   1.00000000000000     
   1.00000000000000     
   1.00000000000000     
   1.00000000000000     
   1.00000000000000     
   1.00000000000000     
   1.00000000000000     
   1.00000000000000     
   1.00000000000000     
   1.00000000000000     
   1.00000000000000     
   1.00000000000000     
   1.00000000000000     
   1.00000000000000     
   1.00000000000000     
   1.00000000000000     
   1.00000000000000     
   1.00000000000000     
   1.00000000000000     
   1.00000000000000     
   1.00000000000000     
   1.00000000000000     
   1.00000000000000     
   1.00000000000000     
   1.00000000000000     
   1.00000000000000     
   1.00000000000000     
   1.00000000000000     
   1.00000000000000     
   1.00000000000000     
